NAME: GFS_20_1
TYPE: GFSP
DIMENSION: 90
VEHICLES: 3
CAPACITY: 5000.0
TRIP_DIST_LIMIT: 750000.0
TOTAL_DIST_LIMIT: 1400000.0
EDGE_WEIGHT_TYPE: EXPLICIT
EDGE_WEIGHT_FORMAT: FULL_MATRIX
EDGE_WEIGHT_SECTION
0.0 8263.0 96681.0 96734.0 50999.0 58678.0 70138.0 73694.0 133103.0 141257.0 33542.0 41497.0 122891.0 116432.0 163755.0 163606.0 147551.0 149460.0 187256.0 179306.0 166198.0 165346.0 161493.0 153155.0 194738.0 190291.0 47623.0 39084.0 312526.0 312734.0 43629.0 39426.0 33792.0 36358.0 261123.0 263806.0 77672.0 80247.0 130180.0 125150.0 249695.0 252702.0 99931.0 106597.0 244634.0 246834.0 159351.0 156517.0 46900.0 38746.0 53254.0 49712.0 183940.0 191931.0 12504.0 19957.0 27175.0 24291.0 339510.0 337570.0 105932.0 114059.0 123230.0 126218.0 238759.0 235338.0 212143.0 210170.0 166073.0 164599.0 244673.0 238232.0 18763.0 15993.0 68903.0 73830.0 62922.0 70293.0 157462.0 162385.0 46895.0 183810.0 46895.0 46895.0 46895.0 46895.0 183810.0 183810.0 183810.0 183810.0
8263.0 0.0 95269.0 96016.0 42930.0 50684.0 64386.0 68604.0 135846.0 143946.0 35431.0 43027.0 120053.0 113257.0 167807.0 167449.0 143385.0 144919.0 183443.0 175536.0 167462.0 166225.0 163194.0 154807.0 191175.0 186478.0 39827.0 31327.0 317175.0 317384.0 41342.0 38652.0 27564.0 31558.0 259925.0 262837.0 69918.0 72822.0 131631.0 126997.0 254203.0 257020.0 100011.0 106226.0 249283.0 251483.0 156170.0 153699.0 38679.0 30547.0 47503.0 44958.0 188589.0 196581.0 4241.0 11696.0 27323.0 22261.0 344160.0 342220.0 99561.0 107647.0 118312.0 120893.0 243071.0 239436.0 209510.0 207249.0 162070.0 160953.0 242490.0 235903.0 15156.0 16421.0 61955.0 67344.0 54819.0 62296.0 158537.0 163805.0 53539.0 188460.0 53539.0 53539.0 53539.0 53539.0 188460.0 188460.0 188460.0 188460.0
96681.0 95269.0 0.0 8151.0 89381.0 88535.0 55380.0 47290.0 69069.0 74634.0 65791.0 58407.0 31981.0 30008.0 109733.0 106888.0 64882.0 70479.0 98324.0 90441.0 81887.0 78123.0 81368.0 73490.0 103899.0 101229.0 111706.0 107822.0 268858.0 269873.0 54043.0 57263.0 74800.0 67123.0 164656.0 167623.0 86939.0 80340.0 52246.0 52832.0 193065.0 193520.0 18189.0 16529.0 198479.0 198334.0 67628.0 62938.0 102144.0 100377.0 61324.0 56945.0 141677.0 149331.0 94786.0 94188.0 69625.0 73056.0 296908.0 295089.0 69221.0 73842.0 55523.0 63216.0 180330.0 174509.0 116924.0 115915.0 79887.0 75685.0 148379.0 142185.0 109645.0 111468.0 70622.0 64061.0 92698.0 91304.0 72288.0 79678.0 92538.0 142547.0 92538.0 92538.0 92538.0 92538.0 142547.0 142547.0 142547.0 142547.0
96734.0 96016.0 8151.0 0.0 93659.0 93401.0 61281.0 53425.0 61353.0 67174.0 64669.0 56945.0 37933.0 37127.0 101960.0 99212.0 71412.0 77369.0 103155.0 95383.0 76784.0 73622.0 75511.0 67434.0 108180.0 105997.0 115145.0 110757.0 261033.0 261987.0 55393.0 57467.0 77362.0 69421.0 164464.0 167073.0 93126.0 86818.0 45442.0 45391.0 185836.0 186445.0 10149.0 10915.0 190729.0 190699.0 72134.0 66817.0 105855.0 103518.0 65539.0 60371.0 133664.0 141343.0 95891.0 95921.0 69559.0 73765.0 289005.0 287158.0 77135.0 81898.0 63496.0 71253.0 173160.0 167466.0 119363.0 118877.0 85549.0 80836.0 149819.0 143900.0 110726.0 111953.0 76449.0 70307.0 97788.0 96924.0 67227.0 74235.0 89435.0 134468.0 89435.0 89435.0 89435.0 89435.0 134468.0 134468.0 134468.0 134468.0
50999.0 42930.0 89381.0 93659.0 0.0 7962.0 38122.0 45908.0 147681.0 155121.0 58555.0 62117.0 104011.0 95887.0 184981.0 183562.0 118709.0 118146.0 159321.0 151860.0 170399.0 167229.0 168533.0 160246.0 168166.0 162280.0 24949.0 25582.0 338938.0 339147.0 45780.0 50961.0 24795.0 31366.0 247781.0 251825.0 27985.0 32787.0 137235.0 134872.0 272060.0 273819.0 101268.0 104546.0 270906.0 272579.0 136280.0 135856.0 14718.0 18392.0 28126.0 34032.0 210352.0 218343.0 38813.0 31594.0 49312.0 41930.0 365923.0 363983.0 64576.0 72019.0 90722.0 90845.0 260032.0 255314.0 190903.0 187201.0 137568.0 138397.0 225564.0 218340.0 45809.0 53323.0 26864.0 34900.0 11955.0 19443.0 160864.0 167684.0 88720.0 210223.0 88720.0 88720.0 88720.0 88720.0 210223.0 210223.0 210223.0 210223.0
58678.0 50684.0 88535.0 93401.0 7962.0 0.0 34918.0 43104.0 149257.0 156512.0 63839.0 66670.0 100826.0 92564.0 187272.0 185665.0 113615.0 112643.0 154074.0 146734.0 170152.0 166645.0 168745.0 160540.0 163084.0 157005.0 30550.0 32605.0 342129.0 342338.0 49109.0 55152.0 30407.0 35859.0 244394.0 248631.0 20072.0 25323.0 137774.0 135854.0 274158.0 275712.0 101533.0 104190.0 273893.0 275345.0 131975.0 131950.0 20811.0 25889.0 28515.0 35660.0 213534.0 221529.0 46609.0 39463.0 54972.0 47920.0 369114.0 367174.0 57898.0 65112.0 85326.0 84929.0 261992.0 257083.0 186532.0 182581.0 132369.0 133565.0 221377.0 214061.0 53745.0 61284.0 21636.0 29951.0 5358.0 11616.0 160575.0 167631.0 94953.0 213414.0 94953.0 94953.0 94953.0 94953.0 213414.0 213414.0 213414.0 213414.0
70138.0 64386.0 55380.0 61281.0 38122.0 34918.0 0.0 8311.0 120591.0 127237.0 56691.0 55079.0 66016.0 57825.0 160239.0 158075.0 81794.0 82123.0 122472.0 114829.0 137235.0 133227.0 136650.0 128659.0 131011.0 125471.0 62876.0 61806.0 317839.0 318181.0 35870.0 44211.0 36852.0 34136.0 209735.0 213864.0 31951.0 26387.0 106632.0 105802.0 245964.0 246947.0 70389.0 71658.0 248452.0 249163.0 98345.0 97753.0 52628.0 53932.0 16906.0 21829.0 189216.0 197149.0 61632.0 57063.0 51870.0 48634.0 344912.0 343013.0 36668.0 44792.0 54856.0 56682.0 233467.0 228064.0 152960.0 149449.0 100730.0 100974.0 187516.0 180335.0 74315.0 79676.0 15243.0 9712.0 38285.0 35992.0 127637.0 135056.0 89809.0 189257.0 89809.0 89809.0 89809.0 89809.0 189257.0 189257.0 189257.0 189257.0
73694.0 68604.0 47290.0 53425.0 45908.0 43104.0 8311.0 0.0 113336.0 119823.0 56444.0 53685.0 58104.0 50010.0 153252.0 150968.0 75620.0 76541.0 116183.0 108437.0 129077.0 124998.0 128633.0 120691.0 124495.0 119200.0 70430.0 68855.0 311295.0 311760.0 35541.0 43742.0 41508.0 37338.0 201877.0 205924.0 39712.0 33525.0 98851.0 98270.0 238616.0 239483.0 62739.0 63659.0 241676.0 242229.0 91183.0 90267.0 60223.0 60967.0 21742.0 24033.0 182781.0 190683.0 66214.0 62310.0 52973.0 50905.0 338563.0 336634.0 36621.0 44431.0 49713.0 52549.0 226062.0 220564.0 145729.0 142429.0 94518.0 94326.0 180115.0 173004.0 79578.0 84393.0 23447.0 16888.0 46574.0 44242.0 119482.0 126956.0 88942.0 182886.0 88942.0 88942.0 88942.0 88942.0 182886.0 182886.0 182886.0 182886.0
133103.0 135846.0 69069.0 61353.0 147681.0 149257.0 120591.0 113336.0 0.0 8186.0 100425.0 93049.0 87300.0 91177.0 40683.0 37864.0 117993.0 125585.0 135497.0 129353.0 42562.0 46622.0 33943.0 27741.0 136297.0 137609.0 165290.0 159100.0 199828.0 200952.0 102976.0 100504.0 126494.0 118384.0 154721.0 154417.0 152456.0 146820.0 21756.0 16929.0 125397.0 126587.0 51301.0 53526.0 129410.0 129358.0 107021.0 99350.0 157417.0 153045.0 120765.0 113792.0 73724.0 81083.0 137397.0 140207.0 109185.0 116077.0 228025.0 226321.0 138241.0 142525.0 120256.0 128404.0 112984.0 107858.0 133543.0 136752.0 125248.0 118031.0 153507.0 150165.0 150850.0 149022.0 135254.0 130080.0 154181.0 154812.0 38330.0 37691.0 110802.0 75595.0 110802.0 110802.0 110802.0 110802.0 75595.0 75595.0 75595.0 75595.0
141257.0 143946.0 74634.0 67174.0 155121.0 156512.0 127237.0 119823.0 8186.0 0.0 108519.0 101102.0 90544.0 95013.0 36197.0 32729.0 120110.0 127847.0 135227.0 129412.0 36584.0 41578.0 27331.0 22395.0 135428.0 137204.0 173059.0 166956.0 194879.0 196249.0 110671.0 108389.0 134220.0 126086.0 149010.0 148412.0 159164.0 153346.0 24182.0 21803.0 118804.0 119714.0 57302.0 58615.0 124262.0 123804.0 107673.0 99897.0 165078.0 160825.0 127999.0 121162.0 70516.0 77531.0 145461.0 148193.0 117222.0 124061.0 223361.0 221893.0 143519.0 147488.0 124165.0 132332.0 106241.0 100865.0 130880.0 134513.0 126200.0 118756.0 149296.0 146296.0 158966.0 157183.0 142040.0 136641.0 161382.0 161801.0 33836.0 31712.0 118974.0 73098.0 118974.0 118974.0 118974.0 118974.0 73098.0 73098.0 73098.0 73098.0
33542.0 35431.0 65791.0 64669.0 58555.0 63839.0 56691.0 56444.0 100425.0 108519.0 0.0 8000.0 94713.0 89330.0 133166.0 132588.0 122910.0 126122.0 160947.0 152943.0 132661.0 131823.0 128055.0 119697.0 167631.0 163954.0 68525.0 61116.0 283821.0 284030.0 20956.0 12705.0 33760.0 28234.0 229004.0 231411.0 77541.0 76652.0 96663.0 91759.0 219994.0 222555.0 66908.0 73984.0 215929.0 218129.0 131534.0 127802.0 62922.0 56574.0 43029.0 35505.0 155235.0 163227.0 37057.0 40667.0 9783.0 17574.0 310805.0 308865.0 92809.0 100765.0 102051.0 106722.0 208615.0 204737.0 182608.0 181297.0 140598.0 138032.0 214115.0 207970.0 50500.0 49486.0 62932.0 64129.0 69152.0 73949.0 123921.0 128870.0 33292.0 155105.0 33292.0 33292.0 33292.0 33292.0 155105.0 155105.0 155105.0 155105.0
41497.0 43027.0 58407.0 56945.0 62117.0 66670.0 55079.0 53685.0 93049.0 101102.0 8000.0 0.0 87966.0 82921.0 126602.0 125860.0 116986.0 120529.0 154468.0 146469.0 124745.0 123851.0 120238.0 111867.0 160941.0 157461.0 74285.0 67236.0 278087.0 278296.0 19599.0 11791.0 37602.0 30861.0 221158.0 223518.0 78702.0 76989.0 88779.0 83989.0 213615.0 216023.0 58950.0 66105.0 210178.0 212325.0 124747.0 120795.0 67963.0 62142.0 43208.0 35168.0 149501.0 157493.0 44365.0 47369.0 16165.0 23438.0 305071.0 303131.0 90303.0 98094.0 97214.0 102304.0 202097.0 198064.0 175321.0 174164.0 134385.0 131546.0 206581.0 200503.0 58160.0 57409.0 63128.0 63278.0 72026.0 76098.0 115972.0 120984.0 35337.0 149371.0 35337.0 35337.0 35337.0 35337.0 149371.0 149371.0 149371.0 149371.0
122891.0 120053.0 31981.0 37933.0 104011.0 100826.0 66016.0 58104.0 87300.0 90544.0 94713.0 87966.0 0.0 8408.0 126722.0 123054.0 33672.0 40166.0 66764.0 58808.0 84272.0 78110.0 87467.0 81305.0 72976.0 69720.0 128449.0 126368.0 284386.0 286135.0 79265.0 84435.0 95860.0 89332.0 143775.0 147849.0 92752.0 84895.0 66367.0 70455.0 203777.0 203090.0 44964.0 37756.0 213702.0 212414.0 36822.0 33652.0 118278.0 118523.0 78243.0 76826.0 160864.0 168028.0 118764.0 116638.0 96776.0 98619.0 313257.0 312071.0 61408.0 62545.0 34617.0 42661.0 190782.0 184132.0 89480.0 87280.0 47905.0 43938.0 122977.0 116149.0 133309.0 136473.0 79788.0 71678.0 103759.0 99912.0 75441.0 83878.0 123494.0 162894.0 123494.0 123494.0 123494.0 123494.0 162894.0 162894.0 162894.0 162894.0
116432.0 113257.0 30008.0 37127.0 95887.0 92564.0 57825.0 50010.0 91177.0 95013.0 89330.0 82921.0 8408.0 0.0 131192.0 127701.0 35192.0 40485.0 71617.0 63613.0 91184.0 85297.0 93833.0 87310.0 78511.0 74626.0 120426.0 118533.0 289531.0 291110.0 72906.0 78541.0 88511.0 82229.0 151911.0 156070.0 84344.0 76492.0 70887.0 74248.0 209816.0 209336.0 45498.0 39350.0 218831.0 217792.0 42934.0 40755.0 110230.0 110669.0 70488.0 69476.0 164901.0 172214.0 111801.0 109395.0 90753.0 92142.0 318234.0 316877.0 53643.0 55300.0 29152.0 37319.0 196845.0 190332.0 96628.0 94033.0 51562.0 48706.0 130510.0 123563.0 126220.0 129658.0 71450.0 63316.0 95434.0 91522.0 82145.0 90514.0 119091.0 166617.0 119091.0 119091.0 119091.0 119091.0 166617.0 166617.0 166617.0 166617.0
163755.0 167807.0 109733.0 101960.0 184981.0 187272.0 160239.0 153252.0 40683.0 36197.0 133166.0 126602.0 126722.0 131192.0 0.0 4794.0 155789.0 163602.0 168020.0 162779.0 59382.0 66838.0 50007.0 50919.0 167138.0 169750.0 200641.0 193812.0 159146.0 160306.0 139408.0 135674.0 162460.0 154581.0 164356.0 162122.0 191897.0 186591.0 60376.0 57344.0 87180.0 89421.0 91862.0 94175.0 88771.0 88986.0 142023.0 134184.0 193531.0 188405.0 159011.0 151612.0 35019.0 41585.0 169980.0 173811.0 142610.0 150040.0 187394.0 185796.0 178922.0 183185.0 160341.0 168507.0 75497.0 71629.0 158459.0 163163.0 160789.0 153116.0 171445.0 169775.0 182271.0 179165.0 174592.0 169837.0 192356.0 193611.0 61952.0 55678.0 138719.0 38758.0 138719.0 138719.0 138719.0 138719.0 38758.0 38758.0 38758.0 38758.0
163606.0 167449.0 106888.0 99212.0 183562.0 185665.0 158075.0 150968.0 37864.0 32729.0 132588.0 125860.0 123054.0 127701.0 4794.0 0.0 151765.0 159605.0 163486.0 158306.0 54612.0 62091.0 45275.0 46392.0 162519.0 165193.0 199687.0 192983.0 162197.0 163523.0 138133.0 134655.0 161326.0 153384.0 159806.0 157647.0 189831.0 184386.0 56816.0 54230.0 88508.0 90373.0 89164.0 91130.0 91644.0 91494.0 137695.0 129853.0 192403.0 187436.0 157314.0 150023.0 39419.0 45732.0 169517.0 173169.0 141938.0 149286.0 190634.0 189179.0 175992.0 180109.0 156852.0 165019.0 76519.0 72212.0 153685.0 158411.0 156488.0 148781.0 166682.0 164992.0 182031.0 179130.0 172557.0 167632.0 190707.0 191773.0 57316.0 50943.0 138832.0 43398.0 138832.0 138832.0 138832.0 138832.0 43398.0 43398.0 43398.0 43398.0
147551.0 143385.0 64882.0 71412.0 118709.0 113615.0 81794.0 75620.0 117993.0 120110.0 122910.0 116986.0 33672.0 35192.0 155789.0 151765.0 0.0 7991.0 40687.0 33151.0 106369.0 99073.0 111805.0 107141.0 49476.0 43680.0 143634.0 143404.0 310758.0 313005.0 104918.0 111412.0 116930.0 111831.0 136867.0 142369.0 100209.0 92140.0 96378.0 101567.0 227473.0 225949.0 78626.0 71247.0 240424.0 238381.0 23636.0 28748.0 133427.0 135572.0 97360.0 98469.0 190558.0 197371.0 141359.0 137857.0 123214.0 123525.0 340046.0 339346.0 60473.0 57127.0 28607.0 31768.0 214491.0 207352.0 74480.0 69625.0 18936.0 20516.0 109690.0 102056.0 155090.0 159523.0 92070.0 83856.0 115135.0 109301.0 98891.0 107254.0 153652.0 193176.0 153652.0 153652.0 153652.0 153652.0 193176.0 193176.0 193176.0 193176.0
149460.0 144919.0 70479.0 77369.0 118146.0 112643.0 82123.0 76541.0 125585.0 127847.0 126122.0 120529.0 40166.0 40485.0 163602.0 159605.0 7991.0 0.0 41727.0 34920.0 114354.0 107046.0 119791.0 115095.0 51186.0 44572.0 142958.0 143204.0 318738.0 320974.0 107473.0 114310.0 118044.0 113396.0 141537.0 147283.0 98168.0 90195.0 104030.0 109069.0 235455.0 233915.0 85031.0 77920.0 248392.0 246364.0 30310.0 36135.0 132826.0 135438.0 98214.0 99972.0 198328.0 205178.0 142692.0 138824.0 125843.0 125676.0 348018.0 347304.0 57563.0 53303.0 27444.0 28523.0 222474.0 215328.0 78084.0 72621.0 20607.0 24825.0 113183.0 105437.0 156101.0 160879.0 91320.0 83260.0 113803.0 107574.0 106881.0 115245.0 157491.0 200878.0 157491.0 157491.0 157491.0 157491.0 200878.0 200878.0 200878.0 200878.0
187256.0 183443.0 98324.0 103155.0 159321.0 154074.0 122472.0 116183.0 135497.0 135227.0 160947.0 154468.0 66764.0 71617.0 168020.0 163486.0 40687.0 41727.0 0.0 8004.0 111055.0 103169.0 119067.0 117102.0 9945.0 3036.0 184223.0 184086.0 314135.0 317281.0 144081.0 150052.0 157324.0 151947.0 104854.0 111392.0 139894.0 131914.0 114198.0 121080.0 227798.0 224991.0 107907.0 99527.0 245615.0 242258.0 31152.0 37594.0 174034.0 176257.0 137904.0 138674.0 202868.0 208741.0 181573.0 178295.0 162159.0 163058.0 343854.0 344096.0 99207.0 94522.0 68760.0 70211.0 215193.0 207496.0 39880.0 32974.0 21764.0 22922.0 73616.0 65748.0 195485.0 199689.0 132606.0 124435.0 155397.0 149271.0 106371.0 113618.0 190251.0 206726.0 190251.0 190251.0 190251.0 190251.0 206726.0 206726.0 206726.0 206726.0
179306.0 175536.0 90441.0 95383.0 151860.0 146734.0 114829.0 108437.0 129353.0 129412.0 152943.0 146469.0 58808.0 63613.0 162779.0 158306.0 33151.0 34920.0 8004.0 0.0 106677.0 98807.0 114335.0 111928.0 16371.0 11021.0 176785.0 176516.0 310689.0 313679.0 136101.0 142053.0 149496.0 144058.0 108815.0 115066.0 132911.0 124891.0 107888.0 114598.0 224756.0 222179.0 100332.0 92001.0 241742.0 238608.0 23651.0 30540.0 166578.0 168674.0 130140.0 130806.0 197723.0 203758.0 173695.0 170477.0 154167.0 155097.0 340364.0 340440.0 92475.0 88122.0 61512.0 63428.0 212049.0 204433.0 44148.0 38031.0 14433.0 14923.0 78812.0 70991.0 187650.0 191799.0 125210.0 117004.0 148170.0 142178.0 101488.0 108986.0 182282.0 201399.0 182282.0 182282.0 182282.0 182282.0 201399.0 201399.0 201399.0 201399.0
166198.0 167462.0 81887.0 76784.0 170399.0 170152.0 137235.0 129077.0 42562.0 36584.0 132661.0 124745.0 84272.0 91184.0 59382.0 54612.0 106369.0 114354.0 111055.0 106677.0 0.0 7886.0 9904.0 14951.0 109108.0 112479.0 191281.0 186315.0 205066.0 207687.0 129659.0 129496.0 152789.0 144641.0 112428.0 111915.0 168542.0 161624.0 36096.0 42083.0 121110.0 119742.0 69424.0 65962.0 135374.0 132693.0 88367.0 80683.0 182273.0 179391.0 142298.0 136825.0 93134.0 98401.0 168235.0 169642.0 140140.0 145993.0 234575.0 234306.0 144416.0 146482.0 118672.0 126524.0 108123.0 101031.0 99079.0 103835.0 107154.0 99127.0 113959.0 111560.0 182608.0 182146.0 152476.0 145701.0 174461.0 173187.0 9599.0 4886.0 147836.0 97785.0 147836.0 147836.0 147836.0 147836.0 97785.0 97785.0 97785.0 97785.0
165346.0 166225.0 78123.0 73622.0 167229.0 166645.0 133227.0 124998.0 46622.0 41578.0 131823.0 123851.0 78110.0 85297.0 66838.0 62091.0 99073.0 107046.0 103169.0 98807.0 7886.0 0.0 16862.0 19185.0 101255.0 104595.0 188652.0 183967.0 212741.0 215419.0 127594.0 127929.0 150443.0 142350.0 108204.0 108174.0 164218.0 157135.0 36379.0 43282.0 128439.0 126887.0 67020.0 62711.0 143160.0 140395.0 80683.0 73038.0 179455.0 176893.0 139103.0 133962.0 100833.0 106188.0 166803.0 167873.0 138926.0 144489.0 242281.0 242063.0 138787.0 140555.0 112277.0 120038.0 115476.0 108285.0 91752.0 96329.0 99433.0 91391.0 107864.0 105139.0 181330.0 181224.0 148443.0 141454.0 170819.0 169218.0 8694.0 11195.0 148365.0 105378.0 148365.0 148365.0 148365.0 148365.0 105378.0 105378.0 105378.0 105378.0
161493.0 163194.0 81368.0 75511.0 168533.0 168745.0 136650.0 128633.0 33943.0 27331.0 128055.0 120238.0 87467.0 93833.0 50007.0 45275.0 111805.0 119791.0 119067.0 114335.0 9904.0 16862.0 0.0 8419.0 117590.0 120622.0 188651.0 183339.0 198974.0 201329.0 126522.0 125754.0 149907.0 141721.0 121861.0 121126.0 168306.0 161655.0 31769.0 36378.0 116437.0 115624.0 67276.0 64992.0 128804.0 126583.0 95054.0 87265.0 179909.0 176622.0 140561.0 134672.0 84213.0 89776.0 164192.0 165996.0 135934.0 142105.0 228326.0 227796.0 146330.0 148912.0 122078.0 130076.0 103429.0 96681.0 108608.0 113179.0 113928.0 105987.0 123863.0 121450.0 178349.0 177482.0 151868.0 145429.0 173229.0 172420.0 13041.0 5674.0 141771.0 88619.0 141771.0 141771.0 141771.0 141771.0 88619.0 88619.0 88619.0 88619.0
153155.0 154807.0 73490.0 67434.0 160246.0 160540.0 128659.0 120691.0 27741.0 22395.0 119697.0 111867.0 81305.0 87310.0 50919.0 46392.0 107141.0 115095.0 117102.0 111928.0 14951.0 19185.0 8419.0 0.0 116320.0 118833.0 180268.0 174933.0 203807.0 205916.0 118113.0 117337.0 141510.0 133322.0 127005.0 126678.0 160391.0 153827.0 23352.0 28122.0 122522.0 122060.0 59023.0 57035.0 133330.0 131540.0 91652.0 83812.0 171552.0 168229.0 132306.0 126355.0 85801.0 91875.0 155789.0 157579.0 127539.0 133693.0 232984.0 232211.0 139275.0 142112.0 115898.0 123965.0 109542.0 103039.0 109519.0 113578.0 110511.0 102701.0 126953.0 124067.0 169963.0 169141.0 143859.0 137521.0 165058.0 164356.0 11750.0 10180.0 133739.0 89649.0 133739.0 133739.0 133739.0 133739.0 89649.0 89649.0 89649.0 89649.0
194738.0 191175.0 103899.0 108180.0 168166.0 163084.0 131011.0 124495.0 136297.0 135428.0 167631.0 160941.0 72976.0 78511.0 167138.0 162519.0 49476.0 51186.0 9945.0 16371.0 109108.0 101255.0 117590.0 116320.0 0.0 7913.0 193099.0 192750.0 310455.0 313801.0 151347.0 157044.0 165378.0 159772.0 95211.0 101857.0 149263.0 141250.0 115415.0 122603.0 223705.0 220623.0 112185.0 103689.0 242565.0 238916.0 36298.0 41469.0 182884.0 184898.0 146156.0 146593.0 201751.0 207356.0 189432.0 186373.0 169263.0 170478.0 340209.0 340668.0 108745.0 104226.0 77883.0 79708.0 211245.0 203461.0 30315.0 23144.0 30798.0 30251.0 63688.0 55818.0 203500.0 207489.0 141546.0 133328.0 164539.0 158546.0 105206.0 112027.0 196277.0 205896.0 196277.0 196277.0 196277.0 196277.0 205896.0 205896.0 205896.0 205896.0
190291.0 186478.0 101229.0 105997.0 162280.0 157005.0 125471.0 119200.0 137609.0 137204.0 163954.0 157461.0 69720.0 74626.0 169750.0 165193.0 43680.0 44572.0 3036.0 11021.0 112479.0 104595.0 120622.0 118833.0 7913.0 0.0 187175.0 187067.0 315113.0 318321.0 147112.0 153074.0 160352.0 154981.0 103125.0 109762.0 142736.0 134767.0 116389.0 123339.0 228636.0 225739.0 110648.0 102247.0 246774.0 243331.0 33922.0 40180.0 176991.0 179241.0 140923.0 141707.0 204549.0 210353.0 184606.0 181322.0 165186.0 166093.0 344845.0 345154.0 101991.0 97218.0 71682.0 73022.0 216074.0 208348.0 38215.0 31042.0 24747.0 25923.0 71472.0 63600.0 198513.0 202724.0 135551.0 127389.0 158300.0 152140.0 107997.0 115139.0 193212.0 208479.0 193212.0 193212.0 193212.0 193212.0 208479.0 208479.0 208479.0 208479.0
47623.0 39827.0 111706.0 115145.0 24949.0 30550.0 62876.0 70430.0 165290.0 173059.0 68525.0 74285.0 128449.0 120426.0 200641.0 199687.0 143634.0 142958.0 184223.0 176785.0 191281.0 188652.0 188651.0 180268.0 193099.0 187175.0 0.0 8543.0 352269.0 352478.0 62465.0 65047.0 38893.0 47075.0 272191.0 276095.0 48726.0 55306.0 156982.0 153813.0 287766.0 290017.0 121859.0 126049.0 284377.0 286559.0 161167.0 160615.0 10258.0 12261.0 50867.0 54824.0 223683.0 231675.0 35920.0 29382.0 58761.0 51038.0 379254.0 377313.0 88382.0 95450.0 115563.0 115422.0 276117.0 271869.0 215791.0 212135.0 162478.0 163346.0 250392.0 243199.0 33853.0 42109.0 51643.0 59788.0 30724.0 38616.0 181859.0 188259.0 92852.0 223554.0 92852.0 92852.0 92852.0 92852.0 223554.0 223554.0 223554.0 223554.0
39084.0 31327.0 107822.0 110757.0 25582.0 32605.0 61806.0 68855.0 159100.0 166956.0 61116.0 67236.0 126368.0 118533.0 193812.0 192983.0 143404.0 143204.0 184086.0 176516.0 186315.0 183967.0 183339.0 174933.0 192750.0 187067.0 8543.0 0.0 344936.0 345145.0 56824.0 58606.0 33534.0 41674.0 269833.0 273532.0 52126.0 57924.0 151596.0 148120.0 280851.0 283229.0 116988.0 121610.0 277045.0 279244.0 160021.0 159058.0 12311.0 7888.0 48153.0 50956.0 216351.0 224342.0 27475.0 21190.0 51422.0 43823.0 371921.0 369981.0 90155.0 97558.0 115760.0 116221.0 269310.0 265194.0 214583.0 211214.0 162323.0 162768.0 248924.0 241844.0 25792.0 34077.0 52242.0 60031.0 34118.0 42335.0 176970.0 183154.0 84514.0 216221.0 84514.0 84514.0 84514.0 84514.0 216221.0 216221.0 216221.0 216221.0
312526.0 317175.0 268858.0 261033.0 338938.0 342129.0 317839.0 311295.0 199828.0 194879.0 283821.0 278087.0 284386.0 289531.0 159146.0 162197.0 310758.0 318738.0 314135.0 310689.0 205066.0 212741.0 198974.0 203807.0 310455.0 315113.0 352269.0 344936.0 0.0 7469.0 293207.0 288295.0 315255.0 307774.0 266261.0 260155.0 348912.0 344204.0 218769.0 216412.0 87382.0 91704.0 250906.0 253294.0 70701.0 72404.0 293421.0 285749.0 346007.0 340191.0 314523.0 306749.0 128674.0 120714.0 319745.0 324283.0 293541.0 301234.0 29764.0 31355.0 338063.0 342297.0 318623.0 326778.0 99379.0 107286.0 292257.0 299086.0 312168.0 304115.0 289912.0 291922.0 331206.0 327709.0 331585.0 327534.0 347375.0 349497.0 211945.0 203681.0 287186.0 129679.0 287186.0 287186.0 287186.0 287186.0 129679.0 129679.0 129679.0 129679.0
312734.0 317384.0 269873.0 261987.0 339147.0 342338.0 318181.0 311760.0 200952.0 196249.0 284030.0 278296.0 286135.0 291110.0 160306.0 163523.0 313005.0 320974.0 317281.0 313679.0 207687.0 215419.0 201329.0 205916.0 313801.0 318321.0 352478.0 345145.0 7469.0 0.0 293416.0 288504.0 315464.0 307983.0 271398.0 265391.0 349080.0 344515.0 220256.0 217646.0 91543.0 96258.0 251845.0 254472.0 72587.0 75076.0 296047.0 288338.0 346216.0 340400.0 314782.0 306958.0 128981.0 121080.0 319954.0 324492.0 293750.0 301443.0 27124.0 26905.0 339094.0 343477.0 320239.0 328402.0 103180.0 111144.0 296130.0 302866.0 314840.0 306807.0 294522.0 296377.0 331415.0 327918.0 331771.0 327887.0 347584.0 349747.0 214338.0 206144.0 287395.0 129575.0 287395.0 287395.0 287395.0 287395.0 129575.0 129575.0 129575.0 129575.0
43629.0 41342.0 54043.0 55393.0 45780.0 49109.0 35870.0 35541.0 102976.0 110671.0 20956.0 19599.0 79265.0 72906.0 139408.0 138133.0 104918.0 107473.0 144081.0 136101.0 129659.0 127594.0 126522.0 118113.0 151347.0 147112.0 62465.0 56824.0 293207.0 293416.0 0.0 8344.0 23574.0 15417.0 218659.0 221666.0 59467.0 57447.0 94773.0 91378.0 226561.0 228487.0 60599.0 65963.0 225135.0 226804.0 115786.0 112887.0 54450.0 50285.0 23743.0 15610.0 164620.0 172613.0 40743.0 40547.0 18377.0 19393.0 320192.0 318251.0 71853.0 79812.0 82406.0 86596.0 214651.0 210118.0 168539.0 166542.0 123150.0 121307.0 201255.0 194735.0 55603.0 57676.0 43578.0 43753.0 54425.0 57625.0 120389.0 126410.0 53939.0 164492.0 53939.0 53939.0 53939.0 53939.0 164492.0 164492.0 164492.0 164492.0
39426.0 38652.0 57263.0 57467.0 50961.0 55152.0 44211.0 43742.0 100504.0 108389.0 12705.0 11791.0 84435.0 78541.0 135674.0 134655.0 111412.0 114310.0 150052.0 142053.0 129496.0 127929.0 125754.0 117337.0 157044.0 153074.0 65047.0 58606.0 288295.0 288504.0 8344.0 0.0 26974.0 19598.0 221730.0 224480.0 66916.0 65312.0 94011.0 89989.0 222840.0 225005.0 61406.0 67584.0 220384.0 222305.0 121185.0 117884.0 57930.0 52789.0 31510.0 23577.0 159709.0 167701.0 38906.0 40243.0 12430.0 16574.0 315280.0 313339.0 80150.0 88087.0 89768.0 94244.0 211116.0 206825.0 173218.0 171534.0 129388.0 127187.0 205417.0 199060.0 53580.0 54486.0 51467.0 51995.0 60509.0 64378.0 120413.0 126016.0 45598.0 159580.0 45598.0 45598.0 45598.0 45598.0 159580.0 159580.0 159580.0 159580.0
33792.0 27564.0 74800.0 77362.0 24795.0 30407.0 36852.0 41508.0 126494.0 134220.0 33760.0 37602.0 95860.0 88511.0 162460.0 161326.0 116930.0 118044.0 157324.0 149496.0 152789.0 150443.0 149907.0 141510.0 165378.0 160352.0 38893.0 33534.0 315255.0 315464.0 23574.0 26974.0 0.0 8193.0 238212.0 241617.0 46455.0 47619.0 118193.0 114928.0 249639.0 251700.0 83455.0 88176.0 247351.0 249277.0 131087.0 129258.0 31077.0 26741.0 20025.0 19041.0 186669.0 194661.0 24808.0 20997.0 24611.0 17546.0 342239.0 340299.0 72166.0 80285.0 91154.0 93460.0 237834.0 233417.0 185139.0 182394.0 135761.0 135131.0 218835.0 211996.0 38165.0 42937.0 35402.0 40038.0 35632.0 41171.0 143437.0 149652.0 64593.0 186539.0 64593.0 64593.0 64593.0 64593.0 186539.0 186539.0 186539.0 186539.0
36358.0 31558.0 67123.0 69421.0 31366.0 35859.0 34136.0 37338.0 118384.0 126086.0 28234.0 30861.0 89332.0 82229.0 154581.0 153384.0 111831.0 113396.0 151947.0 144058.0 144641.0 142350.0 141721.0 133322.0 159772.0 154981.0 47075.0 41674.0 307774.0 307983.0 15417.0 19598.0 8193.0 0.0 231010.0 234302.0 49567.0 49419.0 110003.0 106740.0 241756.0 243754.0 75343.0 80196.0 239827.0 241650.0 125033.0 122886.0 39070.0 34934.0 17589.0 13428.0 179188.0 187173.0 29663.0 27424.0 20220.0 14953.0 334759.0 332819.0 70561.0 78714.0 86939.0 89862.0 229901.0 225430.0 178776.0 176254.0 130534.0 129530.0 212204.0 205457.0 43996.0 47742.0 36164.0 39195.0 41209.0 45721.0 135304.0 141485.0 60608.0 179059.0 60608.0 60608.0 60608.0 60608.0 179059.0 179059.0 179059.0 179059.0
261123.0 259925.0 164656.0 164464.0 247781.0 244394.0 209735.0 201877.0 154721.0 149010.0 229004.0 221158.0 143775.0 151911.0 164356.0 159806.0 136867.0 141537.0 104854.0 108815.0 112428.0 108204.0 121861.0 127005.0 95211.0 103125.0 272191.0 269833.0 266261.0 271398.0 218659.0 221730.0 238212.0 231010.0 0.0 7817.0 234414.0 226323.0 142523.0 150178.0 181263.0 175634.0 162541.0 155065.0 208977.0 202710.0 114505.0 112989.0 262040.0 262039.0 221697.0 219422.0 191472.0 193807.0 259380.0 258383.0 233958.0 237705.0 295078.0 297614.0 196765.0 193964.0 164309.0 168583.0 171603.0 163834.0 64975.0 72160.0 121630.0 116776.0 35042.0 41985.0 274225.0 276102.0 223060.0 214805.0 247045.0 242520.0 116745.0 117305.0 250760.0 197841.0 250760.0 250760.0 250760.0 250760.0 197841.0 197841.0 197841.0 197841.0
263806.0 262837.0 167623.0 167073.0 251825.0 248631.0 213864.0 205924.0 154417.0 148412.0 231411.0 223518.0 147849.0 156070.0 162122.0 157647.0 142369.0 147283.0 111392.0 115066.0 111915.0 108174.0 121126.0 126678.0 101857.0 109762.0 276095.0 273532.0 260155.0 265391.0 221666.0 224480.0 241617.0 234302.0 7817.0 0.0 239118.0 231046.0 143183.0 150716.0 175665.0 169888.0 164701.0 157428.0 203848.0 197427.0 119687.0 117775.0 265984.0 265771.0 225450.0 222931.0 188292.0 190342.0 262408.0 261615.0 236631.0 240587.0 288839.0 291498.0 201947.0 199369.0 169489.0 173997.0 166291.0 158592.0 71548.0 78927.0 127596.0 122470.0 42716.0 49488.0 277267.0 278932.0 227406.0 219185.0 251404.0 247060.0 116807.0 116800.0 252484.0 194778.0 252484.0 252484.0 252484.0 252484.0 194778.0 194778.0 194778.0 194778.0
77672.0 69918.0 86939.0 93126.0 27985.0 20072.0 31951.0 39712.0 152456.0 159164.0 77541.0 78702.0 92752.0 84344.0 191897.0 189831.0 100209.0 98168.0 139894.0 132911.0 168542.0 164218.0 168306.0 160391.0 149263.0 142736.0 48726.0 52126.0 348912.0 349080.0 59467.0 66916.0 46455.0 49567.0 234414.0 239118.0 0.0 8114.0 138531.0 137752.0 277849.0 278877.0 102329.0 103357.0 279849.0 280730.0 120411.0 121425.0 39926.0 45825.0 35806.0 44024.0 220238.0 228202.0 65974.0 59056.0 69757.0 63619.0 375909.0 373969.0 41161.0 47481.0 71604.0 69756.0 265378.0 260004.0 174362.0 169810.0 118479.0 120612.0 209504.0 201988.0 73793.0 81253.0 17342.0 22878.0 18091.0 10159.0 158958.0 166537.0 110171.0 220209.0 110171.0 110171.0 110171.0 110171.0 220209.0 220209.0 220209.0 220209.0
80247.0 72822.0 80340.0 86818.0 32787.0 25323.0 26387.0 33525.0 146820.0 153346.0 76652.0 76989.0 84895.0 76492.0 186591.0 184386.0 92140.0 90195.0 131914.0 124891.0 161624.0 157135.0 161655.0 153827.0 141250.0 134767.0 55306.0 57924.0 344204.0 344515.0 57447.0 65312.0 47619.0 49419.0 226323.0 231046.0 8114.0 0.0 132259.0 131792.0 272132.0 273008.0 96244.0 96835.0 274838.0 275532.0 112298.0 113335.0 45991.0 51120.0 33803.0 41838.0 215565.0 223504.0 69071.0 62522.0 69569.0 64061.0 371221.0 369337.0 33508.0 40213.0 63533.0 61842.0 259586.0 254085.0 166258.0 161727.0 110459.0 112526.0 201395.0 193883.0 78121.0 85237.0 13869.0 16755.0 24653.0 17505.0 152057.0 159737.0 109736.0 215591.0 109736.0 109736.0 109736.0 109736.0 215591.0 215591.0 215591.0 215591.0
130180.0 131631.0 52246.0 45442.0 137235.0 137774.0 106632.0 98851.0 21756.0 24182.0 96663.0 88779.0 66367.0 70887.0 60376.0 56816.0 96378.0 104030.0 114198.0 107888.0 36096.0 36379.0 31769.0 23352.0 115415.0 116389.0 156982.0 151596.0 218769.0 220256.0 94773.0 94011.0 118193.0 110003.0 142523.0 143183.0 138531.0 132259.0 0.0 7938.0 140984.0 141305.0 36352.0 35783.0 148090.0 147336.0 85360.0 77731.0 148339.0 144921.0 109413.0 103268.0 94573.0 101673.0 132540.0 134249.0 104332.0 110399.0 247377.0 245990.0 120275.0 123917.0 100037.0 108204.0 128190.0 122282.0 114751.0 117337.0 103513.0 96341.0 137403.0 133371.0 146787.0 146146.0 121732.0 115738.0 142392.0 142025.0 27900.0 32207.0 112043.0 96878.0 112043.0 112043.0 112043.0 112043.0 96878.0 96878.0 96878.0 96878.0
125150.0 126997.0 52832.0 45391.0 134872.0 135854.0 105802.0 98270.0 16929.0 21803.0 91759.0 83989.0 70455.0 74248.0 57344.0 54230.0 101567.0 109069.0 121080.0 114598.0 42083.0 43282.0 36378.0 28122.0 122603.0 123339.0 153813.0 148120.0 216412.0 217646.0 91378.0 89989.0 114928.0 106740.0 150178.0 150716.0 137752.0 131792.0 7938.0 0.0 140481.0 141220.0 35595.0 36902.0 145873.0 145552.0 91768.0 84250.0 145448.0 141660.0 107363.0 100840.0 90654.0 98001.0 128113.0 130191.0 99807.0 106171.0 244737.0 243113.0 121791.0 125885.0 103328.0 111478.0 127848.0 122294.0 122557.0 125036.0 109639.0 102655.0 145338.0 141306.0 142143.0 141141.0 120722.0 115126.0 140616.0 140703.0 34638.0 37802.0 105770.0 92464.0 105770.0 105770.0 105770.0 105770.0 92464.0 92464.0 92464.0 92464.0
249695.0 254203.0 193065.0 185836.0 272060.0 274158.0 245964.0 238616.0 125397.0 118804.0 219994.0 213615.0 203777.0 209816.0 87180.0 88508.0 227473.0 235455.0 227798.0 224756.0 121110.0 128439.0 116437.0 122522.0 223705.0 228636.0 287766.0 280851.0 87382.0 91543.0 226561.0 222840.0 249639.0 241756.0 181263.0 175665.0 277849.0 272132.0 140984.0 140481.0 0.0 7469.0 176070.0 176717.0 32136.0 24084.0 208713.0 201217.0 280710.0 275541.0 245775.0 238524.0 70330.0 63927.0 256564.0 260661.0 229535.0 237039.0 117085.0 118355.0 261108.0 264361.0 238390.0 246431.0 13010.0 20324.0 204904.0 211784.0 227214.0 219125.0 203145.0 204872.0 268373.0 264880.0 260650.0 255413.0 279183.0 280109.0 128969.0 120502.0 224357.0 75676.0 224357.0 224357.0 224357.0 224357.0 75676.0 75676.0 75676.0 75676.0
252702.0 257020.0 193520.0 186445.0 273819.0 275712.0 246947.0 239483.0 126587.0 119714.0 222555.0 216023.0 203090.0 209336.0 89421.0 90373.0 225949.0 233915.0 224991.0 222179.0 119742.0 126887.0 115624.0 122060.0 220623.0 225739.0 290017.0 283229.0 91704.0 96258.0 228487.0 225005.0 251700.0 243754.0 175634.0 169888.0 278877.0 273008.0 141305.0 141220.0 7469.0 0.0 176801.0 177087.0 39554.0 31437.0 206719.0 199309.0 282776.0 277772.0 247263.0 240132.0 75135.0 69134.0 259284.0 263212.0 232024.0 239461.0 121241.0 122907.0 261103.0 264142.0 237701.0 245695.0 13949.0 19050.0 201089.0 208095.0 225084.0 216995.0 198274.0 200220.0 271326.0 267889.0 261746.0 256326.0 280687.0 281398.0 127913.0 119432.0 227389.0 80817.0 227389.0 227389.0 227389.0 227389.0 80817.0 80817.0 80817.0 80817.0
99931.0 100011.0 18189.0 10149.0 101268.0 101533.0 70389.0 62739.0 51301.0 57302.0 66908.0 58950.0 44964.0 45498.0 91862.0 89164.0 78626.0 85031.0 107907.0 100332.0 69424.0 67020.0 67276.0 59023.0 112185.0 110648.0 121859.0 116988.0 250906.0 251845.0 60599.0 61406.0 83455.0 75343.0 162541.0 164701.0 102329.0 96244.0 36352.0 35595.0 176070.0 176801.0 0.0 8555.0 180633.0 180658.0 76756.0 70743.0 112875.0 109992.0 73287.0 67484.0 123521.0 131195.0 100286.0 100996.0 72953.0 77963.0 278861.0 277010.0 87284.0 92020.0 72889.0 80767.0 163443.0 157856.0 120942.0 121123.0 91510.0 86176.0 149981.0 144434.0 114985.0 115532.0 85432.0 79617.0 106095.0 105676.0 60010.0 66492.0 88850.0 124359.0 88850.0 88850.0 88850.0 88850.0 124359.0 124359.0 124359.0 124359.0
106597.0 106226.0 16529.0 10915.0 104546.0 104190.0 71658.0 63659.0 53526.0 58615.0 73984.0 66105.0 37756.0 39350.0 94175.0 91130.0 71247.0 77920.0 99527.0 92001.0 65962.0 62711.0 64992.0 57035.0 103689.0 102247.0 126049.0 121610.0 253294.0 254472.0 65963.0 67584.0 88176.0 80196.0 155065.0 157428.0 103357.0 96835.0 35783.0 36902.0 176717.0 177087.0 8555.0 0.0 182774.0 182419.0 68389.0 62269.0 116770.0 114399.0 76422.0 71284.0 126864.0 134387.0 106255.0 106509.0 79469.0 84025.0 281549.0 279832.0 84905.0 89011.0 67722.0 75766.0 163949.0 158065.0 112474.0 112591.0 83489.0 77964.0 141792.0 136155.0 121052.0 122004.0 86879.0 80487.0 108521.0 107465.0 56388.0 63518.0 96959.0 128140.0 96959.0 96959.0 96959.0 96959.0 128140.0 128140.0 128140.0 128140.0
244634.0 249283.0 198479.0 190729.0 270906.0 273893.0 248452.0 241676.0 129410.0 124262.0 215929.0 210178.0 213702.0 218831.0 88771.0 91644.0 240424.0 248392.0 245615.0 241742.0 135374.0 143160.0 128804.0 133330.0 242565.0 246774.0 284377.0 277045.0 70701.0 72587.0 225135.0 220384.0 247351.0 239827.0 208977.0 203848.0 279849.0 274838.0 148090.0 145873.0 32136.0 39554.0 180633.0 182774.0 0.0 8300.0 223668.0 215930.0 278113.0 272243.0 246068.0 238368.0 60798.0 52885.0 251853.0 256391.0 225650.0 233342.0 99663.0 98995.0 267628.0 271738.0 247922.0 256078.0 37930.0 45342.0 226524.0 232906.0 242495.0 234486.0 228349.0 229346.0 263314.0 259818.0 262508.0 258109.0 279100.0 280959.0 141828.0 133685.0 219294.0 63526.0 219294.0 219294.0 219294.0 219294.0 63526.0 63526.0 63526.0 63526.0
246834.0 251483.0 198334.0 190699.0 272579.0 275345.0 249163.0 242229.0 129358.0 123804.0 218129.0 212325.0 212414.0 217792.0 88986.0 91494.0 238381.0 246364.0 242258.0 238608.0 132693.0 140395.0 126583.0 131540.0 238916.0 243331.0 286559.0 279244.0 72404.0 75076.0 226804.0 222305.0 249277.0 241650.0 202710.0 197427.0 280730.0 275532.0 147336.0 145552.0 24084.0 31437.0 180658.0 182419.0 8300.0 0.0 221059.0 213372.0 280160.0 274459.0 247337.0 239739.0 63494.0 55805.0 254053.0 258562.0 227847.0 235530.0 101886.0 101843.0 267324.0 271216.0 246799.0 254937.0 31140.0 38881.0 222081.0 228612.0 239828.0 231784.0 222868.0 224082.0 265514.0 262017.0 263402.0 258782.0 280512.0 282136.0 139545.0 131278.0 221494.0 67000.0 221494.0 221494.0 221494.0 221494.0 67000.0 67000.0 67000.0 67000.0
159351.0 156170.0 67628.0 72134.0 136280.0 131975.0 98345.0 91183.0 107021.0 107673.0 131534.0 124747.0 36822.0 42934.0 142023.0 137695.0 23636.0 30310.0 31152.0 23651.0 88367.0 80683.0 95054.0 91652.0 36298.0 33922.0 161167.0 160021.0 293421.0 296047.0 115786.0 121185.0 131087.0 125033.0 114505.0 119687.0 120411.0 112298.0 85360.0 91768.0 208713.0 206719.0 76756.0 68389.0 223668.0 221059.0 0.0 7844.0 150909.0 152133.0 112466.0 112106.0 177042.0 183389.0 154655.0 152047.0 133487.0 135060.0 322942.0 322639.0 82275.0 79803.0 49815.0 54506.0 195820.0 188442.0 54625.0 51328.0 18881.0 11099.0 89411.0 82091.0 168988.0 172562.0 110358.0 102036.0 134088.0 128943.0 82021.0 90013.0 159981.0 180349.0 159981.0 159981.0 159981.0 159981.0 180349.0 180349.0 180349.0 180349.0
156517.0 153699.0 62938.0 66817.0 135856.0 131950.0 97753.0 90267.0 99350.0 99897.0 127802.0 120795.0 33652.0 40755.0 134184.0 129853.0 28748.0 36135.0 37594.0 30540.0 80683.0 73038.0 87265.0 83812.0 41469.0 40180.0 160615.0 159058.0 285749.0 288338.0 112887.0 117884.0 129258.0 122886.0 112989.0 117775.0 121425.0 113335.0 77731.0 84250.0 201217.0 199309.0 70743.0 62269.0 215930.0 213372.0 7844.0 0.0 150375.0 151178.0 111144.0 110220.0 169203.0 175545.0 152378.0 150119.0 130267.0 132254.0 315249.0 314910.0 84581.0 82814.0 52325.0 57879.0 188305.0 180966.0 55894.0 53668.0 26706.0 18932.0 89866.0 82839.0 166880.0 170119.0 110439.0 102136.0 134350.0 129597.0 74228.0 82255.0 155476.0 172526.0 155476.0 155476.0 155476.0 155476.0 172526.0 172526.0 172526.0 172526.0
46900.0 38679.0 102144.0 105855.0 14718.0 20811.0 52628.0 60223.0 157417.0 165078.0 62922.0 67963.0 118278.0 110230.0 193531.0 192403.0 133427.0 132826.0 174034.0 166578.0 182273.0 179455.0 179909.0 171552.0 182884.0 176991.0 10258.0 12311.0 346007.0 346216.0 54450.0 57930.0 31077.0 39070.0 262040.0 265984.0 39926.0 45991.0 148339.0 145448.0 280710.0 282776.0 112875.0 116770.0 278113.0 280160.0 150909.0 150375.0 0.0 8198.0 41011.0 45493.0 217421.0 225413.0 34471.0 27135.0 53170.0 45373.0 372991.0 371051.0 78692.0 85921.0 105413.0 105410.0 268911.0 264484.0 205534.0 201880.0 152283.0 153107.0 240141.0 232944.0 36719.0 44884.0 41511.0 49604.0 21864.0 30056.0 172806.0 179356.0 89757.0 217291.0 89757.0 89757.0 89757.0 89757.0 217291.0 217291.0 217291.0 217291.0
38746.0 30547.0 100377.0 103518.0 18392.0 25889.0 53932.0 60967.0 153045.0 160825.0 56574.0 62142.0 118523.0 110669.0 188405.0 187436.0 135572.0 135438.0 176257.0 168674.0 179391.0 176893.0 176622.0 168229.0 184898.0 179241.0 12261.0 7888.0 340191.0 340400.0 50285.0 52789.0 26741.0 34934.0 262039.0 265771.0 45825.0 51120.0 144921.0 141660.0 275541.0 277772.0 109992.0 114399.0 272243.0 274459.0 152133.0 151178.0 8198.0 0.0 40342.0 43440.0 211605.0 219597.0 26360.0 19108.0 46792.0 39022.0 367176.0 365236.0 82844.0 90360.0 107998.0 108581.0 263875.0 259613.0 206696.0 203329.0 154495.0 154901.0 241043.0 233960.0 28955.0 37008.0 44676.0 52346.0 28184.0 36404.0 170002.0 176310.0 82210.0 211476.0 82210.0 82210.0 82210.0 82210.0 211476.0 211476.0 211476.0 211476.0
53254.0 47503.0 61324.0 65539.0 28126.0 28515.0 16906.0 21742.0 120765.0 127999.0 43029.0 43208.0 78243.0 70488.0 159011.0 157314.0 97360.0 98214.0 137904.0 130140.0 142298.0 139103.0 140561.0 132306.0 146156.0 140923.0 50867.0 48153.0 314523.0 314782.0 23743.0 31510.0 20025.0 17589.0 221697.0 225450.0 35806.0 33803.0 109413.0 107363.0 245775.0 247263.0 73287.0 76422.0 246068.0 247337.0 112466.0 111144.0 41011.0 40342.0 0.0 8219.0 185951.0 193940.0 44834.0 40611.0 36698.0 32446.0 341557.0 339617.0 53008.0 61161.0 71199.0 73436.0 233565.0 228607.0 166861.0 163781.0 116252.0 115953.0 200982.0 193981.0 57890.0 62947.0 19971.0 21723.0 33423.0 34976.0 132755.0 139623.0 76270.0 185857.0 76270.0 76270.0 76270.0 76270.0 185857.0 185857.0 185857.0 185857.0
49712.0 44958.0 56945.0 60371.0 34032.0 35660.0 21829.0 24033.0 113792.0 121162.0 35505.0 35168.0 76826.0 69476.0 151612.0 150023.0 98469.0 99972.0 138674.0 130806.0 136825.0 133962.0 134672.0 126355.0 146593.0 141707.0 54824.0 50956.0 306749.0 306958.0 15610.0 23577.0 19041.0 13428.0 219422.0 222931.0 44024.0 41838.0 103268.0 100840.0 238524.0 240132.0 67484.0 71284.0 238368.0 239739.0 112106.0 110220.0 45493.0 43440.0 8219.0 0.0 178139.0 186131.0 42906.0 39944.0 30063.0 27031.0 333733.0 331793.0 58491.0 66604.0 73531.0 76581.0 226391.0 221547.0 166104.0 163396.0 117209.0 116342.0 199803.0 192956.0 56934.0 61056.0 27970.0 28631.0 40779.0 42940.0 127340.0 133974.0 68795.0 178033.0 68795.0 68795.0 68795.0 68795.0 178033.0 178033.0 178033.0 178033.0
183940.0 188589.0 141677.0 133664.0 210352.0 213534.0 189216.0 182781.0 73724.0 70516.0 155235.0 149501.0 160864.0 164901.0 35019.0 39419.0 190558.0 198328.0 202868.0 197723.0 93134.0 100833.0 84213.0 85801.0 201751.0 204549.0 223683.0 216351.0 128674.0 128981.0 164620.0 159709.0 186669.0 179188.0 191472.0 188292.0 220238.0 215565.0 94573.0 90654.0 70330.0 75135.0 123521.0 126864.0 60798.0 63494.0 177042.0 169203.0 217421.0 211605.0 185951.0 178139.0 0.0 7995.0 191159.0 195697.0 164956.0 172648.0 155801.0 153863.0 210763.0 215511.0 193976.0 202120.0 62146.0 62063.0 191768.0 196841.0 195803.0 188134.0 202205.0 201207.0 202620.0 199124.0 202911.0 198919.0 218777.0 220912.0 96579.0 89830.0 158600.0 7151.0 158600.0 158600.0 158600.0 158600.0 7151.0 7151.0 7151.0 7151.0
191931.0 196581.0 149331.0 141343.0 218343.0 221529.0 197149.0 190683.0 81083.0 77531.0 163227.0 157493.0 168028.0 172214.0 41585.0 45732.0 197371.0 205178.0 208741.0 203758.0 98401.0 106188.0 89776.0 91875.0 207356.0 210353.0 231675.0 224342.0 120714.0 121080.0 172613.0 167701.0 194661.0 187173.0 193807.0 190342.0 228202.0 223504.0 101673.0 98001.0 63927.0 69134.0 131195.0 134387.0 52885.0 55805.0 183389.0 175545.0 225413.0 219597.0 193940.0 186131.0 7995.0 0.0 199150.0 203689.0 172947.0 180639.0 147938.0 145999.0 218466.0 223144.0 201322.0 209475.0 56622.0 57363.0 196503.0 201775.0 202198.0 194468.0 205781.0 205055.0 210612.0 207115.0 210872.0 206850.0 226771.0 228899.0 102370.0 95329.0 166591.0 11757.0 166591.0 166591.0 166591.0 166591.0 11757.0 11757.0 11757.0 11757.0
12504.0 4241.0 94786.0 95891.0 38813.0 46609.0 61632.0 66214.0 137397.0 145461.0 37057.0 44365.0 118764.0 111801.0 169980.0 169517.0 141359.0 142692.0 181573.0 173695.0 168235.0 166803.0 164192.0 155789.0 189432.0 184606.0 35920.0 27475.0 319745.0 319954.0 40743.0 38906.0 24808.0 29663.0 259380.0 262408.0 65974.0 69071.0 132540.0 128113.0 256564.0 259284.0 100286.0 106255.0 251853.0 254053.0 154655.0 152378.0 34471.0 26360.0 44834.0 42906.0 191159.0 199150.0 0.0 7456.0 28321.0 22332.0 346729.0 344789.0 96383.0 104437.0 115911.0 118267.0 245337.0 241596.0 208244.0 205834.0 160114.0 159188.0 241443.0 234782.0 14862.0 18187.0 58504.0 64153.0 50673.0 58212.0 159223.0 164661.0 57108.0 191029.0 57108.0 57108.0 57108.0 57108.0 191029.0 191029.0 191029.0 191029.0
19957.0 11696.0 94188.0 95921.0 31594.0 39463.0 57063.0 62310.0 140207.0 148193.0 40667.0 47369.0 116638.0 109395.0 173811.0 173169.0 137857.0 138824.0 178295.0 170477.0 169642.0 167873.0 165996.0 157579.0 186373.0 181322.0 29382.0 21190.0 324283.0 324492.0 40547.0 40243.0 20997.0 27424.0 258383.0 261615.0 59056.0 62522.0 134249.0 130191.0 260661.0 263212.0 100996.0 106509.0 256391.0 258562.0 152047.0 150119.0 27135.0 19108.0 40611.0 39944.0 195697.0 203689.0 7456.0 0.0 31237.0 24133.0 351267.0 349327.0 90860.0 98839.0 111778.0 113718.0 249274.0 245351.0 206012.0 203340.0 156710.0 156126.0 239571.0 232786.0 17281.0 23060.0 52582.0 58717.0 43380.0 51032.0 160491.0 166216.0 63495.0 195567.0 63495.0 63495.0 63495.0 63495.0 195567.0 195567.0 195567.0 195567.0
27175.0 27323.0 69625.0 69559.0 49312.0 54972.0 51870.0 52973.0 109185.0 117222.0 9783.0 16165.0 96776.0 90753.0 142610.0 141938.0 123214.0 125843.0 162159.0 154167.0 140140.0 138926.0 135934.0 127539.0 169263.0 165186.0 58761.0 51422.0 293541.0 293750.0 18377.0 12430.0 24611.0 20220.0 233958.0 236631.0 69757.0 69569.0 104332.0 99807.0 229535.0 232024.0 72953.0 79469.0 225650.0 227847.0 133487.0 130267.0 53170.0 46792.0 36698.0 30063.0 164956.0 172947.0 28321.0 31237.0 0.0 7799.0 320526.0 318586.0 88493.0 96581.0 100725.0 104752.0 218090.0 214127.0 185640.0 183925.0 141355.0 139328.0 217837.0 211488.0 42468.0 42582.0 56137.0 58344.0 60227.0 65458.0 131217.0 136495.0 40422.0 164826.0 40422.0 40422.0 40422.0 40422.0 164826.0 164826.0 164826.0 164826.0
24291.0 22261.0 73056.0 73765.0 41930.0 47920.0 48634.0 50905.0 116077.0 124061.0 17574.0 23438.0 98619.0 92142.0 150040.0 149286.0 123525.0 125676.0 163058.0 155097.0 145993.0 144489.0 142105.0 133693.0 170478.0 166093.0 51038.0 43823.0 301234.0 301443.0 19393.0 16574.0 17546.0 14953.0 237705.0 240587.0 63619.0 64061.0 110399.0 106171.0 237039.0 239461.0 77963.0 84025.0 233342.0 235530.0 135060.0 132254.0 45373.0 39022.0 32446.0 27031.0 172648.0 180639.0 22332.0 24133.0 7799.0 0.0 328218.0 326278.0 85241.0 93385.0 99853.0 103332.0 225534.0 221494.0 187928.0 185898.0 141954.0 140362.0 220623.0 214120.0 37042.0 38419.0 51019.0 54123.0 53103.0 58704.0 136943.0 142467.0 47048.0 172518.0 47048.0 47048.0 47048.0 47048.0 172518.0 172518.0 172518.0 172518.0
339510.0 344160.0 296908.0 289005.0 365923.0 369114.0 344912.0 338563.0 228025.0 223361.0 310805.0 305071.0 313257.0 318234.0 187394.0 190634.0 340046.0 348018.0 343854.0 340364.0 234575.0 242281.0 228326.0 232984.0 340209.0 344845.0 379254.0 371921.0 29764.0 27124.0 320192.0 315280.0 342239.0 334759.0 295078.0 288839.0 375909.0 371221.0 247377.0 244737.0 117085.0 121241.0 278861.0 281549.0 99663.0 101886.0 322942.0 315249.0 372991.0 367176.0 341557.0 333733.0 155801.0 147938.0 346729.0 351267.0 320526.0 328218.0 0.0 7961.0 366126.0 370547.0 347363.0 355526.0 129139.0 137038.0 321983.0 328830.0 341714.0 333670.0 319271.0 321393.0 358191.0 354694.0 358510.0 354622.0 374359.0 376523.0 241323.0 233102.0 314170.0 157477.0 314170.0 314170.0 314170.0 314170.0 157477.0 157477.0 157477.0 157477.0
337570.0 342220.0 295089.0 287158.0 363983.0 367174.0 343013.0 336634.0 226321.0 221893.0 308865.0 303131.0 312071.0 316877.0 185796.0 189179.0 339346.0 347304.0 344096.0 340440.0 234306.0 242063.0 227796.0 232211.0 340668.0 345154.0 377313.0 369981.0 31355.0 26905.0 318251.0 313339.0 340299.0 332819.0 297614.0 291498.0 373969.0 369337.0 245990.0 243113.0 118355.0 122907.0 277010.0 279832.0 98995.0 101843.0 322639.0 314910.0 371051.0 365236.0 339617.0 331793.0 153863.0 145999.0 344789.0 349327.0 318586.0 326278.0 7961.0 0.0 364291.0 368768.0 346025.0 354192.0 130072.0 138031.0 323027.0 329770.0 341454.0 333433.0 321170.0 323109.0 356250.0 352754.0 356570.0 352721.0 372419.0 374583.0 240822.0 232675.0 312230.0 155537.0 312230.0 312230.0 312230.0 312230.0 155537.0 155537.0 155537.0 155537.0
105932.0 99561.0 69221.0 77135.0 64576.0 57898.0 36668.0 36621.0 138241.0 143519.0 92809.0 90303.0 61408.0 53643.0 178922.0 175992.0 60473.0 57563.0 99207.0 92475.0 144416.0 138787.0 146330.0 139275.0 108745.0 101991.0 88382.0 90155.0 338063.0 339094.0 71853.0 80150.0 72166.0 70561.0 196765.0 201947.0 41161.0 33508.0 120275.0 121791.0 261108.0 261103.0 87284.0 84905.0 267628.0 267324.0 82275.0 84581.0 78692.0 82844.0 53008.0 58491.0 210763.0 218466.0 96383.0 90860.0 88493.0 85241.0 366126.0 364291.0 0.0 8154.0 32461.0 29047.0 248236.0 242054.0 134949.0 129925.0 78099.0 80985.0 170158.0 162508.0 107640.0 113908.0 38573.0 32230.0 58008.0 50999.0 135182.0 143419.0 125530.0 211398.0 125530.0 125530.0 125530.0 125530.0 211398.0 211398.0 211398.0 211398.0
114059.0 107647.0 73842.0 81898.0 72019.0 65112.0 44792.0 44431.0 142525.0 147488.0 100765.0 98094.0 62545.0 55300.0 183185.0 180109.0 57127.0 53303.0 94522.0 88122.0 146482.0 140555.0 148912.0 142112.0 104226.0 97218.0 95450.0 97558.0 342297.0 343477.0 79812.0 88087.0 80285.0 78714.0 193964.0 199369.0 47481.0 40213.0 123917.0 125885.0 264361.0 264142.0 92020.0 89011.0 271738.0 271216.0 79803.0 82814.0 85921.0 90360.0 61161.0 66604.0 215511.0 223144.0 104437.0 98839.0 96581.0 93385.0 370547.0 368768.0 8154.0 0.0 30605.0 25382.0 251439.0 245105.0 131286.0 125924.0 73903.0 77476.0 166440.0 158716.0 115542.0 121896.0 46404.0 40303.0 64863.0 57527.0 137409.0 145746.0 133371.0 216364.0 133371.0 133371.0 133371.0 133371.0 216364.0 216364.0 216364.0 216364.0
123230.0 118312.0 55523.0 63496.0 90722.0 85326.0 54856.0 49713.0 120256.0 124165.0 102051.0 97214.0 34617.0 29152.0 160341.0 156852.0 28607.0 27444.0 68760.0 61512.0 118672.0 112277.0 122078.0 115898.0 77883.0 71682.0 115563.0 115760.0 318623.0 320239.0 82406.0 89768.0 91154.0 86939.0 164309.0 169489.0 71604.0 63533.0 100037.0 103328.0 238390.0 237701.0 72889.0 67722.0 247922.0 246799.0 49815.0 52325.0 105413.0 107998.0 71199.0 73531.0 193976.0 201322.0 115911.0 111778.0 100725.0 99853.0 347363.0 346025.0 32461.0 30605.0 0.0 8167.0 225396.0 218748.0 102900.0 98211.0 47101.0 49028.0 138094.0 130514.0 129057.0 134079.0 63920.0 55827.0 86663.0 80714.0 109970.0 118426.0 134550.0 195588.0 134550.0 134550.0 134550.0 134550.0 195588.0 195588.0 195588.0 195588.0
126218.0 120893.0 63216.0 71253.0 90845.0 84929.0 56682.0 52549.0 128404.0 132332.0 106722.0 102304.0 42661.0 37319.0 168507.0 165019.0 31768.0 28523.0 70211.0 63428.0 126524.0 120038.0 130076.0 123965.0 79708.0 73022.0 115422.0 116221.0 326778.0 328402.0 86596.0 94244.0 93460.0 89862.0 168583.0 173997.0 69756.0 61842.0 108204.0 111478.0 246431.0 245695.0 80767.0 75766.0 256078.0 254937.0 54506.0 57879.0 105410.0 108581.0 73436.0 76581.0 202120.0 209475.0 118267.0 113718.0 104752.0 103332.0 355526.0 354192.0 29047.0 25382.0 8167.0 0.0 233434.0 226755.0 106099.0 100936.0 49054.0 52189.0 141291.0 133604.0 130943.0 136349.0 64001.0 56248.0 85767.0 79292.0 117896.0 126362.0 139846.0 203707.0 139846.0 139846.0 139846.0 139846.0 203707.0 203707.0 203707.0 203707.0
238759.0 243071.0 180330.0 173160.0 260032.0 261992.0 233467.0 226062.0 112984.0 106241.0 208615.0 202097.0 190782.0 196845.0 75497.0 76519.0 214491.0 222474.0 215193.0 212049.0 108123.0 115476.0 103429.0 109542.0 211245.0 216074.0 276117.0 269310.0 99379.0 103180.0 214651.0 211116.0 237834.0 229901.0 171603.0 166291.0 265378.0 259586.0 128190.0 127848.0 13010.0 13949.0 163443.0 163949.0 37930.0 31140.0 195820.0 188305.0 268911.0 263875.0 233565.0 226391.0 62146.0 56622.0 245337.0 249274.0 218090.0 225534.0 129139.0 130072.0 248236.0 251439.0 225396.0 233434.0 0.0 7996.0 192957.0 199731.0 214353.0 206266.0 192297.0 193754.0 257380.0 253956.0 248213.0 242883.0 266985.0 267782.0 115959.0 107494.0 213451.0 68145.0 213451.0 213451.0 213451.0 213451.0 68145.0 68145.0 68145.0 68145.0
235338.0 239436.0 174509.0 167466.0 255314.0 257083.0 228064.0 220564.0 107858.0 100865.0 204737.0 198064.0 184132.0 190332.0 71629.0 72212.0 207352.0 215328.0 207496.0 204433.0 101031.0 108285.0 96681.0 103039.0 203461.0 208348.0 271869.0 265194.0 107286.0 111144.0 210118.0 206825.0 233417.0 225430.0 163834.0 158592.0 260004.0 254085.0 122282.0 122294.0 20324.0 19050.0 157856.0 158065.0 45342.0 38881.0 188442.0 180966.0 264484.0 259613.0 228607.0 221547.0 62063.0 57363.0 241596.0 245351.0 214127.0 221494.0 137038.0 138031.0 242054.0 245105.0 218748.0 226755.0 7996.0 0.0 185008.0 191804.0 206919.0 198830.0 184326.0 185764.0 253883.0 250677.0 242902.0 237417.0 262028.0 262632.0 109060.0 100581.0 210164.0 68493.0 210164.0 210164.0 210164.0 210164.0 68493.0 68493.0 68493.0 68493.0
212143.0 209510.0 116924.0 119363.0 190903.0 186532.0 152960.0 145729.0 133543.0 130880.0 182608.0 175321.0 89480.0 96628.0 158459.0 153685.0 74480.0 78084.0 39880.0 44148.0 99079.0 91752.0 108608.0 109519.0 30315.0 38215.0 215791.0 214583.0 292257.0 296130.0 168539.0 173218.0 185139.0 178776.0 64975.0 71548.0 174362.0 166258.0 114751.0 122557.0 204904.0 201089.0 120942.0 112474.0 226524.0 222081.0 54625.0 55894.0 205534.0 206696.0 166861.0 166104.0 191768.0 196503.0 208244.0 206012.0 185640.0 187928.0 321983.0 323027.0 134949.0 131286.0 102900.0 106099.0 192957.0 185008.0 0.0 8039.0 57642.0 53964.0 35210.0 27625.0 222768.0 225931.0 164901.0 156582.0 188533.0 183164.0 97786.0 102946.0 208797.0 196710.0 208797.0 208797.0 208797.0 208797.0 196710.0 196710.0 196710.0 196710.0
210170.0 207249.0 115915.0 118877.0 187201.0 182581.0 149449.0 142429.0 136752.0 134513.0 181297.0 174164.0 87280.0 94033.0 163163.0 158411.0 69625.0 72621.0 32974.0 38031.0 103835.0 96329.0 113179.0 113578.0 23144.0 31042.0 212135.0 211214.0 299086.0 302866.0 166542.0 171534.0 182394.0 176254.0 72160.0 78927.0 169810.0 161727.0 117337.0 125036.0 211784.0 208095.0 121123.0 112591.0 232906.0 228612.0 51328.0 53668.0 201880.0 203329.0 163781.0 163396.0 196841.0 201775.0 205834.0 203340.0 183925.0 185898.0 328830.0 329770.0 129925.0 125924.0 98211.0 100936.0 199731.0 191804.0 8039.0 0.0 52028.0 49204.0 40800.0 32965.0 220236.0 223661.0 160948.0 152648.0 184395.0 178797.0 101912.0 107505.0 208225.0 201614.0 208225.0 208225.0 208225.0 208225.0 201614.0 201614.0 201614.0 201614.0
166073.0 162070.0 79887.0 85549.0 137568.0 132369.0 100730.0 94518.0 125248.0 126200.0 140598.0 134385.0 47905.0 51562.0 160789.0 156488.0 18936.0 20607.0 21764.0 14433.0 107154.0 99433.0 113928.0 110511.0 30798.0 24747.0 162478.0 162323.0 312168.0 314840.0 123150.0 129388.0 135761.0 130534.0 121630.0 127596.0 118479.0 110459.0 103513.0 109639.0 227214.0 225084.0 91510.0 83489.0 242495.0 239828.0 18881.0 26706.0 152283.0 154495.0 116252.0 117209.0 195803.0 202198.0 160114.0 156710.0 141355.0 141954.0 341714.0 341454.0 78099.0 73903.0 47101.0 49054.0 214353.0 206919.0 57642.0 52028.0 0.0 8090.0 92654.0 84886.0 173926.0 178260.0 110873.0 102689.0 133764.0 127748.0 100897.0 108867.0 170653.0 199028.0 170653.0 170653.0 170653.0 170653.0 199028.0 199028.0 199028.0 199028.0
164599.0 160953.0 75685.0 80836.0 138397.0 133565.0 100974.0 94326.0 118031.0 118756.0 138032.0 131546.0 43938.0 48706.0 153116.0 148781.0 20516.0 24825.0 22922.0 14923.0 99127.0 91391.0 105987.0 102701.0 30251.0 25923.0 163346.0 162768.0 304115.0 306807.0 121307.0 127187.0 135131.0 129530.0 116776.0 122470.0 120612.0 112526.0 96341.0 102655.0 219125.0 216995.0 86176.0 77964.0 234486.0 231784.0 11099.0 18932.0 153107.0 154901.0 115953.0 116342.0 188134.0 194468.0 159188.0 156126.0 139328.0 140362.0 333670.0 333433.0 80985.0 77476.0 49028.0 52189.0 206266.0 198830.0 53964.0 49204.0 8090.0 0.0 89174.0 81541.0 173249.0 177255.0 111953.0 103679.0 135265.0 129599.0 92965.0 100892.0 167380.0 191448.0 167380.0 167380.0 167380.0 167380.0 191448.0 191448.0 191448.0 191448.0
244673.0 242490.0 148379.0 149819.0 225564.0 221377.0 187516.0 180115.0 153507.0 149296.0 214115.0 206581.0 122977.0 130510.0 171445.0 166682.0 109690.0 113183.0 73616.0 78812.0 113959.0 107864.0 123863.0 126953.0 63688.0 71472.0 250392.0 248924.0 289912.0 294522.0 201255.0 205417.0 218835.0 212204.0 35042.0 42716.0 209504.0 201395.0 137403.0 145338.0 203145.0 198274.0 149981.0 141792.0 228349.0 222868.0 89411.0 89866.0 240141.0 241043.0 200982.0 199803.0 202205.0 205781.0 241443.0 239571.0 217837.0 220623.0 319271.0 321170.0 170158.0 166440.0 138094.0 141291.0 192297.0 184326.0 35210.0 40800.0 92654.0 89174.0 0.0 7871.0 256106.0 258887.0 199767.0 191445.0 223491.0 218235.0 115485.0 118526.0 238750.0 207941.0 238750.0 238750.0 238750.0 238750.0 207941.0 207941.0 207941.0 207941.0
238232.0 235903.0 142185.0 143900.0 218340.0 214061.0 180335.0 173004.0 150165.0 146296.0 207970.0 200503.0 116149.0 123563.0 169775.0 164992.0 102056.0 105437.0 65748.0 70991.0 111560.0 105139.0 121450.0 124067.0 55818.0 63600.0 243199.0 241844.0 291922.0 296377.0 194735.0 199060.0 211996.0 205457.0 41985.0 49488.0 201988.0 193883.0 133371.0 141306.0 204872.0 200220.0 144434.0 136155.0 229346.0 224082.0 82091.0 82839.0 232944.0 233960.0 193981.0 192956.0 201207.0 205055.0 234782.0 232786.0 211488.0 214120.0 321393.0 323109.0 162508.0 158716.0 130514.0 133604.0 193754.0 185764.0 27625.0 32965.0 84886.0 81541.0 7871.0 0.0 249402.0 252313.0 192438.0 184116.0 216111.0 210779.0 112465.0 116004.0 233058.0 206777.0 233058.0 233058.0 233058.0 233058.0 206777.0 206777.0 206777.0 206777.0
18763.0 15156.0 109645.0 110726.0 45809.0 53745.0 74315.0 79578.0 150850.0 158966.0 50500.0 58160.0 133309.0 126220.0 182271.0 182031.0 155090.0 156101.0 195485.0 187650.0 182608.0 181330.0 178349.0 169963.0 203500.0 198513.0 33853.0 25792.0 331206.0 331415.0 55603.0 53580.0 38165.0 43996.0 274225.0 277267.0 73793.0 78121.0 146787.0 142143.0 268373.0 271326.0 114985.0 121052.0 263314.0 265514.0 168988.0 166880.0 36719.0 28955.0 57890.0 56934.0 202620.0 210612.0 14862.0 17281.0 42468.0 37042.0 358191.0 356250.0 107640.0 115542.0 129057.0 130943.0 257380.0 253883.0 222768.0 220236.0 173926.0 173249.0 256106.0 249402.0 0.0 8285.0 69149.0 75643.0 56786.0 64892.0 173668.0 178959.0 65346.0 202490.0 65346.0 65346.0 65346.0 65346.0 202490.0 202490.0 202490.0 202490.0
15993.0 16421.0 111468.0 111953.0 53323.0 61284.0 79676.0 84393.0 149022.0 157183.0 49486.0 57409.0 136473.0 129658.0 179165.0 179130.0 159523.0 160879.0 199689.0 191799.0 182146.0 181224.0 177482.0 169141.0 207489.0 202724.0 42109.0 34077.0 327709.0 327918.0 57676.0 54486.0 42937.0 47742.0 276102.0 278932.0 81253.0 85237.0 146146.0 141141.0 264880.0 267889.0 115532.0 122004.0 259818.0 262017.0 172562.0 170119.0 44884.0 37008.0 62947.0 61056.0 199124.0 207115.0 18187.0 23060.0 42582.0 38419.0 354694.0 352754.0 113908.0 121896.0 134079.0 136349.0 253956.0 250677.0 225931.0 223661.0 178260.0 177255.0 258887.0 252313.0 8285.0 0.0 75633.0 81739.0 64557.0 72585.0 173378.0 178353.0 60282.0 198994.0 60282.0 60282.0 60282.0 60282.0 198994.0 198994.0 198994.0 198994.0
68903.0 61955.0 70622.0 76449.0 26864.0 21636.0 15243.0 23447.0 135254.0 142040.0 62932.0 63128.0 79788.0 71450.0 174592.0 172557.0 92070.0 91320.0 132606.0 125210.0 152476.0 148443.0 151868.0 143859.0 141546.0 135551.0 51643.0 52242.0 331585.0 331771.0 43578.0 51467.0 35402.0 36164.0 223060.0 227406.0 17342.0 13869.0 121732.0 120722.0 260650.0 261746.0 85432.0 86879.0 262508.0 263402.0 110358.0 110439.0 41511.0 44676.0 19971.0 27970.0 202911.0 210872.0 58504.0 52582.0 56137.0 51019.0 358510.0 356570.0 38573.0 46404.0 63920.0 64001.0 248213.0 242902.0 164901.0 160948.0 110873.0 111953.0 199767.0 192438.0 69149.0 75633.0 0.0 8322.0 23998.0 20805.0 142879.0 150296.0 96105.0 202888.0 96105.0 96105.0 96105.0 96105.0 202888.0 202888.0 202888.0 202888.0
73830.0 67344.0 64061.0 70307.0 34900.0 29951.0 9712.0 16888.0 130080.0 136641.0 64129.0 63278.0 71678.0 63316.0 169837.0 167632.0 83856.0 83260.0 124435.0 117004.0 145701.0 141454.0 145429.0 137521.0 133328.0 127389.0 59788.0 60031.0 327534.0 327887.0 43753.0 51995.0 40038.0 39195.0 214805.0 219185.0 22878.0 16755.0 115738.0 115126.0 255413.0 256326.0 79617.0 80487.0 258109.0 258782.0 102036.0 102136.0 49604.0 52346.0 21723.0 28631.0 198919.0 206850.0 64153.0 58717.0 58344.0 54123.0 354622.0 352721.0 32230.0 40303.0 55827.0 56248.0 242883.0 237417.0 156582.0 152648.0 102689.0 103679.0 191445.0 184116.0 75643.0 81739.0 8322.0 0.0 32241.0 28383.0 136113.0 143668.0 97414.0 198964.0 97414.0 97414.0 97414.0 97414.0 198964.0 198964.0 198964.0 198964.0
62922.0 54819.0 92698.0 97788.0 11955.0 5358.0 38285.0 46574.0 154181.0 161382.0 69152.0 72026.0 103759.0 95434.0 192356.0 190707.0 115135.0 113803.0 155397.0 148170.0 174461.0 170819.0 173229.0 165058.0 164539.0 158300.0 30724.0 34118.0 347375.0 347584.0 54425.0 60509.0 35632.0 41209.0 247045.0 251404.0 18091.0 24653.0 142392.0 140616.0 279183.0 280687.0 106095.0 108521.0 279100.0 280512.0 134088.0 134350.0 21864.0 28184.0 33423.0 40779.0 218777.0 226771.0 50673.0 43380.0 60227.0 53103.0 374359.0 372419.0 58008.0 64863.0 86663.0 85767.0 266985.0 262028.0 188533.0 184395.0 133764.0 135265.0 223491.0 216111.0 56786.0 64557.0 23998.0 32241.0 0.0 8242.0 164874.0 172017.0 100102.0 218659.0 100102.0 100102.0 100102.0 100102.0 218659.0 218659.0 218659.0 218659.0
70293.0 62296.0 91304.0 96924.0 19443.0 11616.0 35992.0 44242.0 154812.0 161801.0 73949.0 76098.0 99912.0 91522.0 193611.0 191773.0 109301.0 107574.0 149271.0 142178.0 173187.0 169218.0 172420.0 164356.0 158546.0 152140.0 38616.0 42335.0 349497.0 349747.0 57625.0 64378.0 41171.0 45721.0 242520.0 247060.0 10159.0 17505.0 142025.0 140703.0 280109.0 281398.0 105676.0 107465.0 280959.0 282136.0 128943.0 129597.0 30056.0 36404.0 34976.0 42940.0 220912.0 228899.0 58212.0 51032.0 65458.0 58704.0 376523.0 374583.0 50999.0 57527.0 80714.0 79292.0 267782.0 262632.0 183164.0 178797.0 127748.0 129599.0 218235.0 210779.0 64892.0 72585.0 20805.0 28383.0 8242.0 0.0 163588.0 170946.0 105724.0 220823.0 105724.0 105724.0 105724.0 105724.0 220823.0 220823.0 220823.0 220823.0
157462.0 158537.0 72288.0 67227.0 160864.0 160575.0 127637.0 119482.0 38330.0 33836.0 123921.0 115972.0 75441.0 82145.0 61952.0 57316.0 98891.0 106881.0 106371.0 101488.0 9599.0 8694.0 13041.0 11750.0 105206.0 107997.0 181859.0 176970.0 211945.0 214338.0 120389.0 120413.0 143437.0 135304.0 116745.0 116807.0 158958.0 152057.0 27900.0 34638.0 128969.0 127913.0 60010.0 56388.0 141828.0 139545.0 82021.0 74228.0 172806.0 170002.0 132755.0 127340.0 96579.0 102370.0 159223.0 160491.0 131217.0 136943.0 241323.0 240822.0 135182.0 137409.0 109970.0 117896.0 115959.0 109060.0 97786.0 101912.0 100897.0 92965.0 115485.0 112465.0 173668.0 173378.0 142879.0 136113.0 164874.0 163588.0 0.0 8481.0 139943.0 100704.0 139943.0 139943.0 139943.0 139943.0 100704.0 100704.0 100704.0 100704.0
162385.0 163805.0 79678.0 74235.0 167684.0 167631.0 135056.0 126956.0 37691.0 31712.0 128870.0 120984.0 83878.0 90514.0 55678.0 50943.0 107254.0 115245.0 113618.0 108986.0 4886.0 11195.0 5674.0 10180.0 112027.0 115139.0 188259.0 183154.0 203681.0 206144.0 126410.0 126016.0 149652.0 141485.0 117305.0 116800.0 166537.0 159737.0 32207.0 37802.0 120502.0 119432.0 66492.0 63518.0 133685.0 131278.0 90013.0 82255.0 179356.0 176310.0 139623.0 133974.0 89830.0 95329.0 164661.0 166216.0 136495.0 142467.0 233102.0 232675.0 143419.0 145746.0 118426.0 126362.0 107494.0 100581.0 102946.0 107505.0 108867.0 100892.0 118526.0 116004.0 178959.0 178353.0 150296.0 143668.0 172017.0 170946.0 8481.0 0.0 143565.0 94275.0 143565.0 143565.0 143565.0 143565.0 94275.0 94275.0 94275.0 94275.0
46895.0 53539.0 92538.0 89435.0 88720.0 94953.0 89809.0 88942.0 110802.0 118974.0 33292.0 35337.0 123494.0 119091.0 138719.0 138832.0 153652.0 157491.0 190251.0 182282.0 147836.0 148365.0 141771.0 133739.0 196277.0 193212.0 92852.0 84514.0 287186.0 287395.0 53939.0 45598.0 64593.0 60608.0 250760.0 252484.0 110171.0 109736.0 112043.0 105770.0 224357.0 227389.0 88850.0 96959.0 219294.0 221494.0 159981.0 155476.0 89757.0 82210.0 76270.0 68795.0 158600.0 166591.0 57108.0 63495.0 40422.0 47048.0 314170.0 312230.0 125530.0 133371.0 134550.0 139846.0 213451.0 210164.0 208797.0 208225.0 170653.0 167380.0 238750.0 233058.0 65346.0 60282.0 96105.0 97414.0 100102.0 105724.0 139943.0 143565.0 0.0 158470.0 0.0 0.0 0.0 0.0 158470.0 158470.0 158470.0 158470.0
183810.0 188460.0 142547.0 134468.0 210223.0 213414.0 189257.0 182886.0 75595.0 73098.0 155105.0 149371.0 162894.0 166617.0 38758.0 43398.0 193176.0 200878.0 206726.0 201399.0 97785.0 105378.0 88619.0 89649.0 205896.0 208479.0 223554.0 216221.0 129679.0 129575.0 164492.0 159580.0 186539.0 179059.0 197841.0 194778.0 220209.0 215591.0 96878.0 92464.0 75676.0 80817.0 124359.0 128140.0 63526.0 67000.0 180349.0 172526.0 217291.0 211476.0 185857.0 178033.0 7151.0 11757.0 191029.0 195567.0 164826.0 172518.0 157477.0 155537.0 211398.0 216364.0 195588.0 203707.0 68145.0 68493.0 196710.0 201614.0 199028.0 191448.0 207941.0 206777.0 202490.0 198994.0 202888.0 198964.0 218659.0 220823.0 100704.0 94275.0 158470.0 0.0 158470.0 158470.0 158470.0 158470.0 0.0 0.0 0.0 0.0
46895.0 53539.0 92538.0 89435.0 88720.0 94953.0 89809.0 88942.0 110802.0 118974.0 33292.0 35337.0 123494.0 119091.0 138719.0 138832.0 153652.0 157491.0 190251.0 182282.0 147836.0 148365.0 141771.0 133739.0 196277.0 193212.0 92852.0 84514.0 287186.0 287395.0 53939.0 45598.0 64593.0 60608.0 250760.0 252484.0 110171.0 109736.0 112043.0 105770.0 224357.0 227389.0 88850.0 96959.0 219294.0 221494.0 159981.0 155476.0 89757.0 82210.0 76270.0 68795.0 158600.0 166591.0 57108.0 63495.0 40422.0 47048.0 314170.0 312230.0 125530.0 133371.0 134550.0 139846.0 213451.0 210164.0 208797.0 208225.0 170653.0 167380.0 238750.0 233058.0 65346.0 60282.0 96105.0 97414.0 100102.0 105724.0 139943.0 143565.0 0.0 158470.0 0.0 0.0 0.0 0.0 158470.0 158470.0 158470.0 158470.0
46895.0 53539.0 92538.0 89435.0 88720.0 94953.0 89809.0 88942.0 110802.0 118974.0 33292.0 35337.0 123494.0 119091.0 138719.0 138832.0 153652.0 157491.0 190251.0 182282.0 147836.0 148365.0 141771.0 133739.0 196277.0 193212.0 92852.0 84514.0 287186.0 287395.0 53939.0 45598.0 64593.0 60608.0 250760.0 252484.0 110171.0 109736.0 112043.0 105770.0 224357.0 227389.0 88850.0 96959.0 219294.0 221494.0 159981.0 155476.0 89757.0 82210.0 76270.0 68795.0 158600.0 166591.0 57108.0 63495.0 40422.0 47048.0 314170.0 312230.0 125530.0 133371.0 134550.0 139846.0 213451.0 210164.0 208797.0 208225.0 170653.0 167380.0 238750.0 233058.0 65346.0 60282.0 96105.0 97414.0 100102.0 105724.0 139943.0 143565.0 0.0 158470.0 0.0 0.0 0.0 0.0 158470.0 158470.0 158470.0 158470.0
46895.0 53539.0 92538.0 89435.0 88720.0 94953.0 89809.0 88942.0 110802.0 118974.0 33292.0 35337.0 123494.0 119091.0 138719.0 138832.0 153652.0 157491.0 190251.0 182282.0 147836.0 148365.0 141771.0 133739.0 196277.0 193212.0 92852.0 84514.0 287186.0 287395.0 53939.0 45598.0 64593.0 60608.0 250760.0 252484.0 110171.0 109736.0 112043.0 105770.0 224357.0 227389.0 88850.0 96959.0 219294.0 221494.0 159981.0 155476.0 89757.0 82210.0 76270.0 68795.0 158600.0 166591.0 57108.0 63495.0 40422.0 47048.0 314170.0 312230.0 125530.0 133371.0 134550.0 139846.0 213451.0 210164.0 208797.0 208225.0 170653.0 167380.0 238750.0 233058.0 65346.0 60282.0 96105.0 97414.0 100102.0 105724.0 139943.0 143565.0 0.0 158470.0 0.0 0.0 0.0 0.0 158470.0 158470.0 158470.0 158470.0
46895.0 53539.0 92538.0 89435.0 88720.0 94953.0 89809.0 88942.0 110802.0 118974.0 33292.0 35337.0 123494.0 119091.0 138719.0 138832.0 153652.0 157491.0 190251.0 182282.0 147836.0 148365.0 141771.0 133739.0 196277.0 193212.0 92852.0 84514.0 287186.0 287395.0 53939.0 45598.0 64593.0 60608.0 250760.0 252484.0 110171.0 109736.0 112043.0 105770.0 224357.0 227389.0 88850.0 96959.0 219294.0 221494.0 159981.0 155476.0 89757.0 82210.0 76270.0 68795.0 158600.0 166591.0 57108.0 63495.0 40422.0 47048.0 314170.0 312230.0 125530.0 133371.0 134550.0 139846.0 213451.0 210164.0 208797.0 208225.0 170653.0 167380.0 238750.0 233058.0 65346.0 60282.0 96105.0 97414.0 100102.0 105724.0 139943.0 143565.0 0.0 158470.0 0.0 0.0 0.0 0.0 158470.0 158470.0 158470.0 158470.0
183810.0 188460.0 142547.0 134468.0 210223.0 213414.0 189257.0 182886.0 75595.0 73098.0 155105.0 149371.0 162894.0 166617.0 38758.0 43398.0 193176.0 200878.0 206726.0 201399.0 97785.0 105378.0 88619.0 89649.0 205896.0 208479.0 223554.0 216221.0 129679.0 129575.0 164492.0 159580.0 186539.0 179059.0 197841.0 194778.0 220209.0 215591.0 96878.0 92464.0 75676.0 80817.0 124359.0 128140.0 63526.0 67000.0 180349.0 172526.0 217291.0 211476.0 185857.0 178033.0 7151.0 11757.0 191029.0 195567.0 164826.0 172518.0 157477.0 155537.0 211398.0 216364.0 195588.0 203707.0 68145.0 68493.0 196710.0 201614.0 199028.0 191448.0 207941.0 206777.0 202490.0 198994.0 202888.0 198964.0 218659.0 220823.0 100704.0 94275.0 158470.0 0.0 158470.0 158470.0 158470.0 158470.0 0.0 0.0 0.0 0.0
183810.0 188460.0 142547.0 134468.0 210223.0 213414.0 189257.0 182886.0 75595.0 73098.0 155105.0 149371.0 162894.0 166617.0 38758.0 43398.0 193176.0 200878.0 206726.0 201399.0 97785.0 105378.0 88619.0 89649.0 205896.0 208479.0 223554.0 216221.0 129679.0 129575.0 164492.0 159580.0 186539.0 179059.0 197841.0 194778.0 220209.0 215591.0 96878.0 92464.0 75676.0 80817.0 124359.0 128140.0 63526.0 67000.0 180349.0 172526.0 217291.0 211476.0 185857.0 178033.0 7151.0 11757.0 191029.0 195567.0 164826.0 172518.0 157477.0 155537.0 211398.0 216364.0 195588.0 203707.0 68145.0 68493.0 196710.0 201614.0 199028.0 191448.0 207941.0 206777.0 202490.0 198994.0 202888.0 198964.0 218659.0 220823.0 100704.0 94275.0 158470.0 0.0 158470.0 158470.0 158470.0 158470.0 0.0 0.0 0.0 0.0
183810.0 188460.0 142547.0 134468.0 210223.0 213414.0 189257.0 182886.0 75595.0 73098.0 155105.0 149371.0 162894.0 166617.0 38758.0 43398.0 193176.0 200878.0 206726.0 201399.0 97785.0 105378.0 88619.0 89649.0 205896.0 208479.0 223554.0 216221.0 129679.0 129575.0 164492.0 159580.0 186539.0 179059.0 197841.0 194778.0 220209.0 215591.0 96878.0 92464.0 75676.0 80817.0 124359.0 128140.0 63526.0 67000.0 180349.0 172526.0 217291.0 211476.0 185857.0 178033.0 7151.0 11757.0 191029.0 195567.0 164826.0 172518.0 157477.0 155537.0 211398.0 216364.0 195588.0 203707.0 68145.0 68493.0 196710.0 201614.0 199028.0 191448.0 207941.0 206777.0 202490.0 198994.0 202888.0 198964.0 218659.0 220823.0 100704.0 94275.0 158470.0 0.0 158470.0 158470.0 158470.0 158470.0 0.0 0.0 0.0 0.0
183810.0 188460.0 142547.0 134468.0 210223.0 213414.0 189257.0 182886.0 75595.0 73098.0 155105.0 149371.0 162894.0 166617.0 38758.0 43398.0 193176.0 200878.0 206726.0 201399.0 97785.0 105378.0 88619.0 89649.0 205896.0 208479.0 223554.0 216221.0 129679.0 129575.0 164492.0 159580.0 186539.0 179059.0 197841.0 194778.0 220209.0 215591.0 96878.0 92464.0 75676.0 80817.0 124359.0 128140.0 63526.0 67000.0 180349.0 172526.0 217291.0 211476.0 185857.0 178033.0 7151.0 11757.0 191029.0 195567.0 164826.0 172518.0 157477.0 155537.0 211398.0 216364.0 195588.0 203707.0 68145.0 68493.0 196710.0 201614.0 199028.0 191448.0 207941.0 206777.0 202490.0 198994.0 202888.0 198964.0 218659.0 220823.0 100704.0 94275.0 158470.0 0.0 158470.0 158470.0 158470.0 158470.0 0.0 0.0 0.0 0.0
FIXED_EDGES_SECTION
1 2
3 4
5 6
7 8
9 10
11 12
13 14
15 16
17 18
19 20
21 22
23 24
25 26
27 28
29 30
31 32
33 34
35 36
37 38
39 40
41 42
43 44
45 46
47 48
49 50
51 52
53 54
55 56
57 58
59 60
61 62
63 64
65 66
67 68
69 70
71 72
73 74
75 76
77 78
79 80
-1 
DEMAND_SECTION
1 292
2 292
3 171
4 171
5 274
6 274
7 57
8 57
9 324
10 324
11 485
12 485
13 349
14 349
15 399
16 399
17 90
18 90
19 186
20 186
21 291
22 291
23 223
24 223
25 72
26 72
27 251
28 251
29 60
30 60
31 100
32 100
33 396
34 396
35 321
36 321
37 265
38 265
39 214
40 214
41 620
42 620
43 94
44 94
45 563
46 563
47 82
48 82
49 216
50 216
51 493
52 493
53 37
54 37
55 219
56 219
57 618
58 618
59 71
60 71
61 55
62 55
63 247
64 247
65 319
66 319
67 157
68 157
69 479
70 479
71 277
72 277
73 369
74 369
75 375
76 375
77 500
78 500
79 421
80 421
81 0
82 0
83 0
84 0
85 0
86 0
87 0
88 0
89 0
90 0
DEPOT_SECTION
81 
-1 
CAPACITIES_SECTION
5000 
5500 
6000 
-1 
EOF