NAME: GFS_20_1
TYPE: GFSP
DIMENSION: 90
VEHICLES: 3
CAPACITY: 5000.0
TRIP_DIST_LIMIT: 750000.0
TOTAL_DIST_LIMIT: 1400000.0
EDGE_WEIGHT_TYPE: EXPLICIT
EDGE_WEIGHT_FORMAT: FULL_MATRIX
EDGE_WEIGHT_SECTION
0.0 7992.0 140717.0 138432.0 120070.0 116601.0 191954.0 193557.0 93001.0 99581.0 112060.0 106263.0 103052.0 103999.0 259615.0 266468.0 102081.0 95094.0 79332.0 82960.0 22444.0 14457.0 66468.0 65964.0 89873.0 81683.0 19278.0 14001.0 94961.0 89546.0 98446.0 103263.0 38861.0 41484.0 239896.0 240767.0 189928.0 182719.0 40809.0 40494.0 112321.0 120020.0 267763.0 265887.0 80983.0 78436.0 29453.0 21366.0 19458.0 27438.0 60054.0 51647.0 128874.0 136702.0 125153.0 126005.0 40999.0 39955.0 44032.0 37344.0 80640.0 74126.0 39105.0 45687.0 165870.0 166817.0 169726.0 169899.0 69544.0 61562.0 28320.0 25859.0 114768.0 114862.0 98171.0 106131.0 167011.0 161952.0 100016.0 94198.0 88120.0 113104.0 88120.0 88120.0 88120.0 88120.0 113104.0 113104.0 113104.0 113104.0
7992.0 0.0 135522.0 132888.0 114892.0 111829.0 199816.0 201351.0 100960.0 107495.0 105123.0 99126.0 100708.0 101047.0 267503.0 274355.0 96424.0 89693.0 87243.0 90747.0 14519.0 6522.0 62144.0 62546.0 85209.0 77062.0 24796.0 17781.0 88156.0 82464.0 90527.0 95289.0 35602.0 36812.0 247703.0 248622.0 197081.0 189819.0 35729.0 34232.0 120263.0 127944.0 275633.0 273774.0 88690.0 86032.0 21464.0 13402.0 18449.0 25504.0 65064.0 56754.0 123333.0 131117.0 122085.0 122467.0 39049.0 36462.0 36336.0 29453.0 85779.0 78922.0 38838.0 46222.0 173094.0 173885.0 177458.0 177525.0 67481.0 59491.0 33833.0 32666.0 108562.0 108301.0 105791.0 113772.0 164044.0 159276.0 93932.0 88444.0 88461.0 121085.0 88461.0 88461.0 88461.0 88461.0 121085.0 121085.0 121085.0 121085.0
140717.0 135522.0 0.0 8425.0 194821.0 197650.0 290948.0 288924.0 209658.0 212536.0 158839.0 151086.0 210917.0 206733.0 358460.0 364478.0 176040.0 175090.0 195754.0 194171.0 128868.0 132483.0 168127.0 174392.0 180126.0 175176.0 137798.0 133471.0 153327.0 145372.0 117683.0 111920.0 103066.0 99252.0 332173.0 335689.0 263632.0 256001.0 99949.0 101770.0 224945.0 230477.0 361937.0 362582.0 190391.0 185759.0 123703.0 128664.0 122986.0 115222.0 140748.0 139608.0 195734.0 200672.0 43323.0 35375.0 103914.0 101710.0 107098.0 114711.0 149120.0 142591.0 110487.0 110144.0 245130.0 241771.0 264841.0 260979.0 185563.0 179269.0 138537.0 145635.0 175242.0 168588.0 201195.0 208026.0 56380.0 58724.0 45004.0 48038.0 215326.0 229147.0 215326.0 215326.0 215326.0 215326.0 229147.0 229147.0 229147.0 229147.0
138432.0 132888.0 8425.0 0.0 187966.0 190995.0 293515.0 291716.0 210346.0 213524.0 151539.0 143857.0 205297.0 200901.0 361253.0 367384.0 169403.0 168702.0 196291.0 195046.0 125469.0 129508.0 162828.0 169304.0 174081.0 169357.0 136652.0 131920.0 146526.0 138660.0 110385.0 104417.0 101529.0 97150.0 335375.0 338735.0 267531.0 259865.0 97635.0 98823.0 226084.0 231823.0 365130.0 365604.0 191329.0 186756.0 119998.0 125348.0 121237.0 113647.0 142055.0 140422.0 188601.0 193400.0 49458.0 41420.0 102958.0 100115.0 103052.0 110804.0 151483.0 144709.0 109929.0 110212.0 248570.0 245421.0 267494.0 263856.0 180699.0 174600.0 137941.0 144817.0 168141.0 161362.0 202708.0 209703.0 64804.0 67094.0 40314.0 44545.0 210954.0 230070.0 210954.0 210954.0 210954.0 210954.0 230070.0 230070.0 230070.0 230070.0
120070.0 114892.0 194821.0 187966.0 0.0 8198.0 297549.0 300265.0 198704.0 206640.0 39926.0 45991.0 46900.0 38679.0 364779.0 371632.0 20253.0 25396.0 188147.0 194202.0 104532.0 110040.0 54450.0 57930.0 31077.0 39070.0 139248.0 132667.0 41511.0 49604.0 78692.0 85921.0 137474.0 132224.0 346007.0 346216.0 305011.0 298275.0 129614.0 121883.0 217421.0 225413.0 372991.0 371051.0 193531.0 192403.0 102144.0 105855.0 130612.0 134331.0 179909.0 171552.0 11410.0 18572.0 205534.0 201880.0 144226.0 137152.0 106977.0 104053.0 200594.0 193813.0 148416.0 156610.0 280710.0 282776.0 278113.0 280160.0 62922.0 67963.0 148339.0 145448.0 21864.0 30056.0 210925.0 218274.0 243527.0 241764.0 152283.0 153107.0 89757.0 217291.0 89757.0 89757.0 89757.0 89757.0 217291.0 217291.0 217291.0 217291.0
116601.0 111829.0 197650.0 190995.0 8198.0 0.0 291734.0 294449.0 192961.0 200948.0 45825.0 51120.0 38746.0 30547.0 358964.0 365816.0 21613.0 24221.0 182720.0 188944.0 102223.0 107290.0 50285.0 52789.0 26741.0 34934.0 135861.0 129544.0 44676.0 52346.0 82844.0 90360.0 136109.0 131233.0 340191.0 340400.0 299831.0 293178.0 128655.0 121077.0 211605.0 219597.0 367176.0 365236.0 188405.0 187436.0 100377.0 103518.0 128132.0 132274.0 176622.0 168229.0 19257.0 25729.0 206696.0 203329.0 142697.0 135878.0 106513.0 103023.0 197240.0 190627.0 146476.0 154644.0 275541.0 277772.0 272243.0 274459.0 56574.0 62142.0 144921.0 141660.0 28184.0 36404.0 205725.0 212975.0 245305.0 243285.0 154495.0 154901.0 82210.0 211476.0 82210.0 82210.0 82210.0 82210.0 211476.0 211476.0 211476.0 211476.0
191954.0 199816.0 290948.0 293515.0 297549.0 291734.0 0.0 8428.0 99665.0 92531.0 300467.0 295820.0 264068.0 268718.0 68247.0 75015.0 283683.0 275729.0 112702.0 109203.0 214333.0 206338.0 244750.0 239838.0 266797.0 259317.0 178550.0 186440.0 283145.0 279170.0 290302.0 294733.0 207882.0 215605.0 48507.0 48819.0 54664.0 57164.0 217097.0 222296.0 80254.0 72322.0 75824.0 74256.0 111617.0 114942.0 221084.0 213185.0 195810.0 199340.0 154057.0 158191.0 308186.0 315914.0 252758.0 259124.0 202484.0 209394.0 232675.0 227650.0 142055.0 149045.0 194027.0 189907.0 54303.0 61064.0 26241.0 31698.0 235363.0 229629.0 171743.0 168958.0 298917.0 301081.0 95564.0 87623.0 280379.0 272427.0 267938.0 259959.0 238728.0 81174.0 238728.0 238728.0 238728.0 238728.0 81174.0 81174.0 81174.0 81174.0
193557.0 201351.0 288924.0 291716.0 300265.0 294449.0 8428.0 0.0 102101.0 94663.0 302956.0 298130.0 266783.0 271433.0 69542.0 75764.0 286361.0 278390.0 114626.0 110605.0 215848.0 207869.0 247433.0 242553.0 269513.0 262032.0 179545.0 187484.0 285618.0 281435.0 291691.0 295925.0 207987.0 215787.0 46375.0 47969.0 46836.0 49846.0 217363.0 222792.0 82861.0 74868.0 75065.0 74383.0 112771.0 115834.0 222489.0 214673.0 196591.0 199809.0 153428.0 157952.0 310902.0 318630.0 250137.0 256655.0 202394.0 209482.0 233587.0 228790.0 140489.0 147689.0 193933.0 189506.0 48806.0 55163.0 24631.0 28060.0 238079.0 232345.0 172458.0 170041.0 301633.0 303757.0 96206.0 88192.0 276810.0 268830.0 267077.0 259060.0 241444.0 84457.0 241444.0 241444.0 241444.0 241444.0 84457.0 84457.0 84457.0 84457.0
93001.0 100960.0 209658.0 210346.0 198704.0 192961.0 99665.0 102101.0 0.0 8150.0 200885.0 196164.0 165374.0 170024.0 167031.0 173884.0 184552.0 176631.0 14452.0 16043.0 115445.0 107457.0 145624.0 140905.0 167879.0 160324.0 81644.0 89182.0 183552.0 179507.0 191420.0 196241.0 114508.0 121602.0 148046.0 148413.0 108925.0 103054.0 122630.0 126648.0 19441.0 27343.0 175242.0 173303.0 20052.0 24843.0 122399.0 114360.0 99423.0 104298.0 69796.0 70055.0 209277.0 217027.0 178369.0 182967.0 110424.0 116068.0 135284.0 129602.0 69686.0 72790.0 102338.0 100489.0 85164.0 88963.0 79514.0 81500.0 136643.0 130833.0 76335.0 71927.0 199654.0 201670.0 21879.0 24862.0 214328.0 207104.0 178737.0 171211.0 140034.0 20556.0 140034.0 140034.0 140034.0 140034.0 20556.0 20556.0 20556.0 20556.0
99581.0 107495.0 212536.0 213524.0 206640.0 200948.0 92531.0 94663.0 8150.0 0.0 208307.0 203472.0 173475.0 178124.0 160072.0 166925.0 192329.0 184429.0 20253.0 18629.0 122010.0 114011.0 153415.0 148801.0 175775.0 168181.0 87321.0 95015.0 190967.0 186784.0 198022.0 202678.0 119295.0 126579.0 140773.0 141340.0 100782.0 94937.0 127731.0 132083.0 13099.0 20470.0 168264.0 166344.0 22208.0 26780.0 128871.0 120892.0 104993.0 109482.0 71957.0 73125.0 217172.0 224935.0 180069.0 184950.0 114867.0 120850.0 141269.0 135814.0 69463.0 73388.0 106639.0 104247.0 77051.0 80935.0 71756.0 73522.0 144680.0 138810.0 81475.0 77605.0 207344.0 209249.0 17139.0 17968.0 215108.0 207755.0 182868.0 175230.0 148135.0 16669.0 148135.0 148135.0 148135.0 148135.0 16669.0 16669.0 16669.0 16669.0
112060.0 105123.0 158839.0 151539.0 39926.0 45825.0 300467.0 302956.0 200885.0 208307.0 0.0 8114.0 77672.0 69918.0 367697.0 374550.0 28947.0 34833.0 188532.0 193368.0 91778.0 99042.0 59467.0 66916.0 46455.0 49567.0 129704.0 122087.0 17342.0 22878.0 41161.0 47481.0 118067.0 111358.0 348912.0 349080.0 301956.0 294772.0 108732.0 100731.0 220238.0 228202.0 375909.0 373969.0 191897.0 189831.0 86939.0 93126.0 116880.0 118330.0 168306.0 160391.0 37569.0 41865.0 174362.0 169810.0 125282.0 117342.0 85254.0 85159.0 188809.0 181322.0 131225.0 139230.0 277849.0 278877.0 279849.0 280730.0 77541.0 78702.0 138531.0 137752.0 18091.0 10159.0 209354.0 217175.0 210098.0 209122.0 118479.0 120612.0 110171.0 220209.0 110171.0 110171.0 110171.0 110171.0 220209.0 220209.0 220209.0 220209.0
106263.0 99126.0 151086.0 143857.0 45991.0 51120.0 295820.0 298130.0 196164.0 203472.0 8114.0 0.0 80247.0 72822.0 363065.0 369918.0 32100.0 36536.0 183563.0 188182.0 85483.0 92925.0 57447.0 65312.0 47619.0 49419.0 123526.0 115814.0 13869.0 16755.0 33508.0 40213.0 110686.0 103853.0 344204.0 344515.0 296174.0 288935.0 101237.0 93248.0 215565.0 223504.0 371221.0 369337.0 186591.0 184386.0 80340.0 86818.0 110203.0 111347.0 161655.0 153827.0 44850.0 49598.0 166258.0 161727.0 117920.0 109921.0 77810.0 78065.0 182071.0 174517.0 124034.0 131986.0 272132.0 273008.0 274838.0 275532.0 76652.0 76989.0 132259.0 131792.0 24653.0 17505.0 203996.0 211865.0 202096.0 201074.0 110459.0 112526.0 109736.0 215591.0 109736.0 109736.0 109736.0 109736.0 215591.0 215591.0 215591.0 215591.0
103052.0 100708.0 210917.0 205297.0 46900.0 38746.0 264068.0 266783.0 165374.0 173475.0 77672.0 80247.0 0.0 8263.0 331298.0 338151.0 48726.0 43794.0 156639.0 163618.0 95694.0 98112.0 43629.0 39426.0 33792.0 36358.0 121667.0 117013.0 68903.0 73830.0 105932.0 114059.0 131944.0 129113.0 312526.0 312734.0 273769.0 267556.0 126827.0 120412.0 183940.0 191931.0 339510.0 337570.0 163755.0 163606.0 96681.0 96734.0 118925.0 124940.0 161493.0 153155.0 57925.0 63724.0 212143.0 210170.0 137426.0 132161.0 108466.0 102624.0 181291.0 175654.0 139038.0 146751.0 249695.0 252702.0 244634.0 246834.0 33542.0 41497.0 130180.0 125150.0 62922.0 70293.0 180431.0 187092.0 252954.0 249766.0 166073.0 164599.0 46895.0 183810.0 46895.0 46895.0 46895.0 46895.0 183810.0 183810.0 183810.0 183810.0
103999.0 101047.0 206733.0 200901.0 38679.0 30547.0 268718.0 271433.0 170024.0 178124.0 69918.0 72822.0 8263.0 0.0 335948.0 342800.0 41009.0 36630.0 161042.0 167844.0 94904.0 97963.0 41342.0 38652.0 27564.0 31558.0 122929.0 117842.0 61955.0 67344.0 99561.0 107647.0 130978.0 127682.0 317175.0 317384.0 278356.0 272027.0 125316.0 118599.0 188589.0 196581.0 344160.0 342220.0 167807.0 167449.0 95269.0 96016.0 118992.0 124628.0 163194.0 154807.0 49766.0 55721.0 209510.0 207249.0 136741.0 131099.0 105987.0 100573.0 183256.0 177370.0 138847.0 146707.0 254203.0 257020.0 249283.0 251483.0 35431.0 43027.0 131631.0 126997.0 54819.0 62296.0 184689.0 191515.0 249968.0 247009.0 162070.0 160953.0 53539.0 188460.0 53539.0 53539.0 53539.0 53539.0 188460.0 188460.0 188460.0 188460.0
259615.0 267503.0 358460.0 361253.0 364779.0 358964.0 68247.0 69542.0 167031.0 160072.0 367697.0 363065.0 331298.0 335948.0 0.0 8022.0 350913.0 342959.0 180298.0 177025.0 282022.0 274024.0 311980.0 307068.0 334027.0 326547.0 246459.0 254328.0 350298.0 346449.0 358019.0 362530.0 276028.0 283732.0 31693.0 25269.0 104152.0 110307.0 285205.0 290344.0 147591.0 139727.0 18761.0 11333.0 179525.0 182930.0 288817.0 280886.0 263782.0 267401.0 222302.0 226402.0 375416.0 383144.0 319479.0 326073.0 270634.0 277543.0 300591.0 295486.0 209956.0 217076.0 262182.0 258141.0 115679.0 120759.0 93851.0 97502.0 302593.0 296859.0 239746.0 236842.0 366147.0 368311.0 163643.0 155729.0 345139.0 337129.0 336169.0 328183.0 305958.0 149265.0 305958.0 305958.0 305958.0 305958.0 149265.0 149265.0 149265.0 149265.0
266468.0 274355.0 364478.0 367384.0 371632.0 365816.0 75015.0 75764.0 173884.0 166925.0 374550.0 369918.0 338151.0 342800.0 8022.0 0.0 357766.0 349812.0 187151.0 183878.0 288875.0 280876.0 318832.0 313920.0 340880.0 333400.0 253312.0 261181.0 357151.0 353302.0 364872.0 369383.0 282879.0 290585.0 34728.0 29390.0 108085.0 114526.0 292054.0 297161.0 154443.0 146580.0 13501.0 5638.0 186377.0 189783.0 295670.0 287739.0 270635.0 274229.0 228952.0 233193.0 382269.0 389997.0 325198.0 331870.0 277499.0 284393.0 307444.0 302339.0 216249.0 223451.0 269042.0 264886.0 120850.0 125641.0 100265.0 103529.0 309446.0 303712.0 246598.0 243695.0 373000.0 375164.0 170489.0 162581.0 350269.0 342249.0 342742.0 334739.0 312811.0 156118.0 312811.0 312811.0 312811.0 312811.0 156118.0 156118.0 156118.0 156118.0
102081.0 96424.0 176040.0 169403.0 20253.0 21613.0 283683.0 286361.0 184552.0 192329.0 28947.0 32100.0 48726.0 41009.0 350913.0 357766.0 0.0 8072.0 173276.0 178929.0 85338.0 91250.0 38935.0 44455.0 19196.0 24953.0 121056.0 114183.0 23386.0 30795.0 61910.0 69646.0 117547.0 112145.0 332141.0 332350.0 289324.0 282428.0 109526.0 101754.0 203554.0 211547.0 359125.0 357185.0 177981.0 176533.0 82529.0 86681.0 111469.0 114830.0 161469.0 153176.0 26955.0 34698.0 185544.0 182026.0 124373.0 117182.0 86775.0 84025.0 182191.0 175230.0 128806.0 137004.0 265036.0 266770.0 264060.0 265679.0 52718.0 55813.0 130149.0 127769.0 16455.0 22272.0 195473.0 203013.0 223871.0 221955.0 132926.0 133444.0 83749.0 203425.0 83749.0 83749.0 83749.0 83749.0 203425.0 203425.0 203425.0 203425.0
95094.0 89693.0 175090.0 168702.0 25396.0 24221.0 275729.0 278390.0 176631.0 184429.0 34833.0 36536.0 43794.0 36630.0 342959.0 349812.0 8072.0 0.0 165447.0 171169.0 79141.0 84728.0 31015.0 36386.0 11738.0 16888.0 114186.0 107473.0 25370.0 31382.0 63503.0 71489.0 112264.0 107200.0 324187.0 324396.0 281670.0 274807.0 104608.0 96971.0 195601.0 203592.0 351171.0 349231.0 170272.0 168890.0 76789.0 80466.0 105231.0 108943.0 154752.0 146420.0 33823.0 41680.0 182741.0 179527.0 118956.0 111982.0 82318.0 78990.0 175458.0 168601.0 123045.0 131237.0 257375.0 259182.0 256144.0 257816.0 44794.0 47749.0 123282.0 120660.0 24377.0 29482.0 187751.0 195258.0 221688.0 219502.0 131360.0 131397.0 76242.0 195471.0 76242.0 76242.0 76242.0 76242.0 195471.0 195471.0 195471.0 195471.0
79332.0 87243.0 195754.0 196291.0 188147.0 182720.0 112702.0 114626.0 14452.0 20253.0 188532.0 183563.0 156639.0 161042.0 180298.0 187151.0 173276.0 165447.0 0.0 8000.0 101758.0 93759.0 134453.0 130218.0 157150.0 149418.0 67330.0 74940.0 171191.0 166848.0 177769.0 182431.0 100056.0 107153.0 160844.0 161520.0 117369.0 110986.0 108191.0 112272.0 33140.0 40714.0 188473.0 186570.0 10588.0 14329.0 108618.0 100639.0 85079.0 89866.0 56746.0 56292.0 198496.0 206302.0 165291.0 169662.0 96005.0 101617.0 121137.0 115603.0 59318.0 61330.0 87949.0 86268.0 93172.0 96065.0 91318.0 92462.0 126882.0 120644.0 61892.0 57607.0 188051.0 189721.0 23979.0 30473.0 202012.0 194925.0 164360.0 156862.0 131325.0 34986.0 131325.0 131325.0 131325.0 131325.0 34986.0 34986.0 34986.0 34986.0
82960.0 90747.0 194171.0 195046.0 194202.0 188944.0 109203.0 110605.0 16043.0 18629.0 193368.0 188182.0 163618.0 167844.0 177025.0 183878.0 178929.0 171169.0 8000.0 0.0 105246.0 97264.0 140237.0 136291.0 163152.0 155331.0 69511.0 77336.0 176043.0 171436.0 181142.0 185530.0 100814.0 108173.0 156959.0 157964.0 110896.0 104336.0 109386.0 113945.0 31610.0 38453.0 185021.0 183289.0 4016.0 8801.0 111922.0 104075.0 87018.0 91210.0 53912.0 54624.0 204418.0 212247.0 162412.0 167085.0 96287.0 102367.0 123625.0 118462.0 53959.0 56800.0 88037.0 85626.0 86621.0 89183.0 86812.0 87365.0 133415.0 126994.0 63244.0 59852.0 193469.0 194885.0 16851.0 24092.0 198286.0 191069.0 164241.0 156601.0 138409.0 35028.0 138409.0 138409.0 138409.0 138409.0 35028.0 35028.0 35028.0 35028.0
22444.0 14519.0 128868.0 125469.0 104532.0 102223.0 214333.0 215848.0 115445.0 122010.0 91778.0 85483.0 95694.0 94904.0 282022.0 288875.0 85338.0 79141.0 101758.0 105246.0 0.0 7999.0 54205.0 56388.0 76096.0 68170.0 38070.0 30333.0 75091.0 68963.0 76012.0 80842.0 36265.0 34234.0 262205.0 263139.0 211027.0 203711.0 32274.0 27674.0 134764.0 142455.0 290151.0 288294.0 103153.0 100430.0 7295.0 1363.0 26131.0 30176.0 76874.0 68795.0 112279.0 119951.0 120008.0 119440.0 41838.0 36545.0 24225.0 16497.0 97539.0 90305.0 44464.0 52563.0 187124.0 187750.0 191924.0 191921.0 63749.0 56062.0 46780.0 46665.0 96426.0 95562.0 120197.0 128189.0 161836.0 157664.0 85590.0 80985.0 88814.0 135524.0 88814.0 88814.0 88814.0 88814.0 135524.0 135524.0 135524.0 135524.0
14457.0 6522.0 132483.0 129508.0 110040.0 107290.0 206338.0 207869.0 107457.0 114011.0 99042.0 92925.0 98112.0 97963.0 274024.0 280876.0 91250.0 84728.0 93759.0 97264.0 7999.0 0.0 58167.0 59316.0 80829.0 72752.0 30666.0 23194.0 82177.0 76311.0 84010.0 88809.0 35285.0 35054.0 254222.0 255145.0 203368.0 196082.0 33564.0 30720.0 126769.0 134458.0 282155.0 280295.0 95194.0 92510.0 15040.0 6914.0 21125.0 26855.0 70312.0 62097.0 118199.0 125942.0 121058.0 121017.0 39790.0 35896.0 30701.0 23458.0 91032.0 83989.0 40935.0 48744.0 179416.0 180135.0 183964.0 184004.0 65320.0 57410.0 39567.0 38938.0 102971.0 102465.0 112272.0 120258.0 163013.0 158507.0 90087.0 84969.0 88170.0 127556.0 88170.0 88170.0 88170.0 88170.0 127556.0 127556.0 127556.0 127556.0
66468.0 62144.0 168127.0 162828.0 54450.0 50285.0 244750.0 247433.0 145624.0 153415.0 59467.0 57447.0 43629.0 41342.0 311980.0 318832.0 38935.0 31015.0 134453.0 140237.0 54205.0 58167.0 0.0 8344.0 23574.0 15417.0 85746.0 79686.0 43578.0 43753.0 71853.0 79812.0 89936.0 86397.0 293207.0 293416.0 250862.0 244052.0 84009.0 77257.0 164620.0 172613.0 320192.0 318251.0 139408.0 138133.0 54043.0 55393.0 79278.0 84289.0 126522.0 118113.0 64256.0 72112.0 168539.0 166542.0 95919.0 89989.0 64873.0 59254.0 147082.0 140586.0 98582.0 106605.0 226561.0 228487.0 225135.0 226804.0 20956.0 19599.0 94773.0 91378.0 54425.0 57625.0 156864.0 164330.0 209329.0 206145.0 123150.0 121307.0 53939.0 164492.0 53939.0 53939.0 53939.0 53939.0 164492.0 164492.0 164492.0 164492.0
65964.0 62546.0 174392.0 169304.0 57930.0 52789.0 239838.0 242553.0 140905.0 148801.0 66916.0 65312.0 39426.0 38652.0 307068.0 313920.0 44455.0 36386.0 130218.0 136291.0 56388.0 59316.0 8344.0 0.0 26974.0 19598.0 85127.0 79624.0 51467.0 51995.0 80150.0 88087.0 92590.0 89688.0 288295.0 288504.0 247137.0 240444.0 87410.0 81078.0 159709.0 167701.0 315280.0 313339.0 135674.0 134655.0 57263.0 57467.0 80366.0 85984.0 125754.0 117337.0 68372.0 76137.0 173218.0 171534.0 98204.0 92778.0 69665.0 63464.0 146117.0 139902.0 100196.0 108058.0 222840.0 225005.0 220384.0 222305.0 12705.0 11791.0 94011.0 89989.0 60509.0 64378.0 153035.0 160355.0 214335.0 210915.0 129388.0 127187.0 45598.0 159580.0 45598.0 45598.0 45598.0 45598.0 159580.0 159580.0 159580.0 159580.0
89873.0 85209.0 180126.0 174081.0 31077.0 26741.0 266797.0 269513.0 167879.0 175775.0 46455.0 47619.0 33792.0 27564.0 334027.0 340880.0 19196.0 11738.0 157150.0 163152.0 76096.0 80829.0 23574.0 26974.0 0.0 8193.0 109139.0 102886.0 35402.0 40038.0 72166.0 80285.0 110790.0 106418.0 315255.0 315464.0 273941.0 267199.0 103900.0 96595.0 186669.0 194661.0 342239.0 340299.0 162460.0 161326.0 74800.0 77362.0 101796.0 106255.0 149907.0 141510.0 41398.0 49167.0 185139.0 182394.0 117164.0 110670.0 82730.0 78387.0 170512.0 163929.0 120521.0 128648.0 249639.0 251700.0 247351.0 249277.0 33760.0 37602.0 118193.0 114928.0 35632.0 41171.0 179862.0 187231.0 224904.0 222325.0 135761.0 135131.0 64593.0 186539.0 64593.0 64593.0 64593.0 64593.0 186539.0 186539.0 186539.0 186539.0
81683.0 77062.0 175176.0 169357.0 39070.0 34934.0 259317.0 262032.0 160324.0 168181.0 49567.0 49419.0 36358.0 31558.0 326547.0 333400.0 24953.0 16888.0 149418.0 155331.0 68170.0 72752.0 15417.0 19598.0 8193.0 0.0 100950.0 94722.0 36164.0 39195.0 70561.0 78714.0 103154.0 98989.0 307774.0 307983.0 266058.0 259285.0 96501.0 89325.0 179188.0 187173.0 334759.0 332819.0 154581.0 153384.0 67123.0 69421.0 93760.0 98345.0 141721.0 133322.0 49089.0 56916.0 178776.0 176254.0 109436.0 103077.0 75805.0 71115.0 162322.0 155748.0 112626.0 120732.0 241756.0 243754.0 239827.0 241650.0 28234.0 30861.0 110003.0 106740.0 41209.0 45721.0 172008.0 179419.0 218885.0 216119.0 130534.0 129530.0 60608.0 179059.0 60608.0 60608.0 60608.0 60608.0 179059.0 179059.0 179059.0 179059.0
19278.0 24796.0 137798.0 136652.0 139248.0 135861.0 178550.0 179545.0 81644.0 87321.0 129704.0 123526.0 121667.0 122929.0 246459.0 253312.0 121056.0 114186.0 67330.0 69511.0 38070.0 30666.0 85746.0 85127.0 109139.0 100950.0 0.0 7988.0 112837.0 106950.0 112483.0 116427.0 35391.0 41291.0 225907.0 227205.0 173038.0 165693.0 41849.0 45100.0 100373.0 107708.0 254306.0 252731.0 66937.0 63712.0 43853.0 36752.0 17813.0 23702.0 40777.0 32372.0 147917.0 155725.0 116671.0 118667.0 33917.0 36889.0 54132.0 49307.0 61382.0 54854.0 28372.0 32365.0 149212.0 149721.0 155315.0 154852.0 88127.0 80200.0 9096.0 9723.0 133354.0 133065.0 83388.0 91414.0 157846.0 152160.0 100751.0 93938.0 104539.0 102177.0 104539.0 104539.0 104539.0 104539.0 102177.0 102177.0 102177.0 102177.0
14001.0 17781.0 133471.0 131920.0 132667.0 129544.0 186440.0 187484.0 89182.0 95015.0 122087.0 115814.0 117013.0 117842.0 254328.0 261181.0 114183.0 107473.0 74940.0 77336.0 30333.0 23194.0 79686.0 79624.0 102886.0 94722.0 7988.0 0.0 105312.0 99290.0 104497.0 108464.0 30418.0 35352.0 233850.0 235117.0 180939.0 173576.0 35560.0 38004.0 108040.0 115436.0 262212.0 260599.0 74824.0 71653.0 35930.0 28996.0 11022.0 18274.0 47290.0 38998.0 141102.0 148879.0 114583.0 116065.0 30448.0 31809.0 46294.0 41334.0 68009.0 61145.0 26692.0 32432.0 157144.0 157598.0 163274.0 162835.0 83522.0 75534.0 16448.0 17487.0 126142.0 125650.0 91348.0 99373.0 156158.0 150767.0 95100.0 88567.0 101763.0 109679.0 101763.0 101763.0 101763.0 101763.0 109679.0 109679.0 109679.0 109679.0
94961.0 88156.0 153327.0 146526.0 41511.0 44676.0 283145.0 285618.0 183552.0 190967.0 17342.0 13869.0 68903.0 61955.0 350298.0 357151.0 23386.0 25370.0 171191.0 176043.0 75091.0 82177.0 43578.0 51467.0 35402.0 36164.0 112837.0 105312.0 0.0 8322.0 38573.0 46404.0 103083.0 96768.0 331585.0 331771.0 284782.0 277623.0 94123.0 86133.0 202911.0 210872.0 358510.0 356570.0 174592.0 172557.0 70622.0 76449.0 100560.0 102476.0 151868.0 143859.0 43887.0 50258.0 164901.0 160948.0 110218.0 102472.0 70662.0 69683.0 172460.0 165071.0 115737.0 123837.0 260650.0 261746.0 262508.0 263402.0 62932.0 63128.0 121732.0 120722.0 23998.0 20805.0 192057.0 199867.0 202290.0 200722.0 110873.0 111953.0 96105.0 202888.0 96105.0 96105.0 96105.0 96105.0 202888.0 202888.0 202888.0 202888.0
89546.0 82464.0 145372.0 138660.0 49604.0 52346.0 279170.0 281435.0 179507.0 186784.0 22878.0 16755.0 73830.0 67344.0 346449.0 353302.0 30795.0 31382.0 166848.0 171436.0 68963.0 76311.0 43753.0 51995.0 40038.0 39195.0 106950.0 99290.0 8322.0 0.0 32230.0 40303.0 95627.0 89136.0 327534.0 327887.0 279470.0 272244.0 86496.0 78492.0 198919.0 206850.0 354622.0 352721.0 169837.0 167632.0 64061.0 70307.0 94003.0 95528.0 145429.0 137521.0 52209.0 58542.0 156582.0 152648.0 102805.0 94963.0 62997.0 62458.0 165933.0 158453.0 108555.0 116604.0 255413.0 256326.0 258109.0 258782.0 64129.0 63278.0 115738.0 115126.0 32241.0 28383.0 187240.0 195111.0 194042.0 192436.0 102689.0 103679.0 97414.0 198964.0 97414.0 97414.0 97414.0 97414.0 198964.0 198964.0 198964.0 198964.0
98446.0 90527.0 117683.0 110385.0 78692.0 82844.0 290302.0 291691.0 191420.0 198022.0 41161.0 33508.0 105932.0 99561.0 358019.0 364872.0 61910.0 63503.0 177769.0 181142.0 76012.0 84010.0 71853.0 80150.0 72166.0 70561.0 112483.0 104497.0 38573.0 32230.0 0.0 8154.0 91195.0 83476.0 338063.0 339094.0 284592.0 277094.0 81084.0 73642.0 210763.0 218466.0 366126.0 364291.0 178922.0 175992.0 69221.0 77135.0 96387.0 95181.0 146330.0 139275.0 78344.0 83016.0 134949.0 129925.0 98327.0 90092.0 59745.0 63254.0 165772.0 157879.0 105696.0 112962.0 261108.0 261103.0 267628.0 267324.0 92809.0 90303.0 120275.0 121791.0 58008.0 50999.0 195742.0 203761.0 169446.0 168780.0 78099.0 80985.0 125530.0 211398.0 125530.0 125530.0 125530.0 125530.0 211398.0 211398.0 211398.0 211398.0
103263.0 95289.0 111920.0 104417.0 85921.0 90360.0 294733.0 295925.0 196241.0 202678.0 47481.0 40213.0 114059.0 107647.0 362530.0 369383.0 69646.0 71489.0 182431.0 185530.0 80842.0 88809.0 79812.0 88087.0 80285.0 78714.0 116427.0 108464.0 46404.0 40303.0 8154.0 0.0 93105.0 85227.0 342297.0 343477.0 287666.0 280117.0 82953.0 75846.0 215511.0 223144.0 370547.0 368768.0 183185.0 180109.0 73842.0 81898.0 99846.0 98027.0 148912.0 142112.0 84980.0 89267.0 131286.0 125924.0 100103.0 91911.0 62821.0 67137.0 167974.0 160028.0 107770.0 114744.0 264361.0 264142.0 271738.0 271216.0 100765.0 98094.0 123917.0 125885.0 64863.0 57527.0 199812.0 207837.0 164631.0 164286.0 73903.0 77476.0 133371.0 216364.0 133371.0 133371.0 133371.0 133371.0 216364.0 216364.0 216364.0 216364.0
38861.0 35602.0 103066.0 101529.0 137474.0 136109.0 207882.0 207987.0 114508.0 119295.0 118067.0 110686.0 131944.0 130978.0 276028.0 282879.0 117547.0 112264.0 100056.0 100814.0 36265.0 35285.0 89936.0 92590.0 110790.0 103154.0 35391.0 30418.0 103083.0 95627.0 91195.0 93105.0 0.0 8006.0 254011.0 255949.0 195552.0 187916.0 10152.0 17698.0 132373.0 139227.0 283052.0 282071.0 97659.0 93709.0 36035.0 35272.0 20035.0 12156.0 56394.0 50419.0 144048.0 151411.0 86533.0 87167.0 7256.0 1561.0 32901.0 33636.0 74900.0 66938.0 14737.0 21783.0 172762.0 172017.0 183404.0 181853.0 99906.0 92130.0 38378.0 44218.0 126313.0 123856.0 112460.0 120317.0 128476.0 123674.0 65429.0 58548.0 123436.0 135005.0 123436.0 123436.0 123436.0 123436.0 135005.0 135005.0 135005.0 135005.0
41484.0 36812.0 99252.0 97150.0 132224.0 131233.0 215605.0 215787.0 121602.0 126579.0 111358.0 103853.0 129113.0 127682.0 283732.0 290585.0 112145.0 107200.0 107153.0 108173.0 34234.0 35054.0 86397.0 89688.0 106418.0 98989.0 41291.0 35352.0 96768.0 89136.0 83476.0 85227.0 8006.0 0.0 261852.0 263742.0 203557.0 195921.0 2646.0 10644.0 139672.0 146618.0 290852.0 289818.0 105094.0 101223.0 32445.0 33472.0 24384.0 17608.0 64399.0 58372.0 138396.0 145645.0 86073.0 85967.0 14880.0 6700.0 26141.0 28213.0 82843.0 74871.0 22732.0 29528.0 180758.0 180022.0 191219.0 189737.0 97813.0 90216.0 45279.0 50547.0 120249.0 117470.0 120119.0 128005.0 128004.0 123621.0 59751.0 53324.0 122800.0 142135.0 122800.0 122800.0 122800.0 122800.0 142135.0 142135.0 142135.0 142135.0
239896.0 247703.0 332173.0 335375.0 346007.0 340191.0 48507.0 46375.0 148046.0 140773.0 348912.0 344204.0 312526.0 317175.0 31693.0 34728.0 332141.0 324187.0 160844.0 156959.0 262205.0 254222.0 293207.0 288295.0 315255.0 307774.0 225907.0 233850.0 331585.0 327534.0 338063.0 342297.0 254011.0 261852.0 0.0 7469.0 73415.0 79983.0 263473.0 269008.0 128674.0 120714.0 29764.0 31355.0 159146.0 162197.0 268858.0 261033.0 242910.0 246025.0 198974.0 203807.0 356644.0 364372.0 292257.0 299086.0 248295.0 255494.0 279928.0 275161.0 185014.0 192459.0 239840.0 235180.0 87382.0 91704.0 70701.0 72404.0 283821.0 278087.0 218769.0 216412.0 347375.0 349497.0 142544.0 134523.0 316347.0 308320.0 312168.0 304115.0 287186.0 129679.0 287186.0 287186.0 287186.0 287186.0 129679.0 129679.0 129679.0 129679.0
240767.0 248622.0 335689.0 338735.0 346216.0 340400.0 48819.0 47969.0 148413.0 141340.0 349080.0 344515.0 312734.0 317384.0 25269.0 29390.0 332350.0 324396.0 161520.0 157964.0 263139.0 255145.0 293416.0 288504.0 315464.0 307983.0 227205.0 235117.0 331771.0 327887.0 339094.0 343477.0 255949.0 263742.0 7469.0 0.0 78967.0 85255.0 265305.0 270680.0 128981.0 121080.0 27124.0 26905.0 160306.0 163523.0 269873.0 261987.0 244366.0 247702.0 201329.0 205916.0 356853.0 364581.0 296130.0 302866.0 250363.0 257445.0 281304.0 276370.0 187932.0 195266.0 241902.0 237445.0 91543.0 96258.0 72587.0 75076.0 284030.0 278296.0 220256.0 217646.0 347584.0 349747.0 143995.0 136001.0 320907.0 312886.0 314840.0 306807.0 287395.0 129575.0 287395.0 287395.0 287395.0 287395.0 129575.0 129575.0 129575.0 129575.0
189928.0 197081.0 263632.0 267531.0 305011.0 299831.0 54664.0 46836.0 108925.0 100782.0 301956.0 296174.0 273769.0 278356.0 104152.0 108085.0 289324.0 281670.0 117369.0 110896.0 211027.0 203368.0 250862.0 247137.0 273941.0 266058.0 173038.0 180939.0 284782.0 279470.0 284592.0 287666.0 195552.0 203557.0 73415.0 78967.0 0.0 7751.0 205551.0 212099.0 93181.0 86271.0 102077.0 104720.0 111481.0 112791.0 216869.0 209730.0 188258.0 189640.0 139159.0 145595.0 315110.0 322958.0 222378.0 229558.0 189062.0 196910.0 224938.0 221522.0 121802.0 129735.0 180854.0 174897.0 24302.0 23540.0 42682.0 35143.0 244231.0 237884.0 164689.0 164432.0 303435.0 304308.0 94107.0 86936.0 244111.0 236082.0 248119.0 240034.0 248445.0 97988.0 248445.0 248445.0 248445.0 248445.0 97988.0 97988.0 97988.0 97988.0
182719.0 189819.0 256001.0 259865.0 298275.0 293178.0 57164.0 49846.0 103054.0 94937.0 294772.0 288935.0 267556.0 272027.0 110307.0 114526.0 282428.0 274807.0 110986.0 104336.0 203711.0 196082.0 244052.0 240444.0 267199.0 259285.0 165693.0 173576.0 277623.0 272244.0 277094.0 280117.0 187916.0 195921.0 79983.0 85255.0 7751.0 0.0 197927.0 204508.0 87963.0 81340.0 108962.0 111336.0 104773.0 105924.0 209501.0 202409.0 180791.0 182091.0 131528.0 138022.0 308308.0 316162.0 214835.0 221987.0 181404.0 189269.0 217416.0 214065.0 114081.0 122019.0 173211.0 167216.0 17897.0 15995.0 41635.0 33554.0 237746.0 231315.0 157292.0 157158.0 296439.0 297223.0 87502.0 80513.0 236938.0 228908.0 240368.0 232283.0 242216.0 93095.0 242216.0 242216.0 242216.0 242216.0 93095.0 93095.0 93095.0 93095.0
40809.0 35729.0 99949.0 97635.0 129614.0 128655.0 217097.0 217363.0 122630.0 127731.0 108732.0 101237.0 126827.0 125316.0 285205.0 292054.0 109526.0 104608.0 108191.0 109386.0 32274.0 33564.0 84009.0 87410.0 103900.0 96501.0 41849.0 35560.0 94123.0 86496.0 81084.0 82953.0 10152.0 2646.0 263473.0 265305.0 205551.0 197927.0 0.0 8006.0 140829.0 147839.0 292421.0 291329.0 106364.0 102557.0 30147.0 31576.0 24539.0 18360.0 66401.0 60205.0 135761.0 143006.0 87809.0 87511.0 17247.0 9010.0 23503.0 25632.0 85046.0 77087.0 24855.0 31880.0 182675.0 182013.0 192815.0 191421.0 95688.0 88136.0 46303.0 51257.0 117604.0 114827.0 121567.0 129478.0 129699.0 125422.0 59738.0 53548.0 120994.0 143177.0 120994.0 120994.0 120994.0 120994.0 143177.0 143177.0 143177.0 143177.0
40494.0 34232.0 101770.0 98823.0 121883.0 121077.0 222296.0 222792.0 126648.0 132083.0 100731.0 93248.0 120412.0 118599.0 290344.0 297161.0 101754.0 96971.0 112272.0 113945.0 27674.0 30720.0 77257.0 81078.0 96595.0 89325.0 45100.0 38004.0 86133.0 78492.0 73642.0 75846.0 17698.0 10644.0 269008.0 270680.0 212099.0 204508.0 8006.0 0.0 145173.0 152351.0 297804.0 296552.0 111085.0 107460.0 24136.0 27254.0 27289.0 22983.0 73105.0 66525.0 127897.0 135109.0 92802.0 91927.0 24938.0 16766.0 15497.0 18214.0 92186.0 84268.0 32055.0 39454.0 189031.0 188560.0 198310.0 197157.0 89912.0 82542.0 50713.0 54771.0 109647.0 106828.0 126737.0 134703.0 134474.0 130531.0 59701.0 54305.0 116316.0 147199.0 116316.0 116316.0 116316.0 116316.0 147199.0 147199.0 147199.0 147199.0
112321.0 120263.0 224945.0 226084.0 217421.0 211605.0 80254.0 82861.0 19441.0 13099.0 220238.0 215565.0 183940.0 188589.0 147591.0 154443.0 203554.0 195601.0 33140.0 31610.0 134764.0 126769.0 164620.0 159709.0 186669.0 179188.0 100373.0 108040.0 202911.0 198919.0 210763.0 215511.0 132373.0 139672.0 128674.0 128981.0 93181.0 87963.0 140829.0 145173.0 0.0 7995.0 155801.0 153863.0 35019.0 39419.0 141677.0 133664.0 118066.0 122581.0 84213.0 85801.0 228058.0 235786.0 191768.0 196841.0 127897.0 133928.0 154267.0 148737.0 80048.0 84613.0 119645.0 117113.0 70330.0 75135.0 60798.0 63494.0 155235.0 149501.0 94573.0 90654.0 218777.0 220912.0 25448.0 21799.0 226040.0 218583.0 195803.0 188134.0 158600.0 7151.0 158600.0 158600.0 158600.0 158600.0 7151.0 7151.0 7151.0 7151.0
120020.0 127944.0 230477.0 231823.0 225413.0 219597.0 72322.0 74868.0 27343.0 20470.0 228202.0 223504.0 191931.0 196581.0 139727.0 146580.0 211547.0 203592.0 40714.0 38453.0 142455.0 134458.0 172613.0 167701.0 194661.0 187173.0 107708.0 115436.0 210872.0 206850.0 218466.0 223144.0 139227.0 146618.0 120714.0 121080.0 86271.0 81340.0 147839.0 152351.0 7995.0 0.0 147938.0 145999.0 41585.0 45732.0 149331.0 141343.0 125334.0 129655.0 89776.0 91875.0 236050.0 243778.0 196503.0 201775.0 134571.0 140777.0 161707.0 156281.0 84094.0 89168.0 126259.0 123427.0 63927.0 69134.0 52885.0 55805.0 163227.0 157493.0 101673.0 98001.0 226771.0 228899.0 29526.0 23958.0 229985.0 222439.0 202198.0 194468.0 166591.0 11757.0 166591.0 166591.0 166591.0 166591.0 11757.0 11757.0 11757.0 11757.0
267763.0 275633.0 361937.0 365130.0 372991.0 367176.0 75824.0 75065.0 175242.0 168264.0 375909.0 371221.0 339510.0 344160.0 18761.0 13501.0 359125.0 351171.0 188473.0 185021.0 290151.0 282155.0 320192.0 315280.0 342239.0 334759.0 254306.0 262212.0 358510.0 354622.0 366126.0 370547.0 283052.0 290852.0 29764.0 27124.0 102077.0 108962.0 292421.0 297804.0 155801.0 147938.0 0.0 7961.0 187394.0 190634.0 296908.0 289005.0 271483.0 274826.0 228326.0 232984.0 383628.0 391357.0 321983.0 328830.0 277444.0 284547.0 308412.0 303452.0 214654.0 222055.0 268983.0 264475.0 117085.0 121241.0 99663.0 101886.0 310805.0 305071.0 247377.0 244737.0 374359.0 376523.0 171117.0 163124.0 345738.0 337709.0 341714.0 333670.0 314170.0 157477.0 314170.0 314170.0 314170.0 314170.0 157477.0 157477.0 157477.0 157477.0
265887.0 273774.0 362582.0 365604.0 371051.0 365236.0 74256.0 74383.0 173303.0 166344.0 373969.0 369337.0 337570.0 342220.0 11333.0 5638.0 357185.0 349231.0 186570.0 183289.0 288294.0 280295.0 318251.0 313339.0 340299.0 332819.0 252731.0 260599.0 356570.0 352721.0 364291.0 368768.0 282071.0 289818.0 31355.0 26905.0 104720.0 111336.0 291329.0 296552.0 153863.0 145999.0 7961.0 0.0 185796.0 189179.0 295089.0 287158.0 270041.0 273594.0 227796.0 232211.0 381688.0 389416.0 323027.0 329770.0 276595.0 283577.0 306863.0 301745.0 214693.0 221979.0 268134.0 263831.0 118355.0 122907.0 98995.0 101843.0 308865.0 303131.0 245990.0 243113.0 372419.0 374583.0 169818.0 161868.0 347586.0 339561.0 341454.0 333433.0 312230.0 155537.0 312230.0 312230.0 312230.0 312230.0 155537.0 155537.0 155537.0 155537.0
80983.0 88690.0 190391.0 191329.0 193531.0 188405.0 111617.0 112771.0 20052.0 22208.0 191897.0 186591.0 163755.0 167807.0 179525.0 186377.0 177981.0 170272.0 10588.0 4016.0 103153.0 95194.0 139408.0 135674.0 162460.0 154581.0 66937.0 74824.0 174592.0 169837.0 178922.0 183185.0 97659.0 105094.0 159146.0 160306.0 111481.0 104773.0 106364.0 111085.0 35019.0 41585.0 187394.0 185796.0 0.0 4794.0 109733.0 101960.0 84300.0 88265.0 50007.0 50919.0 203644.0 211487.0 158459.0 163163.0 92994.0 99208.0 121068.0 116066.0 49998.0 52784.0 84699.0 82098.0 87180.0 89421.0 88771.0 88986.0 133166.0 126602.0 60376.0 57344.0 192356.0 193611.0 17514.0 25279.0 194276.0 187055.0 160789.0 153116.0 138719.0 38758.0 138719.0 138719.0 138719.0 138719.0 38758.0 38758.0 38758.0 38758.0
78436.0 86032.0 185759.0 186756.0 192403.0 187436.0 114942.0 115834.0 24843.0 26780.0 189831.0 184386.0 163606.0 167449.0 182930.0 189783.0 176533.0 168890.0 14329.0 8801.0 100430.0 92510.0 138133.0 134655.0 161326.0 153384.0 63712.0 71653.0 172557.0 167632.0 175992.0 180109.0 93709.0 101223.0 162197.0 163523.0 112791.0 105924.0 102557.0 107460.0 39419.0 45732.0 190634.0 189179.0 4794.0 0.0 106888.0 99212.0 80869.0 84564.0 45275.0 46392.0 202389.0 210245.0 153685.0 158411.0 88891.0 95251.0 117783.0 112972.0 45388.0 48027.0 80552.0 77740.0 88508.0 90373.0 91644.0 91494.0 132588.0 125860.0 56816.0 54230.0 190707.0 191773.0 19769.0 27776.0 189485.0 182269.0 156488.0 148781.0 138832.0 43398.0 138832.0 138832.0 138832.0 138832.0 43398.0 43398.0 43398.0 43398.0
29453.0 21464.0 123703.0 119998.0 102144.0 100377.0 221084.0 222489.0 122399.0 128871.0 86939.0 80340.0 96681.0 95269.0 288817.0 295670.0 82529.0 76789.0 108618.0 111922.0 7295.0 15040.0 54043.0 57263.0 74800.0 67123.0 43853.0 35930.0 70622.0 64061.0 69221.0 73842.0 36035.0 32445.0 268858.0 269873.0 216869.0 209501.0 30147.0 24136.0 141677.0 149331.0 296908.0 295089.0 109733.0 106888.0 0.0 8151.0 29955.0 32337.0 81368.0 73490.0 109345.0 116901.0 116924.0 115915.0 42375.0 36002.0 17561.0 9627.0 101887.0 94456.0 46286.0 54484.0 193065.0 193520.0 198479.0 198334.0 65791.0 58407.0 52246.0 52832.0 92698.0 91304.0 126654.0 134663.0 158540.0 154658.0 79887.0 75685.0 92538.0 142547.0 92538.0 92538.0 92538.0 92538.0 142547.0 142547.0 142547.0 142547.0
21366.0 13402.0 128664.0 125348.0 105855.0 103518.0 213185.0 214673.0 114360.0 120892.0 93126.0 86818.0 96734.0 96016.0 280886.0 287739.0 86681.0 80466.0 100639.0 104075.0 1363.0 6914.0 55393.0 57467.0 77362.0 69421.0 36752.0 28996.0 76449.0 70307.0 77135.0 81898.0 35272.0 33472.0 261033.0 261987.0 209730.0 202409.0 31576.0 27254.0 133664.0 141343.0 289005.0 287158.0 101960.0 99212.0 8151.0 0.0 24789.0 28938.0 75511.0 67434.0 113624.0 121299.0 119363.0 118877.0 40737.0 35592.0 24605.0 17012.0 96176.0 88943.0 43232.0 51315.0 185836.0 186445.0 190729.0 190699.0 64669.0 56945.0 45442.0 45391.0 97788.0 96924.0 118980.0 126976.0 161219.0 156996.0 85549.0 80836.0 89435.0 134468.0 89435.0 89435.0 89435.0 89435.0 134468.0 134468.0 134468.0 134468.0
19458.0 18449.0 122986.0 121237.0 130612.0 128132.0 195810.0 196591.0 99423.0 104993.0 116880.0 110203.0 118925.0 118992.0 263782.0 270635.0 111469.0 105231.0 85079.0 87018.0 26131.0 21125.0 79278.0 80366.0 101796.0 93760.0 17813.0 11022.0 100560.0 94003.0 96387.0 99846.0 20035.0 24384.0 242910.0 244366.0 188258.0 180791.0 24539.0 27289.0 118066.0 125334.0 271483.0 270041.0 84300.0 80869.0 29955.0 24789.0 0.0 8078.0 51451.0 43692.0 138410.0 146077.0 105787.0 106815.0 21542.0 21314.0 37090.0 33283.0 71933.0 64511.0 20395.0 27840.0 164722.0 164797.0 172237.0 171470.0 85830.0 77854.0 24149.0 27504.0 122376.0 121207.0 100388.0 108399.0 147605.0 142504.0 84131.0 77674.0 106667.0 119965.0 106667.0 106667.0 106667.0 106667.0 119965.0 119965.0 119965.0 119965.0
27438.0 25504.0 115222.0 113647.0 134331.0 132274.0 199340.0 199809.0 104298.0 109482.0 118330.0 111347.0 124940.0 124628.0 267401.0 274229.0 114830.0 108943.0 89866.0 91210.0 30176.0 26855.0 84289.0 85984.0 106255.0 98345.0 23702.0 18274.0 102476.0 95528.0 95181.0 98027.0 12156.0 17608.0 246025.0 247702.0 189640.0 182091.0 18360.0 22983.0 122581.0 129655.0 274826.0 273594.0 88265.0 84564.0 32337.0 28938.0 8078.0 0.0 51208.0 44114.0 141673.0 149237.0 97736.0 98737.0 13650.0 13535.0 35441.0 33340.0 71088.0 63366.0 14296.0 22393.0 166399.0 166115.0 175327.0 174202.0 92160.0 84234.0 28009.0 32950.0 124932.0 123251.0 103776.0 111735.0 139577.0 134523.0 77114.0 70427.0 113965.0 124850.0 113965.0 113965.0 113965.0 113965.0 124850.0 124850.0 124850.0 124850.0
60054.0 65064.0 140748.0 142055.0 179909.0 176622.0 154057.0 153428.0 69796.0 71957.0 168306.0 161655.0 161493.0 163194.0 222302.0 228952.0 161469.0 154752.0 56746.0 53912.0 76874.0 70312.0 126522.0 125754.0 149907.0 141721.0 40777.0 47290.0 151868.0 145429.0 146330.0 148912.0 56394.0 64399.0 198974.0 201329.0 139159.0 131528.0 66401.0 73105.0 84213.0 89776.0 228326.0 227796.0 50007.0 45275.0 81368.0 75511.0 51451.0 51208.0 0.0 8419.0 188391.0 196167.0 108608.0 113179.0 49998.0 57760.0 86626.0 84231.0 20724.0 14177.0 41714.0 36269.0 116437.0 115624.0 128804.0 126583.0 128055.0 120238.0 31769.0 36378.0 173229.0 172420.0 60713.0 67917.0 145476.0 138517.0 113928.0 105987.0 141771.0 88619.0 141771.0 141771.0 141771.0 141771.0 88619.0 88619.0 88619.0 88619.0
51647.0 56754.0 139608.0 140422.0 171552.0 168229.0 158191.0 157952.0 70055.0 73125.0 160391.0 153827.0 153155.0 154807.0 226402.0 233193.0 153176.0 146420.0 56292.0 54624.0 68795.0 62097.0 118113.0 117337.0 141510.0 133322.0 32372.0 38998.0 143859.0 137521.0 139275.0 142112.0 50419.0 58372.0 203807.0 205916.0 145595.0 138022.0 60205.0 66525.0 85801.0 91875.0 232984.0 232211.0 50919.0 46392.0 73490.0 67434.0 43692.0 44114.0 8419.0 0.0 180086.0 187870.0 109519.0 113578.0 44492.0 51860.0 79531.0 76749.0 29042.0 22576.0 36044.0 31821.0 122522.0 122060.0 133330.0 131540.0 119697.0 111867.0 23352.0 28122.0 165058.0 164356.0 63537.0 71112.0 147620.0 140900.0 110511.0 102701.0 133739.0 89649.0 133739.0 133739.0 133739.0 133739.0 89649.0 89649.0 89649.0 89649.0
128874.0 123333.0 195734.0 188601.0 11410.0 19257.0 308186.0 310902.0 209277.0 217172.0 37569.0 44850.0 57925.0 49766.0 375416.0 382269.0 26955.0 33823.0 198496.0 204418.0 112279.0 118199.0 64256.0 68372.0 41398.0 49089.0 147917.0 141102.0 43887.0 52209.0 78344.0 84980.0 144048.0 138396.0 356644.0 356853.0 315110.0 308308.0 135761.0 127897.0 228058.0 236050.0 383628.0 381688.0 203644.0 202389.0 109345.0 113624.0 138410.0 141673.0 188391.0 180086.0 0.0 7871.0 208771.0 204739.0 150957.0 143625.0 112688.0 110435.0 209110.0 202172.0 155583.0 163780.0 290809.0 292739.0 288745.0 290670.0 74009.0 78764.0 157012.0 154477.0 20518.0 27458.0 221084.0 228506.0 245843.0 244439.0 154249.0 155655.0 101167.0 227928.0 101167.0 101167.0 101167.0 101167.0 227928.0 227928.0 227928.0 227928.0
136702.0 131117.0 200672.0 193400.0 18572.0 25729.0 315914.0 318630.0 217027.0 224935.0 41865.0 49598.0 63724.0 55721.0 383144.0 389997.0 34698.0 41680.0 206302.0 212247.0 119951.0 125942.0 72112.0 76137.0 49167.0 56916.0 155725.0 148879.0 50258.0 58542.0 83016.0 89267.0 151411.0 145645.0 364372.0 364581.0 322958.0 316162.0 143006.0 135109.0 235786.0 243778.0 391357.0 389416.0 211487.0 210245.0 116901.0 121299.0 146077.0 149237.0 196167.0 187870.0 7871.0 0.0 214834.0 210633.0 158359.0 150959.0 119828.0 117779.0 216888.0 209926.0 163098.0 171291.0 298656.0 300598.0 296479.0 298441.0 81486.0 86413.0 164820.0 162323.0 26335.0 32119.0 228922.0 236334.0 251443.0 250213.0 159790.0 161470.0 107939.0 235656.0 107939.0 107939.0 107939.0 107939.0 235656.0 235656.0 235656.0 235656.0
125153.0 122085.0 43323.0 49458.0 205534.0 206696.0 252758.0 250137.0 178369.0 180069.0 174362.0 166258.0 212143.0 209510.0 319479.0 325198.0 185544.0 182741.0 165291.0 162412.0 120008.0 121058.0 168539.0 173218.0 185139.0 178776.0 116671.0 114583.0 164901.0 156582.0 134949.0 131286.0 86533.0 86073.0 292257.0 296130.0 222378.0 214835.0 87809.0 92802.0 191768.0 196503.0 321983.0 323027.0 158459.0 153685.0 116924.0 119363.0 105787.0 97736.0 108608.0 109519.0 208771.0 214834.0 0.0 8039.0 84356.0 85625.0 103677.0 109795.0 112858.0 107338.0 88354.0 85046.0 204904.0 201089.0 226524.0 222081.0 182608.0 175321.0 114751.0 122557.0 188533.0 183164.0 166977.0 173152.0 41968.0 37740.0 57642.0 53964.0 208797.0 196710.0 208797.0 208797.0 208797.0 208797.0 196710.0 196710.0 196710.0 196710.0
126005.0 122467.0 35375.0 41420.0 201880.0 203329.0 259124.0 256655.0 182967.0 184950.0 169810.0 161727.0 210170.0 207249.0 326073.0 331870.0 182026.0 179527.0 169662.0 167085.0 119440.0 121017.0 166542.0 171534.0 182394.0 176254.0 118667.0 116065.0 160948.0 152648.0 129925.0 125924.0 87167.0 85967.0 299086.0 302866.0 229558.0 221987.0 87511.0 91927.0 196841.0 201775.0 328830.0 329770.0 163163.0 158411.0 115915.0 118877.0 106815.0 98737.0 113179.0 113578.0 204739.0 210633.0 8039.0 0.0 85642.0 86146.0 101870.0 108348.0 118529.0 112717.0 90298.0 87660.0 211784.0 208095.0 232906.0 228612.0 181297.0 174164.0 117337.0 125036.0 184395.0 178797.0 172259.0 178608.0 42802.0 39976.0 52028.0 49204.0 208225.0 201614.0 208225.0 208225.0 208225.0 208225.0 201614.0 201614.0 201614.0 201614.0
40999.0 39049.0 103914.0 102958.0 144226.0 142697.0 202484.0 202394.0 110424.0 114867.0 125282.0 117920.0 137426.0 136741.0 270634.0 277499.0 124373.0 118956.0 96005.0 96287.0 41838.0 39790.0 95919.0 98204.0 117164.0 109436.0 33917.0 30448.0 110218.0 102805.0 98327.0 100103.0 7256.0 14880.0 248295.0 250363.0 189062.0 181404.0 17247.0 24938.0 127897.0 134571.0 277444.0 276595.0 92994.0 88891.0 42375.0 40737.0 21542.0 13650.0 49998.0 44492.0 150957.0 158359.0 84356.0 85642.0 0.0 8237.0 40150.0 40648.0 68044.0 60060.0 8462.0 14649.0 166435.0 165540.0 177782.0 176030.0 104997.0 97132.0 35202.0 41863.0 133369.0 131003.0 107288.0 115064.0 126112.0 120967.0 68479.0 61188.0 127471.0 130820.0 127471.0 127471.0 127471.0 127471.0 130820.0 130820.0 130820.0 130820.0
39955.0 36462.0 101710.0 100115.0 137152.0 135878.0 209394.0 209482.0 116068.0 120850.0 117342.0 109921.0 132161.0 131099.0 277543.0 284393.0 117182.0 111982.0 101617.0 102367.0 36545.0 35896.0 89989.0 92778.0 110670.0 103077.0 36889.0 31809.0 102472.0 94963.0 90092.0 91911.0 1561.0 6700.0 255494.0 257445.0 196910.0 189269.0 9010.0 16766.0 133928.0 140777.0 284547.0 283577.0 99208.0 95251.0 36002.0 35592.0 21314.0 13535.0 57760.0 51860.0 143625.0 150959.0 85625.0 86146.0 8237.0 0.0 32112.0 33190.0 76144.0 68172.0 16060.0 22874.0 174155.0 173378.0 184895.0 183323.0 100259.0 92514.0 39936.0 45753.0 125777.0 123229.0 113985.0 121837.0 127582.0 122848.0 63905.0 57050.0 124066.0 136565.0 124066.0 124066.0 124066.0 124066.0 136565.0 136565.0 136565.0 136565.0
44032.0 36336.0 107098.0 103052.0 106977.0 106513.0 232675.0 233587.0 135284.0 141269.0 85254.0 77810.0 108466.0 105987.0 300591.0 307444.0 86775.0 82318.0 121137.0 123625.0 24225.0 30701.0 64873.0 69665.0 82730.0 75805.0 54132.0 46294.0 70662.0 62997.0 59745.0 62821.0 32901.0 26141.0 279928.0 281304.0 224938.0 217416.0 23503.0 15497.0 154267.0 161707.0 308412.0 306863.0 121068.0 117783.0 17561.0 24605.0 37090.0 35441.0 86626.0 79531.0 112688.0 119828.0 103677.0 101870.0 40150.0 32112.0 0.0 7955.0 106286.0 98461.0 46691.0 54427.0 201562.0 201430.0 209276.0 208558.0 79678.0 72842.0 61226.0 63774.0 94244.0 91339.0 137385.0 145404.0 144671.0 141320.0 62792.0 59092.0 108311.0 155705.0 108311.0 108311.0 108311.0 108311.0 155705.0 155705.0 155705.0 155705.0
37344.0 29453.0 114711.0 110804.0 104053.0 103023.0 227650.0 228790.0 129602.0 135814.0 85159.0 78065.0 102624.0 100573.0 295486.0 302339.0 84025.0 78990.0 115603.0 118462.0 16497.0 23458.0 59254.0 63464.0 78387.0 71115.0 49307.0 41334.0 69683.0 62458.0 63254.0 67137.0 33636.0 28213.0 275161.0 276370.0 221522.0 214065.0 25632.0 18214.0 148737.0 156281.0 303452.0 301745.0 116066.0 112972.0 9627.0 17012.0 33283.0 33340.0 84231.0 76749.0 110435.0 117779.0 109795.0 108348.0 40648.0 33190.0 7955.0 0.0 104356.0 96680.0 46097.0 54165.0 197935.0 198070.0 204605.0 204149.0 72949.0 65892.0 57024.0 58749.0 92722.0 90486.0 132680.0 140705.0 151107.0 147517.0 70593.0 66675.0 100915.0 149917.0 100915.0 100915.0 100915.0 100915.0 149917.0 149917.0 149917.0 149917.0
80640.0 85779.0 149120.0 151483.0 200594.0 197240.0 142055.0 140489.0 69686.0 69463.0 188809.0 182071.0 181291.0 183256.0 209956.0 216249.0 182191.0 175458.0 59318.0 53959.0 97539.0 91032.0 147082.0 146117.0 170512.0 162322.0 61382.0 68009.0 172460.0 165933.0 165772.0 167974.0 74900.0 82843.0 185014.0 187932.0 121802.0 114081.0 85046.0 92186.0 80048.0 84094.0 214654.0 214693.0 49998.0 45388.0 101887.0 96176.0 71933.0 71088.0 20724.0 29042.0 209110.0 216888.0 112858.0 118529.0 68044.0 76144.0 106286.0 104356.0 0.0 7999.0 60205.0 53543.0 100071.0 98424.0 116115.0 112860.0 147979.0 140240.0 52319.0 56264.0 193927.0 193050.0 54729.0 60432.0 146002.0 138535.0 127331.0 119254.0 160498.0 85675.0 160498.0 160498.0 160498.0 160498.0 85675.0 85675.0 85675.0 85675.0
74126.0 78922.0 142591.0 144709.0 193813.0 190627.0 149045.0 147689.0 72790.0 73388.0 181322.0 174517.0 175654.0 177370.0 217076.0 223451.0 175230.0 168601.0 61330.0 56800.0 90305.0 83989.0 140586.0 139902.0 163929.0 155748.0 54854.0 61145.0 165071.0 158453.0 157879.0 160028.0 66938.0 74871.0 192459.0 195266.0 129735.0 122019.0 77087.0 84268.0 84613.0 89168.0 222055.0 221979.0 52784.0 48027.0 94456.0 88943.0 64511.0 63366.0 14177.0 22576.0 202172.0 209926.0 107338.0 112717.0 60060.0 68172.0 98461.0 96680.0 7999.0 0.0 52259.0 45547.0 107872.0 106330.0 123228.0 120196.0 142225.0 134413.0 45894.0 50515.0 186731.0 185710.0 59646.0 65891.0 141731.0 134416.0 119748.0 111682.0 155671.0 89876.0 155671.0 155671.0 155671.0 155671.0 89876.0 89876.0 89876.0 89876.0
39105.0 38838.0 110487.0 109929.0 148416.0 146476.0 194027.0 193933.0 102338.0 106639.0 131225.0 124034.0 139038.0 138847.0 262182.0 269042.0 128806.0 123045.0 87949.0 88037.0 44464.0 40935.0 98582.0 100196.0 120521.0 112626.0 28372.0 26692.0 115737.0 108555.0 105696.0 107770.0 14737.0 22732.0 239840.0 241902.0 180854.0 173211.0 24855.0 32055.0 119645.0 126259.0 268983.0 268134.0 84699.0 80552.0 46286.0 43232.0 20395.0 14296.0 41714.0 36044.0 155583.0 163098.0 88354.0 90298.0 8462.0 16060.0 46691.0 46097.0 60205.0 52259.0 0.0 8199.0 158134.0 157323.0 169321.0 167584.0 106094.0 98135.0 28052.0 35255.0 138521.0 136541.0 98862.0 106625.0 129700.0 124183.0 76413.0 68969.0 126955.0 122677.0 126955.0 126955.0 126955.0 126955.0 122677.0 122677.0 122677.0 122677.0
45687.0 46222.0 110144.0 110212.0 156610.0 154644.0 189907.0 189506.0 100489.0 104247.0 139230.0 131986.0 146751.0 146707.0 258141.0 264886.0 137004.0 131237.0 86268.0 85626.0 52563.0 48744.0 106605.0 108058.0 128648.0 120732.0 32365.0 32432.0 123837.0 116604.0 112962.0 114744.0 21783.0 29528.0 235180.0 237445.0 174897.0 167216.0 31880.0 39454.0 117113.0 123427.0 264475.0 263831.0 82098.0 77740.0 54484.0 51315.0 27840.0 22393.0 36269.0 31821.0 163780.0 171291.0 85046.0 87660.0 14649.0 22874.0 54427.0 54165.0 53543.0 45547.0 8199.0 0.0 152492.0 151402.0 164875.0 162809.0 113667.0 105687.0 29715.0 37514.0 146680.0 144642.0 95339.0 102933.0 125786.0 119946.0 78783.0 71043.0 133796.0 120562.0 133796.0 133796.0 133796.0 133796.0 120562.0 120562.0 120562.0 120562.0
165870.0 173094.0 245130.0 248570.0 280710.0 275541.0 54303.0 48806.0 85164.0 77051.0 277849.0 272132.0 249695.0 254203.0 115679.0 120850.0 265036.0 257375.0 93172.0 86621.0 187124.0 179416.0 226561.0 222840.0 249639.0 241756.0 149212.0 157144.0 260650.0 255413.0 261108.0 264361.0 172762.0 180758.0 87382.0 91543.0 24302.0 17897.0 182675.0 189031.0 70330.0 63927.0 117085.0 118355.0 87180.0 88508.0 193065.0 185836.0 164722.0 166399.0 116437.0 122522.0 290809.0 298656.0 204904.0 211784.0 166435.0 174155.0 201562.0 197935.0 100071.0 107872.0 158134.0 152492.0 0.0 7469.0 32136.0 24084.0 219994.0 213615.0 140984.0 140481.0 279183.0 280109.0 69817.0 62710.0 229470.0 221457.0 227214.0 219125.0 224357.0 75676.0 224357.0 224357.0 224357.0 224357.0 75676.0 75676.0 75676.0 75676.0
166817.0 173885.0 241771.0 245421.0 282776.0 277772.0 61064.0 55163.0 88963.0 80935.0 278877.0 273008.0 252702.0 257020.0 120759.0 125641.0 266770.0 259182.0 96065.0 89183.0 187750.0 180135.0 228487.0 225005.0 251700.0 243754.0 149721.0 157598.0 261746.0 256326.0 261103.0 264142.0 172017.0 180022.0 91704.0 96258.0 23540.0 15995.0 182013.0 188560.0 75135.0 69134.0 121241.0 122907.0 89421.0 90373.0 193520.0 186445.0 164797.0 166115.0 115624.0 122060.0 292739.0 300598.0 201089.0 208095.0 165540.0 173378.0 201430.0 198070.0 98424.0 106330.0 157323.0 151402.0 7469.0 0.0 39554.0 31437.0 222555.0 216023.0 141305.0 141220.0 280687.0 281398.0 72334.0 65648.0 224679.0 216655.0 225084.0 216995.0 227389.0 80817.0 227389.0 227389.0 227389.0 227389.0 80817.0 80817.0 80817.0 80817.0
169726.0 177458.0 264841.0 267494.0 278113.0 272243.0 26241.0 24631.0 79514.0 71756.0 279849.0 274838.0 244634.0 249283.0 93851.0 100265.0 264060.0 256144.0 91318.0 86812.0 191924.0 183964.0 225135.0 220384.0 247351.0 239827.0 155315.0 163274.0 262508.0 258109.0 267628.0 271738.0 183404.0 191219.0 70701.0 72587.0 42682.0 41635.0 192815.0 198310.0 60798.0 52885.0 99663.0 98995.0 88771.0 91644.0 198479.0 190729.0 172237.0 175327.0 128804.0 133330.0 288745.0 296479.0 226524.0 232906.0 177782.0 184895.0 209276.0 204605.0 116115.0 123228.0 169321.0 164875.0 32136.0 39554.0 0.0 8300.0 215929.0 210178.0 148090.0 145873.0 279100.0 280959.0 71927.0 63901.0 254276.0 246337.0 242495.0 234486.0 219294.0 63526.0 219294.0 219294.0 219294.0 219294.0 63526.0 63526.0 63526.0 63526.0
169899.0 177525.0 260979.0 263856.0 280160.0 274459.0 31698.0 28060.0 81500.0 73522.0 280730.0 275532.0 246834.0 251483.0 97502.0 103529.0 265679.0 257816.0 92462.0 87365.0 191921.0 184004.0 226804.0 222305.0 249277.0 241650.0 154852.0 162835.0 263402.0 258782.0 267324.0 271216.0 181853.0 189737.0 72404.0 75076.0 35143.0 33554.0 191421.0 197157.0 63494.0 55805.0 101886.0 101843.0 88986.0 91494.0 198334.0 190699.0 171470.0 174202.0 126583.0 131540.0 290670.0 298441.0 222081.0 228612.0 176030.0 183323.0 208558.0 204149.0 112860.0 120196.0 167584.0 162809.0 24084.0 31437.0 8300.0 0.0 218129.0 212325.0 147336.0 145552.0 280512.0 282136.0 71735.0 63769.0 248935.0 240967.0 239828.0 231784.0 221494.0 67000.0 221494.0 221494.0 221494.0 221494.0 67000.0 67000.0 67000.0 67000.0
69544.0 67481.0 185563.0 180699.0 62922.0 56574.0 235363.0 238079.0 136643.0 144680.0 77541.0 76652.0 33542.0 35431.0 302593.0 309446.0 52718.0 44794.0 126882.0 133415.0 63749.0 65320.0 20956.0 12705.0 33760.0 28234.0 88127.0 83522.0 62932.0 64129.0 92809.0 100765.0 99906.0 97813.0 283821.0 284030.0 244231.0 237746.0 95688.0 89912.0 155235.0 163227.0 310805.0 308865.0 133166.0 132588.0 65791.0 64669.0 85830.0 92160.0 128055.0 119697.0 74009.0 81486.0 182608.0 181297.0 104997.0 100259.0 79678.0 72949.0 147979.0 142225.0 106094.0 113667.0 219994.0 222555.0 215929.0 218129.0 0.0 8000.0 96663.0 91759.0 69152.0 73949.0 150261.0 157295.0 224045.0 220348.0 140598.0 138032.0 33292.0 155105.0 33292.0 33292.0 33292.0 33292.0 155105.0 155105.0 155105.0 155105.0
61562.0 59491.0 179269.0 174600.0 67963.0 62142.0 229629.0 232345.0 130833.0 138810.0 78702.0 76989.0 41497.0 43027.0 296859.0 303712.0 55813.0 47749.0 120644.0 126994.0 56062.0 57410.0 19599.0 11791.0 37602.0 30861.0 80200.0 75534.0 63128.0 63278.0 90303.0 98094.0 92130.0 90216.0 278087.0 278296.0 237884.0 231315.0 88136.0 82542.0 149501.0 157493.0 305071.0 303131.0 126602.0 125860.0 58407.0 56945.0 77854.0 84234.0 120238.0 111867.0 78764.0 86413.0 175321.0 174164.0 97132.0 92514.0 72842.0 65892.0 140240.0 134413.0 98135.0 105687.0 213615.0 216023.0 210178.0 212325.0 8000.0 0.0 88779.0 83989.0 72026.0 76098.0 143815.0 150970.0 216867.0 213059.0 134385.0 131546.0 35337.0 149371.0 35337.0 35337.0 35337.0 35337.0 149371.0 149371.0 149371.0 149371.0
28320.0 33833.0 138537.0 137941.0 148339.0 144921.0 171743.0 172458.0 76335.0 81475.0 138531.0 132259.0 130180.0 131631.0 239746.0 246598.0 130149.0 123282.0 61892.0 63244.0 46780.0 39567.0 94773.0 94011.0 118193.0 110003.0 9096.0 16448.0 121732.0 115738.0 120275.0 123917.0 38378.0 45279.0 218769.0 220256.0 164689.0 157292.0 46303.0 50713.0 94573.0 101673.0 247377.0 245990.0 60376.0 56816.0 52246.0 45442.0 24149.0 28009.0 31769.0 23352.0 157012.0 164820.0 114751.0 117337.0 35202.0 39936.0 61226.0 57024.0 52319.0 45894.0 28052.0 29715.0 140984.0 141305.0 148090.0 147336.0 96663.0 88779.0 0.0 7938.0 142392.0 142025.0 76265.0 84270.0 155306.0 149308.0 103513.0 96341.0 112043.0 96878.0 112043.0 112043.0 112043.0 112043.0 96878.0 96878.0 96878.0 96878.0
25859.0 32666.0 145635.0 144817.0 145448.0 141660.0 168958.0 170041.0 71927.0 77605.0 137752.0 131792.0 125150.0 126997.0 236842.0 243695.0 127769.0 120660.0 57607.0 59852.0 46665.0 38938.0 91378.0 89989.0 114928.0 106740.0 9723.0 17487.0 120722.0 115126.0 121791.0 125885.0 44218.0 50547.0 216412.0 217646.0 164432.0 157158.0 51257.0 54771.0 90654.0 98001.0 244737.0 243113.0 57344.0 54230.0 52832.0 45391.0 27504.0 32950.0 36378.0 28122.0 154477.0 162323.0 122557.0 125036.0 41863.0 45753.0 63774.0 58749.0 56264.0 50515.0 35255.0 37514.0 140481.0 141220.0 145873.0 145552.0 91759.0 83989.0 7938.0 0.0 140616.0 140703.0 73960.0 81982.0 163200.0 157226.0 109639.0 102655.0 105770.0 92464.0 105770.0 105770.0 105770.0 105770.0 92464.0 92464.0 92464.0 92464.0
114768.0 108562.0 175242.0 168141.0 21864.0 28184.0 298917.0 301633.0 199654.0 207344.0 18091.0 24653.0 62922.0 54819.0 366147.0 373000.0 16455.0 24377.0 188051.0 193469.0 96426.0 102971.0 54425.0 60509.0 35632.0 41209.0 133354.0 126142.0 23998.0 32241.0 58008.0 64863.0 126313.0 120249.0 347375.0 347584.0 303435.0 296439.0 117604.0 109647.0 218777.0 226771.0 374359.0 372419.0 192356.0 190707.0 92698.0 97788.0 122376.0 124932.0 173229.0 165058.0 20518.0 26335.0 188533.0 184395.0 133369.0 125777.0 94244.0 92722.0 193927.0 186731.0 138521.0 146680.0 279183.0 280687.0 279100.0 280512.0 69152.0 72026.0 142392.0 140616.0 0.0 8242.0 209869.0 217509.0 225380.0 224039.0 133764.0 135265.0 100102.0 218659.0 100102.0 100102.0 100102.0 100102.0 218659.0 218659.0 218659.0 218659.0
114862.0 108301.0 168588.0 161362.0 30056.0 36404.0 301081.0 303757.0 201670.0 209249.0 10159.0 17505.0 70293.0 62296.0 368311.0 375164.0 22272.0 29482.0 189721.0 194885.0 95562.0 102465.0 57625.0 64378.0 41171.0 45721.0 133065.0 125650.0 20805.0 28383.0 50999.0 57527.0 123856.0 117470.0 349497.0 349747.0 304308.0 297223.0 114827.0 106828.0 220912.0 228899.0 376523.0 374583.0 193611.0 191773.0 91304.0 96924.0 121207.0 123251.0 172420.0 164356.0 27458.0 32119.0 183164.0 178797.0 131003.0 123229.0 91339.0 90486.0 193050.0 185710.0 136541.0 144642.0 280109.0 281398.0 280959.0 282136.0 73949.0 76098.0 142025.0 140703.0 8242.0 0.0 211117.0 218844.0 219405.0 218270.0 127748.0 129599.0 105724.0 220823.0 105724.0 105724.0 105724.0 105724.0 220823.0 220823.0 220823.0 220823.0
98171.0 105791.0 201195.0 202708.0 210925.0 205725.0 95564.0 96206.0 21879.0 17139.0 209354.0 203996.0 180431.0 184689.0 163643.0 170489.0 195473.0 187751.0 23979.0 16851.0 120197.0 112272.0 156864.0 153035.0 179862.0 172008.0 83388.0 91348.0 192057.0 187240.0 195742.0 199812.0 112460.0 120119.0 142544.0 143995.0 94107.0 87502.0 121567.0 126737.0 25448.0 29526.0 171117.0 169818.0 17514.0 19769.0 126654.0 118980.0 100388.0 103776.0 60713.0 63537.0 221084.0 228922.0 166977.0 172259.0 107288.0 113985.0 137385.0 132680.0 54729.0 59646.0 98862.0 95339.0 69817.0 72334.0 71927.0 71735.0 150261.0 143815.0 76265.0 73960.0 209869.0 211117.0 0.0 8025.0 200724.0 193233.0 174039.0 166204.0 155178.0 31579.0 155178.0 155178.0 155178.0 155178.0 31579.0 31579.0 31579.0 31579.0
106131.0 113772.0 208026.0 209703.0 218274.0 212975.0 87623.0 88192.0 24862.0 17968.0 217175.0 211865.0 187092.0 191515.0 155729.0 162581.0 203013.0 195258.0 30473.0 24092.0 128189.0 120258.0 164330.0 160355.0 187231.0 179419.0 91414.0 99373.0 199867.0 195111.0 203761.0 207837.0 120317.0 128005.0 134523.0 136001.0 86936.0 80513.0 129478.0 134703.0 21799.0 23958.0 163124.0 161868.0 25279.0 27776.0 134663.0 126976.0 108399.0 111735.0 67917.0 71112.0 228506.0 236334.0 173152.0 178608.0 115064.0 121837.0 145404.0 140705.0 60432.0 65891.0 106625.0 102933.0 62710.0 65648.0 63901.0 63769.0 157295.0 150970.0 84270.0 81982.0 217509.0 218844.0 8025.0 0.0 206141.0 198567.0 181542.0 173675.0 161762.0 28701.0 161762.0 161762.0 161762.0 161762.0 28701.0 28701.0 28701.0 28701.0
167011.0 164044.0 56380.0 64804.0 243527.0 245305.0 280379.0 276810.0 214328.0 215108.0 210098.0 202096.0 252954.0 249968.0 345139.0 350269.0 223871.0 221688.0 202012.0 198286.0 161836.0 163013.0 209329.0 214335.0 224904.0 218885.0 157846.0 156158.0 202290.0 194042.0 169446.0 164631.0 128476.0 128004.0 316347.0 320907.0 244111.0 236938.0 129699.0 134474.0 226040.0 229985.0 345738.0 347586.0 194276.0 189485.0 158540.0 161219.0 147605.0 139577.0 145476.0 147620.0 245843.0 251443.0 41968.0 42802.0 126112.0 127582.0 144671.0 151107.0 146002.0 141731.0 129700.0 125786.0 229470.0 224679.0 254276.0 248935.0 224045.0 216867.0 155306.0 163200.0 225380.0 219405.0 200724.0 206141.0 0.0 8030.0 91657.0 90432.0 250648.0 231534.0 250648.0 250648.0 250648.0 250648.0 231534.0 231534.0 231534.0 231534.0
161952.0 159276.0 58724.0 67094.0 241764.0 243285.0 272427.0 268830.0 207104.0 207755.0 209122.0 201074.0 249766.0 247009.0 337129.0 342249.0 221955.0 219502.0 194925.0 191069.0 157664.0 158507.0 206145.0 210915.0 222325.0 216119.0 152160.0 150767.0 200722.0 192436.0 168780.0 164286.0 123674.0 123621.0 308320.0 312886.0 236082.0 228908.0 125422.0 130531.0 218583.0 222439.0 337709.0 339561.0 187055.0 182269.0 154658.0 156996.0 142504.0 134523.0 138517.0 140900.0 244439.0 250213.0 37740.0 39976.0 120967.0 122848.0 141320.0 147517.0 138535.0 134416.0 124183.0 119946.0 221457.0 216655.0 246337.0 240967.0 220348.0 213059.0 149308.0 157226.0 224039.0 218270.0 193233.0 198567.0 8030.0 0.0 90705.0 88785.0 246410.0 224138.0 246410.0 246410.0 246410.0 246410.0 224138.0 224138.0 224138.0 224138.0
100016.0 93932.0 45004.0 40314.0 152283.0 154495.0 267938.0 267077.0 178737.0 182868.0 118479.0 110459.0 166073.0 162070.0 336169.0 342742.0 132926.0 131360.0 164360.0 164241.0 85590.0 90087.0 123150.0 129388.0 135761.0 130534.0 100751.0 95100.0 110873.0 102689.0 78099.0 73903.0 65429.0 59751.0 312168.0 314840.0 248119.0 240368.0 59738.0 59701.0 195803.0 202198.0 341714.0 341454.0 160789.0 156488.0 79887.0 85549.0 84131.0 77114.0 113928.0 110511.0 154249.0 159790.0 57642.0 52028.0 68479.0 63905.0 62792.0 70593.0 127331.0 119748.0 76413.0 78783.0 227214.0 225084.0 242495.0 239828.0 140598.0 134385.0 103513.0 109639.0 133764.0 127748.0 174039.0 181542.0 91657.0 90705.0 0.0 8090.0 170653.0 199028.0 170653.0 170653.0 170653.0 170653.0 199028.0 199028.0 199028.0 199028.0
94198.0 88444.0 48038.0 44545.0 153107.0 154901.0 259959.0 259060.0 171211.0 175230.0 120612.0 112526.0 164599.0 160953.0 328183.0 334739.0 133444.0 131397.0 156862.0 156601.0 80985.0 84969.0 121307.0 127187.0 135131.0 129530.0 93938.0 88567.0 111953.0 103679.0 80985.0 77476.0 58548.0 53324.0 304115.0 306807.0 240034.0 232283.0 53548.0 54305.0 188134.0 194468.0 333670.0 333433.0 153116.0 148781.0 75685.0 80836.0 77674.0 70427.0 105987.0 102701.0 155655.0 161470.0 53964.0 49204.0 61188.0 57050.0 59092.0 66675.0 119254.0 111682.0 68969.0 71043.0 219125.0 216995.0 234486.0 231784.0 138032.0 131546.0 96341.0 102655.0 135265.0 129599.0 166204.0 173675.0 90432.0 88785.0 8090.0 0.0 167380.0 191448.0 167380.0 167380.0 167380.0 167380.0 191448.0 191448.0 191448.0 191448.0
88120.0 88461.0 215326.0 210954.0 89757.0 82210.0 238728.0 241444.0 140034.0 148135.0 110171.0 109736.0 46895.0 53539.0 305958.0 312811.0 83749.0 76242.0 131325.0 138409.0 88814.0 88170.0 53939.0 45598.0 64593.0 60608.0 104539.0 101763.0 96105.0 97414.0 125530.0 133371.0 123436.0 122800.0 287186.0 287395.0 248445.0 242216.0 120994.0 116316.0 158600.0 166591.0 314170.0 312230.0 138719.0 138832.0 92538.0 89435.0 106667.0 113965.0 141771.0 133739.0 101167.0 107939.0 208797.0 208225.0 127471.0 124066.0 108311.0 100915.0 160498.0 155671.0 126955.0 133796.0 224357.0 227389.0 219294.0 221494.0 33292.0 35337.0 112043.0 105770.0 100102.0 105724.0 155178.0 161762.0 250648.0 246410.0 170653.0 167380.0 0.0 158470.0 0.0 0.0 0.0 0.0 158470.0 158470.0 158470.0 158470.0
113104.0 121085.0 229147.0 230070.0 217291.0 211476.0 81174.0 84457.0 20556.0 16669.0 220209.0 215591.0 183810.0 188460.0 149265.0 156118.0 203425.0 195471.0 34986.0 35028.0 135524.0 127556.0 164492.0 159580.0 186539.0 179059.0 102177.0 109679.0 202888.0 198964.0 211398.0 216364.0 135005.0 142135.0 129679.0 129575.0 97988.0 93095.0 143177.0 147199.0 7151.0 11757.0 157477.0 155537.0 38758.0 43398.0 142547.0 134468.0 119965.0 124850.0 88619.0 89649.0 227928.0 235656.0 196710.0 201614.0 130820.0 136565.0 155705.0 149917.0 85675.0 89876.0 122677.0 120562.0 75676.0 80817.0 63526.0 67000.0 155105.0 149371.0 96878.0 92464.0 218659.0 220823.0 31579.0 28701.0 231534.0 224138.0 199028.0 191448.0 158470.0 0.0 158470.0 158470.0 158470.0 158470.0 0.0 0.0 0.0 0.0
88120.0 88461.0 215326.0 210954.0 89757.0 82210.0 238728.0 241444.0 140034.0 148135.0 110171.0 109736.0 46895.0 53539.0 305958.0 312811.0 83749.0 76242.0 131325.0 138409.0 88814.0 88170.0 53939.0 45598.0 64593.0 60608.0 104539.0 101763.0 96105.0 97414.0 125530.0 133371.0 123436.0 122800.0 287186.0 287395.0 248445.0 242216.0 120994.0 116316.0 158600.0 166591.0 314170.0 312230.0 138719.0 138832.0 92538.0 89435.0 106667.0 113965.0 141771.0 133739.0 101167.0 107939.0 208797.0 208225.0 127471.0 124066.0 108311.0 100915.0 160498.0 155671.0 126955.0 133796.0 224357.0 227389.0 219294.0 221494.0 33292.0 35337.0 112043.0 105770.0 100102.0 105724.0 155178.0 161762.0 250648.0 246410.0 170653.0 167380.0 0.0 158470.0 0.0 0.0 0.0 0.0 158470.0 158470.0 158470.0 158470.0
88120.0 88461.0 215326.0 210954.0 89757.0 82210.0 238728.0 241444.0 140034.0 148135.0 110171.0 109736.0 46895.0 53539.0 305958.0 312811.0 83749.0 76242.0 131325.0 138409.0 88814.0 88170.0 53939.0 45598.0 64593.0 60608.0 104539.0 101763.0 96105.0 97414.0 125530.0 133371.0 123436.0 122800.0 287186.0 287395.0 248445.0 242216.0 120994.0 116316.0 158600.0 166591.0 314170.0 312230.0 138719.0 138832.0 92538.0 89435.0 106667.0 113965.0 141771.0 133739.0 101167.0 107939.0 208797.0 208225.0 127471.0 124066.0 108311.0 100915.0 160498.0 155671.0 126955.0 133796.0 224357.0 227389.0 219294.0 221494.0 33292.0 35337.0 112043.0 105770.0 100102.0 105724.0 155178.0 161762.0 250648.0 246410.0 170653.0 167380.0 0.0 158470.0 0.0 0.0 0.0 0.0 158470.0 158470.0 158470.0 158470.0
88120.0 88461.0 215326.0 210954.0 89757.0 82210.0 238728.0 241444.0 140034.0 148135.0 110171.0 109736.0 46895.0 53539.0 305958.0 312811.0 83749.0 76242.0 131325.0 138409.0 88814.0 88170.0 53939.0 45598.0 64593.0 60608.0 104539.0 101763.0 96105.0 97414.0 125530.0 133371.0 123436.0 122800.0 287186.0 287395.0 248445.0 242216.0 120994.0 116316.0 158600.0 166591.0 314170.0 312230.0 138719.0 138832.0 92538.0 89435.0 106667.0 113965.0 141771.0 133739.0 101167.0 107939.0 208797.0 208225.0 127471.0 124066.0 108311.0 100915.0 160498.0 155671.0 126955.0 133796.0 224357.0 227389.0 219294.0 221494.0 33292.0 35337.0 112043.0 105770.0 100102.0 105724.0 155178.0 161762.0 250648.0 246410.0 170653.0 167380.0 0.0 158470.0 0.0 0.0 0.0 0.0 158470.0 158470.0 158470.0 158470.0
88120.0 88461.0 215326.0 210954.0 89757.0 82210.0 238728.0 241444.0 140034.0 148135.0 110171.0 109736.0 46895.0 53539.0 305958.0 312811.0 83749.0 76242.0 131325.0 138409.0 88814.0 88170.0 53939.0 45598.0 64593.0 60608.0 104539.0 101763.0 96105.0 97414.0 125530.0 133371.0 123436.0 122800.0 287186.0 287395.0 248445.0 242216.0 120994.0 116316.0 158600.0 166591.0 314170.0 312230.0 138719.0 138832.0 92538.0 89435.0 106667.0 113965.0 141771.0 133739.0 101167.0 107939.0 208797.0 208225.0 127471.0 124066.0 108311.0 100915.0 160498.0 155671.0 126955.0 133796.0 224357.0 227389.0 219294.0 221494.0 33292.0 35337.0 112043.0 105770.0 100102.0 105724.0 155178.0 161762.0 250648.0 246410.0 170653.0 167380.0 0.0 158470.0 0.0 0.0 0.0 0.0 158470.0 158470.0 158470.0 158470.0
113104.0 121085.0 229147.0 230070.0 217291.0 211476.0 81174.0 84457.0 20556.0 16669.0 220209.0 215591.0 183810.0 188460.0 149265.0 156118.0 203425.0 195471.0 34986.0 35028.0 135524.0 127556.0 164492.0 159580.0 186539.0 179059.0 102177.0 109679.0 202888.0 198964.0 211398.0 216364.0 135005.0 142135.0 129679.0 129575.0 97988.0 93095.0 143177.0 147199.0 7151.0 11757.0 157477.0 155537.0 38758.0 43398.0 142547.0 134468.0 119965.0 124850.0 88619.0 89649.0 227928.0 235656.0 196710.0 201614.0 130820.0 136565.0 155705.0 149917.0 85675.0 89876.0 122677.0 120562.0 75676.0 80817.0 63526.0 67000.0 155105.0 149371.0 96878.0 92464.0 218659.0 220823.0 31579.0 28701.0 231534.0 224138.0 199028.0 191448.0 158470.0 0.0 158470.0 158470.0 158470.0 158470.0 0.0 0.0 0.0 0.0
113104.0 121085.0 229147.0 230070.0 217291.0 211476.0 81174.0 84457.0 20556.0 16669.0 220209.0 215591.0 183810.0 188460.0 149265.0 156118.0 203425.0 195471.0 34986.0 35028.0 135524.0 127556.0 164492.0 159580.0 186539.0 179059.0 102177.0 109679.0 202888.0 198964.0 211398.0 216364.0 135005.0 142135.0 129679.0 129575.0 97988.0 93095.0 143177.0 147199.0 7151.0 11757.0 157477.0 155537.0 38758.0 43398.0 142547.0 134468.0 119965.0 124850.0 88619.0 89649.0 227928.0 235656.0 196710.0 201614.0 130820.0 136565.0 155705.0 149917.0 85675.0 89876.0 122677.0 120562.0 75676.0 80817.0 63526.0 67000.0 155105.0 149371.0 96878.0 92464.0 218659.0 220823.0 31579.0 28701.0 231534.0 224138.0 199028.0 191448.0 158470.0 0.0 158470.0 158470.0 158470.0 158470.0 0.0 0.0 0.0 0.0
113104.0 121085.0 229147.0 230070.0 217291.0 211476.0 81174.0 84457.0 20556.0 16669.0 220209.0 215591.0 183810.0 188460.0 149265.0 156118.0 203425.0 195471.0 34986.0 35028.0 135524.0 127556.0 164492.0 159580.0 186539.0 179059.0 102177.0 109679.0 202888.0 198964.0 211398.0 216364.0 135005.0 142135.0 129679.0 129575.0 97988.0 93095.0 143177.0 147199.0 7151.0 11757.0 157477.0 155537.0 38758.0 43398.0 142547.0 134468.0 119965.0 124850.0 88619.0 89649.0 227928.0 235656.0 196710.0 201614.0 130820.0 136565.0 155705.0 149917.0 85675.0 89876.0 122677.0 120562.0 75676.0 80817.0 63526.0 67000.0 155105.0 149371.0 96878.0 92464.0 218659.0 220823.0 31579.0 28701.0 231534.0 224138.0 199028.0 191448.0 158470.0 0.0 158470.0 158470.0 158470.0 158470.0 0.0 0.0 0.0 0.0
113104.0 121085.0 229147.0 230070.0 217291.0 211476.0 81174.0 84457.0 20556.0 16669.0 220209.0 215591.0 183810.0 188460.0 149265.0 156118.0 203425.0 195471.0 34986.0 35028.0 135524.0 127556.0 164492.0 159580.0 186539.0 179059.0 102177.0 109679.0 202888.0 198964.0 211398.0 216364.0 135005.0 142135.0 129679.0 129575.0 97988.0 93095.0 143177.0 147199.0 7151.0 11757.0 157477.0 155537.0 38758.0 43398.0 142547.0 134468.0 119965.0 124850.0 88619.0 89649.0 227928.0 235656.0 196710.0 201614.0 130820.0 136565.0 155705.0 149917.0 85675.0 89876.0 122677.0 120562.0 75676.0 80817.0 63526.0 67000.0 155105.0 149371.0 96878.0 92464.0 218659.0 220823.0 31579.0 28701.0 231534.0 224138.0 199028.0 191448.0 158470.0 0.0 158470.0 158470.0 158470.0 158470.0 0.0 0.0 0.0 0.0
FIXED_EDGES_SECTION
1 2
3 4
5 6
7 8
9 10
11 12
13 14
15 16
17 18
19 20
21 22
23 24
25 26
27 28
29 30
31 32
33 34
35 36
37 38
39 40
41 42
43 44
45 46
47 48
49 50
51 52
53 54
55 56
57 58
59 60
61 62
63 64
65 66
67 68
69 70
71 72
73 74
75 76
77 78
79 80
-1 
DEMAND_SECTION
1 56
2 56
3 76
4 76
5 216
6 216
7 534
8 534
9 235
10 235
11 265
12 265
13 292
14 292
15 280
16 280
17 379
18 379
19 100
20 100
21 277
22 277
23 100
24 100
25 396
26 396
27 432
28 432
29 375
30 375
31 55
32 55
33 256
34 256
35 60
36 60
37 244
38 244
39 541
40 541
41 37
42 37
43 71
44 71
45 399
46 399
47 171
48 171
49 114
50 114
51 223
52 223
53 316
54 316
55 157
56 157
57 89
58 89
59 341
60 341
61 130
62 130
63 94
64 94
65 620
66 620
67 563
68 563
69 485
70 485
71 214
72 214
73 500
74 500
75 371
76 371
77 258
78 258
79 479
80 479
81 0
82 0
83 0
84 0
85 0
86 0
87 0
88 0
89 0
90 0
DEPOT_SECTION
81 
-1 
CAPACITIES_SECTION
5000 
5500 
6000 
-1 
EOF