NAME: GFS_20_1
TYPE: GFSP
DIMENSION: 90
VEHICLES: 3
CAPACITY: 5000.0
TRIP_DIST_LIMIT: 750000.0
TOTAL_DIST_LIMIT: 1400000.0
EDGE_WEIGHT_TYPE: EXPLICIT
EDGE_WEIGHT_FORMAT: FULL_MATRIX
EDGE_WEIGHT_SECTION
0.0 8219.0 166861.0 163781.0 314523.0 314782.0 64192.0 70265.0 108777.0 106392.0 43029.0 43208.0 355569.0 348216.0 49678.0 41512.0 140561.0 132306.0 191646.0 185023.0 35806.0 33803.0 116252.0 115953.0 80265.0 81840.0 132755.0 139623.0 33423.0 34976.0 233565.0 228607.0 48100.0 55760.0 309425.0 305129.0 16906.0 21742.0 135706.0 143795.0 287746.0 293411.0 105341.0 111661.0 159011.0 157314.0 53694.0 46013.0 347715.0 339678.0 41011.0 40342.0 244492.0 241479.0 50743.0 54388.0 61324.0 65539.0 207529.0 211862.0 272752.0 277238.0 81553.0 75604.0 308229.0 300062.0 120765.0 127999.0 23743.0 31510.0 185951.0 193940.0 40750.0 47041.0 225596.0 222547.0 293735.0 288164.0 341557.0 339617.0 76270.0 185857.0 76270.0 76270.0 76270.0 76270.0 185857.0 185857.0 185857.0 185857.0
8219.0 0.0 166104.0 163396.0 306749.0 306958.0 59052.0 64597.0 111051.0 109215.0 35505.0 35168.0 347823.0 340495.0 44148.0 35979.0 134672.0 126355.0 185279.0 178808.0 44024.0 41838.0 117209.0 116342.0 86600.0 87647.0 127340.0 133974.0 40779.0 42940.0 226391.0 221547.0 53744.0 61555.0 301606.0 297368.0 21829.0 24033.0 135540.0 143516.0 280357.0 285951.0 107474.0 113397.0 151612.0 150023.0 49626.0 41667.0 340018.0 331996.0 45493.0 43440.0 243829.0 241071.0 48568.0 51082.0 56945.0 60371.0 200706.0 205193.0 264922.0 269414.0 75160.0 69608.0 300405.0 292238.0 113792.0 121162.0 15610.0 23577.0 178139.0 186131.0 36449.0 41961.0 224349.0 221580.0 286341.0 280845.0 333733.0 331793.0 68795.0 178033.0 68795.0 68795.0 68795.0 68795.0 178033.0 178033.0 178033.0 178033.0
166861.0 166104.0 0.0 8039.0 292257.0 296130.0 120008.0 121058.0 75592.0 83128.0 182608.0 175321.0 319759.0 311768.0 132150.0 137652.0 108608.0 109519.0 138700.0 130839.0 174362.0 166258.0 57642.0 53964.0 137945.0 129825.0 97786.0 102946.0 188533.0 183164.0 192957.0 185008.0 208771.0 214834.0 284442.0 277212.0 152960.0 145729.0 32716.0 24553.0 243507.0 251432.0 76280.0 68149.0 158459.0 153685.0 121408.0 128913.0 309968.0 302072.0 205534.0 206696.0 77729.0 75296.0 118024.0 117734.0 116924.0 119363.0 162602.0 159968.0 255006.0 262476.0 125153.0 122085.0 295263.0 286984.0 133543.0 130880.0 168539.0 173218.0 191768.0 196503.0 198489.0 200924.0 59648.0 55811.0 248656.0 240748.0 321983.0 323027.0 208797.0 196710.0 208797.0 208797.0 208797.0 208797.0 196710.0 196710.0 196710.0 196710.0
163781.0 163396.0 8039.0 0.0 299086.0 302866.0 119440.0 121017.0 69217.0 76581.0 181297.0 174164.0 327017.0 319020.0 130985.0 136119.0 113179.0 113578.0 145222.0 137261.0 169810.0 161727.0 52028.0 49204.0 131669.0 123543.0 101912.0 107505.0 184395.0 178797.0 199731.0 191804.0 204739.0 210633.0 291314.0 284133.0 149449.0 142429.0 28257.0 20038.0 250704.0 258608.0 70179.0 61999.0 163163.0 158411.0 119956.0 127259.0 317245.0 309322.0 201880.0 203329.0 80873.0 77705.0 115767.0 116016.0 115915.0 118877.0 169192.0 166766.0 261524.0 268943.0 126005.0 122467.0 301753.0 293472.0 136752.0 134513.0 166542.0 171534.0 196841.0 201775.0 196465.0 199182.0 64648.0 60035.0 255897.0 248012.0 328830.0 329770.0 208225.0 201614.0 208225.0 208225.0 208225.0 208225.0 201614.0 201614.0 201614.0 201614.0
314523.0 306749.0 292257.0 299086.0 0.0 7469.0 262205.0 254222.0 328265.0 334697.0 283821.0 278087.0 44180.0 38769.0 271476.0 278116.0 198974.0 203807.0 154361.0 162617.0 348912.0 344204.0 312168.0 304115.0 363575.0 358541.0 211945.0 203681.0 347375.0 349497.0 99379.0 107286.0 356644.0 364372.0 8332.0 16285.0 317839.0 311295.0 298308.0 297547.0 54816.0 47301.0 325340.0 321884.0 159146.0 162197.0 275524.0 279223.0 39744.0 34295.0 346007.0 340191.0 317559.0 323215.0 287347.0 279308.0 268858.0 261033.0 130329.0 132321.0 42039.0 37500.0 239896.0 247703.0 22567.0 22884.0 199828.0 194879.0 293207.0 288295.0 128674.0 120714.0 306107.0 301250.0 294950.0 301337.0 52203.0 59589.0 29764.0 31355.0 287186.0 129679.0 287186.0 287186.0 287186.0 287186.0 129679.0 129679.0 129679.0 129679.0
314782.0 306958.0 296130.0 302866.0 7469.0 0.0 263139.0 255145.0 330684.0 337016.0 284030.0 278296.0 47731.0 43234.0 272075.0 278582.0 201329.0 205916.0 157845.0 166022.0 349080.0 344515.0 314840.0 306807.0 364912.0 360008.0 214338.0 206144.0 347584.0 349747.0 103180.0 111144.0 356853.0 364581.0 14879.0 22671.0 318181.0 311760.0 301466.0 300890.0 61101.0 53812.0 327702.0 324407.0 160306.0 163523.0 276422.0 279928.0 44580.0 40002.0 346216.0 340400.0 322836.0 328395.0 288368.0 280312.0 269873.0 261987.0 133802.0 136174.0 43330.0 37654.0 240767.0 248622.0 16121.0 18508.0 200952.0 196249.0 293416.0 288504.0 128981.0 121080.0 306316.0 301459.0 300024.0 306314.0 58849.0 66024.0 27124.0 26905.0 287395.0 129575.0 287395.0 287395.0 287395.0 287395.0 129575.0 129575.0 129575.0 129575.0
64192.0 59052.0 120008.0 119440.0 262205.0 263139.0 0.0 7999.0 89824.0 92414.0 63749.0 56062.0 301080.0 293433.0 15109.0 23127.0 76874.0 68795.0 128891.0 121865.0 91778.0 85483.0 85590.0 80985.0 102970.0 99130.0 68579.0 75596.0 96426.0 95562.0 174455.0 168775.0 112279.0 119951.0 256302.0 251191.0 59926.0 52079.0 94591.0 101294.0 229889.0 236144.0 85842.0 87857.0 103153.0 100430.0 13366.0 18852.0 292640.0 284460.0 104532.0 102223.0 196260.0 194787.0 25396.0 17331.0 7295.0 1363.0 146517.0 150102.0 220181.0 225493.0 22444.0 14519.0 256905.0 248738.0 62567.0 68438.0 54205.0 56388.0 134764.0 142455.0 82742.0 83541.0 174405.0 172953.0 235889.0 229740.0 290151.0 288294.0 88814.0 135524.0 88814.0 88814.0 88814.0 88814.0 135524.0 135524.0 135524.0 135524.0
70265.0 64597.0 121058.0 121017.0 254222.0 255145.0 7999.0 0.0 95615.0 98622.0 65320.0 57410.0 293158.0 285522.0 20587.0 28758.0 70312.0 62097.0 121888.0 115020.0 99042.0 92925.0 90087.0 84969.0 110891.0 106956.0 62771.0 69402.0 102971.0 102465.0 166785.0 161186.0 118199.0 125942.0 248333.0 243242.0 67110.0 59430.0 97198.0 103510.0 222134.0 228348.0 91665.0 93168.0 95194.0 92510.0 21310.0 26090.0 284740.0 276564.0 110040.0 107290.0 196426.0 195279.0 33373.0 25299.0 15040.0 6914.0 139090.0 142832.0 212196.0 217498.0 14457.0 6522.0 248907.0 240740.0 54647.0 60653.0 58167.0 59316.0 126769.0 134458.0 85590.0 85706.0 174023.0 172946.0 228136.0 222033.0 282155.0 280295.0 88170.0 127556.0 88170.0 88170.0 88170.0 88170.0 127556.0 127556.0 127556.0 127556.0
108777.0 111051.0 75592.0 69217.0 328265.0 330684.0 89824.0 95615.0 0.0 7940.0 138236.0 132811.0 362073.0 354097.0 94227.0 95548.0 129357.0 125138.0 176928.0 168510.0 105629.0 97858.0 19735.0 26995.0 62453.0 54327.0 116348.0 124584.0 122033.0 115360.0 231242.0 223953.0 142516.0 147448.0 321256.0 314931.0 92330.0 87299.0 44697.0 51828.0 286368.0 293743.0 4004.0 7946.0 174381.0 170278.0 82648.0 86971.0 352752.0 344555.0 141802.0 144903.0 146606.0 141868.0 72395.0 77206.0 83235.0 90081.0 200016.0 200265.0 287519.0 294057.0 107353.0 100422.0 326384.0 318223.0 137008.0 138909.0 119249.0 126273.0 209248.0 215961.0 147227.0 151860.0 133436.0 128083.0 292091.0 284762.0 357670.0 357141.0 169876.0 212006.0 169876.0 169876.0 169876.0 169876.0 212006.0 212006.0 212006.0 212006.0
106392.0 109215.0 83128.0 76581.0 334697.0 337016.0 92414.0 98622.0 7940.0 0.0 137800.0 132729.0 368861.0 360895.0 95608.0 96258.0 135724.0 131233.0 183908.0 175503.0 100862.0 93258.0 27671.0 34826.0 55272.0 47164.0 122757.0 131064.0 117684.0 110749.0 238025.0 230795.0 138079.0 142727.0 327752.0 321495.0 89695.0 85248.0 52560.0 59574.0 293292.0 300623.0 9542.0 15885.0 179984.0 175962.0 84276.0 87959.0 359579.0 351373.0 137915.0 141388.0 153058.0 148110.0 73310.0 78769.0 85580.0 92780.0 206855.0 207258.0 293797.0 300257.0 110923.0 103738.0 332523.0 324349.0 142035.0 144273.0 118301.0 125602.0 214740.0 221565.0 145596.0 150539.0 140521.0 134995.0 299039.0 291754.0 364036.0 363401.0 169977.0 217317.0 169977.0 169977.0 169977.0 169977.0 217317.0 217317.0 217317.0 217317.0
43029.0 35505.0 182608.0 181297.0 283821.0 284030.0 63749.0 65320.0 138236.0 137800.0 0.0 8000.0 324994.0 317770.0 50482.0 45297.0 128055.0 119697.0 174069.0 168749.0 77541.0 76652.0 140598.0 138032.0 121595.0 122064.0 123921.0 128870.0 69152.0 73949.0 208615.0 204737.0 74009.0 81486.0 278678.0 274516.0 56691.0 56444.0 154854.0 162236.0 260338.0 265282.0 134385.0 139106.0 133166.0 132588.0 61349.0 54290.0 317399.0 309464.0 62922.0 56574.0 259559.0 257780.0 67413.0 65533.0 65791.0 64669.0 185994.0 191532.0 242000.0 246486.0 69544.0 67481.0 277477.0 269310.0 100425.0 108519.0 20956.0 12705.0 155235.0 163227.0 23163.0 20893.0 238053.0 236407.0 266234.0 261405.0 310805.0 308865.0 33292.0 155105.0 33292.0 33292.0 33292.0 33292.0 155105.0 155105.0 155105.0 155105.0
43208.0 35168.0 175321.0 174164.0 278087.0 278296.0 56062.0 57410.0 132811.0 132729.0 8000.0 0.0 319260.0 312036.0 43191.0 38573.0 120238.0 111867.0 166669.0 161237.0 78702.0 76989.0 134385.0 131546.0 119490.0 119445.0 115972.0 120984.0 72026.0 76098.0 202097.0 198064.0 78764.0 86413.0 272944.0 268782.0 55079.0 53685.0 147962.0 155247.0 254265.0 259338.0 128915.0 133347.0 126602.0 125860.0 54351.0 47611.0 311665.0 303730.0 67963.0 62142.0 252105.0 250420.0 61228.0 58771.0 58407.0 56945.0 179003.0 184420.0 236266.0 240752.0 61562.0 59491.0 271743.0 263576.0 93049.0 101102.0 19599.0 11791.0 149501.0 157493.0 30581.0 28857.0 230449.0 228894.0 260183.0 255227.0 305071.0 303131.0 35337.0 149371.0 35337.0 35337.0 35337.0 35337.0 149371.0 149371.0 149371.0 149371.0
355569.0 347823.0 319759.0 327017.0 44180.0 47731.0 301080.0 293158.0 362073.0 368861.0 324994.0 319260.0 0.0 8018.0 311171.0 318108.0 233873.0 239507.0 185475.0 193906.0 389436.0 384409.0 345053.0 336963.0 400988.0 395563.0 246581.0 238146.0 388511.0 390489.0 130837.0 138150.0 397652.0 405328.0 47053.0 50478.0 358024.0 351204.0 329211.0 327615.0 76439.0 68694.0 359384.0 355317.0 198061.0 200651.0 314445.0 318629.0 9922.0 17704.0 387180.0 381365.0 336153.0 342466.0 325895.0 317931.0 307491.0 299859.0 162071.0 162331.0 83440.0 80486.0 279026.0 286675.0 63039.0 66179.0 238514.0 232929.0 334388.0 329390.0 169769.0 161775.0 347281.0 342423.0 315202.0 322198.0 71127.0 79010.0 34804.0 42765.0 328359.0 171494.0 328359.0 328359.0 328359.0 328359.0 171494.0 171494.0 171494.0 171494.0
348216.0 340495.0 311768.0 319020.0 38769.0 43234.0 293433.0 285522.0 354097.0 360895.0 317770.0 312036.0 8018.0 0.0 303619.0 310594.0 225962.0 231634.0 177472.0 185904.0 381984.0 376909.0 337057.0 328967.0 393185.0 387733.0 238654.0 230215.0 381206.0 383117.0 122870.0 130163.0 390511.0 398203.0 40632.0 43364.0 350527.0 343670.0 321194.0 319597.0 68423.0 60676.0 351415.0 347332.0 190475.0 193013.0 306799.0 311038.0 2881.0 9697.0 379956.0 374141.0 328539.0 334815.0 318207.0 310253.0 299818.0 292208.0 154088.0 154320.0 76554.0 74023.0 271417.0 279045.0 59066.0 61365.0 230875.0 225230.0 327140.0 322214.0 162536.0 154548.0 340057.0 335200.0 307483.0 314449.0 63125.0 71022.0 35142.0 42934.0 321135.0 164411.0 321135.0 321135.0 321135.0 321135.0 164411.0 164411.0 164411.0 164411.0
49678.0 44148.0 132150.0 130985.0 271476.0 272075.0 15109.0 20587.0 94227.0 95608.0 50482.0 43191.0 311171.0 303619.0 0.0 8189.0 90895.0 82664.0 142294.0 135516.0 79250.0 73542.0 92990.0 89415.0 97643.0 94881.0 83211.0 89963.0 82453.0 82180.0 186136.0 180761.0 97645.0 105375.0 265843.0 261011.0 47332.0 40095.0 104994.0 112164.0 241144.0 247176.0 90229.0 93482.0 113173.0 110874.0 11809.0 8746.0 302930.0 294791.0 89639.0 87171.0 209095.0 207299.0 22633.0 17065.0 15349.0 16374.0 159014.0 162978.0 229448.0 234435.0 32813.0 26140.0 265625.0 257458.0 73280.0 79914.0 39247.0 41999.0 143163.0 151016.0 68233.0 69524.0 187772.0 185991.0 247148.0 241222.0 298954.0 297014.0 78028.0 143376.0 78028.0 78028.0 78028.0 78028.0 143376.0 143376.0 143376.0 143376.0
41512.0 35979.0 137652.0 136119.0 278116.0 278582.0 23127.0 28758.0 95548.0 96258.0 45297.0 38573.0 318108.0 310594.0 8189.0 0.0 99050.0 90803.0 150328.0 143600.0 71745.0 66329.0 95958.0 92981.0 93676.0 91514.0 91398.0 98148.0 74395.0 74320.0 193683.0 188406.0 89457.0 97190.0 272590.0 267867.0 39973.0 33181.0 109557.0 116962.0 248524.0 254478.0 91586.0 95475.0 120267.0 118114.0 16264.0 9037.0 309944.0 301823.0 81473.0 79097.0 214935.0 212921.0 23178.0 20240.0 22107.0 24429.0 166818.0 170880.0 236112.0 240970.0 40542.0 34170.0 272073.0 263906.0 80723.0 87542.0 31946.0 35624.0 149605.0 157503.0 61479.0 63339.0 194005.0 191993.0 254528.0 248678.0 305394.0 303461.0 74759.0 149722.0 74759.0 74759.0 74759.0 74759.0 149722.0 149722.0 149722.0 149722.0
140561.0 134672.0 108608.0 113179.0 198974.0 201329.0 76874.0 70312.0 129357.0 135724.0 128055.0 120238.0 233873.0 225962.0 90895.0 99050.0 0.0 8419.0 52769.0 45272.0 168306.0 161655.0 113928.0 105987.0 168445.0 162516.0 13041.0 5674.0 173229.0 172420.0 103429.0 96681.0 188391.0 196167.0 192061.0 185893.0 136650.0 128633.0 103696.0 105088.0 159310.0 166297.0 126382.0 123156.0 50007.0 45275.0 89197.0 95702.0 224784.0 216553.0 179909.0 176622.0 167152.0 168882.0 98130.0 90974.0 81368.0 75511.0 73055.0 75201.0 158171.0 164770.0 60054.0 65064.0 197202.0 189030.0 33943.0 27331.0 126522.0 125754.0 84213.0 89776.0 150672.0 148867.0 141837.0 144067.0 165203.0 158336.0 228326.0 227796.0 141771.0 88619.0 141771.0 141771.0 141771.0 141771.0 88619.0 88619.0 88619.0 88619.0
132306.0 126355.0 109519.0 113578.0 203807.0 205916.0 68795.0 62097.0 125138.0 131233.0 119697.0 111867.0 239507.0 231634.0 82664.0 90803.0 8419.0 0.0 60333.0 53101.0 160391.0 153827.0 110511.0 102701.0 162018.0 156283.0 11750.0 10180.0 165058.0 164356.0 109542.0 103039.0 180086.0 187870.0 197059.0 191071.0 128659.0 120691.0 102056.0 104096.0 165494.0 172337.0 122014.0 119242.0 50919.0 46392.0 81283.0 87642.0 230529.0 222294.0 171552.0 168229.0 170995.0 172371.0 90543.0 83248.0 73490.0 67434.0 79695.0 82323.0 162641.0 169035.0 51647.0 56754.0 201291.0 193120.0 27741.0 22395.0 118113.0 117337.0 85801.0 91875.0 142282.0 140523.0 145856.0 147672.0 171423.0 164704.0 232984.0 232211.0 133739.0 89649.0 133739.0 133739.0 133739.0 133739.0 89649.0 89649.0 89649.0 89649.0
191646.0 185279.0 138700.0 145222.0 154361.0 157845.0 128891.0 121888.0 176928.0 183908.0 174069.0 166669.0 185475.0 177472.0 142294.0 150328.0 52769.0 60333.0 0.0 8434.0 220627.0 214131.0 159614.0 151524.0 220431.0 214223.0 63989.0 55630.0 224723.0 224350.0 55180.0 47500.0 238953.0 246794.0 146791.0 139894.0 188816.0 180915.0 144187.0 143206.0 109467.0 116923.0 174385.0 170017.0 51883.0 49188.0 141558.0 147733.0 176031.0 167868.0 229908.0 225972.0 177115.0 181092.0 150839.0 143580.0 133792.0 127536.0 24044.0 23354.0 116313.0 123779.0 110133.0 116164.0 156563.0 148284.0 73643.0 65567.0 175701.0 173797.0 68158.0 69096.0 197191.0 194292.0 152154.0 156957.0 115168.0 107846.0 184121.0 184743.0 183483.0 75084.0 183483.0 183483.0 183483.0 183483.0 75084.0 75084.0 75084.0 75084.0
185023.0 178808.0 130839.0 137261.0 162617.0 166022.0 121865.0 115020.0 168510.0 175503.0 168749.0 161237.0 193906.0 185904.0 135516.0 143600.0 45272.0 53101.0 8434.0 0.0 213490.0 206895.0 151180.0 143090.0 212357.0 206091.0 56056.0 47786.0 217968.0 217412.0 63539.0 55899.0 232535.0 240359.0 155084.0 148226.0 181755.0 173792.0 135830.0 134931.0 117897.0 125357.0 165978.0 161589.0 51416.0 48097.0 134378.0 140717.0 184465.0 176301.0 223661.0 219911.0 171309.0 175045.0 143395.0 136240.0 126573.0 120506.0 32296.0 31757.0 124283.0 131682.0 103663.0 109437.0 164495.0 156213.0 68513.0 60343.0 169627.0 168007.0 71795.0 73559.0 191808.0 189150.0 146171.0 150713.0 123593.0 116256.0 192371.0 192912.0 179018.0 78498.0 179018.0 179018.0 179018.0 179018.0 78498.0 78498.0 78498.0 78498.0
35806.0 44024.0 174362.0 169810.0 348912.0 349080.0 91778.0 99042.0 105629.0 100862.0 77541.0 78702.0 389436.0 381984.0 79250.0 71745.0 168306.0 160391.0 220627.0 213490.0 0.0 8114.0 118479.0 120612.0 58112.0 62810.0 158958.0 166537.0 18091.0 10159.0 265378.0 260004.0 37569.0 41865.0 343610.0 339089.0 31951.0 39712.0 141754.0 150008.0 320269.0 326201.0 103074.0 110750.0 191897.0 189831.0 79115.0 72989.0 381390.0 373296.0 39926.0 45825.0 250186.0 246123.0 71128.0 77586.0 86939.0 93126.0 238115.0 241853.0 307008.0 311585.0 112060.0 105123.0 342581.0 334414.0 152456.0 159164.0 59467.0 66916.0 220238.0 228202.0 68600.0 76046.0 234010.0 229826.0 326272.0 320418.0 375909.0 373969.0 110171.0 220209.0 110171.0 110171.0 110171.0 110171.0 220209.0 220209.0 220209.0 220209.0
33803.0 41838.0 166258.0 161727.0 344204.0 344515.0 85483.0 92925.0 97858.0 93258.0 76652.0 76989.0 384409.0 376909.0 73542.0 66329.0 161655.0 153827.0 214131.0 206895.0 8114.0 0.0 110459.0 112526.0 52806.0 56811.0 152057.0 159737.0 24653.0 17505.0 259586.0 254085.0 44850.0 49598.0 338780.0 334134.0 26387.0 33525.0 133658.0 141913.0 314683.0 320715.0 95236.0 102856.0 186591.0 184386.0 72584.0 66837.0 376268.0 368150.0 45991.0 51120.0 242142.0 238114.0 64004.0 70733.0 80340.0 86818.0 231987.0 235566.0 302240.0 306957.0 106263.0 99126.0 337949.0 329782.0 146820.0 153346.0 57447.0 65312.0 215565.0 223504.0 70131.0 77360.0 225906.0 221739.0 320687.0 314733.0 371221.0 369337.0 109736.0 215591.0 109736.0 109736.0 109736.0 109736.0 215591.0 215591.0 215591.0 215591.0
116252.0 117209.0 57642.0 52028.0 312168.0 314840.0 85590.0 90087.0 19735.0 27671.0 140598.0 134385.0 345053.0 337057.0 92990.0 95958.0 113928.0 110511.0 159614.0 151180.0 118479.0 110459.0 0.0 8090.0 80701.0 72622.0 100897.0 108867.0 133764.0 127748.0 214353.0 206919.0 154249.0 159790.0 305002.0 298508.0 100730.0 94518.0 25560.0 33244.0 269056.0 276537.0 19246.0 11796.0 160789.0 156488.0 81185.0 86969.0 335638.0 327468.0 152283.0 154495.0 131737.0 127660.0 73200.0 76144.0 79887.0 85549.0 183033.0 182873.0 271858.0 278587.0 100016.0 93932.0 311089.0 302911.0 125248.0 126200.0 123150.0 129388.0 195803.0 202198.0 152365.0 156200.0 116675.0 111900.0 274715.0 267278.0 341714.0 341454.0 170653.0 199028.0 170653.0 170653.0 170653.0 170653.0 199028.0 199028.0 199028.0 199028.0
115953.0 116342.0 53964.0 49204.0 304115.0 306807.0 80985.0 84969.0 26995.0 34826.0 138032.0 131546.0 336963.0 328967.0 89415.0 92981.0 105987.0 102701.0 151524.0 143090.0 120612.0 112526.0 8090.0 0.0 86073.0 78084.0 92965.0 100892.0 135265.0 129599.0 206266.0 198830.0 155655.0 161470.0 296940.0 290436.0 100974.0 94326.0 21249.0 29455.0 260968.0 268448.0 25785.0 19244.0 153116.0 148781.0 77680.0 83945.0 327549.0 319378.0 153107.0 154901.0 129852.0 126211.0 70725.0 72878.0 75685.0 80836.0 174945.0 174785.0 263845.0 270592.0 94198.0 88444.0 303115.0 294931.0 118031.0 118756.0 121307.0 127187.0 188134.0 194468.0 150856.0 154347.0 113531.0 109215.0 266629.0 259196.0 333670.0 333433.0 167380.0 191448.0 167380.0 167380.0 167380.0 167380.0 191448.0 191448.0 191448.0 191448.0
80265.0 86600.0 137945.0 131669.0 363575.0 364912.0 102970.0 110891.0 62453.0 55272.0 121595.0 119490.0 400988.0 393185.0 97643.0 93676.0 168445.0 162018.0 220431.0 212357.0 58112.0 52806.0 80701.0 86073.0 0.0 8126.0 156501.0 164936.0 76183.0 68065.0 271556.0 265027.0 94648.0 97329.0 357318.0 351794.0 64939.0 65921.0 106259.0 113847.0 327508.0 334305.0 61690.0 69797.0 204623.0 201407.0 90261.0 88942.0 392183.0 383953.0 98037.0 103749.0 207952.0 202738.0 77634.0 85657.0 95864.0 103979.0 241497.0 243415.0 321701.0 327360.0 125317.0 117326.0 358991.0 350824.0 164054.0 168700.0 100692.0 109030.0 237358.0 244926.0 120426.0 127123.0 195789.0 190251.0 333441.0 326701.0 392011.0 390374.0 154576.0 238386.0 154576.0 154576.0 154576.0 154576.0 238386.0 238386.0 238386.0 238386.0
81840.0 87647.0 129825.0 123543.0 358541.0 360008.0 99130.0 106956.0 54327.0 47164.0 122064.0 119445.0 395563.0 387733.0 94881.0 91514.0 162516.0 156283.0 214223.0 206091.0 62810.0 56811.0 72622.0 78084.0 8126.0 0.0 150399.0 158859.0 80878.0 72917.0 265807.0 259180.0 99948.0 103071.0 352187.0 346561.0 65821.0 65777.0 98182.0 105747.0 321748.0 328620.0 53581.0 61679.0 199822.0 196492.0 86774.0 86136.0 386689.0 378456.0 102620.0 107929.0 199936.0 194767.0 74024.0 81929.0 91922.0 100071.0 235558.0 237296.0 316743.0 322515.0 121297.0 113311.0 354230.0 346063.0 159391.0 163763.0 101108.0 109398.0 232923.0 240415.0 122424.0 128879.0 187674.0 182153.0 327663.0 320848.0 387123.0 385617.0 154719.0 234156.0 154719.0 154719.0 154719.0 154719.0 234156.0 234156.0 234156.0 234156.0
132755.0 127340.0 97786.0 101912.0 211945.0 214338.0 68579.0 62771.0 116348.0 122757.0 123921.0 115972.0 246581.0 238654.0 83211.0 91398.0 13041.0 11750.0 63989.0 56056.0 158958.0 152057.0 100897.0 92965.0 156501.0 150399.0 0.0 8481.0 164874.0 163588.0 115959.0 109060.0 180817.0 188512.0 204998.0 198783.0 127637.0 119482.0 91124.0 92846.0 171739.0 178815.0 113396.0 110120.0 61952.0 57316.0 80165.0 87152.0 237442.0 229215.0 172806.0 170002.0 159802.0 161019.0 88137.0 81373.0 72288.0 67227.0 85276.0 86916.0 171197.0 177808.0 54539.0 58256.0 210242.0 202070.0 38330.0 33836.0 120389.0 120413.0 96579.0 102370.0 145998.0 144814.0 134776.0 136386.0 177603.0 170633.0 241323.0 240822.0 139943.0 100704.0 139943.0 139943.0 139943.0 139943.0 100704.0 100704.0 100704.0 100704.0
139623.0 133974.0 102946.0 107505.0 203681.0 206144.0 75596.0 69402.0 124584.0 131064.0 128870.0 120984.0 238146.0 230215.0 89963.0 98148.0 5674.0 10180.0 55630.0 47786.0 166537.0 159737.0 108867.0 100892.0 164936.0 158859.0 8481.0 0.0 172017.0 170946.0 107494.0 100581.0 187601.0 195337.0 196694.0 190438.0 135056.0 126956.0 98196.0 99494.0 163261.0 170344.0 121676.0 118265.0 55678.0 50943.0 87546.0 94324.0 228994.0 220768.0 179356.0 176310.0 162051.0 163668.0 95938.0 89005.0 79678.0 74235.0 76795.0 78480.0 163055.0 169730.0 60071.0 64496.0 202224.0 194044.0 37691.0 31712.0 126410.0 126016.0 89830.0 95329.0 151266.0 149739.0 136792.0 138882.0 169124.0 162152.0 233102.0 232675.0 143565.0 94275.0 143565.0 143565.0 143565.0 143565.0 94275.0 94275.0 94275.0 94275.0
33423.0 40779.0 188533.0 184395.0 347375.0 347584.0 96426.0 102971.0 122033.0 117684.0 69152.0 72026.0 388511.0 381206.0 82453.0 74395.0 173229.0 165058.0 224723.0 217968.0 18091.0 24653.0 133764.0 135265.0 76183.0 80878.0 164874.0 172017.0 0.0 8242.0 266985.0 262028.0 20518.0 26335.0 342213.0 338045.0 38285.0 46574.0 156177.0 164436.0 321101.0 326720.0 119269.0 126720.0 192356.0 190707.0 84849.0 77725.0 380746.0 372734.0 21864.0 28184.0 265113.0 261327.0 79159.0 84452.0 92698.0 97788.0 240891.0 245146.0 305518.0 310040.0 114768.0 108562.0 341031.0 332864.0 154181.0 161382.0 54425.0 60509.0 218777.0 226771.0 55819.0 63430.0 248098.0 244250.0 327087.0 321552.0 374359.0 372419.0 100102.0 218659.0 100102.0 100102.0 100102.0 100102.0 218659.0 218659.0 218659.0 218659.0
34976.0 42940.0 183164.0 178797.0 349497.0 349747.0 95562.0 102465.0 115360.0 110749.0 73949.0 76098.0 390489.0 383117.0 82180.0 74320.0 172420.0 164356.0 224350.0 217412.0 10159.0 17505.0 127748.0 129599.0 68065.0 72917.0 163588.0 170946.0 8242.0 0.0 267782.0 262632.0 27458.0 32119.0 344385.0 340060.0 35992.0 44242.0 150652.0 158914.0 322273.0 328035.0 112720.0 120308.0 193611.0 191773.0 83427.0 76720.0 382597.0 374547.0 30056.0 36404.0 259348.0 255404.0 76635.0 82503.0 91304.0 96924.0 241138.0 245159.0 307717.0 312204.0 114862.0 108301.0 343194.0 335027.0 154812.0 161801.0 57625.0 64378.0 220912.0 228899.0 62391.0 69971.0 242796.0 238762.0 328269.0 322588.0 376523.0 374583.0 105724.0 220823.0 105724.0 105724.0 105724.0 105724.0 220823.0 220823.0 220823.0 220823.0
233565.0 226391.0 192957.0 199731.0 99379.0 103180.0 174455.0 166785.0 231242.0 238025.0 208615.0 202097.0 130837.0 122870.0 186136.0 193683.0 103429.0 109542.0 55180.0 63539.0 265378.0 259586.0 214353.0 206266.0 271556.0 265807.0 115959.0 107494.0 266985.0 267782.0 0.0 7996.0 278906.0 286763.0 91700.0 84728.0 233467.0 226062.0 199364.0 198346.0 55953.0 62869.0 228547.0 224520.0 75497.0 76519.0 187711.0 192813.0 121574.0 113360.0 268911.0 263875.0 223525.0 228476.0 198370.0 190621.0 180330.0 173160.0 31341.0 32994.0 63223.0 71069.0 153342.0 160494.0 103285.0 95087.0 112984.0 106241.0 214651.0 211116.0 62146.0 56622.0 231501.0 227217.0 199675.0 205448.0 61891.0 55362.0 129139.0 130072.0 213451.0 68145.0 213451.0 213451.0 213451.0 213451.0 68145.0 68145.0 68145.0 68145.0
228607.0 221547.0 185008.0 191804.0 107286.0 111144.0 168775.0 161186.0 223953.0 230795.0 204737.0 198064.0 138150.0 130163.0 180761.0 188406.0 96681.0 103039.0 47500.0 55899.0 260004.0 254085.0 206919.0 198830.0 265027.0 259180.0 109060.0 100581.0 262028.0 262632.0 7996.0 0.0 274342.0 282208.0 99564.0 92526.0 228064.0 220564.0 191670.0 190568.0 62682.0 69855.0 221301.0 217170.0 71629.0 72212.0 181971.0 187258.0 128799.0 120605.0 264484.0 259613.0 215766.0 220664.0 192423.0 184741.0 174509.0 167466.0 23940.0 25041.0 71170.0 78996.0 147948.0 154960.0 111265.0 103062.0 107858.0 100865.0 210118.0 206825.0 62063.0 57363.0 227726.0 223641.0 191841.0 197569.0 68544.0 61675.0 137038.0 138031.0 210164.0 68493.0 210164.0 210164.0 210164.0 210164.0 68493.0 68493.0 68493.0 68493.0
48100.0 53744.0 208771.0 204739.0 356644.0 356853.0 112279.0 118199.0 142516.0 138079.0 74009.0 78764.0 397652.0 390511.0 97645.0 89457.0 188391.0 180086.0 238953.0 232535.0 37569.0 44850.0 154249.0 155655.0 94648.0 99948.0 180817.0 187601.0 20518.0 27458.0 278906.0 274342.0 0.0 7871.0 351501.0 347339.0 57056.0 65128.0 176502.0 184756.0 332124.0 337429.0 139774.0 147237.0 203644.0 202389.0 101638.0 94068.0 390186.0 382275.0 11410.0 19257.0 285506.0 281773.0 97337.0 101913.0 109345.0 113624.0 253949.0 258627.0 314823.0 319309.0 128874.0 123333.0 350300.0 342133.0 166945.0 174489.0 64256.0 68372.0 228058.0 236050.0 55327.0 62510.0 268280.0 264529.0 338077.0 332856.0 383628.0 381688.0 101167.0 227928.0 101167.0 101167.0 101167.0 101167.0 227928.0 227928.0 227928.0 227928.0
55760.0 61555.0 214834.0 210633.0 364372.0 364581.0 119951.0 125942.0 147448.0 142727.0 81486.0 86413.0 405328.0 398203.0 105375.0 97190.0 196167.0 187870.0 246794.0 240359.0 41865.0 49598.0 159790.0 161470.0 97329.0 103071.0 188512.0 195337.0 26335.0 32119.0 286763.0 282208.0 7871.0 0.0 359230.0 355067.0 63989.0 72160.0 182435.0 190696.0 339942.0 345230.0 144832.0 152426.0 211487.0 210245.0 109162.0 101654.0 397890.0 389988.0 18572.0 25729.0 291292.0 287424.0 104544.0 109306.0 116901.0 121299.0 261820.0 266493.0 322552.0 327037.0 136702.0 131117.0 358028.0 349861.0 174815.0 182357.0 72112.0 76137.0 235786.0 243778.0 62179.0 69185.0 274414.0 270528.0 345893.0 340687.0 391357.0 389416.0 107939.0 235656.0 107939.0 107939.0 107939.0 107939.0 235656.0 235656.0 235656.0 235656.0
309425.0 301606.0 284442.0 291314.0 8332.0 14879.0 256302.0 248333.0 321256.0 327752.0 278678.0 272944.0 47053.0 40632.0 265843.0 272590.0 192061.0 197059.0 146791.0 155084.0 343610.0 338780.0 305002.0 296940.0 357318.0 352187.0 204998.0 196694.0 342213.0 344385.0 91700.0 99564.0 351501.0 359230.0 0.0 7962.0 312399.0 305754.0 290859.0 289997.0 46516.0 39065.0 318370.0 314810.0 153158.0 156073.0 269643.0 273496.0 41035.0 34353.0 340864.0 335049.0 309277.0 314951.0 281361.0 273340.0 262887.0 255115.0 122787.0 124575.0 36701.0 33444.0 234058.0 241821.0 27211.0 24960.0 193821.0 188683.0 288065.0 283153.0 123475.0 115486.0 300965.0 296108.0 286709.0 293119.0 44034.0 51331.0 37573.0 39616.0 282043.0 124850.0 282043.0 282043.0 282043.0 282043.0 124850.0 124850.0 124850.0 124850.0
305129.0 297368.0 277212.0 284133.0 16285.0 22671.0 251191.0 243242.0 314931.0 321495.0 274516.0 268782.0 50478.0 43364.0 261011.0 267867.0 185893.0 191071.0 139894.0 148226.0 339089.0 334134.0 298508.0 290436.0 351794.0 346561.0 198783.0 190438.0 338045.0 340060.0 84728.0 92526.0 347339.0 355067.0 7962.0 0.0 307747.0 300998.0 284050.0 283073.0 38558.0 31153.0 312088.0 308415.0 148054.0 150815.0 264548.0 268563.0 43250.0 35737.0 336702.0 330886.0 301443.0 307144.0 276150.0 268151.0 257701.0 249988.0 115945.0 117480.0 33285.0 31726.0 229030.0 236741.0 33350.0 29523.0 188643.0 183307.0 283911.0 278990.0 119291.0 111298.0 296803.0 291945.0 278939.0 285382.0 36180.0 43397.0 45060.0 47469.0 277881.0 121060.0 277881.0 277881.0 277881.0 277881.0 121060.0 121060.0 121060.0 121060.0
16906.0 21829.0 152960.0 149449.0 317839.0 318181.0 59926.0 67110.0 92330.0 89695.0 56691.0 55079.0 358024.0 350527.0 47332.0 39973.0 136650.0 128659.0 188816.0 181755.0 31951.0 26387.0 100730.0 100974.0 64939.0 65821.0 127637.0 135056.0 38285.0 35992.0 233467.0 228064.0 57056.0 63989.0 312399.0 307747.0 0.0 8311.0 121229.0 129412.0 288443.0 294430.0 88983.0 95539.0 160239.0 158075.0 47510.0 41095.0 349891.0 341776.0 52628.0 53932.0 230311.0 227014.0 40899.0 46520.0 55380.0 61281.0 206168.0 209938.0 275867.0 280610.0 80131.0 73172.0 311625.0 303458.0 120591.0 127237.0 35870.0 44211.0 189216.0 197149.0 57462.0 63468.0 212165.0 208765.0 294447.0 288547.0 344912.0 343013.0 89809.0 189257.0 89809.0 89809.0 89809.0 89809.0 189257.0 189257.0 189257.0 189257.0
21742.0 24033.0 145729.0 142429.0 311295.0 311760.0 52079.0 59430.0 87299.0 85248.0 56444.0 53685.0 351204.0 343670.0 40095.0 33181.0 128633.0 120691.0 180915.0 173792.0 39712.0 33525.0 94518.0 94326.0 65921.0 65777.0 119482.0 126956.0 46574.0 44242.0 226062.0 220564.0 65128.0 72160.0 305754.0 300998.0 8311.0 0.0 114274.0 122410.0 281191.0 287255.0 83797.0 89990.0 153252.0 150968.0 39439.0 33341.0 342996.0 334862.0 60223.0 60967.0 223236.0 220086.0 32592.0 38263.0 47290.0 53425.0 198516.0 202177.0 269289.0 274151.0 72750.0 65604.0 305245.0 297078.0 113336.0 119823.0 35541.0 43742.0 182781.0 190683.0 60482.0 65845.0 204757.0 201500.0 287195.0 281219.0 338563.0 336634.0 88942.0 182886.0 88942.0 88942.0 88942.0 88942.0 182886.0 182886.0 182886.0 182886.0
135706.0 135540.0 32716.0 28257.0 298308.0 301466.0 94591.0 97198.0 44697.0 52560.0 154854.0 147962.0 329211.0 321194.0 104994.0 109557.0 103696.0 102056.0 144187.0 135830.0 141754.0 133658.0 25560.0 21249.0 106259.0 98182.0 91124.0 98196.0 156177.0 150652.0 199364.0 191670.0 176502.0 182435.0 290859.0 284050.0 121229.0 114274.0 0.0 8262.0 252834.0 260519.0 44722.0 36865.0 152954.0 148375.0 93613.0 100582.0 319626.0 311534.0 173630.0 175130.0 109123.0 105813.0 88426.0 89327.0 90315.0 94191.0 168106.0 167007.0 259030.0 266091.0 104144.0 99553.0 298855.0 290603.0 121511.0 120796.0 139306.0 144641.0 187699.0 193451.0 169143.0 172156.0 92305.0 88110.0 258328.0 250680.0 328029.0 328286.0 182844.0 191700.0 182844.0 182844.0 182844.0 182844.0 191700.0 191700.0 191700.0 191700.0
143795.0 143516.0 24553.0 20038.0 297547.0 300890.0 101294.0 103510.0 51828.0 59574.0 162236.0 155247.0 327615.0 319597.0 112164.0 116962.0 105088.0 104096.0 143206.0 134931.0 150008.0 141913.0 33244.0 29455.0 113847.0 105747.0 92846.0 99494.0 164436.0 158914.0 198346.0 190568.0 184756.0 190696.0 289997.0 283073.0 129412.0 122410.0 8262.0 0.0 251181.0 258938.0 52174.0 44151.0 154796.0 150148.0 100913.0 108027.0 317968.0 309918.0 181845.0 183297.0 100910.0 97687.0 96150.0 96767.0 97308.0 100830.0 167221.0 165732.0 258732.0 265907.0 109747.0 105531.0 298718.0 290449.0 124874.0 123651.0 147006.0 152200.0 189294.0 194806.0 176886.0 179777.0 84076.0 79848.0 256595.0 248870.0 327300.0 327758.0 189830.0 193544.0 189830.0 189830.0 189830.0 189830.0 193544.0 193544.0 193544.0 193544.0
287746.0 280357.0 243507.0 250704.0 54816.0 61101.0 229889.0 222134.0 286368.0 293292.0 260338.0 254265.0 76439.0 68423.0 241144.0 248524.0 159310.0 165494.0 109467.0 117897.0 320269.0 314683.0 269056.0 260968.0 327508.0 321748.0 171739.0 163261.0 321101.0 322273.0 55953.0 62682.0 332124.0 339942.0 46516.0 38558.0 288443.0 281191.0 252834.0 251181.0 0.0 8055.0 283781.0 279483.0 128746.0 130505.0 243198.0 248064.0 66796.0 58739.0 321820.0 316377.0 263910.0 269794.0 254056.0 246250.0 235910.0 228611.0 86555.0 86183.0 42740.0 48387.0 208450.0 215772.0 68957.0 62661.0 167864.0 161482.0 267978.0 263890.0 106678.0 99180.0 282812.0 277978.0 241850.0 248500.0 6004.0 5370.0 82346.0 85659.0 263929.0 110557.0 263929.0 263929.0 263929.0 263929.0 110557.0 110557.0 110557.0 110557.0
293411.0 285951.0 251432.0 258608.0 47301.0 53812.0 236144.0 228348.0 293743.0 300623.0 265282.0 259338.0 68694.0 60676.0 247176.0 254478.0 166297.0 172337.0 116923.0 125357.0 326201.0 320715.0 276537.0 268448.0 334305.0 328620.0 178815.0 170344.0 326720.0 328035.0 62869.0 69855.0 337429.0 345230.0 39065.0 31153.0 294430.0 287255.0 260519.0 258938.0 8055.0 0.0 291122.0 286903.0 134424.0 136370.0 249476.0 254209.0 59138.0 51018.0 327037.0 321477.0 271915.0 277816.0 260465.0 252621.0 242252.0 234877.0 93785.0 93702.0 40514.0 45112.0 214557.0 221954.0 62618.0 56794.0 173926.0 167707.0 273373.0 269121.0 110953.0 103290.0 287619.0 282766.0 249890.0 256548.0 5370.0 12310.0 74423.0 77899.0 268701.0 114448.0 268701.0 268701.0 268701.0 268701.0 114448.0 114448.0 114448.0 114448.0
105341.0 107474.0 76280.0 70179.0 325340.0 327702.0 85842.0 91665.0 4004.0 9542.0 134385.0 128915.0 359384.0 351415.0 90229.0 91586.0 126382.0 122014.0 174385.0 165978.0 103074.0 95236.0 19246.0 25785.0 61690.0 53581.0 113396.0 121676.0 119269.0 112720.0 228547.0 221301.0 139774.0 144832.0 318370.0 312088.0 88983.0 83797.0 44722.0 52174.0 283781.0 291122.0 0.0 8186.0 171041.0 166971.0 78646.0 82993.0 350091.0 341888.0 138833.0 141793.0 148385.0 143808.0 68426.0 73206.0 79240.0 86106.0 197361.0 197734.0 284505.0 291001.0 103473.0 96506.0 323299.0 315129.0 133458.0 135472.0 115485.0 122461.0 205868.0 212626.0 143586.0 148153.0 134643.0 129473.0 289524.0 282231.0 354707.0 354119.0 165956.0 208560.0 165956.0 165956.0 165956.0 165956.0 208560.0 208560.0 208560.0 208560.0
111661.0 113397.0 68149.0 61999.0 321884.0 324407.0 87857.0 93168.0 7946.0 15885.0 139106.0 133347.0 355317.0 347332.0 93482.0 95475.0 123156.0 119242.0 170017.0 161589.0 110750.0 102856.0 11796.0 19244.0 69797.0 61679.0 110120.0 118265.0 126720.0 120308.0 224520.0 217170.0 147237.0 152426.0 314810.0 308415.0 95539.0 89990.0 36865.0 44151.0 279483.0 286903.0 8186.0 0.0 168947.0 164762.0 81741.0 86683.0 345957.0 337770.0 146005.0 148744.0 140314.0 135811.0 72326.0 76420.0 81578.0 87998.0 193247.0 193330.0 281308.0 287925.0 104246.0 97619.0 320304.0 312160.0 132248.0 133781.0 120694.0 127418.0 203898.0 210488.0 149247.0 153563.0 126457.0 121302.0 285181.0 277807.0 351350.0 350932.0 170149.0 206844.0 170149.0 170149.0 170149.0 170149.0 206844.0 206844.0 206844.0 206844.0
159011.0 151612.0 158459.0 163163.0 159146.0 160306.0 103153.0 95194.0 174381.0 179984.0 133166.0 126602.0 198061.0 190475.0 113173.0 120267.0 50007.0 50919.0 51883.0 51416.0 191897.0 186591.0 160789.0 153116.0 204623.0 199822.0 61952.0 55678.0 192356.0 193611.0 75497.0 71629.0 203644.0 211487.0 153158.0 148054.0 160239.0 153252.0 152954.0 154796.0 128746.0 134424.0 171041.0 168947.0 0.0 4794.0 116503.0 120568.0 189764.0 181620.0 193531.0 188405.0 212817.0 215347.0 128214.0 120185.0 109733.0 101960.0 54855.0 61685.0 117168.0 122737.0 80983.0 88690.0 154408.0 146241.0 40683.0 36197.0 139408.0 135674.0 35019.0 41585.0 156116.0 152016.0 187316.0 190480.0 134732.0 129278.0 187394.0 185796.0 138719.0 38758.0 138719.0 138719.0 138719.0 138719.0 38758.0 38758.0 38758.0 38758.0
157314.0 150023.0 153685.0 158411.0 162197.0 163523.0 100430.0 92510.0 170278.0 175962.0 132588.0 125860.0 200651.0 193013.0 110874.0 118114.0 45275.0 46392.0 49188.0 48097.0 189831.0 184386.0 156488.0 148781.0 201407.0 196492.0 57316.0 50943.0 190707.0 191773.0 76519.0 72212.0 202389.0 210245.0 156073.0 150815.0 158075.0 150968.0 148375.0 150148.0 130505.0 136370.0 166971.0 164762.0 4794.0 0.0 113794.0 118096.0 192242.0 184074.0 192403.0 187436.0 208137.0 210632.0 125335.0 117337.0 106888.0 99212.0 54180.0 60636.0 120294.0 126028.0 78436.0 86032.0 157814.0 149646.0 37864.0 32729.0 138133.0 134655.0 39419.0 45732.0 155629.0 151729.0 182637.0 185762.0 136503.0 130851.0 190634.0 189179.0 138832.0 43398.0 138832.0 138832.0 138832.0 138832.0 43398.0 43398.0 43398.0 43398.0
53694.0 49626.0 121408.0 119956.0 275524.0 276422.0 13366.0 21310.0 82648.0 84276.0 61349.0 54351.0 314445.0 306799.0 11809.0 16264.0 89197.0 81283.0 141558.0 134378.0 79115.0 72584.0 81185.0 77680.0 90261.0 86774.0 80165.0 87546.0 84849.0 83427.0 187711.0 181971.0 101638.0 109162.0 269643.0 264548.0 47510.0 39439.0 93613.0 100913.0 243198.0 249476.0 78646.0 81741.0 116503.0 113794.0 0.0 8061.0 306006.0 297825.0 94609.0 93056.0 198671.0 196668.0 12777.0 5523.0 7877.0 14606.0 159583.0 163021.0 233495.0 238772.0 35658.0 27823.0 270155.0 261988.0 75931.0 81777.0 47900.0 51886.0 147932.0 155656.0 77639.0 79603.0 177789.0 175739.0 249197.0 243017.0 303420.0 301543.0 89706.0 148561.0 89706.0 89706.0 89706.0 89706.0 148561.0 148561.0 148561.0 148561.0
46013.0 41667.0 128913.0 127259.0 279223.0 279928.0 18852.0 26090.0 86971.0 87959.0 54290.0 47611.0 318629.0 311038.0 8746.0 9037.0 95702.0 87642.0 147733.0 140717.0 72989.0 66837.0 86969.0 83945.0 88942.0 86136.0 87152.0 94324.0 77725.0 76720.0 192813.0 187258.0 94068.0 101654.0 273496.0 268563.0 41095.0 33341.0 100582.0 108027.0 248064.0 254209.0 82993.0 86683.0 120568.0 118096.0 8061.0 0.0 310306.0 302149.0 86812.0 85107.0 206312.0 204203.0 14648.0 11261.0 15333.0 20211.0 165175.0 168864.0 237185.0 242277.0 39672.0 32319.0 273534.0 265366.0 80314.0 86607.0 39985.0 44309.0 151117.0 158931.0 69819.0 72012.0 185604.0 183459.0 254068.0 248023.0 306852.0 304922.0 83699.0 151405.0 83699.0 83699.0 83699.0 83699.0 151405.0 151405.0 151405.0 151405.0
347715.0 340018.0 309968.0 317245.0 39744.0 44580.0 292640.0 284740.0 352752.0 359579.0 317399.0 311665.0 9922.0 2881.0 302930.0 309944.0 224784.0 230529.0 176031.0 184465.0 381390.0 376268.0 335638.0 327549.0 392183.0 386689.0 237442.0 228994.0 380746.0 382597.0 121574.0 128799.0 390186.0 397890.0 41035.0 43250.0 349891.0 342996.0 319626.0 317968.0 66796.0 59138.0 350091.0 345957.0 189764.0 192242.0 306006.0 310306.0 0.0 8235.0 379468.0 373770.0 326258.0 332561.0 317363.0 309421.0 298991.0 291409.0 152736.0 152836.0 76524.0 74284.0 270668.0 278271.0 60542.0 62504.0 230097.0 224380.0 326732.0 321865.0 162168.0 154187.0 339686.0 334828.0 305284.0 312277.0 61399.0 69235.0 37772.0 45511.0 320764.0 164164.0 320764.0 320764.0 320764.0 320764.0 164164.0 164164.0 164164.0 164164.0
339678.0 331996.0 302072.0 309322.0 34295.0 40002.0 284460.0 276564.0 344555.0 351373.0 309464.0 303730.0 17704.0 9697.0 294791.0 301823.0 216553.0 222294.0 167868.0 176301.0 373296.0 368150.0 327468.0 319378.0 383953.0 378456.0 229215.0 220768.0 372734.0 374547.0 113360.0 120605.0 382275.0 389988.0 34353.0 35737.0 341776.0 334862.0 311534.0 309918.0 58739.0 51018.0 341888.0 337770.0 181620.0 184074.0 297825.0 302149.0 8235.0 0.0 371580.0 365835.0 319152.0 325391.0 309166.0 301228.0 290800.0 283227.0 144539.0 144693.0 68999.0 67162.0 262504.0 270098.0 56123.0 57170.0 221923.0 216183.0 318760.0 313938.0 154244.0 146271.0 331751.0 326894.0 297994.0 304932.0 53428.0 61327.0 38521.0 45743.0 312829.0 156343.0 312829.0 312829.0 312829.0 312829.0 156343.0 156343.0 156343.0 156343.0
41011.0 45493.0 205534.0 201880.0 346007.0 346216.0 104532.0 110040.0 141802.0 137915.0 62922.0 67963.0 387180.0 379956.0 89639.0 81473.0 179909.0 171552.0 229908.0 223661.0 39926.0 45991.0 152283.0 153107.0 98037.0 102620.0 172806.0 179356.0 21864.0 30056.0 268911.0 264484.0 11410.0 18572.0 340864.0 336702.0 52628.0 60223.0 173630.0 181845.0 321820.0 327037.0 138833.0 146005.0 193531.0 192403.0 94609.0 86812.0 379468.0 371580.0 0.0 8198.0 282752.0 279304.0 91506.0 95397.0 102144.0 105855.0 244386.0 249229.0 304186.0 308672.0 120070.0 114892.0 339663.0 331496.0 157417.0 165078.0 54450.0 57930.0 217421.0 225413.0 43917.0 51110.0 264790.0 261344.0 327761.0 322633.0 372991.0 371051.0 89757.0 217291.0 89757.0 89757.0 89757.0 89757.0 217291.0 217291.0 217291.0 217291.0
40342.0 43440.0 206696.0 203329.0 340191.0 340400.0 102223.0 107290.0 144903.0 141388.0 56574.0 62142.0 381365.0 374141.0 87171.0 79097.0 176622.0 168229.0 225972.0 219911.0 45825.0 51120.0 154495.0 154901.0 103749.0 107929.0 170002.0 176310.0 28184.0 36404.0 263875.0 259613.0 19257.0 25729.0 335049.0 330886.0 53932.0 60967.0 175130.0 183297.0 316377.0 321477.0 141793.0 148744.0 188405.0 187436.0 93056.0 85107.0 373770.0 365835.0 8198.0 0.0 284169.0 280931.0 91053.0 94310.0 100377.0 103518.0 239870.0 244893.0 298371.0 302856.0 116601.0 111829.0 333847.0 325680.0 153045.0 160825.0 50285.0 52789.0 211605.0 219597.0 36469.0 43460.0 265678.0 262466.0 322301.0 317293.0 367176.0 365236.0 82210.0 211476.0 82210.0 82210.0 82210.0 82210.0 211476.0 211476.0 211476.0 211476.0
244492.0 243829.0 77729.0 80873.0 317559.0 322836.0 196260.0 196426.0 146606.0 153058.0 259559.0 252105.0 336153.0 328539.0 209095.0 214935.0 167152.0 170995.0 177115.0 171309.0 250186.0 242142.0 131737.0 129852.0 207952.0 199936.0 159802.0 162051.0 265113.0 259348.0 223525.0 215766.0 285506.0 291292.0 309277.0 301443.0 230311.0 223236.0 109123.0 100910.0 263910.0 271915.0 148385.0 140314.0 212817.0 208137.0 198671.0 206312.0 326258.0 319152.0 282752.0 284169.0 0.0 8088.0 195720.0 195201.0 193769.0 195498.0 197982.0 192604.0 286371.0 294316.0 198490.0 196587.0 325725.0 317723.0 198082.0 193388.0 246096.0 250555.0 241626.0 244402.0 276038.0 278273.0 25501.0 23734.0 267939.0 259915.0 346150.0 348893.0 284593.0 247775.0 284593.0 284593.0 284593.0 284593.0 247775.0 247775.0 247775.0 247775.0
241479.0 241071.0 75296.0 77705.0 323215.0 328395.0 194787.0 195279.0 141868.0 148110.0 257780.0 250420.0 342466.0 334815.0 207299.0 212921.0 168882.0 172371.0 181092.0 175045.0 246123.0 238114.0 127660.0 126211.0 202738.0 194767.0 161019.0 163668.0 261327.0 255404.0 228476.0 220664.0 281773.0 287424.0 314951.0 307144.0 227014.0 220086.0 105813.0 97687.0 269794.0 277816.0 143808.0 135811.0 215347.0 210632.0 196668.0 204203.0 332561.0 325391.0 279304.0 280931.0 8088.0 0.0 193227.0 193029.0 192019.0 194072.0 202382.0 197213.0 291473.0 299400.0 197925.0 195707.0 330993.0 322952.0 199173.0 194756.0 243824.0 248503.0 244800.0 247801.0 273774.0 276214.0 28965.0 24880.0 273914.0 265874.0 351943.0 354564.0 283373.0 250835.0 283373.0 283373.0 283373.0 283373.0 250835.0 250835.0 250835.0 250835.0
50743.0 48568.0 118024.0 115767.0 287347.0 288368.0 25396.0 33373.0 72395.0 73310.0 67413.0 61228.0 325895.0 318207.0 22633.0 23178.0 98130.0 90543.0 150839.0 143395.0 71128.0 64004.0 73200.0 70725.0 77634.0 74024.0 88137.0 95938.0 79159.0 76635.0 198370.0 192423.0 97337.0 104544.0 281361.0 276150.0 40899.0 32592.0 88426.0 96150.0 254056.0 260465.0 68426.0 72326.0 128214.0 125335.0 12777.0 14648.0 317363.0 309166.0 91506.0 91053.0 195720.0 193227.0 0.0 8076.0 18495.0 26468.0 169690.0 172770.0 245343.0 250733.0 47830.0 39869.0 282191.0 274024.0 87541.0 92983.0 50880.0 56473.0 160129.0 167800.0 80736.0 83793.0 175867.0 173251.0 260046.0 253728.0 315403.0 313580.0 97835.0 160920.0 97835.0 97835.0 97835.0 97835.0 160920.0 160920.0 160920.0 160920.0
54388.0 51082.0 117734.0 116016.0 279308.0 280312.0 17331.0 25299.0 77206.0 78769.0 65533.0 58771.0 317931.0 310253.0 17065.0 20240.0 90974.0 83248.0 143580.0 136240.0 77586.0 70733.0 76144.0 72878.0 85657.0 81929.0 81373.0 89005.0 84452.0 82503.0 190621.0 184741.0 101913.0 109306.0 273340.0 268151.0 46520.0 38263.0 89327.0 96767.0 246250.0 252621.0 73206.0 76420.0 120185.0 117337.0 5523.0 11261.0 309421.0 301228.0 95397.0 94310.0 195201.0 193029.0 8076.0 0.0 10452.0 18392.0 162123.0 165336.0 237299.0 242674.0 39756.0 31793.0 274125.0 265957.0 79521.0 85051.0 50930.0 55526.0 152054.0 159725.0 80848.0 83207.0 174672.0 172418.0 252244.0 245968.0 307342.0 305513.0 94554.0 152851.0 94554.0 94554.0 94554.0 94554.0 152851.0 152851.0 152851.0 152851.0
61324.0 56945.0 116924.0 115915.0 268858.0 269873.0 7295.0 15040.0 83235.0 85580.0 65791.0 58407.0 307491.0 299818.0 15349.0 22107.0 81368.0 73490.0 133792.0 126573.0 86939.0 80340.0 79887.0 75685.0 95864.0 91922.0 72288.0 79678.0 92698.0 91304.0 180330.0 174509.0 109345.0 116901.0 262887.0 257701.0 55380.0 47290.0 90315.0 97308.0 235910.0 242252.0 79240.0 81578.0 109733.0 106888.0 7877.0 15333.0 298991.0 290800.0 102144.0 100377.0 193769.0 192019.0 18495.0 10452.0 0.0 8151.0 152004.0 155351.0 226851.0 232238.0 29453.0 21464.0 263700.0 255533.0 69069.0 74634.0 54043.0 57263.0 141677.0 149331.0 83398.0 84849.0 172426.0 170647.0 241905.0 235664.0 296908.0 295089.0 92538.0 142547.0 92538.0 92538.0 92538.0 92538.0 142547.0 142547.0 142547.0 142547.0
65539.0 60371.0 119363.0 118877.0 261033.0 261987.0 1363.0 6914.0 90081.0 92780.0 64669.0 56945.0 299859.0 292208.0 16374.0 24429.0 75511.0 67434.0 127536.0 120506.0 93126.0 86818.0 85549.0 80836.0 103979.0 100071.0 67227.0 74235.0 97788.0 96924.0 173160.0 167466.0 113624.0 121299.0 255115.0 249988.0 61281.0 53425.0 94191.0 100830.0 228611.0 234877.0 86106.0 87998.0 101960.0 99212.0 14606.0 20211.0 291409.0 283227.0 105855.0 103518.0 195498.0 194072.0 26468.0 18392.0 8151.0 0.0 145189.0 148761.0 219013.0 224343.0 21366.0 13402.0 255770.0 247602.0 61353.0 67174.0 55393.0 57467.0 133664.0 141343.0 83827.0 84547.0 173565.0 172164.0 234611.0 228451.0 289005.0 287158.0 89435.0 134468.0 89435.0 89435.0 89435.0 89435.0 134468.0 134468.0 134468.0 134468.0
207529.0 200706.0 162602.0 169192.0 130329.0 133802.0 146517.0 139090.0 200016.0 206855.0 185994.0 179003.0 162071.0 154088.0 159014.0 166818.0 73055.0 79695.0 24044.0 32296.0 238115.0 231987.0 183033.0 174945.0 241497.0 235558.0 85276.0 76795.0 240891.0 241138.0 31341.0 23940.0 253949.0 261820.0 122787.0 115945.0 206168.0 198516.0 168106.0 167221.0 86555.0 93785.0 197361.0 193247.0 54855.0 54180.0 159583.0 165175.0 152736.0 144539.0 244386.0 239870.0 197982.0 202382.0 169690.0 162123.0 152004.0 145189.0 0.0 8078.0 92430.0 99974.0 126276.0 133001.0 132704.0 124431.0 87005.0 79547.0 189936.0 187163.0 57329.0 55609.0 209128.0 205509.0 173423.0 178654.0 92381.0 85358.0 160087.0 160702.0 192960.0 64459.0 192960.0 192960.0 192960.0 192960.0 64459.0 64459.0 64459.0 64459.0
211862.0 205193.0 159968.0 166766.0 132321.0 136174.0 150102.0 142832.0 200265.0 207258.0 191532.0 184420.0 162331.0 154320.0 162978.0 170880.0 75201.0 82323.0 23354.0 31757.0 241853.0 235566.0 182873.0 174785.0 243415.0 237296.0 86916.0 78480.0 245146.0 245159.0 32994.0 25041.0 258627.0 266493.0 124575.0 117480.0 209938.0 202177.0 167007.0 165732.0 86183.0 93702.0 197734.0 193330.0 61685.0 60636.0 163021.0 168864.0 152836.0 144693.0 249229.0 244893.0 192604.0 197213.0 172770.0 165336.0 155351.0 148761.0 8078.0 0.0 95757.0 103476.0 130387.0 136872.0 135981.0 127743.0 91850.0 84155.0 194806.0 192296.0 65403.0 63584.0 214690.0 211256.0 168290.0 173749.0 91854.0 84499.0 162068.0 163065.0 199086.0 72531.0 199086.0 199086.0 199086.0 199086.0 72531.0 72531.0 72531.0 72531.0
272752.0 264922.0 255006.0 261524.0 42039.0 43330.0 220181.0 212196.0 287519.0 293797.0 242000.0 236266.0 83440.0 76554.0 229448.0 236112.0 158171.0 162641.0 116313.0 124283.0 307008.0 302240.0 271858.0 263845.0 321701.0 316743.0 171197.0 163055.0 305518.0 307717.0 63223.0 71170.0 314823.0 322552.0 36701.0 33285.0 275867.0 269289.0 259030.0 258732.0 42740.0 40514.0 284505.0 281308.0 117168.0 120294.0 233495.0 237185.0 76524.0 68999.0 304186.0 298371.0 286371.0 291473.0 245343.0 237299.0 226851.0 219013.0 92430.0 95757.0 0.0 7987.0 197863.0 205676.0 40278.0 32013.0 157846.0 153007.0 251387.0 246475.0 86809.0 78827.0 264287.0 259430.0 262741.0 268605.0 45194.0 47802.0 70449.0 69625.0 245365.0 88159.0 245365.0 245365.0 245365.0 245365.0 88159.0 88159.0 88159.0 88159.0
277238.0 269414.0 262476.0 268943.0 37500.0 37654.0 225493.0 217498.0 294057.0 300257.0 246486.0 240752.0 80486.0 74023.0 234435.0 240970.0 164770.0 169035.0 123779.0 131682.0 311585.0 306957.0 278587.0 270592.0 327360.0 322515.0 177808.0 169730.0 310040.0 312204.0 71069.0 78996.0 319309.0 327037.0 33444.0 31726.0 280610.0 274151.0 266091.0 265907.0 48387.0 45112.0 291001.0 287925.0 122737.0 126028.0 238772.0 242277.0 74284.0 67162.0 308672.0 302856.0 294316.0 299400.0 250733.0 242674.0 232238.0 224343.0 99974.0 103476.0 7987.0 0.0 203116.0 210976.0 32831.0 24552.0 163354.0 158755.0 255872.0 250960.0 91394.0 83470.0 268773.0 263915.0 270654.0 276493.0 50118.0 53622.0 64675.0 63242.0 249851.0 92214.0 249851.0 249851.0 249851.0 249851.0 92214.0 92214.0 92214.0 92214.0
81553.0 75160.0 125153.0 126005.0 239896.0 240767.0 22444.0 14457.0 107353.0 110923.0 69544.0 61562.0 279026.0 271417.0 32813.0 40542.0 60054.0 51647.0 110133.0 103663.0 112060.0 106263.0 100016.0 94198.0 125317.0 121297.0 54539.0 60071.0 114768.0 114862.0 153342.0 147948.0 128874.0 136702.0 234058.0 229030.0 80131.0 72750.0 104144.0 109747.0 208450.0 214557.0 103473.0 104246.0 80983.0 78436.0 35658.0 39672.0 270668.0 262504.0 120070.0 116601.0 198490.0 197925.0 47830.0 39756.0 29453.0 21366.0 126276.0 130387.0 197863.0 203116.0 0.0 7992.0 234499.0 226332.0 40643.0 47107.0 66468.0 65964.0 112321.0 120020.0 91461.0 90419.0 175212.0 174812.0 214454.0 208470.0 267763.0 265887.0 88120.0 113104.0 88120.0 88120.0 88120.0 88120.0 113104.0 113104.0 113104.0 113104.0
75604.0 69608.0 122085.0 122467.0 247703.0 248622.0 14519.0 6522.0 100422.0 103738.0 67481.0 59491.0 286675.0 279045.0 26140.0 34170.0 65064.0 56754.0 116164.0 109437.0 105123.0 99126.0 93932.0 88444.0 117326.0 113311.0 58256.0 64496.0 108562.0 108301.0 160494.0 154960.0 123333.0 131117.0 241821.0 236741.0 73172.0 65604.0 99553.0 105531.0 215772.0 221954.0 96506.0 97619.0 88690.0 86032.0 27823.0 32319.0 278271.0 270098.0 114892.0 111829.0 196587.0 195707.0 39869.0 31793.0 21464.0 13402.0 133001.0 136872.0 205676.0 210976.0 7992.0 0.0 242386.0 234219.0 48175.0 54297.0 62144.0 62546.0 120263.0 127944.0 88571.0 88168.0 173768.0 172999.0 221775.0 215709.0 275633.0 273774.0 88461.0 121085.0 88461.0 88461.0 88461.0 88461.0 121085.0 121085.0 121085.0 121085.0
308229.0 300405.0 295263.0 301753.0 22567.0 16121.0 256905.0 248907.0 326384.0 332523.0 277477.0 271743.0 63039.0 59066.0 265625.0 272073.0 197202.0 201291.0 156563.0 164495.0 342581.0 337949.0 311089.0 303115.0 358991.0 354230.0 210242.0 202224.0 341031.0 343194.0 103285.0 111265.0 350300.0 358028.0 27211.0 33350.0 311625.0 305245.0 298855.0 298718.0 68957.0 62618.0 323299.0 320304.0 154408.0 157814.0 270155.0 273534.0 60542.0 56123.0 339663.0 333847.0 325725.0 330993.0 282191.0 274125.0 263700.0 255770.0 132704.0 135981.0 40278.0 32831.0 234499.0 242386.0 0.0 8282.0 194940.0 190517.0 286863.0 281951.0 122474.0 114611.0 299763.0 294906.0 302363.0 308365.0 67941.0 74217.0 36574.0 32798.0 280842.0 124149.0 280842.0 280842.0 280842.0 280842.0 124149.0 124149.0 124149.0 124149.0
300062.0 292238.0 286984.0 293472.0 22884.0 18508.0 248738.0 240740.0 318223.0 324349.0 269310.0 263576.0 66179.0 61365.0 257458.0 263906.0 189030.0 193120.0 148284.0 156213.0 334414.0 329782.0 302911.0 294931.0 350824.0 346063.0 202070.0 194044.0 332864.0 335027.0 95087.0 103062.0 342133.0 349861.0 24960.0 29523.0 303458.0 297078.0 290603.0 290449.0 62661.0 56794.0 315129.0 312160.0 146241.0 149646.0 261988.0 265366.0 62504.0 57170.0 331496.0 325680.0 317723.0 322952.0 274024.0 265957.0 255533.0 247602.0 124431.0 127743.0 32013.0 24552.0 226332.0 234219.0 8282.0 0.0 186773.0 182350.0 278696.0 273784.0 114307.0 106444.0 291596.0 286739.0 294295.0 300263.0 62160.0 67989.0 42924.0 40042.0 272674.0 115982.0 272674.0 272674.0 272674.0 272674.0 115982.0 115982.0 115982.0 115982.0
120765.0 113792.0 133543.0 136752.0 199828.0 200952.0 62567.0 54647.0 137008.0 142035.0 100425.0 93049.0 238514.0 230875.0 73280.0 80723.0 33943.0 27741.0 73643.0 68513.0 152456.0 146820.0 125248.0 118031.0 164054.0 159391.0 38330.0 37691.0 154181.0 154812.0 112984.0 107858.0 166945.0 174815.0 193821.0 188643.0 120591.0 113336.0 121511.0 124874.0 167864.0 173926.0 133458.0 132248.0 40683.0 37864.0 75931.0 80314.0 230097.0 221923.0 157417.0 153045.0 198082.0 199173.0 87541.0 79521.0 69069.0 61353.0 87005.0 91850.0 157846.0 163354.0 40643.0 48175.0 194940.0 186773.0 0.0 8186.0 102976.0 100504.0 73724.0 81083.0 123552.0 120693.0 173097.0 174613.0 173868.0 167962.0 228025.0 226321.0 110802.0 75595.0 110802.0 110802.0 110802.0 110802.0 75595.0 75595.0 75595.0 75595.0
127999.0 121162.0 130880.0 134513.0 194879.0 196249.0 68438.0 60653.0 138909.0 144273.0 108519.0 101102.0 232929.0 225230.0 79914.0 87542.0 27331.0 22395.0 65567.0 60343.0 159164.0 153346.0 126200.0 118756.0 168700.0 163763.0 33836.0 31712.0 161382.0 161801.0 106241.0 100865.0 174489.0 182357.0 188683.0 183307.0 127237.0 119823.0 120796.0 123651.0 161482.0 167707.0 135472.0 133781.0 36197.0 32729.0 81777.0 86607.0 224380.0 216183.0 165078.0 160825.0 193388.0 194756.0 92983.0 85051.0 74634.0 67174.0 79547.0 84155.0 153007.0 158755.0 47107.0 54297.0 190517.0 182350.0 8186.0 0.0 110671.0 108389.0 70516.0 77531.0 131630.0 128832.0 168234.0 170065.0 167484.0 161417.0 223361.0 221893.0 118974.0 73098.0 118974.0 118974.0 118974.0 118974.0 73098.0 73098.0 73098.0 73098.0
23743.0 15610.0 168539.0 166542.0 293207.0 293416.0 54205.0 58167.0 119249.0 118301.0 20956.0 19599.0 334388.0 327140.0 39247.0 31946.0 126522.0 118113.0 175701.0 169627.0 59467.0 57447.0 123150.0 121307.0 100692.0 101108.0 120389.0 126410.0 54425.0 57625.0 214651.0 210118.0 64256.0 72112.0 288065.0 283911.0 35870.0 35541.0 139306.0 147006.0 267978.0 273373.0 115485.0 120694.0 139408.0 138133.0 47900.0 39985.0 326732.0 318760.0 54450.0 50285.0 246096.0 243824.0 50880.0 50930.0 54043.0 55393.0 189936.0 194806.0 251387.0 255872.0 66468.0 62144.0 286863.0 278696.0 102976.0 110671.0 0.0 8344.0 164620.0 172613.0 29951.0 33059.0 225570.0 223348.0 273941.0 268653.0 320192.0 318251.0 53939.0 164492.0 53939.0 53939.0 53939.0 53939.0 164492.0 164492.0 164492.0 164492.0
31510.0 23577.0 173218.0 171534.0 288295.0 288504.0 56388.0 59316.0 126273.0 125602.0 12705.0 11791.0 329390.0 322214.0 41999.0 35624.0 125754.0 117337.0 173797.0 168007.0 66916.0 65312.0 129388.0 127187.0 109030.0 109398.0 120413.0 126016.0 60509.0 64378.0 211116.0 206825.0 68372.0 76137.0 283153.0 278990.0 44211.0 43742.0 144641.0 152200.0 263890.0 269121.0 122461.0 127418.0 135674.0 134655.0 51886.0 44309.0 321865.0 313938.0 57930.0 52789.0 250555.0 248503.0 56473.0 55526.0 57263.0 57467.0 187163.0 192296.0 246475.0 250960.0 65964.0 62546.0 281951.0 273784.0 100504.0 108389.0 8344.0 0.0 159709.0 167701.0 26362.0 27718.0 229582.0 227614.0 269832.0 264711.0 315280.0 313339.0 45598.0 159580.0 45598.0 45598.0 45598.0 45598.0 159580.0 159580.0 159580.0 159580.0
185951.0 178139.0 191768.0 196841.0 128674.0 128981.0 134764.0 126769.0 209248.0 214740.0 155235.0 149501.0 169769.0 162536.0 143163.0 149605.0 84213.0 85801.0 68158.0 71795.0 220238.0 215565.0 195803.0 188134.0 237358.0 232923.0 96579.0 89830.0 218777.0 220912.0 62146.0 62063.0 228058.0 235786.0 123475.0 119291.0 189216.0 182781.0 187699.0 189294.0 106678.0 110953.0 205868.0 203898.0 35019.0 39419.0 147932.0 151117.0 162168.0 154244.0 217421.0 211605.0 241626.0 244800.0 160129.0 152054.0 141677.0 133664.0 57329.0 65403.0 86809.0 91394.0 112321.0 120263.0 122474.0 114307.0 73724.0 70516.0 164620.0 159709.0 0.0 7995.0 177522.0 172664.0 216227.0 220096.0 112405.0 108441.0 155801.0 153863.0 158600.0 7151.0 158600.0 158600.0 158600.0 158600.0 7151.0 7151.0 7151.0 7151.0
193940.0 186131.0 196503.0 201775.0 120714.0 121080.0 142455.0 134458.0 215961.0 221565.0 163227.0 157493.0 161775.0 154548.0 151016.0 157503.0 89776.0 91875.0 69096.0 73559.0 228202.0 223504.0 202198.0 194468.0 244926.0 240415.0 102370.0 95329.0 226771.0 228899.0 56622.0 57363.0 236050.0 243778.0 115486.0 111298.0 197149.0 190683.0 193451.0 194806.0 99180.0 103290.0 212626.0 210488.0 41585.0 45732.0 155656.0 158931.0 154187.0 146271.0 225413.0 219597.0 244402.0 247801.0 167800.0 159725.0 149331.0 141343.0 55609.0 63584.0 78827.0 83470.0 120020.0 127944.0 114611.0 106444.0 81083.0 77531.0 172613.0 167701.0 7995.0 0.0 185513.0 180656.0 219090.0 223203.0 104859.0 101088.0 147938.0 145999.0 166591.0 11757.0 166591.0 166591.0 166591.0 166591.0 11757.0 11757.0 11757.0 11757.0
40750.0 36449.0 198489.0 196465.0 306107.0 306316.0 82742.0 85590.0 147227.0 145596.0 23163.0 30581.0 347281.0 340057.0 68233.0 61479.0 150672.0 142282.0 197191.0 191808.0 68600.0 70131.0 152365.0 150856.0 120426.0 122424.0 145998.0 151266.0 55819.0 62391.0 231501.0 227726.0 55327.0 62179.0 300965.0 296803.0 57462.0 60482.0 169143.0 176886.0 282812.0 287619.0 143586.0 149247.0 156116.0 155629.0 77639.0 69819.0 339686.0 331751.0 43917.0 36469.0 276038.0 273774.0 80736.0 80848.0 83398.0 83827.0 209128.0 214690.0 264287.0 268773.0 91461.0 88571.0 299763.0 291596.0 123552.0 131630.0 29951.0 26362.0 177522.0 185513.0 0.0 7611.0 255415.0 253260.0 288684.0 283984.0 333092.0 331152.0 45843.0 177392.0 45843.0 45843.0 45843.0 45843.0 177392.0 177392.0 177392.0 177392.0
47041.0 41961.0 200924.0 199182.0 301250.0 301459.0 83541.0 85706.0 151860.0 150539.0 20893.0 28857.0 342423.0 335200.0 69524.0 63339.0 148867.0 140523.0 194292.0 189150.0 76046.0 77360.0 156200.0 154347.0 127123.0 128879.0 144814.0 149739.0 63430.0 69971.0 227217.0 223641.0 62510.0 69185.0 296108.0 291945.0 63468.0 65845.0 172156.0 179777.0 277978.0 282766.0 148153.0 153563.0 152016.0 151729.0 79603.0 72012.0 334828.0 326894.0 51110.0 43460.0 278273.0 276214.0 83793.0 83207.0 84849.0 84547.0 205509.0 211256.0 259430.0 263915.0 90419.0 88168.0 294906.0 286739.0 120693.0 128832.0 33059.0 27718.0 172664.0 180656.0 7611.0 0.0 257246.0 255320.0 283822.0 279260.0 328235.0 326294.0 38771.0 172534.0 38771.0 38771.0 38771.0 38771.0 172534.0 172534.0 172534.0 172534.0
225596.0 224349.0 59648.0 64648.0 294950.0 300024.0 174405.0 174023.0 133436.0 140521.0 238053.0 230449.0 315202.0 307483.0 187772.0 194005.0 141837.0 145856.0 152154.0 146171.0 234010.0 225906.0 116675.0 113531.0 195789.0 187674.0 134776.0 136792.0 248098.0 242796.0 199675.0 191841.0 268280.0 274414.0 286709.0 278939.0 212165.0 204757.0 92305.0 84076.0 241850.0 249890.0 134643.0 126457.0 187316.0 182637.0 177789.0 185604.0 305284.0 297994.0 264790.0 265678.0 25501.0 28965.0 175867.0 174672.0 172426.0 173565.0 173423.0 168290.0 262741.0 270654.0 175212.0 173768.0 302363.0 294295.0 173097.0 168234.0 225570.0 229582.0 216227.0 219090.0 255415.0 257246.0 0.0 8242.0 246101.0 238045.0 323832.0 326304.0 262112.0 222342.0 262112.0 262112.0 262112.0 262112.0 222342.0 222342.0 222342.0 222342.0
222547.0 221580.0 55811.0 60035.0 301337.0 306314.0 172953.0 172946.0 128083.0 134995.0 236407.0 228894.0 322198.0 314449.0 185991.0 191993.0 144067.0 147672.0 156957.0 150713.0 229826.0 221739.0 111900.0 109215.0 190251.0 182153.0 136386.0 138882.0 244250.0 238762.0 205448.0 197569.0 264529.0 270528.0 293119.0 285382.0 208765.0 201500.0 88110.0 79848.0 248500.0 256548.0 129473.0 121302.0 190480.0 185762.0 175739.0 183459.0 312277.0 304932.0 261344.0 262466.0 23734.0 24880.0 173251.0 172418.0 170647.0 172164.0 178654.0 173749.0 268605.0 276493.0 174812.0 172999.0 308365.0 300263.0 174613.0 170065.0 223348.0 227614.0 220096.0 223203.0 253260.0 255320.0 8242.0 0.0 252833.0 244771.0 330333.0 332687.0 261115.0 226086.0 261115.0 261115.0 261115.0 261115.0 226086.0 226086.0 226086.0 226086.0
293735.0 286341.0 248656.0 255897.0 52203.0 58849.0 235889.0 228136.0 292091.0 299039.0 266234.0 260183.0 71127.0 63125.0 247148.0 254528.0 165203.0 171423.0 115168.0 123593.0 326272.0 320687.0 274715.0 266629.0 333441.0 327663.0 177603.0 169124.0 327087.0 328269.0 61891.0 68544.0 338077.0 345893.0 44034.0 36180.0 294447.0 287195.0 258328.0 256595.0 6004.0 5370.0 289524.0 285181.0 134732.0 136503.0 249197.0 254068.0 61399.0 53428.0 327761.0 322301.0 267939.0 273914.0 260046.0 252244.0 241905.0 234611.0 92381.0 91854.0 45194.0 50118.0 214454.0 221775.0 67941.0 62160.0 173868.0 167484.0 273941.0 269832.0 112405.0 104859.0 288684.0 283822.0 246101.0 252833.0 0.0 8065.0 78765.0 82508.0 269783.0 116178.0 269783.0 269783.0 269783.0 269783.0 116178.0 116178.0 116178.0 116178.0
288164.0 280845.0 240748.0 248012.0 59589.0 66024.0 229740.0 222033.0 284762.0 291754.0 261405.0 255227.0 79010.0 71022.0 241222.0 248678.0 158336.0 164704.0 107846.0 116256.0 320418.0 314733.0 267278.0 259196.0 326701.0 320848.0 170633.0 162152.0 321552.0 322588.0 55362.0 61675.0 332856.0 340687.0 51331.0 43397.0 288547.0 281219.0 250680.0 248870.0 5370.0 12310.0 282231.0 277807.0 129278.0 130851.0 243017.0 248023.0 69235.0 61327.0 322633.0 317293.0 259915.0 265874.0 253728.0 245968.0 235664.0 228451.0 85358.0 84499.0 47802.0 53622.0 208470.0 215709.0 74217.0 67989.0 167962.0 161417.0 268653.0 264711.0 108441.0 101088.0 283984.0 279260.0 238045.0 244771.0 8065.0 0.0 86631.0 90198.0 265195.0 112592.0 265195.0 265195.0 265195.0 265195.0 112592.0 112592.0 112592.0 112592.0
341557.0 333733.0 321983.0 328830.0 29764.0 27124.0 290151.0 282155.0 357670.0 364036.0 310805.0 305071.0 34804.0 35142.0 298954.0 305394.0 228326.0 232984.0 184121.0 192371.0 375909.0 371221.0 341714.0 333670.0 392011.0 387123.0 241323.0 233102.0 374359.0 376523.0 129139.0 137038.0 383628.0 391357.0 37573.0 45060.0 344912.0 338563.0 328029.0 327300.0 82346.0 74423.0 354707.0 351350.0 187394.0 190634.0 303420.0 306852.0 37772.0 38521.0 372991.0 367176.0 346150.0 351943.0 315403.0 307342.0 296908.0 289005.0 160087.0 162068.0 70449.0 64675.0 267763.0 275633.0 36574.0 42924.0 228025.0 223361.0 320192.0 315280.0 155801.0 147938.0 333092.0 328235.0 323832.0 330333.0 78765.0 86631.0 0.0 7961.0 314170.0 157477.0 314170.0 314170.0 314170.0 314170.0 157477.0 157477.0 157477.0 157477.0
339617.0 331793.0 323027.0 329770.0 31355.0 26905.0 288294.0 280295.0 357141.0 363401.0 308865.0 303131.0 42765.0 42934.0 297014.0 303461.0 227796.0 232211.0 184743.0 192912.0 373969.0 369337.0 341454.0 333433.0 390374.0 385617.0 240822.0 232675.0 372419.0 374583.0 130072.0 138031.0 381688.0 389416.0 39616.0 47469.0 343013.0 336634.0 328286.0 327758.0 85659.0 77899.0 354119.0 350932.0 185796.0 189179.0 301543.0 304922.0 45511.0 45743.0 371051.0 365236.0 348893.0 354564.0 313580.0 305513.0 295089.0 287158.0 160702.0 163065.0 69625.0 63242.0 265887.0 273774.0 32798.0 40042.0 226321.0 221893.0 318251.0 313339.0 153863.0 145999.0 331152.0 326294.0 326304.0 332687.0 82508.0 90198.0 7961.0 0.0 312230.0 155537.0 312230.0 312230.0 312230.0 312230.0 155537.0 155537.0 155537.0 155537.0
76270.0 68795.0 208797.0 208225.0 287186.0 287395.0 88814.0 88170.0 169876.0 169977.0 33292.0 35337.0 328359.0 321135.0 78028.0 74759.0 141771.0 133739.0 183483.0 179018.0 110171.0 109736.0 170653.0 167380.0 154576.0 154719.0 139943.0 143565.0 100102.0 105724.0 213451.0 210164.0 101167.0 107939.0 282043.0 277881.0 89809.0 88942.0 182844.0 189830.0 263929.0 268701.0 165956.0 170149.0 138719.0 138832.0 89706.0 83699.0 320764.0 312829.0 89757.0 82210.0 284593.0 283373.0 97835.0 94554.0 92538.0 89435.0 192960.0 199086.0 245365.0 249851.0 88120.0 88461.0 280842.0 272674.0 110802.0 118974.0 53939.0 45598.0 158600.0 166591.0 45843.0 38771.0 262112.0 261115.0 269783.0 265195.0 314170.0 312230.0 0.0 158470.0 0.0 0.0 0.0 0.0 158470.0 158470.0 158470.0 158470.0
185857.0 178033.0 196710.0 201614.0 129679.0 129575.0 135524.0 127556.0 212006.0 217317.0 155105.0 149371.0 171494.0 164411.0 143376.0 149722.0 88619.0 89649.0 75084.0 78498.0 220209.0 215591.0 199028.0 191448.0 238386.0 234156.0 100704.0 94275.0 218659.0 220823.0 68145.0 68493.0 227928.0 235656.0 124850.0 121060.0 189257.0 182886.0 191700.0 193544.0 110557.0 114448.0 208560.0 206844.0 38758.0 43398.0 148561.0 151405.0 164164.0 156343.0 217291.0 211476.0 247775.0 250835.0 160920.0 152851.0 142547.0 134468.0 64459.0 72531.0 88159.0 92214.0 113104.0 121085.0 124149.0 115982.0 75595.0 73098.0 164492.0 159580.0 7151.0 11757.0 177392.0 172534.0 222342.0 226086.0 116178.0 112592.0 157477.0 155537.0 158470.0 0.0 158470.0 158470.0 158470.0 158470.0 0.0 0.0 0.0 0.0
76270.0 68795.0 208797.0 208225.0 287186.0 287395.0 88814.0 88170.0 169876.0 169977.0 33292.0 35337.0 328359.0 321135.0 78028.0 74759.0 141771.0 133739.0 183483.0 179018.0 110171.0 109736.0 170653.0 167380.0 154576.0 154719.0 139943.0 143565.0 100102.0 105724.0 213451.0 210164.0 101167.0 107939.0 282043.0 277881.0 89809.0 88942.0 182844.0 189830.0 263929.0 268701.0 165956.0 170149.0 138719.0 138832.0 89706.0 83699.0 320764.0 312829.0 89757.0 82210.0 284593.0 283373.0 97835.0 94554.0 92538.0 89435.0 192960.0 199086.0 245365.0 249851.0 88120.0 88461.0 280842.0 272674.0 110802.0 118974.0 53939.0 45598.0 158600.0 166591.0 45843.0 38771.0 262112.0 261115.0 269783.0 265195.0 314170.0 312230.0 0.0 158470.0 0.0 0.0 0.0 0.0 158470.0 158470.0 158470.0 158470.0
76270.0 68795.0 208797.0 208225.0 287186.0 287395.0 88814.0 88170.0 169876.0 169977.0 33292.0 35337.0 328359.0 321135.0 78028.0 74759.0 141771.0 133739.0 183483.0 179018.0 110171.0 109736.0 170653.0 167380.0 154576.0 154719.0 139943.0 143565.0 100102.0 105724.0 213451.0 210164.0 101167.0 107939.0 282043.0 277881.0 89809.0 88942.0 182844.0 189830.0 263929.0 268701.0 165956.0 170149.0 138719.0 138832.0 89706.0 83699.0 320764.0 312829.0 89757.0 82210.0 284593.0 283373.0 97835.0 94554.0 92538.0 89435.0 192960.0 199086.0 245365.0 249851.0 88120.0 88461.0 280842.0 272674.0 110802.0 118974.0 53939.0 45598.0 158600.0 166591.0 45843.0 38771.0 262112.0 261115.0 269783.0 265195.0 314170.0 312230.0 0.0 158470.0 0.0 0.0 0.0 0.0 158470.0 158470.0 158470.0 158470.0
76270.0 68795.0 208797.0 208225.0 287186.0 287395.0 88814.0 88170.0 169876.0 169977.0 33292.0 35337.0 328359.0 321135.0 78028.0 74759.0 141771.0 133739.0 183483.0 179018.0 110171.0 109736.0 170653.0 167380.0 154576.0 154719.0 139943.0 143565.0 100102.0 105724.0 213451.0 210164.0 101167.0 107939.0 282043.0 277881.0 89809.0 88942.0 182844.0 189830.0 263929.0 268701.0 165956.0 170149.0 138719.0 138832.0 89706.0 83699.0 320764.0 312829.0 89757.0 82210.0 284593.0 283373.0 97835.0 94554.0 92538.0 89435.0 192960.0 199086.0 245365.0 249851.0 88120.0 88461.0 280842.0 272674.0 110802.0 118974.0 53939.0 45598.0 158600.0 166591.0 45843.0 38771.0 262112.0 261115.0 269783.0 265195.0 314170.0 312230.0 0.0 158470.0 0.0 0.0 0.0 0.0 158470.0 158470.0 158470.0 158470.0
76270.0 68795.0 208797.0 208225.0 287186.0 287395.0 88814.0 88170.0 169876.0 169977.0 33292.0 35337.0 328359.0 321135.0 78028.0 74759.0 141771.0 133739.0 183483.0 179018.0 110171.0 109736.0 170653.0 167380.0 154576.0 154719.0 139943.0 143565.0 100102.0 105724.0 213451.0 210164.0 101167.0 107939.0 282043.0 277881.0 89809.0 88942.0 182844.0 189830.0 263929.0 268701.0 165956.0 170149.0 138719.0 138832.0 89706.0 83699.0 320764.0 312829.0 89757.0 82210.0 284593.0 283373.0 97835.0 94554.0 92538.0 89435.0 192960.0 199086.0 245365.0 249851.0 88120.0 88461.0 280842.0 272674.0 110802.0 118974.0 53939.0 45598.0 158600.0 166591.0 45843.0 38771.0 262112.0 261115.0 269783.0 265195.0 314170.0 312230.0 0.0 158470.0 0.0 0.0 0.0 0.0 158470.0 158470.0 158470.0 158470.0
185857.0 178033.0 196710.0 201614.0 129679.0 129575.0 135524.0 127556.0 212006.0 217317.0 155105.0 149371.0 171494.0 164411.0 143376.0 149722.0 88619.0 89649.0 75084.0 78498.0 220209.0 215591.0 199028.0 191448.0 238386.0 234156.0 100704.0 94275.0 218659.0 220823.0 68145.0 68493.0 227928.0 235656.0 124850.0 121060.0 189257.0 182886.0 191700.0 193544.0 110557.0 114448.0 208560.0 206844.0 38758.0 43398.0 148561.0 151405.0 164164.0 156343.0 217291.0 211476.0 247775.0 250835.0 160920.0 152851.0 142547.0 134468.0 64459.0 72531.0 88159.0 92214.0 113104.0 121085.0 124149.0 115982.0 75595.0 73098.0 164492.0 159580.0 7151.0 11757.0 177392.0 172534.0 222342.0 226086.0 116178.0 112592.0 157477.0 155537.0 158470.0 0.0 158470.0 158470.0 158470.0 158470.0 0.0 0.0 0.0 0.0
185857.0 178033.0 196710.0 201614.0 129679.0 129575.0 135524.0 127556.0 212006.0 217317.0 155105.0 149371.0 171494.0 164411.0 143376.0 149722.0 88619.0 89649.0 75084.0 78498.0 220209.0 215591.0 199028.0 191448.0 238386.0 234156.0 100704.0 94275.0 218659.0 220823.0 68145.0 68493.0 227928.0 235656.0 124850.0 121060.0 189257.0 182886.0 191700.0 193544.0 110557.0 114448.0 208560.0 206844.0 38758.0 43398.0 148561.0 151405.0 164164.0 156343.0 217291.0 211476.0 247775.0 250835.0 160920.0 152851.0 142547.0 134468.0 64459.0 72531.0 88159.0 92214.0 113104.0 121085.0 124149.0 115982.0 75595.0 73098.0 164492.0 159580.0 7151.0 11757.0 177392.0 172534.0 222342.0 226086.0 116178.0 112592.0 157477.0 155537.0 158470.0 0.0 158470.0 158470.0 158470.0 158470.0 0.0 0.0 0.0 0.0
185857.0 178033.0 196710.0 201614.0 129679.0 129575.0 135524.0 127556.0 212006.0 217317.0 155105.0 149371.0 171494.0 164411.0 143376.0 149722.0 88619.0 89649.0 75084.0 78498.0 220209.0 215591.0 199028.0 191448.0 238386.0 234156.0 100704.0 94275.0 218659.0 220823.0 68145.0 68493.0 227928.0 235656.0 124850.0 121060.0 189257.0 182886.0 191700.0 193544.0 110557.0 114448.0 208560.0 206844.0 38758.0 43398.0 148561.0 151405.0 164164.0 156343.0 217291.0 211476.0 247775.0 250835.0 160920.0 152851.0 142547.0 134468.0 64459.0 72531.0 88159.0 92214.0 113104.0 121085.0 124149.0 115982.0 75595.0 73098.0 164492.0 159580.0 7151.0 11757.0 177392.0 172534.0 222342.0 226086.0 116178.0 112592.0 157477.0 155537.0 158470.0 0.0 158470.0 158470.0 158470.0 158470.0 0.0 0.0 0.0 0.0
185857.0 178033.0 196710.0 201614.0 129679.0 129575.0 135524.0 127556.0 212006.0 217317.0 155105.0 149371.0 171494.0 164411.0 143376.0 149722.0 88619.0 89649.0 75084.0 78498.0 220209.0 215591.0 199028.0 191448.0 238386.0 234156.0 100704.0 94275.0 218659.0 220823.0 68145.0 68493.0 227928.0 235656.0 124850.0 121060.0 189257.0 182886.0 191700.0 193544.0 110557.0 114448.0 208560.0 206844.0 38758.0 43398.0 148561.0 151405.0 164164.0 156343.0 217291.0 211476.0 247775.0 250835.0 160920.0 152851.0 142547.0 134468.0 64459.0 72531.0 88159.0 92214.0 113104.0 121085.0 124149.0 115982.0 75595.0 73098.0 164492.0 159580.0 7151.0 11757.0 177392.0 172534.0 222342.0 226086.0 116178.0 112592.0 157477.0 155537.0 158470.0 0.0 158470.0 158470.0 158470.0 158470.0 0.0 0.0 0.0 0.0
FIXED_EDGES_SECTION
1 2
3 4
5 6
7 8
9 10
11 12
13 14
15 16
17 18
19 20
21 22
23 24
25 26
27 28
29 30
31 32
33 34
35 36
37 38
39 40
41 42
43 44
45 46
47 48
49 50
51 52
53 54
55 56
57 58
59 60
61 62
63 64
65 66
67 68
69 70
71 72
73 74
75 76
77 78
79 80
-1 
DEMAND_SECTION
1 493
2 493
3 157
4 157
5 60
6 60
7 277
8 277
9 224
10 224
11 485
12 485
13 229
14 229
15 394
16 394
17 223
18 223
19 68
20 68
21 265
22 265
23 479
24 479
25 497
26 497
27 421
28 421
29 500
30 500
31 319
32 319
33 316
34 316
35 322
36 322
37 57
38 57
39 74
40 74
41 350
42 350
43 211
44 211
45 399
46 399
47 207
48 207
49 421
50 421
51 216
52 216
53 120
54 120
55 293
56 293
57 171
58 171
59 84
60 84
61 184
62 184
63 56
64 56
65 224
66 224
67 324
68 324
69 100
70 100
71 37
72 37
73 341
74 341
75 234
76 234
77 268
78 268
79 71
80 71
81 0
82 0
83 0
84 0
85 0
86 0
87 0
88 0
89 0
90 0
DEPOT_SECTION
81 
-1 
CAPACITIES_SECTION
5000 
5500 
6000 
-1 
EOF