NAME: GFS_20_1
TYPE: GFSP
DIMENSION: 170
VEHICLES: 4
CAPACITY: 10000.0
TRIP_DIST_LIMIT: 1050000.0
TOTAL_DIST_LIMIT: 1050000.0
EDGE_WEIGHT_TYPE: EXPLICIT
EDGE_WEIGHT_FORMAT: FULL_MATRIX
EDGE_WEIGHT_SECTION
0.0 8555.0 36609.0 28533.0 56141.0 48418.0 18400.0 17838.0 278861.0 277010.0 218783.0 224995.0 76756.0 70743.0 78626.0 85031.0 69424.0 67020.0 95163.0 101784.0 55231.0 62710.0 72889.0 80767.0 162910.0 158267.0 106095.0 105676.0 50408.0 45245.0 40415.0 37256.0 38685.0 35438.0 27406.0 20049.0 35949.0 40756.0 36352.0 35595.0 102329.0 96244.0 114049.0 110035.0 58369.0 52594.0 87583.0 87455.0 88000.0 81023.0 99931.0 100011.0 60599.0 61406.0 90490.0 93948.0 173264.0 172342.0 112875.0 109992.0 33214.0 26231.0 121150.0 128910.0 83276.0 84011.0 270738.0 277591.0 97782.0 103915.0 94831.0 96728.0 174932.0 180492.0 100238.0 94310.0 114985.0 115532.0 94372.0 90310.0 70389.0 62739.0 39187.0 46820.0 250906.0 251845.0 77889.0 71344.0 73253.0 72910.0 208883.0 214200.0 216001.0 209674.0 253453.0 261115.0 72953.0 77963.0 133458.0 130675.0 97617.0 100819.0 104225.0 110743.0 28204.0 32309.0 44964.0 45498.0 73784.0 67740.0 91862.0 89164.0 64263.0 57301.0 101268.0 101533.0 291756.0 290050.0 11271.0 3279.0 85432.0 79617.0 112185.0 110648.0 83455.0 75343.0 18189.0 10149.0 46797.0 53965.0 180633.0 180658.0 245007.0 239906.0 163443.0 157856.0 90357.0 93228.0 123521.0 131195.0 34696.0 35229.0 191952.0 193095.0 281392.0 273215.0 91510.0 86176.0 203042.0 204550.0 93687.0 94952.0 11298.0 3353.0 107907.0 100332.0 51301.0 57302.0 35122.0 39729.0 88850.0 124359.0 88850.0 88850.0 88850.0 88850.0 124359.0 124359.0 124359.0 124359.0
8555.0 0.0 34458.0 26678.0 59933.0 51869.0 12612.0 15754.0 281549.0 279832.0 219604.0 226007.0 68389.0 62269.0 71247.0 77920.0 65962.0 62711.0 87022.0 93789.0 51326.0 58349.0 67722.0 75766.0 154439.0 149854.0 108521.0 107465.0 44278.0 38407.0 42399.0 40787.0 31033.0 27121.0 27609.0 19625.0 27908.0 33369.0 35783.0 36902.0 103357.0 96835.0 110563.0 106065.0 55603.0 50829.0 93923.0 94253.0 85589.0 78263.0 106597.0 106226.0 65963.0 67584.0 93725.0 96551.0 165209.0 164157.0 116770.0 114399.0 27684.0 21913.0 124515.0 132179.0 89629.0 89807.0 273574.0 280427.0 89254.0 95362.0 101939.0 104184.0 178362.0 183657.0 91771.0 85787.0 121052.0 122004.0 99517.0 94962.0 71658.0 63659.0 32657.0 40643.0 253294.0 254472.0 76251.0 69266.0 65211.0 65269.0 211338.0 216880.0 217237.0 210718.0 255812.0 263393.0 79469.0 84025.0 125069.0 122407.0 90374.0 93938.0 107774.0 113923.0 19890.0 24737.0 37756.0 39350.0 72381.0 65745.0 94175.0 91130.0 59634.0 52121.0 104546.0 104190.0 294405.0 292480.0 16993.0 10482.0 86879.0 80487.0 103689.0 102247.0 88176.0 80196.0 16529.0 10915.0 50493.0 57675.0 182774.0 182419.0 247203.0 241897.0 163949.0 158065.0 89707.0 91880.0 126864.0 134387.0 26479.0 26675.0 183435.0 184552.0 282969.0 274767.0 83489.0 77964.0 205744.0 206921.0 86487.0 87367.0 12245.0 8819.0 99527.0 92001.0 53526.0 58615.0 31185.0 37098.0 96959.0 128140.0 96959.0 96959.0 96959.0 96959.0 128140.0 128140.0 128140.0 128140.0
36609.0 34458.0 0.0 8076.0 38938.0 31374.0 23219.0 19016.0 315403.0 313580.0 254056.0 260465.0 64906.0 62188.0 55825.0 59831.0 97681.0 93134.0 99509.0 107446.0 82834.0 88832.0 39985.0 47032.0 158525.0 155498.0 79159.0 76635.0 71538.0 64016.0 76485.0 73845.0 54368.0 46644.0 62052.0 54076.0 31447.0 27827.0 70180.0 71201.0 71128.0 64004.0 77634.0 74024.0 88426.0 84585.0 80736.0 83793.0 118341.0 110693.0 94463.0 91512.0 50880.0 56473.0 127091.0 130416.0 175867.0 173251.0 91506.0 91053.0 15479.0 14063.0 97337.0 104544.0 76872.0 74030.0 307308.0 314161.0 88426.0 96150.0 92975.0 97654.0 211534.0 217098.0 98495.0 91005.0 104796.0 107931.0 79936.0 73562.0 40899.0 32592.0 60099.0 68124.0 287347.0 288368.0 41794.0 34895.0 57130.0 52863.0 245343.0 250733.0 251682.0 245175.0 289882.0 297510.0 68676.0 70174.0 118151.0 113376.0 72395.0 73310.0 140828.0 147344.0 42258.0 50000.0 28546.0 22077.0 37951.0 31337.0 128214.0 125335.0 89555.0 81236.0 77714.0 75563.0 328289.0 326511.0 47830.0 39869.0 55853.0 48486.0 100589.0 96628.0 67548.0 60847.0 18495.0 26468.0 83405.0 90572.0 216947.0 216747.0 281361.0 276150.0 198370.0 192423.0 123829.0 125569.0 160129.0 167800.0 47232.0 41117.0 185330.0 184935.0 317363.0 309166.0 73200.0 70725.0 239579.0 240976.0 68426.0 72326.0 25396.0 33373.0 93611.0 85608.0 87541.0 92983.0 8031.0 3612.0 97835.0 160920.0 97835.0 97835.0 97835.0 97835.0 160920.0 160920.0 160920.0 160920.0
28533.0 26678.0 8076.0 0.0 40545.0 32430.0 16283.0 11034.0 307342.0 305513.0 246250.0 252621.0 66009.0 62387.0 59714.0 64484.0 90957.0 86745.0 97425.0 105166.0 76114.0 82408.0 46790.0 54169.0 158814.0 155408.0 84452.0 82503.0 65743.0 58466.0 68484.0 65773.0 49053.0 41770.0 54196.0 46241.0 28764.0 27229.0 62459.0 63254.0 77586.0 70733.0 85657.0 81929.0 81353.0 77190.0 80848.0 83207.0 111342.0 103786.0 94450.0 92178.0 50930.0 55526.0 119017.0 122367.0 174672.0 172418.0 95397.0 94310.0 14166.0 8721.0 101913.0 109306.0 76810.0 74785.0 299241.0 306094.0 89327.0 96767.0 92111.0 96226.0 203459.0 209023.0 97745.0 90515.0 106012.0 108563.0 81908.0 76036.0 46520.0 38263.0 54093.0 62236.0 279308.0 280312.0 49685.0 42908.0 59170.0 55891.0 237299.0 242674.0 243795.0 237323.0 281845.0 289480.0 67932.0 70311.0 120776.0 116458.0 77206.0 78769.0 132752.0 139270.0 36590.0 44166.0 29200.0 24650.0 45742.0 39330.0 120185.0 117337.0 83278.0 75106.0 82063.0 80559.0 320230.0 318468.0 39756.0 31793.0 61711.0 54754.0 102171.0 98763.0 69696.0 62476.0 10452.0 18392.0 75329.0 82496.0 208931.0 208776.0 273340.0 268151.0 190621.0 184741.0 116296.0 118236.0 152054.0 159725.0 42146.0 36923.0 186228.0 186182.0 309421.0 301228.0 76144.0 72878.0 231519.0 232939.0 73206.0 76420.0 17331.0 25299.0 95783.0 87796.0 79521.0 85051.0 9617.0 11317.0 94554.0 152851.0 94554.0 94554.0 94554.0 94554.0 152851.0 152851.0 152851.0 152851.0
56141.0 59933.0 38938.0 40545.0 0.0 8263.0 54637.0 46846.0 324284.0 322344.0 270062.0 275757.0 103472.0 101084.0 91445.0 93695.0 125461.0 122599.0 137884.0 145675.0 111049.0 118243.0 68309.0 72404.0 197275.0 194375.0 51159.0 52363.0 103655.0 97010.0 93348.0 87738.0 88172.0 81545.0 82928.0 76071.0 69241.0 66647.0 92019.0 89754.0 51885.0 48256.0 87588.0 87581.0 114509.0 108588.0 42481.0 46580.0 144080.0 137161.0 56205.0 52699.0 14198.0 22113.0 137358.0 142558.0 214723.0 212178.0 56858.0 54618.0 53816.0 49219.0 65030.0 72816.0 38925.0 35239.0 316072.0 322925.0 126993.0 134840.0 56080.0 61878.0 219450.0 225307.0 137417.0 129943.0 65863.0 69097.0 41364.0 35664.0 23734.0 21804.0 91860.0 100032.0 297295.0 297509.0 46883.0 45763.0 95117.0 89888.0 255461.0 259914.0 266243.0 260461.0 299920.0 307806.0 32420.0 32081.0 154779.0 149293.0 105322.0 104215.0 149369.0 156912.0 75577.0 82607.0 67471.0 60561.0 42730.0 43259.0 141342.0 139607.0 119565.0 112000.0 45216.0 46229.0 337211.0 335990.0 63998.0 58303.0 34771.0 32765.0 138598.0 134088.0 29186.0 21990.0 45806.0 49023.0 95695.0 102041.0 228606.0 229778.0 292110.0 287732.0 215833.0 210872.0 145249.0 148747.0 168653.0 176633.0 81700.0 77233.0 223693.0 223002.0 330239.0 322186.0 109888.0 108423.0 248815.0 251469.0 101596.0 106992.0 47708.0 53237.0 131052.0 123106.0 103033.0 110289.0 46847.0 40636.0 67138.0 168584.0 67138.0 67138.0 67138.0 67138.0 168584.0 168584.0 168584.0 168584.0
48418.0 51869.0 31374.0 32430.0 8263.0 0.0 46374.0 38590.0 319066.0 317126.0 263856.0 269668.0 96213.0 93549.0 85226.0 87959.0 117570.0 114573.0 129841.0 137596.0 103088.0 110213.0 63515.0 68311.0 189897.0 186858.0 58012.0 58451.0 95452.0 88770.0 86434.0 81148.0 79913.0 73286.0 75463.0 68432.0 61178.0 58858.0 84533.0 82605.0 56844.0 52287.0 87049.0 86277.0 106733.0 100983.0 49403.0 52809.0 136417.0 129413.0 63145.0 60166.0 19750.0 26378.0 131703.0 136636.0 206871.0 204427.0 64910.0 62844.0 45921.0 41067.0 72786.0 80519.0 45608.0 42689.0 310854.0 317707.0 119743.0 127507.0 62164.0 67413.0 214279.0 220135.0 129669.0 122261.0 73686.0 76587.0 49518.0 43924.0 26252.0 21648.0 83653.0 91832.0 292095.0 292319.0 45962.0 43489.0 88133.0 83240.0 250175.0 254794.0 260255.0 254353.0 294708.0 302559.0 37989.0 38857.0 148391.0 143139.0 99895.0 99285.0 144055.0 151463.0 67316.0 74362.0 59898.0 53288.0 41556.0 40549.0 135264.0 133352.0 111497.0 103874.0 52867.0 53280.0 331939.0 330910.0 56760.0 50720.0 39504.0 35905.0 131649.0 127368.0 37413.0 30049.0 37551.0 40954.0 89417.0 95946.0 223019.0 223974.0 286769.0 282248.0 209335.0 204227.0 138064.0 141368.0 163424.0 171381.0 73438.0 69012.0 216586.0 216055.0 324586.0 316503.0 103407.0 101577.0 243667.0 246115.0 96085.0 101109.0 39627.0 45425.0 124336.0 116358.0 96381.0 103453.0 39143.0 33387.0 69266.0 163413.0 69266.0 69266.0 69266.0 69266.0 163413.0 163413.0 163413.0 163413.0
18400.0 12612.0 23219.0 16283.0 54637.0 46374.0 0.0 7986.0 293964.0 292303.0 231274.0 237776.0 60629.0 55412.0 60450.0 66703.0 74692.0 70472.0 85566.0 92926.0 59845.0 66132.0 55164.0 63185.0 150327.0 146283.0 100549.0 98753.0 49731.0 42668.0 54851.0 53399.0 33574.0 27007.0 39735.0 31778.0 19520.0 22811.0 47404.0 49230.0 93857.0 86950.0 98071.0 93486.0 65233.0 61401.0 92376.0 93722.0 95182.0 87580.0 105620.0 104275.0 63060.0 66194.0 106297.0 109014.0 163637.0 161966.0 110701.0 109125.0 15137.0 9620.0 117641.0 125126.0 88170.0 87221.0 286037.0 292889.0 82809.0 89557.0 102072.0 105235.0 190936.0 196192.0 88060.0 81409.0 118662.0 120459.0 95612.0 90286.0 62762.0 54526.0 37997.0 46179.0 265627.0 266875.0 64694.0 57477.0 56022.0 54996.0 223701.0 229304.0 229123.0 222512.0 268135.0 275688.0 78528.0 82053.0 117147.0 113855.0 79333.0 82427.0 120371.0 126479.0 20970.0 28256.0 26800.0 27157.0 61013.0 54032.0 106570.0 103431.0 67028.0 58906.0 97712.0 96543.0 306807.0 304818.0 28952.0 21399.0 77971.0 71035.0 96718.0 94482.0 83708.0 76078.0 9017.0 11518.0 63105.0 70287.0 195049.0 194555.0 259475.0 254097.0 175491.0 169440.0 100711.0 102358.0 139437.0 146937.0 27083.0 23497.0 178685.0 179287.0 294987.0 286776.0 74135.0 69332.0 218176.0 219260.0 75387.0 76917.0 11794.0 16286.0 91638.0 83865.0 65984.0 70797.0 18826.0 25384.0 100394.0 140747.0 100394.0 100394.0 100394.0 100394.0 140747.0 140747.0 140747.0 140747.0
17838.0 15754.0 19016.0 11034.0 46846.0 38590.0 7986.0 0.0 296418.0 294555.0 235239.0 241598.0 66892.0 62134.0 64452.0 70131.0 80957.0 77156.0 93448.0 100853.0 66171.0 72795.0 55556.0 63296.0 157655.0 153749.0 93662.0 92230.0 57061.0 50216.0 57471.0 54930.0 41333.0 34962.0 43179.0 35237.0 26386.0 28049.0 51514.0 52221.0 87811.0 81178.0 96223.0 92205.0 70988.0 66504.0 84412.0 85836.0 101003.0 93556.0 97684.0 96293.0 55075.0 58263.0 108174.0 111416.0 171451.0 169691.0 103169.0 101414.0 17193.0 9326.0 110349.0 117900.0 80213.0 79235.0 288341.0 295194.0 89521.0 96483.0 94257.0 97560.0 192692.0 198190.0 95582.0 88793.0 110677.0 112486.0 87696.0 82457.0 56291.0 48182.0 45269.0 53467.0 268336.0 269376.0 60719.0 53908.0 61485.0 59600.0 226336.0 231746.0 232763.0 226298.0 270870.0 278495.0 70619.0 74076.0 123036.0 119382.0 82880.0 85314.0 121991.0 128424.0 28749.0 35795.0 31413.0 29691.0 56768.0 50341.0 109200.0 106323.0 73842.0 65902.0 90387.0 89514.0 309299.0 307503.0 29109.0 21117.0 71534.0 64933.0 103150.0 100534.0 75844.0 68167.0 1044.0 7961.0 64538.0 71722.0 197931.0 197750.0 262346.0 257138.0 179635.0 173790.0 105458.0 107566.0 141249.0 148888.0 34992.0 31434.0 185805.0 186240.0 298389.0 290195.0 79308.0 75032.0 220594.0 221965.0 78888.0 81132.0 7257.0 14765.0 97637.0 89765.0 68525.0 74017.0 17468.0 21973.0 93350.0 142168.0 93350.0 93350.0 93350.0 93350.0 142168.0 142168.0 142168.0 142168.0
278861.0 281549.0 315403.0 307342.0 324284.0 319066.0 293964.0 296418.0 0.0 7961.0 82346.0 74423.0 322942.0 315249.0 340046.0 348018.0 234575.0 242281.0 295270.0 292696.0 245908.0 244852.0 347363.0 355526.0 345738.0 337709.0 374359.0 376523.0 263076.0 269871.0 239150.0 241611.0 277444.0 284547.0 254306.0 262212.0 300912.0 308843.0 247377.0 244737.0 375909.0 371221.0 392011.0 387123.0 237423.0 237087.0 333092.0 328235.0 214654.0 222055.0 339510.0 344160.0 320192.0 315280.0 188473.0 185021.0 323832.0 330333.0 372991.0 367176.0 308412.0 303452.0 383628.0 391357.0 329663.0 335094.0 18761.0 13501.0 328029.0 327300.0 330391.0 327740.0 106350.0 99269.0 311682.0 313479.0 358191.0 354694.0 348535.0 348451.0 344912.0 338563.0 268983.0 264475.0 29764.0 27124.0 356646.0 350204.0 327552.0 332620.0 70449.0 64675.0 76763.0 84784.0 27746.0 22520.0 320526.0 328218.0 361937.0 365130.0 357670.0 364036.0 175242.0 168264.0 283243.0 277082.0 313257.0 318234.0 352443.0 346599.0 187394.0 190634.0 246127.0 253423.0 365923.0 369114.0 12954.0 14310.0 267763.0 275633.0 358510.0 354622.0 340209.0 344845.0 342239.0 334759.0 296908.0 289005.0 232167.0 225074.0 99663.0 101886.0 37573.0 45060.0 129139.0 137038.0 200227.0 202601.0 155801.0 147938.0 283052.0 290852.0 370377.0 376995.0 37772.0 38521.0 341714.0 333670.0 75824.0 75065.0 354707.0 351350.0 290151.0 282155.0 343854.0 340364.0 228025.0 223361.0 312725.0 318372.0 314170.0 157477.0 314170.0 314170.0 314170.0 314170.0 157477.0 157477.0 157477.0 157477.0
277010.0 279832.0 313580.0 305513.0 322344.0 317126.0 292303.0 294555.0 7961.0 0.0 85659.0 77899.0 322639.0 314910.0 339346.0 347304.0 234306.0 242063.0 295917.0 293555.0 245315.0 244518.0 346025.0 354192.0 347586.0 339561.0 372419.0 374583.0 262534.0 269206.0 237453.0 239754.0 276595.0 283577.0 252731.0 260599.0 299730.0 307627.0 245990.0 243113.0 373969.0 369337.0 390374.0 385617.0 236758.0 236140.0 331152.0 326294.0 214693.0 221979.0 337570.0 342220.0 318251.0 313339.0 186570.0 183289.0 326304.0 332687.0 371051.0 365236.0 306863.0 301745.0 381688.0 389416.0 327723.0 333154.0 11333.0 5638.0 328286.0 327758.0 328451.0 325800.0 104410.0 97329.0 312281.0 313880.0 356250.0 352754.0 346595.0 346511.0 343013.0 336634.0 268134.0 263831.0 31355.0 26905.0 354750.0 348348.0 327022.0 331933.0 69625.0 63242.0 79236.0 87184.0 29861.0 26510.0 318586.0 326278.0 362582.0 365604.0 357141.0 363401.0 173303.0 166344.0 282076.0 276051.0 312071.0 316877.0 350536.0 344738.0 185796.0 189179.0 245868.0 253017.0 363983.0 367174.0 17418.0 21292.0 265887.0 273774.0 356570.0 352721.0 340668.0 345154.0 340299.0 332819.0 295089.0 287158.0 230279.0 223172.0 98995.0 101843.0 39616.0 47469.0 130072.0 138031.0 199815.0 202486.0 153863.0 145999.0 282071.0 289818.0 372589.0 379109.0 45511.0 45743.0 341454.0 333433.0 74256.0 74383.0 354119.0 350932.0 288294.0 280295.0 344096.0 340440.0 226321.0 221893.0 311017.0 316525.0 312230.0 155537.0 312230.0 312230.0 312230.0 312230.0 155537.0 155537.0 155537.0 155537.0
218783.0 219604.0 254056.0 246250.0 270062.0 263856.0 231274.0 235239.0 82346.0 85659.0 0.0 8055.0 250721.0 243323.0 269950.0 277918.0 163687.0 170879.0 218559.0 215109.0 176805.0 174110.0 281330.0 289358.0 264813.0 256788.0 321101.0 322273.0 193228.0 200672.0 178444.0 182879.0 209292.0 217059.0 192060.0 200009.0 234564.0 242582.0 183906.0 183224.0 320269.0 314683.0 327508.0 321748.0 169036.0 170685.0 282812.0 277978.0 142423.0 150314.0 289269.0 293916.0 267978.0 263890.0 133677.0 127748.0 241850.0 248500.0 321820.0 316377.0 244556.0 240888.0 332124.0 339942.0 279326.0 284520.0 86327.0 89458.0 252834.0 251181.0 280150.0 277499.0 75191.0 67449.0 235054.0 237730.0 307950.0 304453.0 297859.0 297249.0 288443.0 281191.0 201022.0 195252.0 54816.0 61101.0 295842.0 288740.0 256592.0 262536.0 42740.0 48387.0 10953.0 10620.0 55915.0 59828.0 269992.0 277605.0 284801.0 288698.0 286368.0 293292.0 123909.0 115795.0 217154.0 210177.0 246713.0 252798.0 291983.0 285267.0 128746.0 130505.0 174891.0 182932.0 313649.0 316017.0 92301.0 86816.0 208450.0 215772.0 303020.0 297943.0 263993.0 269281.0 290808.0 283035.0 235910.0 228611.0 174442.0 168021.0 48826.0 43700.0 46516.0 38558.0 55953.0 62682.0 131460.0 131744.0 106678.0 99180.0 215676.0 223676.0 288722.0 295495.0 66796.0 58739.0 269056.0 260968.0 49819.0 41402.0 283781.0 279483.0 229889.0 222134.0 268607.0 265958.0 167864.0 161482.0 249977.0 256577.0 263929.0 110557.0 263929.0 263929.0 263929.0 263929.0 110557.0 110557.0 110557.0 110557.0
224995.0 226007.0 260465.0 252621.0 275757.0 269668.0 237776.0 241598.0 74423.0 77899.0 8055.0 0.0 258151.0 250721.0 277206.0 285182.0 170879.0 178137.0 226347.0 222962.0 183843.0 181308.0 288225.0 296274.0 272862.0 264837.0 326720.0 328035.0 200371.0 207764.0 184605.0 188844.0 216295.0 224009.0 198427.0 206393.0 241431.0 249452.0 190378.0 189487.0 326201.0 320715.0 334305.0 328620.0 175983.0 177428.0 287619.0 282766.0 149706.0 157564.0 294041.0 298691.0 273373.0 269121.0 138937.0 133255.0 249890.0 256548.0 327037.0 321477.0 251196.0 247394.0 337429.0 345230.0 284191.0 289522.0 78936.0 81813.0 260519.0 258938.0 284922.0 282271.0 76170.0 68209.0 242843.0 245451.0 312722.0 309225.0 302907.0 302461.0 294430.0 287255.0 207992.0 202337.0 47301.0 53812.0 302259.0 295212.0 263915.0 269785.0 40514.0 45112.0 10620.0 15330.0 48270.0 51915.0 274971.0 282621.0 292645.0 296492.0 293743.0 300623.0 128669.0 120606.0 223968.0 217059.0 253616.0 259602.0 298363.0 291721.0 134424.0 136370.0 182139.0 190121.0 319098.0 321607.0 84272.0 78762.0 214557.0 221954.0 308924.0 303966.0 271762.0 277002.0 296071.0 288354.0 242252.0 234877.0 180266.0 173744.0 51548.0 47485.0 39065.0 31153.0 62869.0 69855.0 138331.0 138850.0 110953.0 103290.0 222614.0 230607.0 296775.0 303550.0 59138.0 51018.0 276537.0 268448.0 48298.0 40091.0 291122.0 286903.0 236144.0 228348.0 276303.0 273584.0 173926.0 167707.0 256517.0 263034.0 268701.0 114448.0 268701.0 268701.0 268701.0 268701.0 114448.0 114448.0 114448.0 114448.0
76756.0 68389.0 64906.0 66009.0 103472.0 96213.0 60629.0 66892.0 322942.0 322639.0 250721.0 258151.0 0.0 7844.0 23636.0 30310.0 88367.0 80683.0 45826.0 53849.0 77868.0 78121.0 49815.0 54506.0 93853.0 91295.0 134088.0 128943.0 60624.0 54927.0 97648.0 100629.0 50175.0 46323.0 83168.0 78010.0 41194.0 39137.0 85360.0 91768.0 120411.0 112298.0 90959.0 83200.0 86626.0 89048.0 145614.0 148662.0 108721.0 101074.0 159351.0 156170.0 115786.0 121185.0 145769.0 145505.0 114036.0 110436.0 150909.0 152133.0 51905.0 59077.0 154244.0 160415.0 141774.0 138707.0 317315.0 323904.0 23531.0 31411.0 157774.0 162162.0 226693.0 230361.0 37521.0 29556.0 168988.0 172562.0 143503.0 136537.0 98345.0 91183.0 57895.0 59962.0 293421.0 296047.0 82549.0 75586.0 10336.0 18434.0 253034.0 259741.0 251158.0 243651.0 295703.0 302599.0 133487.0 135060.0 56706.0 54182.0 35929.0 43350.0 160115.0 164133.0 51901.0 53735.0 36822.0 42934.0 81951.0 74423.0 142023.0 137695.0 76816.0 69676.0 136280.0 131975.0 335312.0 332041.0 84259.0 78855.0 110358.0 102036.0 36298.0 33922.0 131087.0 125033.0 67628.0 72134.0 109179.0 115399.0 223668.0 221059.0 286290.0 279838.0 195820.0 188442.0 122833.0 120413.0 177042.0 183389.0 47795.0 42994.0 120434.0 120196.0 317217.0 309034.0 18881.0 11099.0 249079.0 248258.0 33864.0 28771.0 72405.0 75787.0 31152.0 23651.0 107021.0 107673.0 57481.0 62865.0 159981.0 180349.0 159981.0 159981.0 159981.0 159981.0 180349.0 180349.0 180349.0 180349.0
70743.0 62269.0 62188.0 62387.0 101084.0 93549.0 55412.0 62134.0 315249.0 314910.0 243323.0 250721.0 7844.0 0.0 28748.0 36135.0 80683.0 73038.0 42537.0 50760.0 70043.0 70402.0 52325.0 57879.0 96468.0 93311.0 134350.0 129597.0 52792.0 47092.0 90093.0 93262.0 42529.0 39074.0 75786.0 70866.0 35901.0 35164.0 77731.0 84250.0 121425.0 113335.0 95488.0 87919.0 78796.0 81209.0 142821.0 145518.0 101176.0 93483.0 156517.0 153699.0 112887.0 117884.0 137969.0 137670.0 114500.0 111422.0 150375.0 151178.0 48227.0 54903.0 154267.0 160673.0 138886.0 136217.0 309548.0 316153.0 27405.0 34453.0 154485.0 158571.0 218853.0 222534.0 37039.0 29228.0 166880.0 170119.0 141689.0 134941.0 97753.0 90267.0 50143.0 52118.0 285749.0 288338.0 83791.0 76518.0 14459.0 22276.0 245298.0 251984.0 243651.0 236173.0 288039.0 294959.0 130267.0 132254.0 62998.0 61061.0 43077.0 50243.0 152305.0 156299.0 44976.0 46323.0 33652.0 40755.0 82777.0 75005.0 134184.0 129853.0 69146.0 61912.0 135856.0 131950.0 327638.0 324405.0 77721.0 72671.0 110439.0 102136.0 41469.0 40180.0 129258.0 122886.0 62938.0 66817.0 101695.0 107839.0 215930.0 213372.0 278643.0 272221.0 188305.0 180966.0 115096.0 112775.0 169203.0 175545.0 40507.0 36255.0 123930.0 124151.0 309759.0 301569.0 26706.0 18932.0 241308.0 240528.0 40703.0 36217.0 67199.0 70002.0 37594.0 30540.0 99350.0 99897.0 54444.0 60513.0 155476.0 172526.0 155476.0 155476.0 155476.0 155476.0 172526.0 172526.0 172526.0 172526.0
78626.0 71247.0 55825.0 59714.0 91445.0 85226.0 60450.0 64452.0 340046.0 339346.0 269950.0 277206.0 23636.0 28748.0 0.0 7991.0 106369.0 99073.0 69414.0 77373.0 94173.0 95941.0 28607.0 31768.0 110261.0 108970.0 115135.0 109301.0 77126.0 70176.0 107622.0 108974.0 62948.0 56635.0 92144.0 85580.0 43941.0 37907.0 96378.0 101567.0 100209.0 92140.0 67325.0 59569.0 102623.0 103470.0 133875.0 137914.0 127527.0 119644.0 147551.0 143385.0 104918.0 111412.0 158210.0 158985.0 134040.0 129659.0 133427.0 135572.0 47343.0 55298.0 135585.0 141259.0 130370.0 126212.0 333512.0 340330.0 41764.0 49967.0 147339.0 152607.0 241253.0 245473.0 59863.0 52068.0 155090.0 159523.0 129129.0 121702.0 81794.0 75620.0 71372.0 75579.0 310758.0 313005.0 62507.0 56347.0 14291.0 7440.0 269759.0 276176.0 269791.0 262457.0 313111.0 320211.0 123214.0 123525.0 63372.0 57914.0 19238.0 24197.0 172662.0 177484.0 59909.0 64423.0 33672.0 35192.0 62735.0 55964.0 155789.0 151765.0 95067.0 87159.0 118709.0 113615.0 352586.0 349661.0 88207.0 81375.0 92070.0 83856.0 49476.0 43680.0 116930.0 111831.0 64882.0 71412.0 118272.0 125053.0 240424.0 238381.0 303867.0 297674.0 214491.0 207352.0 140011.0 138517.0 190558.0 197371.0 58192.0 51116.0 134271.0 132786.0 336065.0 327850.0 18936.0 20516.0 265321.0 265054.0 15509.0 16737.0 71235.0 76730.0 40687.0 33151.0 117993.0 120110.0 50134.0 52845.0 153652.0 193176.0 153652.0 153652.0 153652.0 153652.0 193176.0 193176.0 193176.0 193176.0
85031.0 77920.0 59831.0 64484.0 93695.0 87959.0 66703.0 70131.0 348018.0 347304.0 277918.0 285182.0 30310.0 36135.0 7991.0 0.0 114354.0 107046.0 75601.0 83392.0 102156.0 103926.0 27444.0 28523.0 111952.0 111219.0 113803.0 107574.0 85116.0 78152.0 115126.0 116264.0 70845.0 64405.0 99582.0 92869.0 51065.0 44575.0 104030.0 109069.0 98168.0 90195.0 61328.0 53393.0 110596.0 111377.0 135881.0 140275.0 135495.0 127618.0 149460.0 144919.0 107473.0 114310.0 165900.0 166772.0 137266.0 132504.0 132826.0 135438.0 52937.0 60853.0 134318.0 139671.0 132527.0 127964.0 341446.0 348276.0 45604.0 53570.0 149768.0 155331.0 249092.0 253353.0 64956.0 57375.0 156101.0 160879.0 130065.0 122477.0 82123.0 76541.0 79282.0 83558.0 318738.0 320974.0 61030.0 55571.0 21812.0 15430.0 277722.0 284127.0 277777.0 270439.0 321093.0 328197.0 125843.0 125676.0 62289.0 56037.0 12764.0 16450.0 180350.0 185246.0 67441.0 72174.0 40166.0 40485.0 61829.0 55705.0 163602.0 159605.0 103043.0 95147.0 118146.0 112643.0 360564.0 357647.0 94912.0 87877.0 91320.0 83260.0 51186.0 44572.0 118044.0 113396.0 70479.0 77369.0 125634.0 132472.0 248392.0 246364.0 311852.0 305664.0 222474.0 215328.0 147999.0 146504.0 198328.0 205178.0 65959.0 58751.0 134741.0 132782.0 344049.0 335833.0 20607.0 24825.0 273265.0 273021.0 8763.0 13449.0 77095.0 82972.0 41727.0 34920.0 125585.0 127847.0 54870.0 56622.0 157491.0 200878.0 157491.0 157491.0 157491.0 157491.0 200878.0 200878.0 200878.0 200878.0
69424.0 65962.0 97681.0 90957.0 125461.0 117570.0 74692.0 80957.0 234575.0 234306.0 163687.0 170879.0 88367.0 80683.0 106369.0 114354.0 0.0 7886.0 68258.0 69479.0 14850.0 10431.0 118672.0 126524.0 135629.0 128644.0 174461.0 173187.0 29618.0 37272.0 42895.0 50909.0 46469.0 54598.0 44550.0 49980.0 72630.0 80486.0 36096.0 42083.0 168542.0 161624.0 165288.0 159051.0 12021.0 20213.0 154920.0 153548.0 21597.0 13601.0 166198.0 167462.0 129659.0 129496.0 66473.0 63333.0 132035.0 134199.0 182273.0 179391.0 85132.0 83632.0 190346.0 198050.0 150650.0 152398.0 229133.0 235638.0 95504.0 96469.0 159618.0 159784.0 140161.0 143167.0 82959.0 82463.0 182608.0 182146.0 163427.0 159658.0 137235.0 129077.0 38736.0 31946.0 205066.0 207687.0 137888.0 130263.0 93302.0 98939.0 164726.0 171519.0 163424.0 156091.0 207357.0 214296.0 140140.0 145993.0 132136.0 133756.0 123338.0 129984.0 79302.0 81119.0 56349.0 48705.0 84272.0 91184.0 134634.0 127100.0 59382.0 54612.0 11562.0 19246.0 170399.0 170152.0 246955.0 243747.0 63540.0 67580.0 152476.0 145701.0 109108.0 112479.0 152789.0 144641.0 81887.0 76784.0 51677.0 52894.0 135374.0 132693.0 197974.0 191600.0 108123.0 101031.0 34643.0 32180.0 93134.0 98401.0 53379.0 61296.0 165425.0 169342.0 229697.0 221480.0 107154.0 99127.0 160954.0 159937.0 120539.0 116836.0 78139.0 72234.0 111055.0 106677.0 42562.0 36584.0 91774.0 99334.0 147836.0 97785.0 147836.0 147836.0 147836.0 147836.0 97785.0 97785.0 97785.0 97785.0
67020.0 62711.0 93134.0 86745.0 122599.0 114573.0 70472.0 77156.0 242281.0 242063.0 170879.0 178137.0 80683.0 73038.0 99073.0 107046.0 7886.0 0.0 60822.0 62428.0 12032.0 4367.0 112277.0 120038.0 128936.0 122087.0 170819.0 169218.0 23061.0 30926.0 45143.0 52941.0 40479.0 48705.0 44011.0 48387.0 66773.0 74495.0 36379.0 43282.0 164218.0 157135.0 158942.0 152558.0 14403.0 22673.0 153698.0 152708.0 28468.0 20573.0 165346.0 166225.0 127594.0 127929.0 73564.0 70756.0 126678.0 128497.0 179455.0 176893.0 79981.0 79077.0 187203.0 194842.0 149404.0 150747.0 236944.0 243425.0 87621.0 88638.0 159142.0 159702.0 148040.0 151053.0 75283.0 74644.0 181330.0 181224.0 161379.0 157285.0 133227.0 124998.0 33290.0 25832.0 212741.0 215419.0 132661.0 124968.0 85844.0 91657.0 172502.0 179324.0 170813.0 163424.0 215021.0 221923.0 138926.0 144489.0 124309.0 125882.0 115817.0 122551.0 86657.0 88709.0 51194.0 43434.0 78110.0 85297.0 129549.0 121892.0 66838.0 62091.0 4035.0 12518.0 167229.0 166645.0 254633.0 251368.0 62300.0 65492.0 148443.0 141454.0 101255.0 104595.0 150443.0 142350.0 78123.0 73622.0 55059.0 57166.0 143160.0 140395.0 205610.0 199187.0 115476.0 108285.0 42499.0 39737.0 100833.0 106188.0 47594.0 55357.0 158837.0 162571.0 237039.0 228830.0 99433.0 91391.0 168782.0 167706.0 113078.0 109229.0 74956.0 69617.0 103169.0 98807.0 46622.0 41578.0 86869.0 94571.0 148365.0 105378.0 148365.0 148365.0 148365.0 148365.0 105378.0 105378.0 105378.0 105378.0
95163.0 87022.0 99509.0 97425.0 137884.0 129841.0 85566.0 93448.0 295270.0 295917.0 218559.0 226347.0 45826.0 42537.0 69414.0 75601.0 68258.0 60822.0 0.0 8254.0 65278.0 60757.0 94836.0 100117.0 70666.0 64820.0 175553.0 171238.0 52992.0 53334.0 97042.0 103055.0 56892.0 59962.0 87342.0 86134.0 68664.0 71807.0 84642.0 92534.0 163403.0 155354.0 136713.0 128888.0 72976.0 79265.0 177728.0 179282.0 83189.0 77185.0 191098.0 189390.0 148048.0 151696.0 134308.0 131558.0 78244.0 77190.0 190374.0 190431.0 84183.0 88880.0 195082.0 201772.0 173569.0 172096.0 291860.0 297836.0 35972.0 32794.0 187618.0 190563.0 206671.0 208925.0 16497.0 20413.0 203411.0 205701.0 179213.0 173036.0 138092.0 130214.0 59471.0 55149.0 265506.0 269022.0 126033.0 118611.0 55882.0 64053.0 227204.0 234506.0 220544.0 212700.0 267588.0 273908.0 164066.0 167297.0 66671.0 70147.0 78260.0 86183.0 147478.0 149357.0 67156.0 63205.0 72110.0 80270.0 124766.0 116863.0 127622.0 122860.0 58337.0 55740.0 176120.0 172808.0 307114.0 303039.0 97799.0 95812.0 151556.0 143333.0 45476.0 51249.0 166900.0 159861.0 94440.0 95333.0 108848.0 113090.0 198347.0 194364.0 257872.0 250857.0 166172.0 158334.0 100907.0 95970.0 161224.0 166174.0 60543.0 62098.0 100686.0 103485.0 285327.0 277297.0 58540.0 51563.0 224505.0 222338.0 77336.0 70333.0 96188.0 95827.0 51035.0 50272.0 102805.0 99926.0 91479.0 98686.0 183973.0 166018.0 183973.0 183973.0 183973.0 183973.0 166018.0 166018.0 166018.0 166018.0
101784.0 93789.0 107446.0 105166.0 145675.0 137596.0 92926.0 100853.0 292696.0 293555.0 215109.0 222962.0 53849.0 50760.0 77373.0 83392.0 69479.0 62428.0 8254.0 0.0 68230.0 62930.0 103034.0 108240.0 66908.0 60494.0 183747.0 179465.0 57502.0 58774.0 101134.0 107502.0 63223.0 66890.0 92359.0 91713.0 76435.0 79814.0 88999.0 96933.0 171649.0 163602.0 144611.0 136748.0 75410.0 82234.0 185229.0 186635.0 82620.0 77192.0 198537.0 196971.0 155635.0 159115.0 135924.0 132722.0 71500.0 71011.0 198452.0 198431.0 92070.0 96572.0 203238.0 209953.0 181049.0 179725.0 289787.0 295616.0 42191.0 37821.0 194874.0 197661.0 206034.0 207978.0 21327.0 27019.0 211081.0 213249.0 187027.0 180921.0 146229.0 138323.0 65037.0 59996.0 262940.0 266650.0 134287.0 126864.0 63977.0 72151.0 225222.0 232632.0 217468.0 209568.0 264972.0 271145.0 171454.0 174832.0 69700.0 73977.0 85535.0 93473.0 148731.0 150172.0 74013.0 69591.0 80224.0 88418.0 133015.0 125108.0 128744.0 123956.0 60387.0 58907.0 184231.0 180974.0 304399.0 300148.0 103834.0 102268.0 159749.0 151535.0 49933.0 56372.0 174741.0 167636.0 101856.0 102425.0 112770.0 116624.0 196593.0 192314.0 255209.0 248082.0 163564.0 155658.0 100826.0 95387.0 161729.0 166356.0 67365.0 69430.0 96957.0 100317.0 281789.0 273810.0 65803.0 59095.0 222812.0 220352.0 84790.0 77591.0 103324.0 102607.0 56516.0 56611.0 106193.0 102753.0 99419.0 106695.0 190633.0 166783.0 190633.0 190633.0 190633.0 190633.0 166783.0 166783.0 166783.0 166783.0
55231.0 51326.0 82834.0 76114.0 111049.0 103088.0 59845.0 66171.0 245908.0 245315.0 176805.0 183843.0 77868.0 70043.0 94173.0 102156.0 14850.0 12032.0 65278.0 68230.0 0.0 8048.0 104764.0 112712.0 135138.0 128642.0 159747.0 158392.0 17275.0 24044.0 34674.0 42148.0 32517.0 40446.0 32049.0 36377.0 58332.0 66271.0 24762.0 32059.0 153699.0 146774.0 151262.0 145201.0 8792.0 14016.0 141688.0 140676.0 35926.0 28058.0 153315.0 154218.0 115739.0 115961.0 70263.0 68731.0 135372.0 136664.0 167901.0 165199.0 70406.0 68787.0 175819.0 183496.0 137396.0 138799.0 239712.0 246415.0 87951.0 90067.0 147117.0 147717.0 148891.0 152493.0 78242.0 76383.0 169329.0 169196.0 149529.0 145540.0 122427.0 114257.0 24404.0 18615.0 216588.0 218892.0 123151.0 115552.0 81714.0 86739.0 175696.0 182231.0 176068.0 168894.0 218938.0 226043.0 126914.0 132514.0 125539.0 126315.0 111830.0 118128.0 84120.0 87231.0 41687.0 34141.0 70206.0 76850.0 119857.0 112361.0 65026.0 60489.0 10339.0 9609.0 155856.0 155480.0 258426.0 255492.0 50272.0 53601.0 137667.0 130863.0 102242.0 104725.0 138686.0 130572.0 67109.0 62198.0 45479.0 48615.0 146337.0 144208.0 209698.0 203544.0 120976.0 114138.0 45879.0 45114.0 99886.0 105896.0 39141.0 47132.0 165186.0 168457.0 242397.0 234167.0 96746.0 88877.0 171467.0 170967.0 108812.0 105736.0 63545.0 57915.0 102999.0 97868.0 38087.0 34649.0 76975.0 84507.0 136518.0 103757.0 136518.0 136518.0 136518.0 136518.0 103757.0 103757.0 103757.0 103757.0
62710.0 58349.0 88832.0 82408.0 118243.0 110213.0 66132.0 72795.0 244852.0 244518.0 174110.0 181308.0 78121.0 70402.0 95941.0 103926.0 10431.0 4367.0 60757.0 62930.0 8048.0 0.0 108496.0 116305.0 129713.0 123010.0 166457.0 164872.0 19296.0 27064.0 42167.0 49818.0 36478.0 44679.0 40087.0 44216.0 62751.0 70526.0 32751.0 39907.0 159901.0 152836.0 155144.0 148833.0 12569.0 20247.0 149507.0 148584.0 31883.0 23896.0 161216.0 162030.0 123297.0 123693.0 73616.0 71265.0 128581.0 130149.0 175098.0 172553.0 75774.0 74772.0 182837.0 190475.0 145211.0 146494.0 239245.0 245799.0 86093.0 87498.0 155087.0 155735.0 149675.0 152887.0 74677.0 73582.0 177125.0 177079.0 157078.0 152956.0 128881.0 120656.0 29103.0 21845.0 215373.0 217936.0 128484.0 120805.0 82906.0 88509.0 174915.0 181650.0 173851.0 166522.0 217675.0 224640.0 134741.0 140258.0 123150.0 124446.0 112962.0 119577.0 87024.0 89462.0 46969.0 39224.0 74212.0 81295.0 125341.0 117709.0 67409.0 62718.0 2658.0 8830.0 162863.0 162280.0 257258.0 254093.0 58165.0 61219.0 144100.0 137128.0 99981.0 103028.0 146116.0 138029.0 73761.0 69261.0 52530.0 55096.0 145551.0 142983.0 208313.0 201969.0 118553.0 111459.0 44723.0 42591.0 101796.0 107389.0 43530.0 51355.0 159694.0 163235.0 240126.0 231910.0 96945.0 88942.0 171032.0 170138.0 110140.0 106511.0 70594.0 65288.0 101498.0 96873.0 44517.0 40089.0 82618.0 90299.0 144566.0 106109.0 144566.0 144566.0 144566.0 144566.0 106109.0 106109.0 106109.0 106109.0
72889.0 67722.0 39985.0 46790.0 68309.0 63515.0 55164.0 55556.0 347363.0 346025.0 281330.0 288225.0 49815.0 52325.0 28607.0 27444.0 118672.0 112277.0 94836.0 103034.0 104764.0 108496.0 0.0 8167.0 138735.0 137562.0 86663.0 80714.0 89231.0 81434.0 109203.0 108437.0 72282.0 64336.0 93615.0 85949.0 46814.0 38794.0 100037.0 103328.0 71604.0 63533.0 46669.0 40441.0 112307.0 111007.0 109819.0 114661.0 140268.0 132272.0 123230.0 118312.0 82406.0 89768.0 160889.0 163058.0 162524.0 158238.0 105413.0 107998.0 40039.0 46666.0 107151.0 112713.0 106673.0 101640.0 339782.0 346555.0 70221.0 78462.0 124204.0 130183.0 245421.0 250407.0 87257.0 79316.0 129057.0 134079.0 103015.0 95343.0 54856.0 49713.0 80395.0 86726.0 318623.0 320239.0 33936.0 28141.0 39479.0 31479.0 276932.0 282840.0 280120.0 273142.0 321078.0 328474.0 100725.0 99853.0 89679.0 83211.0 37591.0 35906.0 175118.0 180933.0 64400.0 71167.0 34617.0 29152.0 34438.0 28309.0 160341.0 156852.0 108275.0 99777.0 90722.0 85326.0 360121.0 357786.0 83926.0 76095.0 63920.0 55827.0 77883.0 71682.0 91154.0 86939.0 55523.0 63496.0 118136.0 125291.0 247922.0 246799.0 312171.0 306451.0 225396.0 218748.0 149895.0 149848.0 193976.0 201322.0 65685.0 57679.0 162102.0 160219.0 346379.0 338145.0 47101.0 49028.0 271776.0 272380.0 34148.0 40765.0 62794.0 70108.0 68760.0 61512.0 120256.0 124165.0 38148.0 36383.0 134550.0 195588.0 134550.0 134550.0 134550.0 134550.0 195588.0 195588.0 195588.0 195588.0
80767.0 75766.0 47032.0 54169.0 72404.0 68311.0 63185.0 63296.0 355526.0 354192.0 289358.0 296274.0 54506.0 57879.0 31768.0 28523.0 126524.0 120038.0 100117.0 108240.0 112712.0 116305.0 8167.0 0.0 140452.0 139734.0 85767.0 79292.0 97020.0 89260.0 117345.0 116512.0 80205.0 72317.0 101767.0 94087.0 54908.0 46893.0 108204.0 111478.0 69756.0 61842.0 39078.0 32528.0 120323.0 119115.0 113028.0 118242.0 148120.0 140122.0 126218.0 120893.0 86596.0 94244.0 169027.0 171219.0 165527.0 160912.0 105410.0 108581.0 48084.0 54538.0 106276.0 111411.0 110089.0 104623.0 347949.0 354722.0 73408.0 81548.0 127786.0 134054.0 253571.0 258568.0 91519.0 83659.0 130943.0 136349.0 104983.0 97178.0 56682.0 52549.0 88372.0 94582.0 326778.0 328402.0 33284.0 29056.0 44272.0 36102.0 285094.0 291006.0 288200.0 281204.0 329233.0 336624.0 104752.0 103332.0 89506.0 82558.0 36393.0 33041.0 183245.0 189081.0 72520.0 79227.0 42661.0 37319.0 34837.0 30217.0 168507.0 165019.0 116026.0 107557.0 90845.0 84929.0 368283.0 365939.0 91858.0 83990.0 64001.0 56248.0 79708.0 73022.0 93460.0 89862.0 63216.0 71253.0 126214.0 133376.0 256078.0 254937.0 320318.0 314588.0 233434.0 226755.0 157943.0 157815.0 202120.0 209475.0 73686.0 65683.0 162771.0 160491.0 354469.0 346235.0 49054.0 52189.0 279942.0 280540.0 33507.0 41016.0 70506.0 77931.0 70211.0 63428.0 128404.0 132332.0 45835.0 43420.0 139846.0 203707.0 139846.0 139846.0 139846.0 139846.0 203707.0 203707.0 203707.0 203707.0
162910.0 154439.0 158525.0 158814.0 197275.0 189897.0 150327.0 157655.0 345738.0 347586.0 264813.0 272862.0 93853.0 96468.0 110261.0 111952.0 135629.0 128936.0 70666.0 66908.0 135138.0 129713.0 138735.0 140452.0 0.0 8030.0 225380.0 219405.0 123656.0 123713.0 167670.0 173719.0 126112.0 127582.0 157846.0 156158.0 131316.0 131587.0 155306.0 163200.0 210098.0 202096.0 167153.0 159137.0 142240.0 149142.0 239243.0 241984.0 146002.0 141731.0 252954.0 249968.0 209329.0 214335.0 202012.0 198286.0 34883.0 27010.0 243527.0 245305.0 144671.0 151107.0 245843.0 251443.0 235333.0 232492.0 345139.0 350269.0 70413.0 62447.0 250925.0 254870.0 267273.0 268271.0 62672.0 68927.0 262840.0 266372.0 237309.0 230262.0 191373.0 184577.0 129700.0 125786.0 316347.0 320907.0 172667.0 166607.0 102784.0 109242.0 281630.0 289383.0 269071.0 261039.0 318115.0 323506.0 226727.0 228677.0 56380.0 64804.0 105919.0 112287.0 214328.0 215108.0 134772.0 132179.0 130064.0 136715.0 172996.0 166123.0 194276.0 189485.0 127135.0 125789.0 228814.0 223863.0 356640.0 351541.0 167011.0 164044.0 202290.0 194042.0 60859.0 67461.0 224904.0 218885.0 158540.0 161219.0 179428.0 183465.0 254276.0 248935.0 308253.0 300679.0 218495.0 210513.0 164726.0 158402.0 226040.0 229985.0 128476.0 128004.0 30066.0 33796.0 329872.0 322301.0 91657.0 90432.0 280379.0 276810.0 107800.0 99785.0 161836.0 163013.0 70242.0 77229.0 173068.0 169643.0 150875.0 156641.0 250648.0 231534.0 250648.0 250648.0 250648.0 250648.0 231534.0 231534.0 231534.0 231534.0
158267.0 149854.0 155498.0 155408.0 194375.0 186858.0 146283.0 153749.0 337709.0 339561.0 256788.0 264837.0 91295.0 93311.0 108970.0 111219.0 128644.0 122087.0 64820.0 60494.0 128642.0 123010.0 137562.0 139734.0 8030.0 0.0 224039.0 218270.0 117686.0 118108.0 161561.0 167774.0 120967.0 122848.0 152160.0 150767.0 127520.0 128236.0 149308.0 157226.0 209122.0 201074.0 167893.0 159822.0 135564.0 142619.0 236091.0 238613.0 138535.0 134416.0 249766.0 247009.0 206145.0 210915.0 194925.0 191069.0 30104.0 23025.0 241764.0 243285.0 141320.0 147517.0 244439.0 250213.0 232127.0 229527.0 337129.0 342249.0 68160.0 59992.0 247450.0 251195.0 259495.0 260436.0 58248.0 64998.0 260112.0 263429.0 234750.0 227826.0 189388.0 182400.0 124183.0 119946.0 308320.0 312886.0 171476.0 165192.0 100609.0 107421.0 273648.0 281407.0 261040.0 253008.0 310087.0 315476.0 223332.0 225526.0 58724.0 67094.0 106032.0 112731.0 207104.0 207755.0 130070.0 127123.0 126961.0 133892.0 171598.0 164537.0 187055.0 182269.0 120410.0 119384.0 227072.0 222341.0 348609.0 343513.0 161952.0 159276.0 200722.0 192436.0 60069.0 67166.0 222325.0 216119.0 154658.0 156996.0 173243.0 177111.0 246337.0 240967.0 300225.0 292649.0 210502.0 202521.0 157282.0 150872.0 218583.0 222439.0 123674.0 123621.0 36784.0 41251.0 321873.0 314296.0 90705.0 88785.0 272427.0 268830.0 107642.0 99522.0 157664.0 158507.0 69786.0 76306.0 166663.0 163031.0 147738.0 153763.0 246410.0 224138.0 246410.0 246410.0 246410.0 246410.0 224138.0 224138.0 224138.0 224138.0
106095.0 108521.0 79159.0 84452.0 51159.0 58012.0 100549.0 93662.0 374359.0 372419.0 321101.0 326720.0 134088.0 134350.0 115135.0 113803.0 174461.0 170819.0 175553.0 183747.0 159747.0 166457.0 86663.0 85767.0 225380.0 224039.0 0.0 8242.0 150195.0 142886.0 144396.0 138891.0 133369.0 125777.0 133354.0 126142.0 110090.0 104854.0 142392.0 140616.0 18091.0 24653.0 76183.0 80878.0 164039.0 158662.0 55819.0 63430.0 193927.0 186731.0 62922.0 54819.0 54425.0 60509.0 188051.0 193469.0 248098.0 244250.0 21864.0 28184.0 94244.0 92722.0 20518.0 26335.0 56256.0 48248.0 366147.0 373000.0 156177.0 164436.0 70345.0 78341.0 269526.0 275382.0 171224.0 163290.0 56786.0 64557.0 37740.0 32115.0 38285.0 46574.0 138521.0 146680.0 347375.0 347584.0 52781.0 58850.0 124099.0 116803.0 305518.0 310040.0 317129.0 311440.0 349997.0 357749.0 60227.0 53103.0 175242.0 168141.0 122033.0 117684.0 199654.0 207344.0 121011.0 128618.0 103759.0 95434.0 52442.0 59691.0 192356.0 190707.0 167483.0 159444.0 11955.0 5358.0 387287.0 386158.0 114768.0 108562.0 23998.0 32241.0 164539.0 158300.0 35632.0 41209.0 92698.0 97788.0 146824.0 153098.0 279100.0 280512.0 342213.0 338045.0 266985.0 262028.0 196067.0 199273.0 218777.0 226771.0 126313.0 120249.0 248483.0 246258.0 380746.0 372734.0 133764.0 135265.0 298917.0 301633.0 119269.0 126720.0 96426.0 102971.0 155397.0 148170.0 154181.0 161382.0 86652.0 78776.0 100102.0 218659.0 100102.0 100102.0 100102.0 100102.0 218659.0 218659.0 218659.0 218659.0
105676.0 107465.0 76635.0 82503.0 52363.0 58451.0 98753.0 92230.0 376523.0 374583.0 322273.0 328035.0 128943.0 129597.0 109301.0 107574.0 173187.0 169218.0 171238.0 179465.0 158392.0 164872.0 80714.0 79292.0 219405.0 218270.0 8242.0 0.0 148101.0 140638.0 144750.0 139595.0 131003.0 123229.0 133065.0 125650.0 106980.0 101323.0 142025.0 140703.0 10159.0 17505.0 68065.0 72917.0 163067.0 158029.0 62391.0 69971.0 193050.0 185710.0 70293.0 62296.0 57625.0 64378.0 189721.0 194885.0 242796.0 238762.0 30056.0 36404.0 91339.0 90486.0 27458.0 32119.0 62449.0 54411.0 368311.0 375164.0 150652.0 158914.0 77313.0 85293.0 271689.0 277545.0 166278.0 158320.0 64892.0 72585.0 44860.0 38598.0 35992.0 44242.0 136541.0 144642.0 349497.0 349747.0 46796.0 53376.0 118833.0 111351.0 307717.0 312204.0 318562.0 312728.0 352128.0 360033.0 65458.0 58704.0 168588.0 161362.0 115360.0 110749.0 201670.0 209249.0 118825.0 126520.0 99912.0 91522.0 46995.0 54607.0 193611.0 191773.0 165777.0 157601.0 19443.0 11616.0 389450.0 388321.0 114862.0 108301.0 20805.0 28383.0 158546.0 152140.0 41171.0 45721.0 91304.0 96924.0 147834.0 154291.0 280959.0 282136.0 344385.0 340060.0 267782.0 262632.0 195976.0 198878.0 220912.0 228899.0 123856.0 117470.0 242055.0 239669.0 382597.0 374547.0 127748.0 129599.0 301081.0 303757.0 112720.0 120308.0 95562.0 102465.0 149271.0 142178.0 154812.0 161801.0 83818.0 75895.0 105724.0 220823.0 105724.0 105724.0 105724.0 105724.0 220823.0 220823.0 220823.0 220823.0
50408.0 44278.0 71538.0 65743.0 103655.0 95452.0 49731.0 57061.0 263076.0 262534.0 193228.0 200371.0 60624.0 52792.0 77126.0 85116.0 29618.0 23061.0 52992.0 57502.0 17275.0 19296.0 89231.0 97020.0 123656.0 117686.0 150195.0 148101.0 0.0 7905.0 44110.0 50088.0 17639.0 25865.0 35046.0 35615.0 43868.0 51501.0 31650.0 39549.0 142616.0 135336.0 135891.0 129546.0 26005.0 29124.0 137939.0 137849.0 51169.0 43174.0 150338.0 150323.0 110241.0 111676.0 86374.0 85395.0 127715.0 128060.0 160216.0 158269.0 57678.0 57615.0 167353.0 174854.0 133634.0 134053.0 256973.0 263660.0 71699.0 74466.0 145088.0 146617.0 166082.0 169744.0 64030.0 61182.0 165227.0 165928.0 143751.0 139022.0 112185.0 103890.0 11801.0 3638.0 233713.0 236079.0 110100.0 102360.0 64489.0 69687.0 192911.0 199476.0 192779.0 185517.0 236050.0 243113.0 123346.0 128185.0 109576.0 109921.0 94609.0 100986.0 100483.0 103982.0 29283.0 21588.0 55060.0 62337.0 107130.0 99369.0 81787.0 77343.0 19087.0 10548.0 147409.0 146254.0 275568.0 272567.0 49038.0 49762.0 127297.0 120025.0 86259.0 88270.0 132283.0 124369.0 58081.0 54952.0 55995.0 60638.0 163546.0 161315.0 226771.0 220551.0 137553.0 130552.0 62906.0 61529.0 116760.0 122924.0 24872.0 32440.0 153677.0 156356.0 259091.0 250867.0 79498.0 71655.0 188726.0 188173.0 91633.0 88468.0 56199.0 52360.0 86414.0 81002.0 50690.0 49195.0 64825.0 72661.0 137159.0 120399.0 137159.0 137159.0 137159.0 137159.0 120399.0 120399.0 120399.0 120399.0
45245.0 38407.0 64016.0 58466.0 97010.0 88770.0 42668.0 50216.0 269871.0 269206.0 200672.0 207764.0 54927.0 47092.0 70176.0 78152.0 37272.0 30926.0 53334.0 58774.0 24044.0 27064.0 81434.0 89260.0 123713.0 118108.0 142886.0 140638.0 7905.0 0.0 45594.0 50605.0 9797.0 17992.0 34155.0 32939.0 35967.0 43598.0 32837.0 40378.0 135010.0 127676.0 128079.0 121788.0 32452.0 34127.0 132329.0 132562.0 58864.0 50865.0 144958.0 144627.0 104155.0 105990.0 90999.0 90579.0 129911.0 129766.0 153350.0 151613.0 49934.0 50189.0 160278.0 167728.0 128035.0 128123.0 263481.0 270242.0 68010.0 71544.0 140063.0 141932.0 171980.0 175858.0 62607.0 58856.0 159424.0 160405.0 137465.0 132525.0 104781.0 96475.0 6326.0 5435.0 240588.0 242835.0 102249.0 94501.0 57973.0 62749.0 199604.0 206069.0 200063.0 192855.0 242946.0 250069.0 117855.0 122412.0 106027.0 105831.0 88037.0 94196.0 105285.0 109207.0 21878.0 14426.0 47184.0 54432.0 99314.0 91530.0 87100.0 82794.0 26973.0 18410.0 140365.0 139024.0 282412.0 279515.0 45429.0 45020.0 119843.0 112487.0 82805.0 84187.0 125837.0 118007.0 51250.0 48763.0 57574.0 62889.0 170260.0 168223.0 233723.0 227585.0 144911.0 137990.0 69923.0 68928.0 122118.0 128512.0 17052.0 24540.0 153590.0 155875.0 266390.0 258162.0 73695.0 66023.0 195255.0 194891.0 84936.0 82166.0 49954.0 46857.0 82147.0 76282.0 53501.0 53132.0 57157.0 65026.0 133236.0 125451.0 133236.0 133236.0 133236.0 133236.0 125451.0 125451.0 125451.0 125451.0
40415.0 42399.0 76485.0 68484.0 93348.0 86434.0 54851.0 57471.0 239150.0 237453.0 178444.0 184605.0 97648.0 90093.0 107622.0 115126.0 42895.0 45143.0 97042.0 101134.0 34674.0 42167.0 109203.0 117345.0 167670.0 161561.0 144396.0 144750.0 44110.0 45594.0 0.0 8047.0 47626.0 51734.0 15698.0 23263.0 64470.0 71895.0 12758.0 6057.0 142100.0 136309.0 152921.0 148268.0 31199.0 22764.0 116238.0 113898.0 54942.0 49858.0 126453.0 128671.0 94182.0 92305.0 51688.0 54165.0 169788.0 170805.0 148489.0 144436.0 69533.0 64304.0 157750.0 165612.0 112091.0 115006.0 231189.0 238042.0 113255.0 117099.0 119100.0 118517.0 136246.0 141382.0 107881.0 104429.0 143778.0 142438.0 127140.0 124583.0 110178.0 102791.0 40743.0 42364.0 210925.0 212074.0 118129.0 111379.0 98115.0 100683.0 168953.0 174481.0 175587.0 169281.0 213450.0 221053.0 101654.0 108256.0 151224.0 150528.0 126726.0 131566.0 65968.0 71752.0 47714.0 44048.0 76469.0 80159.0 114093.0 107810.0 51785.0 48854.0 44732.0 42858.0 138289.0 139553.0 252006.0 250105.0 30051.0 37350.0 124973.0 119596.0 128130.0 129010.0 117756.0 109592.0 58035.0 50398.0 11984.0 17751.0 140467.0 140314.0 204887.0 199668.0 123291.0 117932.0 52260.0 56657.0 84777.0 92178.0 50194.0 56590.0 197715.0 200462.0 241011.0 232829.0 115593.0 108563.0 163346.0 164550.0 123118.0 122191.0 51634.0 43768.0 126786.0 120380.0 11133.0 17067.0 73578.0 79333.0 105814.0 86491.0 105814.0 105814.0 105814.0 105814.0 86491.0 86491.0 86491.0 86491.0
37256.0 40787.0 73845.0 65773.0 87738.0 81148.0 53399.0 54930.0 241611.0 239754.0 182879.0 188844.0 100629.0 93262.0 108974.0 116264.0 50909.0 52941.0 103055.0 107502.0 42148.0 49818.0 108437.0 116512.0 173719.0 167774.0 138891.0 139595.0 50088.0 50605.0 8047.0 0.0 51291.0 54325.0 17477.0 23398.0 65230.0 72248.0 18511.0 10574.0 137390.0 131880.0 151064.0 146767.0 39149.0 30739.0 108950.0 106404.0 62728.0 57822.0 118916.0 121331.0 87741.0 85457.0 53248.0 56792.0 176781.0 177602.0 142167.0 137877.0 68435.0 62527.0 151650.0 159520.0 104840.0 108009.0 233482.0 240335.0 117387.0 121648.0 111416.0 110686.0 137782.0 143263.0 113204.0 109347.0 136403.0 134887.0 120347.0 118069.0 105586.0 98459.0 45225.0 47969.0 213720.0 214605.0 115072.0 108596.0 100302.0 102257.0 171687.0 176956.0 179620.0 173516.0 216275.0 223963.0 94454.0 101205.0 155205.0 154120.0 128188.0 132633.0 67101.0 73501.0 49435.0 46939.0 76820.0 79715.0 110914.0 104988.0 54881.0 52510.0 52341.0 49893.0 132369.0 133957.0 254510.0 252846.0 26176.0 34022.0 120149.0 115128.0 132299.0 132756.0 111281.0 103155.0 55370.0 47405.0 9706.0 16891.0 143579.0 143854.0 207892.0 202895.0 128188.0 123137.0 58988.0 63833.0 86323.0 93961.0 52838.0 58489.0 203718.0 206257.0 244634.0 236483.0 118118.0 111372.0 165796.0 167382.0 124477.0 124071.0 48541.0 40544.0 130421.0 123748.0 15313.0 22950.0 71736.0 76900.0 97865.0 87390.0 97865.0 97865.0 97865.0 97865.0 87390.0 87390.0 87390.0 87390.0
38685.0 31033.0 54368.0 49053.0 88172.0 79913.0 33574.0 41333.0 277444.0 276595.0 209292.0 216295.0 50175.0 42529.0 62948.0 70845.0 46469.0 40479.0 56892.0 63223.0 32517.0 36478.0 72282.0 80205.0 126112.0 120967.0 133369.0 131003.0 17639.0 9797.0 47626.0 51291.0 0.0 8237.0 33917.0 30448.0 26295.0 34050.0 35202.0 41863.0 125282.0 117920.0 118847.0 112708.0 40376.0 40534.0 124564.0 125163.0 68044.0 60060.0 137426.0 136741.0 95919.0 98204.0 96005.0 96287.0 134722.0 134036.0 144226.0 142697.0 40150.0 40648.0 150957.0 158359.0 120290.0 120006.0 270634.0 277499.0 66125.0 70670.0 132948.0 135206.0 178360.0 182528.0 63858.0 59033.0 151401.0 152689.0 128946.0 123789.0 95202.0 86892.0 8462.0 14649.0 248295.0 250363.0 92465.0 84722.0 51701.0 55609.0 207066.0 213382.0 208423.0 201306.0 250684.0 257893.0 110259.0 114485.0 103914.0 102958.0 81391.0 87130.0 110424.0 114867.0 12604.0 6381.0 37806.0 44823.0 89518.0 81740.0 92994.0 88891.0 36583.0 28010.0 131082.0 129575.0 290053.0 287316.0 40999.0 39049.0 110218.0 102805.0 81038.0 81510.0 117164.0 109436.0 42375.0 40737.0 59348.0 65353.0 177782.0 176030.0 241550.0 235539.0 153426.0 146639.0 78094.0 77631.0 127897.0 134571.0 7256.0 14880.0 155687.0 157487.0 274748.0 266515.0 68479.0 61188.0 202484.0 202394.0 78085.0 76030.0 41838.0 39790.0 79226.0 72753.0 56847.0 57800.0 47409.0 55294.0 127471.0 130820.0 127471.0 127471.0 127471.0 127471.0 130820.0 130820.0 130820.0 130820.0
35438.0 27121.0 46644.0 41770.0 81545.0 73286.0 27007.0 34962.0 284547.0 283577.0 217059.0 224009.0 46323.0 39074.0 56635.0 64405.0 54598.0 48705.0 59962.0 66890.0 40446.0 44679.0 64336.0 72317.0 127582.0 122848.0 125777.0 123229.0 25865.0 17992.0 51734.0 54325.0 8237.0 0.0 36889.0 31809.0 18072.0 25888.0 39936.0 45753.0 117342.0 109921.0 110818.0 104777.0 48027.0 47460.0 119078.0 120068.0 76144.0 68172.0 132161.0 131099.0 89989.0 92778.0 101617.0 102367.0 138194.0 137051.0 137152.0 135878.0 32112.0 33190.0 143625.0 150959.0 114838.0 114144.0 277543.0 284393.0 64507.0 69848.0 128130.0 130782.0 184722.0 189081.0 64930.0 59306.0 145585.0 147200.0 122612.0 117209.0 87539.0 79230.0 16060.0 22874.0 255494.0 257445.0 84260.0 76510.0 46401.0 49448.0 214125.0 220341.0 216038.0 208977.0 257902.0 265164.0 104997.0 108847.0 101710.0 100115.0 75459.0 80812.0 116068.0 120850.0 7238.0 7806.0 29760.0 36617.0 81348.0 73547.0 99208.0 95251.0 44816.0 36245.0 123814.0 122082.0 297197.0 294565.0 39955.0 36462.0 102472.0 94963.0 79322.0 79008.0 110670.0 103077.0 36002.0 35592.0 63026.0 69440.0 184895.0 183323.0 248827.0 242898.0 161151.0 154440.0 85708.0 85513.0 133928.0 140777.0 1561.0 6700.0 156795.0 158181.0 282347.0 274113.0 63905.0 57050.0 209394.0 209482.0 71995.0 70574.0 36545.0 35896.0 76538.0 69614.0 61674.0 63481.0 39477.0 47391.0 124066.0 136565.0 124066.0 124066.0 124066.0 124066.0 136565.0 136565.0 136565.0 136565.0
27406.0 27609.0 62052.0 54196.0 82928.0 75463.0 39735.0 43179.0 254306.0 252731.0 192060.0 198427.0 83168.0 75786.0 92144.0 99582.0 44550.0 44011.0 87342.0 92359.0 32049.0 40087.0 93615.0 101767.0 157846.0 152160.0 133354.0 133065.0 35046.0 34155.0 15698.0 17477.0 33917.0 36889.0 0.0 7988.0 48804.0 56199.0 9096.0 9723.0 129704.0 123526.0 137708.0 132892.0 32741.0 25870.0 110388.0 109017.0 61382.0 54854.0 121667.0 122929.0 85746.0 85127.0 67330.0 69511.0 162753.0 163086.0 139248.0 135861.0 54132.0 49307.0 147917.0 155725.0 106124.0 108046.0 246459.0 253312.0 100042.0 104473.0 115228.0 115692.0 151806.0 156837.0 96609.0 92422.0 138079.0 137607.0 119385.0 116018.0 97776.0 90063.0 28372.0 32365.0 225907.0 227205.0 103843.0 96875.0 83036.0 85287.0 184000.0 189663.0 189632.0 183131.0 228411.0 235956.0 95611.0 101564.0 137798.0 136652.0 111299.0 116008.0 81644.0 87321.0 32300.0 29463.0 60772.0 64528.0 99937.0 93353.0 66937.0 63712.0 42227.0 37483.0 128143.0 128717.0 267134.0 265099.0 19278.0 24796.0 112837.0 106950.0 114955.0 115309.0 109139.0 100950.0 43853.0 36752.0 26233.0 32911.0 155315.0 154852.0 219740.0 214370.0 136488.0 130730.0 62953.0 65920.0 100373.0 107708.0 35391.0 41291.0 187741.0 190014.0 255367.0 247163.0 100751.0 93938.0 178550.0 179545.0 107650.0 106953.0 38070.0 30666.0 112961.0 106271.0 26650.0 31064.0 58556.0 64702.0 104539.0 102177.0 104539.0 104539.0 104539.0 104539.0 102177.0 102177.0 102177.0 102177.0
20049.0 19625.0 54076.0 46241.0 76071.0 68432.0 31778.0 35237.0 262212.0 260599.0 200009.0 206393.0 78010.0 70866.0 85580.0 92869.0 49980.0 48387.0 86134.0 91713.0 36377.0 44216.0 85949.0 94087.0 156158.0 150767.0 126142.0 125650.0 35615.0 32939.0 23263.0 23398.0 30448.0 31809.0 7988.0 0.0 41852.0 48990.0 16448.0 17487.0 122087.0 115814.0 129800.0 125051.0 38593.0 32553.0 105312.0 104386.0 68009.0 61145.0 117013.0 117842.0 79686.0 79624.0 74940.0 77336.0 162774.0 162703.0 132667.0 129544.0 46294.0 41334.0 141102.0 148879.0 101020.0 102494.0 254328.0 261181.0 96044.0 100953.0 111025.0 111976.0 159509.0 164619.0 94201.0 89480.0 132953.0 132864.0 113448.0 109762.0 90196.0 82403.0 26692.0 32432.0 233850.0 235117.0 95869.0 88889.0 77139.0 78891.0 191929.0 197560.0 197612.0 191100.0 236358.0 243912.0 90540.0 96163.0 133471.0 131920.0 104798.0 109245.0 89182.0 95015.0 26285.0 25050.0 53569.0 56939.0 91977.0 85370.0 74824.0 71653.0 46076.0 40153.0 121251.0 121581.0 275048.0 273041.0 14001.0 17781.0 105312.0 99290.0 110921.0 110802.0 102886.0 94722.0 35930.0 28996.0 32820.0 39792.0 163274.0 162835.0 227701.0 222346.0 144401.0 138593.0 70567.0 73228.0 108040.0 115436.0 30418.0 35352.0 185876.0 187827.0 263355.0 255151.0 95100.0 88567.0 186440.0 187484.0 101081.0 100760.0 30333.0 23194.0 108345.0 101404.0 34357.0 39039.0 50591.0 56715.0 101763.0 109679.0 101763.0 101763.0 101763.0 101763.0 109679.0 109679.0 109679.0 109679.0
35949.0 27908.0 31447.0 28764.0 69241.0 61178.0 19520.0 26386.0 300912.0 299730.0 234564.0 241431.0 41194.0 35901.0 43941.0 51065.0 72630.0 66773.0 68664.0 76435.0 58332.0 62751.0 46814.0 54908.0 131316.0 127520.0 110090.0 106980.0 43868.0 35967.0 64470.0 65230.0 26295.0 18072.0 48804.0 41852.0 0.0 8022.0 54111.0 58432.0 100564.0 92954.0 93024.0 87189.0 65608.0 64211.0 109390.0 111392.0 94143.0 86185.0 122905.0 120867.0 79554.0 83679.0 115828.0 117351.0 146027.0 143940.0 122952.0 122410.0 15984.0 20301.0 128651.0 135763.0 105294.0 103511.0 293553.0 300388.0 63304.0 70138.0 120064.0 123676.0 199880.0 204571.0 69479.0 62525.0 134772.0 137228.0 110594.0 104554.0 71841.0 63613.0 33946.0 40942.0 272044.0 273790.0 66499.0 58714.0 37321.0 37593.0 230463.0 236499.0 233306.0 226336.0 274483.0 281833.0 96106.0 98891.0 97829.0 94798.0 63177.0 67406.0 130228.0 135563.0 17672.0 24395.0 12345.0 18555.0 63767.0 55865.0 114433.0 110739.0 62874.0 54301.0 109117.0 106716.0 313630.0 311181.0 44616.0 38339.0 86395.0 78599.0 77206.0 75098.0 98322.0 91207.0 27245.0 30977.0 74663.0 81577.0 201359.0 200089.0 265516.0 259730.0 178620.0 172026.0 103110.0 103263.0 148659.0 155784.0 19251.0 11428.0 159419.0 159893.0 299566.0 291332.0 55594.0 50264.0 225479.0 225874.0 59389.0 59687.0 31313.0 34713.0 72287.0 64589.0 75203.0 78272.0 23574.0 31346.0 119700.0 150783.0 119700.0 119700.0 119700.0 119700.0 150783.0 150783.0 150783.0 150783.0
40756.0 33369.0 27827.0 27229.0 66647.0 58858.0 22811.0 28049.0 308843.0 307627.0 242582.0 249452.0 39137.0 35164.0 37907.0 44575.0 80486.0 74495.0 71807.0 79814.0 66271.0 70526.0 38794.0 46893.0 131587.0 128236.0 104854.0 101323.0 51501.0 43598.0 71895.0 72248.0 34050.0 25888.0 56199.0 48990.0 8022.0 0.0 61851.0 65885.0 94490.0 86737.0 85031.0 79169.0 73610.0 72221.0 107885.0 110411.0 102030.0 94060.0 121540.0 118988.0 77935.0 82748.0 123411.0 125088.0 148080.0 145569.0 118697.0 118626.0 13089.0 19940.0 123858.0 130796.0 103898.0 101527.0 301433.0 308258.0 62234.0 69576.0 119339.0 123413.0 207605.0 212361.0 70812.0 63443.0 132497.0 135404.0 107758.0 101373.0 66820.0 58744.0 41870.0 48685.0 280003.0 281720.0 59507.0 51701.0 33455.0 32207.0 238396.0 244403.0 241327.0 234358.0 282445.0 289807.0 95145.0 97325.0 94997.0 91362.0 57005.0 60705.0 137782.0 143230.0 25644.0 32408.0 4579.0 10884.0 57023.0 49030.0 122217.0 118572.0 70564.0 61993.0 104589.0 101728.0 321570.0 319146.0 50353.0 43471.0 80965.0 72978.0 75431.0 72550.0 95374.0 88610.0 28706.0 34146.0 81786.0 88782.0 209312.0 208078.0 273492.0 267722.0 186639.0 180037.0 111129.0 111247.0 156320.0 163497.0 27139.0 19190.0 159056.0 159122.0 307585.0 299351.0 51415.0 46983.0 233373.0 233815.0 53119.0 54203.0 34175.0 38991.0 69634.0 61738.0 82737.0 86031.0 19825.0 26882.0 120848.0 158330.0 120848.0 120848.0 120848.0 120848.0 158330.0 158330.0 158330.0 158330.0
36352.0 35783.0 70180.0 62459.0 92019.0 84533.0 47404.0 51514.0 247377.0 245990.0 183906.0 190378.0 85360.0 77731.0 96378.0 104030.0 36096.0 36379.0 84642.0 88999.0 24762.0 32751.0 100037.0 108204.0 155306.0 149308.0 142392.0 142025.0 31650.0 32837.0 12758.0 18511.0 35202.0 39936.0 9096.0 16448.0 54111.0 61851.0 0.0 7938.0 138531.0 132259.0 144860.0 139776.0 24129.0 16859.0 119095.0 117533.0 52319.0 45894.0 130180.0 131631.0 94773.0 94011.0 61892.0 63244.0 158375.0 159122.0 148339.0 144921.0 61226.0 57024.0 157012.0 164820.0 114847.0 116927.0 239746.0 246598.0 100550.0 104345.0 123525.0 123722.0 145771.0 150517.0 95195.0 91679.0 146787.0 146146.0 128371.0 125072.0 106632.0 98851.0 28052.0 29715.0 218769.0 220256.0 111946.0 104840.0 86290.0 89291.0 176975.0 182815.0 181722.0 175110.0 221249.0 228724.0 104332.0 110399.0 138537.0 137941.0 115335.0 120477.0 76335.0 81475.0 36734.0 32145.0 66367.0 70887.0 108129.0 101361.0 60376.0 56816.0 35100.0 31671.0 137235.0 137774.0 260160.0 257956.0 28320.0 33833.0 121732.0 115738.0 115415.0 116389.0 118193.0 110003.0 52246.0 45442.0 24737.0 30262.0 148090.0 147336.0 212462.0 206946.0 128190.0 122282.0 54119.0 56887.0 94573.0 101673.0 38378.0 45279.0 185326.0 187962.0 247633.0 239417.0 103513.0 96341.0 171743.0 172458.0 111816.0 110506.0 46780.0 39567.0 114198.0 107888.0 21756.0 24182.0 66183.0 72671.0 112043.0 96878.0 112043.0 112043.0 112043.0 112043.0 96878.0 96878.0 96878.0 96878.0
35595.0 36902.0 71201.0 63254.0 89754.0 82605.0 49230.0 52221.0 244737.0 243113.0 183224.0 189487.0 91768.0 84250.0 101567.0 109069.0 42083.0 43282.0 92534.0 96933.0 32059.0 39907.0 103328.0 111478.0 163200.0 157226.0 140616.0 140703.0 39549.0 40378.0 6057.0 10574.0 41863.0 45753.0 9723.0 17487.0 58432.0 65885.0 7938.0 0.0 137752.0 131792.0 147280.0 142534.0 30089.0 21982.0 114500.0 112534.0 56264.0 50515.0 125150.0 126997.0 91378.0 89989.0 57607.0 59852.0 166263.0 167044.0 145448.0 141660.0 63774.0 58749.0 154477.0 162323.0 110298.0 112829.0 236842.0 243695.0 107708.0 111721.0 118140.0 117962.0 142094.0 147153.0 102898.0 99221.0 142143.0 141141.0 124669.0 121786.0 105802.0 98270.0 35255.0 37514.0 216412.0 217646.0 112939.0 106084.0 92112.0 94635.0 174474.0 180081.0 180579.0 174174.0 218925.0 226497.0 99807.0 106171.0 145635.0 144817.0 120676.0 125509.0 71927.0 77605.0 41660.0 38101.0 70455.0 74248.0 108960.0 102536.0 57344.0 54230.0 42357.0 39449.0 134872.0 135854.0 257577.0 255601.0 25859.0 32666.0 120722.0 115126.0 122603.0 123339.0 114928.0 106740.0 52832.0 45391.0 17487.0 23688.0 145873.0 145552.0 210302.0 205002.0 127848.0 122294.0 55495.0 59248.0 90654.0 98001.0 44218.0 50547.0 193211.0 195804.0 246168.0 237974.0 109639.0 102655.0 168958.0 170041.0 117064.0 116164.0 46665.0 38938.0 121080.0 114598.0 16929.0 21803.0 68017.0 73961.0 105770.0 92464.0 105770.0 105770.0 105770.0 105770.0 92464.0 92464.0 92464.0 92464.0
102329.0 103357.0 71128.0 77586.0 51885.0 56844.0 93857.0 87811.0 375909.0 373969.0 320269.0 326201.0 120411.0 121425.0 100209.0 98168.0 168542.0 164218.0 163403.0 171649.0 153699.0 159901.0 71604.0 69756.0 210098.0 209122.0 18091.0 10159.0 142616.0 135010.0 142100.0 137390.0 125282.0 117342.0 129704.0 122087.0 100564.0 94490.0 138531.0 137752.0 0.0 8114.0 58112.0 62810.0 158794.0 154164.0 68600.0 76046.0 188809.0 181322.0 77672.0 69918.0 59467.0 66916.0 188532.0 193368.0 234010.0 229826.0 39926.0 45825.0 85254.0 85159.0 37569.0 41865.0 68115.0 60166.0 367697.0 374550.0 141754.0 150008.0 83978.0 91881.0 271075.0 276932.0 157865.0 149896.0 73793.0 81253.0 52132.0 45155.0 31951.0 39712.0 131225.0 139230.0 348912.0 349080.0 37892.0 44915.0 110214.0 102584.0 307008.0 311585.0 316882.0 310876.0 351528.0 359387.0 69757.0 63619.0 158839.0 151539.0 105629.0 100862.0 200885.0 208307.0 113359.0 121115.0 92752.0 84344.0 38659.0 46542.0 191897.0 189831.0 160670.0 152364.0 27985.0 20072.0 388646.0 387691.0 112060.0 105123.0 17342.0 22878.0 149263.0 142736.0 46455.0 49567.0 86939.0 93126.0 145967.0 152621.0 279849.0 280730.0 343610.0 339089.0 265378.0 260004.0 192639.0 195178.0 220238.0 228202.0 118067.0 111358.0 232425.0 229938.0 381390.0 373296.0 118479.0 120612.0 300467.0 302956.0 103074.0 110750.0 91778.0 99042.0 139894.0 132911.0 152456.0 159164.0 77878.0 69988.0 110171.0 220209.0 110171.0 110171.0 110171.0 110171.0 220209.0 220209.0 220209.0 220209.0
96244.0 96835.0 64004.0 70733.0 48256.0 52287.0 86950.0 81178.0 371221.0 369337.0 314683.0 320715.0 112298.0 113335.0 92140.0 90195.0 161624.0 157135.0 155354.0 163602.0 146774.0 152836.0 63533.0 61842.0 202096.0 201074.0 24653.0 17505.0 135336.0 127676.0 136309.0 131880.0 117920.0 109921.0 123526.0 115814.0 92954.0 86737.0 132259.0 131792.0 8114.0 0.0 52806.0 56811.0 152073.0 147661.0 70131.0 77360.0 182071.0 174517.0 80247.0 72822.0 57447.0 65312.0 183563.0 188182.0 225906.0 221739.0 45991.0 51120.0 77810.0 78065.0 44850.0 49598.0 69153.0 61416.0 363065.0 369918.0 133658.0 141913.0 85778.0 93542.0 266457.0 272313.0 149754.0 141784.0 78121.0 85237.0 54954.0 47480.0 26387.0 33525.0 124034.0 131986.0 344204.0 344515.0 29781.0 36819.0 102100.0 94474.0 302240.0 306957.0 311494.0 305386.0 346808.0 354635.0 69569.0 64061.0 151086.0 143857.0 97858.0 93258.0 196164.0 203472.0 106129.0 113900.0 84895.0 76492.0 30590.0 38513.0 186591.0 184386.0 153540.0 145184.0 32787.0 25323.0 384174.0 383080.0 106263.0 99126.0 13869.0 16755.0 141250.0 134767.0 47619.0 49419.0 80340.0 86818.0 140647.0 147410.0 274838.0 275532.0 338780.0 334134.0 259586.0 254085.0 186375.0 188715.0 215565.0 223504.0 110686.0 103853.0 224581.0 222170.0 376268.0 368150.0 110459.0 112526.0 295820.0 298130.0 95236.0 102856.0 85483.0 92925.0 131914.0 124891.0 146820.0 153346.0 70521.0 62676.0 109736.0 215591.0 109736.0 109736.0 109736.0 109736.0 215591.0 215591.0 215591.0 215591.0
114049.0 110563.0 77634.0 85657.0 87588.0 87049.0 98071.0 96223.0 392011.0 390374.0 327508.0 334305.0 90959.0 95488.0 67325.0 61328.0 165288.0 158942.0 136713.0 144611.0 151262.0 155144.0 46669.0 39078.0 167153.0 167893.0 76183.0 68065.0 135891.0 128079.0 152921.0 151064.0 118847.0 110818.0 137708.0 129800.0 93024.0 85031.0 144860.0 147280.0 58112.0 52806.0 0.0 8126.0 158631.0 156885.0 120426.0 127123.0 186878.0 178887.0 131762.0 124766.0 100692.0 109030.0 204234.0 207086.0 195789.0 190251.0 98037.0 103749.0 83651.0 88653.0 94648.0 97329.0 118678.0 111535.0 384108.0 390961.0 106259.0 113847.0 136157.0 143559.0 288839.0 294210.0 126212.0 118693.0 130889.0 137877.0 107044.0 99290.0 64939.0 65921.0 126861.0 133349.0 363575.0 364912.0 41087.0 44801.0 81239.0 73221.0 321701.0 327360.0 326026.0 319159.0 366068.0 373571.0 116637.0 112701.0 111859.0 103722.0 62453.0 55272.0 218164.0 224458.0 110354.0 117412.0 81060.0 74711.0 45521.0 48315.0 204623.0 201407.0 154942.0 146438.0 85526.0 77859.0 404841.0 402768.0 125317.0 117326.0 62862.0 58587.0 108846.0 101212.0 98148.0 97782.0 95864.0 103979.0 160716.0 167908.0 292927.0 292162.0 357318.0 351794.0 271556.0 265027.0 196056.0 196277.0 237358.0 244926.0 112125.0 104131.0 185364.0 181668.0 392183.0 383953.0 80701.0 86073.0 316238.0 317229.0 61690.0 69797.0 102970.0 110891.0 98901.0 93802.0 164054.0 168700.0 79391.0 74362.0 154576.0 238386.0 154576.0 154576.0 154576.0 154576.0 238386.0 238386.0 238386.0 238386.0
110035.0 106065.0 74024.0 81929.0 87581.0 86277.0 93486.0 92205.0 387123.0 385617.0 321748.0 328620.0 83200.0 87919.0 59569.0 53393.0 159051.0 152558.0 128888.0 136748.0 145201.0 148833.0 40441.0 32528.0 159137.0 159822.0 80878.0 72917.0 129546.0 121788.0 148268.0 146767.0 112708.0 104777.0 132892.0 125051.0 87189.0 79169.0 139776.0 142534.0 62810.0 56811.0 8126.0 0.0 152739.0 151301.0 122424.0 128879.0 180648.0 172650.0 134217.0 127495.0 101108.0 109398.0 199783.0 202386.0 187674.0 182153.0 102620.0 107929.0 78762.0 84239.0 99948.0 103071.0 120421.0 113547.0 379346.0 386199.0 98182.0 105747.0 138081.0 145302.0 284421.0 289649.0 118208.0 110723.0 134411.0 141147.0 109961.0 102108.0 65821.0 65777.0 120836.0 127108.0 358541.0 360008.0 40699.0 43047.0 73595.0 65644.0 316743.0 322515.0 320461.0 313518.0 361016.0 368468.0 117688.0 114230.0 103987.0 95895.0 54327.0 47164.0 213831.0 219960.0 104691.0 111571.0 75050.0 69137.0 44899.0 46348.0 199822.0 196492.0 148543.0 140082.0 89574.0 82113.0 399922.0 397725.0 121297.0 113311.0 65601.0 60462.0 100725.0 93098.0 100446.0 99429.0 91922.0 100071.0 156455.0 163650.0 287853.0 286908.0 352187.0 346561.0 265807.0 259180.0 190298.0 190289.0 232923.0 240415.0 106125.0 98119.0 177608.0 174016.0 386689.0 378456.0 72622.0 78084.0 311415.0 312234.0 53581.0 61679.0 99130.0 106956.0 90780.0 85681.0 159391.0 163763.0 75048.0 70618.0 154719.0 234156.0 154719.0 154719.0 154719.0 154719.0 234156.0 234156.0 234156.0 234156.0
58369.0 55603.0 88426.0 81353.0 114509.0 106733.0 65233.0 70988.0 237423.0 236758.0 169036.0 175983.0 86626.0 78796.0 102623.0 110596.0 12021.0 14403.0 72976.0 75410.0 8792.0 12569.0 112307.0 120323.0 142240.0 135564.0 164039.0 163067.0 26005.0 32452.0 31199.0 39149.0 40376.0 48027.0 32741.0 38593.0 65608.0 73610.0 24129.0 30089.0 158794.0 152073.0 158631.0 152739.0 0.0 8448.0 143121.0 141648.0 30015.0 22698.0 154296.0 155661.0 118222.0 117836.0 61822.0 60056.0 140952.0 142631.0 171214.0 168137.0 76786.0 74489.0 179505.0 187251.0 138860.0 140752.0 231080.0 237814.0 96635.0 98600.0 147649.0 147773.0 140106.0 143739.0 86430.0 84839.0 170813.0 170256.0 151947.0 148350.0 127224.0 119161.0 32019.0 27074.0 208159.0 210384.0 129354.0 121855.0 90327.0 95199.0 167153.0 173636.0 168054.0 160961.0 210524.0 217674.0 128347.0 134294.0 134134.0 135011.0 120429.0 126645.0 75548.0 78514.0 48452.0 41220.0 77691.0 83996.0 125908.0 118577.0 56319.0 51753.0 15200.0 17989.0 159600.0 159620.0 249972.0 247113.0 51886.0 56337.0 142457.0 135918.0 110856.0 113441.0 141473.0 133305.0 71872.0 66253.0 40710.0 42786.0 137808.0 135814.0 201328.0 195244.0 113124.0 106441.0 37719.0 37723.0 91131.0 97110.0 46640.0 54640.0 172235.0 175727.0 234376.0 226143.0 105502.0 97646.0 162842.0 162439.0 117367.0 114410.0 67615.0 61308.0 111739.0 106650.0 32230.0 27523.0 83023.0 90341.0 135822.0 95068.0 135822.0 135822.0 135822.0 135822.0 95068.0 95068.0 95068.0 95068.0
52594.0 50829.0 84585.0 77190.0 108588.0 100983.0 61401.0 66504.0 237087.0 236140.0 170685.0 177428.0 89048.0 81209.0 103470.0 111377.0 20213.0 22673.0 79265.0 82234.0 14016.0 20247.0 111007.0 119115.0 149142.0 142619.0 158662.0 158029.0 29124.0 34127.0 22764.0 30739.0 40534.0 47460.0 25870.0 32553.0 64211.0 72221.0 16859.0 21982.0 154164.0 147661.0 156885.0 151301.0 8448.0 0.0 135862.0 134167.0 35535.0 29041.0 146805.0 148391.0 111612.0 110861.0 57251.0 56477.0 148817.0 150312.0 165059.0 161727.0 73979.0 70892.0 173615.0 181404.0 131623.0 133775.0 230159.0 236999.0 100798.0 103335.0 139970.0 139910.0 137987.0 142035.0 91985.0 89815.0 163547.0 162785.0 145227.0 141887.0 122387.0 114454.0 32098.0 29153.0 208051.0 209986.0 126020.0 118672.0 91848.0 96113.0 166667.0 172911.0 169167.0 162274.0 210465.0 217754.0 121111.0 127232.0 138615.0 139044.0 121772.0 127640.0 71388.0 75102.0 46615.0 40051.0 76508.0 82202.0 122402.0 115298.0 52975.0 48677.0 22901.0 23529.0 153785.0 154124.0 249740.0 247139.0 45145.0 50288.0 137570.0 131303.0 115294.0 117394.0 135007.0 126819.0 67326.0 61124.0 32395.0 34878.0 137437.0 135944.0 201422.0 195563.0 114746.0 108408.0 39431.0 41062.0 87993.0 94404.0 45967.0 53805.0 179186.0 182472.0 235389.0 227155.0 107820.0 100141.0 161988.0 162022.0 118537.0 116132.0 62483.0 55692.0 115531.0 110028.0 24302.0 20676.0 79746.0 86758.0 127741.0 91411.0 127741.0 127741.0 127741.0 127741.0 91411.0 91411.0 91411.0 91411.0
87583.0 93923.0 80736.0 80848.0 42481.0 49403.0 92376.0 84412.0 333092.0 331152.0 282812.0 287619.0 145614.0 142821.0 133875.0 135881.0 154920.0 153698.0 177728.0 185229.0 141688.0 149507.0 109819.0 113028.0 239243.0 236091.0 55819.0 62391.0 137939.0 132329.0 116238.0 108950.0 124564.0 119078.0 110388.0 105312.0 109390.0 107885.0 119095.0 114500.0 68600.0 70131.0 120426.0 122424.0 143121.0 135862.0 0.0 7611.0 170763.0 164849.0 13747.0 12542.0 29951.0 26362.0 149603.0 156269.0 255415.0 253260.0 43917.0 36469.0 94821.0 89094.0 55327.0 62179.0 4308.0 8891.0 324880.0 331733.0 169143.0 176886.0 15748.0 23411.0 228258.0 234114.0 178590.0 171315.0 27693.0 28131.0 18777.0 23799.0 57462.0 60482.0 126506.0 134329.0 306107.0 306316.0 83300.0 84627.0 137482.0 132363.0 264287.0 268773.0 277514.0 272641.0 308729.0 316614.0 14782.0 10567.0 197233.0 191660.0 147227.0 145596.0 158956.0 167042.0 112370.0 118451.0 109185.0 102691.0 80004.0 82904.0 156116.0 155629.0 151288.0 144741.0 44000.0 51001.0 346019.0 344890.0 91461.0 88571.0 57865.0 61981.0 180991.0 176558.0 22537.0 23343.0 83398.0 83827.0 114334.0 119072.0 238216.0 240415.0 300965.0 296803.0 231501.0 227726.0 167786.0 172779.0 177522.0 185513.0 118913.0 115843.0 265985.0 265403.0 339686.0 331751.0 152365.0 150856.0 257650.0 260365.0 143586.0 149247.0 82742.0 85590.0 173523.0 165570.0 123552.0 131630.0 88378.0 82783.0 45843.0 177392.0 45843.0 45843.0 45843.0 45843.0 177392.0 177392.0 177392.0 177392.0
87455.0 94253.0 83793.0 83207.0 46580.0 52809.0 93722.0 85836.0 328235.0 326294.0 277978.0 282766.0 148662.0 145518.0 137914.0 140275.0 153548.0 152708.0 179282.0 186635.0 140676.0 148584.0 114661.0 118242.0 241984.0 238613.0 63430.0 69971.0 137849.0 132562.0 113898.0 106404.0 125163.0 120068.0 109017.0 104386.0 111392.0 110411.0 117533.0 112534.0 76046.0 77360.0 127123.0 128879.0 141648.0 134167.0 7611.0 0.0 168701.0 163030.0 12650.0 15940.0 33059.0 27718.0 145159.0 152002.0 257246.0 255320.0 51110.0 43460.0 97323.0 91183.0 62510.0 69185.0 8458.0 15949.0 320022.0 326875.0 172156.0 179777.0 9548.0 16438.0 223401.0 229257.0 180821.0 173686.0 30325.0 28618.0 26267.0 31391.0 63468.0 65845.0 126604.0 134271.0 301250.0 301459.0 89320.0 90210.0 140848.0 136049.0 259430.0 263915.0 272694.0 267744.0 303872.0 311757.0 15289.0 14943.0 201168.0 195806.0 151860.0 150539.0 154099.0 162199.0 113198.0 118949.0 111993.0 105861.0 85856.0 88295.0 152016.0 151729.0 150462.0 144207.0 51609.0 58602.0 341162.0 340033.0 90419.0 88168.0 64844.0 68560.0 184350.0 180166.0 29754.0 29454.0 84849.0 84547.0 111259.0 115665.0 233358.0 235558.0 296108.0 291945.0 227217.0 223641.0 164933.0 170180.0 172664.0 180656.0 119806.0 117213.0 269096.0 268723.0 334828.0 326894.0 156200.0 154347.0 252792.0 255508.0 148153.0 153563.0 83541.0 85706.0 177136.0 169153.0 120693.0 128832.0 91209.0 86080.0 38771.0 172534.0 38771.0 38771.0 38771.0 38771.0 172534.0 172534.0 172534.0 172534.0
88000.0 85589.0 118341.0 111342.0 144080.0 136417.0 95182.0 101003.0 214654.0 214693.0 142423.0 149706.0 108721.0 101176.0 127527.0 135495.0 21597.0 28468.0 83189.0 82620.0 35926.0 31883.0 140268.0 148120.0 146002.0 138535.0 193927.0 193050.0 51169.0 58864.0 54942.0 62728.0 68044.0 76144.0 61382.0 68009.0 94143.0 102030.0 52319.0 56264.0 188809.0 182071.0 186878.0 180648.0 30015.0 35535.0 170763.0 168701.0 0.0 7999.0 181291.0 183256.0 147082.0 146117.0 59318.0 53959.0 137397.0 140746.0 200594.0 197240.0 106286.0 104356.0 209110.0 216888.0 166562.0 169002.0 209956.0 216249.0 113730.0 113724.0 174037.0 173414.0 123513.0 125754.0 99004.0 99716.0 198399.0 197283.0 180629.0 177391.0 157230.0 149175.0 60205.0 53543.0 185014.0 187932.0 159001.0 151430.0 114216.0 120115.0 145324.0 152361.0 142487.0 135047.0 187248.0 194026.0 156070.0 162385.0 149120.0 151483.0 144108.0 150927.0 69686.0 69463.0 77610.0 70059.0 105849.0 112690.0 155646.0 148212.0 49998.0 45388.0 32491.0 40702.0 189256.0 189457.0 226890.0 223443.0 80640.0 85779.0 172460.0 165933.0 126583.0 130665.0 170512.0 162322.0 101887.0 96176.0 60221.0 58814.0 116115.0 112860.0 177750.0 171192.0 87137.0 79868.0 18774.0 12788.0 80048.0 84094.0 74900.0 82843.0 175075.0 179754.0 208657.0 200455.0 127331.0 119254.0 142055.0 140489.0 141435.0 137393.0 97539.0 91032.0 129502.0 125749.0 50224.0 42326.0 112741.0 120169.0 160498.0 85675.0 160498.0 160498.0 160498.0 160498.0 85675.0 85675.0 85675.0 85675.0
81023.0 78263.0 110693.0 103786.0 137161.0 129413.0 87580.0 93556.0 222055.0 221979.0 150314.0 157564.0 101074.0 93483.0 119644.0 127618.0 13601.0 20573.0 77185.0 77192.0 28058.0 23896.0 132272.0 140122.0 141731.0 134416.0 186731.0 185710.0 43174.0 50865.0 49858.0 57822.0 60060.0 68172.0 54854.0 61145.0 86185.0 94060.0 45894.0 50515.0 181322.0 174517.0 178887.0 172650.0 22698.0 29041.0 164849.0 163030.0 7999.0 0.0 175654.0 177370.0 140586.0 139902.0 61330.0 56800.0 134884.0 137817.0 193813.0 190627.0 98461.0 96680.0 202172.0 209926.0 160619.0 162815.0 217076.0 223451.0 106753.0 107060.0 168634.0 168292.0 129608.0 132151.0 92699.0 93025.0 192525.0 191644.0 174238.0 170809.0 149832.0 141738.0 52259.0 45547.0 192459.0 195266.0 151199.0 143608.0 106403.0 112226.0 152509.0 159455.0 150257.0 142856.0 194715.0 201554.0 150110.0 156268.0 142591.0 144709.0 136345.0 143112.0 72790.0 73388.0 69739.0 62154.0 97865.0 104736.0 147881.0 140409.0 52784.0 48027.0 24578.0 32721.0 182278.0 182318.0 234347.0 230988.0 74126.0 78922.0 165071.0 158453.0 119866.0 123721.0 163929.0 155748.0 94456.0 88943.0 56387.0 55874.0 123228.0 120196.0 185258.0 178768.0 94914.0 87712.0 23723.0 19504.0 84613.0 89168.0 66938.0 74871.0 171109.0 175526.0 216470.0 208263.0 119748.0 111682.0 149045.0 147689.0 133633.0 129695.0 90305.0 83989.0 122472.0 118515.0 46515.0 39069.0 104984.0 112460.0 155671.0 89876.0 155671.0 155671.0 155671.0 155671.0 89876.0 89876.0 89876.0 89876.0
99931.0 106597.0 94463.0 94450.0 56205.0 63145.0 105620.0 97684.0 339510.0 337570.0 289269.0 294041.0 159351.0 156517.0 147551.0 149460.0 166198.0 165346.0 191098.0 198537.0 153315.0 161216.0 123230.0 126218.0 252954.0 249766.0 62922.0 70293.0 150338.0 144958.0 126453.0 118916.0 137426.0 132161.0 121667.0 117013.0 122905.0 121540.0 130180.0 125150.0 77672.0 80247.0 131762.0 134217.0 154296.0 146805.0 13747.0 12650.0 181291.0 175654.0 0.0 8263.0 43629.0 39426.0 156639.0 163618.0 268903.0 266822.0 46900.0 38746.0 108466.0 102624.0 57925.0 63724.0 17643.0 21604.0 331298.0 338151.0 182879.0 190611.0 10047.0 17005.0 234676.0 240532.0 192192.0 184951.0 18763.0 15993.0 25547.0 32767.0 70138.0 73694.0 139038.0 146751.0 312526.0 312734.0 95830.0 97592.0 151229.0 146093.0 270705.0 275191.0 283969.0 279059.0 315148.0 323032.0 27175.0 24291.0 210917.0 205297.0 160709.0 158924.0 165374.0 173475.0 125360.0 131247.0 122891.0 116432.0 92730.0 96025.0 163755.0 163606.0 163085.0 156791.0 50999.0 58678.0 352437.0 351308.0 103052.0 100708.0 68903.0 73830.0 194738.0 190291.0 33792.0 36358.0 96681.0 96734.0 123600.0 127858.0 244634.0 246834.0 307383.0 303221.0 238759.0 235338.0 177320.0 182646.0 183940.0 191931.0 131944.0 129113.0 279729.0 279150.0 346104.0 338169.0 166073.0 164599.0 264068.0 266783.0 157097.0 162845.0 95694.0 98112.0 187256.0 179306.0 133103.0 141257.0 102081.0 96527.0 46895.0 183810.0 46895.0 46895.0 46895.0 46895.0 183810.0 183810.0 183810.0 183810.0
100011.0 106226.0 91512.0 92178.0 52699.0 60166.0 104275.0 96293.0 344160.0 342220.0 293916.0 298691.0 156170.0 153699.0 143385.0 144919.0 167462.0 166225.0 189390.0 196971.0 154218.0 162030.0 118312.0 120893.0 249968.0 247009.0 54819.0 62296.0 150323.0 144627.0 128671.0 121331.0 136741.0 131099.0 122929.0 117842.0 120867.0 118988.0 131631.0 126997.0 69918.0 72822.0 124766.0 127495.0 155661.0 148391.0 12542.0 15940.0 183256.0 177370.0 8263.0 0.0 41342.0 38652.0 161042.0 167844.0 266850.0 264532.0 38679.0 30547.0 105987.0 100573.0 49766.0 55721.0 16822.0 17482.0 335948.0 342800.0 179690.0 187536.0 17479.0 25009.0 239326.0 245182.0 189791.0 182416.0 15156.0 16421.0 17873.0 25480.0 64386.0 68604.0 138847.0 146707.0 317175.0 317384.0 89793.0 92028.0 147744.0 142293.0 275355.0 279840.0 288619.0 283684.0 319797.0 327682.0 27323.0 22261.0 206733.0 200901.0 155888.0 153780.0 170024.0 178124.0 124471.0 130672.0 120053.0 113257.0 86906.0 90681.0 167807.0 167449.0 163800.0 157215.0 42930.0 50684.0 357087.0 355958.0 103999.0 101047.0 61955.0 67344.0 191175.0 186478.0 27564.0 31558.0 95269.0 96016.0 126547.0 131146.0 249283.0 251483.0 312033.0 307870.0 243071.0 239436.0 180094.0 185163.0 188589.0 196581.0 130978.0 127682.0 276337.0 275540.0 350754.0 342819.0 162070.0 160953.0 268718.0 271433.0 152353.0 158349.0 94904.0 97963.0 183443.0 175536.0 135846.0 143946.0 99308.0 93327.0 53539.0 188460.0 53539.0 53539.0 53539.0 53539.0 188460.0 188460.0 188460.0 188460.0
60599.0 65963.0 50880.0 50930.0 14198.0 19750.0 63060.0 55075.0 320192.0 318251.0 267978.0 273373.0 115786.0 112887.0 104918.0 107473.0 129659.0 127594.0 148048.0 155635.0 115739.0 123297.0 82406.0 86596.0 209329.0 206145.0 54425.0 57625.0 110241.0 104155.0 94182.0 87741.0 95919.0 89989.0 85746.0 79686.0 79554.0 77935.0 94773.0 91378.0 59467.0 57447.0 100692.0 101108.0 118222.0 111612.0 29951.0 33059.0 147082.0 140586.0 43629.0 41342.0 0.0 8344.0 134453.0 140237.0 225570.0 223348.0 54450.0 50285.0 64873.0 59254.0 64256.0 72112.0 26005.0 24161.0 311980.0 318832.0 139306.0 147006.0 42429.0 47880.0 215358.0 221214.0 148656.0 141367.0 55603.0 57676.0 33789.0 30415.0 35870.0 35541.0 98582.0 106605.0 293207.0 293416.0 60461.0 59803.0 107835.0 102990.0 251387.0 255872.0 263627.0 258150.0 295829.0 303714.0 18377.0 19393.0 168127.0 162828.0 119249.0 118301.0 145624.0 153415.0 83506.0 89984.0 79265.0 72906.0 56453.0 57390.0 139408.0 138133.0 124862.0 117787.0 45780.0 49109.0 333119.0 331990.0 66468.0 62144.0 43578.0 43753.0 151347.0 147112.0 23574.0 15417.0 54043.0 55393.0 94742.0 100535.0 225135.0 226804.0 288065.0 283911.0 214651.0 210118.0 146442.0 150601.0 164620.0 172613.0 89936.0 86397.0 236205.0 235742.0 326732.0 318760.0 123150.0 121307.0 244750.0 247433.0 115485.0 120694.0 54205.0 58167.0 144081.0 136101.0 102976.0 110671.0 58454.0 53065.0 53939.0 164492.0 53939.0 53939.0 53939.0 53939.0 164492.0 164492.0 164492.0 164492.0
61406.0 67584.0 56473.0 55526.0 22113.0 26378.0 66194.0 58263.0 315280.0 313339.0 263890.0 269121.0 121185.0 117884.0 111412.0 114310.0 129496.0 127929.0 151696.0 159115.0 115961.0 123693.0 89768.0 94244.0 214335.0 210915.0 60509.0 64378.0 111676.0 105990.0 92305.0 85457.0 98204.0 92778.0 85127.0 79624.0 83679.0 82748.0 94011.0 89989.0 66916.0 65312.0 109030.0 109398.0 117836.0 110861.0 26362.0 27718.0 146117.0 139902.0 39426.0 38652.0 8344.0 0.0 130218.0 136291.0 229582.0 227614.0 57930.0 52789.0 69665.0 63464.0 68372.0 76137.0 22088.0 22919.0 307068.0 313920.0 144641.0 152200.0 36608.0 41240.0 210446.0 216302.0 153103.0 145976.0 53580.0 54486.0 34896.0 33364.0 44211.0 43742.0 100196.0 108058.0 288295.0 288504.0 68729.0 67873.0 113603.0 109120.0 246475.0 250960.0 259265.0 253953.0 290917.0 298802.0 12430.0 16574.0 174392.0 169304.0 126273.0 125602.0 140905.0 148801.0 86032.0 92090.0 84435.0 78541.0 64679.0 65362.0 135674.0 134655.0 125398.0 118671.0 50961.0 55152.0 328207.0 327078.0 65964.0 62546.0 51467.0 51995.0 157044.0 153074.0 26974.0 19598.0 57263.0 57467.0 91838.0 97267.0 220384.0 222305.0 283153.0 278990.0 211116.0 206825.0 144424.0 148947.0 159709.0 167701.0 92590.0 89688.0 241591.0 241341.0 321865.0 313938.0 129388.0 127187.0 239838.0 242553.0 122461.0 127418.0 56388.0 59316.0 150052.0 142053.0 100504.0 108389.0 63704.0 58961.0 45598.0 159580.0 45598.0 45598.0 45598.0 45598.0 159580.0 159580.0 159580.0 159580.0
90490.0 93725.0 127091.0 119017.0 137358.0 131703.0 106297.0 108174.0 188473.0 186570.0 133677.0 138937.0 145769.0 137969.0 158210.0 165900.0 66473.0 73564.0 134308.0 135924.0 70263.0 73616.0 160889.0 169027.0 202012.0 194925.0 188051.0 189721.0 86374.0 90999.0 51688.0 53248.0 96005.0 101617.0 67330.0 74940.0 115828.0 123411.0 61892.0 57607.0 188532.0 183563.0 204234.0 199783.0 61822.0 57251.0 149603.0 145159.0 59318.0 61330.0 156639.0 161042.0 134453.0 130218.0 0.0 8000.0 196200.0 199128.0 188147.0 182720.0 121137.0 115603.0 198496.0 206302.0 145992.0 150957.0 180298.0 187151.0 158018.0 160328.0 147536.0 144895.0 84639.0 90016.0 148205.0 146632.0 175277.0 171836.0 164241.0 163574.0 157177.0 150500.0 87949.0 86268.0 160844.0 161520.0 168180.0 161801.0 147675.0 151063.0 118816.0 123867.0 129176.0 123744.0 163425.0 171192.0 136469.0 144028.0 195754.0 196291.0 177072.0 182341.0 14452.0 20253.0 98609.0 93813.0 127969.0 131844.0 163971.0 158187.0 10588.0 14329.0 75984.0 79765.0 180204.0 182887.0 201390.0 199887.0 79332.0 87243.0 171191.0 166848.0 172441.0 174643.0 157150.0 149418.0 108618.0 100639.0 43716.0 36602.0 91318.0 92462.0 155254.0 150577.0 82126.0 78999.0 41911.0 49787.0 33140.0 40714.0 100056.0 107153.0 231704.0 235760.0 192902.0 184836.0 164360.0 156862.0 112702.0 114626.0 173608.0 171989.0 101758.0 93759.0 172779.0 167202.0 40692.0 38210.0 124851.0 130146.0 131325.0 34986.0 131325.0 131325.0 131325.0 131325.0 34986.0 34986.0 34986.0 34986.0
93948.0 96551.0 130416.0 122367.0 142558.0 136636.0 109014.0 111416.0 185021.0 183289.0 127748.0 133255.0 145505.0 137670.0 158985.0 166772.0 63333.0 70756.0 131558.0 132722.0 68731.0 71265.0 163058.0 171219.0 198286.0 191069.0 193469.0 194885.0 85395.0 90579.0 54165.0 56792.0 96287.0 102367.0 69511.0 77336.0 117351.0 125088.0 63244.0 59852.0 193368.0 188182.0 207086.0 202386.0 60056.0 56477.0 156269.0 152002.0 53959.0 56800.0 163618.0 167844.0 140237.0 136291.0 8000.0 0.0 191302.0 194482.0 194202.0 188944.0 123625.0 118462.0 204418.0 212247.0 152590.0 157358.0 177025.0 183878.0 156680.0 158595.0 154622.0 151979.0 82530.0 87349.0 145917.0 144759.0 182199.0 178924.0 170558.0 169652.0 161807.0 154927.0 88037.0 85626.0 156959.0 157964.0 171829.0 165262.0 147961.0 151741.0 114938.0 120347.0 123686.0 117987.0 159506.0 167178.0 142929.0 150421.0 194171.0 195046.0 177646.0 183173.0 16043.0 18629.0 99887.0 94605.0 129610.0 133922.0 167692.0 161669.0 4016.0 8801.0 73495.0 78030.0 185903.0 188352.0 197892.0 196107.0 82960.0 90747.0 176043.0 171436.0 170905.0 173452.0 163152.0 155331.0 111922.0 104075.0 47612.0 40772.0 86812.0 87365.0 151100.0 146140.0 75235.0 71755.0 35838.0 43570.0 31610.0 38453.0 100814.0 108173.0 227808.0 232075.0 188087.0 179969.0 164241.0 156601.0 109203.0 110605.0 174277.0 172289.0 105246.0 97264.0 171699.0 166397.0 43032.0 39083.0 127735.0 133359.0 138409.0 35028.0 138409.0 138409.0 138409.0 138409.0 35028.0 35028.0 35028.0 35028.0
173264.0 165209.0 175867.0 174672.0 214723.0 206871.0 163637.0 171451.0 323832.0 326304.0 241850.0 249890.0 114036.0 114500.0 134040.0 137266.0 132035.0 126678.0 78244.0 71500.0 135372.0 128581.0 162524.0 165527.0 34883.0 30104.0 248098.0 242796.0 127715.0 129911.0 169788.0 176781.0 134722.0 138194.0 162753.0 162774.0 146027.0 148080.0 158375.0 166263.0 234010.0 225906.0 195789.0 187674.0 140952.0 148817.0 255415.0 257246.0 137397.0 134884.0 268903.0 266850.0 225570.0 229582.0 196200.0 191302.0 0.0 8242.0 264790.0 265678.0 160950.0 166327.0 268280.0 274414.0 251309.0 249445.0 324789.0 329386.0 92305.0 84076.0 265703.0 268770.0 252875.0 252893.0 77528.0 85273.0 280552.0 283232.0 255783.0 249227.0 212165.0 204757.0 136224.0 130563.0 294950.0 300024.0 196134.0 189428.0 124006.0 131454.0 262741.0 270654.0 247138.0 239151.0 296530.0 301377.0 241989.0 244918.0 88535.0 96835.0 133436.0 140521.0 207083.0 206549.0 145371.0 141091.0 147533.0 155114.0 195823.0 188411.0 187316.0 182637.0 125923.0 126943.0 250212.0 246009.0 334145.0 328581.0 175212.0 173768.0 224395.0 216073.0 86988.0 94577.0 243374.0 236689.0 172426.0 173565.0 180850.0 183676.0 236799.0 230715.0 286709.0 278939.0 199675.0 191841.0 155956.0 148764.0 216227.0 219090.0 138742.0 140242.0 47928.0 55494.0 305284.0 297994.0 116675.0 113531.0 262412.0 258025.0 134643.0 126457.0 174405.0 174023.0 96924.0 102607.0 173097.0 168234.0 167896.0 174570.0 262112.0 222342.0 262112.0 262112.0 262112.0 262112.0 222342.0 222342.0 222342.0 222342.0
172342.0 164157.0 173251.0 172418.0 212178.0 204427.0 161966.0 169691.0 330333.0 332687.0 248500.0 256548.0 110436.0 111422.0 129659.0 132504.0 134199.0 128497.0 77190.0 71011.0 136664.0 130149.0 158238.0 160912.0 27010.0 23025.0 244250.0 238762.0 128060.0 129766.0 170805.0 177602.0 134036.0 137051.0 163086.0 162703.0 143940.0 145569.0 159122.0 167044.0 229826.0 221739.0 190251.0 182153.0 142631.0 150312.0 253260.0 255320.0 140746.0 137817.0 266822.0 264532.0 223348.0 227614.0 199128.0 194482.0 8242.0 0.0 261344.0 262466.0 158545.0 164201.0 264529.0 270528.0 249196.0 247084.0 330990.0 335693.0 88110.0 79848.0 263910.0 267199.0 257797.0 258021.0 74762.0 82289.0 278041.0 280939.0 253047.0 246356.0 208765.0 201500.0 136041.0 130758.0 301337.0 306314.0 192009.0 185458.0 120214.0 127455.0 268605.0 276493.0 253594.0 245590.0 302954.0 307909.0 240039.0 242729.0 81748.0 90113.0 128083.0 134995.0 210360.0 210119.0 144271.0 140370.0 144781.0 152164.0 191865.0 184577.0 190480.0 185762.0 127493.0 127966.0 246714.0 242310.0 340763.0 335284.0 174812.0 172999.0 220675.0 212359.0 81732.0 89142.0 240620.0 234094.0 170647.0 172164.0 182069.0 185186.0 242346.0 236408.0 293119.0 285382.0 205448.0 197569.0 159424.0 152400.0 220096.0 223203.0 137685.0 138722.0 40510.0 47852.0 312277.0 304932.0 111900.0 109215.0 268088.0 263864.0 129473.0 121302.0 172953.0 172946.0 91613.0 97658.0 174613.0 170065.0 165334.0 171804.0 261115.0 226086.0 261115.0 261115.0 261115.0 261115.0 226086.0 226086.0 226086.0 226086.0
112875.0 116770.0 91506.0 95397.0 56858.0 64910.0 110701.0 103169.0 372991.0 371051.0 321820.0 327037.0 150909.0 150375.0 133427.0 132826.0 182273.0 179455.0 190374.0 198452.0 167901.0 175098.0 105413.0 105410.0 243527.0 241764.0 21864.0 30056.0 160216.0 153350.0 148489.0 142167.0 144226.0 137152.0 139248.0 132667.0 122952.0 118697.0 148339.0 145448.0 39926.0 45991.0 98037.0 102620.0 171214.0 165059.0 43917.0 51110.0 200594.0 193813.0 46900.0 38679.0 54450.0 57930.0 188147.0 194202.0 264790.0 261344.0 0.0 8198.0 106977.0 104053.0 11410.0 18572.0 45902.0 38869.0 364779.0 371632.0 173630.0 181845.0 55855.0 63619.0 268157.0 274014.0 187414.0 179572.0 36719.0 44884.0 25501.0 24576.0 52628.0 60223.0 148416.0 156610.0 346007.0 346216.0 72126.0 77273.0 141237.0 134359.0 304186.0 308672.0 317158.0 311877.0 348629.0 356514.0 53170.0 45373.0 194821.0 187966.0 141802.0 137915.0 198704.0 206640.0 131641.0 138925.0 118278.0 110230.0 70998.0 77463.0 193531.0 192403.0 176403.0 168773.0 14718.0 20811.0 385918.0 384790.0 120070.0 114892.0 41511.0 49604.0 182884.0 176991.0 31077.0 39070.0 102144.0 105855.0 149171.0 154874.0 278113.0 280160.0 340864.0 336702.0 268911.0 264484.0 200733.0 204688.0 217421.0 225413.0 137474.0 132224.0 267505.0 265601.0 379468.0 371580.0 152283.0 153107.0 297549.0 300265.0 138833.0 146005.0 104532.0 110040.0 174034.0 166578.0 157417.0 165078.0 99426.0 91878.0 89757.0 217291.0 89757.0 89757.0 89757.0 89757.0 217291.0 217291.0 217291.0 217291.0
109992.0 114399.0 91053.0 94310.0 54618.0 62844.0 109125.0 101414.0 367176.0 365236.0 316377.0 321477.0 152133.0 151178.0 135572.0 135438.0 179391.0 176893.0 190431.0 198431.0 165199.0 172553.0 107998.0 108581.0 245305.0 243285.0 28184.0 36404.0 158269.0 151613.0 144436.0 137877.0 142697.0 135878.0 135861.0 129544.0 122410.0 118626.0 144921.0 141660.0 45825.0 51120.0 103749.0 107929.0 168137.0 161727.0 36469.0 43460.0 197240.0 190627.0 38746.0 30547.0 50285.0 52789.0 182720.0 188944.0 265678.0 262466.0 8198.0 0.0 106513.0 103023.0 19257.0 25729.0 38795.0 32259.0 358964.0 365816.0 175130.0 183297.0 47817.0 55527.0 262342.0 268198.0 188177.0 180406.0 28955.0 37008.0 18722.0 19874.0 53932.0 60967.0 146476.0 154644.0 340191.0 340400.0 75404.0 79937.0 142676.0 136067.0 298371.0 302856.0 311527.0 306364.0 342813.0 350698.0 46792.0 39022.0 197650.0 190995.0 144903.0 141388.0 192961.0 200948.0 130093.0 137201.0 118523.0 110669.0 73828.0 79766.0 188405.0 187436.0 173960.0 166517.0 18392.0 25889.0 380103.0 378974.0 116601.0 111829.0 44676.0 52346.0 184898.0 179241.0 26741.0 34934.0 100377.0 103518.0 144550.0 150051.0 272243.0 274459.0 335049.0 330886.0 263875.0 259613.0 196689.0 200887.0 211605.0 219597.0 136109.0 131233.0 269833.0 268160.0 373770.0 365835.0 154495.0 154901.0 291734.0 294449.0 141793.0 148744.0 102223.0 107290.0 176257.0 168674.0 153045.0 160825.0 99059.0 91746.0 82210.0 211476.0 82210.0 82210.0 82210.0 82210.0 211476.0 211476.0 211476.0 211476.0
33214.0 27684.0 15479.0 14166.0 53816.0 45921.0 15137.0 17193.0 308412.0 306863.0 244556.0 251196.0 51905.0 48227.0 47343.0 52937.0 85132.0 79981.0 84183.0 92070.0 70406.0 75774.0 40039.0 48084.0 144671.0 141320.0 94244.0 91339.0 57678.0 49934.0 69533.0 68435.0 40150.0 32112.0 54132.0 46294.0 15984.0 13089.0 61226.0 63774.0 85254.0 77810.0 83651.0 78762.0 76786.0 73979.0 94821.0 97323.0 106286.0 98461.0 108466.0 105987.0 64873.0 69665.0 121137.0 123625.0 160950.0 158545.0 106977.0 106513.0 0.0 7955.0 112688.0 119828.0 90823.0 88542.0 300591.0 307444.0 75176.0 82601.0 106261.0 110390.0 205757.0 210910.0 83809.0 76494.0 119603.0 122397.0 95068.0 88856.0 55965.0 47707.0 46691.0 54427.0 279928.0 281304.0 52756.0 45147.0 45399.0 42780.0 238070.0 243783.0 242721.0 235980.0 282419.0 289920.0 82059.0 84266.0 107098.0 103052.0 65687.0 68190.0 135284.0 141269.0 28814.0 36551.0 15185.0 12531.0 49569.0 41969.0 121068.0 117783.0 76242.0 67758.0 93135.0 90797.0 321228.0 319120.0 44032.0 36336.0 70662.0 62997.0 88125.0 84901.0 82730.0 75805.0 17561.0 24605.0 78140.0 85309.0 209276.0 208558.0 273670.0 268172.0 188654.0 182384.0 113402.0 114417.0 154267.0 161707.0 32901.0 26141.0 172065.0 172045.0 308756.0 300534.0 62792.0 59092.0 232675.0 233587.0 61695.0 64057.0 24225.0 30701.0 81942.0 73979.0 80646.0 85062.0 7607.0 15474.0 108311.0 155705.0 108311.0 108311.0 108311.0 108311.0 155705.0 155705.0 155705.0 155705.0
26231.0 21913.0 14063.0 8721.0 49219.0 41067.0 9620.0 9326.0 303452.0 301745.0 240888.0 247394.0 59077.0 54903.0 55298.0 60853.0 83632.0 79077.0 88880.0 96572.0 68787.0 74772.0 46666.0 54538.0 151107.0 147517.0 92722.0 90486.0 57615.0 50189.0 64304.0 62527.0 40648.0 33190.0 49307.0 41334.0 20301.0 19940.0 57024.0 58749.0 85159.0 78065.0 88653.0 84239.0 74489.0 70892.0 89094.0 91183.0 104356.0 96680.0 102624.0 100573.0 59254.0 63464.0 115603.0 118462.0 166327.0 164201.0 104053.0 103023.0 7955.0 0.0 110435.0 117779.0 85005.0 83232.0 295486.0 302339.0 82118.0 89356.0 99940.0 103764.0 200231.0 205559.0 89639.0 82540.0 114531.0 116929.0 90574.0 84746.0 54594.0 46290.0 46097.0 54165.0 275161.0 276370.0 55139.0 47877.0 53022.0 50671.0 233219.0 238784.0 238742.0 232131.0 277673.0 285238.0 75894.0 78591.0 114711.0 110804.0 73609.0 75989.0 129602.0 135814.0 28342.0 36038.0 22761.0 20384.0 51519.0 44449.0 116066.0 112972.0 75511.0 67217.0 90630.0 88940.0 316303.0 314349.0 37344.0 29453.0 69683.0 62458.0 95368.0 92386.0 78387.0 71115.0 9627.0 17012.0 72217.0 79411.0 204605.0 204149.0 269033.0 263677.0 185096.0 179024.0 110249.0 111778.0 148737.0 156281.0 33636.0 28213.0 178832.0 178998.0 304599.0 296389.0 70593.0 66675.0 227650.0 228790.0 69614.0 72009.0 16497.0 23458.0 89449.0 81515.0 75434.0 80371.0 9274.0 15878.0 100915.0 149917.0 100915.0 100915.0 100915.0 100915.0 149917.0 149917.0 149917.0 149917.0
121150.0 124515.0 97337.0 101913.0 65030.0 72786.0 117641.0 110349.0 383628.0 381688.0 332124.0 337429.0 154244.0 154267.0 135585.0 134318.0 190346.0 187203.0 195082.0 203238.0 175819.0 182837.0 107151.0 106276.0 245843.0 244439.0 20518.0 27458.0 167353.0 160278.0 157750.0 151650.0 150957.0 143625.0 147917.0 141102.0 128651.0 123858.0 157012.0 154477.0 37569.0 44850.0 94648.0 99948.0 179505.0 173615.0 55327.0 62510.0 209110.0 202172.0 57925.0 49766.0 64256.0 68372.0 198496.0 204418.0 268280.0 264529.0 11410.0 19257.0 112688.0 110435.0 0.0 7871.0 57273.0 50130.0 375416.0 382269.0 176502.0 184756.0 67073.0 74765.0 278794.0 284651.0 191228.0 183316.0 46195.0 54476.0 36858.0 35263.0 57056.0 65128.0 155583.0 163780.0 356644.0 356853.0 73291.0 79258.0 144328.0 137123.0 314823.0 319309.0 327607.0 322238.0 359266.0 367151.0 64297.0 56518.0 195734.0 188601.0 142516.0 138079.0 209277.0 217172.0 138442.0 145889.0 123054.0 114820.0 72858.0 79962.0 203644.0 202389.0 184032.0 176220.0 19976.0 22318.0 396555.0 395427.0 128874.0 123333.0 43887.0 52209.0 185014.0 178804.0 41398.0 49089.0 109345.0 113624.0 158922.0 164784.0 288745.0 290670.0 351501.0 347339.0 278906.0 274342.0 209908.0 213632.0 228058.0 236050.0 144048.0 138396.0 269001.0 266764.0 390186.0 382275.0 154249.0 155655.0 308186.0 310902.0 139774.0 147237.0 112279.0 118199.0 175898.0 168648.0 166945.0 174489.0 105084.0 97331.0 101167.0 227928.0 101167.0 101167.0 101167.0 101167.0 227928.0 227928.0 227928.0 227928.0
128910.0 132179.0 104544.0 109306.0 72816.0 80519.0 125126.0 117900.0 391357.0 389416.0 339942.0 345230.0 160415.0 160673.0 141259.0 139671.0 198050.0 194842.0 201772.0 209953.0 183496.0 190475.0 112713.0 111411.0 251443.0 250213.0 26335.0 32119.0 174854.0 167728.0 165612.0 159520.0 158359.0 150959.0 155725.0 148879.0 135763.0 130796.0 164820.0 162323.0 41865.0 49598.0 97329.0 103071.0 187251.0 181404.0 62179.0 69185.0 216888.0 209926.0 63724.0 55721.0 72112.0 76137.0 206302.0 212247.0 274414.0 270528.0 18572.0 25729.0 119828.0 117779.0 7871.0 0.0 64357.0 57431.0 383144.0 389997.0 182435.0 190696.0 73172.0 80696.0 286523.0 292379.0 197558.0 189625.0 50440.0 58687.0 44010.0 42921.0 63989.0 72160.0 163098.0 171291.0 364372.0 364581.0 78777.0 85078.0 150410.0 143073.0 322552.0 327037.0 335395.0 330045.0 366994.0 374879.0 71739.0 63944.0 200672.0 193400.0 147448.0 142727.0 217027.0 224935.0 145873.0 153358.0 129856.0 121571.0 78669.0 86004.0 211487.0 210245.0 191645.0 183794.0 27654.0 29070.0 404284.0 403155.0 136702.0 131117.0 50258.0 58542.0 190585.0 184229.0 49167.0 56916.0 116901.0 121299.0 166790.0 172644.0 296479.0 298441.0 359230.0 355067.0 286763.0 282208.0 217762.0 221465.0 235786.0 243778.0 151411.0 145645.0 274172.0 271762.0 397890.0 389988.0 159790.0 161470.0 315914.0 318630.0 144832.0 152426.0 119951.0 125942.0 181351.0 174214.0 174815.0 182357.0 112221.0 104419.0 107939.0 235656.0 107939.0 107939.0 107939.0 107939.0 235656.0 235656.0 235656.0 235656.0
83276.0 89629.0 76872.0 76810.0 38925.0 45608.0 88170.0 80213.0 329663.0 327723.0 279326.0 284191.0 141774.0 138886.0 130370.0 132527.0 150650.0 149404.0 173569.0 181049.0 137396.0 145211.0 106673.0 110089.0 235333.0 232127.0 56256.0 62449.0 133634.0 128035.0 112091.0 104840.0 120290.0 114838.0 106124.0 101020.0 105294.0 103898.0 114847.0 110298.0 68115.0 69153.0 118678.0 120421.0 138860.0 131623.0 4308.0 8458.0 166562.0 160619.0 17643.0 16822.0 26005.0 22088.0 145992.0 152590.0 251309.0 249196.0 45902.0 38795.0 90823.0 85005.0 57273.0 64357.0 0.0 8039.0 321451.0 328304.0 165298.0 173009.0 17818.0 24893.0 224829.0 230685.0 174554.0 167308.0 31958.0 32399.0 20418.0 24167.0 55050.0 57609.0 122206.0 130025.0 302679.0 302888.0 80908.0 81912.0 133737.0 128724.0 260858.0 265344.0 274116.0 269183.0 305301.0 313185.0 10515.0 6852.0 193699.0 188210.0 143987.0 142513.0 155523.0 163591.0 108113.0 114170.0 105269.0 98873.0 77480.0 80062.0 152381.0 151828.0 146988.0 140434.0 44634.0 51266.0 342590.0 341462.0 87178.0 84264.0 56489.0 60108.0 177253.0 172902.0 21669.0 20999.0 79203.0 79555.0 110330.0 115148.0 234787.0 236958.0 297536.0 293374.0 227808.0 223966.0 163717.0 168661.0 174093.0 182084.0 114664.0 111647.0 262179.0 261661.0 336257.0 328322.0 148786.0 147155.0 254221.0 256937.0 140314.0 145862.0 78475.0 81287.0 169868.0 161903.0 119497.0 127559.0 84458.0 78992.0 44275.0 173963.0 44275.0 44275.0 44275.0 44275.0 173963.0 173963.0 173963.0 173963.0
84011.0 89807.0 74030.0 74785.0 35239.0 42689.0 87221.0 79235.0 335094.0 333154.0 284520.0 289522.0 138707.0 136217.0 126212.0 127964.0 152398.0 150747.0 172096.0 179725.0 138799.0 146494.0 101640.0 104623.0 232492.0 229527.0 48248.0 54411.0 134053.0 128123.0 115006.0 108009.0 120006.0 114144.0 108046.0 102494.0 103511.0 101527.0 116927.0 112829.0 60166.0 61416.0 111535.0 113547.0 140752.0 133775.0 8891.0 15949.0 169002.0 162815.0 21604.0 17482.0 24161.0 22919.0 150957.0 157358.0 249445.0 247084.0 38869.0 32259.0 88542.0 83232.0 50130.0 57431.0 8039.0 0.0 326882.0 333735.0 162230.0 170065.0 24629.0 32199.0 230260.0 236116.0 172336.0 164947.0 31442.0 33902.0 13538.0 16208.0 48742.0 52092.0 122463.0 130423.0 308109.0 308318.0 74544.0 76061.0 130330.0 124966.0 266289.0 270775.0 279520.0 274450.0 310731.0 318616.0 14574.0 6940.0 189582.0 183866.0 139141.0 137320.0 160916.0 168935.0 107630.0 114024.0 102572.0 95787.0 71317.0 74442.0 156979.0 156222.0 148162.0 141312.0 36686.0 43236.0 348021.0 346892.0 88874.0 85291.0 49012.0 53097.0 173787.0 169166.0 13805.0 14763.0 78204.0 79378.0 114019.0 119156.0 240218.0 242412.0 302967.0 298805.0 232474.0 228431.0 166996.0 171663.0 179524.0 187515.0 114079.0 110544.0 258918.0 258174.0 341688.0 333753.0 144827.0 143583.0 259652.0 262367.0 135545.0 141368.0 78220.0 81770.0 166130.0 158207.0 122922.0 130887.0 81832.0 75855.0 52073.0 179394.0 52073.0 52073.0 52073.0 52073.0 179394.0 179394.0 179394.0 179394.0
270738.0 273574.0 307308.0 299241.0 316072.0 310854.0 286037.0 288341.0 18761.0 11333.0 86327.0 78936.0 317315.0 309548.0 333512.0 341446.0 229133.0 236944.0 291860.0 289787.0 239712.0 239245.0 339782.0 347949.0 345139.0 337129.0 366147.0 368311.0 256973.0 263481.0 231189.0 233482.0 270634.0 277543.0 246459.0 254328.0 293553.0 301433.0 239746.0 236842.0 367697.0 363065.0 384108.0 379346.0 231080.0 230159.0 324880.0 320022.0 209956.0 217076.0 331298.0 335948.0 311980.0 307068.0 180298.0 177025.0 324789.0 330990.0 364779.0 358964.0 300591.0 295486.0 375416.0 383144.0 321451.0 326882.0 0.0 8022.0 323680.0 323415.0 322179.0 319528.0 98138.0 91057.0 308141.0 309475.0 349978.0 346482.0 340323.0 340239.0 336741.0 330362.0 262182.0 258141.0 31693.0 25269.0 348478.0 342076.0 321407.0 326120.0 64683.0 57626.0 78747.0 86463.0 31096.0 30657.0 312314.0 320006.0 358460.0 361253.0 351507.0 357631.0 167031.0 160072.0 275913.0 269975.0 305889.0 310631.0 344264.0 338466.0 179525.0 182930.0 240689.0 247639.0 357711.0 360902.0 28460.0 32603.0 259615.0 267503.0 350298.0 346449.0 336316.0 340601.0 334027.0 326547.0 288817.0 280886.0 224007.0 216900.0 93851.0 97502.0 39872.0 47798.0 126844.0 134839.0 194528.0 197574.0 147591.0 139727.0 276028.0 283732.0 370649.0 377022.0 54703.0 53717.0 336169.0 328183.0 68247.0 69542.0 348413.0 345439.0 282022.0 274024.0 339457.0 335587.0 220057.0 215634.0 304759.0 310307.0 305958.0 149265.0 305958.0 305958.0 305958.0 305958.0 149265.0 149265.0 149265.0 149265.0
277591.0 280427.0 314161.0 306094.0 322925.0 317707.0 292889.0 295194.0 13501.0 5638.0 89458.0 81813.0 323904.0 316153.0 340330.0 348276.0 235638.0 243425.0 297836.0 295616.0 246415.0 245799.0 346555.0 354722.0 350269.0 342249.0 373000.0 375164.0 263660.0 270242.0 238042.0 240335.0 277499.0 284393.0 253312.0 261181.0 300388.0 308258.0 246598.0 243695.0 374550.0 369918.0 390961.0 386199.0 237814.0 236999.0 331733.0 326875.0 216249.0 223451.0 338151.0 342800.0 318832.0 313920.0 187151.0 183878.0 329386.0 335693.0 371632.0 365816.0 307444.0 302339.0 382269.0 389997.0 328304.0 333735.0 8022.0 0.0 329932.0 329538.0 329032.0 326381.0 104990.0 97910.0 314161.0 315627.0 356831.0 353335.0 347176.0 347092.0 343594.0 337215.0 269042.0 264886.0 34728.0 29390.0 355331.0 348929.0 328127.0 332929.0 70942.0 64184.0 82585.0 90459.0 33550.0 31136.0 319167.0 326859.0 364478.0 367384.0 358239.0 364424.0 173884.0 166925.0 282753.0 276828.0 312721.0 317484.0 351117.0 345319.0 186377.0 189783.0 247199.0 254242.0 364564.0 367755.0 20951.0 26016.0 266468.0 274355.0 357151.0 353302.0 342445.0 346829.0 340880.0 333400.0 295670.0 287739.0 230860.0 223753.0 100265.0 103529.0 43059.0 51003.0 132327.0 140309.0 201076.0 203947.0 154443.0 146580.0 282879.0 290585.0 375496.0 381954.0 51147.0 51322.0 342742.0 334739.0 75015.0 75764.0 355177.0 352108.0 288875.0 280876.0 345727.0 341959.0 226910.0 222487.0 311612.0 317159.0 312811.0 156118.0 312811.0 312811.0 312811.0 312811.0 156118.0 156118.0 156118.0 156118.0
97782.0 89254.0 88426.0 89327.0 126993.0 119743.0 82809.0 89521.0 328029.0 328286.0 252834.0 260519.0 23531.0 27405.0 41764.0 45604.0 95504.0 87621.0 35972.0 42191.0 87951.0 86093.0 70221.0 73408.0 70413.0 68160.0 156177.0 150652.0 71699.0 68010.0 113255.0 117387.0 66125.0 64507.0 100042.0 96044.0 63304.0 62234.0 100550.0 107708.0 141754.0 133658.0 106259.0 98182.0 96635.0 100798.0 169143.0 172156.0 113730.0 106753.0 182879.0 179690.0 139306.0 144641.0 158018.0 156680.0 92305.0 88110.0 173630.0 175130.0 75176.0 82118.0 176502.0 182435.0 165298.0 162230.0 323680.0 329932.0 0.0 8262.0 181242.0 185544.0 235658.0 238631.0 21210.0 15586.0 192449.0 196077.0 166896.0 159860.0 121229.0 114274.0 72511.0 72166.0 298308.0 301466.0 103910.0 97358.0 32456.0 39380.0 259030.0 266091.0 254283.0 246542.0 300475.0 307034.0 156964.0 158588.0 38017.0 38385.0 44697.0 52560.0 172024.0 175145.0 71050.0 71010.0 60214.0 66464.0 103766.0 96543.0 152954.0 148375.0 84209.0 78702.0 158947.0 154332.0 340102.0 336334.0 104144.0 99553.0 132698.0 124395.0 14913.0 16982.0 154491.0 148517.0 90315.0 94191.0 125155.0 130780.0 229844.0 226452.0 290859.0 284050.0 199364.0 191670.0 129947.0 126207.0 187699.0 193451.0 65784.0 62789.0 96950.0 96889.0 319626.0 311534.0 25560.0 21249.0 255761.0 254189.0 44722.0 36865.0 94591.0 97198.0 15831.0 14420.0 121511.0 120796.0 80952.0 86394.0 182844.0 191700.0 182844.0 182844.0 182844.0 182844.0 191700.0 191700.0 191700.0 191700.0
103915.0 95362.0 96150.0 96767.0 134840.0 127507.0 89557.0 96483.0 327300.0 327758.0 251181.0 258938.0 31411.0 34453.0 49967.0 53570.0 96469.0 88638.0 32794.0 37821.0 90067.0 87498.0 78462.0 81548.0 62447.0 59992.0 164436.0 158914.0 74466.0 71544.0 117099.0 121648.0 70670.0 69848.0 104473.0 100953.0 70138.0 69576.0 104345.0 111721.0 150008.0 141913.0 113847.0 105747.0 98600.0 103335.0 176886.0 179777.0 113724.0 107060.0 190611.0 187536.0 147006.0 152200.0 160328.0 158595.0 84076.0 79848.0 181845.0 183297.0 82601.0 89356.0 184756.0 190696.0 173009.0 170065.0 323415.0 329538.0 8262.0 0.0 188808.0 192985.0 236491.0 239201.0 16551.0 14039.0 200399.0 203936.0 174906.0 167913.0 129412.0 122410.0 76475.0 75308.0 297547.0 300890.0 112168.0 105619.0 40628.0 47635.0 258732.0 265907.0 252978.0 245171.0 299670.0 306101.0 164555.0 166324.0 35672.0 37848.0 51828.0 59574.0 174148.0 176920.0 76638.0 75925.0 67784.0 74279.0 112027.0 104795.0 154796.0 150148.0 85445.0 80613.0 167168.0 162579.0 339254.0 335314.0 109747.0 105531.0 140944.0 132639.0 12910.0 18567.0 162492.0 156438.0 97308.0 100830.0 129063.0 134425.0 229674.0 226009.0 289997.0 283073.0 198346.0 190568.0 130545.0 126365.0 189294.0 194806.0 71036.0 68724.0 89483.0 89758.0 317968.0 309918.0 33244.0 29455.0 255716.0 253876.0 52174.0 44151.0 101294.0 103510.0 18776.0 20534.0 124874.0 123651.0 88579.0 94210.0 189830.0 193544.0 189830.0 189830.0 189830.0 189830.0 193544.0 193544.0 193544.0 193544.0
94831.0 101939.0 92975.0 92111.0 56080.0 62164.0 102072.0 94257.0 330391.0 328451.0 280150.0 284922.0 157774.0 154485.0 147339.0 149768.0 159618.0 159142.0 187618.0 194874.0 147117.0 155087.0 124204.0 127786.0 250925.0 247450.0 70345.0 77313.0 145088.0 140063.0 119100.0 111416.0 132948.0 128130.0 115228.0 111025.0 120064.0 119339.0 123525.0 118140.0 83978.0 85778.0 136157.0 138081.0 147649.0 139970.0 15748.0 9548.0 174037.0 168634.0 10047.0 17479.0 42429.0 36608.0 147536.0 154622.0 265703.0 263910.0 55855.0 47817.0 106261.0 99940.0 67073.0 73172.0 17818.0 24629.0 322179.0 329032.0 181242.0 188808.0 0.0 7995.0 225557.0 231413.0 189539.0 182480.0 28514.0 24303.0 32612.0 38864.0 72853.0 75370.0 134015.0 141542.0 303406.0 303615.0 98712.0 99711.0 150081.0 145385.0 261586.0 266072.0 274850.0 269940.0 306028.0 313913.0 24300.0 24466.0 210553.0 205243.0 161384.0 160085.0 156255.0 164355.0 121168.0 126675.0 121040.0 115052.0 95298.0 97822.0 154874.0 154871.0 157049.0 151065.0 58400.0 65773.0 343318.0 342189.0 97024.0 95326.0 73610.0 77671.0 193562.0 189463.0 38250.0 38749.0 93287.0 92541.0 115629.0 119599.0 235515.0 237714.0 298264.0 294102.0 229658.0 226375.0 169382.0 174914.0 174821.0 182812.0 127804.0 125520.0 278191.0 277901.0 336985.0 329050.0 165570.0 163616.0 254949.0 257664.0 157670.0 163041.0 91591.0 93274.0 186435.0 178445.0 125275.0 133454.0 100295.0 95339.0 36893.0 174691.0 36893.0 36893.0 36893.0 36893.0 174691.0 174691.0 174691.0 174691.0
96728.0 104184.0 97654.0 96226.0 61878.0 67413.0 105235.0 97560.0 327740.0 325800.0 277499.0 282271.0 162162.0 158571.0 152607.0 155331.0 159784.0 159702.0 190563.0 197661.0 147717.0 155735.0 130183.0 134054.0 254870.0 251195.0 78341.0 85293.0 146617.0 141932.0 118517.0 110686.0 135206.0 130782.0 115692.0 111976.0 123676.0 123413.0 123722.0 117962.0 91881.0 93542.0 143559.0 145302.0 147773.0 139910.0 23411.0 16438.0 173414.0 168292.0 17005.0 25009.0 47880.0 41240.0 144895.0 151979.0 268770.0 267199.0 63619.0 55527.0 110390.0 103764.0 74765.0 80696.0 24893.0 32199.0 319528.0 326381.0 185544.0 192985.0 7995.0 0.0 222906.0 228762.0 193110.0 186197.0 34156.0 28492.0 40607.0 46807.0 79801.0 81873.0 135790.0 143121.0 300755.0 300964.0 105632.0 106309.0 154767.0 150359.0 258935.0 263421.0 272199.0 267289.0 303378.0 311262.0 29503.0 31170.0 215632.0 210514.0 167127.0 166089.0 153604.0 161704.0 123714.0 128876.0 125348.0 119695.0 102101.0 104281.0 152289.0 152402.0 157785.0 152125.0 66395.0 73761.0 340667.0 339538.0 98015.0 96958.0 81202.0 84998.0 198152.0 194280.0 45942.0 45873.0 96623.0 95244.0 114275.0 117834.0 232864.0 235064.0 295613.0 291451.0 227021.0 223734.0 167923.0 173709.0 172170.0 180161.0 130367.0 128536.0 282454.0 282358.0 334334.0 326399.0 170628.0 168379.0 252298.0 255013.0 163364.0 168516.0 94375.0 95418.0 191261.0 183260.0 124074.0 132259.0 104738.0 100194.0 31861.0 172040.0 31861.0 31861.0 31861.0 31861.0 172040.0 172040.0 172040.0 172040.0
174932.0 178362.0 211534.0 203459.0 219450.0 214279.0 190936.0 192692.0 106350.0 104410.0 75191.0 76170.0 226693.0 218853.0 241253.0 249092.0 140161.0 148040.0 206671.0 206034.0 148891.0 149675.0 245421.0 253571.0 267273.0 259495.0 269526.0 271689.0 166082.0 171980.0 136246.0 137782.0 178360.0 184722.0 151806.0 159509.0 199880.0 207605.0 145771.0 142094.0 271075.0 266457.0 288839.0 284421.0 140106.0 137987.0 228258.0 223401.0 123513.0 129608.0 234676.0 239326.0 215358.0 210446.0 84639.0 82530.0 252875.0 257797.0 268157.0 262342.0 205757.0 200231.0 278794.0 286523.0 224829.0 230260.0 98138.0 104990.0 235658.0 236491.0 225557.0 222906.0 0.0 8101.0 222307.0 222456.0 253357.0 249860.0 243701.0 243617.0 240124.0 233752.0 169995.0 166800.0 80262.0 79626.0 252268.0 246087.0 229835.0 233953.0 40827.0 42998.0 65726.0 65027.0 82938.0 90970.0 215692.0 223384.0 272107.0 273911.0 259729.0 265450.0 70707.0 64494.0 182407.0 176998.0 212133.0 216321.0 247984.0 242462.0 85536.0 89488.0 151470.0 157533.0 261089.0 264280.0 119290.0 118287.0 163707.0 171667.0 253754.0 249830.0 249209.0 252627.0 237406.0 229925.0 193105.0 185067.0 128155.0 120973.0 28991.0 37007.0 76416.0 73948.0 61164.0 67063.0 105975.0 110725.0 51499.0 44114.0 183176.0 190630.0 295181.0 300610.0 117041.0 109680.0 245552.0 237736.0 32708.0 38419.0 256445.0 254109.0 186149.0 178163.0 251154.0 246497.0 125169.0 121612.0 209472.0 214649.0 209336.0 50865.0 209336.0 209336.0 209336.0 209336.0 50865.0 50865.0 50865.0 50865.0
180492.0 183657.0 217098.0 209023.0 225307.0 220135.0 196192.0 198190.0 99269.0 97329.0 67449.0 68209.0 230361.0 222534.0 245473.0 253353.0 143167.0 151053.0 208925.0 207978.0 152493.0 152887.0 250407.0 258568.0 268271.0 260436.0 275382.0 277545.0 169744.0 175858.0 141382.0 143263.0 182528.0 189081.0 156837.0 164619.0 204571.0 212361.0 150517.0 147153.0 276932.0 272313.0 294210.0 289649.0 143739.0 142035.0 234114.0 229257.0 125754.0 132151.0 240532.0 245182.0 221214.0 216302.0 90016.0 87349.0 252893.0 258021.0 274014.0 268198.0 210910.0 205559.0 284651.0 292379.0 230685.0 236116.0 91057.0 97910.0 238631.0 239201.0 231413.0 228762.0 8101.0 0.0 224740.0 225163.0 259213.0 255716.0 249557.0 249474.0 245980.0 239580.0 174119.0 170614.0 72997.0 72546.0 258051.0 251763.0 233807.0 238135.0 32890.0 35545.0 57816.0 57412.0 75664.0 83676.0 221548.0 229241.0 274741.0 276773.0 263794.0 269658.0 76406.0 69769.0 187017.0 181405.0 216865.0 221270.0 253800.0 248144.0 90144.0 93881.0 154584.0 160928.0 266945.0 270136.0 112209.0 111207.0 169307.0 177238.0 259610.0 255687.0 251982.0 255612.0 243262.0 235781.0 198632.0 190639.0 133698.0 126545.0 22901.0 31176.0 68834.0 66108.0 57972.0 64480.0 108701.0 112995.0 57003.0 49302.0 187545.0 195099.0 295847.0 301436.0 109278.0 101845.0 249239.0 241364.0 24935.0 30346.0 260573.0 258024.0 191747.0 183750.0 254219.0 249758.0 130264.0 126335.0 214819.0 220162.0 215192.0 57106.0 215192.0 215192.0 215192.0 215192.0 57106.0 57106.0 57106.0 57106.0
100238.0 91771.0 98495.0 97745.0 137417.0 129669.0 88060.0 95582.0 311682.0 312281.0 235054.0 242843.0 37521.0 37039.0 59863.0 64956.0 82959.0 75283.0 16497.0 21327.0 78242.0 74677.0 87257.0 91519.0 62672.0 58248.0 171224.0 166278.0 64030.0 62607.0 107881.0 113204.0 63858.0 64930.0 96609.0 94201.0 69479.0 70812.0 95195.0 102898.0 157865.0 149754.0 126212.0 118208.0 86430.0 91985.0 178590.0 180821.0 99004.0 92699.0 192192.0 189791.0 148656.0 153103.0 148205.0 145917.0 77528.0 74762.0 187414.0 188177.0 83809.0 89639.0 191228.0 197558.0 174554.0 172336.0 308141.0 314161.0 21210.0 16551.0 189539.0 193110.0 222307.0 224740.0 0.0 7971.0 203280.0 206204.0 178340.0 171725.0 134791.0 127294.0 68238.0 65520.0 281920.0 285391.0 120032.0 112985.0 47826.0 55781.0 243469.0 250731.0 237032.0 229192.0 284012.0 290356.0 165532.0 168045.0 50320.0 53651.0 65542.0 73460.0 161700.0 163985.0 72108.0 69772.0 70060.0 77587.0 119321.0 111684.0 142036.0 137316.0 72422.0 68639.0 172890.0 168917.0 323553.0 319505.0 104535.0 101388.0 147366.0 139052.0 29028.0 35117.0 165920.0 159341.0 96505.0 98749.0 119845.0 124664.0 214541.0 210660.0 274305.0 267309.0 182610.0 174784.0 116370.0 111747.0 176092.0 181291.0 65852.0 65403.0 91924.0 93633.0 301820.0 293792.0 45986.0 40146.0 240665.0 238605.0 65220.0 57626.0 99417.0 100364.0 35191.0 35575.0 114685.0 112606.0 90572.0 97097.0 188170.0 180652.0 188170.0 188170.0 188170.0 188170.0 180652.0 180652.0 180652.0 180652.0
94310.0 85787.0 91005.0 90515.0 129943.0 122261.0 81409.0 88793.0 313479.0 313880.0 237730.0 245451.0 29556.0 29228.0 52068.0 57375.0 82463.0 74644.0 20413.0 27019.0 76383.0 73582.0 79316.0 83659.0 68927.0 64998.0 163290.0 158320.0 61182.0 58856.0 104429.0 109347.0 59033.0 59306.0 92422.0 89480.0 62525.0 63443.0 91679.0 99221.0 149896.0 141784.0 118693.0 110723.0 84839.0 89815.0 171315.0 173686.0 99716.0 93025.0 184951.0 182416.0 141367.0 145976.0 146632.0 144759.0 85273.0 82289.0 179572.0 180406.0 76494.0 82540.0 183316.0 189625.0 167308.0 164947.0 309475.0 315627.0 15586.0 14039.0 182480.0 186197.0 222456.0 225163.0 7971.0 0.0 195800.0 198835.0 170758.0 164083.0 126944.0 119490.0 64138.0 62276.0 283734.0 287023.0 112062.0 105019.0 39868.0 47847.0 244795.0 251948.0 239363.0 231584.0 285871.0 292346.0 158400.0 160759.0 49677.0 51785.0 58631.0 66570.0 160373.0 163036.0 66378.0 64686.0 62503.0 69901.0 111358.0 103730.0 140941.0 136275.0 71493.0 66869.0 165030.0 161009.0 325472.0 321592.0 99189.0 95628.0 139446.0 131131.0 26868.0 31551.0 158332.0 151832.0 89692.0 92301.0 116413.0 121545.0 215709.0 212101.0 276216.0 269331.0 184607.0 176859.0 116507.0 112342.0 175363.0 180827.0 60338.0 59203.0 97651.0 98877.0 304526.0 296454.0 38931.0 32651.0 241732.0 239941.0 58067.0 50687.0 92910.0 94257.0 30990.0 29860.0 111805.0 110262.0 83126.0 89516.0 181724.0 179673.0 181724.0 181724.0 181724.0 181724.0 179673.0 179673.0 179673.0 179673.0
114985.0 121052.0 104796.0 106012.0 65863.0 73686.0 118662.0 110677.0 358191.0 356250.0 307950.0 312722.0 168988.0 166880.0 155090.0 156101.0 182608.0 181330.0 203411.0 211081.0 169329.0 177125.0 129057.0 130943.0 262840.0 260112.0 56786.0 64892.0 165227.0 159424.0 143778.0 136403.0 151401.0 145585.0 138079.0 132953.0 134772.0 132497.0 146787.0 142143.0 73793.0 78121.0 130889.0 134411.0 170813.0 163547.0 27693.0 30325.0 198399.0 192525.0 18763.0 15156.0 55603.0 53580.0 175277.0 182199.0 280552.0 278041.0 36719.0 28955.0 119603.0 114531.0 46195.0 50440.0 31958.0 31442.0 349978.0 356831.0 192449.0 200399.0 28514.0 34156.0 253357.0 259213.0 203280.0 195800.0 0.0 8285.0 26044.0 33769.0 74315.0 79578.0 153700.0 161604.0 331206.0 331415.0 98742.0 101889.0 160259.0 154462.0 289386.0 293871.0 302650.0 297740.0 333828.0 341713.0 42468.0 37042.0 218249.0 212133.0 166606.0 163979.0 184055.0 192155.0 139052.0 145387.0 133309.0 126220.0 96329.0 100947.0 182271.0 182031.0 178879.0 172236.0 45809.0 53745.0 371118.0 369989.0 119129.0 116083.0 69149.0 75643.0 203500.0 198513.0 38165.0 43996.0 109645.0 110726.0 141490.0 145972.0 263314.0 265514.0 326064.0 321901.0 257380.0 253883.0 195101.0 200230.0 202620.0 210612.0 145513.0 141968.0 288749.0 287697.0 364784.0 356850.0 173926.0 173249.0 282748.0 285464.0 163205.0 169549.0 109586.0 112875.0 195485.0 187650.0 150850.0 158966.0 112709.0 106368.0 65346.0 202490.0 65346.0 65346.0 65346.0 65346.0 202490.0 202490.0 202490.0 202490.0
115532.0 122004.0 107931.0 108563.0 69097.0 76587.0 120459.0 112486.0 354694.0 352754.0 304453.0 309225.0 172562.0 170119.0 159523.0 160879.0 182146.0 181224.0 205701.0 213249.0 169196.0 177079.0 134079.0 136349.0 266372.0 263429.0 64557.0 72585.0 165928.0 160405.0 142438.0 134887.0 152689.0 147200.0 137607.0 132864.0 137228.0 135404.0 146146.0 141141.0 81253.0 85237.0 137877.0 141147.0 170256.0 162785.0 28131.0 28618.0 197283.0 191644.0 15993.0 16421.0 57676.0 54486.0 171836.0 178924.0 283232.0 280939.0 44884.0 37008.0 122397.0 116929.0 54476.0 58687.0 32399.0 33902.0 346482.0 353335.0 196077.0 203936.0 24303.0 28492.0 249860.0 255716.0 206204.0 198835.0 8285.0 0.0 31558.0 39479.0 79676.0 84393.0 154548.0 162327.0 327709.0 327918.0 104629.0 107353.0 164087.0 158560.0 285889.0 290374.0 299153.0 294243.0 330331.0 338216.0 42582.0 38419.0 222831.0 216901.0 171670.0 169332.0 180558.0 188658.0 140501.0 146566.0 136473.0 129658.0 101994.0 106200.0 179165.0 179130.0 178924.0 172543.0 53323.0 61284.0 367621.0 366492.0 118924.0 116406.0 75633.0 81739.0 207489.0 202724.0 42937.0 47742.0 111468.0 111953.0 139481.0 143640.0 259818.0 262017.0 322567.0 318405.0 253956.0 250677.0 193219.0 198592.0 199124.0 207115.0 147042.0 143905.0 292678.0 291828.0 361288.0 353353.0 178260.0 177255.0 279252.0 281967.0 168188.0 174322.0 110871.0 113615.0 199689.0 191799.0 149022.0 157183.0 115730.0 109731.0 60282.0 198994.0 60282.0 60282.0 60282.0 60282.0 198994.0 198994.0 198994.0 198994.0
94372.0 99517.0 79936.0 81908.0 41364.0 49518.0 95612.0 87696.0 348535.0 346595.0 297859.0 302907.0 143503.0 141689.0 129129.0 130065.0 163427.0 161379.0 179213.0 187027.0 149529.0 157078.0 103015.0 104983.0 237309.0 234750.0 37740.0 44860.0 143751.0 137465.0 127140.0 120347.0 128946.0 122612.0 119385.0 113448.0 110594.0 107758.0 128371.0 124669.0 52132.0 54954.0 107044.0 109961.0 151947.0 145227.0 18777.0 26267.0 180629.0 174238.0 25547.0 17873.0 33789.0 34896.0 164241.0 170558.0 255783.0 253047.0 25501.0 18722.0 95068.0 90574.0 36858.0 44010.0 20418.0 13538.0 340323.0 347176.0 166896.0 174906.0 32612.0 40607.0 243701.0 249557.0 178340.0 170758.0 26044.0 31558.0 0.0 7927.0 48315.0 53560.0 132032.0 140113.0 321550.0 321759.0 73074.0 75943.0 134599.0 128646.0 279730.0 284216.0 292930.0 287816.0 324172.0 332057.0 28077.0 20325.0 192234.0 186094.0 140571.0 138008.0 174340.0 182344.0 116410.0 123169.0 108280.0 100942.0 70489.0 74932.0 170102.0 169242.0 158627.0 151488.0 25791.0 33265.0 361462.0 360333.0 100117.0 95932.0 44359.0 50205.0 177709.0 172619.0 12431.0 19535.0 86653.0 88803.0 126688.0 132007.0 253659.0 255840.0 316408.0 312246.0 245596.0 241451.0 179301.0 183752.0 192965.0 200956.0 122685.0 118506.0 262959.0 261813.0 355129.0 347194.0 147992.0 147468.0 273093.0 275808.0 137163.0 143512.0 87568.0 91891.0 169593.0 161787.0 135400.0 143283.0 87935.0 81246.0 64505.0 192835.0 64505.0 64505.0 64505.0 64505.0 192835.0 192835.0 192835.0 192835.0
90310.0 94962.0 73562.0 76036.0 35664.0 43924.0 90286.0 82457.0 348451.0 346511.0 297249.0 302461.0 136537.0 134941.0 121702.0 122477.0 159658.0 157285.0 173036.0 180921.0 145540.0 152956.0 95343.0 97178.0 230262.0 227826.0 32115.0 38598.0 139022.0 132525.0 124583.0 118069.0 123789.0 117209.0 116018.0 109762.0 104554.0 101373.0 125072.0 121786.0 45155.0 47480.0 99290.0 102108.0 148350.0 141887.0 23799.0 31391.0 177391.0 170809.0 32767.0 25480.0 30415.0 33364.0 163574.0 169652.0 249227.0 246356.0 24576.0 19874.0 88856.0 84746.0 35263.0 42921.0 24167.0 16208.0 340239.0 347092.0 159860.0 167913.0 38864.0 46807.0 243617.0 249474.0 171725.0 164083.0 33769.0 39479.0 7927.0 0.0 40552.0 46082.0 127251.0 135389.0 321467.0 321676.0 65163.0 68126.0 127494.0 121396.0 279646.0 284132.0 292584.0 287302.0 324089.0 331973.0 29373.0 21744.0 184699.0 178486.0 132867.0 130212.0 174146.0 182074.0 111203.0 118152.0 101697.0 94191.0 62618.0 67189.0 169011.0 167935.0 154410.0 147071.0 20478.0 27215.0 361378.0 360250.0 96752.0 92079.0 36518.0 42278.0 170462.0 165263.0 6880.0 15070.0 81414.0 84128.0 124857.0 130458.0 253575.0 255592.0 316324.0 312162.0 244425.0 240062.0 176840.0 181015.0 192881.0 200872.0 117358.0 112852.0 255693.0 254451.0 354969.0 347070.0 140595.0 140243.0 273009.0 275725.0 129490.0 135919.0 82855.0 87668.0 162243.0 154470.0 133264.0 141013.0 81589.0 74670.0 68264.0 192751.0 68264.0 68264.0 68264.0 68264.0 192751.0 192751.0 192751.0 192751.0
70389.0 71658.0 40899.0 46520.0 23734.0 26252.0 62762.0 56291.0 344912.0 343013.0 288443.0 294430.0 98345.0 97753.0 81794.0 82123.0 137235.0 133227.0 138092.0 146229.0 122427.0 128881.0 54856.0 56682.0 191373.0 189388.0 38285.0 35992.0 112185.0 104781.0 110178.0 105586.0 95202.0 87539.0 97776.0 90196.0 71841.0 66820.0 106632.0 105802.0 31951.0 26387.0 64939.0 65821.0 127224.0 122387.0 57462.0 63468.0 157230.0 149832.0 70138.0 64386.0 35870.0 44211.0 157177.0 161807.0 212165.0 208765.0 52628.0 53932.0 55965.0 54594.0 57056.0 63989.0 55050.0 48742.0 336741.0 343594.0 121229.0 129412.0 72853.0 79801.0 240124.0 245980.0 134791.0 126944.0 74315.0 79676.0 48315.0 40552.0 0.0 8311.0 100588.0 108707.0 317839.0 318181.0 25859.0 27681.0 88784.0 82135.0 275867.0 280610.0 285172.0 279102.0 320441.0 328262.0 51870.0 48634.0 144407.0 138058.0 92330.0 89695.0 169806.0 177095.0 82931.0 90597.0 66016.0 57825.0 22592.0 26639.0 160239.0 158075.0 129788.0 121626.0 38122.0 34918.0 357864.0 356733.0 80131.0 73172.0 15243.0 9712.0 131011.0 125471.0 36852.0 34136.0 55380.0 61281.0 114292.0 121035.0 248452.0 249163.0 312399.0 307747.0 233467.0 228064.0 160723.0 163354.0 189216.0 197149.0 88106.0 81968.0 216053.0 214544.0 349891.0 341776.0 100730.0 100974.0 269469.0 271751.0 88983.0 95539.0 59926.0 67110.0 122472.0 114829.0 120591.0 127237.0 48370.0 40506.0 89809.0 189257.0 89809.0 89809.0 89809.0 89809.0 189257.0 189257.0 189257.0 189257.0
62739.0 63659.0 32592.0 38263.0 21804.0 21648.0 54526.0 48182.0 338563.0 336634.0 281191.0 287255.0 91183.0 90267.0 75620.0 76541.0 129077.0 124998.0 130214.0 138323.0 114257.0 120656.0 49713.0 52549.0 184577.0 182400.0 46574.0 44242.0 103890.0 96475.0 102791.0 98459.0 86892.0 79230.0 90063.0 82403.0 63613.0 58744.0 98851.0 98270.0 39712.0 33525.0 65921.0 65777.0 119161.0 114454.0 60482.0 65845.0 149175.0 141738.0 73694.0 68604.0 35541.0 43742.0 150500.0 154927.0 204757.0 201500.0 60223.0 60967.0 47707.0 46290.0 65128.0 72160.0 57609.0 52092.0 330362.0 337215.0 114274.0 122410.0 75370.0 81873.0 233752.0 239580.0 127294.0 119490.0 79578.0 84393.0 53560.0 46082.0 8311.0 0.0 92306.0 100418.0 311295.0 311760.0 25081.0 24465.0 81825.0 75463.0 269289.0 274151.0 278075.0 271925.0 313887.0 321678.0 52973.0 50905.0 138675.0 132578.0 87299.0 85248.0 163347.0 170522.0 74630.0 82303.0 58104.0 50010.0 20944.0 22454.0 153252.0 150968.0 121542.0 113359.0 45908.0 43104.0 351509.0 350259.0 72750.0 65604.0 23447.0 16888.0 124495.0 119200.0 41508.0 37338.0 47290.0 53425.0 107335.0 114174.0 241676.0 242229.0 305754.0 300998.0 226062.0 220564.0 152968.0 155466.0 182781.0 190683.0 79795.0 73675.0 209685.0 208380.0 342996.0 334862.0 94518.0 94326.0 262998.0 265124.0 83797.0 89990.0 52079.0 59430.0 116183.0 108437.0 113336.0 119823.0 40105.0 32267.0 88942.0 182886.0 88942.0 88942.0 88942.0 88942.0 182886.0 182886.0 182886.0 182886.0
39187.0 32657.0 60099.0 54093.0 91860.0 83653.0 37997.0 45269.0 268983.0 268134.0 201022.0 207992.0 57895.0 50143.0 71372.0 79282.0 38736.0 33290.0 59471.0 65037.0 24404.0 29103.0 80395.0 88372.0 129700.0 124183.0 138521.0 136541.0 11801.0 6326.0 40743.0 45225.0 8462.0 16060.0 28372.0 26692.0 33946.0 41870.0 28052.0 35255.0 131225.0 124034.0 126861.0 120836.0 32019.0 32098.0 126506.0 126604.0 60205.0 52259.0 139038.0 138847.0 98582.0 100196.0 87949.0 88037.0 136224.0 136041.0 148416.0 146476.0 46691.0 46097.0 155583.0 163098.0 122206.0 122463.0 262182.0 269042.0 72511.0 76475.0 134015.0 135790.0 169995.0 174119.0 68238.0 64138.0 153700.0 154548.0 132032.0 127251.0 100588.0 92306.0 0.0 8199.0 239840.0 241902.0 99382.0 91703.0 59929.0 64018.0 198605.0 204923.0 200069.0 192979.0 242231.0 249447.0 111975.0 116666.0 110487.0 109929.0 89734.0 95544.0 102338.0 106639.0 17932.0 10156.0 45812.0 52486.0 96259.0 88609.0 84699.0 80552.0 29566.0 21150.0 135633.0 134540.0 281594.0 278867.0 39105.0 38838.0 115737.0 108555.0 87389.0 88354.0 120521.0 112626.0 46286.0 43232.0 52658.0 58309.0 169321.0 167584.0 233104.0 227106.0 145128.0 138393.0 69731.0 69453.0 119645.0 126259.0 14737.0 22732.0 159522.0 161691.0 266389.0 258155.0 76413.0 68969.0 194027.0 193933.0 86463.0 84254.0 44464.0 40935.0 86190.0 80001.0 49353.0 49794.0 53630.0 61386.0 126955.0 122677.0 126955.0 126955.0 126955.0 126955.0 122677.0 122677.0 122677.0 122677.0
46820.0 40643.0 68124.0 62236.0 100032.0 91832.0 46179.0 53467.0 264475.0 263831.0 195252.0 202337.0 59962.0 52118.0 75579.0 83558.0 31946.0 25832.0 55149.0 59996.0 18615.0 21845.0 86726.0 94582.0 125786.0 119946.0 146680.0 144642.0 3638.0 5435.0 42364.0 47969.0 14649.0 22874.0 32365.0 32432.0 40942.0 48685.0 29715.0 37514.0 139230.0 131986.0 133349.0 127108.0 27074.0 29153.0 134329.0 134271.0 53543.0 45547.0 146751.0 146707.0 106605.0 108058.0 86268.0 85626.0 130563.0 130758.0 156610.0 154644.0 54427.0 54165.0 163780.0 171291.0 130025.0 130423.0 258141.0 264886.0 72166.0 75308.0 141542.0 143121.0 166800.0 170614.0 65520.0 62276.0 161604.0 162327.0 140113.0 135389.0 108707.0 100418.0 8199.0 0.0 235180.0 237445.0 106968.0 99248.0 63278.0 68148.0 194224.0 200708.0 194630.0 187424.0 237535.0 244651.0 119746.0 124563.0 110144.0 110212.0 93366.0 99574.0 100489.0 104247.0 25871.0 18128.0 52373.0 59471.0 103942.0 96219.0 82098.0 77740.0 21950.0 13389.0 143831.0 142717.0 277008.0 274098.0 45687.0 46222.0 123837.0 116604.0 86858.0 88551.0 128648.0 120732.0 54484.0 51315.0 54325.0 59276.0 164875.0 162809.0 228305.0 222159.0 139483.0 132571.0 64493.0 63508.0 117113.0 123427.0 21783.0 29528.0 155765.0 158295.0 260956.0 252728.0 78783.0 71043.0 189907.0 189506.0 90293.0 87421.0 52563.0 48744.0 86597.0 80934.0 49572.0 48655.0 61503.0 69312.0 133796.0 120562.0 133796.0 133796.0 133796.0 133796.0 120562.0 120562.0 120562.0 120562.0
250906.0 253294.0 287347.0 279308.0 297295.0 292095.0 265627.0 268336.0 29764.0 31355.0 54816.0 47301.0 293421.0 285749.0 310758.0 318738.0 205066.0 212741.0 265506.0 262940.0 216588.0 215373.0 318623.0 326778.0 316347.0 308320.0 347375.0 349497.0 233713.0 240588.0 210925.0 213720.0 248295.0 255494.0 225907.0 233850.0 272044.0 280003.0 218769.0 216412.0 348912.0 344204.0 363575.0 358541.0 208159.0 208051.0 306107.0 301250.0 185014.0 192459.0 312526.0 317175.0 293207.0 288295.0 160844.0 156959.0 294950.0 301337.0 346007.0 340191.0 279928.0 275161.0 356644.0 364372.0 302679.0 308109.0 31693.0 34728.0 298308.0 297547.0 303406.0 300755.0 80262.0 72997.0 281920.0 283734.0 331206.0 327709.0 321550.0 321467.0 317839.0 311295.0 239840.0 235180.0 0.0 7469.0 328784.0 322211.0 298157.0 303326.0 42039.0 37500.0 47916.0 55842.0 2678.0 10717.0 293541.0 301234.0 332173.0 335375.0 328265.0 334697.0 148046.0 140773.0 254373.0 248089.0 284386.0 289531.0 324634.0 318621.0 159146.0 162197.0 216607.0 223980.0 338938.0 342129.0 41892.0 39193.0 239896.0 247703.0 331585.0 327534.0 310455.0 315113.0 315255.0 307774.0 268858.0 261033.0 204393.0 197370.0 70701.0 72404.0 8332.0 16285.0 99379.0 107286.0 170819.0 173031.0 128674.0 120714.0 254011.0 261852.0 341256.0 347795.0 39744.0 34295.0 312168.0 304115.0 48507.0 46375.0 325340.0 321884.0 262205.0 254222.0 314135.0 310689.0 199828.0 194879.0 284428.0 290248.0 287186.0 129679.0 287186.0 287186.0 287186.0 287186.0 129679.0 129679.0 129679.0 129679.0
251845.0 254472.0 288368.0 280312.0 297509.0 292319.0 266875.0 269376.0 27124.0 26905.0 61101.0 53812.0 296047.0 288338.0 313005.0 320974.0 207687.0 215419.0 269022.0 266650.0 218892.0 217936.0 320239.0 328402.0 320907.0 312886.0 347584.0 349747.0 236079.0 242835.0 212074.0 214605.0 250363.0 257445.0 227205.0 235117.0 273790.0 281720.0 220256.0 217646.0 349080.0 344515.0 364912.0 360008.0 210384.0 209986.0 306316.0 301459.0 187932.0 195266.0 312734.0 317384.0 293416.0 288504.0 161520.0 157964.0 300024.0 306314.0 346216.0 340400.0 281304.0 276370.0 356853.0 364581.0 302888.0 308318.0 25269.0 29390.0 301466.0 300890.0 303615.0 300964.0 79626.0 72546.0 285391.0 287023.0 331415.0 327918.0 321759.0 321676.0 318181.0 311760.0 241902.0 237445.0 7469.0 0.0 329662.0 323187.0 300565.0 305582.0 43330.0 37654.0 53519.0 61291.0 8434.0 14253.0 293750.0 301443.0 335689.0 338735.0 330684.0 337016.0 148413.0 141340.0 256122.0 249972.0 286135.0 291110.0 325473.0 319585.0 160306.0 163523.0 219245.0 226476.0 339147.0 342338.0 39932.0 38674.0 240767.0 248622.0 331771.0 327887.0 313801.0 318321.0 315464.0 307983.0 269873.0 261987.0 205189.0 198112.0 72587.0 75076.0 14879.0 22671.0 103180.0 111144.0 173270.0 175787.0 128981.0 121080.0 255949.0 263742.0 346107.0 352566.0 44580.0 40002.0 314840.0 306807.0 48819.0 47969.0 327702.0 324407.0 263139.0 255145.0 317281.0 313679.0 200952.0 196249.0 285644.0 291323.0 287395.0 129575.0 287395.0 287395.0 287395.0 287395.0 129575.0 129575.0 129575.0 129575.0
77889.0 76251.0 41794.0 49685.0 46883.0 45962.0 64694.0 60719.0 356646.0 354750.0 295842.0 302259.0 82549.0 83791.0 62507.0 61030.0 137888.0 132661.0 126033.0 134287.0 123151.0 128484.0 33936.0 33284.0 172667.0 171476.0 52781.0 46796.0 110100.0 102249.0 118129.0 115072.0 92465.0 84260.0 103843.0 95869.0 66499.0 59507.0 111946.0 112939.0 37892.0 29781.0 41087.0 40699.0 129354.0 126020.0 83300.0 89320.0 159001.0 151199.0 95830.0 89793.0 60461.0 68729.0 168180.0 171829.0 196134.0 192009.0 72126.0 75404.0 52756.0 55139.0 73291.0 78777.0 80908.0 74544.0 348478.0 355331.0 103910.0 112168.0 98712.0 105632.0 252268.0 258051.0 120032.0 112062.0 98742.0 104629.0 73074.0 65163.0 25859.0 25081.0 99382.0 106968.0 328784.0 329662.0 0.0 7807.0 72331.0 64694.0 286755.0 292010.0 293468.0 286969.0 331334.0 339003.0 77379.0 74462.0 122737.0 115840.0 69676.0 65984.0 181653.0 188411.0 81559.0 89269.0 57022.0 48782.0 4510.0 10790.0 169744.0 166975.0 128875.0 120347.0 57569.0 51695.0 369555.0 367917.0 88900.0 81082.0 30752.0 23237.0 111810.0 105521.0 62245.0 59989.0 60113.0 67785.0 124479.0 131578.0 258514.0 258441.0 322895.0 317770.0 240128.0 234125.0 165388.0 166829.0 201049.0 208813.0 85229.0 77819.0 195748.0 193635.0 359104.0 350911.0 81019.0 82817.0 280847.0 282434.0 66731.0 74027.0 66593.0 74566.0 102622.0 95439.0 129127.0 134736.0 46342.0 39313.0 114021.0 201470.0 114021.0 114021.0 114021.0 114021.0 201470.0 201470.0 201470.0 201470.0
71344.0 69266.0 34895.0 42908.0 45763.0 43489.0 57477.0 53908.0 350204.0 348348.0 288740.0 295212.0 75586.0 76518.0 56347.0 55571.0 130263.0 124968.0 118611.0 126864.0 115552.0 120805.0 28141.0 29056.0 166607.0 165192.0 58850.0 53376.0 102360.0 94501.0 111379.0 108596.0 84722.0 76510.0 96875.0 88889.0 58714.0 51701.0 104840.0 106084.0 44915.0 36819.0 44801.0 43047.0 121855.0 118672.0 84627.0 90210.0 151430.0 143608.0 97592.0 92028.0 59803.0 67873.0 161801.0 165262.0 189428.0 185458.0 77273.0 79937.0 45147.0 47877.0 79258.0 85078.0 81912.0 76061.0 342076.0 348929.0 97358.0 105619.0 99711.0 106309.0 246087.0 251763.0 112985.0 105019.0 101889.0 107353.0 75943.0 68126.0 27681.0 24465.0 91703.0 99248.0 322211.0 323187.0 7807.0 0.0 65457.0 58008.0 280199.0 285543.0 286491.0 279936.0 324750.0 332388.0 77429.0 75268.0 117717.0 111082.0 65070.0 62096.0 175410.0 182050.0 73917.0 81606.0 49231.0 40979.0 6409.0 3633.0 163094.0 160230.0 121168.0 112632.0 62581.0 57275.0 363099.0 361368.0 82469.0 74574.0 35792.0 27689.0 105811.0 99762.0 64522.0 61320.0 53360.0 61200.0 118086.0 125223.0 251837.0 251636.0 316247.0 311045.0 232968.0 226897.0 158075.0 159394.0 194766.0 202485.0 77494.0 70048.0 190235.0 188353.0 352230.0 344029.0 75100.0 76415.0 274385.0 275845.0 61882.0 68822.0 60055.0 68052.0 96821.0 89459.0 122428.0 127855.0 38928.0 32182.0 112529.0 195359.0 112529.0 112529.0 112529.0 112529.0 195359.0 195359.0 195359.0 195359.0
73253.0 65211.0 57130.0 59170.0 95117.0 88133.0 56022.0 61485.0 327552.0 327022.0 256592.0 263915.0 10336.0 14459.0 14291.0 21812.0 93302.0 85844.0 55882.0 63977.0 81714.0 82906.0 39479.0 44272.0 102784.0 100609.0 124099.0 118833.0 64489.0 57973.0 98115.0 100302.0 51701.0 46401.0 83036.0 77139.0 37321.0 33455.0 86290.0 92112.0 110214.0 102100.0 81239.0 73595.0 90327.0 91848.0 137482.0 140848.0 114216.0 106403.0 151229.0 147744.0 107835.0 113603.0 147675.0 147961.0 124006.0 120214.0 141237.0 142676.0 45399.0 53022.0 144328.0 150410.0 133737.0 130330.0 321407.0 328127.0 32456.0 40628.0 150081.0 154767.0 229835.0 233807.0 47826.0 39868.0 160259.0 164087.0 134599.0 127494.0 88784.0 81825.0 59929.0 63278.0 298157.0 300565.0 72331.0 65457.0 0.0 8174.0 257399.0 263944.0 256657.0 249254.0 300482.0 307500.0 125785.0 126965.0 61702.0 57908.0 30121.0 36711.0 162105.0 166554.0 50883.0 54158.0 30266.0 35072.0 71841.0 64409.0 144626.0 140455.0 81874.0 74211.0 126570.0 122096.0 340025.0 336955.0 81749.0 75657.0 100463.0 92146.0 43516.0 39609.0 122216.0 116414.0 62114.0 67486.0 109263.0 115789.0 228035.0 225754.0 291165.0 284864.0 201316.0 194084.0 127340.0 125482.0 179571.0 186176.0 47951.0 41818.0 128593.0 127925.0 322868.0 314663.0 18279.0 13709.0 253167.0 252662.0 27238.0 24330.0 67580.0 71876.0 36620.0 28627.0 108044.0 109466.0 50138.0 54772.0 153675.0 182518.0 153675.0 153675.0 153675.0 153675.0 182518.0 182518.0 182518.0 182518.0
72910.0 65269.0 52863.0 55891.0 89888.0 83240.0 54996.0 59600.0 332620.0 331933.0 262536.0 269785.0 18434.0 22276.0 7440.0 15430.0 98939.0 91657.0 64053.0 72151.0 86739.0 88509.0 31479.0 36102.0 109242.0 107421.0 116803.0 111351.0 69687.0 62749.0 100683.0 102257.0 55609.0 49448.0 85287.0 78891.0 37593.0 32207.0 89291.0 94635.0 102584.0 94474.0 73221.0 65644.0 95199.0 96113.0 132363.0 136049.0 120115.0 112226.0 146093.0 142293.0 102990.0 109120.0 151063.0 151741.0 131454.0 127455.0 134359.0 136067.0 42780.0 50671.0 137123.0 143073.0 128724.0 124966.0 326120.0 332929.0 39380.0 47635.0 145385.0 150359.0 233953.0 238135.0 55781.0 47847.0 154462.0 158560.0 128646.0 121396.0 82135.0 75463.0 64018.0 68148.0 303326.0 305582.0 64694.0 58008.0 8174.0 0.0 262342.0 268770.0 262358.0 255028.0 305677.0 312774.0 121139.0 121908.0 65300.0 60611.0 26053.0 31527.0 165515.0 170262.0 52996.0 57250.0 28282.0 31263.0 64413.0 57164.0 148520.0 144470.0 87648.0 79725.0 119660.0 114961.0 345157.0 342225.0 82140.0 75544.0 93329.0 85032.0 49068.0 44204.0 116325.0 110820.0 60115.0 66212.0 111472.0 118192.0 233004.0 230947.0 296430.0 290235.0 207061.0 199930.0 132573.0 131082.0 183328.0 190104.0 51009.0 44102.0 134313.0 133274.0 328635.0 320419.0 20343.0 18863.0 257923.0 257634.0 22548.0 22106.0 66141.0 71198.0 41168.0 33244.0 110956.0 112925.0 46485.0 50174.0 150345.0 186013.0 150345.0 150345.0 150345.0 150345.0 186013.0 186013.0 186013.0 186013.0
208883.0 211338.0 245343.0 237299.0 255461.0 250175.0 223701.0 226336.0 70449.0 69625.0 42740.0 40514.0 253034.0 245298.0 269759.0 277722.0 164726.0 172502.0 227204.0 225222.0 175696.0 174915.0 276932.0 285094.0 281630.0 273648.0 305518.0 307717.0 192911.0 199604.0 168953.0 171687.0 207066.0 214125.0 184000.0 191929.0 230463.0 238396.0 176975.0 174474.0 307008.0 302240.0 321701.0 316743.0 167153.0 166667.0 264287.0 259430.0 145324.0 152509.0 270705.0 275355.0 251387.0 246475.0 118816.0 114938.0 262741.0 268605.0 304186.0 298371.0 238070.0 233219.0 314823.0 322552.0 260858.0 266289.0 64683.0 70942.0 259030.0 258732.0 261586.0 258935.0 40827.0 32890.0 243469.0 244795.0 289386.0 285889.0 279730.0 279646.0 275867.0 269289.0 198605.0 194224.0 42039.0 43330.0 286755.0 280199.0 257399.0 262342.0 0.0 7987.0 31804.0 35399.0 44610.0 52395.0 251721.0 259413.0 293787.0 296571.0 287519.0 293797.0 106123.0 98776.0 212794.0 206645.0 242808.0 247810.0 282600.0 276606.0 117168.0 120294.0 176289.0 183398.0 297118.0 300260.0 83190.0 81170.0 197863.0 205676.0 289674.0 285558.0 271633.0 275941.0 273434.0 265954.0 226851.0 219013.0 162355.0 155332.0 29371.0 32927.0 36701.0 33285.0 63223.0 71170.0 130203.0 133005.0 86809.0 78827.0 212627.0 220415.0 307791.0 313941.0 76524.0 68999.0 271858.0 263845.0 8493.0 4870.0 284505.0 281308.0 220181.0 212196.0 274817.0 271019.0 157846.0 153007.0 242490.0 248259.0 245365.0 88159.0 245365.0 245365.0 245365.0 245365.0 88159.0 88159.0 88159.0 88159.0
214200.0 216880.0 250733.0 242674.0 259914.0 254794.0 229304.0 231746.0 64675.0 63242.0 48387.0 45112.0 259741.0 251984.0 276176.0 284127.0 171519.0 179324.0 234506.0 232632.0 182231.0 181650.0 282840.0 291006.0 289383.0 281407.0 310040.0 312204.0 199476.0 206069.0 174481.0 176956.0 213382.0 220341.0 189663.0 197560.0 236499.0 244403.0 182815.0 180081.0 311585.0 306957.0 327360.0 322515.0 173636.0 172911.0 268773.0 263915.0 152361.0 159455.0 275191.0 279840.0 255872.0 250960.0 123867.0 120347.0 270654.0 276493.0 308672.0 302856.0 243783.0 238784.0 319309.0 327037.0 265344.0 270775.0 57626.0 64184.0 266091.0 265907.0 266072.0 263421.0 42998.0 35545.0 250731.0 251948.0 293871.0 290374.0 284216.0 284132.0 280610.0 274151.0 204923.0 200708.0 37500.0 37654.0 292010.0 285543.0 263944.0 268770.0 7987.0 0.0 37473.0 42028.0 40158.0 48151.0 256207.0 263899.0 301040.0 303732.0 294057.0 300257.0 110812.0 103694.0 218842.0 212810.0 248841.0 253697.0 287819.0 281940.0 122737.0 126028.0 183077.0 190072.0 301604.0 304794.0 77556.0 76123.0 203116.0 210976.0 294266.0 290313.0 278801.0 283022.0 277920.0 270440.0 232238.0 224343.0 167535.0 160458.0 36247.0 40505.0 33444.0 31726.0 71069.0 78996.0 136927.0 139955.0 91394.0 83470.0 218833.0 226576.0 315630.0 321753.0 74284.0 67162.0 278587.0 270592.0 11165.0 12630.0 291001.0 287925.0 225493.0 217498.0 281860.0 277964.0 163354.0 158755.0 248058.0 253699.0 249851.0 92214.0 249851.0 249851.0 249851.0 249851.0 92214.0 92214.0 92214.0 92214.0
216001.0 217237.0 251682.0 243795.0 266243.0 260255.0 229123.0 232763.0 76763.0 79236.0 10953.0 10620.0 251158.0 243651.0 269791.0 277777.0 163424.0 170813.0 220544.0 217468.0 176068.0 173851.0 280120.0 288200.0 269071.0 261040.0 317129.0 318562.0 192779.0 200063.0 175587.0 179620.0 208423.0 216038.0 189632.0 197612.0 233306.0 241327.0 181722.0 180579.0 316882.0 311494.0 326026.0 320461.0 168054.0 169167.0 277514.0 272694.0 142487.0 150257.0 283969.0 288619.0 263627.0 259265.0 129176.0 123686.0 247138.0 253594.0 317158.0 311527.0 242721.0 238742.0 327607.0 335395.0 274116.0 279520.0 78747.0 82585.0 254283.0 252978.0 274850.0 272199.0 65726.0 57816.0 237032.0 239363.0 302650.0 299153.0 292930.0 292584.0 285172.0 278075.0 200069.0 194630.0 47916.0 53519.0 293468.0 286491.0 256657.0 262358.0 31804.0 37473.0 0.0 8032.0 49406.0 54438.0 264960.0 272629.0 287049.0 290665.0 286592.0 293363.0 118612.0 110587.0 215770.0 208977.0 245542.0 251367.0 289527.0 282980.0 124996.0 127110.0 174790.0 182634.0 309380.0 311993.0 87599.0 82828.0 205457.0 212930.0 299583.0 294739.0 265845.0 270891.0 286229.0 278552.0 233397.0 225938.0 170915.0 164308.0 40965.0 37198.0 39621.0 31803.0 55350.0 62761.0 130338.0 131280.0 100688.0 92968.0 214621.0 222596.0 293615.0 300235.0 66330.0 58100.0 269666.0 261577.0 39024.0 30639.0 283889.0 279865.0 227193.0 219354.0 270098.0 267145.0 164814.0 158777.0 247903.0 254310.0 258629.0 104040.0 258629.0 258629.0 258629.0 258629.0 104040.0 104040.0 104040.0 104040.0
209674.0 210718.0 245175.0 237323.0 260461.0 254353.0 222512.0 226298.0 84784.0 87184.0 10620.0 15330.0 243651.0 236173.0 262457.0 270439.0 156091.0 163424.0 212700.0 209568.0 168894.0 166522.0 273142.0 281204.0 261039.0 253008.0 311440.0 312728.0 185517.0 192855.0 169281.0 173516.0 201306.0 208977.0 183131.0 191100.0 226336.0 234358.0 175110.0 174174.0 310876.0 305386.0 319159.0 313518.0 160961.0 162274.0 272641.0 267744.0 135047.0 142856.0 279059.0 283684.0 258150.0 253953.0 123744.0 117987.0 239151.0 245590.0 311877.0 306364.0 235980.0 232131.0 322238.0 330045.0 269183.0 274450.0 86463.0 90459.0 246542.0 245171.0 269940.0 267289.0 65027.0 57412.0 229192.0 231584.0 297740.0 294243.0 287816.0 287302.0 279102.0 271925.0 192979.0 187424.0 55842.0 61291.0 286969.0 279936.0 249254.0 255028.0 35399.0 42028.0 8032.0 0.0 57380.0 62470.0 259908.0 267542.0 279173.0 282833.0 279149.0 285965.0 113692.0 105600.0 208843.0 201979.0 238543.0 244467.0 283065.0 276441.0 119121.0 121045.0 167413.0 175321.0 303861.0 306333.0 95627.0 90817.0 199229.0 206630.0 293601.0 288636.0 258030.0 263121.0 280893.0 273157.0 226949.0 219562.0 164947.0 158438.0 38242.0 33112.0 47570.0 39792.0 47970.0 55209.0 123272.0 123991.0 96261.0 88710.0 207572.0 215558.0 285598.0 292212.0 73615.0 65409.0 262118.0 254028.0 41575.0 33199.0 276479.0 272378.0 220828.0 213027.0 262351.0 259460.0 158597.0 152390.0 241264.0 247756.0 253719.0 100037.0 253719.0 253719.0 253719.0 253719.0 100037.0 100037.0 100037.0 100037.0
253453.0 255812.0 289882.0 281845.0 299920.0 294708.0 268135.0 270870.0 27746.0 29861.0 55915.0 48270.0 295703.0 288039.0 313111.0 321093.0 207357.0 215021.0 267588.0 264972.0 218938.0 217675.0 321078.0 329233.0 318115.0 310087.0 349997.0 352128.0 236050.0 242946.0 213450.0 216275.0 250684.0 257902.0 228411.0 236358.0 274483.0 282445.0 221249.0 218925.0 351528.0 346808.0 366068.0 361016.0 210524.0 210465.0 308729.0 303872.0 187248.0 194715.0 315148.0 319797.0 295829.0 290917.0 163425.0 159506.0 296530.0 302954.0 348629.0 342813.0 282419.0 277673.0 359266.0 366994.0 305301.0 310731.0 31096.0 33550.0 300475.0 299670.0 306028.0 303378.0 82938.0 75664.0 284012.0 285871.0 333828.0 330331.0 324172.0 324089.0 320441.0 313887.0 242231.0 237535.0 2678.0 8434.0 331334.0 324750.0 300482.0 305677.0 44610.0 40158.0 49406.0 57380.0 0.0 8039.0 296163.0 303856.0 334250.0 337490.0 330586.0 337036.0 150656.0 143367.0 256812.0 250507.0 286823.0 291993.0 327188.0 321162.0 161674.0 164705.0 218894.0 226294.0 341561.0 344751.0 39645.0 36710.0 242450.0 250252.0 334199.0 330135.0 312576.0 317267.0 317877.0 310397.0 271395.0 263577.0 206958.0 199940.0 73165.0 74735.0 9862.0 17613.0 101430.0 109315.0 173149.0 175301.0 131290.0 123327.0 256420.0 264269.0 342918.0 349486.0 37325.0 32114.0 314439.0 306383.0 51149.0 48906.0 327672.0 324185.0 264751.0 256770.0 316303.0 312893.0 202357.0 197377.0 286940.0 292776.0 289808.0 132322.0 289808.0 289808.0 289808.0 289808.0 132322.0 132322.0 132322.0 132322.0
261115.0 263393.0 297510.0 289480.0 307806.0 302559.0 275688.0 278495.0 22520.0 26510.0 59828.0 51915.0 302599.0 294959.0 320211.0 328197.0 214296.0 221923.0 273908.0 271145.0 226043.0 224640.0 328474.0 336624.0 323506.0 315476.0 357749.0 360033.0 243113.0 250069.0 221053.0 223963.0 257893.0 265164.0 235956.0 243912.0 281833.0 289807.0 228724.0 226497.0 359387.0 354635.0 373571.0 368468.0 217674.0 217754.0 316614.0 311757.0 194026.0 201554.0 323032.0 327682.0 303714.0 298802.0 171192.0 167178.0 301377.0 307909.0 356514.0 350698.0 289920.0 285238.0 367151.0 374879.0 313185.0 318616.0 30657.0 31136.0 307034.0 306101.0 313913.0 311262.0 90970.0 83676.0 290356.0 292346.0 341713.0 338216.0 332057.0 331973.0 328262.0 321678.0 249447.0 244651.0 10717.0 14253.0 339003.0 332388.0 307500.0 312774.0 52395.0 48151.0 54438.0 62470.0 8039.0 0.0 304048.0 311740.0 340543.0 343896.0 337589.0 344092.0 158504.0 151171.0 264166.0 257804.0 294169.0 299411.0 334870.0 328804.0 169296.0 172267.0 225816.0 233292.0 349445.0 352636.0 33281.0 29455.0 250136.0 257921.0 342055.0 337953.0 319001.0 323787.0 325762.0 318281.0 279029.0 271232.0 214676.0 207676.0 80647.0 81865.0 16346.0 23063.0 107758.0 115574.0 180208.0 182187.0 139160.0 131188.0 263690.0 271558.0 347994.0 354645.0 30334.0 26140.0 321302.0 313237.0 59099.0 56587.0 334708.0 331131.0 272412.0 264437.0 322865.0 319559.0 209972.0 204907.0 294501.0 300385.0 297692.0 140267.0 297692.0 297692.0 297692.0 297692.0 140267.0 140267.0 140267.0 140267.0
72953.0 79469.0 68676.0 67932.0 32420.0 37989.0 78528.0 70619.0 320526.0 318586.0 269992.0 274971.0 133487.0 130267.0 123214.0 125843.0 140140.0 138926.0 164066.0 171454.0 126914.0 134741.0 100725.0 104752.0 226727.0 223332.0 60227.0 65458.0 123346.0 117855.0 101654.0 94454.0 110259.0 104997.0 95611.0 90540.0 96106.0 95145.0 104332.0 99807.0 69757.0 69569.0 116637.0 117688.0 128347.0 121111.0 14782.0 15289.0 156070.0 150110.0 27175.0 27323.0 18377.0 12430.0 136469.0 142929.0 241989.0 240039.0 53170.0 46792.0 82059.0 75894.0 64297.0 71739.0 10515.0 14574.0 312314.0 319167.0 156964.0 164555.0 24300.0 29503.0 215692.0 221548.0 165532.0 158400.0 42468.0 42582.0 28077.0 29373.0 51870.0 52973.0 111975.0 119746.0 293541.0 293750.0 77379.0 77429.0 125785.0 121139.0 251721.0 256207.0 264960.0 259908.0 296163.0 304048.0 0.0 7799.0 186351.0 181128.0 137624.0 136628.0 146352.0 154378.0 98186.0 104091.0 96776.0 90753.0 73606.0 75219.0 142610.0 141938.0 136533.0 130032.0 49312.0 54972.0 333453.0 332324.0 76680.0 73869.0 56137.0 58344.0 169263.0 165186.0 24611.0 20220.0 69625.0 69559.0 100102.0 105052.0 225650.0 227847.0 288399.0 284237.0 218090.0 214127.0 153376.0 158254.0 164956.0 172947.0 104771.0 102024.0 253912.0 253603.0 327120.0 319185.0 141355.0 139328.0 245084.0 247799.0 133862.0 139049.0 68519.0 71040.0 162159.0 154167.0 109185.0 117222.0 76012.0 71054.0 40422.0 164826.0 40422.0 40422.0 40422.0 40422.0 164826.0 164826.0 164826.0 164826.0
77963.0 84025.0 70174.0 70311.0 32081.0 38857.0 82053.0 74076.0 328218.0 326278.0 277605.0 282621.0 135060.0 132254.0 123525.0 125676.0 145993.0 144489.0 167297.0 174832.0 132514.0 140258.0 99853.0 103332.0 228677.0 225526.0 53103.0 58704.0 128185.0 122412.0 108256.0 101205.0 114485.0 108847.0 101564.0 96163.0 98891.0 97325.0 110399.0 106171.0 63619.0 64061.0 112701.0 114230.0 134294.0 127232.0 10567.0 14943.0 162385.0 156268.0 24291.0 22261.0 19393.0 16574.0 144028.0 150421.0 244918.0 242729.0 45373.0 39022.0 84266.0 78591.0 56518.0 63944.0 6852.0 6940.0 320006.0 326859.0 158588.0 166324.0 24466.0 31170.0 223384.0 229241.0 168045.0 160759.0 37042.0 38419.0 20325.0 21744.0 48634.0 50905.0 116666.0 124563.0 301234.0 301443.0 74462.0 75268.0 126965.0 121908.0 259413.0 263899.0 272629.0 267542.0 303856.0 311740.0 7799.0 0.0 186859.0 181360.0 137147.0 135705.0 154031.0 162043.0 102210.0 108426.0 98619.0 92142.0 70951.0 73356.0 150040.0 149286.0 141969.0 135240.0 41930.0 47920.0 341145.0 340017.0 82453.0 79120.0 51019.0 54123.0 170478.0 166093.0 17546.0 14953.0 73056.0 73765.0 107135.0 112240.0 233342.0 235530.0 296091.0 291929.0 225534.0 221494.0 160185.0 164908.0 172648.0 180639.0 108720.0 105488.0 255443.0 254889.0 334812.0 326877.0 141954.0 140362.0 252776.0 255492.0 133469.0 139010.0 72648.0 75833.0 163058.0 155097.0 116077.0 124061.0 77811.0 72243.0 47048.0 172518.0 47048.0 47048.0 47048.0 47048.0 172518.0 172518.0 172518.0 172518.0
133458.0 125069.0 118151.0 120776.0 154779.0 148391.0 117147.0 123036.0 361937.0 362582.0 284801.0 292645.0 56706.0 62998.0 63372.0 62289.0 132136.0 124309.0 66671.0 69700.0 125539.0 123150.0 89679.0 89506.0 56380.0 58724.0 175242.0 168588.0 109576.0 106027.0 151224.0 155205.0 103914.0 101710.0 137798.0 133471.0 97829.0 94997.0 138537.0 145635.0 158839.0 151086.0 111859.0 103987.0 134134.0 138615.0 197233.0 201168.0 149120.0 142591.0 210917.0 206733.0 168127.0 174392.0 195754.0 194171.0 88535.0 81748.0 194821.0 197650.0 107098.0 114711.0 195734.0 200672.0 193699.0 189582.0 358460.0 364478.0 38017.0 35672.0 210553.0 215632.0 272107.0 274741.0 50320.0 49677.0 218249.0 222831.0 192234.0 184699.0 144407.0 138675.0 110487.0 110144.0 332173.0 335689.0 122737.0 117717.0 61702.0 65300.0 293787.0 301040.0 287049.0 279173.0 334250.0 340543.0 186351.0 186859.0 0.0 8425.0 53230.0 58324.0 209658.0 212536.0 107904.0 108545.0 91965.0 96354.0 123886.0 117978.0 190391.0 185759.0 121112.0 116148.0 180190.0 174423.0 373762.0 369637.0 140717.0 135522.0 153327.0 145372.0 23321.0 22833.0 180126.0 175176.0 123703.0 128664.0 163101.0 168779.0 264841.0 260979.0 324527.0 317487.0 232827.0 224975.0 166139.0 161814.0 224945.0 230477.0 103066.0 99252.0 73937.0 71104.0 351489.0 343509.0 45004.0 48038.0 290948.0 288924.0 56009.0 48914.0 128868.0 132483.0 25555.0 33288.0 159528.0 158736.0 111567.0 115469.0 215326.0 229147.0 215326.0 215326.0 215326.0 215326.0 229147.0 229147.0 229147.0 229147.0
130675.0 122407.0 113376.0 116458.0 149293.0 143139.0 113855.0 119382.0 365130.0 365604.0 288698.0 296492.0 54182.0 61061.0 57914.0 56037.0 133756.0 125882.0 70147.0 73977.0 126315.0 124446.0 83211.0 82558.0 64804.0 67094.0 168141.0 161362.0 109921.0 105831.0 150528.0 154120.0 102958.0 100115.0 136652.0 131920.0 94798.0 91362.0 137941.0 144817.0 151539.0 143857.0 103722.0 95895.0 135011.0 139044.0 191660.0 195806.0 151483.0 144709.0 205297.0 200901.0 162828.0 169304.0 196291.0 195046.0 96835.0 90113.0 187966.0 190995.0 103052.0 110804.0 188601.0 193400.0 188210.0 183866.0 361253.0 367384.0 38385.0 37848.0 205243.0 210514.0 273911.0 276773.0 53651.0 51785.0 212133.0 216901.0 186094.0 178486.0 138058.0 132578.0 109929.0 110212.0 335375.0 338735.0 115840.0 111082.0 57908.0 60611.0 296571.0 303732.0 290665.0 282833.0 337490.0 343896.0 181128.0 181360.0 8425.0 0.0 46166.0 50757.0 210346.0 213524.0 105992.0 107228.0 88059.0 91865.0 117169.0 111510.0 191329.0 186756.0 122528.0 117087.0 173384.0 167466.0 377064.0 373083.0 138432.0 132888.0 146526.0 138660.0 24940.0 21661.0 174081.0 169357.0 119998.0 125348.0 162303.0 168198.0 267494.0 263856.0 327808.0 320860.0 236138.0 228340.0 168073.0 164080.0 226084.0 231823.0 101529.0 97150.0 81787.0 78614.0 355457.0 347435.0 40314.0 44545.0 293515.0 291716.0 49203.0 42588.0 125469.0 129508.0 23743.0 30561.0 159223.0 158863.0 107093.0 110553.0 210954.0 230070.0 210954.0 210954.0 210954.0 210954.0 230070.0 230070.0 230070.0 230070.0
97617.0 90374.0 72395.0 77206.0 105322.0 99895.0 79333.0 82880.0 357670.0 357141.0 286368.0 293743.0 35929.0 43077.0 19238.0 12764.0 123338.0 115817.0 78260.0 85535.0 111830.0 112962.0 37591.0 36393.0 105919.0 106032.0 122033.0 115360.0 94609.0 88037.0 126726.0 128188.0 81391.0 75459.0 111299.0 104798.0 63177.0 57005.0 115335.0 120676.0 105629.0 97858.0 62453.0 54327.0 120429.0 121772.0 147227.0 151860.0 144108.0 136345.0 160709.0 155888.0 119249.0 126273.0 177072.0 177646.0 133436.0 128083.0 141802.0 144903.0 65687.0 73609.0 142516.0 147448.0 143987.0 139141.0 351507.0 358239.0 44697.0 51828.0 161384.0 167127.0 259729.0 263794.0 65542.0 58631.0 166606.0 171670.0 140571.0 132867.0 92330.0 87299.0 89734.0 93366.0 328265.0 330684.0 69676.0 65070.0 30121.0 26053.0 287519.0 294057.0 286592.0 279149.0 330586.0 337589.0 137624.0 137147.0 53230.0 46166.0 0.0 7940.0 191522.0 196195.0 79024.0 83264.0 52674.0 53247.0 71080.0 65697.0 174381.0 170278.0 111870.0 104297.0 127231.0 121303.0 370136.0 367044.0 107353.0 100422.0 100378.0 92556.0 46449.0 38942.0 128743.0 124472.0 83235.0 90081.0 137457.0 144209.0 258155.0 255861.0 321256.0 314931.0 231242.0 223953.0 157451.0 155508.0 209248.0 215961.0 77020.0 70153.0 126862.0 124314.0 352752.0 344555.0 19735.0 26995.0 283271.0 282782.0 4004.0 7946.0 89824.0 95615.0 36514.0 31472.0 137008.0 138909.0 67596.0 69126.0 169876.0 212006.0 169876.0 169876.0 169876.0 169876.0 212006.0 212006.0 212006.0 212006.0
100819.0 93938.0 73310.0 78769.0 104215.0 99285.0 82427.0 85314.0 364036.0 363401.0 293292.0 300623.0 43350.0 50243.0 24197.0 16450.0 129984.0 122551.0 86183.0 93473.0 118128.0 119577.0 35906.0 33041.0 112287.0 112731.0 117684.0 110749.0 100986.0 94196.0 131566.0 132633.0 87130.0 80812.0 116008.0 109245.0 67406.0 60705.0 120477.0 125509.0 100862.0 93258.0 55272.0 47164.0 126645.0 127640.0 145596.0 150539.0 150927.0 143112.0 158924.0 153780.0 118301.0 125602.0 182341.0 183173.0 140521.0 134995.0 137915.0 141388.0 68190.0 75989.0 138079.0 142727.0 142513.0 137320.0 357631.0 364424.0 52560.0 59574.0 160085.0 166089.0 265450.0 269658.0 73460.0 66570.0 163979.0 169332.0 138008.0 130212.0 89695.0 85248.0 95544.0 99574.0 334697.0 337016.0 65984.0 62096.0 36711.0 31527.0 293797.0 300257.0 293363.0 285965.0 337036.0 344092.0 136628.0 135705.0 58324.0 50757.0 7940.0 0.0 196792.0 201662.0 83888.0 88591.0 56222.0 55659.0 67826.0 63135.0 179984.0 175962.0 118576.0 110851.0 123472.0 117254.0 376546.0 373547.0 110923.0 103738.0 96724.0 89138.0 53625.0 45947.0 126416.0 122579.0 85580.0 92780.0 142031.0 148888.0 264449.0 262301.0 327752.0 321495.0 238025.0 230795.0 163890.0 162164.0 214740.0 221565.0 82368.0 75198.0 132245.0 129340.0 359579.0 351373.0 27671.0 34826.0 289423.0 289080.0 9542.0 15885.0 92414.0 98622.0 43685.0 39119.0 142035.0 144273.0 69255.0 69891.0 169977.0 217317.0 169977.0 169977.0 169977.0 169977.0 217317.0 217317.0 217317.0 217317.0
104225.0 107774.0 140828.0 132752.0 149369.0 144055.0 120371.0 121991.0 175242.0 173303.0 123909.0 128669.0 160115.0 152305.0 172662.0 180350.0 79302.0 86657.0 147478.0 148731.0 84120.0 87024.0 175118.0 183245.0 214328.0 207104.0 199654.0 201670.0 100483.0 105285.0 65968.0 67101.0 110424.0 116068.0 81644.0 89182.0 130228.0 137782.0 76335.0 71927.0 200885.0 196164.0 218164.0 213831.0 75548.0 71388.0 158956.0 154099.0 69686.0 72790.0 165374.0 170024.0 145624.0 140905.0 14452.0 16043.0 207083.0 210360.0 198704.0 192961.0 135284.0 129602.0 209277.0 217027.0 155523.0 160916.0 167031.0 173884.0 172024.0 174148.0 156255.0 153604.0 70707.0 76406.0 161700.0 160373.0 184055.0 180558.0 174340.0 174146.0 169806.0 163347.0 102338.0 100489.0 148046.0 148413.0 181653.0 175410.0 162105.0 165515.0 106123.0 110812.0 118612.0 113692.0 150656.0 158504.0 146352.0 154031.0 209658.0 210346.0 191522.0 196792.0 0.0 8150.0 113043.0 108265.0 142344.0 146116.0 177396.0 171786.0 20052.0 24843.0 89304.0 93535.0 191393.0 194431.0 188183.0 186931.0 93001.0 100960.0 183552.0 179507.0 186362.0 188715.0 167879.0 160324.0 122399.0 114360.0 57455.0 50269.0 79514.0 81500.0 142747.0 138407.0 75254.0 73407.0 51250.0 58768.0 19441.0 27343.0 114508.0 121602.0 243839.0 248117.0 181118.0 173136.0 178737.0 171211.0 99665.0 102101.0 188060.0 186422.0 115445.0 107457.0 186893.0 181410.0 55045.0 52642.0 138827.0 143944.0 140034.0 20556.0 140034.0 140034.0 140034.0 140034.0 20556.0 20556.0 20556.0 20556.0
110743.0 113923.0 147344.0 139270.0 156912.0 151463.0 126479.0 128424.0 168264.0 166344.0 115795.0 120606.0 164133.0 156299.0 177484.0 185246.0 81119.0 88709.0 149357.0 150172.0 87231.0 89462.0 180933.0 189081.0 215108.0 207755.0 207344.0 209249.0 103982.0 109207.0 71752.0 73501.0 114867.0 120850.0 87321.0 95015.0 135563.0 143230.0 81475.0 77605.0 208307.0 203472.0 224458.0 219960.0 78514.0 75102.0 167042.0 162199.0 69463.0 73388.0 173475.0 178124.0 153415.0 148801.0 20253.0 18629.0 206549.0 210119.0 206640.0 200948.0 141269.0 135814.0 217172.0 224935.0 163591.0 168935.0 160072.0 166925.0 175145.0 176920.0 164355.0 161704.0 64494.0 69769.0 163985.0 163036.0 192155.0 188658.0 182344.0 182074.0 177095.0 170522.0 106639.0 104247.0 140773.0 141340.0 188411.0 182050.0 166554.0 170262.0 98776.0 103694.0 110587.0 105600.0 143367.0 151171.0 154378.0 162043.0 212536.0 213524.0 196195.0 201662.0 8150.0 0.0 118193.0 113073.0 147772.0 151845.0 184193.0 178435.0 22208.0 26780.0 91614.0 96452.0 199194.0 202138.0 181187.0 179762.0 99581.0 107495.0 190967.0 186784.0 189299.0 191951.0 175775.0 168181.0 128871.0 120892.0 63964.0 56836.0 71756.0 73522.0 135316.0 130822.0 67280.0 65669.0 50715.0 57786.0 13099.0 20470.0 119295.0 126579.0 244397.0 248900.0 173403.0 165392.0 182868.0 175230.0 92531.0 94663.0 192805.0 190884.0 122010.0 114011.0 190226.0 184980.0 60677.0 57422.0 145069.0 150397.0 148135.0 16669.0 148135.0 148135.0 148135.0 148135.0 16669.0 16669.0 16669.0 16669.0
28204.0 19890.0 42258.0 36590.0 75577.0 67316.0 20970.0 28749.0 283243.0 282076.0 217154.0 223968.0 51901.0 44976.0 59909.0 67441.0 56349.0 51194.0 67156.0 74013.0 41687.0 46969.0 64400.0 72520.0 134772.0 130070.0 121011.0 118825.0 29283.0 21878.0 47714.0 49435.0 12604.0 7238.0 32300.0 26285.0 17672.0 25644.0 36734.0 41660.0 113359.0 106129.0 110354.0 104691.0 48452.0 46615.0 112370.0 113198.0 77610.0 69739.0 125360.0 124471.0 83506.0 86032.0 98609.0 99887.0 145371.0 144271.0 131641.0 130093.0 28814.0 28342.0 138442.0 145873.0 108113.0 107630.0 275913.0 282753.0 71050.0 76638.0 121168.0 123714.0 182407.0 187017.0 72108.0 66378.0 139052.0 140501.0 116410.0 111203.0 82931.0 74630.0 17932.0 25871.0 254373.0 256122.0 81559.0 73917.0 50883.0 52996.0 212794.0 218842.0 215770.0 208843.0 256812.0 264166.0 98186.0 102210.0 107904.0 105992.0 79024.0 83888.0 113043.0 118193.0 0.0 7778.0 30016.0 35644.0 78375.0 70774.0 96905.0 93153.0 47496.0 39072.0 118547.0 117148.0 295959.0 293511.0 33122.0 29285.0 98023.0 90743.0 85778.0 85121.0 104591.0 96890.0 29792.0 28652.0 58515.0 65197.0 183687.0 182434.0 247850.0 242080.0 161202.0 154697.0 85705.0 86176.0 131292.0 138338.0 6654.0 9070.0 163934.0 165252.0 282003.0 273770.0 68815.0 62334.0 207829.0 208203.0 75405.0 74669.0 29667.0 28676.0 82567.0 75433.0 58157.0 60808.0 35697.0 43464.0 116844.0 133594.0 116844.0 116844.0 116844.0 116844.0 133594.0 133594.0 133594.0 133594.0
32309.0 24737.0 50000.0 44166.0 82607.0 74362.0 28256.0 35795.0 277082.0 276051.0 210177.0 217059.0 53735.0 46323.0 64423.0 72174.0 48705.0 43434.0 63205.0 69591.0 34141.0 39224.0 71167.0 79227.0 132179.0 127123.0 128618.0 126520.0 21588.0 14426.0 44048.0 46939.0 6381.0 7806.0 29463.0 25050.0 24395.0 32408.0 32145.0 38101.0 121115.0 113900.0 117412.0 111571.0 41220.0 40051.0 118451.0 118949.0 70059.0 62154.0 131247.0 130672.0 89984.0 92090.0 93813.0 94605.0 141091.0 140370.0 138925.0 137201.0 36551.0 36038.0 145889.0 153358.0 114170.0 114024.0 269975.0 276828.0 71010.0 75925.0 126675.0 128876.0 176998.0 181405.0 69772.0 64686.0 145387.0 146566.0 123169.0 118152.0 90597.0 82303.0 10156.0 18128.0 248089.0 249972.0 89269.0 81606.0 54158.0 57250.0 206645.0 212810.0 208977.0 201979.0 250507.0 257804.0 104091.0 108426.0 108545.0 107228.0 83264.0 88591.0 108265.0 113073.0 7778.0 0.0 36566.0 42796.0 86119.0 78490.0 91471.0 87548.0 39722.0 31295.0 125966.0 124702.0 289755.0 287186.0 34839.0 32677.0 105716.0 98477.0 85898.0 85957.0 111483.0 103687.0 36829.0 34663.0 55458.0 61781.0 177451.0 175993.0 241473.0 235604.0 154236.0 147631.0 78729.0 78903.0 126154.0 133029.0 6245.0 13770.0 161671.0 163354.0 275258.0 267023.0 71546.0 64570.0 201843.0 202018.0 79796.0 78361.0 35804.0 33460.0 83565.0 76815.0 53892.0 55688.0 43474.0 51240.0 121091.0 128765.0 121091.0 121091.0 121091.0 121091.0 128765.0 128765.0 128765.0 128765.0
44964.0 37756.0 28546.0 29200.0 67471.0 59898.0 26800.0 31413.0 313257.0 312071.0 246713.0 253616.0 36822.0 33652.0 33672.0 40166.0 84272.0 78110.0 72110.0 80224.0 70206.0 74212.0 34617.0 42661.0 130064.0 126961.0 103759.0 99912.0 55060.0 47184.0 76469.0 76820.0 37806.0 29760.0 60772.0 53569.0 12345.0 4579.0 66367.0 70455.0 92752.0 84895.0 81060.0 75050.0 77691.0 76508.0 109185.0 111993.0 105849.0 97865.0 122891.0 120053.0 79265.0 84435.0 127969.0 129610.0 147533.0 144781.0 118278.0 118523.0 15185.0 22761.0 123054.0 129856.0 105269.0 102572.0 305889.0 312721.0 60214.0 67784.0 121040.0 125348.0 212133.0 216865.0 70060.0 62503.0 133309.0 136473.0 108280.0 101697.0 66016.0 58104.0 45812.0 52373.0 284386.0 286135.0 57022.0 49231.0 30266.0 28282.0 242808.0 248841.0 245542.0 238543.0 286823.0 294169.0 96776.0 98619.0 91965.0 88059.0 52674.0 56222.0 142344.0 147772.0 30016.0 36566.0 0.0 8408.0 54803.0 46765.0 126722.0 123054.0 74147.0 65593.0 104011.0 100826.0 325974.0 323520.0 54749.0 47748.0 79788.0 71678.0 72976.0 69720.0 95860.0 89332.0 31981.0 37933.0 86363.0 93361.0 213702.0 212414.0 277849.0 272051.0 190782.0 184132.0 115285.0 115258.0 160864.0 168028.0 31084.0 23081.0 157159.0 157015.0 311819.0 303584.0 47905.0 43938.0 237819.0 238219.0 48763.0 50121.0 37861.0 43069.0 66764.0 58808.0 87300.0 90544.0 20811.0 27039.0 123494.0 162894.0 123494.0 123494.0 123494.0 123494.0 162894.0 162894.0 162894.0 162894.0
45498.0 39350.0 22077.0 24650.0 60561.0 53288.0 27157.0 29691.0 318234.0 316877.0 252798.0 259602.0 42934.0 40755.0 35192.0 40485.0 91184.0 85297.0 80270.0 88418.0 76850.0 81295.0 29152.0 37319.0 136715.0 133892.0 95434.0 91522.0 62337.0 54432.0 80159.0 79715.0 44823.0 36617.0 64528.0 56939.0 18555.0 10884.0 70887.0 74248.0 84344.0 76492.0 74711.0 69137.0 83996.0 82202.0 102691.0 105861.0 112690.0 104736.0 116432.0 113257.0 72906.0 78541.0 131844.0 133922.0 155114.0 152164.0 110230.0 110669.0 12531.0 20384.0 114820.0 121571.0 98873.0 95787.0 310631.0 317484.0 66464.0 74279.0 115052.0 119695.0 216321.0 221270.0 77587.0 69901.0 126220.0 129658.0 100942.0 94191.0 57825.0 50010.0 52486.0 59471.0 289531.0 291110.0 48782.0 40979.0 35072.0 31263.0 247810.0 253697.0 251367.0 244467.0 291993.0 299411.0 90753.0 92142.0 96354.0 91865.0 53247.0 55659.0 146116.0 151845.0 35644.0 42796.0 8408.0 0.0 46460.0 38431.0 131192.0 127701.0 81382.0 72808.0 95887.0 92564.0 331000.0 328702.0 56077.0 48547.0 71450.0 63316.0 78511.0 74626.0 88511.0 82229.0 30008.0 37127.0 89383.0 96498.0 218831.0 217792.0 283116.0 277447.0 196845.0 190332.0 121348.0 121696.0 164901.0 172214.0 37806.0 29943.0 163306.0 162863.0 317570.0 309338.0 51562.0 48706.0 242629.0 243267.0 49248.0 51928.0 36756.0 43113.0 71617.0 63613.0 91177.0 95013.0 15231.0 19933.0 119091.0 166617.0 119091.0 119091.0 119091.0 119091.0 166617.0 166617.0 166617.0 166617.0
73784.0 72381.0 37951.0 45742.0 42730.0 41556.0 61013.0 56768.0 352443.0 350536.0 291983.0 298363.0 81951.0 82777.0 62735.0 61829.0 134634.0 129549.0 124766.0 133015.0 119857.0 125341.0 34438.0 34837.0 172996.0 171598.0 52442.0 46995.0 107130.0 99314.0 114093.0 110914.0 89518.0 81348.0 99937.0 91977.0 63767.0 57023.0 108129.0 108960.0 38659.0 30590.0 45521.0 44899.0 125908.0 122402.0 80004.0 85856.0 155646.0 147881.0 92730.0 86906.0 56453.0 64679.0 163971.0 167692.0 195823.0 191865.0 70998.0 73828.0 49569.0 51519.0 72858.0 78669.0 77480.0 71317.0 344264.0 351117.0 103766.0 112027.0 95298.0 102101.0 247984.0 253800.0 119321.0 111358.0 96329.0 101994.0 70489.0 62618.0 22592.0 20944.0 96259.0 103942.0 324634.0 325473.0 4510.0 6409.0 71841.0 64413.0 282600.0 287819.0 289527.0 283065.0 327188.0 334870.0 73606.0 70951.0 123886.0 117169.0 71080.0 67826.0 177396.0 184193.0 78375.0 86119.0 54803.0 46460.0 0.0 8042.0 165645.0 162921.0 125800.0 117299.0 56327.0 50909.0 365357.0 363756.0 84738.0 76958.0 29490.0 21493.0 112189.0 106102.0 59345.0 56662.0 56131.0 63709.0 120285.0 127369.0 254415.0 254404.0 318778.0 313689.0 236318.0 230371.0 161721.0 163291.0 196802.0 204580.0 82267.0 74993.0 196538.0 194603.0 355098.0 346911.0 81461.0 82823.0 276656.0 278294.0 67971.0 75023.0 62498.0 70450.0 103168.0 95832.0 125062.0 130763.0 42906.0 35645.0 109849.0 197172.0 109849.0 109849.0 109849.0 109849.0 197172.0 197172.0 197172.0 197172.0
67740.0 65745.0 31337.0 39330.0 43259.0 40549.0 54032.0 50341.0 346599.0 344738.0 285267.0 291721.0 74423.0 75005.0 55964.0 55705.0 127100.0 121892.0 116863.0 125108.0 112361.0 117709.0 28309.0 30217.0 166123.0 164537.0 59691.0 54607.0 99369.0 91530.0 107810.0 104988.0 81740.0 73547.0 93353.0 85370.0 55865.0 49030.0 101361.0 102536.0 46542.0 38513.0 48315.0 46348.0 118577.0 115298.0 82904.0 88295.0 148212.0 140409.0 96025.0 90681.0 57390.0 65362.0 158187.0 161669.0 188411.0 184577.0 77463.0 79766.0 41969.0 44449.0 79962.0 86004.0 80062.0 74442.0 338466.0 345319.0 96543.0 104795.0 97822.0 104281.0 242462.0 248144.0 111684.0 103730.0 100947.0 106200.0 74932.0 67189.0 26639.0 22454.0 88609.0 96219.0 318621.0 319585.0 10790.0 3633.0 64409.0 57164.0 276606.0 281940.0 282980.0 276441.0 321162.0 328804.0 75219.0 73356.0 117978.0 111510.0 65697.0 63135.0 171786.0 178435.0 70774.0 78490.0 46765.0 38431.0 8042.0 0.0 159512.0 156663.0 118114.0 109593.0 62746.0 57806.0 359496.0 357775.0 78855.0 70967.0 36187.0 27920.0 105425.0 99560.0 63281.0 59679.0 49782.0 57599.0 114472.0 121606.0 248262.0 248083.0 312668.0 307478.0 229514.0 223470.0 154685.0 156072.0 191146.0 198868.0 74497.0 67141.0 190125.0 188394.0 348694.0 340495.0 74833.0 75767.0 270781.0 272256.0 62378.0 69068.0 56448.0 64445.0 96593.0 89115.0 118851.0 124315.0 35581.0 28690.0 109735.0 191730.0 109735.0 109735.0 109735.0 109735.0 191730.0 191730.0 191730.0 191730.0
91862.0 94175.0 128214.0 120185.0 141342.0 135264.0 106570.0 109200.0 187394.0 185796.0 128746.0 134424.0 142023.0 134184.0 155789.0 163602.0 59382.0 66838.0 127622.0 128744.0 65026.0 67409.0 160341.0 168507.0 194276.0 187055.0 192356.0 193611.0 81787.0 87100.0 51785.0 54881.0 92994.0 99208.0 66937.0 74824.0 114433.0 122217.0 60376.0 57344.0 191897.0 186591.0 204623.0 199822.0 56319.0 52975.0 156116.0 152016.0 49998.0 52784.0 163755.0 167807.0 139408.0 135674.0 10588.0 4016.0 187316.0 190480.0 193531.0 188405.0 121068.0 116066.0 203644.0 211487.0 152381.0 156979.0 179525.0 186377.0 152954.0 154796.0 154874.0 152289.0 85536.0 90144.0 142036.0 140941.0 182271.0 179165.0 170102.0 169011.0 160239.0 153252.0 84699.0 82098.0 159146.0 160306.0 169744.0 163094.0 144626.0 148520.0 117168.0 122737.0 124996.0 119121.0 161674.0 169296.0 142610.0 150040.0 190391.0 191329.0 174381.0 179984.0 20052.0 22208.0 96905.0 91471.0 126722.0 131192.0 165645.0 159512.0 0.0 4794.0 69617.0 74272.0 184981.0 187272.0 200238.0 198322.0 80983.0 88690.0 174592.0 169837.0 167138.0 169750.0 162460.0 154581.0 109733.0 101960.0 45947.0 39322.0 88771.0 88986.0 153158.0 148054.0 75497.0 71629.0 31987.0 39768.0 35019.0 41585.0 97659.0 105094.0 223793.0 228065.0 189764.0 181620.0 160789.0 153116.0 111617.0 112771.0 171041.0 168947.0 103153.0 95194.0 168020.0 162779.0 40683.0 36197.0 125339.0 131102.0 138719.0 38758.0 138719.0 138719.0 138719.0 138719.0 38758.0 38758.0 38758.0 38758.0
89164.0 91130.0 125335.0 117337.0 139607.0 133352.0 103431.0 106323.0 190634.0 189179.0 130505.0 136370.0 137695.0 129853.0 151765.0 159605.0 54612.0 62091.0 122860.0 123956.0 60489.0 62718.0 156852.0 165019.0 189485.0 182269.0 190707.0 191773.0 77343.0 82794.0 48854.0 52510.0 88891.0 95251.0 63712.0 71653.0 110739.0 118572.0 56816.0 54230.0 189831.0 184386.0 201407.0 196492.0 51753.0 48677.0 155629.0 151729.0 45388.0 48027.0 163606.0 167449.0 138133.0 134655.0 14329.0 8801.0 182637.0 185762.0 192403.0 187436.0 117783.0 112972.0 202389.0 210245.0 151828.0 156222.0 182930.0 189783.0 148375.0 150148.0 154871.0 152402.0 89488.0 93881.0 137316.0 136275.0 182031.0 179130.0 169242.0 167935.0 158075.0 150968.0 80552.0 77740.0 162197.0 163523.0 166975.0 160230.0 140455.0 144470.0 120294.0 126028.0 127110.0 121045.0 164705.0 172267.0 141938.0 149286.0 185759.0 186756.0 170278.0 175962.0 24843.0 26780.0 93153.0 87548.0 123054.0 127701.0 162921.0 156663.0 4794.0 0.0 64904.0 69676.0 183562.0 185665.0 203445.0 201389.0 78436.0 86032.0 172557.0 167632.0 162519.0 165193.0 161326.0 153384.0 106888.0 99212.0 43938.0 37650.0 91644.0 91494.0 156073.0 150815.0 76519.0 72212.0 27628.0 35482.0 39419.0 45732.0 93709.0 101223.0 219009.0 223274.0 192242.0 184074.0 156488.0 148781.0 114942.0 115834.0 166971.0 164762.0 100430.0 92510.0 163486.0 158306.0 37864.0 32729.0 122237.0 128157.0 138832.0 43398.0 138832.0 138832.0 138832.0 138832.0 43398.0 43398.0 43398.0 43398.0
64263.0 59634.0 89555.0 83278.0 119565.0 111497.0 67028.0 73842.0 246127.0 245868.0 174891.0 182139.0 76816.0 69146.0 95067.0 103043.0 11562.0 4035.0 58337.0 60387.0 10339.0 2658.0 108275.0 116026.0 127135.0 120410.0 167483.0 165777.0 19087.0 26973.0 44732.0 52341.0 36583.0 44816.0 42227.0 46076.0 62874.0 70564.0 35100.0 42357.0 160670.0 153540.0 154942.0 148543.0 15200.0 22901.0 151288.0 150462.0 32491.0 24578.0 163085.0 163800.0 124862.0 125398.0 75984.0 73495.0 125923.0 127493.0 176403.0 173960.0 76242.0 75511.0 184032.0 191645.0 146988.0 148162.0 240689.0 247199.0 84209.0 85445.0 157049.0 157785.0 151470.0 154584.0 72422.0 71493.0 178879.0 178924.0 158627.0 154410.0 129788.0 121542.0 29566.0 21950.0 216607.0 219245.0 128875.0 121168.0 81874.0 87648.0 176289.0 183077.0 174790.0 167413.0 218894.0 225816.0 136533.0 141969.0 121112.0 122528.0 111870.0 118576.0 89304.0 91614.0 47496.0 39722.0 74147.0 81382.0 125800.0 118114.0 69617.0 64904.0 0.0 8574.0 164055.0 163355.0 258498.0 255265.0 60059.0 62871.0 144989.0 137937.0 97987.0 101167.0 147582.0 139517.0 74821.0 70548.0 55161.0 57754.0 146936.0 144243.0 209498.0 203099.0 119459.0 112286.0 46180.0 43648.0 103874.0 109372.0 43732.0 51451.0 157106.0 160676.0 241027.0 232817.0 95595.0 87566.0 172503.0 171499.0 109111.0 105318.0 71871.0 66766.0 99686.0 95196.0 47175.0 42722.0 83191.0 90927.0 146755.0 108273.0 146755.0 146755.0 146755.0 146755.0 108273.0 108273.0 108273.0 108273.0
57301.0 52121.0 81236.0 75106.0 112000.0 103874.0 58906.0 65902.0 253423.0 253017.0 182932.0 190121.0 69676.0 61912.0 87159.0 95147.0 19246.0 12518.0 55740.0 58907.0 9609.0 8830.0 99777.0 107557.0 125789.0 119384.0 159444.0 157601.0 10548.0 18410.0 42858.0 49893.0 28010.0 36245.0 37483.0 40153.0 54301.0 61993.0 31671.0 39449.0 152364.0 145184.0 146438.0 140082.0 17989.0 23529.0 144741.0 144207.0 40702.0 32721.0 156791.0 157215.0 117787.0 118671.0 79765.0 78030.0 126943.0 127966.0 168773.0 166517.0 67758.0 67217.0 176220.0 183794.0 140434.0 141312.0 247639.0 254242.0 78702.0 80613.0 151065.0 152125.0 157533.0 160928.0 68639.0 66869.0 172236.0 172543.0 151488.0 147071.0 121626.0 113359.0 21150.0 13389.0 223980.0 226476.0 120347.0 112632.0 74211.0 79725.0 183398.0 190072.0 182634.0 175321.0 226294.0 233292.0 130032.0 135240.0 116148.0 117087.0 104297.0 110851.0 93535.0 96452.0 39072.0 31295.0 65593.0 72808.0 117299.0 109593.0 74272.0 69676.0 8574.0 0.0 156249.0 155382.0 265859.0 262748.0 54114.0 56170.0 136801.0 129673.0 92875.0 95548.0 140272.0 132257.0 66896.0 63001.0 54148.0 57730.0 154028.0 151579.0 216959.0 210655.0 127351.0 120276.0 53207.0 51358.0 109003.0 114849.0 35171.0 42877.0 155850.0 159027.0 248920.0 240702.0 88537.0 80576.0 179403.0 178634.0 101433.0 97931.0 64302.0 59621.0 93897.0 88986.0 47286.0 44201.0 74764.0 82533.0 141709.0 113029.0 141709.0 141709.0 141709.0 141709.0 113029.0 113029.0 113029.0 113029.0
101268.0 104546.0 77714.0 82063.0 45216.0 52867.0 97712.0 90387.0 365923.0 363983.0 313649.0 319098.0 136280.0 135856.0 118709.0 118146.0 170399.0 167229.0 176120.0 184231.0 155856.0 162863.0 90722.0 90845.0 228814.0 227072.0 11955.0 19443.0 147409.0 140365.0 138289.0 132369.0 131082.0 123814.0 128143.0 121251.0 109117.0 104589.0 137235.0 134872.0 27985.0 32787.0 85526.0 89574.0 159600.0 153785.0 44000.0 51609.0 189256.0 182278.0 50999.0 42930.0 45780.0 50961.0 180204.0 185903.0 250212.0 246714.0 14718.0 18392.0 93135.0 90630.0 19976.0 27654.0 44634.0 36686.0 357711.0 364564.0 158947.0 167168.0 58400.0 66395.0 261089.0 266945.0 172890.0 165030.0 45809.0 53323.0 25791.0 20478.0 38122.0 45908.0 135633.0 143831.0 338938.0 339147.0 57569.0 62581.0 126570.0 119660.0 297118.0 301604.0 309380.0 303861.0 341561.0 349445.0 49312.0 41930.0 180190.0 173384.0 127231.0 123472.0 191393.0 199194.0 118547.0 125966.0 104011.0 95887.0 56327.0 62746.0 184981.0 183562.0 164055.0 156249.0 0.0 7962.0 378850.0 377721.0 109179.0 103497.0 26864.0 34900.0 168166.0 162280.0 24795.0 31366.0 89381.0 93659.0 139885.0 145914.0 270906.0 272579.0 333796.0 329635.0 260032.0 255314.0 190350.0 193944.0 210352.0 218343.0 124209.0 118678.0 252803.0 250927.0 372490.0 364525.0 137568.0 138397.0 290481.0 293131.0 124223.0 131349.0 92313.0 98292.0 159321.0 151860.0 147681.0 155121.0 85546.0 77880.0 88720.0 210223.0 88720.0 88720.0 88720.0 88720.0 210223.0 210223.0 210223.0 210223.0
101533.0 104190.0 75563.0 80559.0 46229.0 53280.0 96543.0 89514.0 369114.0 367174.0 316017.0 321607.0 131975.0 131950.0 113615.0 112643.0 170152.0 166645.0 172808.0 180974.0 155480.0 162280.0 85326.0 84929.0 223863.0 222341.0 5358.0 11616.0 146254.0 139024.0 139553.0 133957.0 129575.0 122082.0 128717.0 121581.0 106716.0 101728.0 137774.0 135854.0 20072.0 25323.0 77859.0 82113.0 159620.0 154124.0 51001.0 58602.0 189457.0 182318.0 58678.0 50684.0 49109.0 55152.0 182887.0 188352.0 246009.0 242310.0 20811.0 25889.0 90797.0 88940.0 22318.0 29070.0 51266.0 43236.0 360902.0 367755.0 154332.0 162579.0 65773.0 73761.0 264280.0 270136.0 168917.0 161009.0 53745.0 61284.0 33265.0 27215.0 34918.0 43104.0 134540.0 142717.0 342129.0 342338.0 51695.0 57275.0 122096.0 114961.0 300260.0 304794.0 311993.0 306333.0 344751.0 352636.0 54972.0 47920.0 174423.0 167466.0 121303.0 117254.0 194431.0 202138.0 117148.0 124702.0 100826.0 92564.0 50909.0 57806.0 187272.0 185665.0 163355.0 155382.0 7962.0 0.0 382041.0 380912.0 110026.0 103942.0 21636.0 29951.0 163084.0 157005.0 30407.0 35859.0 88535.0 93401.0 141809.0 148040.0 273893.0 275345.0 336957.0 332811.0 261992.0 257083.0 191333.0 194634.0 213534.0 221529.0 122572.0 116680.0 247384.0 245326.0 375535.0 367530.0 132369.0 133565.0 293672.0 296385.0 118414.0 125712.0 92042.0 98443.0 154074.0 146734.0 149257.0 156512.0 83191.0 75370.0 94953.0 213414.0 94953.0 94953.0 94953.0 94953.0 213414.0 213414.0 213414.0 213414.0
291756.0 294405.0 328289.0 320230.0 337211.0 331939.0 306807.0 309299.0 12954.0 17418.0 92301.0 84272.0 335312.0 327638.0 352586.0 360564.0 246955.0 254633.0 307114.0 304399.0 258426.0 257258.0 360121.0 368283.0 356640.0 348609.0 387287.0 389450.0 275568.0 282412.0 252006.0 254510.0 290053.0 297197.0 267134.0 275048.0 313630.0 321570.0 260160.0 257577.0 388646.0 384174.0 404841.0 399922.0 249972.0 249740.0 346019.0 341162.0 226890.0 234347.0 352437.0 357087.0 333119.0 328207.0 201390.0 197892.0 334145.0 340763.0 385918.0 380103.0 321228.0 316303.0 396555.0 404284.0 342590.0 348021.0 28460.0 20951.0 340102.0 339254.0 343318.0 340667.0 119290.0 112209.0 323553.0 325472.0 371118.0 367621.0 361462.0 361378.0 357864.0 351509.0 281594.0 277008.0 41892.0 39932.0 369555.0 363099.0 340025.0 345157.0 83190.0 77556.0 87599.0 95627.0 39645.0 33281.0 333453.0 341145.0 373762.0 377064.0 370136.0 376546.0 188183.0 181187.0 295959.0 289755.0 325974.0 331000.0 365357.0 359496.0 200238.0 203445.0 258498.0 265859.0 378850.0 382041.0 0.0 8049.0 280666.0 288530.0 371356.0 367573.0 352158.0 356884.0 355166.0 347686.0 309793.0 301899.0 245077.0 237989.0 112304.0 114280.0 49257.0 56333.0 140943.0 148788.0 212685.0 214922.0 168743.0 160874.0 295707.0 303523.0 380929.0 387638.0 38726.0 42065.0 354059.0 346006.0 88714.0 87755.0 367200.0 363769.0 303048.0 295053.0 355932.0 352537.0 240884.0 236169.0 325576.0 331249.0 327097.0 170417.0 327097.0 327097.0 327097.0 327097.0 170417.0 170417.0 170417.0 170417.0
290050.0 292480.0 326511.0 318468.0 335990.0 330910.0 304818.0 307503.0 14310.0 21292.0 86816.0 78762.0 332041.0 324405.0 349661.0 357647.0 243747.0 251368.0 303039.0 300148.0 255492.0 254093.0 357786.0 365939.0 351541.0 343513.0 386158.0 388321.0 272567.0 279515.0 250105.0 252846.0 287316.0 294565.0 265099.0 273041.0 311181.0 319146.0 257956.0 255601.0 387691.0 383080.0 402768.0 397725.0 247113.0 247139.0 344890.0 340033.0 223443.0 230988.0 351308.0 355958.0 331990.0 327078.0 199887.0 196107.0 328581.0 335284.0 384790.0 378974.0 319120.0 314349.0 395427.0 403155.0 341462.0 346892.0 32603.0 26016.0 336334.0 335314.0 342189.0 339538.0 118287.0 111207.0 319505.0 321592.0 369989.0 366492.0 360333.0 360250.0 356733.0 350259.0 278867.0 274098.0 39193.0 38674.0 367917.0 361368.0 336955.0 342225.0 81170.0 76123.0 82828.0 90817.0 36710.0 29455.0 332324.0 340017.0 369637.0 373083.0 367044.0 373547.0 186931.0 179762.0 293511.0 287186.0 323520.0 328702.0 363756.0 357775.0 198322.0 201389.0 255265.0 262748.0 377721.0 380912.0 8049.0 0.0 279021.0 286842.0 370377.0 366435.0 348207.0 353059.0 354038.0 346557.0 308020.0 300181.0 243490.0 236447.0 109874.0 111300.0 45796.0 52291.0 136986.0 144746.0 209661.0 211632.0 167516.0 159588.0 293087.0 300944.0 375532.0 382312.0 30736.0 34444.0 350736.0 342668.0 87266.0 85560.0 364163.0 360581.0 301348.0 293362.0 352164.0 348917.0 239004.0 234072.0 323618.0 329422.0 325969.0 168223.0 325969.0 325969.0 325969.0 325969.0 168223.0 168223.0 168223.0 168223.0
11271.0 16993.0 47830.0 39756.0 63998.0 56760.0 28952.0 29109.0 267763.0 265887.0 208450.0 214557.0 84259.0 77721.0 88207.0 94912.0 63540.0 62300.0 97799.0 103834.0 50272.0 58165.0 83926.0 91858.0 167011.0 161952.0 114768.0 114862.0 49038.0 45429.0 30051.0 26176.0 40999.0 39955.0 19278.0 14001.0 44616.0 50353.0 28320.0 25859.0 112060.0 106263.0 125317.0 121297.0 51886.0 45145.0 91461.0 90419.0 80640.0 74126.0 103052.0 103999.0 66468.0 65964.0 79332.0 82960.0 175212.0 174812.0 120070.0 116601.0 44032.0 37344.0 128874.0 136702.0 87178.0 88874.0 259615.0 266468.0 104144.0 109747.0 97024.0 98015.0 163707.0 169307.0 104535.0 99189.0 119129.0 118924.0 100117.0 96752.0 80131.0 72750.0 39105.0 45687.0 239896.0 240767.0 88900.0 82469.0 81749.0 82140.0 197863.0 203116.0 205457.0 199229.0 242450.0 250136.0 76680.0 82453.0 140717.0 138432.0 107353.0 110923.0 93001.0 99581.0 33122.0 34839.0 54749.0 56077.0 84738.0 78855.0 80983.0 78436.0 60059.0 54114.0 109179.0 110026.0 280666.0 279021.0 0.0 7992.0 94961.0 89546.0 118824.0 117891.0 89873.0 81683.0 29453.0 21366.0 35617.0 42763.0 169726.0 169899.0 234058.0 229030.0 153342.0 147948.0 81307.0 84767.0 112321.0 120020.0 38861.0 41484.0 196457.0 198020.0 270668.0 262504.0 100016.0 94198.0 191954.0 193557.0 103473.0 104246.0 22444.0 14457.0 115257.0 107908.0 40643.0 47107.0 46338.0 50984.0 88120.0 113104.0 88120.0 88120.0 88120.0 88120.0 113104.0 113104.0 113104.0 113104.0
3279.0 10482.0 39869.0 31793.0 58303.0 50720.0 21399.0 21117.0 275633.0 273774.0 215772.0 221954.0 78855.0 72671.0 81375.0 87877.0 67580.0 65492.0 95812.0 102268.0 53601.0 61219.0 76095.0 83990.0 164044.0 159276.0 108562.0 108301.0 49762.0 45020.0 37350.0 34022.0 39049.0 36462.0 24796.0 17781.0 38339.0 43471.0 33833.0 32666.0 105123.0 99126.0 117326.0 113311.0 56337.0 50288.0 88571.0 88168.0 85779.0 78922.0 100708.0 101047.0 62144.0 62546.0 87243.0 90747.0 173768.0 172999.0 114892.0 111829.0 36336.0 29453.0 123333.0 131117.0 84264.0 85291.0 267503.0 274355.0 99553.0 105531.0 95326.0 96958.0 171667.0 177238.0 101388.0 95628.0 116083.0 116406.0 95932.0 92079.0 73172.0 65604.0 38838.0 46222.0 247703.0 248622.0 81082.0 74574.0 75657.0 75544.0 205676.0 210976.0 212930.0 206630.0 250252.0 257921.0 73869.0 79120.0 135522.0 132888.0 100422.0 103738.0 100960.0 107495.0 29285.0 32677.0 47748.0 48547.0 76958.0 70967.0 88690.0 86032.0 62871.0 56170.0 103497.0 103942.0 288530.0 286842.0 7992.0 0.0 88156.0 82464.0 114051.0 112696.0 85209.0 77062.0 21464.0 13402.0 43541.0 50704.0 177458.0 177525.0 241821.0 236741.0 160494.0 154960.0 87677.0 90711.0 120263.0 127944.0 35602.0 36812.0 193216.0 194484.0 278271.0 270098.0 93932.0 88444.0 199816.0 201351.0 96506.0 97619.0 14519.0 6522.0 109985.0 102474.0 48175.0 54297.0 38382.0 43001.0 88461.0 121085.0 88461.0 88461.0 88461.0 88461.0 121085.0 121085.0 121085.0 121085.0
85432.0 86879.0 55853.0 61711.0 34771.0 39504.0 77971.0 71534.0 358510.0 356570.0 303020.0 308924.0 110358.0 110439.0 92070.0 91320.0 152476.0 148443.0 151556.0 159749.0 137667.0 144100.0 63920.0 64001.0 202290.0 200722.0 23998.0 20805.0 127297.0 119843.0 124973.0 120149.0 110218.0 102472.0 112837.0 105312.0 86395.0 80965.0 121732.0 120722.0 17342.0 13869.0 62862.0 65601.0 142457.0 137570.0 57865.0 64844.0 172460.0 165071.0 68903.0 61955.0 43578.0 51467.0 171191.0 176043.0 224395.0 220675.0 41511.0 44676.0 70662.0 69683.0 43887.0 50258.0 56489.0 49012.0 350298.0 357151.0 132698.0 140944.0 73610.0 81202.0 253754.0 259610.0 147366.0 139446.0 69149.0 75633.0 44359.0 36518.0 15243.0 23447.0 115737.0 123837.0 331585.0 331771.0 30752.0 35792.0 100463.0 93329.0 289674.0 294266.0 299583.0 293601.0 334199.0 342055.0 56137.0 51019.0 153327.0 146526.0 100378.0 96724.0 183552.0 190967.0 98023.0 105716.0 79788.0 71450.0 29490.0 36187.0 174592.0 172557.0 144989.0 136801.0 26864.0 21636.0 371356.0 370377.0 94961.0 88156.0 0.0 8322.0 141546.0 135551.0 35402.0 36164.0 70622.0 76449.0 128672.0 135304.0 262508.0 263402.0 326272.0 321747.0 248213.0 242902.0 175789.0 178507.0 202911.0 210872.0 103083.0 96768.0 226022.0 224090.0 364054.0 355962.0 110873.0 111953.0 283145.0 285618.0 97359.0 104496.0 75091.0 82177.0 132606.0 125210.0 135254.0 142040.0 63111.0 55196.0 96105.0 202888.0 96105.0 96105.0 96105.0 96105.0 202888.0 202888.0 202888.0 202888.0
79617.0 80487.0 48486.0 54754.0 32765.0 35905.0 71035.0 64933.0 354622.0 352721.0 297943.0 303966.0 102036.0 102136.0 83856.0 83260.0 145701.0 141454.0 143333.0 151535.0 130863.0 137128.0 55827.0 56248.0 194042.0 192436.0 32241.0 28383.0 120025.0 112487.0 119596.0 115128.0 102805.0 94963.0 106950.0 99290.0 78599.0 72978.0 115738.0 115126.0 22878.0 16755.0 58587.0 60462.0 135918.0 131303.0 61981.0 68560.0 165933.0 158453.0 73830.0 67344.0 43753.0 51995.0 166848.0 171436.0 216073.0 212359.0 49604.0 52346.0 62997.0 62458.0 52209.0 58542.0 60108.0 53097.0 346449.0 353302.0 124395.0 132639.0 77671.0 84998.0 249830.0 255687.0 139052.0 131131.0 75643.0 81739.0 50205.0 42278.0 9712.0 16888.0 108555.0 116604.0 327534.0 327887.0 23237.0 27689.0 92146.0 85032.0 285558.0 290313.0 294739.0 288636.0 330135.0 337953.0 58344.0 54123.0 145372.0 138660.0 92556.0 89138.0 179507.0 186784.0 90743.0 98477.0 71678.0 63316.0 21493.0 27920.0 169837.0 167632.0 137937.0 129673.0 34900.0 29951.0 367573.0 366435.0 89546.0 82464.0 8322.0 0.0 133328.0 127389.0 40038.0 39195.0 64061.0 70307.0 123894.0 130664.0 258109.0 258782.0 322081.0 317411.0 242883.0 237417.0 169855.0 172328.0 198919.0 206850.0 95627.0 89136.0 217903.0 216042.0 359523.0 351403.0 102689.0 103679.0 279170.0 281435.0 89463.0 96495.0 68963.0 76311.0 124435.0 117004.0 130080.0 136641.0 55505.0 47582.0 97414.0 198964.0 97414.0 97414.0 97414.0 97414.0 198964.0 198964.0 198964.0 198964.0
112185.0 103689.0 100589.0 102171.0 138598.0 131649.0 96718.0 103150.0 340209.0 340668.0 263993.0 271762.0 36298.0 41469.0 49476.0 51186.0 109108.0 101255.0 45476.0 49933.0 102242.0 99981.0 77883.0 79708.0 60859.0 60069.0 164539.0 158546.0 86259.0 82805.0 128130.0 132299.0 81038.0 79322.0 114955.0 110921.0 77206.0 75431.0 115415.0 122603.0 149263.0 141250.0 108846.0 100725.0 110856.0 115294.0 180991.0 184350.0 126583.0 119866.0 194738.0 191175.0 151347.0 157044.0 172441.0 170905.0 86988.0 81732.0 182884.0 184898.0 88125.0 95368.0 185014.0 190585.0 177253.0 173787.0 336316.0 342445.0 14913.0 12910.0 193562.0 198152.0 249209.0 251982.0 29028.0 26868.0 203500.0 207489.0 177709.0 170462.0 131011.0 124495.0 87389.0 86858.0 310455.0 313801.0 111810.0 105811.0 43516.0 49068.0 271633.0 278801.0 265845.0 258030.0 312576.0 319001.0 169263.0 170478.0 23321.0 24940.0 46449.0 53625.0 186362.0 189299.0 85778.0 85898.0 72976.0 78511.0 112189.0 105425.0 167138.0 162519.0 97987.0 92875.0 168166.0 163084.0 352158.0 348207.0 118824.0 114051.0 141546.0 133328.0 0.0 7913.0 165378.0 159772.0 103899.0 108180.0 140041.0 145628.0 242565.0 238916.0 302901.0 295971.0 211245.0 203461.0 143300.0 139203.0 201751.0 207356.0 80619.0 77385.0 85252.0 84412.0 330773.0 322732.0 30798.0 30251.0 268597.0 266778.0 47741.0 39572.0 108511.0 111472.0 9945.0 16371.0 136297.0 135428.0 93419.0 98283.0 196277.0 205896.0 196277.0 196277.0 196277.0 196277.0 205896.0 205896.0 205896.0 205896.0
110648.0 102247.0 96628.0 98763.0 134088.0 127368.0 94482.0 100534.0 344845.0 345154.0 269281.0 277002.0 33922.0 40180.0 43680.0 44572.0 112479.0 104595.0 51249.0 56372.0 104725.0 103028.0 71682.0 73022.0 67461.0 67166.0 158300.0 152140.0 88270.0 84187.0 129010.0 132756.0 81510.0 79008.0 115309.0 110802.0 75098.0 72550.0 116389.0 123339.0 142736.0 134767.0 101212.0 93098.0 113441.0 117394.0 176558.0 180166.0 130665.0 123721.0 190291.0 186478.0 147112.0 153074.0 174643.0 173452.0 94577.0 89142.0 176991.0 179241.0 84901.0 92386.0 178804.0 184229.0 172902.0 169166.0 340601.0 346829.0 16982.0 18567.0 189463.0 194280.0 252627.0 255612.0 35117.0 31551.0 198513.0 202724.0 172619.0 165263.0 125471.0 119200.0 88354.0 88551.0 315113.0 318321.0 105521.0 99762.0 39609.0 44204.0 275941.0 283022.0 270891.0 263121.0 317267.0 323787.0 165186.0 166093.0 22833.0 21661.0 38942.0 45947.0 188715.0 191951.0 85121.0 85957.0 69720.0 74626.0 106102.0 99560.0 169750.0 165193.0 101167.0 95548.0 162280.0 157005.0 356884.0 353059.0 117891.0 112696.0 135551.0 127389.0 7913.0 0.0 160352.0 154981.0 101229.0 105997.0 140824.0 146651.0 246774.0 243331.0 307633.0 300786.0 216074.0 208348.0 146929.0 143165.0 204549.0 210353.0 80385.0 76434.0 90593.0 89195.0 336077.0 328006.0 24747.0 25923.0 272710.0 271096.0 40478.0 32380.0 106234.0 109708.0 3036.0 11021.0 137609.0 137204.0 89741.0 94134.0 193212.0 208479.0 193212.0 193212.0 193212.0 193212.0 208479.0 208479.0 208479.0 208479.0
83455.0 88176.0 67548.0 69696.0 29186.0 37413.0 83708.0 75844.0 342239.0 340299.0 290808.0 296071.0 131087.0 129258.0 116930.0 118044.0 152789.0 150443.0 166900.0 174741.0 138686.0 146116.0 91154.0 93460.0 224904.0 222325.0 35632.0 41171.0 132283.0 125837.0 117756.0 111281.0 117164.0 110670.0 109139.0 102886.0 98322.0 95374.0 118193.0 114928.0 46455.0 47619.0 98148.0 100446.0 141473.0 135007.0 22537.0 29754.0 170512.0 163929.0 33792.0 27564.0 23574.0 26974.0 157150.0 163152.0 243374.0 240620.0 31077.0 26741.0 82730.0 78387.0 41398.0 49167.0 21669.0 13805.0 334027.0 340880.0 154491.0 162492.0 38250.0 45942.0 237406.0 243262.0 165920.0 158332.0 38165.0 42937.0 12431.0 6880.0 36852.0 41508.0 120521.0 128648.0 315255.0 315464.0 62245.0 64522.0 122216.0 116325.0 273434.0 277920.0 286229.0 280893.0 317877.0 325762.0 24611.0 17546.0 180126.0 174081.0 128743.0 126416.0 167879.0 175775.0 104591.0 111483.0 95860.0 88511.0 59345.0 63281.0 162460.0 161326.0 147582.0 140272.0 24795.0 30407.0 355166.0 354038.0 89873.0 85209.0 35402.0 40038.0 165378.0 160352.0 0.0 8193.0 74800.0 77362.0 118147.0 123807.0 247351.0 249277.0 310112.0 305950.0 237834.0 233417.0 170015.0 174162.0 186669.0 194661.0 110790.0 106418.0 250630.0 249539.0 348813.0 340894.0 135761.0 135131.0 266797.0 269513.0 125277.0 131493.0 76096.0 80829.0 157324.0 149496.0 126494.0 134220.0 75556.0 68824.0 64593.0 186539.0 64593.0 64593.0 64593.0 64593.0 186539.0 186539.0 186539.0 186539.0
75343.0 80196.0 60847.0 62476.0 21990.0 30049.0 76078.0 68167.0 334759.0 332819.0 283035.0 288354.0 125033.0 122886.0 111831.0 113396.0 144641.0 142350.0 159861.0 167636.0 130572.0 138029.0 86939.0 89862.0 218885.0 216119.0 41209.0 45721.0 124369.0 118007.0 109592.0 103155.0 109436.0 103077.0 100950.0 94722.0 91207.0 88610.0 110003.0 106740.0 49567.0 49419.0 97782.0 99429.0 133305.0 126819.0 23343.0 29454.0 162322.0 155748.0 36358.0 31558.0 15417.0 19598.0 149418.0 155331.0 236689.0 234094.0 39070.0 34934.0 75805.0 71115.0 49089.0 56916.0 20999.0 14763.0 326547.0 333400.0 148517.0 156438.0 38749.0 45873.0 229925.0 235781.0 159341.0 151832.0 43996.0 47742.0 19535.0 15070.0 34136.0 37338.0 112626.0 120732.0 307774.0 307983.0 59989.0 61320.0 116414.0 110820.0 265954.0 270440.0 278552.0 273157.0 310397.0 318281.0 20220.0 14953.0 175176.0 169357.0 124472.0 122579.0 160324.0 168181.0 96890.0 103687.0 89332.0 82229.0 56662.0 59679.0 154581.0 153384.0 139517.0 132257.0 31366.0 35859.0 347686.0 346557.0 81683.0 77062.0 36164.0 39195.0 159772.0 154981.0 8193.0 0.0 67123.0 69421.0 110100.0 115825.0 239827.0 241650.0 302632.0 298440.0 229901.0 225430.0 161852.0 165977.0 179188.0 187173.0 103154.0 98989.0 244985.0 244091.0 341353.0 333412.0 130534.0 129530.0 259317.0 262032.0 120900.0 126818.0 68170.0 72752.0 151947.0 144058.0 118384.0 126086.0 68795.0 62373.0 60608.0 179059.0 60608.0 60608.0 60608.0 60608.0 179059.0 179059.0 179059.0 179059.0
18189.0 16529.0 18495.0 10452.0 45806.0 37551.0 9017.0 1044.0 296908.0 295089.0 235910.0 242252.0 67628.0 62938.0 64882.0 70479.0 81887.0 78123.0 94440.0 101856.0 67109.0 73761.0 55523.0 63216.0 158540.0 154658.0 92698.0 91304.0 58081.0 51250.0 58035.0 55370.0 42375.0 36002.0 43853.0 35930.0 27245.0 28706.0 52246.0 52832.0 86939.0 80340.0 95864.0 91922.0 71872.0 67326.0 83398.0 84849.0 101887.0 94456.0 96681.0 95269.0 54043.0 57263.0 108618.0 111922.0 172426.0 170647.0 102144.0 100377.0 17561.0 9627.0 109345.0 116901.0 79203.0 78204.0 288817.0 295670.0 90315.0 97308.0 93287.0 96623.0 193105.0 198632.0 96505.0 89692.0 109645.0 111468.0 86653.0 81414.0 55380.0 47290.0 46286.0 54484.0 268858.0 269873.0 60113.0 53360.0 62114.0 60115.0 226851.0 232238.0 233397.0 226949.0 271395.0 279029.0 69625.0 73056.0 123703.0 119998.0 83235.0 85580.0 122399.0 128871.0 29792.0 36829.0 31981.0 30008.0 56131.0 49782.0 109733.0 106888.0 74821.0 66896.0 89381.0 88535.0 309793.0 308020.0 29453.0 21464.0 70622.0 64061.0 103899.0 101229.0 74800.0 67123.0 0.0 8151.0 64955.0 72132.0 198479.0 198334.0 262887.0 257701.0 180330.0 174509.0 106231.0 108386.0 141677.0 149331.0 36035.0 32445.0 186654.0 187061.0 298991.0 290800.0 79887.0 75685.0 221084.0 222489.0 79240.0 81578.0 7295.0 15040.0 98324.0 90441.0 69069.0 74634.0 17385.0 21545.0 92538.0 142547.0 92538.0 92538.0 92538.0 92538.0 142547.0 142547.0 142547.0 142547.0
10149.0 10915.0 26468.0 18392.0 49023.0 40954.0 11518.0 7961.0 289005.0 287158.0 228611.0 234877.0 72134.0 66817.0 71412.0 77369.0 76784.0 73622.0 95333.0 102425.0 62198.0 69261.0 63496.0 71253.0 161219.0 156996.0 97788.0 96924.0 54952.0 48763.0 50398.0 47405.0 40737.0 35592.0 36752.0 28996.0 30977.0 34146.0 45442.0 45391.0 93126.0 86818.0 103979.0 100071.0 66253.0 61124.0 83827.0 84547.0 96176.0 88943.0 96734.0 96016.0 55393.0 57467.0 100639.0 104075.0 173565.0 172164.0 105855.0 103518.0 24605.0 17012.0 113624.0 121299.0 79555.0 79378.0 280886.0 287739.0 94191.0 100830.0 92541.0 95244.0 185067.0 190639.0 98749.0 92301.0 110726.0 111953.0 88803.0 84128.0 61281.0 53425.0 43232.0 51315.0 261033.0 261987.0 67785.0 61200.0 67486.0 66212.0 219013.0 224343.0 225938.0 219562.0 263577.0 271232.0 69559.0 73765.0 128664.0 125348.0 90081.0 92780.0 114360.0 120892.0 28652.0 34663.0 37933.0 37127.0 63709.0 57599.0 101960.0 99212.0 70548.0 63001.0 93659.0 93401.0 301899.0 300181.0 21366.0 13402.0 76449.0 70307.0 108180.0 105997.0 77362.0 69421.0 8151.0 0.0 56942.0 64106.0 190729.0 190699.0 255115.0 249988.0 173160.0 167466.0 99560.0 102074.0 133664.0 141343.0 35272.0 33472.0 189773.0 190501.0 291409.0 283227.0 85549.0 80836.0 213185.0 214673.0 86106.0 87998.0 1363.0 6914.0 103155.0 95383.0 61353.0 67174.0 25430.0 29626.0 89435.0 134468.0 89435.0 89435.0 89435.0 89435.0 134468.0 134468.0 134468.0 134468.0
46797.0 50493.0 83405.0 75329.0 95695.0 89417.0 63105.0 64538.0 232167.0 230279.0 174442.0 180266.0 109179.0 101695.0 118272.0 125634.0 51677.0 55059.0 108848.0 112770.0 45479.0 52530.0 118136.0 126214.0 179428.0 173243.0 146824.0 147834.0 55995.0 57574.0 11984.0 9706.0 59348.0 63026.0 26233.0 32820.0 74663.0 81786.0 24737.0 17487.0 145967.0 140647.0 160716.0 156455.0 40710.0 32395.0 114334.0 111259.0 60221.0 56387.0 123600.0 126547.0 94742.0 91838.0 43716.0 47612.0 180850.0 182069.0 149171.0 144550.0 78140.0 72217.0 158922.0 166790.0 110330.0 114019.0 224007.0 230860.0 125155.0 129063.0 115629.0 114275.0 128155.0 133698.0 119845.0 116413.0 141490.0 139481.0 126688.0 124857.0 114292.0 107335.0 52658.0 54325.0 204393.0 205189.0 124479.0 118086.0 109263.0 111472.0 162355.0 167535.0 170915.0 164947.0 206958.0 214676.0 100102.0 107135.0 163101.0 162303.0 137457.0 142031.0 57455.0 63964.0 58515.0 55458.0 86363.0 89383.0 120285.0 114472.0 45947.0 43938.0 55161.0 54148.0 139885.0 141809.0 245077.0 243490.0 35617.0 43541.0 128672.0 123894.0 140041.0 140824.0 118147.0 110100.0 64955.0 56942.0 0.0 7195.0 134416.0 134898.0 198647.0 193746.0 120192.0 115438.0 53755.0 59442.0 76725.0 84406.0 61508.0 67521.0 209484.0 212307.0 235661.0 227529.0 126928.0 120027.0 156371.0 158088.0 133780.0 133180.0 58050.0 50053.0 138567.0 132072.0 10000.0 18084.0 81416.0 86497.0 100929.0 77703.0 100929.0 100929.0 100929.0 100929.0 77703.0 77703.0 77703.0 77703.0
53965.0 57675.0 90572.0 82496.0 102041.0 95946.0 70287.0 71722.0 225074.0 223172.0 168021.0 173744.0 115399.0 107839.0 125053.0 132472.0 52894.0 57166.0 113090.0 116624.0 48615.0 55096.0 125291.0 133376.0 183465.0 177111.0 153098.0 154291.0 60638.0 62889.0 17751.0 16891.0 65353.0 69440.0 32911.0 39792.0 81577.0 88782.0 30262.0 23688.0 152621.0 147410.0 167908.0 163650.0 42786.0 34878.0 119072.0 115665.0 58814.0 55874.0 127858.0 131146.0 100535.0 97267.0 36602.0 40772.0 183676.0 185186.0 154874.0 150051.0 85309.0 79411.0 164784.0 172644.0 115148.0 119156.0 216900.0 223753.0 130780.0 134425.0 119599.0 117834.0 120973.0 126545.0 124664.0 121545.0 145972.0 143640.0 132007.0 130458.0 121035.0 114174.0 58309.0 59276.0 197370.0 198112.0 131578.0 125223.0 115789.0 118192.0 155332.0 160458.0 164308.0 158438.0 199940.0 207676.0 105052.0 112240.0 168779.0 168198.0 144209.0 148888.0 50269.0 56836.0 65197.0 61781.0 93361.0 96498.0 127369.0 121606.0 39322.0 37650.0 57754.0 57730.0 145914.0 148040.0 237989.0 236447.0 42763.0 50704.0 135304.0 130664.0 145628.0 146651.0 123807.0 115825.0 72132.0 64106.0 7195.0 0.0 127508.0 128131.0 191675.0 186836.0 114135.0 109611.0 50259.0 56551.0 69560.0 77262.0 67906.0 74151.0 213531.0 216563.0 228859.0 220741.0 133324.0 126313.0 149294.0 151091.0 140560.0 139804.0 65205.0 57210.0 144455.0 138099.0 10579.0 16824.0 88611.0 93676.0 104309.0 70508.0 104309.0 104309.0 104309.0 104309.0 70508.0 70508.0 70508.0 70508.0
180633.0 182774.0 216947.0 208931.0 228606.0 223019.0 195049.0 197931.0 99663.0 98995.0 48826.0 51548.0 223668.0 215930.0 240424.0 248392.0 135374.0 143160.0 198347.0 196593.0 146337.0 145551.0 247922.0 256078.0 254276.0 246337.0 279100.0 280959.0 163546.0 170260.0 140467.0 143579.0 177782.0 184895.0 155315.0 163274.0 201359.0 209312.0 148090.0 145873.0 279849.0 274838.0 292927.0 287853.0 137808.0 137437.0 238216.0 233358.0 116115.0 123228.0 244634.0 249283.0 225135.0 220384.0 91318.0 86812.0 236799.0 242346.0 278113.0 272243.0 209276.0 204605.0 288745.0 296479.0 234787.0 240218.0 93851.0 100265.0 229844.0 229674.0 235515.0 232864.0 28991.0 22901.0 214541.0 215709.0 263314.0 259818.0 253659.0 253575.0 248452.0 241676.0 169321.0 164875.0 70701.0 72587.0 258514.0 251837.0 228035.0 233004.0 29371.0 36247.0 40965.0 38242.0 73165.0 80647.0 225650.0 233342.0 264841.0 267494.0 258155.0 264449.0 79514.0 71756.0 183687.0 177451.0 213702.0 218831.0 254415.0 248262.0 88771.0 91644.0 146936.0 154028.0 270906.0 273893.0 112304.0 109874.0 169726.0 177458.0 262508.0 258109.0 242565.0 246774.0 247351.0 239827.0 198479.0 190729.0 134416.0 127508.0 0.0 8300.0 64430.0 59330.0 37930.0 45342.0 100835.0 103725.0 60798.0 52885.0 183404.0 191219.0 281018.0 286952.0 101650.0 93637.0 242495.0 234486.0 26241.0 24631.0 255149.0 251937.0 191924.0 183964.0 245615.0 241742.0 129410.0 124262.0 213865.0 219794.0 219294.0 63526.0 219294.0 219294.0 219294.0 219294.0 63526.0 63526.0 63526.0 63526.0
180658.0 182419.0 216747.0 208776.0 229778.0 223974.0 194555.0 197750.0 101886.0 101843.0 43700.0 47485.0 221059.0 213372.0 238381.0 246364.0 132693.0 140395.0 194364.0 192314.0 144208.0 142983.0 246799.0 254937.0 248935.0 240967.0 280512.0 282136.0 161315.0 168223.0 140314.0 143854.0 176030.0 183323.0 154852.0 162835.0 200089.0 208078.0 147336.0 145552.0 280730.0 275532.0 292162.0 286908.0 135814.0 135944.0 240415.0 235558.0 112860.0 120196.0 246834.0 251483.0 226804.0 222305.0 92462.0 87365.0 230715.0 236408.0 280160.0 274459.0 208558.0 204149.0 290670.0 298441.0 236958.0 242412.0 97502.0 103529.0 226452.0 226009.0 237714.0 235064.0 37007.0 31176.0 210660.0 212101.0 265514.0 262017.0 255840.0 255592.0 249163.0 242229.0 167584.0 162809.0 72404.0 75076.0 258441.0 251636.0 225754.0 230947.0 32927.0 40505.0 37198.0 33112.0 74735.0 81865.0 227847.0 235530.0 260979.0 263856.0 255861.0 262301.0 81500.0 73522.0 182434.0 175993.0 212414.0 217792.0 254404.0 248083.0 88986.0 91494.0 144243.0 151579.0 272579.0 275345.0 114280.0 111300.0 169899.0 177525.0 263402.0 258782.0 238916.0 243331.0 249277.0 241650.0 198334.0 190699.0 134898.0 128131.0 8300.0 0.0 65521.0 59655.0 31140.0 38881.0 98417.0 100726.0 63494.0 55805.0 181853.0 189737.0 275346.0 281399.0 100780.0 92635.0 239828.0 231784.0 31698.0 28060.0 252939.0 249492.0 191921.0 184004.0 242258.0 238608.0 129358.0 123804.0 213381.0 219507.0 221494.0 67000.0 221494.0 221494.0 221494.0 221494.0 67000.0 67000.0 67000.0 67000.0
245007.0 247203.0 281361.0 273340.0 292110.0 286769.0 259475.0 262346.0 37573.0 39616.0 46516.0 39065.0 286290.0 278643.0 303867.0 311852.0 197974.0 205610.0 257872.0 255209.0 209698.0 208313.0 312171.0 320318.0 308253.0 300225.0 342213.0 344385.0 226771.0 233723.0 204887.0 207892.0 241550.0 248827.0 219740.0 227701.0 265516.0 273492.0 212462.0 210302.0 343610.0 338780.0 357318.0 352187.0 201328.0 201422.0 300965.0 296108.0 177750.0 185258.0 307383.0 312033.0 288065.0 283153.0 155254.0 151100.0 286709.0 293119.0 340864.0 335049.0 273670.0 269033.0 351501.0 359230.0 297536.0 302967.0 39872.0 43059.0 290859.0 289997.0 298264.0 295613.0 76416.0 68834.0 274305.0 276216.0 326064.0 322567.0 316408.0 316324.0 312399.0 305754.0 233104.0 228305.0 8332.0 14879.0 322895.0 316247.0 291165.0 296430.0 36701.0 33444.0 39621.0 47570.0 9862.0 16346.0 288399.0 296091.0 324527.0 327808.0 321256.0 327752.0 142747.0 135316.0 247850.0 241473.0 277849.0 283116.0 318778.0 312668.0 153158.0 156073.0 209498.0 216959.0 333796.0 336957.0 49257.0 45796.0 234058.0 241821.0 326272.0 322081.0 302901.0 307633.0 310112.0 302632.0 262887.0 255115.0 198647.0 191675.0 64430.0 65521.0 0.0 7962.0 91700.0 99564.0 163865.0 165876.0 123475.0 115486.0 247353.0 255225.0 333070.0 339631.0 41035.0 34353.0 305002.0 296940.0 43952.0 40655.0 318370.0 314810.0 256302.0 248333.0 306689.0 303333.0 193821.0 188683.0 278292.0 284218.0 282043.0 124850.0 282043.0 282043.0 282043.0 282043.0 124850.0 124850.0 124850.0 124850.0
239906.0 241897.0 276150.0 268151.0 287732.0 282248.0 254097.0 257138.0 45060.0 47469.0 38558.0 31153.0 279838.0 272221.0 297674.0 305664.0 191600.0 199187.0 250857.0 248082.0 203544.0 201969.0 306451.0 314588.0 300679.0 292649.0 338045.0 340060.0 220551.0 227585.0 199668.0 202895.0 235539.0 242898.0 214370.0 222346.0 259730.0 267722.0 206946.0 205002.0 339089.0 334134.0 351794.0 346561.0 195244.0 195563.0 296803.0 291945.0 171192.0 178768.0 303221.0 307870.0 283911.0 278990.0 150577.0 146140.0 278939.0 285382.0 336702.0 330886.0 268172.0 263677.0 347339.0 355067.0 293374.0 298805.0 47798.0 51003.0 284050.0 283073.0 294102.0 291451.0 73948.0 66108.0 267309.0 269331.0 321901.0 318405.0 312246.0 312162.0 307747.0 300998.0 227106.0 222159.0 16285.0 22671.0 317770.0 311045.0 284864.0 290235.0 33285.0 31726.0 31803.0 39792.0 17613.0 23063.0 284237.0 291929.0 317487.0 320860.0 314931.0 321495.0 138407.0 130822.0 242080.0 235604.0 272051.0 277447.0 313689.0 307478.0 148054.0 150815.0 203099.0 210655.0 329635.0 332811.0 56333.0 52291.0 229030.0 236741.0 321747.0 317411.0 295971.0 300786.0 305950.0 298440.0 257701.0 249988.0 193746.0 186836.0 59330.0 59655.0 7962.0 0.0 84728.0 92526.0 157672.0 159453.0 119291.0 111298.0 241436.0 249337.0 325374.0 331965.0 43250.0 35737.0 298508.0 290436.0 41243.0 36623.0 312088.0 308415.0 251191.0 243242.0 299881.0 296627.0 188643.0 183307.0 272922.0 278959.0 277881.0 121060.0 277881.0 277881.0 277881.0 277881.0 121060.0 121060.0 121060.0 121060.0
163443.0 163949.0 198370.0 190621.0 215833.0 209335.0 175491.0 179635.0 129139.0 130072.0 55953.0 62869.0 195820.0 188305.0 214491.0 222474.0 108123.0 115476.0 166172.0 163564.0 120976.0 118553.0 225396.0 233434.0 218495.0 210502.0 266985.0 267782.0 137553.0 144911.0 123291.0 128188.0 153426.0 161151.0 136488.0 144401.0 178620.0 186639.0 128190.0 127848.0 265378.0 259586.0 271556.0 265807.0 113124.0 114746.0 231501.0 227217.0 87137.0 94914.0 238759.0 243071.0 214651.0 211116.0 82126.0 75235.0 199675.0 205448.0 268911.0 263875.0 188654.0 185096.0 278906.0 286763.0 227808.0 232474.0 126844.0 132327.0 199364.0 198346.0 229658.0 227021.0 61164.0 57972.0 182610.0 184607.0 257380.0 253956.0 245596.0 244425.0 233467.0 226062.0 145128.0 139483.0 99379.0 103180.0 240128.0 232968.0 201316.0 207061.0 63223.0 71069.0 55350.0 47970.0 101430.0 107758.0 218090.0 225534.0 232827.0 236138.0 231242.0 238025.0 75254.0 67280.0 161202.0 154236.0 190782.0 196845.0 236318.0 229514.0 75497.0 76519.0 119459.0 127351.0 260032.0 261992.0 140943.0 136986.0 153342.0 160494.0 248213.0 242883.0 211245.0 216074.0 237834.0 229901.0 180330.0 173160.0 120192.0 114135.0 37930.0 31140.0 91700.0 84728.0 0.0 7996.0 75511.0 76024.0 62146.0 56622.0 159761.0 167757.0 244569.0 250725.0 121574.0 113360.0 214353.0 206266.0 62806.0 58446.0 228547.0 224520.0 174455.0 166785.0 215193.0 212049.0 112984.0 106241.0 194150.0 200832.0 213451.0 68145.0 213451.0 213451.0 213451.0 213451.0 68145.0 68145.0 68145.0 68145.0
157856.0 158065.0 192423.0 184741.0 210872.0 204227.0 169440.0 173790.0 137038.0 138031.0 62682.0 69855.0 188442.0 180966.0 207352.0 215328.0 101031.0 108285.0 158334.0 155658.0 114138.0 111459.0 218748.0 226755.0 210513.0 202521.0 262028.0 262632.0 130552.0 137990.0 117932.0 123137.0 146639.0 154440.0 130730.0 138593.0 172026.0 180037.0 122282.0 122294.0 260004.0 254085.0 265027.0 259180.0 106441.0 108408.0 227726.0 223641.0 79868.0 87712.0 235338.0 239436.0 210118.0 206825.0 78999.0 71755.0 191841.0 197569.0 264484.0 259613.0 182384.0 179024.0 274342.0 282208.0 223966.0 228431.0 134839.0 140309.0 191670.0 190568.0 226375.0 223734.0 67063.0 64480.0 174784.0 176859.0 253883.0 250677.0 241451.0 240062.0 228064.0 220564.0 138393.0 132571.0 107286.0 111144.0 234125.0 226897.0 194084.0 199930.0 71170.0 78996.0 62761.0 55209.0 109315.0 115574.0 214127.0 221494.0 224975.0 228340.0 223953.0 230795.0 73407.0 65669.0 154697.0 147631.0 184132.0 190332.0 230371.0 223470.0 71629.0 72212.0 112286.0 120276.0 255314.0 257083.0 148788.0 144746.0 147948.0 154960.0 242902.0 237417.0 203461.0 208348.0 233417.0 225430.0 174509.0 167466.0 115438.0 109611.0 45342.0 38881.0 99564.0 92526.0 7996.0 0.0 69021.0 69063.0 62063.0 57363.0 153070.0 161074.0 236634.0 242771.0 128799.0 120605.0 206919.0 198830.0 70579.0 66381.0 221301.0 217170.0 168775.0 161186.0 207496.0 204433.0 107858.0 100865.0 188019.0 194812.0 210164.0 68493.0 210164.0 210164.0 210164.0 210164.0 68493.0 68493.0 68493.0 68493.0
90357.0 89707.0 123829.0 116296.0 145249.0 138064.0 100711.0 105458.0 200227.0 199815.0 131460.0 138331.0 122833.0 115096.0 140011.0 147999.0 34643.0 42499.0 100907.0 100826.0 45879.0 44723.0 149895.0 157943.0 164726.0 157282.0 196067.0 195976.0 62906.0 69923.0 52260.0 58988.0 78094.0 85708.0 62953.0 70567.0 103110.0 111129.0 54119.0 55495.0 192639.0 186375.0 196056.0 190298.0 37719.0 39431.0 167786.0 164933.0 18774.0 23723.0 177320.0 180094.0 146442.0 144424.0 41911.0 35838.0 155956.0 159424.0 200733.0 196689.0 113402.0 110249.0 209908.0 217762.0 163717.0 166996.0 194528.0 201076.0 129947.0 130545.0 169382.0 167923.0 105975.0 108701.0 116370.0 116507.0 195101.0 193219.0 179301.0 176840.0 160723.0 152968.0 69731.0 64493.0 170819.0 173270.0 165388.0 158075.0 127340.0 132573.0 130203.0 136927.0 130338.0 123272.0 173149.0 180208.0 153376.0 160185.0 166139.0 168073.0 157451.0 163890.0 51250.0 50715.0 85705.0 78729.0 115285.0 121348.0 161721.0 154685.0 31987.0 27628.0 46180.0 53207.0 190350.0 191333.0 212685.0 209661.0 81307.0 87677.0 175789.0 169855.0 143300.0 146929.0 170015.0 161852.0 106231.0 99560.0 53755.0 50259.0 100835.0 98417.0 163865.0 157672.0 75511.0 69021.0 0.0 7909.0 61315.0 65563.0 84300.0 92286.0 193841.0 198490.0 196658.0 188425.0 141667.0 133666.0 126328.0 125432.0 154523.0 151137.0 100899.0 93617.0 145574.0 141304.0 44251.0 36158.0 119156.0 126093.0 154464.0 66901.0 154464.0 154464.0 154464.0 154464.0 66901.0 66901.0 66901.0 66901.0
93228.0 91880.0 125569.0 118236.0 148747.0 141368.0 102358.0 107566.0 202601.0 202486.0 131744.0 138850.0 120413.0 112775.0 138517.0 146504.0 32180.0 39737.0 95970.0 95387.0 45114.0 42591.0 149848.0 157815.0 158402.0 150872.0 199273.0 198878.0 61529.0 68928.0 56657.0 63833.0 77631.0 85513.0 65920.0 73228.0 103263.0 111247.0 56887.0 59248.0 195178.0 188715.0 196277.0 190289.0 37723.0 41062.0 172779.0 170180.0 12788.0 19504.0 182646.0 185163.0 150601.0 148947.0 49787.0 43570.0 148764.0 152400.0 204688.0 200887.0 114417.0 111778.0 213632.0 221465.0 168661.0 171663.0 197574.0 203947.0 126207.0 126365.0 174914.0 173709.0 110725.0 112995.0 111747.0 112342.0 200230.0 198592.0 183752.0 181015.0 163354.0 155466.0 69453.0 63508.0 173031.0 175787.0 166829.0 159394.0 125482.0 131082.0 133005.0 139955.0 131280.0 123991.0 175301.0 182187.0 158254.0 164908.0 161814.0 164080.0 155508.0 162164.0 58768.0 57786.0 86176.0 78903.0 115258.0 121696.0 163291.0 156072.0 39768.0 35482.0 43648.0 51358.0 193944.0 194634.0 214922.0 211632.0 84767.0 90711.0 178507.0 172328.0 139203.0 143165.0 174162.0 165977.0 108386.0 102074.0 59442.0 56551.0 103725.0 100726.0 165876.0 159453.0 76024.0 69063.0 7909.0 0.0 67839.0 71586.0 84174.0 92178.0 187310.0 192115.0 197576.0 189355.0 139138.0 131084.0 129562.0 128187.0 152719.0 148962.0 103427.0 96417.0 141944.0 138019.0 49655.0 41469.0 120491.0 127656.0 160365.0 73696.0 160365.0 160365.0 160365.0 160365.0 73696.0 73696.0 73696.0 73696.0
123521.0 126864.0 160129.0 152054.0 168653.0 163424.0 139437.0 141249.0 155801.0 153863.0 106678.0 110953.0 177042.0 169203.0 190558.0 198328.0 93134.0 100833.0 161224.0 161729.0 99886.0 101796.0 193976.0 202120.0 226040.0 218583.0 218777.0 220912.0 116760.0 122118.0 84777.0 86323.0 127897.0 133928.0 100373.0 108040.0 148659.0 156320.0 94573.0 90654.0 220238.0 215565.0 237358.0 232923.0 91131.0 87993.0 177522.0 172664.0 80048.0 84613.0 183940.0 188589.0 164620.0 159709.0 33140.0 31610.0 216227.0 220096.0 217421.0 211605.0 154267.0 148737.0 228058.0 235786.0 174093.0 179524.0 147591.0 154443.0 187699.0 189294.0 174821.0 172170.0 51499.0 57003.0 176092.0 175363.0 202620.0 199124.0 192965.0 192881.0 189216.0 182781.0 119645.0 117113.0 128674.0 128981.0 201049.0 194766.0 179571.0 183328.0 86809.0 91394.0 100688.0 96261.0 131290.0 139160.0 164956.0 172648.0 224945.0 226084.0 209248.0 214740.0 19441.0 13099.0 131292.0 126154.0 160864.0 164901.0 196802.0 191146.0 35019.0 39419.0 103874.0 109003.0 210352.0 213534.0 168743.0 167516.0 112321.0 120263.0 202911.0 198919.0 201751.0 204549.0 186669.0 179188.0 141677.0 133664.0 76725.0 69560.0 60798.0 63494.0 123475.0 119291.0 62146.0 62063.0 61315.0 67839.0 0.0 7995.0 132373.0 139672.0 255101.0 259800.0 162168.0 154244.0 195803.0 188134.0 80254.0 82861.0 205868.0 203898.0 134764.0 126769.0 202868.0 197723.0 73724.0 70516.0 157982.0 163216.0 158600.0 7151.0 158600.0 158600.0 158600.0 158600.0 7151.0 7151.0 7151.0 7151.0
131195.0 134387.0 167800.0 159725.0 176633.0 171381.0 146937.0 148888.0 147938.0 145999.0 99180.0 103290.0 183389.0 175545.0 197371.0 205178.0 98401.0 106188.0 166174.0 166356.0 105896.0 107389.0 201322.0 209475.0 229985.0 222439.0 226771.0 228899.0 122924.0 128512.0 92178.0 93961.0 134571.0 140777.0 107708.0 115436.0 155784.0 163497.0 101673.0 98001.0 228202.0 223504.0 244926.0 240415.0 97110.0 94404.0 185513.0 180656.0 84094.0 89168.0 191931.0 196581.0 172613.0 167701.0 40714.0 38453.0 219090.0 223203.0 225413.0 219597.0 161707.0 156281.0 236050.0 243778.0 182084.0 187515.0 139727.0 146580.0 193451.0 194806.0 182812.0 180161.0 44114.0 49302.0 181291.0 180827.0 210612.0 207115.0 200956.0 200872.0 197149.0 190683.0 126259.0 123427.0 120714.0 121080.0 208813.0 202485.0 186176.0 190104.0 78827.0 83470.0 92968.0 88710.0 123327.0 131188.0 172947.0 180639.0 230477.0 231823.0 215961.0 221565.0 27343.0 20470.0 138338.0 133029.0 168028.0 172214.0 204580.0 198868.0 41585.0 45732.0 109372.0 114849.0 218343.0 221529.0 160874.0 159588.0 120020.0 127944.0 210872.0 206850.0 207356.0 210353.0 194661.0 187173.0 149331.0 141343.0 84406.0 77262.0 52885.0 55805.0 115486.0 111298.0 56622.0 57363.0 65563.0 71586.0 7995.0 0.0 139227.0 146618.0 258809.0 263687.0 154187.0 146271.0 202198.0 194468.0 72322.0 74868.0 212626.0 210488.0 142455.0 134458.0 208741.0 203758.0 81083.0 77531.0 165537.0 170860.0 166591.0 11757.0 166591.0 166591.0 166591.0 166591.0 11757.0 11757.0 11757.0 11757.0
34696.0 26479.0 47232.0 42146.0 81700.0 73438.0 27083.0 34992.0 283052.0 282071.0 215676.0 222614.0 47795.0 40507.0 58192.0 65959.0 53379.0 47594.0 60543.0 67365.0 39141.0 43530.0 65685.0 73686.0 128476.0 123674.0 126313.0 123856.0 24872.0 17052.0 50194.0 52838.0 7256.0 1561.0 35391.0 30418.0 19251.0 27139.0 38378.0 44218.0 118067.0 110686.0 112125.0 106125.0 46640.0 45967.0 118913.0 119806.0 74900.0 66938.0 131944.0 130978.0 89936.0 92590.0 100056.0 100814.0 138742.0 137685.0 137474.0 136109.0 32901.0 33636.0 144048.0 151411.0 114664.0 114079.0 276028.0 282879.0 65784.0 71036.0 127804.0 130367.0 183176.0 187545.0 65852.0 60338.0 145513.0 147042.0 122685.0 117358.0 88106.0 79795.0 14737.0 21783.0 254011.0 255949.0 85229.0 77494.0 47951.0 51009.0 212627.0 218833.0 214621.0 207572.0 256420.0 263690.0 104771.0 108720.0 103066.0 101529.0 77020.0 82368.0 114508.0 119295.0 6654.0 6245.0 31084.0 37806.0 82267.0 74497.0 97659.0 93709.0 43732.0 35171.0 124209.0 122572.0 295707.0 293087.0 38861.0 35602.0 103083.0 95627.0 80619.0 80385.0 110790.0 103154.0 36035.0 35272.0 61508.0 67906.0 183404.0 181853.0 247353.0 241436.0 159761.0 153070.0 84300.0 84174.0 132373.0 139227.0 0.0 8006.0 157750.0 159197.0 280926.0 272691.0 65429.0 58548.0 207882.0 207987.0 73555.0 72131.0 36265.0 35285.0 77931.0 71043.0 60117.0 61922.0 40189.0 48086.0 123436.0 135005.0 123436.0 123436.0 123436.0 123436.0 135005.0 135005.0 135005.0 135005.0
35229.0 26675.0 41117.0 36923.0 77233.0 69012.0 23497.0 31434.0 290852.0 289818.0 223676.0 230607.0 42994.0 36255.0 51116.0 58751.0 61296.0 55357.0 62098.0 69430.0 47132.0 51355.0 57679.0 65683.0 128004.0 123621.0 120249.0 117470.0 32440.0 24540.0 56590.0 58489.0 14880.0 6700.0 41291.0 35352.0 11428.0 19190.0 45279.0 50547.0 111358.0 103853.0 104131.0 98119.0 54640.0 53805.0 115843.0 117213.0 82843.0 74871.0 129113.0 127682.0 86397.0 89688.0 107153.0 108173.0 140242.0 138722.0 132224.0 131233.0 26141.0 28213.0 138396.0 145645.0 111647.0 110544.0 283732.0 290585.0 62789.0 68724.0 125520.0 128536.0 190630.0 195099.0 65403.0 59203.0 141968.0 143905.0 118506.0 112852.0 81968.0 73675.0 22732.0 29528.0 261852.0 263742.0 77819.0 70048.0 41818.0 44102.0 220415.0 226576.0 222596.0 215558.0 264269.0 271558.0 102024.0 105488.0 99252.0 97150.0 70153.0 75198.0 121602.0 126579.0 9070.0 13770.0 23081.0 29943.0 74993.0 67141.0 105094.0 101223.0 51451.0 42877.0 118678.0 116680.0 303523.0 300944.0 41484.0 36812.0 96768.0 89136.0 77385.0 76434.0 106418.0 98989.0 32445.0 33472.0 67521.0 74151.0 191219.0 189737.0 255225.0 249337.0 167757.0 161074.0 92286.0 92178.0 139672.0 146618.0 8006.0 0.0 156848.0 157892.0 288895.0 280661.0 59751.0 53324.0 215605.0 215787.0 66582.0 65663.0 34234.0 35054.0 73830.0 66591.0 66878.0 69158.0 33657.0 41577.0 122800.0 142135.0 122800.0 122800.0 122800.0 122800.0 142135.0 142135.0 142135.0 142135.0
191952.0 183435.0 185330.0 186228.0 223693.0 216586.0 178685.0 185805.0 370377.0 372589.0 288722.0 296775.0 120434.0 123930.0 134271.0 134741.0 165425.0 158837.0 100686.0 96957.0 165186.0 159694.0 162102.0 162771.0 30066.0 36784.0 248483.0 242055.0 153677.0 153590.0 197715.0 203718.0 155687.0 156795.0 187741.0 185876.0 159419.0 159056.0 185326.0 193211.0 232425.0 224581.0 185364.0 177608.0 172235.0 179186.0 265985.0 269096.0 175075.0 171109.0 279729.0 276337.0 236205.0 241591.0 231704.0 227808.0 47928.0 40510.0 267505.0 269833.0 172065.0 178832.0 269001.0 274172.0 262179.0 258918.0 370649.0 375496.0 96950.0 89483.0 278191.0 282454.0 295181.0 295847.0 91924.0 97651.0 288749.0 292678.0 262959.0 255693.0 216053.0 209685.0 159522.0 155765.0 341256.0 346107.0 195748.0 190235.0 128593.0 134313.0 307791.0 315630.0 293615.0 285598.0 342918.0 347994.0 253912.0 255443.0 73937.0 81787.0 126862.0 132245.0 243839.0 244397.0 163934.0 161671.0 157159.0 163306.0 196538.0 190125.0 223793.0 219009.0 157106.0 155850.0 252803.0 247384.0 380929.0 375532.0 196457.0 193216.0 226022.0 217903.0 85252.0 90593.0 250630.0 244985.0 186654.0 189773.0 209484.0 213531.0 281018.0 275346.0 333070.0 325374.0 244569.0 236634.0 193841.0 187310.0 255101.0 258809.0 157750.0 156848.0 0.0 8111.0 352728.0 345356.0 115341.0 115500.0 306955.0 303013.0 129351.0 121770.0 190323.0 191902.0 93584.0 101253.0 203131.0 199664.0 177900.0 183202.0 279075.0 260732.0 279075.0 279075.0 279075.0 279075.0 260732.0 260732.0 260732.0 260732.0
193095.0 184552.0 184935.0 186182.0 223002.0 216055.0 179287.0 186240.0 376995.0 379109.0 295495.0 303550.0 120196.0 124151.0 132786.0 132782.0 169342.0 162571.0 103485.0 100317.0 168457.0 163235.0 160219.0 160491.0 33796.0 41251.0 246258.0 239669.0 156356.0 155875.0 200462.0 206257.0 157487.0 158181.0 190014.0 187827.0 159893.0 159122.0 187962.0 195804.0 229938.0 222170.0 181668.0 174016.0 175727.0 182472.0 265403.0 268723.0 179754.0 175526.0 279150.0 275540.0 235742.0 241341.0 235760.0 232075.0 55494.0 47852.0 265601.0 268160.0 172045.0 178998.0 266764.0 271762.0 261661.0 258174.0 377022.0 381954.0 96889.0 89758.0 277901.0 282358.0 300610.0 301436.0 93633.0 98877.0 287697.0 291828.0 261813.0 254451.0 214544.0 208380.0 161691.0 158295.0 347795.0 352566.0 193635.0 188353.0 127925.0 133274.0 313941.0 321753.0 300235.0 292212.0 349486.0 354645.0 253603.0 254889.0 71104.0 78614.0 124314.0 129340.0 248117.0 248900.0 165252.0 163354.0 157015.0 162863.0 194603.0 188394.0 228065.0 223274.0 160676.0 159027.0 250927.0 245326.0 387638.0 382312.0 198020.0 194484.0 224090.0 216042.0 84412.0 89195.0 249539.0 244091.0 187061.0 190501.0 212307.0 216563.0 286952.0 281399.0 339631.0 331965.0 250725.0 242771.0 198490.0 192115.0 259800.0 263687.0 159197.0 157892.0 8111.0 0.0 359748.0 352334.0 113867.0 114591.0 312958.0 309147.0 126990.0 119617.0 190998.0 192905.0 92219.0 100052.0 206239.0 203045.0 177648.0 182680.0 279587.0 265317.0 279587.0 279587.0 279587.0 279587.0 265317.0 265317.0 265317.0 265317.0
281392.0 282969.0 317363.0 309421.0 330239.0 324586.0 294987.0 298389.0 37772.0 45511.0 66796.0 59138.0 317217.0 309759.0 336065.0 344049.0 229697.0 237039.0 285327.0 281789.0 242397.0 240126.0 346379.0 354469.0 329872.0 321873.0 380746.0 382597.0 259091.0 266390.0 241011.0 244634.0 274748.0 282347.0 255367.0 263355.0 299566.0 307585.0 247633.0 246168.0 381390.0 376268.0 392183.0 386689.0 234376.0 235389.0 339686.0 334828.0 208657.0 216470.0 346104.0 350754.0 326732.0 321865.0 192902.0 188087.0 305284.0 312277.0 379468.0 373770.0 308756.0 304599.0 390186.0 397890.0 336257.0 341688.0 54703.0 51147.0 319626.0 317968.0 336985.0 334334.0 117041.0 109278.0 301820.0 304526.0 364784.0 361288.0 355129.0 354969.0 349891.0 342996.0 266389.0 260956.0 39744.0 44580.0 359104.0 352230.0 322868.0 328635.0 76524.0 74284.0 66330.0 73615.0 37325.0 30334.0 327120.0 334812.0 351489.0 355457.0 352752.0 359579.0 181118.0 173403.0 282003.0 275258.0 311819.0 317570.0 355098.0 348694.0 189764.0 192242.0 241027.0 248920.0 372490.0 375535.0 38726.0 30736.0 270668.0 278271.0 364054.0 359523.0 330773.0 336077.0 348813.0 341353.0 298991.0 291409.0 235661.0 228859.0 101650.0 100780.0 41035.0 43250.0 121574.0 128799.0 196658.0 197576.0 162168.0 154187.0 280926.0 288895.0 352728.0 359748.0 0.0 8235.0 335638.0 327549.0 84356.0 79828.0 350091.0 345957.0 292640.0 284740.0 335401.0 332718.0 230097.0 224380.0 313798.0 320067.0 320764.0 164164.0 320764.0 320764.0 320764.0 320764.0 164164.0 164164.0 164164.0 164164.0
273215.0 274767.0 309166.0 301228.0 322186.0 316503.0 286776.0 290195.0 38521.0 45743.0 58739.0 51018.0 309034.0 301569.0 327850.0 335833.0 221480.0 228830.0 277297.0 273810.0 234167.0 231910.0 338145.0 346235.0 322301.0 314296.0 372734.0 374547.0 250867.0 258162.0 232829.0 236483.0 266515.0 274113.0 247163.0 255151.0 291332.0 299351.0 239417.0 237974.0 373296.0 368150.0 383953.0 378456.0 226143.0 227155.0 331751.0 326894.0 200455.0 208263.0 338169.0 342819.0 318760.0 313938.0 184836.0 179969.0 297994.0 304932.0 371580.0 365835.0 300534.0 296389.0 382275.0 389988.0 328322.0 333753.0 53717.0 51322.0 311534.0 309918.0 329050.0 326399.0 109680.0 101845.0 293792.0 296454.0 356850.0 353353.0 347194.0 347070.0 341776.0 334862.0 258155.0 252728.0 34295.0 40002.0 350911.0 344029.0 314663.0 320419.0 68999.0 67162.0 58100.0 65409.0 32114.0 26140.0 319185.0 326877.0 343509.0 347435.0 344555.0 351373.0 173136.0 165392.0 273770.0 267023.0 303584.0 309338.0 346911.0 340495.0 181620.0 184074.0 232817.0 240702.0 364525.0 367530.0 42065.0 34444.0 262504.0 270098.0 355962.0 351403.0 322732.0 328006.0 340894.0 333412.0 290800.0 283227.0 227529.0 220741.0 93637.0 92635.0 34353.0 35737.0 113360.0 120605.0 188425.0 189355.0 154244.0 146271.0 272691.0 280661.0 345356.0 352334.0 8235.0 0.0 327468.0 319378.0 76973.0 72147.0 341888.0 337770.0 284460.0 276564.0 327316.0 324599.0 221923.0 216183.0 305585.0 311864.0 312829.0 156343.0 312829.0 312829.0 312829.0 312829.0 156343.0 156343.0 156343.0 156343.0
91510.0 83489.0 73200.0 76144.0 109888.0 103407.0 74135.0 79308.0 341714.0 341454.0 269056.0 276537.0 18881.0 26706.0 18936.0 20607.0 107154.0 99433.0 58540.0 65803.0 96746.0 96945.0 47101.0 49054.0 91657.0 90705.0 133764.0 127748.0 79498.0 73695.0 115593.0 118118.0 68479.0 63905.0 100751.0 95100.0 55594.0 51415.0 103513.0 109639.0 118479.0 110459.0 80701.0 72622.0 105502.0 107820.0 152365.0 156200.0 127331.0 119748.0 166073.0 162070.0 123150.0 129388.0 164360.0 164241.0 116675.0 111900.0 152283.0 154495.0 62792.0 70593.0 154249.0 159790.0 148786.0 144827.0 336169.0 342742.0 25560.0 33244.0 165570.0 170628.0 245552.0 249239.0 45986.0 38931.0 173926.0 178260.0 147992.0 140595.0 100730.0 94518.0 76413.0 78783.0 312168.0 314840.0 81019.0 75100.0 18279.0 20343.0 271858.0 278587.0 269666.0 262118.0 314439.0 321302.0 141355.0 141954.0 45004.0 40314.0 19735.0 27671.0 178737.0 182868.0 68815.0 71546.0 47905.0 51562.0 81461.0 74833.0 160789.0 156488.0 95595.0 88537.0 137568.0 132369.0 354059.0 350736.0 100016.0 93932.0 110873.0 102689.0 30798.0 24747.0 135761.0 130534.0 79887.0 85549.0 126928.0 133324.0 242495.0 239828.0 305002.0 298508.0 214353.0 206919.0 141667.0 139138.0 195803.0 202198.0 65429.0 59751.0 115341.0 113867.0 335638.0 327468.0 0.0 8090.0 267938.0 267077.0 19246.0 11796.0 85590.0 90087.0 21764.0 14433.0 125248.0 126200.0 66793.0 70476.0 170653.0 199028.0 170653.0 170653.0 170653.0 170653.0 199028.0 199028.0 199028.0 199028.0
86176.0 77964.0 70725.0 72878.0 108423.0 101577.0 69332.0 75032.0 333670.0 333433.0 260968.0 268448.0 11099.0 18932.0 20516.0 24825.0 99127.0 91391.0 51563.0 59095.0 88877.0 88942.0 49028.0 52189.0 90432.0 88785.0 135265.0 129599.0 71655.0 66023.0 108563.0 111372.0 61188.0 57050.0 93938.0 88567.0 50264.0 46983.0 96341.0 102655.0 120612.0 112526.0 86073.0 78084.0 97646.0 100141.0 150856.0 154347.0 119254.0 111682.0 164599.0 160953.0 121307.0 127187.0 156862.0 156601.0 113531.0 109215.0 153107.0 154901.0 59092.0 66675.0 155655.0 161470.0 147155.0 143583.0 328183.0 334739.0 21249.0 29455.0 163616.0 168379.0 237736.0 241364.0 40146.0 32651.0 173249.0 177255.0 147468.0 140243.0 100974.0 94326.0 68969.0 71043.0 304115.0 306807.0 82817.0 76415.0 13709.0 18863.0 263845.0 270592.0 261577.0 254028.0 306383.0 313237.0 139328.0 140362.0 48038.0 44545.0 26995.0 34826.0 171211.0 175230.0 62334.0 64570.0 43938.0 48706.0 82823.0 75767.0 153116.0 148781.0 87566.0 80576.0 138397.0 133565.0 346006.0 342668.0 94198.0 88444.0 111953.0 103679.0 30251.0 25923.0 135131.0 129530.0 75685.0 80836.0 120027.0 126313.0 234486.0 231784.0 296940.0 290436.0 206266.0 198830.0 133666.0 131084.0 188134.0 194468.0 58548.0 53324.0 115500.0 114591.0 327549.0 319378.0 8090.0 0.0 259959.0 259060.0 25785.0 19244.0 80985.0 84969.0 22922.0 14923.0 118031.0 118756.0 63820.0 68277.0 167380.0 191448.0 167380.0 167380.0 167380.0 167380.0 191448.0 191448.0 191448.0 191448.0
203042.0 205744.0 239579.0 231519.0 248815.0 243667.0 218176.0 220594.0 75824.0 74256.0 49819.0 48298.0 249079.0 241308.0 265321.0 273265.0 160954.0 168782.0 224505.0 222812.0 171467.0 171032.0 271776.0 279942.0 280379.0 272427.0 298917.0 301081.0 188726.0 195255.0 163346.0 165796.0 202484.0 209394.0 178550.0 186440.0 225479.0 233373.0 171743.0 168958.0 300467.0 295820.0 316238.0 311415.0 162842.0 161988.0 257650.0 252792.0 142055.0 149045.0 264068.0 268718.0 244750.0 239838.0 112702.0 109203.0 262412.0 268088.0 297549.0 291734.0 232675.0 227650.0 308186.0 315914.0 254221.0 259652.0 68247.0 75015.0 255761.0 255716.0 254949.0 252298.0 32708.0 24935.0 240665.0 241732.0 282748.0 279252.0 273093.0 273009.0 269469.0 262998.0 194027.0 189907.0 48507.0 48819.0 280847.0 274385.0 253167.0 257923.0 8493.0 11165.0 39024.0 41575.0 51149.0 59099.0 245084.0 252776.0 290948.0 293515.0 283271.0 289423.0 99665.0 92531.0 207829.0 201843.0 237819.0 242629.0 276656.0 270781.0 111617.0 114942.0 172503.0 179403.0 290481.0 293672.0 88714.0 87266.0 191954.0 199816.0 283145.0 279170.0 268597.0 272710.0 266797.0 259317.0 221084.0 213185.0 156371.0 149294.0 26241.0 31698.0 43952.0 41243.0 62806.0 70579.0 126328.0 129562.0 80254.0 72322.0 207882.0 215605.0 306955.0 312958.0 84356.0 76973.0 267938.0 259959.0 0.0 8428.0 280190.0 277192.0 214333.0 206338.0 271506.0 267507.0 152218.0 147664.0 236924.0 242549.0 238728.0 81174.0 238728.0 238728.0 238728.0 238728.0 81174.0 81174.0 81174.0 81174.0
204550.0 206921.0 240976.0 232939.0 251469.0 246115.0 219260.0 221965.0 75065.0 74383.0 41402.0 40091.0 248258.0 240528.0 265054.0 273021.0 159937.0 167706.0 222338.0 220352.0 170967.0 170138.0 272380.0 280540.0 276810.0 268830.0 301633.0 303757.0 188173.0 194891.0 164550.0 167382.0 202394.0 209482.0 179545.0 187484.0 225874.0 233815.0 172458.0 170041.0 302956.0 298130.0 317229.0 312234.0 162439.0 162022.0 260365.0 255508.0 140489.0 147689.0 266783.0 271433.0 247433.0 242553.0 114626.0 110605.0 258025.0 263864.0 300265.0 294449.0 233587.0 228790.0 310902.0 318630.0 256937.0 262367.0 69542.0 75764.0 254189.0 253876.0 257664.0 255013.0 38419.0 30346.0 238605.0 239941.0 285464.0 281967.0 275808.0 275725.0 271751.0 265124.0 193933.0 189506.0 46375.0 47969.0 282434.0 275845.0 252662.0 257634.0 4870.0 12630.0 30639.0 33199.0 48906.0 56587.0 247799.0 255492.0 288924.0 291716.0 282782.0 289080.0 102101.0 94663.0 208203.0 202018.0 238219.0 243267.0 278294.0 272256.0 112771.0 115834.0 171499.0 178634.0 293131.0 296385.0 87755.0 85560.0 193557.0 201351.0 285618.0 281435.0 266778.0 271096.0 269513.0 262032.0 222489.0 214673.0 158088.0 151091.0 24631.0 28060.0 40655.0 36623.0 58446.0 66381.0 125432.0 128187.0 82861.0 74868.0 207987.0 215787.0 303013.0 309147.0 79828.0 72147.0 267077.0 259060.0 8428.0 0.0 279779.0 276552.0 215848.0 207869.0 269978.0 266195.0 153454.0 148529.0 238058.0 243873.0 241444.0 84457.0 241444.0 241444.0 241444.0 241444.0 84457.0 84457.0 84457.0 84457.0
93687.0 86487.0 68426.0 73206.0 101596.0 96085.0 75387.0 78888.0 354707.0 354119.0 283781.0 291122.0 33864.0 40703.0 15509.0 8763.0 120539.0 113078.0 77336.0 84790.0 108812.0 110140.0 34148.0 33507.0 107800.0 107642.0 119269.0 112720.0 91633.0 84936.0 123118.0 124477.0 78085.0 71995.0 107650.0 101081.0 59389.0 53119.0 111816.0 117064.0 103074.0 95236.0 61690.0 53581.0 117367.0 118537.0 143586.0 148153.0 141435.0 133633.0 157097.0 152353.0 115485.0 122461.0 173608.0 174277.0 134643.0 129473.0 138833.0 141793.0 61695.0 69614.0 139774.0 144832.0 140314.0 135545.0 348413.0 355177.0 44722.0 52174.0 157670.0 163364.0 256445.0 260573.0 65220.0 58067.0 163205.0 168188.0 137163.0 129490.0 88983.0 83797.0 86463.0 90293.0 325340.0 327702.0 66731.0 61882.0 27238.0 22548.0 284505.0 291001.0 283889.0 276479.0 327672.0 334708.0 133862.0 133469.0 56009.0 49203.0 4004.0 9542.0 188060.0 192805.0 75405.0 79796.0 48763.0 49248.0 67971.0 62378.0 171041.0 166971.0 109111.0 101433.0 124223.0 118414.0 367200.0 364163.0 103473.0 96506.0 97359.0 89463.0 47741.0 40478.0 125277.0 120900.0 79240.0 86106.0 133780.0 140560.0 255149.0 252939.0 318370.0 312088.0 228547.0 221301.0 154523.0 152719.0 205868.0 212626.0 73555.0 66582.0 129351.0 126990.0 350091.0 341888.0 19246.0 25785.0 280190.0 279779.0 0.0 8186.0 85842.0 91665.0 37885.0 32177.0 133458.0 135472.0 63595.0 65170.0 165956.0 208560.0 165956.0 165956.0 165956.0 165956.0 208560.0 208560.0 208560.0 208560.0
94952.0 87367.0 72326.0 76420.0 106992.0 101109.0 76917.0 81132.0 351350.0 350932.0 279483.0 286903.0 28771.0 36217.0 16737.0 13449.0 116836.0 109229.0 70333.0 77591.0 105736.0 106511.0 40765.0 41016.0 99785.0 99522.0 126720.0 120308.0 88468.0 82166.0 122191.0 124071.0 76030.0 70574.0 106953.0 100760.0 59687.0 54203.0 110506.0 116164.0 110750.0 102856.0 69797.0 61679.0 114410.0 116132.0 149247.0 153563.0 137393.0 129695.0 162845.0 158349.0 120694.0 127418.0 171989.0 172289.0 126457.0 121302.0 146005.0 148744.0 64057.0 72009.0 147237.0 152426.0 145862.0 141368.0 345439.0 352108.0 36865.0 44151.0 163041.0 168516.0 254109.0 258024.0 57626.0 50687.0 169549.0 174322.0 143512.0 135919.0 95539.0 89990.0 84254.0 87421.0 321884.0 324407.0 74027.0 68822.0 24330.0 22106.0 281308.0 287925.0 279865.0 272378.0 324185.0 331131.0 139049.0 139010.0 48914.0 42588.0 7946.0 15885.0 186422.0 190884.0 74669.0 78361.0 50121.0 51928.0 75023.0 69068.0 168947.0 164762.0 105318.0 97931.0 131349.0 125712.0 363769.0 360581.0 104246.0 97619.0 104496.0 96495.0 39572.0 32380.0 131493.0 126818.0 81578.0 87998.0 133180.0 139804.0 251937.0 249492.0 314810.0 308415.0 224520.0 217170.0 151137.0 148962.0 203898.0 210488.0 72131.0 65663.0 121770.0 119617.0 345957.0 337770.0 11796.0 19244.0 277192.0 276552.0 8186.0 0.0 87857.0 93168.0 29741.0 24017.0 132248.0 133781.0 66826.0 69249.0 170149.0 206844.0 170149.0 170149.0 170149.0 170149.0 206844.0 206844.0 206844.0 206844.0
11298.0 12245.0 25396.0 17331.0 47708.0 39627.0 11794.0 7257.0 290151.0 288294.0 229889.0 236144.0 72405.0 67199.0 71235.0 77095.0 78139.0 74956.0 96188.0 103324.0 63545.0 70594.0 62794.0 70506.0 161836.0 157664.0 96426.0 95562.0 56199.0 49954.0 51634.0 48541.0 41838.0 36545.0 38070.0 30333.0 31313.0 34175.0 46780.0 46665.0 91778.0 85483.0 102970.0 99130.0 67615.0 62483.0 82742.0 83541.0 97539.0 90305.0 95694.0 94904.0 54205.0 56388.0 101758.0 105246.0 174405.0 172953.0 104532.0 102223.0 24225.0 16497.0 112279.0 119951.0 78475.0 78220.0 282022.0 288875.0 94591.0 101294.0 91591.0 94375.0 186149.0 191747.0 99417.0 92910.0 109586.0 110871.0 87568.0 82855.0 59926.0 52079.0 44464.0 52563.0 262205.0 263139.0 66593.0 60055.0 67580.0 66141.0 220181.0 225493.0 227193.0 220828.0 264751.0 272412.0 68519.0 72648.0 128868.0 125469.0 89824.0 92414.0 115445.0 122010.0 29667.0 35804.0 37861.0 36756.0 62498.0 56448.0 103153.0 100430.0 71871.0 64302.0 92313.0 92042.0 303048.0 301348.0 22444.0 14519.0 75091.0 68963.0 108511.0 106234.0 76096.0 68170.0 7295.0 1363.0 58050.0 65205.0 191924.0 191921.0 256302.0 251191.0 174455.0 168775.0 100899.0 103427.0 134764.0 142455.0 36265.0 34234.0 190323.0 190998.0 292640.0 284460.0 85590.0 80985.0 214333.0 215848.0 85842.0 87857.0 0.0 7999.0 103379.0 95581.0 62567.0 68438.0 24671.0 28608.0 88814.0 135524.0 88814.0 88814.0 88814.0 88814.0 135524.0 135524.0 135524.0 135524.0
3353.0 8819.0 33373.0 25299.0 53237.0 45425.0 16286.0 14765.0 282155.0 280295.0 222134.0 228348.0 75787.0 70002.0 76730.0 82972.0 72234.0 69617.0 95827.0 102607.0 57915.0 65288.0 70108.0 77931.0 163013.0 158507.0 102971.0 102465.0 52360.0 46857.0 43768.0 40544.0 39790.0 35896.0 30666.0 23194.0 34713.0 38991.0 39567.0 38938.0 99042.0 92925.0 110891.0 106956.0 61308.0 55692.0 85590.0 85706.0 91032.0 83989.0 98112.0 97963.0 58167.0 59316.0 93759.0 97264.0 174023.0 172946.0 110040.0 107290.0 30701.0 23458.0 118199.0 125942.0 81287.0 81770.0 274024.0 280876.0 97198.0 103510.0 93274.0 95418.0 178163.0 183750.0 100364.0 94257.0 112875.0 113615.0 91891.0 87668.0 67110.0 59430.0 40935.0 48744.0 254222.0 255145.0 74566.0 68052.0 71876.0 71198.0 212196.0 217498.0 219354.0 213027.0 256770.0 264437.0 71040.0 75833.0 132483.0 129508.0 95615.0 98622.0 107457.0 114011.0 28676.0 33460.0 43069.0 43113.0 70450.0 64445.0 95194.0 92510.0 66766.0 59621.0 98292.0 98443.0 295053.0 293362.0 14457.0 6522.0 82177.0 76311.0 111472.0 109708.0 80829.0 72752.0 15040.0 6914.0 50053.0 57210.0 183964.0 184004.0 248333.0 243242.0 166785.0 161186.0 93617.0 96417.0 126769.0 134458.0 35285.0 35054.0 191902.0 192905.0 284740.0 276564.0 90087.0 84969.0 206338.0 207869.0 91665.0 93168.0 7999.0 0.0 106929.0 99278.0 54647.0 60653.0 32174.0 36540.0 88170.0 127556.0 88170.0 88170.0 88170.0 88170.0 127556.0 127556.0 127556.0 127556.0
107907.0 99527.0 93611.0 95783.0 131052.0 124336.0 91638.0 97637.0 343854.0 344096.0 268607.0 276303.0 31152.0 37594.0 40687.0 41727.0 111055.0 103169.0 51035.0 56516.0 102999.0 101498.0 68760.0 70211.0 70242.0 69786.0 155397.0 149271.0 86414.0 82147.0 126786.0 130421.0 79226.0 76538.0 112961.0 108345.0 72287.0 69634.0 114198.0 121080.0 139894.0 131914.0 98901.0 90780.0 111739.0 115531.0 173523.0 177136.0 129502.0 122472.0 187256.0 183443.0 144081.0 150052.0 172779.0 171699.0 96924.0 91613.0 174034.0 176257.0 81942.0 89449.0 175898.0 181351.0 169868.0 166130.0 339457.0 345727.0 15831.0 18776.0 186435.0 191261.0 251154.0 254219.0 35191.0 30990.0 195485.0 199689.0 169593.0 162243.0 122472.0 116183.0 86190.0 86597.0 314135.0 317281.0 102622.0 96821.0 36620.0 41168.0 274817.0 281860.0 270098.0 262351.0 316303.0 322865.0 162159.0 163058.0 25555.0 23743.0 36514.0 43685.0 186893.0 190226.0 82567.0 83565.0 66764.0 71617.0 103168.0 96593.0 168020.0 163486.0 99686.0 93897.0 159321.0 154074.0 355932.0 352164.0 115257.0 109985.0 132606.0 124435.0 9945.0 3036.0 157324.0 151947.0 98324.0 103155.0 138567.0 144455.0 245615.0 242258.0 306689.0 299881.0 215193.0 207496.0 145574.0 141944.0 202868.0 208741.0 77931.0 73830.0 93584.0 92219.0 335401.0 327316.0 21764.0 22922.0 271506.0 269978.0 37885.0 29741.0 103379.0 106929.0 0.0 8004.0 135497.0 135227.0 86742.0 91109.0 190251.0 206726.0 190251.0 190251.0 190251.0 190251.0 206726.0 206726.0 206726.0 206726.0
100332.0 92001.0 85608.0 87796.0 123106.0 116358.0 83865.0 89765.0 340364.0 340440.0 265958.0 273584.0 23651.0 30540.0 33151.0 34920.0 106677.0 98807.0 50272.0 56611.0 97868.0 96873.0 61512.0 63428.0 77229.0 76306.0 148170.0 142178.0 81002.0 76282.0 120380.0 123748.0 72753.0 69614.0 106271.0 101404.0 64589.0 61738.0 107888.0 114598.0 132911.0 124891.0 93802.0 85681.0 106650.0 110028.0 165570.0 169153.0 125749.0 118515.0 179306.0 175536.0 136101.0 142053.0 167202.0 166397.0 102607.0 97658.0 166578.0 168674.0 73979.0 81515.0 168648.0 174214.0 161903.0 158207.0 335587.0 341959.0 14420.0 20534.0 178445.0 183260.0 246497.0 249758.0 35575.0 29860.0 187650.0 191799.0 161787.0 154470.0 114829.0 108437.0 80001.0 80934.0 310689.0 313679.0 95439.0 89459.0 28627.0 33244.0 271019.0 277964.0 267145.0 259460.0 312893.0 319559.0 154167.0 155097.0 33288.0 30561.0 31472.0 39119.0 181410.0 184980.0 75433.0 76815.0 58808.0 63613.0 95832.0 89115.0 162779.0 158306.0 95196.0 88986.0 151860.0 146734.0 352537.0 348917.0 107908.0 102474.0 125210.0 117004.0 16371.0 11021.0 149496.0 144058.0 90441.0 95383.0 132072.0 138099.0 241742.0 238608.0 303333.0 296627.0 212049.0 204433.0 141304.0 138019.0 197723.0 203758.0 71043.0 66591.0 101253.0 100052.0 332718.0 324599.0 14433.0 14923.0 267507.0 266195.0 32177.0 24017.0 95581.0 99278.0 8004.0 0.0 129353.0 129412.0 78741.0 83115.0 182282.0 201399.0 182282.0 182282.0 182282.0 182282.0 201399.0 201399.0 201399.0 201399.0
51301.0 53526.0 87541.0 79521.0 103033.0 96381.0 65984.0 68525.0 228025.0 226321.0 167864.0 173926.0 107021.0 99350.0 117993.0 125585.0 42562.0 46622.0 102805.0 106193.0 38087.0 44517.0 120256.0 128404.0 173068.0 166663.0 154181.0 154812.0 50690.0 53501.0 11133.0 15313.0 56847.0 61674.0 26650.0 34357.0 75203.0 82737.0 21756.0 16929.0 152456.0 146820.0 164054.0 159391.0 32230.0 24302.0 123552.0 120693.0 50224.0 46515.0 133103.0 135846.0 102976.0 100504.0 40692.0 43032.0 173097.0 174613.0 157417.0 153045.0 80646.0 75434.0 166945.0 174815.0 119497.0 122922.0 220057.0 226910.0 121511.0 124874.0 125275.0 124074.0 125169.0 130264.0 114685.0 111805.0 150850.0 149022.0 135400.0 133264.0 120591.0 113336.0 49353.0 49572.0 199828.0 200952.0 129127.0 122428.0 108044.0 110956.0 157846.0 163354.0 164814.0 158597.0 202357.0 209972.0 109185.0 116077.0 159528.0 159223.0 137008.0 142035.0 55045.0 60677.0 58157.0 53892.0 87300.0 91177.0 125062.0 118851.0 40683.0 37864.0 47175.0 47286.0 147681.0 149257.0 240884.0 239004.0 40643.0 48175.0 135254.0 130080.0 136297.0 137609.0 126494.0 118384.0 69069.0 61353.0 10000.0 10579.0 129410.0 129358.0 193821.0 188643.0 112984.0 107858.0 44251.0 49655.0 73724.0 81083.0 60117.0 66878.0 203131.0 206239.0 230097.0 221923.0 125248.0 118031.0 152218.0 153454.0 133458.0 132248.0 62567.0 54647.0 135497.0 129353.0 0.0 8186.0 84707.0 90419.0 110802.0 75595.0 110802.0 110802.0 110802.0 110802.0 75595.0 75595.0 75595.0 75595.0
57302.0 58615.0 92983.0 85051.0 110289.0 103453.0 70797.0 74017.0 223361.0 221893.0 161482.0 167707.0 107673.0 99897.0 120110.0 127847.0 36584.0 41578.0 99926.0 102753.0 34649.0 40089.0 124165.0 132332.0 169643.0 163031.0 161382.0 161801.0 49195.0 53132.0 17067.0 22950.0 57800.0 63481.0 31064.0 39039.0 78272.0 86031.0 24182.0 21803.0 159164.0 153346.0 168700.0 163763.0 27523.0 20676.0 131630.0 128832.0 42326.0 39069.0 141257.0 143946.0 110671.0 108389.0 38210.0 39083.0 168234.0 170065.0 165078.0 160825.0 85062.0 80371.0 174489.0 182357.0 127559.0 130887.0 215634.0 222487.0 120796.0 123651.0 133454.0 132259.0 121612.0 126335.0 112606.0 110262.0 158966.0 157183.0 143283.0 141013.0 127237.0 119823.0 49794.0 48655.0 194879.0 196249.0 134736.0 127855.0 109466.0 112925.0 153007.0 158755.0 158777.0 152390.0 197377.0 204907.0 117222.0 124061.0 158736.0 158863.0 138909.0 144273.0 52642.0 57422.0 60808.0 55688.0 90544.0 95013.0 130763.0 124315.0 36197.0 32729.0 42722.0 44201.0 155121.0 156512.0 236169.0 234072.0 47107.0 54297.0 142040.0 136641.0 135428.0 137204.0 134220.0 126086.0 74634.0 67174.0 18084.0 16824.0 124262.0 123804.0 188683.0 183307.0 106241.0 100865.0 36158.0 41469.0 70516.0 77531.0 61922.0 69158.0 199664.0 203045.0 224380.0 216183.0 126200.0 118756.0 147664.0 148529.0 135472.0 133781.0 68438.0 60653.0 135227.0 129412.0 8186.0 0.0 89620.0 95708.0 118974.0 73098.0 118974.0 118974.0 118974.0 118974.0 73098.0 73098.0 73098.0 73098.0
35122.0 31185.0 8031.0 9617.0 46847.0 39143.0 18826.0 17468.0 312725.0 311017.0 249977.0 256517.0 57481.0 54444.0 50134.0 54870.0 91774.0 86869.0 91479.0 99419.0 76975.0 82618.0 38148.0 45835.0 150875.0 147738.0 86652.0 83818.0 64825.0 57157.0 73578.0 71736.0 47409.0 39477.0 58556.0 50591.0 23574.0 19825.0 66183.0 68017.0 77878.0 70521.0 79391.0 75048.0 83023.0 79746.0 88378.0 91209.0 112741.0 104984.0 102081.0 99308.0 58454.0 63704.0 124851.0 127735.0 167896.0 165334.0 99426.0 99059.0 7607.0 9274.0 105084.0 112221.0 84458.0 81832.0 304759.0 311612.0 80952.0 88579.0 100295.0 104738.0 209472.0 214819.0 90572.0 83126.0 112709.0 115730.0 87935.0 81589.0 48370.0 40105.0 53630.0 61503.0 284428.0 285644.0 46342.0 38928.0 50138.0 46485.0 242490.0 248058.0 247903.0 241264.0 286940.0 294501.0 76012.0 77811.0 111567.0 107093.0 67596.0 69255.0 138827.0 145069.0 35697.0 43474.0 20811.0 15231.0 42906.0 35581.0 125339.0 122237.0 83191.0 74764.0 85546.0 83191.0 325576.0 323618.0 46338.0 38382.0 63111.0 55505.0 93419.0 89741.0 75556.0 68795.0 17385.0 25430.0 81416.0 88611.0 213865.0 213381.0 278292.0 272922.0 194150.0 188019.0 119156.0 120491.0 157982.0 165537.0 40189.0 33657.0 177900.0 177648.0 313798.0 305585.0 66793.0 63820.0 236924.0 238058.0 63595.0 66826.0 24671.0 32174.0 86742.0 78741.0 84707.0 89620.0 0.0 7924.0 103862.0 159119.0 103862.0 103862.0 103862.0 103862.0 159119.0 159119.0 159119.0 159119.0
39729.0 37098.0 3612.0 11317.0 40636.0 33387.0 25384.0 21973.0 318372.0 316525.0 256577.0 263034.0 62865.0 60513.0 52845.0 56622.0 99334.0 94571.0 98686.0 106695.0 84507.0 90299.0 36383.0 43420.0 156641.0 153763.0 78776.0 75895.0 72661.0 65026.0 79333.0 76900.0 55294.0 47391.0 64702.0 56715.0 31346.0 26882.0 72671.0 73961.0 69988.0 62676.0 74362.0 70618.0 90341.0 86758.0 82783.0 86080.0 120169.0 112460.0 96527.0 93327.0 53065.0 58961.0 130146.0 133359.0 174570.0 171804.0 91878.0 91746.0 15474.0 15878.0 97331.0 104419.0 78992.0 75855.0 310307.0 317159.0 86394.0 94210.0 95339.0 100194.0 214649.0 220162.0 97097.0 89516.0 106368.0 109731.0 81246.0 74670.0 40506.0 32267.0 61386.0 69312.0 290248.0 291323.0 39313.0 32182.0 54772.0 50174.0 248259.0 253699.0 254310.0 247756.0 292776.0 300385.0 71054.0 72243.0 115469.0 110553.0 69126.0 69891.0 143944.0 150397.0 43464.0 51240.0 27039.0 19933.0 35645.0 28690.0 131102.0 128157.0 90927.0 82533.0 77880.0 75370.0 331249.0 329422.0 50984.0 43001.0 55196.0 47582.0 98283.0 94134.0 68824.0 62373.0 21545.0 29626.0 86497.0 93676.0 219794.0 219507.0 284218.0 278959.0 200832.0 194812.0 126093.0 127656.0 163216.0 170860.0 48086.0 41577.0 183202.0 182680.0 320067.0 311864.0 70476.0 68277.0 242549.0 243873.0 65170.0 69249.0 28608.0 36540.0 91109.0 83115.0 90419.0 95708.0 7924.0 0.0 100912.0 164086.0 100912.0 100912.0 100912.0 100912.0 164086.0 164086.0 164086.0 164086.0
88850.0 96959.0 97835.0 94554.0 67138.0 69266.0 100394.0 93350.0 314170.0 312230.0 263929.0 268701.0 159981.0 155476.0 153652.0 157491.0 147836.0 148365.0 183973.0 190633.0 136518.0 144566.0 134550.0 139846.0 250648.0 246410.0 100102.0 105724.0 137159.0 133236.0 105814.0 97865.0 127471.0 124066.0 104539.0 101763.0 119700.0 120848.0 112043.0 105770.0 110171.0 109736.0 154576.0 154719.0 135822.0 127741.0 45843.0 38771.0 160498.0 155671.0 46895.0 53539.0 53939.0 45598.0 131325.0 138409.0 262112.0 261115.0 89757.0 82210.0 108311.0 100915.0 101167.0 107939.0 44275.0 52073.0 305958.0 312811.0 182844.0 189830.0 36893.0 31861.0 209336.0 215192.0 188170.0 181724.0 65346.0 60282.0 64505.0 68264.0 89809.0 88942.0 126955.0 133796.0 287186.0 287395.0 114021.0 112529.0 153675.0 150345.0 245365.0 249851.0 258629.0 253719.0 289808.0 297692.0 40422.0 47048.0 215326.0 210954.0 169876.0 169977.0 140034.0 148135.0 116844.0 121091.0 123494.0 119091.0 109849.0 109735.0 138719.0 138832.0 146755.0 141709.0 88720.0 94953.0 327097.0 325969.0 88120.0 88461.0 96105.0 97414.0 196277.0 193212.0 64593.0 60608.0 92538.0 89435.0 100929.0 104309.0 219294.0 221494.0 282043.0 277881.0 213451.0 210164.0 154464.0 160365.0 158600.0 166591.0 123436.0 122800.0 279075.0 279587.0 320764.0 312829.0 170653.0 167380.0 238728.0 241444.0 165956.0 170149.0 88814.0 88170.0 190251.0 182282.0 110802.0 118974.0 103862.0 100912.0 0.0 158470.0 0.0 0.0 0.0 0.0 158470.0 158470.0 158470.0 158470.0
124359.0 128140.0 160920.0 152851.0 168584.0 163413.0 140747.0 142168.0 157477.0 155537.0 110557.0 114448.0 180349.0 172526.0 193176.0 200878.0 97785.0 105378.0 166018.0 166783.0 103757.0 106109.0 195588.0 203707.0 231534.0 224138.0 218659.0 220823.0 120399.0 125451.0 86491.0 87390.0 130820.0 136565.0 102177.0 109679.0 150783.0 158330.0 96878.0 92464.0 220209.0 215591.0 238386.0 234156.0 95068.0 91411.0 177392.0 172534.0 85675.0 89876.0 183810.0 188460.0 164492.0 159580.0 34986.0 35028.0 222342.0 226086.0 217291.0 211476.0 155705.0 149917.0 227928.0 235656.0 173963.0 179394.0 149265.0 156118.0 191700.0 193544.0 174691.0 172040.0 50865.0 57106.0 180652.0 179673.0 202490.0 198994.0 192835.0 192751.0 189257.0 182886.0 122677.0 120562.0 129679.0 129575.0 201470.0 195359.0 182518.0 186013.0 88159.0 92214.0 104040.0 100037.0 132322.0 140267.0 164826.0 172518.0 229147.0 230070.0 212006.0 217317.0 20556.0 16669.0 133594.0 128765.0 162894.0 166617.0 197172.0 191730.0 38758.0 43398.0 108273.0 113029.0 210223.0 213414.0 170417.0 168223.0 113104.0 121085.0 202888.0 198964.0 205896.0 208479.0 186539.0 179059.0 142547.0 134468.0 77703.0 70508.0 63526.0 67000.0 124850.0 121060.0 68145.0 68493.0 66901.0 73696.0 7151.0 11757.0 135005.0 142135.0 260732.0 265317.0 164164.0 156343.0 199028.0 191448.0 81174.0 84457.0 208560.0 206844.0 135524.0 127556.0 206726.0 201399.0 75595.0 73098.0 159119.0 164086.0 158470.0 0.0 158470.0 158470.0 158470.0 158470.0 0.0 0.0 0.0 0.0
88850.0 96959.0 97835.0 94554.0 67138.0 69266.0 100394.0 93350.0 314170.0 312230.0 263929.0 268701.0 159981.0 155476.0 153652.0 157491.0 147836.0 148365.0 183973.0 190633.0 136518.0 144566.0 134550.0 139846.0 250648.0 246410.0 100102.0 105724.0 137159.0 133236.0 105814.0 97865.0 127471.0 124066.0 104539.0 101763.0 119700.0 120848.0 112043.0 105770.0 110171.0 109736.0 154576.0 154719.0 135822.0 127741.0 45843.0 38771.0 160498.0 155671.0 46895.0 53539.0 53939.0 45598.0 131325.0 138409.0 262112.0 261115.0 89757.0 82210.0 108311.0 100915.0 101167.0 107939.0 44275.0 52073.0 305958.0 312811.0 182844.0 189830.0 36893.0 31861.0 209336.0 215192.0 188170.0 181724.0 65346.0 60282.0 64505.0 68264.0 89809.0 88942.0 126955.0 133796.0 287186.0 287395.0 114021.0 112529.0 153675.0 150345.0 245365.0 249851.0 258629.0 253719.0 289808.0 297692.0 40422.0 47048.0 215326.0 210954.0 169876.0 169977.0 140034.0 148135.0 116844.0 121091.0 123494.0 119091.0 109849.0 109735.0 138719.0 138832.0 146755.0 141709.0 88720.0 94953.0 327097.0 325969.0 88120.0 88461.0 96105.0 97414.0 196277.0 193212.0 64593.0 60608.0 92538.0 89435.0 100929.0 104309.0 219294.0 221494.0 282043.0 277881.0 213451.0 210164.0 154464.0 160365.0 158600.0 166591.0 123436.0 122800.0 279075.0 279587.0 320764.0 312829.0 170653.0 167380.0 238728.0 241444.0 165956.0 170149.0 88814.0 88170.0 190251.0 182282.0 110802.0 118974.0 103862.0 100912.0 0.0 158470.0 0.0 0.0 0.0 0.0 158470.0 158470.0 158470.0 158470.0
88850.0 96959.0 97835.0 94554.0 67138.0 69266.0 100394.0 93350.0 314170.0 312230.0 263929.0 268701.0 159981.0 155476.0 153652.0 157491.0 147836.0 148365.0 183973.0 190633.0 136518.0 144566.0 134550.0 139846.0 250648.0 246410.0 100102.0 105724.0 137159.0 133236.0 105814.0 97865.0 127471.0 124066.0 104539.0 101763.0 119700.0 120848.0 112043.0 105770.0 110171.0 109736.0 154576.0 154719.0 135822.0 127741.0 45843.0 38771.0 160498.0 155671.0 46895.0 53539.0 53939.0 45598.0 131325.0 138409.0 262112.0 261115.0 89757.0 82210.0 108311.0 100915.0 101167.0 107939.0 44275.0 52073.0 305958.0 312811.0 182844.0 189830.0 36893.0 31861.0 209336.0 215192.0 188170.0 181724.0 65346.0 60282.0 64505.0 68264.0 89809.0 88942.0 126955.0 133796.0 287186.0 287395.0 114021.0 112529.0 153675.0 150345.0 245365.0 249851.0 258629.0 253719.0 289808.0 297692.0 40422.0 47048.0 215326.0 210954.0 169876.0 169977.0 140034.0 148135.0 116844.0 121091.0 123494.0 119091.0 109849.0 109735.0 138719.0 138832.0 146755.0 141709.0 88720.0 94953.0 327097.0 325969.0 88120.0 88461.0 96105.0 97414.0 196277.0 193212.0 64593.0 60608.0 92538.0 89435.0 100929.0 104309.0 219294.0 221494.0 282043.0 277881.0 213451.0 210164.0 154464.0 160365.0 158600.0 166591.0 123436.0 122800.0 279075.0 279587.0 320764.0 312829.0 170653.0 167380.0 238728.0 241444.0 165956.0 170149.0 88814.0 88170.0 190251.0 182282.0 110802.0 118974.0 103862.0 100912.0 0.0 158470.0 0.0 0.0 0.0 0.0 158470.0 158470.0 158470.0 158470.0
88850.0 96959.0 97835.0 94554.0 67138.0 69266.0 100394.0 93350.0 314170.0 312230.0 263929.0 268701.0 159981.0 155476.0 153652.0 157491.0 147836.0 148365.0 183973.0 190633.0 136518.0 144566.0 134550.0 139846.0 250648.0 246410.0 100102.0 105724.0 137159.0 133236.0 105814.0 97865.0 127471.0 124066.0 104539.0 101763.0 119700.0 120848.0 112043.0 105770.0 110171.0 109736.0 154576.0 154719.0 135822.0 127741.0 45843.0 38771.0 160498.0 155671.0 46895.0 53539.0 53939.0 45598.0 131325.0 138409.0 262112.0 261115.0 89757.0 82210.0 108311.0 100915.0 101167.0 107939.0 44275.0 52073.0 305958.0 312811.0 182844.0 189830.0 36893.0 31861.0 209336.0 215192.0 188170.0 181724.0 65346.0 60282.0 64505.0 68264.0 89809.0 88942.0 126955.0 133796.0 287186.0 287395.0 114021.0 112529.0 153675.0 150345.0 245365.0 249851.0 258629.0 253719.0 289808.0 297692.0 40422.0 47048.0 215326.0 210954.0 169876.0 169977.0 140034.0 148135.0 116844.0 121091.0 123494.0 119091.0 109849.0 109735.0 138719.0 138832.0 146755.0 141709.0 88720.0 94953.0 327097.0 325969.0 88120.0 88461.0 96105.0 97414.0 196277.0 193212.0 64593.0 60608.0 92538.0 89435.0 100929.0 104309.0 219294.0 221494.0 282043.0 277881.0 213451.0 210164.0 154464.0 160365.0 158600.0 166591.0 123436.0 122800.0 279075.0 279587.0 320764.0 312829.0 170653.0 167380.0 238728.0 241444.0 165956.0 170149.0 88814.0 88170.0 190251.0 182282.0 110802.0 118974.0 103862.0 100912.0 0.0 158470.0 0.0 0.0 0.0 0.0 158470.0 158470.0 158470.0 158470.0
88850.0 96959.0 97835.0 94554.0 67138.0 69266.0 100394.0 93350.0 314170.0 312230.0 263929.0 268701.0 159981.0 155476.0 153652.0 157491.0 147836.0 148365.0 183973.0 190633.0 136518.0 144566.0 134550.0 139846.0 250648.0 246410.0 100102.0 105724.0 137159.0 133236.0 105814.0 97865.0 127471.0 124066.0 104539.0 101763.0 119700.0 120848.0 112043.0 105770.0 110171.0 109736.0 154576.0 154719.0 135822.0 127741.0 45843.0 38771.0 160498.0 155671.0 46895.0 53539.0 53939.0 45598.0 131325.0 138409.0 262112.0 261115.0 89757.0 82210.0 108311.0 100915.0 101167.0 107939.0 44275.0 52073.0 305958.0 312811.0 182844.0 189830.0 36893.0 31861.0 209336.0 215192.0 188170.0 181724.0 65346.0 60282.0 64505.0 68264.0 89809.0 88942.0 126955.0 133796.0 287186.0 287395.0 114021.0 112529.0 153675.0 150345.0 245365.0 249851.0 258629.0 253719.0 289808.0 297692.0 40422.0 47048.0 215326.0 210954.0 169876.0 169977.0 140034.0 148135.0 116844.0 121091.0 123494.0 119091.0 109849.0 109735.0 138719.0 138832.0 146755.0 141709.0 88720.0 94953.0 327097.0 325969.0 88120.0 88461.0 96105.0 97414.0 196277.0 193212.0 64593.0 60608.0 92538.0 89435.0 100929.0 104309.0 219294.0 221494.0 282043.0 277881.0 213451.0 210164.0 154464.0 160365.0 158600.0 166591.0 123436.0 122800.0 279075.0 279587.0 320764.0 312829.0 170653.0 167380.0 238728.0 241444.0 165956.0 170149.0 88814.0 88170.0 190251.0 182282.0 110802.0 118974.0 103862.0 100912.0 0.0 158470.0 0.0 0.0 0.0 0.0 158470.0 158470.0 158470.0 158470.0
124359.0 128140.0 160920.0 152851.0 168584.0 163413.0 140747.0 142168.0 157477.0 155537.0 110557.0 114448.0 180349.0 172526.0 193176.0 200878.0 97785.0 105378.0 166018.0 166783.0 103757.0 106109.0 195588.0 203707.0 231534.0 224138.0 218659.0 220823.0 120399.0 125451.0 86491.0 87390.0 130820.0 136565.0 102177.0 109679.0 150783.0 158330.0 96878.0 92464.0 220209.0 215591.0 238386.0 234156.0 95068.0 91411.0 177392.0 172534.0 85675.0 89876.0 183810.0 188460.0 164492.0 159580.0 34986.0 35028.0 222342.0 226086.0 217291.0 211476.0 155705.0 149917.0 227928.0 235656.0 173963.0 179394.0 149265.0 156118.0 191700.0 193544.0 174691.0 172040.0 50865.0 57106.0 180652.0 179673.0 202490.0 198994.0 192835.0 192751.0 189257.0 182886.0 122677.0 120562.0 129679.0 129575.0 201470.0 195359.0 182518.0 186013.0 88159.0 92214.0 104040.0 100037.0 132322.0 140267.0 164826.0 172518.0 229147.0 230070.0 212006.0 217317.0 20556.0 16669.0 133594.0 128765.0 162894.0 166617.0 197172.0 191730.0 38758.0 43398.0 108273.0 113029.0 210223.0 213414.0 170417.0 168223.0 113104.0 121085.0 202888.0 198964.0 205896.0 208479.0 186539.0 179059.0 142547.0 134468.0 77703.0 70508.0 63526.0 67000.0 124850.0 121060.0 68145.0 68493.0 66901.0 73696.0 7151.0 11757.0 135005.0 142135.0 260732.0 265317.0 164164.0 156343.0 199028.0 191448.0 81174.0 84457.0 208560.0 206844.0 135524.0 127556.0 206726.0 201399.0 75595.0 73098.0 159119.0 164086.0 158470.0 0.0 158470.0 158470.0 158470.0 158470.0 0.0 0.0 0.0 0.0
124359.0 128140.0 160920.0 152851.0 168584.0 163413.0 140747.0 142168.0 157477.0 155537.0 110557.0 114448.0 180349.0 172526.0 193176.0 200878.0 97785.0 105378.0 166018.0 166783.0 103757.0 106109.0 195588.0 203707.0 231534.0 224138.0 218659.0 220823.0 120399.0 125451.0 86491.0 87390.0 130820.0 136565.0 102177.0 109679.0 150783.0 158330.0 96878.0 92464.0 220209.0 215591.0 238386.0 234156.0 95068.0 91411.0 177392.0 172534.0 85675.0 89876.0 183810.0 188460.0 164492.0 159580.0 34986.0 35028.0 222342.0 226086.0 217291.0 211476.0 155705.0 149917.0 227928.0 235656.0 173963.0 179394.0 149265.0 156118.0 191700.0 193544.0 174691.0 172040.0 50865.0 57106.0 180652.0 179673.0 202490.0 198994.0 192835.0 192751.0 189257.0 182886.0 122677.0 120562.0 129679.0 129575.0 201470.0 195359.0 182518.0 186013.0 88159.0 92214.0 104040.0 100037.0 132322.0 140267.0 164826.0 172518.0 229147.0 230070.0 212006.0 217317.0 20556.0 16669.0 133594.0 128765.0 162894.0 166617.0 197172.0 191730.0 38758.0 43398.0 108273.0 113029.0 210223.0 213414.0 170417.0 168223.0 113104.0 121085.0 202888.0 198964.0 205896.0 208479.0 186539.0 179059.0 142547.0 134468.0 77703.0 70508.0 63526.0 67000.0 124850.0 121060.0 68145.0 68493.0 66901.0 73696.0 7151.0 11757.0 135005.0 142135.0 260732.0 265317.0 164164.0 156343.0 199028.0 191448.0 81174.0 84457.0 208560.0 206844.0 135524.0 127556.0 206726.0 201399.0 75595.0 73098.0 159119.0 164086.0 158470.0 0.0 158470.0 158470.0 158470.0 158470.0 0.0 0.0 0.0 0.0
124359.0 128140.0 160920.0 152851.0 168584.0 163413.0 140747.0 142168.0 157477.0 155537.0 110557.0 114448.0 180349.0 172526.0 193176.0 200878.0 97785.0 105378.0 166018.0 166783.0 103757.0 106109.0 195588.0 203707.0 231534.0 224138.0 218659.0 220823.0 120399.0 125451.0 86491.0 87390.0 130820.0 136565.0 102177.0 109679.0 150783.0 158330.0 96878.0 92464.0 220209.0 215591.0 238386.0 234156.0 95068.0 91411.0 177392.0 172534.0 85675.0 89876.0 183810.0 188460.0 164492.0 159580.0 34986.0 35028.0 222342.0 226086.0 217291.0 211476.0 155705.0 149917.0 227928.0 235656.0 173963.0 179394.0 149265.0 156118.0 191700.0 193544.0 174691.0 172040.0 50865.0 57106.0 180652.0 179673.0 202490.0 198994.0 192835.0 192751.0 189257.0 182886.0 122677.0 120562.0 129679.0 129575.0 201470.0 195359.0 182518.0 186013.0 88159.0 92214.0 104040.0 100037.0 132322.0 140267.0 164826.0 172518.0 229147.0 230070.0 212006.0 217317.0 20556.0 16669.0 133594.0 128765.0 162894.0 166617.0 197172.0 191730.0 38758.0 43398.0 108273.0 113029.0 210223.0 213414.0 170417.0 168223.0 113104.0 121085.0 202888.0 198964.0 205896.0 208479.0 186539.0 179059.0 142547.0 134468.0 77703.0 70508.0 63526.0 67000.0 124850.0 121060.0 68145.0 68493.0 66901.0 73696.0 7151.0 11757.0 135005.0 142135.0 260732.0 265317.0 164164.0 156343.0 199028.0 191448.0 81174.0 84457.0 208560.0 206844.0 135524.0 127556.0 206726.0 201399.0 75595.0 73098.0 159119.0 164086.0 158470.0 0.0 158470.0 158470.0 158470.0 158470.0 0.0 0.0 0.0 0.0
124359.0 128140.0 160920.0 152851.0 168584.0 163413.0 140747.0 142168.0 157477.0 155537.0 110557.0 114448.0 180349.0 172526.0 193176.0 200878.0 97785.0 105378.0 166018.0 166783.0 103757.0 106109.0 195588.0 203707.0 231534.0 224138.0 218659.0 220823.0 120399.0 125451.0 86491.0 87390.0 130820.0 136565.0 102177.0 109679.0 150783.0 158330.0 96878.0 92464.0 220209.0 215591.0 238386.0 234156.0 95068.0 91411.0 177392.0 172534.0 85675.0 89876.0 183810.0 188460.0 164492.0 159580.0 34986.0 35028.0 222342.0 226086.0 217291.0 211476.0 155705.0 149917.0 227928.0 235656.0 173963.0 179394.0 149265.0 156118.0 191700.0 193544.0 174691.0 172040.0 50865.0 57106.0 180652.0 179673.0 202490.0 198994.0 192835.0 192751.0 189257.0 182886.0 122677.0 120562.0 129679.0 129575.0 201470.0 195359.0 182518.0 186013.0 88159.0 92214.0 104040.0 100037.0 132322.0 140267.0 164826.0 172518.0 229147.0 230070.0 212006.0 217317.0 20556.0 16669.0 133594.0 128765.0 162894.0 166617.0 197172.0 191730.0 38758.0 43398.0 108273.0 113029.0 210223.0 213414.0 170417.0 168223.0 113104.0 121085.0 202888.0 198964.0 205896.0 208479.0 186539.0 179059.0 142547.0 134468.0 77703.0 70508.0 63526.0 67000.0 124850.0 121060.0 68145.0 68493.0 66901.0 73696.0 7151.0 11757.0 135005.0 142135.0 260732.0 265317.0 164164.0 156343.0 199028.0 191448.0 81174.0 84457.0 208560.0 206844.0 135524.0 127556.0 206726.0 201399.0 75595.0 73098.0 159119.0 164086.0 158470.0 0.0 158470.0 158470.0 158470.0 158470.0 0.0 0.0 0.0 0.0
FIXED_EDGES_SECTION
1 2
3 4
5 6
7 8
9 10
11 12
13 14
15 16
17 18
19 20
21 22
23 24
25 26
27 28
29 30
31 32
33 34
35 36
37 38
39 40
41 42
43 44
45 46
47 48
49 50
51 52
53 54
55 56
57 58
59 60
61 62
63 64
65 66
67 68
69 70
71 72
73 74
75 76
77 78
79 80
81 82
83 84
85 86
87 88
89 90
91 92
93 94
95 96
97 98
99 100
101 102
103 104
105 106
107 108
109 110
111 112
113 114
115 116
117 118
119 120
121 122
123 124
125 126
127 128
129 130
131 132
133 134
135 136
137 138
139 140
141 142
143 144
145 146
147 148
149 150
151 152
153 154
155 156
157 158
159 160
-1 
DEMAND_SECTION
1 94
2 94
3 293
4 293
5 155
6 155
7 119
8 119
9 71
10 71
11 350
12 350
13 82
14 82
15 90
16 90
17 291
18 291
19 112
20 112
21 177
22 177
23 247
24 247
25 258
26 258
27 500
28 500
29 90
30 90
31 373
32 373
33 89
34 89
35 432
36 432
37 96
38 96
39 214
40 214
41 265
42 265
43 497
44 497
45 119
46 119
47 341
48 341
49 130
50 130
51 292
52 292
53 100
54 100
55 100
56 100
57 234
58 234
59 216
60 216
61 341
62 341
63 316
64 316
65 104
66 104
67 280
68 280
69 74
70 74
71 97
72 97
73 114
74 114
75 180
76 180
77 369
78 369
79 247
80 247
81 57
82 57
83 94
84 94
85 60
86 60
87 497
88 497
89 211
90 211
91 184
92 184
93 341
94 341
95 99
96 99
97 618
98 618
99 76
100 76
101 224
102 224
103 235
104 235
105 191
106 191
107 349
108 349
109 461
110 461
111 399
112 399
113 271
114 271
115 274
116 274
117 491
118 491
119 56
120 56
121 375
122 375
123 72
124 72
125 396
126 396
127 171
128 171
129 75
130 75
131 563
132 563
133 322
134 322
135 319
136 319
137 342
138 342
139 37
140 37
141 256
142 256
143 138
144 138
145 421
146 421
147 479
148 479
149 534
150 534
151 211
152 211
153 277
154 277
155 186
156 186
157 324
158 324
159 353
160 353
161 0
162 0
163 0
164 0
165 0
166 0
167 0
168 0
169 0
170 0
DEPOT_SECTION
161 
-1 
CAPACITIES_SECTION
10000 
11000 
12000 
13000 
-1 
EOF