NAME: GFS_20_1
TYPE: GFSP
DIMENSION: 170
VEHICLES: 4
CAPACITY: 10000.0
TRIP_DIST_LIMIT: 1050000.0
TOTAL_DIST_LIMIT: 1050000.0
EDGE_WEIGHT_TYPE: EXPLICIT
EDGE_WEIGHT_FORMAT: FULL_MATRIX
EDGE_WEIGHT_SECTION
0.0 8555.0 173264.0 172342.0 99931.0 100011.0 131043.0 131635.0 250906.0 251845.0 102329.0 96244.0 72953.0 77963.0 39368.0 47404.0 91510.0 86176.0 18400.0 17838.0 278861.0 277010.0 121150.0 128910.0 48812.0 55025.0 203042.0 204550.0 94212.0 87604.0 39187.0 46820.0 93687.0 94952.0 44964.0 45498.0 37253.0 44811.0 100238.0 94310.0 216001.0 209674.0 224785.0 218687.0 35122.0 39729.0 97617.0 100819.0 75167.0 68559.0 208883.0 214200.0 45442.0 46570.0 55231.0 62710.0 118696.0 111874.0 18189.0 10149.0 218783.0 224995.0 11298.0 3353.0 23651.0 31780.0 114049.0 110035.0 191952.0 193095.0 91862.0 89164.0 87583.0 87455.0 101268.0 101533.0 78626.0 85031.0 51301.0 57302.0 11271.0 3279.0 163443.0 157856.0 174932.0 180492.0 149981.0 144434.0 33957.0 31877.0 195880.0 194869.0 50408.0 45245.0 24642.0 29407.0 200027.0 192745.0 19002.0 25389.0 135791.0 139568.0 112185.0 110648.0 73784.0 67740.0 85432.0 79617.0 100286.0 100996.0 184744.0 182233.0 126545.0 130981.0 28204.0 32309.0 123521.0 131195.0 36609.0 28533.0 67276.0 59023.0 83276.0 84011.0 104587.0 96798.0 73253.0 72910.0 281392.0 273215.0 60599.0 61406.0 76756.0 70743.0 245007.0 239906.0 36352.0 35595.0 40415.0 37256.0 34696.0 35229.0 162910.0 158267.0 83455.0 75343.0 270738.0 277591.0 66908.0 58950.0 77889.0 71344.0 90490.0 93948.0 27406.0 20049.0 60010.0 66492.0 64263.0 57301.0 88850.0 124359.0 88850.0 88850.0 88850.0 88850.0 124359.0 124359.0 124359.0 124359.0
8555.0 0.0 165209.0 164157.0 106597.0 106226.0 123328.0 124171.0 253294.0 254472.0 103357.0 96835.0 79469.0 84025.0 34683.0 42520.0 83489.0 77964.0 12612.0 15754.0 281549.0 279832.0 124515.0 132179.0 42669.0 49564.0 205744.0 206921.0 97578.0 91381.0 32657.0 40643.0 86487.0 87367.0 37756.0 39350.0 37481.0 45397.0 91771.0 85787.0 217237.0 210718.0 225596.0 219299.0 31185.0 37098.0 90374.0 93938.0 72572.0 65477.0 211338.0 216880.0 46128.0 48759.0 51326.0 58349.0 117302.0 110134.0 16529.0 10915.0 219604.0 226007.0 12245.0 8819.0 27229.0 35329.0 110563.0 106065.0 183435.0 184552.0 94175.0 91130.0 93923.0 94253.0 104546.0 104190.0 71247.0 77920.0 53526.0 58615.0 16993.0 10482.0 163949.0 158065.0 178362.0 183657.0 141792.0 136155.0 25416.0 23792.0 187652.0 186550.0 44278.0 38407.0 24257.0 30807.0 200464.0 193073.0 13899.0 18403.0 135495.0 138822.0 103689.0 102247.0 72381.0 65745.0 86879.0 80487.0 106255.0 106509.0 176189.0 173687.0 127594.0 131579.0 19890.0 24737.0 126864.0 134387.0 34458.0 26678.0 64992.0 57035.0 89629.0 89807.0 97164.0 89542.0 65211.0 65269.0 282969.0 274767.0 65963.0 67584.0 68389.0 62269.0 247203.0 241897.0 35783.0 36902.0 42399.0 40787.0 26479.0 26675.0 154439.0 149854.0 88176.0 80196.0 273574.0 280427.0 73984.0 66105.0 76251.0 69266.0 93725.0 96551.0 27609.0 19625.0 56388.0 63518.0 59634.0 52121.0 96959.0 128140.0 96959.0 96959.0 96959.0 96959.0 128140.0 128140.0 128140.0 128140.0
173264.0 165209.0 0.0 8242.0 268903.0 266850.0 120518.0 128678.0 294950.0 300024.0 234010.0 225906.0 241989.0 244918.0 141516.0 135200.0 116675.0 113531.0 163637.0 171451.0 323832.0 326304.0 268280.0 274414.0 129005.0 127087.0 262412.0 258025.0 244705.0 241595.0 136224.0 130563.0 134643.0 126457.0 147533.0 155114.0 161564.0 162890.0 77528.0 85273.0 247138.0 239151.0 246101.0 238045.0 167896.0 174570.0 133436.0 140521.0 137575.0 135301.0 262741.0 270654.0 163424.0 171894.0 135372.0 128581.0 152154.0 146171.0 172426.0 173565.0 241850.0 249890.0 174405.0 174023.0 187772.0 194005.0 195789.0 187674.0 47928.0 55494.0 187316.0 182637.0 255415.0 257246.0 250212.0 246009.0 134040.0 137266.0 173097.0 168234.0 175212.0 173768.0 199675.0 191841.0 252875.0 252893.0 24648.0 32023.0 142375.0 148505.0 25501.0 28965.0 127715.0 129911.0 177789.0 185604.0 221755.0 214976.0 155940.0 148326.0 173423.0 168290.0 86988.0 94577.0 195823.0 188411.0 224395.0 216073.0 265860.0 264074.0 60045.0 51929.0 188052.0 183986.0 145371.0 141091.0 216227.0 219090.0 175867.0 174672.0 141837.0 145856.0 251309.0 249445.0 128959.0 133240.0 124006.0 131454.0 305284.0 297994.0 225570.0 229582.0 114036.0 114500.0 286709.0 278939.0 158375.0 166263.0 169788.0 176781.0 138742.0 140242.0 34883.0 30104.0 243374.0 236689.0 324789.0 329386.0 238053.0 230449.0 196134.0 189428.0 196200.0 191302.0 162753.0 162774.0 134776.0 136792.0 125923.0 126943.0 262112.0 222342.0 262112.0 262112.0 262112.0 262112.0 222342.0 222342.0 222342.0 222342.0
172342.0 164157.0 8242.0 0.0 266822.0 264532.0 113709.0 121866.0 301337.0 306314.0 229826.0 221739.0 240039.0 242729.0 141863.0 135854.0 111900.0 109215.0 161966.0 169691.0 330333.0 332687.0 264529.0 270528.0 129285.0 127898.0 268088.0 263864.0 241347.0 238471.0 136041.0 130758.0 129473.0 121302.0 144781.0 152164.0 162398.0 164117.0 74762.0 82289.0 253594.0 245590.0 252833.0 244771.0 165334.0 171804.0 128083.0 134995.0 140201.0 137489.0 268605.0 276493.0 164685.0 173195.0 136664.0 130149.0 156957.0 150713.0 170647.0 172164.0 248500.0 256548.0 172953.0 172946.0 185991.0 191993.0 190251.0 182153.0 40510.0 47852.0 190480.0 185762.0 253260.0 255320.0 246714.0 242310.0 129659.0 132504.0 174613.0 170065.0 174812.0 172999.0 205448.0 197569.0 257797.0 258021.0 22365.0 28638.0 140761.0 146594.0 23734.0 24880.0 128060.0 129766.0 175739.0 183459.0 228269.0 221406.0 155431.0 147682.0 178654.0 173749.0 81732.0 89142.0 191865.0 184577.0 220675.0 212359.0 263419.0 261419.0 51925.0 43817.0 192661.0 188847.0 144271.0 140370.0 220096.0 223203.0 173251.0 172418.0 144067.0 147672.0 249196.0 247084.0 123298.0 127928.0 120214.0 127455.0 312277.0 304932.0 223348.0 227614.0 110436.0 111422.0 293119.0 285382.0 159122.0 167044.0 170805.0 177602.0 137685.0 138722.0 27010.0 23025.0 240620.0 234094.0 330990.0 335693.0 236407.0 228894.0 192009.0 185458.0 199128.0 194482.0 163086.0 162703.0 136386.0 138882.0 127493.0 127966.0 261115.0 226086.0 261115.0 261115.0 261115.0 261115.0 226086.0 226086.0 226086.0 226086.0
99931.0 106597.0 268903.0 266822.0 0.0 8263.0 195389.0 192048.0 312526.0 312734.0 77672.0 80247.0 27175.0 24291.0 138771.0 146796.0 166073.0 164599.0 105620.0 97684.0 339510.0 337570.0 57925.0 63724.0 148742.0 154728.0 264068.0 266783.0 48726.0 43794.0 139038.0 146751.0 157097.0 162845.0 122891.0 116432.0 129127.0 134047.0 192192.0 184951.0 283969.0 279059.0 295123.0 290535.0 102081.0 96527.0 160709.0 158924.0 169678.0 164581.0 270705.0 275191.0 134238.0 129940.0 153315.0 161216.0 206650.0 201594.0 96681.0 96734.0 289269.0 294041.0 95694.0 98112.0 81424.0 74901.0 131762.0 134217.0 279729.0 279150.0 163755.0 163606.0 13747.0 12650.0 50999.0 58678.0 147551.0 149460.0 133103.0 141257.0 103052.0 100708.0 238759.0 235338.0 234676.0 240532.0 244673.0 238232.0 126827.0 120412.0 289651.0 287435.0 150338.0 144958.0 91118.0 83364.0 273769.0 267556.0 118925.0 124940.0 217522.0 223369.0 194738.0 190291.0 92730.0 96025.0 68903.0 73830.0 12504.0 19957.0 269010.0 268370.0 201439.0 208149.0 125360.0 131247.0 183940.0 191931.0 94463.0 94450.0 161493.0 153155.0 17643.0 21604.0 168610.0 160216.0 151229.0 146093.0 346104.0 338169.0 43629.0 39426.0 159351.0 156517.0 307383.0 303221.0 130180.0 125150.0 126453.0 118916.0 131944.0 129113.0 252954.0 249766.0 33792.0 36358.0 331298.0 338151.0 33542.0 41497.0 95830.0 97592.0 156639.0 163618.0 121667.0 117013.0 157462.0 162385.0 163085.0 156791.0 46895.0 183810.0 46895.0 46895.0 46895.0 46895.0 183810.0 183810.0 183810.0 183810.0
100011.0 106226.0 266850.0 264532.0 8263.0 0.0 190263.0 186676.0 317175.0 317384.0 69918.0 72822.0 27323.0 22261.0 139206.0 147252.0 162070.0 160953.0 104275.0 96293.0 344160.0 342220.0 49766.0 55721.0 148718.0 155019.0 268718.0 271433.0 41009.0 36630.0 138847.0 146707.0 152353.0 158349.0 120053.0 113257.0 130798.0 136090.0 189791.0 182416.0 288619.0 283684.0 299761.0 295192.0 99308.0 93327.0 155888.0 153780.0 171383.0 165989.0 275355.0 279840.0 136331.0 132478.0 154218.0 162030.0 209489.0 204179.0 95269.0 96016.0 293916.0 298691.0 94904.0 97963.0 80232.0 73226.0 124766.0 127495.0 276337.0 275540.0 167807.0 167449.0 12542.0 15940.0 42930.0 50684.0 143385.0 144919.0 135846.0 143946.0 103999.0 101047.0 243071.0 239436.0 239326.0 245182.0 242490.0 235903.0 125316.0 118599.0 287165.0 284737.0 150323.0 144627.0 89242.0 81317.0 278356.0 272027.0 118992.0 124628.0 221117.0 226773.0 191175.0 186478.0 86906.0 90681.0 61955.0 67344.0 4241.0 11696.0 265222.0 264808.0 205581.0 212133.0 124471.0 130672.0 188589.0 196581.0 91512.0 92178.0 163194.0 154807.0 16822.0 17482.0 163747.0 155425.0 147744.0 142293.0 350754.0 342819.0 41342.0 38652.0 156170.0 153699.0 312033.0 307870.0 131631.0 126997.0 128671.0 121331.0 130978.0 127682.0 249968.0 247009.0 27564.0 31558.0 335948.0 342800.0 35431.0 43027.0 89793.0 92028.0 161042.0 167844.0 122929.0 117842.0 158537.0 163805.0 163800.0 157215.0 53539.0 188460.0 53539.0 53539.0 53539.0 53539.0 188460.0 188460.0 188460.0 188460.0
131043.0 123328.0 120518.0 113709.0 195389.0 190263.0 0.0 8160.0 349924.0 352914.0 135472.0 128180.0 172827.0 172087.0 127520.0 127800.0 40853.0 48073.0 113096.0 117336.0 379601.0 379670.0 172984.0 177161.0 119189.0 125095.0 306668.0 305411.0 155967.0 156254.0 117041.0 118919.0 39388.0 36216.0 86313.0 88007.0 147839.0 154339.0 71431.0 67510.0 306275.0 298565.0 310458.0 302824.0 102715.0 104549.0 35462.0 36484.0 155548.0 148208.0 310231.0 317154.0 155199.0 162074.0 136421.0 135839.0 196092.0 187703.0 117772.0 124210.0 304948.0 312612.0 124073.0 129324.0 129391.0 130952.0 83725.0 76301.0 102427.0 98245.0 201014.0 196629.0 182031.0 186885.0 159232.0 152738.0 52891.0 47954.0 166051.0 166826.0 140110.0 133652.0 251233.0 243592.0 285277.0 288688.0 100271.0 92695.0 100339.0 99617.0 128083.0 122015.0 119325.0 113991.0 117715.0 122312.0 283841.0 276118.0 124828.0 117924.0 219924.0 219028.0 42977.0 36315.0 104104.0 99607.0 132656.0 125259.0 187695.0 183164.0 86211.0 89417.0 222995.0 223325.0 109553.0 112397.0 236025.0 242249.0 107781.0 112331.0 153194.0 150382.0 178907.0 173787.0 27594.0 36112.0 58698.0 58137.0 371732.0 363630.0 154465.0 161604.0 59153.0 66945.0 342561.0 335840.0 144332.0 150492.0 156444.0 158925.0 106281.0 100483.0 88027.0 90684.0 162887.0 159051.0 374779.0 381173.0 173638.0 168266.0 102030.0 98492.0 204914.0 204542.0 141584.0 135826.0 140257.0 147923.0 134240.0 127772.0 205338.0 239442.0 205338.0 205338.0 205338.0 205338.0 239442.0 239442.0 239442.0 239442.0
131635.0 124171.0 128678.0 121866.0 192048.0 186676.0 8160.0 0.0 354745.0 357605.0 130072.0 122960.0 170135.0 169050.0 130514.0 131260.0 43622.0 51345.0 113457.0 117208.0 384376.0 384306.0 167637.0 171577.0 122763.0 129011.0 311049.0 309977.0 151473.0 152123.0 119996.0 122371.0 38364.0 36891.0 86686.0 87602.0 150308.0 157033.0 77992.0 73588.0 311489.0 303827.0 315937.0 308354.0 101917.0 103140.0 34362.0 33588.0 159928.0 152445.0 314781.0 321616.0 157898.0 164519.0 140203.0 140037.0 201270.0 192857.0 117577.0 124338.0 310381.0 317995.0 124112.0 129740.0 128508.0 129565.0 77010.0 69807.0 110016.0 105619.0 204407.0 200097.0 178831.0 183923.0 154462.0 147778.0 53014.0 47125.0 168616.0 169763.0 141086.0 134361.0 256330.0 248752.0 289077.0 292670.0 108358.0 100758.0 102023.0 100666.0 136112.0 129977.0 122996.0 117309.0 116974.0 121112.0 289312.0 281576.0 126561.0 119944.0 224994.0 224326.0 50055.0 42992.0 100042.0 96038.0 128099.0 120919.0 183978.0 179218.0 93535.0 97009.0 227406.0 227978.0 111416.0 114762.0 239423.0 245798.0 106487.0 111517.0 157226.0 154046.0 175835.0 170453.0 27054.0 35126.0 60637.0 58974.0 377131.0 369006.0 151830.0 159174.0 62411.0 70254.0 347456.0 340818.0 146860.0 152749.0 158750.0 160848.0 108572.0 102374.0 96140.0 98842.0 159189.0 155692.0 379233.0 385713.0 171387.0 166296.0 97696.0 94668.0 207944.0 207863.0 143646.0 137582.0 144225.0 152058.0 138547.0 131791.0 203519.0 242642.0 203519.0 203519.0 203519.0 203519.0 242642.0 242642.0 242642.0 242642.0
250906.0 253294.0 294950.0 301337.0 312526.0 317175.0 349924.0 354745.0 0.0 7469.0 348912.0 344204.0 293541.0 301234.0 229897.0 226647.0 312168.0 304115.0 265627.0 268336.0 29764.0 31355.0 356644.0 364372.0 234303.0 227017.0 48507.0 46375.0 332141.0 324187.0 239840.0 235180.0 325340.0 321884.0 284386.0 289531.0 216361.0 208408.0 281920.0 283734.0 47916.0 55842.0 52203.0 59589.0 284428.0 290248.0 328265.0 334697.0 195225.0 202998.0 42039.0 37500.0 207612.0 204597.0 216588.0 215373.0 154361.0 162617.0 268858.0 261033.0 54816.0 47301.0 262205.0 254222.0 271476.0 278116.0 363575.0 358541.0 341256.0 347795.0 159146.0 162197.0 306107.0 301250.0 338938.0 342129.0 310758.0 318738.0 199828.0 194879.0 239896.0 247703.0 99379.0 107286.0 80262.0 72997.0 289912.0 291922.0 263473.0 269008.0 317559.0 323215.0 233713.0 240588.0 275524.0 279223.0 73415.0 79983.0 242910.0 246025.0 130329.0 132321.0 310455.0 315113.0 324634.0 318621.0 331585.0 327534.0 319745.0 324283.0 348007.0 340770.0 128290.0 126889.0 254373.0 248089.0 128674.0 120714.0 287347.0 279308.0 198974.0 203807.0 302679.0 308109.0 332090.0 327419.0 298157.0 303326.0 39744.0 34295.0 293207.0 288295.0 293421.0 285749.0 8332.0 16285.0 218769.0 216412.0 210925.0 213720.0 254011.0 261852.0 316347.0 308320.0 315255.0 307774.0 31693.0 34728.0 283821.0 278087.0 328784.0 322211.0 160844.0 156959.0 225907.0 233850.0 211945.0 203681.0 216607.0 223980.0 287186.0 129679.0 287186.0 287186.0 287186.0 287186.0 129679.0 129679.0 129679.0 129679.0
251845.0 254472.0 300024.0 306314.0 312734.0 317384.0 352914.0 357605.0 7469.0 0.0 349080.0 344515.0 293750.0 301443.0 231858.0 228840.0 314840.0 306807.0 266875.0 269376.0 27124.0 26905.0 356853.0 364581.0 236624.0 229471.0 48819.0 47969.0 332350.0 324396.0 241902.0 237445.0 327702.0 324407.0 286135.0 291110.0 217757.0 209826.0 285391.0 287023.0 53519.0 61291.0 58849.0 66024.0 285644.0 291323.0 330684.0 337016.0 197840.0 205533.0 43330.0 37654.0 209018.0 205721.0 218892.0 217936.0 157845.0 166022.0 269873.0 261987.0 61101.0 53812.0 263139.0 255145.0 272075.0 278582.0 364912.0 360008.0 346107.0 352566.0 160306.0 163523.0 306316.0 301459.0 339147.0 342338.0 313005.0 320974.0 200952.0 196249.0 240767.0 248622.0 103180.0 111144.0 79626.0 72546.0 294522.0 296377.0 265305.0 270680.0 322836.0 328395.0 236079.0 242835.0 276422.0 279928.0 78967.0 85255.0 244366.0 247702.0 133802.0 136174.0 313801.0 318321.0 325473.0 319585.0 331771.0 327887.0 319954.0 324492.0 352576.0 345403.0 130593.0 129627.0 256122.0 249972.0 128981.0 121080.0 288368.0 280312.0 201329.0 205916.0 302888.0 308318.0 334657.0 329835.0 300565.0 305582.0 44580.0 40002.0 293416.0 288504.0 296047.0 288338.0 14879.0 22671.0 220256.0 217646.0 212074.0 214605.0 255949.0 263742.0 320907.0 312886.0 315464.0 307983.0 25269.0 29390.0 284030.0 278296.0 329662.0 323187.0 161520.0 157964.0 227205.0 235117.0 214338.0 206144.0 219245.0 226476.0 287395.0 129575.0 287395.0 287395.0 287395.0 287395.0 129575.0 129575.0 129575.0 129575.0
102329.0 103357.0 234010.0 229826.0 77672.0 69918.0 135472.0 130072.0 348912.0 349080.0 0.0 8114.0 69757.0 63619.0 136733.0 143873.0 118479.0 120612.0 93857.0 87811.0 375909.0 373969.0 37569.0 41865.0 141138.0 149306.0 300467.0 302956.0 28947.0 34833.0 131225.0 139230.0 103074.0 110750.0 92752.0 84344.0 139581.0 147097.0 157865.0 149896.0 316882.0 310876.0 326272.0 320418.0 77878.0 69988.0 105629.0 100862.0 175753.0 168402.0 307008.0 311585.0 147703.0 147903.0 153699.0 159901.0 220627.0 213490.0 86939.0 93126.0 320269.0 326201.0 91778.0 99042.0 79250.0 71745.0 58112.0 62810.0 232425.0 229938.0 191897.0 189831.0 68600.0 76046.0 27985.0 20072.0 100209.0 98168.0 152456.0 159164.0 112060.0 105123.0 265378.0 260004.0 271075.0 276932.0 209504.0 201988.0 108732.0 100731.0 250186.0 246123.0 142616.0 135010.0 79115.0 72989.0 301956.0 294772.0 116880.0 118330.0 238115.0 241853.0 149263.0 142736.0 38659.0 46542.0 17342.0 22878.0 65974.0 59056.0 218501.0 219862.0 228072.0 232922.0 113359.0 121115.0 220238.0 228202.0 71128.0 77586.0 168306.0 160391.0 68115.0 60166.0 112547.0 105475.0 110214.0 102584.0 381390.0 373296.0 59467.0 66916.0 120411.0 121425.0 343610.0 339089.0 138531.0 137752.0 142100.0 137390.0 118067.0 111358.0 210098.0 209122.0 46455.0 49567.0 367697.0 374550.0 77541.0 78702.0 37892.0 44915.0 188532.0 193368.0 129704.0 122087.0 158958.0 166537.0 160670.0 152364.0 110171.0 220209.0 110171.0 110171.0 110171.0 110171.0 220209.0 220209.0 220209.0 220209.0
96244.0 96835.0 225906.0 221739.0 80247.0 72822.0 128180.0 122960.0 344204.0 344515.0 8114.0 0.0 69569.0 64061.0 129815.0 136839.0 110459.0 112526.0 86950.0 81178.0 371221.0 369337.0 44850.0 49598.0 133875.0 142095.0 295820.0 298130.0 32100.0 36536.0 124034.0 131986.0 95236.0 102856.0 84895.0 76492.0 133443.0 141055.0 149754.0 141784.0 311494.0 305386.0 320687.0 314733.0 70521.0 62676.0 97858.0 93258.0 169006.0 161570.0 302240.0 306957.0 141684.0 142214.0 146774.0 152836.0 214131.0 206895.0 80340.0 86818.0 314683.0 320715.0 85483.0 92925.0 73542.0 66329.0 52806.0 56811.0 224581.0 222170.0 186591.0 184386.0 70131.0 77360.0 32787.0 25323.0 92140.0 90195.0 146820.0 153346.0 106263.0 99126.0 259586.0 254085.0 266457.0 272313.0 201395.0 193883.0 101237.0 93248.0 242142.0 238114.0 135336.0 127676.0 72584.0 66837.0 296174.0 288935.0 110203.0 111347.0 231987.0 235566.0 141250.0 134767.0 30590.0 38513.0 13869.0 16755.0 69071.0 62522.0 210778.0 212051.0 222431.0 227118.0 106129.0 113900.0 215565.0 223504.0 64004.0 70733.0 161655.0 153827.0 69153.0 61416.0 104866.0 97684.0 102100.0 94474.0 376268.0 368150.0 57447.0 65312.0 112298.0 113335.0 338780.0 334134.0 132259.0 131792.0 136309.0 131880.0 110686.0 103853.0 202096.0 201074.0 47619.0 49419.0 363065.0 369918.0 76652.0 76989.0 29781.0 36819.0 183563.0 188182.0 123526.0 115814.0 152057.0 159737.0 153540.0 145184.0 109736.0 215591.0 109736.0 109736.0 109736.0 109736.0 215591.0 215591.0 215591.0 215591.0
72953.0 79469.0 241989.0 240039.0 27175.0 27323.0 172827.0 170135.0 293541.0 293750.0 69757.0 69569.0 0.0 7799.0 112013.0 120055.0 141355.0 139328.0 78528.0 70619.0 320526.0 318586.0 64297.0 71739.0 121746.0 127889.0 245084.0 247799.0 43775.0 36032.0 111975.0 119746.0 133862.0 139049.0 96776.0 90753.0 103548.0 108971.0 165532.0 158400.0 264960.0 259908.0 275894.0 271026.0 76012.0 71054.0 137624.0 136628.0 144121.0 138676.0 251721.0 256207.0 109235.0 105663.0 126914.0 134741.0 182787.0 177298.0 69625.0 69559.0 269992.0 274971.0 68519.0 71040.0 54323.0 48052.0 116637.0 117688.0 253912.0 253603.0 142610.0 141938.0 14782.0 15289.0 49312.0 54972.0 123214.0 125843.0 109185.0 117222.0 76680.0 73869.0 218090.0 214127.0 215692.0 221548.0 217837.0 211488.0 99767.0 93490.0 262985.0 260928.0 123346.0 117855.0 64315.0 56728.0 253787.0 247265.0 91954.0 97835.0 195156.0 200584.0 169263.0 165186.0 73606.0 75219.0 56137.0 58344.0 28321.0 31237.0 243715.0 242774.0 180409.0 186705.0 98186.0 104091.0 164956.0 172947.0 68676.0 67932.0 135934.0 127539.0 10515.0 14574.0 145570.0 137065.0 125785.0 121139.0 327120.0 319185.0 18377.0 12430.0 133487.0 130267.0 288399.0 284237.0 104332.0 99807.0 101654.0 94454.0 104771.0 102024.0 226727.0 223332.0 24611.0 20220.0 312314.0 319167.0 9783.0 16165.0 77379.0 77429.0 136469.0 142929.0 95611.0 90540.0 131217.0 136495.0 136533.0 130032.0 40422.0 164826.0 40422.0 40422.0 40422.0 40422.0 164826.0 164826.0 164826.0 164826.0
77963.0 84025.0 244918.0 242729.0 24291.0 22261.0 172087.0 169050.0 301234.0 301443.0 63619.0 64061.0 7799.0 0.0 117256.0 125303.0 141954.0 140362.0 82053.0 74076.0 328218.0 326278.0 56518.0 63944.0 126578.0 132988.0 252776.0 255492.0 36711.0 29230.0 116666.0 124563.0 133469.0 139010.0 98619.0 92142.0 109776.0 115436.0 168045.0 160759.0 272629.0 267542.0 283514.0 278605.0 77811.0 72243.0 137147.0 135705.0 150280.0 144636.0 259413.0 263899.0 115732.0 112449.0 132514.0 140258.0 189591.0 183966.0 73056.0 73765.0 277605.0 282621.0 72648.0 75833.0 57979.0 51062.0 112701.0 114230.0 255443.0 254889.0 150040.0 149286.0 10567.0 14943.0 41930.0 47920.0 123525.0 125676.0 116077.0 124061.0 82453.0 79120.0 225534.0 221494.0 223384.0 229241.0 220623.0 214120.0 103142.0 96522.0 265488.0 263211.0 128185.0 122412.0 67169.0 59314.0 261304.0 254747.0 96909.0 102427.0 202327.0 207660.0 170478.0 166093.0 70951.0 73356.0 51019.0 54123.0 22332.0 24133.0 244788.0 244103.0 187823.0 194051.0 102210.0 108426.0 172648.0 180639.0 70174.0 70311.0 142105.0 133693.0 6852.0 6940.0 145074.0 136626.0 126965.0 121908.0 334812.0 326877.0 19393.0 16574.0 135060.0 132254.0 296091.0 291929.0 110399.0 106171.0 108256.0 101205.0 108720.0 105488.0 228677.0 225526.0 17546.0 14953.0 320006.0 326859.0 17574.0 23438.0 74462.0 75268.0 144028.0 150421.0 101564.0 96163.0 136943.0 142467.0 141969.0 135240.0 47048.0 172518.0 47048.0 47048.0 47048.0 47048.0 172518.0 172518.0 172518.0 172518.0
39368.0 34683.0 141516.0 141863.0 138771.0 139206.0 127520.0 130514.0 229897.0 231858.0 136733.0 129815.0 112013.0 117256.0 0.0 8048.0 86923.0 79451.0 42879.0 49260.0 258956.0 258015.0 159173.0 166817.0 12599.0 16095.0 183856.0 183892.0 132246.0 126059.0 10523.0 11320.0 96878.0 94760.0 54903.0 60985.0 22194.0 27253.0 76659.0 73144.0 190640.0 183646.0 197790.0 191029.0 60171.0 67630.0 100183.0 105907.0 39556.0 31853.0 188541.0 194785.0 28084.0 35819.0 16967.0 23667.0 85579.0 77865.0 50209.0 45596.0 191867.0 198732.0 46928.0 41797.0 61835.0 69979.0 135672.0 129889.0 167083.0 169589.0 74212.0 70097.0 126727.0 126192.0 139200.0 138673.0 81717.0 89595.0 39201.0 39306.0 36260.0 38159.0 135921.0 129355.0 159567.0 163759.0 119918.0 115583.0 33806.0 40218.0 165592.0 165741.0 13809.0 14367.0 58077.0 65237.0 171893.0 164295.0 20841.0 18535.0 105876.0 108132.0 97150.0 98413.0 103076.0 95657.0 120721.0 113897.0 139588.0 140364.0 162970.0 159057.0 101793.0 104357.0 25388.0 18337.0 109139.0 115783.0 65898.0 59148.0 32932.0 26402.0 122420.0 123365.0 105187.0 99317.0 70432.0 74394.0 256922.0 248687.0 99938.0 100684.0 68368.0 60594.0 223236.0 217327.0 18553.0 26255.0 31289.0 36668.0 24118.0 32016.0 137106.0 131258.0 122594.0 114537.0 252020.0 258865.0 105405.0 97405.0 106444.0 98898.0 77436.0 77530.0 21239.0 22424.0 22244.0 30135.0 24996.0 18022.0 124185.0 112154.0 124185.0 124185.0 124185.0 124185.0 112154.0 112154.0 112154.0 112154.0
47404.0 42520.0 135200.0 135854.0 146796.0 147252.0 127800.0 131260.0 226647.0 228840.0 143873.0 136839.0 120055.0 125303.0 8048.0 0.0 87668.0 79933.0 50079.0 56761.0 255890.0 255180.0 166904.0 174522.0 8775.0 8418.0 181197.0 180886.0 139998.0 133890.0 13816.0 8890.0 98996.0 96244.0 59622.0 66276.0 26663.0 29863.0 73072.0 70294.0 186468.0 179333.0 193191.0 186284.0 66754.0 74376.0 102114.0 108232.0 33681.0 25686.0 185589.0 192025.0 30600.0 38949.0 10588.0 16056.0 79856.0 71921.0 57733.0 53431.0 187306.0 194313.0 54752.0 49798.0 69726.0 77848.0 140676.0 134629.0 162300.0 165111.0 73214.0 68851.0 134771.0 134210.0 146928.0 146265.0 84170.0 92135.0 41616.0 40116.0 44138.0 46205.0 131443.0 124654.0 157931.0 161780.0 114115.0 110113.0 38665.0 45745.0 159551.0 159971.0 9113.0 14083.0 65572.0 72880.0 167089.0 159437.0 28763.0 25570.0 100949.0 102743.0 95314.0 97208.0 109576.0 102019.0 128044.0 121087.0 147635.0 148396.0 158920.0 154704.0 98359.0 100378.0 31259.0 23631.0 108227.0 114538.0 72839.0 66357.0 28020.0 23024.0 130465.0 131407.0 106635.0 101255.0 72056.0 76754.0 252797.0 244565.0 107955.0 108732.0 68851.0 61008.0 219827.0 213744.0 23289.0 31225.0 35423.0 41798.0 28553.0 36545.0 132252.0 126146.0 130557.0 122514.0 249417.0 256192.0 113410.0 105410.0 112806.0 105174.0 77491.0 76753.0 28011.0 30201.0 15869.0 24263.0 17130.0 10000.0 131866.0 111706.0 131866.0 131866.0 131866.0 131866.0 111706.0 111706.0 111706.0 111706.0
91510.0 83489.0 116675.0 111900.0 166073.0 162070.0 40853.0 43622.0 312168.0 314840.0 118479.0 110459.0 141355.0 141954.0 86923.0 87668.0 0.0 8090.0 74135.0 79308.0 341714.0 341454.0 154249.0 159790.0 79218.0 85672.0 267938.0 267077.0 132926.0 131360.0 76413.0 78783.0 19246.0 11796.0 47905.0 51562.0 107008.0 113580.0 45986.0 38931.0 269666.0 262118.0 274715.0 267278.0 66793.0 70476.0 19735.0 27671.0 117001.0 109362.0 271858.0 278587.0 114442.0 121241.0 96746.0 96945.0 159614.0 151180.0 79887.0 85549.0 269056.0 276537.0 85590.0 90087.0 92990.0 95958.0 80701.0 72622.0 115341.0 113867.0 160789.0 156488.0 152365.0 156200.0 137568.0 132369.0 18936.0 20607.0 125248.0 126200.0 100016.0 93932.0 214353.0 206919.0 245552.0 249239.0 92654.0 84886.0 59738.0 59701.0 131737.0 127660.0 79498.0 73695.0 81185.0 86969.0 248119.0 240368.0 84131.0 77114.0 183033.0 182873.0 30798.0 24747.0 81461.0 74833.0 110873.0 102689.0 160114.0 156710.0 103247.0 103299.0 184394.0 185283.0 68815.0 71546.0 195803.0 202198.0 73200.0 76144.0 113928.0 110511.0 148786.0 144827.0 20468.0 19156.0 18279.0 20343.0 335638.0 327468.0 123150.0 129388.0 18881.0 26706.0 305002.0 298508.0 103513.0 109639.0 115593.0 118118.0 65429.0 59751.0 91657.0 90705.0 135761.0 130534.0 336169.0 342742.0 140598.0 134385.0 81019.0 75100.0 164360.0 164241.0 100751.0 95100.0 100897.0 108867.0 95595.0 88537.0 170653.0 199028.0 170653.0 170653.0 170653.0 170653.0 199028.0 199028.0 199028.0 199028.0
86176.0 77964.0 113531.0 109215.0 164599.0 160953.0 48073.0 51345.0 304115.0 306807.0 120612.0 112526.0 139328.0 140362.0 79451.0 79933.0 8090.0 0.0 69332.0 75032.0 333670.0 333433.0 155655.0 161470.0 71419.0 77741.0 259959.0 259060.0 133444.0 131397.0 68969.0 71043.0 25785.0 19244.0 43938.0 48706.0 99874.0 106287.0 40146.0 32651.0 261577.0 254028.0 266629.0 259196.0 63820.0 68277.0 26995.0 34826.0 108973.0 101361.0 263845.0 270592.0 107146.0 114106.0 88877.0 88942.0 151524.0 143090.0 75685.0 80836.0 260968.0 268448.0 80985.0 84969.0 89415.0 92981.0 86073.0 78084.0 115500.0 114591.0 153116.0 148781.0 150856.0 154347.0 138397.0 133565.0 20516.0 24825.0 118031.0 118756.0 94198.0 88444.0 206266.0 198830.0 237736.0 241364.0 89174.0 81541.0 53548.0 54305.0 129852.0 126211.0 71655.0 66023.0 77680.0 83945.0 240034.0 232283.0 77674.0 70427.0 174945.0 174785.0 30251.0 25923.0 82823.0 75767.0 111953.0 103679.0 159188.0 156126.0 104433.0 103856.0 176390.0 177235.0 62334.0 64570.0 188134.0 194468.0 70725.0 72878.0 105987.0 102701.0 147155.0 143583.0 28497.0 26320.0 13709.0 18863.0 327549.0 319378.0 121307.0 127187.0 11099.0 18932.0 296940.0 290436.0 96341.0 102655.0 108563.0 111372.0 58548.0 53324.0 90432.0 88785.0 135131.0 129530.0 328183.0 334739.0 138032.0 131546.0 82817.0 76415.0 156862.0 156601.0 93938.0 88567.0 92965.0 100892.0 87566.0 80576.0 167380.0 191448.0 167380.0 167380.0 167380.0 167380.0 191448.0 191448.0 191448.0 191448.0
18400.0 12612.0 163637.0 161966.0 105620.0 104275.0 113096.0 113457.0 265627.0 266875.0 93857.0 86950.0 78528.0 82053.0 42879.0 50079.0 74135.0 69332.0 0.0 7986.0 293964.0 292303.0 117641.0 125126.0 48172.0 55988.0 218176.0 219260.0 90935.0 85400.0 37997.0 46179.0 75387.0 76917.0 26800.0 27157.0 49436.0 57401.0 88060.0 81409.0 229123.0 222512.0 237256.0 230852.0 18826.0 25384.0 79333.0 82427.0 82116.0 74625.0 223701.0 229304.0 58164.0 61226.0 59845.0 66132.0 127620.0 120188.0 9017.0 11518.0 231274.0 237776.0 11794.0 16286.0 24205.0 31124.0 98071.0 93486.0 178685.0 179287.0 106570.0 103431.0 92376.0 93722.0 97712.0 96543.0 60450.0 66703.0 65984.0 70797.0 28952.0 21399.0 175491.0 169440.0 190936.0 196192.0 139668.0 133561.0 21268.0 15938.0 185163.0 183533.0 49731.0 42668.0 16095.0 24024.0 211928.0 204479.0 23735.0 24509.0 146585.0 149583.0 96718.0 94482.0 61013.0 54032.0 77971.0 71035.0 103803.0 103185.0 170380.0 168391.0 139474.0 143221.0 20970.0 28256.0 139437.0 146937.0 23219.0 16283.0 74918.0 67328.0 88170.0 87221.0 86403.0 78522.0 56022.0 54996.0 294987.0 286776.0 63060.0 66194.0 60629.0 55412.0 259475.0 254097.0 47404.0 49230.0 54851.0 53399.0 27083.0 23497.0 150327.0 146283.0 83708.0 76078.0 286037.0 292889.0 74447.0 66942.0 64694.0 57477.0 106297.0 109014.0 39735.0 31778.0 65115.0 72807.0 67028.0 58906.0 100394.0 140747.0 100394.0 100394.0 100394.0 100394.0 140747.0 140747.0 140747.0 140747.0
17838.0 15754.0 171451.0 169691.0 97684.0 96293.0 117336.0 117208.0 268336.0 269376.0 87811.0 81178.0 70619.0 74076.0 49260.0 56761.0 79308.0 75032.0 7986.0 0.0 296418.0 294555.0 110349.0 117900.0 55480.0 63084.0 220594.0 221965.0 83541.0 77817.0 45269.0 53467.0 78888.0 81132.0 31413.0 29691.0 53105.0 60973.0 95582.0 88793.0 232763.0 226298.0 241234.0 234975.0 17468.0 21973.0 82880.0 85314.0 87952.0 80675.0 226336.0 231746.0 61681.0 63761.0 66171.0 72795.0 132962.0 125722.0 1044.0 7961.0 235239.0 241598.0 7257.0 14765.0 16322.0 23142.0 96223.0 92205.0 185805.0 186240.0 109200.0 106323.0 84412.0 85836.0 90387.0 89514.0 64452.0 70131.0 68525.0 74017.0 29109.0 21117.0 179635.0 173790.0 192692.0 198190.0 147417.0 141237.0 29148.0 23219.0 192826.0 191094.0 57061.0 50216.0 8818.0 16358.0 216166.0 208789.0 29071.0 31342.0 151249.0 154561.0 103150.0 100534.0 56768.0 50341.0 71534.0 64933.0 95817.0 95228.0 177146.0 175344.0 143151.0 147241.0 28749.0 35795.0 141249.0 148888.0 19016.0 11034.0 80503.0 72649.0 80213.0 79235.0 90228.0 82098.0 61485.0 59600.0 298389.0 290195.0 55075.0 58263.0 66892.0 62134.0 262346.0 257138.0 51514.0 52221.0 57471.0 54930.0 34992.0 31434.0 157655.0 153749.0 75844.0 68167.0 288341.0 295194.0 66734.0 59327.0 60719.0 53908.0 108174.0 111416.0 43179.0 35237.0 71359.0 78776.0 73842.0 65902.0 93350.0 142168.0 93350.0 93350.0 93350.0 93350.0 142168.0 142168.0 142168.0 142168.0
278861.0 281549.0 323832.0 330333.0 339510.0 344160.0 379601.0 384376.0 29764.0 27124.0 375909.0 371221.0 320526.0 328218.0 258956.0 255890.0 341714.0 333670.0 293964.0 296418.0 0.0 7961.0 383628.0 391357.0 263636.0 256435.0 75824.0 75065.0 359125.0 351171.0 268983.0 264475.0 354707.0 351350.0 313257.0 318234.0 244871.0 236942.0 311682.0 313479.0 76763.0 84784.0 78765.0 86631.0 312725.0 318372.0 357670.0 364036.0 224730.0 232460.0 70449.0 64675.0 236133.0 232794.0 245908.0 244852.0 184121.0 192371.0 296908.0 289005.0 82346.0 74423.0 290151.0 282155.0 298954.0 305394.0 392011.0 387123.0 370377.0 376995.0 187394.0 190634.0 333092.0 328235.0 365923.0 369114.0 340046.0 348018.0 228025.0 223361.0 267763.0 275633.0 129139.0 137038.0 106350.0 99269.0 319271.0 321393.0 292421.0 297804.0 346150.0 351943.0 263076.0 269871.0 303420.0 306852.0 102077.0 108962.0 271483.0 274826.0 160087.0 162068.0 340209.0 344845.0 352443.0 346599.0 358510.0 354622.0 346729.0 351267.0 377384.0 370097.0 157592.0 156439.0 283243.0 277082.0 155801.0 147938.0 315403.0 307342.0 228326.0 232984.0 329663.0 335094.0 361582.0 356821.0 327552.0 332620.0 37772.0 38521.0 320192.0 315280.0 322942.0 315249.0 37573.0 45060.0 247377.0 244737.0 239150.0 241611.0 283052.0 290852.0 345738.0 337709.0 342239.0 334759.0 18761.0 13501.0 310805.0 305071.0 356646.0 350204.0 188473.0 185021.0 254306.0 262212.0 241323.0 233102.0 246127.0 253423.0 314170.0 157477.0 314170.0 314170.0 314170.0 314170.0 157477.0 157477.0 157477.0 157477.0
277010.0 279832.0 326304.0 332687.0 337570.0 342220.0 379670.0 384306.0 31355.0 26905.0 373969.0 369337.0 318586.0 326278.0 258015.0 255180.0 341454.0 333433.0 292303.0 294555.0 7961.0 0.0 381688.0 389416.0 263049.0 255985.0 74256.0 74383.0 357185.0 349231.0 268134.0 263831.0 354119.0 350932.0 312071.0 316877.0 243400.0 235500.0 312281.0 313880.0 79236.0 87184.0 82508.0 90198.0 311017.0 316525.0 357141.0 363401.0 224461.0 232106.0 69625.0 63242.0 234682.0 231082.0 245315.0 244518.0 184743.0 192912.0 295089.0 287158.0 85659.0 77899.0 288294.0 280295.0 297014.0 303461.0 390374.0 385617.0 372589.0 379109.0 185796.0 189179.0 331152.0 326294.0 363983.0 367174.0 339346.0 347304.0 226321.0 221893.0 265887.0 273774.0 130072.0 138031.0 104410.0 97329.0 321170.0 323109.0 291329.0 296552.0 348893.0 354564.0 262534.0 269206.0 301543.0 304922.0 104720.0 111336.0 270041.0 273594.0 160702.0 163065.0 340668.0 345154.0 350536.0 344738.0 356570.0 352721.0 344789.0 349327.0 379251.0 372040.0 157097.0 156348.0 282076.0 276051.0 153863.0 145999.0 313580.0 305513.0 227796.0 232211.0 327723.0 333154.0 361205.0 356289.0 327022.0 331933.0 45511.0 45743.0 318251.0 313339.0 322639.0 314910.0 39616.0 47469.0 245990.0 243113.0 237453.0 239754.0 282071.0 289818.0 347586.0 339561.0 340299.0 332819.0 11333.0 5638.0 308865.0 303131.0 354750.0 348348.0 186570.0 183289.0 252731.0 260599.0 240822.0 232675.0 245868.0 253017.0 312230.0 155537.0 312230.0 312230.0 312230.0 312230.0 155537.0 155537.0 155537.0 155537.0
121150.0 124515.0 268280.0 264529.0 57925.0 49766.0 172984.0 167637.0 356644.0 356853.0 37569.0 44850.0 64297.0 56518.0 159173.0 166904.0 154249.0 155655.0 117641.0 110349.0 383628.0 381688.0 0.0 7871.0 165784.0 173430.0 308186.0 310902.0 26955.0 33823.0 155583.0 163780.0 139774.0 147237.0 123054.0 114820.0 157259.0 164015.0 191228.0 183316.0 327607.0 322238.0 338077.0 332856.0 105084.0 97331.0 142516.0 138079.0 196315.0 189642.0 314823.0 319309.0 164474.0 162812.0 175819.0 182837.0 238953.0 232535.0 109345.0 113624.0 332124.0 337429.0 112279.0 118199.0 97645.0 89457.0 94648.0 99948.0 269001.0 266764.0 203644.0 202389.0 55327.0 62510.0 19976.0 22318.0 135585.0 134318.0 166945.0 174489.0 128874.0 123333.0 278906.0 274342.0 278794.0 284651.0 243654.0 236318.0 135761.0 127897.0 285506.0 281773.0 167353.0 160278.0 101638.0 94068.0 315110.0 308308.0 138410.0 141673.0 253949.0 258627.0 185014.0 178804.0 72858.0 79962.0 43887.0 52209.0 45599.0 38363.0 255451.0 256560.0 241131.0 246876.0 138442.0 145889.0 228058.0 236050.0 97337.0 101913.0 188391.0 180086.0 57273.0 50130.0 149628.0 142311.0 144328.0 137123.0 390186.0 382275.0 64256.0 68372.0 154244.0 154267.0 351501.0 347339.0 157012.0 154477.0 157750.0 151650.0 144048.0 138396.0 245843.0 244439.0 41398.0 49089.0 375416.0 382269.0 74009.0 78764.0 73291.0 79258.0 198496.0 204418.0 147917.0 141102.0 180817.0 187601.0 184032.0 176220.0 101167.0 227928.0 101167.0 101167.0 101167.0 101167.0 227928.0 227928.0 227928.0 227928.0
128910.0 132179.0 274414.0 270528.0 63724.0 55721.0 177161.0 171577.0 364372.0 364581.0 41865.0 49598.0 71739.0 63944.0 166817.0 174522.0 159790.0 161470.0 125126.0 117900.0 391357.0 389416.0 7871.0 0.0 173290.0 180983.0 315914.0 318630.0 34698.0 41680.0 163098.0 171291.0 144832.0 152426.0 129856.0 121571.0 165087.0 171862.0 197558.0 189625.0 335395.0 330045.0 345893.0 340687.0 112221.0 104419.0 147448.0 142727.0 204077.0 197372.0 322552.0 327037.0 172323.0 170680.0 183496.0 190475.0 246794.0 240359.0 116901.0 121299.0 339942.0 345230.0 119951.0 125942.0 105375.0 97190.0 97329.0 103071.0 274172.0 271762.0 211487.0 210245.0 62179.0 69185.0 27654.0 29070.0 141259.0 139671.0 174815.0 182357.0 136702.0 131117.0 286763.0 282208.0 286523.0 292379.0 249812.0 242420.0 143006.0 135109.0 291292.0 287424.0 174854.0 167728.0 109162.0 101654.0 322958.0 316162.0 146077.0 149237.0 261820.0 266493.0 190585.0 184229.0 78669.0 86004.0 50258.0 58542.0 51655.0 44657.0 260350.0 261649.0 248987.0 254740.0 145873.0 153358.0 235786.0 243778.0 104544.0 109306.0 196167.0 187870.0 64357.0 57431.0 154407.0 147279.0 150410.0 143073.0 397890.0 389988.0 72112.0 76137.0 160415.0 160673.0 359230.0 355067.0 164820.0 162323.0 165612.0 159520.0 151411.0 145645.0 251443.0 250213.0 49167.0 56916.0 383144.0 389997.0 81486.0 86413.0 78777.0 85078.0 206302.0 212247.0 155725.0 148879.0 188512.0 195337.0 191645.0 183794.0 107939.0 235656.0 107939.0 107939.0 107939.0 107939.0 235656.0 235656.0 235656.0 235656.0
48812.0 42669.0 129005.0 129285.0 148742.0 148718.0 119189.0 122763.0 234303.0 236624.0 141138.0 133875.0 121746.0 126578.0 12599.0 8775.0 79218.0 71419.0 48172.0 55480.0 263636.0 263049.0 165784.0 173290.0 0.0 8440.0 189186.0 188701.0 139015.0 133257.0 10213.0 2030.0 91078.0 88043.0 53897.0 61095.0 34265.0 38246.0 64720.0 61697.0 193542.0 186305.0 199917.0 192891.0 63375.0 71199.0 94098.0 100401.0 39960.0 31900.0 193431.0 199960.0 39015.0 47220.0 17734.0 20341.0 85735.0 77588.0 56498.0 53345.0 194070.0 201187.0 54593.0 50755.0 69702.0 77641.0 134802.0 128504.0 154640.0 157255.0 81847.0 77441.0 136335.0 136256.0 145837.0 144703.0 76476.0 84464.0 50112.0 48867.0 47529.0 48182.0 138349.0 131388.0 166334.0 170064.0 107323.0 102992.0 33563.0 41211.0 153017.0 153143.0 1610.0 6723.0 64148.0 71828.0 173664.0 165974.0 29823.0 24423.0 107547.0 108885.0 86562.0 88433.0 105744.0 98001.0 125784.0 118530.0 148853.0 149178.0 150824.0 146771.0 106045.0 107720.0 27787.0 20068.0 116845.0 123076.0 70046.0 64206.0 35332.0 31293.0 132031.0 132444.0 98401.0 93245.0 63985.0 69039.0 259862.0 251636.0 108631.0 110070.0 60362.0 52521.0 227392.0 221205.0 30708.0 38573.0 43259.0 49083.0 23517.0 31168.0 124636.0 118722.0 130678.0 122762.0 257429.0 264143.0 115640.0 107658.0 108741.0 101010.0 86251.0 85421.0 33800.0 34169.0 22441.0 30868.0 20287.0 11714.0 135648.0 120401.0 135648.0 135648.0 135648.0 135648.0 120401.0 120401.0 120401.0 120401.0
55025.0 49564.0 127087.0 127898.0 154728.0 155019.0 125095.0 129011.0 227017.0 229471.0 149306.0 142095.0 127889.0 132988.0 16095.0 8418.0 85672.0 77741.0 55988.0 63084.0 256435.0 255985.0 173430.0 180983.0 8440.0 0.0 182305.0 181606.0 146594.0 140682.0 18087.0 10172.0 98351.0 94946.0 62300.0 69533.0 34505.0 36770.0 67050.0 64957.0 185802.0 178505.0 191976.0 184893.0 71640.0 79430.0 101248.0 107752.0 32086.0 24108.0 186362.0 193001.0 37433.0 45938.0 11529.0 12088.0 77527.0 69330.0 64086.0 60404.0 186149.0 193323.0 61692.0 57244.0 76773.0 84816.0 143141.0 136788.0 155093.0 158117.0 76547.0 71997.0 142568.0 142169.0 153464.0 152511.0 84008.0 91998.0 48132.0 45562.0 52355.0 54030.0 130535.0 123484.0 160182.0 163664.0 106292.0 102502.0 41999.0 49619.0 151565.0 152134.0 7250.0 15120.0 71829.0 79375.0 165658.0 157953.0 36119.0 31765.0 99596.0 100741.0 90724.0 93203.0 114114.0 106391.0 133815.0 126642.0 155308.0 155891.0 152252.0 147813.0 98892.0 100245.0 35967.0 28197.0 111381.0 117334.0 78182.0 72146.0 28258.0 25634.0 138261.0 139000.0 105230.0 100403.0 71145.0 76570.0 252097.0 243877.0 115380.0 116430.0 66797.0 59008.0 220021.0 213743.0 31289.0 39180.0 42980.0 49718.0 31935.0 39608.0 125027.0 118751.0 137740.0 129753.0 250549.0 257179.0 121415.0 113416.0 117139.0 109416.0 81746.0 80259.0 36415.0 38485.0 15225.0 23336.0 11854.0 3298.0 140215.0 115283.0 140215.0 140215.0 140215.0 140215.0 115283.0 115283.0 115283.0 115283.0
203042.0 205744.0 262412.0 268088.0 264068.0 268718.0 306668.0 311049.0 48507.0 48819.0 300467.0 295820.0 245084.0 252776.0 183856.0 181197.0 267938.0 259959.0 218176.0 220594.0 75824.0 74256.0 308186.0 315914.0 189186.0 182305.0 0.0 8428.0 283683.0 275729.0 194027.0 189907.0 280190.0 277192.0 237819.0 242629.0 169174.0 161265.0 240665.0 241732.0 39024.0 41575.0 52757.0 54678.0 236924.0 242549.0 283271.0 289423.0 151139.0 158616.0 8493.0 11165.0 160449.0 156985.0 171467.0 171032.0 114158.0 121920.0 221084.0 213185.0 49819.0 48298.0 214333.0 206338.0 223274.0 229817.0 316238.0 311415.0 306955.0 312958.0 111617.0 114942.0 257650.0 252792.0 290481.0 293672.0 265321.0 273265.0 152218.0 147664.0 191954.0 199816.0 62806.0 70579.0 32708.0 24935.0 254388.0 255475.0 217097.0 222296.0 286327.0 291243.0 188726.0 195255.0 227611.0 231112.0 54664.0 57164.0 195810.0 199340.0 90576.0 94548.0 268597.0 272710.0 276656.0 270781.0 283145.0 279170.0 271287.0 275825.0 311953.0 305120.0 83673.0 83884.0 207829.0 201843.0 80254.0 72322.0 239579.0 231519.0 154057.0 158191.0 254221.0 259652.0 287512.0 282415.0 253167.0 257923.0 84356.0 76973.0 244750.0 239838.0 249079.0 241308.0 43952.0 41243.0 171743.0 168958.0 163346.0 165796.0 207882.0 215605.0 280379.0 272427.0 266797.0 259317.0 68247.0 75015.0 235363.0 229629.0 280847.0 274385.0 112702.0 109203.0 178550.0 186440.0 167097.0 159071.0 172503.0 179403.0 238728.0 81174.0 238728.0 238728.0 238728.0 238728.0 81174.0 81174.0 81174.0 81174.0
204550.0 206921.0 258025.0 263864.0 266783.0 271433.0 305411.0 309977.0 46375.0 47969.0 302956.0 298130.0 247799.0 255492.0 183892.0 180886.0 267077.0 259060.0 219260.0 221965.0 75065.0 74383.0 310902.0 318630.0 188701.0 181606.0 8428.0 0.0 286361.0 278390.0 193933.0 189506.0 279779.0 276552.0 238219.0 243267.0 170021.0 162072.0 238605.0 239941.0 30639.0 33199.0 44441.0 46250.0 238058.0 243873.0 282782.0 289080.0 150093.0 157725.0 4870.0 12630.0 161273.0 158223.0 170967.0 170138.0 111444.0 119414.0 222489.0 214673.0 41402.0 40091.0 215848.0 207869.0 225240.0 231956.0 317229.0 312234.0 303013.0 309147.0 112771.0 115834.0 260365.0 255508.0 293131.0 296385.0 265054.0 273021.0 153454.0 148529.0 193557.0 201351.0 58446.0 66381.0 38419.0 30346.0 250676.0 251998.0 217363.0 222792.0 281700.0 286774.0 188173.0 194891.0 229174.0 232934.0 46836.0 49846.0 196591.0 199809.0 87564.0 90923.0 266778.0 271096.0 278294.0 272256.0 285618.0 281435.0 274003.0 278541.0 308438.0 301498.0 82715.0 82120.0 208203.0 202018.0 82861.0 74868.0 240976.0 232939.0 153428.0 157952.0 256937.0 262367.0 286823.0 281931.0 252662.0 257634.0 79828.0 72147.0 247433.0 242553.0 248258.0 240528.0 40655.0 36623.0 172458.0 170041.0 164550.0 167382.0 207987.0 215787.0 276810.0 268830.0 269513.0 262032.0 69542.0 75764.0 238079.0 232345.0 282434.0 275845.0 114626.0 110605.0 179545.0 187484.0 166450.0 158293.0 171499.0 178634.0 241444.0 84457.0 241444.0 241444.0 241444.0 241444.0 84457.0 84457.0 84457.0 84457.0
94212.0 97578.0 244705.0 241347.0 48726.0 41009.0 155967.0 151473.0 332141.0 332350.0 28947.0 32100.0 43775.0 36711.0 132246.0 139998.0 132926.0 133444.0 90935.0 83541.0 359125.0 357185.0 26955.0 34698.0 139015.0 146594.0 283683.0 286361.0 0.0 8072.0 128806.0 137004.0 120200.0 127132.0 98033.0 90004.0 130461.0 137310.0 167280.0 159457.0 302448.0 296901.0 312643.0 307258.0 79211.0 71636.0 123330.0 119919.0 169379.0 162689.0 290320.0 294806.0 137787.0 136379.0 148871.0 155912.0 212206.0 205715.0 82529.0 86681.0 306670.0 312146.0 85338.0 91250.0 70691.0 62504.0 84717.0 88184.0 248256.0 246555.0 177981.0 176533.0 40146.0 47712.0 7103.0 11212.0 114012.0 113825.0 140595.0 148026.0 102081.0 96424.0 252990.0 248251.0 254292.0 260148.0 220059.0 212901.0 109526.0 101754.0 262893.0 259560.0 140591.0 133602.0 74879.0 67220.0 289324.0 282428.0 111469.0 114830.0 227557.0 232095.0 163380.0 157670.0 52250.0 58162.0 23386.0 30795.0 37128.0 30433.0 235586.0 236108.0 215255.0 220820.0 111816.0 119190.0 203554.0 211547.0 71314.0 75412.0 161469.0 153176.0 40193.0 32154.0 130869.0 123007.0 121360.0 114634.0 365664.0 357688.0 38935.0 44455.0 130932.0 130243.0 326886.0 322844.0 130149.0 127769.0 131189.0 125283.0 117547.0 112145.0 223871.0 221955.0 19196.0 24953.0 350913.0 357766.0 52718.0 55813.0 53955.0 58332.0 173276.0 178929.0 121056.0 114183.0 153864.0 160650.0 157127.0 149358.0 83749.0 203425.0 83749.0 83749.0 83749.0 83749.0 203425.0 203425.0 203425.0 203425.0
87604.0 91381.0 241595.0 238471.0 43794.0 36630.0 156254.0 152123.0 324187.0 324396.0 34833.0 36536.0 36032.0 29230.0 126059.0 133890.0 131360.0 131397.0 85400.0 77817.0 351171.0 349231.0 33823.0 41680.0 133257.0 140682.0 275729.0 278390.0 8072.0 0.0 123045.0 131237.0 119576.0 126210.0 94329.0 86520.0 123475.0 130198.0 164075.0 156330.0 294623.0 289116.0 304884.0 299545.0 74848.0 67525.0 122865.0 119937.0 162718.0 156159.0 282366.0 286852.0 130654.0 129023.0 142547.0 149717.0 205140.0 198755.0 76789.0 80466.0 298916.0 304349.0 79141.0 84728.0 64276.0 56101.0 88136.0 90968.0 246648.0 245202.0 170272.0 168890.0 33806.0 41218.0 14764.0 19049.0 112427.0 112803.0 133184.0 140693.0 95094.0 89693.0 245380.0 240714.0 246337.0 252194.0 216970.0 209930.0 104608.0 96971.0 260309.0 257196.0 134846.0 128021.0 69305.0 61461.0 281670.0 274807.0 105231.0 108943.0 220181.0 224819.0 161523.0 156090.0 52150.0 57200.0 25370.0 31382.0 33135.0 27357.0 234412.0 234659.0 207626.0 213265.0 106360.0 113595.0 195601.0 203592.0 66850.0 70294.0 154752.0 146420.0 33313.0 25339.0 130548.0 122490.0 118938.0 112535.0 357732.0 349765.0 31015.0 36386.0 128253.0 127110.0 319044.0 314887.0 123282.0 120660.0 123932.0 117880.0 112264.0 107200.0 221688.0 219502.0 11738.0 16888.0 342959.0 349812.0 44794.0 47749.0 54467.0 57872.0 165447.0 171169.0 114186.0 107473.0 147473.0 154096.0 151012.0 143377.0 76242.0 195471.0 76242.0 76242.0 76242.0 76242.0 195471.0 195471.0 195471.0 195471.0
39187.0 32657.0 136224.0 136041.0 139038.0 138847.0 117041.0 119996.0 239840.0 241902.0 131225.0 124034.0 111975.0 116666.0 10523.0 13816.0 76413.0 68969.0 37997.0 45269.0 268983.0 268134.0 155583.0 163098.0 10213.0 18087.0 194027.0 193933.0 128806.0 123045.0 0.0 8199.0 86463.0 84254.0 45812.0 52486.0 31702.0 37469.0 68238.0 64138.0 200069.0 192979.0 206917.0 200041.0 53630.0 61386.0 89734.0 95544.0 47493.0 39482.0 198605.0 204923.0 38317.0 45729.0 24404.0 29103.0 93660.0 85696.0 46286.0 43232.0 201022.0 207992.0 44464.0 40935.0 59566.0 67472.0 126861.0 120836.0 159522.0 161691.0 84699.0 80552.0 126506.0 126604.0 135633.0 134540.0 71372.0 79282.0 49353.0 49794.0 39105.0 38838.0 145128.0 138393.0 169995.0 174119.0 113853.0 109046.0 24855.0 32055.0 159759.0 159479.0 11801.0 6326.0 53946.0 61615.0 180854.0 173211.0 20395.0 14296.0 114725.0 116559.0 87389.0 88354.0 96259.0 88609.0 115737.0 108555.0 138909.0 139127.0 154657.0 151049.0 111612.0 113882.0 17932.0 10156.0 119645.0 126259.0 60099.0 54093.0 41714.0 36044.0 122206.0 122463.0 94680.0 88870.0 59929.0 64018.0 266389.0 258155.0 98582.0 100196.0 57895.0 50143.0 233104.0 227106.0 28052.0 35255.0 40743.0 45225.0 14737.0 22732.0 129700.0 124183.0 120521.0 112626.0 262182.0 269042.0 106094.0 98135.0 99382.0 91703.0 87949.0 88037.0 28372.0 26692.0 29672.0 38080.0 29566.0 21150.0 126955.0 122677.0 126955.0 126955.0 126955.0 126955.0 122677.0 122677.0 122677.0 122677.0
46820.0 40643.0 130563.0 130758.0 146751.0 146707.0 118919.0 122371.0 235180.0 237445.0 139230.0 131986.0 119746.0 124563.0 11320.0 8890.0 78783.0 71043.0 46179.0 53467.0 264475.0 263831.0 163780.0 171291.0 2030.0 10172.0 189907.0 189506.0 137004.0 131237.0 8199.0 0.0 90293.0 87421.0 52373.0 59471.0 33315.0 37651.0 65520.0 62276.0 194630.0 187424.0 201111.0 194118.0 61503.0 69312.0 93366.0 99574.0 41196.0 33126.0 194224.0 200708.0 38440.0 46531.0 18615.0 21845.0 87115.0 79009.0 54484.0 51315.0 195252.0 202337.0 52563.0 48744.0 67671.0 75611.0 133349.0 127108.0 155765.0 158295.0 82098.0 77740.0 134329.0 134271.0 143831.0 142717.0 75579.0 83558.0 49572.0 48655.0 45687.0 46222.0 139483.0 132571.0 166800.0 170614.0 108746.0 104323.0 31880.0 39454.0 154491.0 154542.0 3638.0 5435.0 62143.0 69813.0 174897.0 167216.0 27840.0 22393.0 108762.0 110216.0 86858.0 88551.0 103942.0 96219.0 123837.0 116604.0 146835.0 147151.0 151746.0 147778.0 106897.0 108705.0 25871.0 18128.0 117113.0 123427.0 68124.0 62236.0 36269.0 31821.0 130025.0 130423.0 97802.0 92510.0 63278.0 68148.0 260956.0 252728.0 106605.0 108058.0 59962.0 52118.0 228305.0 222159.0 29715.0 37514.0 42364.0 47969.0 21783.0 29528.0 125786.0 119946.0 128648.0 120732.0 258141.0 264886.0 113667.0 105687.0 106968.0 99248.0 86268.0 85626.0 32365.0 32432.0 23523.0 31994.0 21950.0 13389.0 133796.0 120562.0 133796.0 133796.0 133796.0 133796.0 120562.0 120562.0 120562.0 120562.0
93687.0 86487.0 134643.0 129473.0 157097.0 152353.0 39388.0 38364.0 325340.0 327702.0 103074.0 95236.0 133862.0 133469.0 96878.0 98996.0 19246.0 25785.0 75387.0 78888.0 354707.0 354119.0 139774.0 144832.0 91078.0 98351.0 280190.0 279779.0 120200.0 119576.0 86463.0 90293.0 0.0 8186.0 48763.0 49248.0 115093.0 122270.0 65220.0 58067.0 283889.0 276479.0 289524.0 282231.0 63595.0 65170.0 4004.0 9542.0 130323.0 122432.0 284505.0 291001.0 123137.0 129134.0 108812.0 110140.0 174385.0 165978.0 79240.0 86106.0 283781.0 291122.0 85842.0 91665.0 90229.0 91586.0 61690.0 53581.0 129351.0 126990.0 171041.0 166971.0 143586.0 148153.0 124223.0 118414.0 15509.0 8763.0 133458.0 135472.0 103473.0 96506.0 228547.0 221301.0 256445.0 260573.0 110975.0 103143.0 65814.0 63407.0 148385.0 143808.0 91633.0 84936.0 78646.0 82993.0 263012.0 255267.0 90116.0 84125.0 197361.0 197734.0 47741.0 40478.0 67971.0 62378.0 97359.0 89463.0 150012.0 145926.0 115720.0 116820.0 197116.0 198595.0 75405.0 79796.0 205868.0 212626.0 68426.0 73206.0 126382.0 122014.0 140314.0 135545.0 11804.0 3281.0 27238.0 22548.0 350091.0 341888.0 115485.0 122461.0 33864.0 40703.0 318370.0 312088.0 111816.0 117064.0 123118.0 124477.0 73555.0 66582.0 107800.0 107642.0 125277.0 120900.0 348413.0 355177.0 134385.0 128915.0 66731.0 61882.0 173608.0 174277.0 107650.0 101081.0 113396.0 121676.0 109111.0 101433.0 165956.0 208560.0 165956.0 165956.0 165956.0 165956.0 208560.0 208560.0 208560.0 208560.0
94952.0 87367.0 126457.0 121302.0 162845.0 158349.0 36216.0 36891.0 321884.0 324407.0 110750.0 102856.0 139049.0 139010.0 94760.0 96244.0 11796.0 19244.0 76917.0 81132.0 351350.0 350932.0 147237.0 152426.0 88043.0 94946.0 277192.0 276552.0 127132.0 126210.0 84254.0 87421.0 8186.0 0.0 50121.0 51928.0 113891.0 120814.0 57626.0 50687.0 279865.0 272378.0 285181.0 277807.0 66826.0 69249.0 7946.0 15885.0 126669.0 118892.0 281308.0 287925.0 121681.0 128057.0 105736.0 106511.0 170017.0 161589.0 81578.0 87998.0 279483.0 286903.0 87857.0 93168.0 93482.0 95475.0 69797.0 61679.0 121770.0 119617.0 168947.0 164762.0 149247.0 153563.0 131349.0 125712.0 16737.0 13449.0 132248.0 133781.0 104246.0 97619.0 224520.0 217170.0 254109.0 258024.0 102797.0 94963.0 65214.0 63793.0 140314.0 135811.0 88468.0 82166.0 81741.0 86683.0 258616.0 250865.0 89740.0 83266.0 193247.0 193330.0 39572.0 32380.0 75023.0 69068.0 104496.0 96495.0 156135.0 152272.0 108494.0 109337.0 193838.0 195016.0 74669.0 78361.0 203898.0 210488.0 72326.0 76420.0 123156.0 119242.0 145862.0 141368.0 10427.0 7406.0 24330.0 22106.0 345957.0 337770.0 120694.0 127418.0 28771.0 36217.0 314810.0 308415.0 110506.0 116164.0 122191.0 124071.0 72131.0 65663.0 99785.0 99522.0 131493.0 126818.0 345439.0 352108.0 139106.0 133347.0 74027.0 68822.0 171989.0 172289.0 106953.0 100760.0 110120.0 118265.0 105318.0 97931.0 170149.0 206844.0 170149.0 170149.0 170149.0 170149.0 206844.0 206844.0 206844.0 206844.0
44964.0 37756.0 147533.0 144781.0 122891.0 120053.0 86313.0 86686.0 284386.0 286135.0 92752.0 84895.0 96776.0 98619.0 54903.0 59622.0 47905.0 43938.0 26800.0 31413.0 313257.0 312071.0 123054.0 129856.0 53897.0 62300.0 237819.0 238219.0 98033.0 94329.0 45812.0 52373.0 48763.0 50121.0 0.0 8408.0 69263.0 76958.0 70060.0 62503.0 245542.0 238543.0 252623.0 245798.0 20811.0 27039.0 52674.0 56222.0 93267.0 85226.0 242808.0 248841.0 77804.0 82729.0 70206.0 74212.0 139384.0 131340.0 31981.0 37933.0 246713.0 253616.0 37861.0 43069.0 45489.0 49436.0 81060.0 75050.0 157159.0 157015.0 126722.0 123054.0 109185.0 111993.0 104011.0 100826.0 33672.0 40166.0 87300.0 90544.0 54749.0 47748.0 190782.0 184132.0 212133.0 216865.0 122977.0 116149.0 21103.0 15697.0 167185.0 164684.0 55060.0 47184.0 33796.0 40424.0 226626.0 218995.0 42959.0 38494.0 160515.0 162355.0 72976.0 69720.0 54803.0 46765.0 79788.0 71678.0 118764.0 116638.0 147417.0 146155.0 156547.0 159254.0 30016.0 36566.0 160864.0 168028.0 28546.0 29200.0 87467.0 81305.0 105269.0 102572.0 59633.0 51850.0 30266.0 28282.0 311819.0 303584.0 79265.0 84435.0 36822.0 33652.0 277849.0 272051.0 66367.0 70455.0 76469.0 76820.0 31084.0 23081.0 130064.0 126961.0 95860.0 89332.0 305889.0 312721.0 94713.0 87966.0 57022.0 49231.0 127969.0 129610.0 60772.0 53569.0 75441.0 83878.0 74147.0 65593.0 123494.0 162894.0 123494.0 123494.0 123494.0 123494.0 162894.0 162894.0 162894.0 162894.0
45498.0 39350.0 155114.0 152164.0 116432.0 113257.0 88007.0 87602.0 289531.0 291110.0 84344.0 76492.0 90753.0 92142.0 60985.0 66276.0 51562.0 48706.0 27157.0 29691.0 318234.0 316877.0 114820.0 121571.0 61095.0 69533.0 242629.0 243267.0 90004.0 86520.0 52486.0 59471.0 49248.0 51928.0 8408.0 0.0 73539.0 81396.0 77587.0 69901.0 251367.0 244467.0 258730.0 252004.0 15231.0 19933.0 53247.0 55659.0 99951.0 91961.0 247810.0 253697.0 82222.0 86506.0 76850.0 81295.0 146131.0 138182.0 30008.0 37127.0 252798.0 259602.0 36756.0 43113.0 41647.0 44415.0 74711.0 69137.0 163306.0 162863.0 131192.0 127701.0 102691.0 105861.0 95887.0 92564.0 35192.0 40485.0 91177.0 95013.0 56077.0 48547.0 196845.0 190332.0 216321.0 221270.0 130510.0 123563.0 27654.0 20785.0 174353.0 171646.0 62337.0 54432.0 29859.0 35411.0 232876.0 225280.0 46904.0 43606.0 166853.0 168949.0 78511.0 74626.0 46460.0 38431.0 71450.0 63316.0 111801.0 109395.0 152977.0 152046.0 162077.0 165075.0 35644.0 42796.0 164901.0 172214.0 22077.0 24650.0 93833.0 87310.0 98873.0 95787.0 60697.0 52477.0 35072.0 31263.0 317570.0 309338.0 72906.0 78541.0 42934.0 40755.0 283116.0 277447.0 70887.0 74248.0 80159.0 79715.0 37806.0 29943.0 136715.0 133892.0 88511.0 82229.0 310631.0 317484.0 89330.0 82921.0 48782.0 40979.0 131844.0 133922.0 64528.0 56939.0 82145.0 90514.0 81382.0 72808.0 119091.0 166617.0 119091.0 119091.0 119091.0 119091.0 166617.0 166617.0 166617.0 166617.0
37253.0 37481.0 161564.0 162398.0 129127.0 130798.0 147839.0 150308.0 216361.0 217757.0 139581.0 133443.0 103548.0 109776.0 22194.0 26663.0 107008.0 99874.0 49436.0 53105.0 244871.0 243400.0 157259.0 165087.0 34265.0 34505.0 169174.0 170021.0 130461.0 123475.0 31702.0 33315.0 115093.0 113891.0 69263.0 73539.0 0.0 7968.0 98816.0 95330.0 179769.0 173238.0 188132.0 181875.0 68259.0 74541.0 118638.0 123695.0 40587.0 35653.0 174508.0 180267.0 8750.0 14235.0 27270.0 35138.0 81777.0 75280.0 53789.0 46694.0 182138.0 188527.0 48009.0 40542.0 60659.0 68619.0 147215.0 142253.0 188840.0 191515.0 57655.0 54240.0 118279.0 116494.0 137558.0 138306.0 99634.0 107245.0 18371.0 21511.0 28385.0 34536.0 126544.0 120781.0 142895.0 147745.0 140737.0 136775.0 49449.0 53576.0 186069.0 186590.0 35170.0 36494.0 61192.0 66624.0 163092.0 155744.0 26648.0 31099.0 98550.0 102338.0 119073.0 120026.0 109847.0 103214.0 122672.0 116850.0 131819.0 133725.0 185057.0 181036.0 90120.0 94137.0 39850.0 35552.0 91601.0 98783.0 71938.0 64112.0 32398.0 24030.0 114054.0 116376.0 124268.0 117772.0 89709.0 92587.0 245564.0 237356.0 94569.0 93486.0 88909.0 81300.0 210126.0 204689.0 3661.0 4795.0 9100.0 15218.0 41766.0 48517.0 158810.0 152773.0 118068.0 109874.0 237138.0 243990.0 95667.0 87842.0 113732.0 106723.0 58783.0 60409.0 9949.0 17871.0 29941.0 33449.0 37576.0 34698.0 110237.0 93760.0 110237.0 110237.0 110237.0 110237.0 93760.0 93760.0 93760.0 93760.0
44811.0 45397.0 162890.0 164117.0 134047.0 136090.0 154339.0 157033.0 208408.0 209826.0 147097.0 141055.0 108971.0 115436.0 27253.0 29863.0 113580.0 106287.0 57401.0 60973.0 236942.0 235500.0 164015.0 171862.0 38246.0 36770.0 161265.0 162072.0 137310.0 130198.0 37469.0 37651.0 122270.0 120814.0 76958.0 81396.0 7968.0 0.0 102910.0 99914.0 171840.0 165333.0 180267.0 174050.0 76225.0 82478.0 125759.0 130981.0 36044.0 32426.0 166567.0 172350.0 867.0 9169.0 27521.0 34695.0 74951.0 68777.0 61638.0 54423.0 174272.0 180629.0 55724.0 48132.0 67994.0 75854.0 155171.0 150182.0 191858.0 194823.0 49813.0 46323.0 123619.0 121462.0 144412.0 145377.0 106856.0 114539.0 11958.0 13619.0 35359.0 41974.0 118742.0 113063.0 135177.0 139944.0 142768.0 139184.0 56868.0 61296.0 187688.0 188543.0 38881.0 41544.0 68970.0 74218.0 155307.0 147988.0 34546.0 38598.0 91033.0 95033.0 124340.0 125665.0 117734.0 111141.0 130113.0 124421.0 137290.0 139494.0 188757.0 184467.0 82199.0 86309.0 47313.0 42500.0 83982.0 91078.0 79848.0 71993.0 28001.0 20170.0 119441.0 122131.0 131218.0 124892.0 96547.0 99731.0 237610.0 229402.0 100852.0 99331.0 95251.0 87548.0 202163.0 196721.0 10596.0 9541.0 8047.0 16094.0 48745.0 55794.0 161793.0 155512.0 124412.0 116227.0 229245.0 236097.0 100765.0 93063.0 121640.0 114656.0 51361.0 52652.0 17798.0 25772.0 28802.0 30279.0 37306.0 36245.0 113779.0 86341.0 113779.0 113779.0 113779.0 113779.0 86341.0 86341.0 86341.0 86341.0
100238.0 91771.0 77528.0 74762.0 192192.0 189791.0 71431.0 77992.0 281920.0 285391.0 157865.0 149754.0 165532.0 168045.0 76659.0 73072.0 45986.0 40146.0 88060.0 95582.0 311682.0 312281.0 191228.0 197558.0 64720.0 67050.0 240665.0 238605.0 167280.0 164075.0 68238.0 65520.0 65220.0 57626.0 70060.0 77587.0 98816.0 102910.0 0.0 7971.0 237032.0 229192.0 240429.0 232672.0 90572.0 97097.0 65542.0 73460.0 92030.0 85970.0 243469.0 250731.0 103660.0 111932.0 78242.0 74677.0 127569.0 119369.0 96505.0 98749.0 235054.0 242843.0 99417.0 100364.0 111784.0 117489.0 126212.0 118208.0 91924.0 93633.0 142036.0 137316.0 178590.0 180821.0 172890.0 168917.0 59863.0 64956.0 114685.0 112606.0 104535.0 101388.0 182610.0 174784.0 222307.0 224740.0 52931.0 46124.0 67177.0 72369.0 97463.0 95516.0 64030.0 62607.0 101226.0 108849.0 213889.0 206218.0 85210.0 77146.0 151612.0 149867.0 29028.0 35117.0 119321.0 111684.0 147366.0 139052.0 188658.0 186683.0 86422.0 82912.0 157629.0 156782.0 72108.0 69772.0 176092.0 181291.0 98495.0 97745.0 92043.0 91971.0 174554.0 172336.0 64274.0 65032.0 47826.0 55781.0 301820.0 293792.0 148656.0 153103.0 37521.0 37039.0 274305.0 267309.0 95195.0 102898.0 107881.0 113204.0 65852.0 65403.0 62672.0 58248.0 165920.0 159341.0 308141.0 314161.0 162266.0 154909.0 120032.0 112985.0 148205.0 145917.0 96609.0 94201.0 80395.0 86380.0 72422.0 68639.0 188170.0 180652.0 188170.0 188170.0 188170.0 188170.0 180652.0 180652.0 180652.0 180652.0
94310.0 85787.0 85273.0 82289.0 184951.0 182416.0 67510.0 73588.0 283734.0 287023.0 149896.0 141784.0 158400.0 160759.0 73144.0 70294.0 38931.0 32651.0 81409.0 88793.0 313479.0 313880.0 183316.0 189625.0 61697.0 64957.0 241732.0 239941.0 159457.0 156330.0 64138.0 62276.0 58067.0 50687.0 62503.0 69901.0 95330.0 99914.0 7971.0 0.0 239363.0 231584.0 243186.0 235502.0 83126.0 89516.0 58631.0 66570.0 91846.0 85332.0 244795.0 251948.0 100694.0 108801.0 76383.0 73582.0 129439.0 121132.0 89692.0 92301.0 237730.0 245451.0 92910.0 94257.0 104900.0 110398.0 118693.0 110723.0 97651.0 98877.0 140941.0 136275.0 171315.0 173686.0 165030.0 161009.0 52068.0 57375.0 111805.0 110262.0 99189.0 95628.0 184607.0 176859.0 222456.0 225163.0 60640.0 53669.0 60820.0 65586.0 104749.0 102528.0 61182.0 58856.0 94151.0 101677.0 216590.0 208885.0 80055.0 71978.0 153429.0 152087.0 26868.0 31551.0 111358.0 103730.0 139446.0 131131.0 181219.0 179138.0 91022.0 88050.0 158346.0 157902.0 66378.0 64686.0 175363.0 180827.0 91005.0 90515.0 91150.0 90353.0 167308.0 164947.0 57928.0 58077.0 39868.0 47847.0 304526.0 296454.0 141367.0 145976.0 29556.0 29228.0 276216.0 269331.0 91679.0 99221.0 104429.0 109347.0 60338.0 59203.0 68927.0 64998.0 158332.0 151832.0 309475.0 315627.0 155351.0 148079.0 112062.0 105019.0 146632.0 144759.0 92422.0 89480.0 79010.0 85541.0 71493.0 66869.0 181724.0 179673.0 181724.0 181724.0 181724.0 181724.0 179673.0 179673.0 179673.0 179673.0
216001.0 217237.0 247138.0 253594.0 283969.0 288619.0 306275.0 311489.0 47916.0 53519.0 316882.0 311494.0 264960.0 272629.0 190640.0 186468.0 269666.0 261577.0 229123.0 232763.0 76763.0 79236.0 327607.0 335395.0 193542.0 185802.0 39024.0 30639.0 302448.0 294623.0 200069.0 194630.0 283889.0 279865.0 245542.0 251367.0 179769.0 171840.0 237032.0 239363.0 0.0 8032.0 14001.0 16149.0 247903.0 254310.0 286592.0 293363.0 153717.0 161714.0 31804.0 37473.0 171111.0 169492.0 176068.0 173851.0 110220.0 118635.0 233397.0 225938.0 10953.0 10620.0 227193.0 219354.0 237982.0 245203.0 326026.0 320461.0 293615.0 300235.0 124996.0 127110.0 277514.0 272694.0 309380.0 311993.0 269791.0 277777.0 164814.0 158777.0 205457.0 212930.0 55350.0 62761.0 65726.0 57816.0 242582.0 244823.0 224445.0 230605.0 269657.0 275344.0 192779.0 200063.0 240544.0 245127.0 25501.0 32199.0 205704.0 207814.0 86635.0 87282.0 265845.0 270891.0 289527.0 282980.0 299583.0 294739.0 291188.0 295721.0 300701.0 293381.0 89653.0 86300.0 215770.0 208977.0 100688.0 92968.0 251682.0 243795.0 158455.0 164240.0 274116.0 279520.0 289883.0 285763.0 256657.0 262358.0 66330.0 58100.0 263627.0 259265.0 251158.0 243651.0 39621.0 31803.0 181722.0 180579.0 175587.0 179620.0 214621.0 222596.0 269071.0 261040.0 286229.0 278552.0 78747.0 82585.0 255254.0 249386.0 293468.0 286491.0 129176.0 123686.0 189632.0 197612.0 171118.0 162674.0 174790.0 182634.0 258629.0 104040.0 258629.0 258629.0 258629.0 258629.0 104040.0 104040.0 104040.0 104040.0
209674.0 210718.0 239151.0 245590.0 279059.0 283684.0 298565.0 303827.0 55842.0 61291.0 310876.0 305386.0 259908.0 267542.0 183646.0 179333.0 262118.0 254028.0 222512.0 226298.0 84784.0 87184.0 322238.0 330045.0 186305.0 178505.0 41575.0 33199.0 296901.0 289116.0 192979.0 187424.0 276479.0 272378.0 238543.0 244467.0 173238.0 165333.0 229192.0 231584.0 8032.0 0.0 16149.0 14001.0 241264.0 247756.0 279149.0 285965.0 146422.0 154441.0 35399.0 42028.0 164618.0 163244.0 168894.0 166522.0 102577.0 111003.0 226949.0 219562.0 10620.0 15330.0 220828.0 213027.0 231847.0 239151.0 319159.0 313518.0 285598.0 292212.0 119121.0 121045.0 272641.0 267744.0 303861.0 306333.0 262457.0 270439.0 158597.0 152390.0 199229.0 206630.0 47970.0 55209.0 65027.0 57412.0 234550.0 236794.0 217440.0 223691.0 261718.0 267381.0 185517.0 192855.0 234163.0 238882.0 17690.0 24186.0 199018.0 200962.0 79135.0 79539.0 258030.0 263121.0 283065.0 276441.0 293601.0 288636.0 286282.0 290784.0 292669.0 285350.0 83154.0 79422.0 208843.0 201979.0 96261.0 88710.0 245175.0 237323.0 151313.0 157244.0 269183.0 274450.0 282366.0 278324.0 249254.0 255028.0 73615.0 65409.0 258150.0 253953.0 243651.0 236173.0 47570.0 39792.0 175110.0 174174.0 169281.0 173516.0 207572.0 215558.0 261039.0 253008.0 280893.0 273157.0 86463.0 90459.0 250235.0 244233.0 286969.0 279936.0 123744.0 117987.0 183131.0 191100.0 163903.0 155444.0 167413.0 175321.0 253719.0 100037.0 253719.0 253719.0 253719.0 253719.0 100037.0 100037.0 100037.0 100037.0
224785.0 225596.0 246101.0 252833.0 295123.0 299761.0 310458.0 315937.0 52203.0 58849.0 326272.0 320687.0 275894.0 283514.0 197790.0 193191.0 274715.0 266629.0 237256.0 241234.0 78765.0 82508.0 338077.0 345893.0 199917.0 191976.0 52757.0 44441.0 312643.0 304884.0 206917.0 201111.0 289524.0 285181.0 252623.0 258730.0 188132.0 180267.0 240429.0 243186.0 14001.0 16149.0 0.0 8065.0 255954.0 262563.0 292091.0 299039.0 159960.0 168017.0 45194.0 50118.0 179570.0 178479.0 182681.0 179928.0 115168.0 123593.0 241905.0 234611.0 6004.0 5370.0 235889.0 228136.0 247148.0 254528.0 333441.0 327663.0 293124.0 299957.0 134732.0 136503.0 288684.0 283822.0 319619.0 322001.0 275735.0 283700.0 173868.0 167484.0 214454.0 221775.0 61891.0 68544.0 79602.0 71737.0 242937.0 245607.0 231527.0 237945.0 267939.0 273914.0 199066.0 206528.0 249197.0 254068.0 26625.0 34366.0 213669.0 215344.0 92381.0 91854.0 269391.0 274734.0 297975.0 291253.0 309022.0 303947.0 302341.0 306805.0 300987.0 293510.0 98267.0 94037.0 223087.0 216094.0 112405.0 104859.0 260046.0 252244.0 165203.0 171423.0 285208.0 290427.0 295058.0 291276.0 262346.0 268324.0 61399.0 53428.0 273941.0 269832.0 256414.0 249036.0 44034.0 36180.0 189892.0 189225.0 184448.0 188882.0 221579.0 229580.0 269474.0 261454.0 296755.0 288989.0 83884.0 86551.0 266234.0 260183.0 301830.0 294724.0 139615.0 133717.0 198055.0 206003.0 177603.0 169124.0 180687.0 188753.0 269783.0 116178.0 269783.0 269783.0 269783.0 269783.0 116178.0 116178.0 116178.0 116178.0
218687.0 219299.0 238045.0 244771.0 290535.0 295192.0 302824.0 308354.0 59589.0 66024.0 320418.0 314733.0 271026.0 278605.0 191029.0 186284.0 267278.0 259196.0 230852.0 234975.0 86631.0 90198.0 332856.0 340687.0 192891.0 184893.0 54678.0 46250.0 307258.0 299545.0 200041.0 194118.0 282231.0 277807.0 245798.0 252004.0 181875.0 174050.0 232672.0 235502.0 16149.0 14001.0 8065.0 0.0 249503.0 256193.0 284762.0 291754.0 152933.0 161000.0 47802.0 53622.0 173368.0 172533.0 175749.0 172827.0 107846.0 116256.0 235664.0 228451.0 5370.0 12310.0 229740.0 222033.0 241222.0 248678.0 326701.0 320848.0 285059.0 291892.0 129278.0 130851.0 283984.0 279260.0 314258.0 316497.0 268533.0 276490.0 167962.0 161417.0 208470.0 215709.0 55362.0 61675.0 79023.0 71411.0 234884.0 237572.0 224716.0 231223.0 259915.0 265874.0 192013.0 199525.0 243017.0 248023.0 19238.0 26969.0 207213.0 208712.0 85358.0 84499.0 261649.0 267044.0 291674.0 284876.0 303203.0 298009.0 297696.0 302030.0 292930.0 285449.0 92352.0 87741.0 216367.0 209306.0 108441.0 101088.0 253728.0 245968.0 158336.0 164704.0 280451.0 285530.0 287645.0 283950.0 255079.0 261133.0 69235.0 61327.0 268653.0 264711.0 249036.0 241693.0 51331.0 43397.0 183548.0 183098.0 178430.0 183062.0 214730.0 222735.0 261421.0 253402.0 291591.0 283771.0 91195.0 94124.0 261405.0 255227.0 295489.0 288329.0 134584.0 128441.0 191814.0 199739.0 170633.0 162152.0 173532.0 181657.0 265195.0 112592.0 265195.0 265195.0 265195.0 265195.0 112592.0 112592.0 112592.0 112592.0
35122.0 31185.0 167896.0 165334.0 102081.0 99308.0 102715.0 101917.0 284428.0 285644.0 77878.0 70521.0 76012.0 77811.0 60171.0 66754.0 66793.0 63820.0 18826.0 17468.0 312725.0 311017.0 105084.0 112221.0 63375.0 71640.0 236924.0 238058.0 79211.0 74848.0 53630.0 61503.0 63595.0 66826.0 20811.0 15231.0 68259.0 76225.0 90572.0 83126.0 247903.0 241264.0 255954.0 249503.0 0.0 7924.0 67596.0 69255.0 99717.0 92009.0 242490.0 248058.0 76990.0 79942.0 76975.0 82618.0 145588.0 137986.0 17385.0 25430.0 249977.0 256517.0 24671.0 32174.0 26677.0 29196.0 79391.0 75048.0 177900.0 177648.0 125339.0 122237.0 88378.0 91209.0 85546.0 83191.0 50134.0 54870.0 84707.0 89620.0 46338.0 38382.0 194150.0 188019.0 209472.0 214819.0 143411.0 136695.0 31013.0 23022.0 187867.0 185447.0 64825.0 57157.0 15059.0 20182.0 230539.0 223062.0 42290.0 41664.0 165022.0 167816.0 93419.0 89741.0 42906.0 35581.0 63111.0 55505.0 98096.0 96180.0 167906.0 166804.0 158262.0 161931.0 35697.0 43474.0 157982.0 165537.0 8031.0 9617.0 92819.0 85494.0 84458.0 81832.0 75234.0 66863.0 50138.0 46485.0 313798.0 305585.0 58454.0 63704.0 57481.0 54444.0 278292.0 272922.0 66183.0 68017.0 73578.0 71736.0 40189.0 33657.0 150875.0 147738.0 75556.0 68795.0 304759.0 311612.0 74242.0 67735.0 46342.0 38928.0 124851.0 127735.0 58556.0 50591.0 82310.0 90306.0 83191.0 74764.0 103862.0 159119.0 103862.0 103862.0 103862.0 103862.0 159119.0 159119.0 159119.0 159119.0
39729.0 37098.0 174570.0 171804.0 96527.0 93327.0 104549.0 103140.0 290248.0 291323.0 69988.0 62676.0 71054.0 72243.0 67630.0 74376.0 70476.0 68277.0 25384.0 21973.0 318372.0 316525.0 97331.0 104419.0 71199.0 79430.0 242549.0 243873.0 71636.0 67525.0 61386.0 69312.0 65170.0 69249.0 27039.0 19933.0 74541.0 82478.0 97097.0 89516.0 254310.0 247756.0 262563.0 256193.0 7924.0 0.0 69126.0 69891.0 107122.0 99483.0 248259.0 253699.0 83216.0 85651.0 84507.0 90299.0 152850.0 145328.0 21545.0 29626.0 256577.0 263034.0 28608.0 36540.0 26221.0 26432.0 74362.0 70618.0 183202.0 182680.0 131102.0 128157.0 82783.0 86080.0 77880.0 75370.0 52845.0 56622.0 90419.0 95708.0 50984.0 43001.0 200832.0 194812.0 214649.0 220162.0 150016.0 143176.0 38933.0 30938.0 194133.0 191512.0 72661.0 65026.0 16293.0 18113.0 237289.0 229849.0 49116.0 49095.0 171967.0 174924.0 98283.0 94134.0 35645.0 28690.0 55196.0 47582.0 91901.0 89627.0 172688.0 171880.0 164659.0 168526.0 43464.0 51240.0 163216.0 170860.0 3612.0 11317.0 100096.0 92627.0 78992.0 75855.0 76955.0 68450.0 54772.0 50174.0 320067.0 311864.0 53065.0 58961.0 62865.0 60513.0 284218.0 278959.0 72671.0 73961.0 79333.0 76900.0 48086.0 41577.0 156641.0 153763.0 68824.0 62373.0 310307.0 317159.0 70148.0 64141.0 39313.0 32182.0 130146.0 133359.0 64702.0 56715.0 89830.0 97740.0 90927.0 82533.0 100912.0 164086.0 100912.0 100912.0 100912.0 100912.0 164086.0 164086.0 164086.0 164086.0
97617.0 90374.0 133436.0 128083.0 160709.0 155888.0 35462.0 34362.0 328265.0 330684.0 105629.0 97858.0 137624.0 137147.0 100183.0 102114.0 19735.0 26995.0 79333.0 82880.0 357670.0 357141.0 142516.0 147448.0 94098.0 101248.0 283271.0 282782.0 123330.0 122865.0 89734.0 93366.0 4004.0 7946.0 52674.0 53247.0 118638.0 125759.0 65542.0 58631.0 286592.0 279149.0 292091.0 284762.0 67596.0 69126.0 0.0 7940.0 133145.0 125293.0 287519.0 294057.0 126627.0 132712.0 111830.0 112962.0 176928.0 168510.0 83235.0 90081.0 286368.0 293743.0 89824.0 95615.0 94227.0 95548.0 62453.0 54327.0 126862.0 124314.0 174381.0 170278.0 147227.0 151860.0 127231.0 121303.0 19238.0 12764.0 137008.0 138909.0 107353.0 100422.0 231242.0 223953.0 259729.0 263794.0 109998.0 102142.0 69451.0 67213.0 146606.0 141868.0 94609.0 88037.0 82648.0 86971.0 265554.0 257806.0 93817.0 87727.0 200016.0 200265.0 46449.0 38942.0 71080.0 65697.0 100378.0 92556.0 153502.0 149332.0 112937.0 114245.0 200091.0 201462.0 79024.0 83264.0 209248.0 215961.0 72395.0 77206.0 129357.0 125138.0 143987.0 139141.0 7946.0 867.0 30121.0 26053.0 352752.0 344555.0 119249.0 126273.0 35929.0 43077.0 321256.0 314931.0 115335.0 120676.0 126726.0 128188.0 77020.0 70153.0 105919.0 106032.0 128743.0 124472.0 351507.0 358239.0 138236.0 132811.0 69676.0 65070.0 177072.0 177646.0 111299.0 104798.0 116348.0 124584.0 111870.0 104297.0 169876.0 212006.0 169876.0 169876.0 169876.0 169876.0 212006.0 212006.0 212006.0 212006.0
100819.0 93938.0 140521.0 134995.0 158924.0 153780.0 36484.0 33588.0 334697.0 337016.0 100862.0 93258.0 136628.0 135705.0 105907.0 108232.0 27671.0 34826.0 82427.0 85314.0 364036.0 363401.0 138079.0 142727.0 100401.0 107752.0 289423.0 289080.0 119919.0 119937.0 95544.0 99574.0 9542.0 15885.0 56222.0 55659.0 123695.0 130981.0 73460.0 66570.0 293363.0 285965.0 299039.0 291754.0 69255.0 69891.0 7940.0 0.0 139756.0 131846.0 293797.0 300257.0 131847.0 137650.0 118128.0 119577.0 183908.0 175503.0 85580.0 92780.0 293292.0 300623.0 92414.0 98622.0 95608.0 96258.0 55272.0 47164.0 132245.0 129340.0 179984.0 175962.0 145596.0 150539.0 123472.0 117254.0 24197.0 16450.0 142035.0 144273.0 110923.0 103738.0 238025.0 230795.0 265450.0 269658.0 117296.0 109430.0 74279.0 71337.0 153058.0 148110.0 100986.0 94196.0 84276.0 87959.0 272533.0 264789.0 98348.0 92636.0 206855.0 207258.0 53625.0 45947.0 67826.0 63135.0 96724.0 89138.0 151223.0 146748.0 117761.0 119491.0 206445.0 207995.0 83888.0 88591.0 214740.0 221565.0 73310.0 78769.0 135724.0 131233.0 142513.0 137320.0 12001.0 8532.0 36711.0 31527.0 359579.0 351373.0 118301.0 125602.0 43350.0 50243.0 327752.0 321495.0 120477.0 125509.0 131566.0 132633.0 82368.0 75198.0 112287.0 112731.0 126416.0 122579.0 357631.0 364424.0 137800.0 132729.0 65984.0 62096.0 182341.0 183173.0 116008.0 109245.0 122757.0 131064.0 118576.0 110851.0 169977.0 217317.0 169977.0 169977.0 169977.0 169977.0 217317.0 217317.0 217317.0 217317.0
75167.0 72572.0 137575.0 140201.0 169678.0 171383.0 155548.0 159928.0 195225.0 197840.0 175753.0 169006.0 144121.0 150280.0 39556.0 33681.0 117001.0 108973.0 82116.0 87952.0 224730.0 224461.0 196315.0 204077.0 39960.0 32086.0 151139.0 150093.0 169379.0 162718.0 47493.0 41196.0 130323.0 126669.0 93267.0 99951.0 40587.0 36044.0 92030.0 91846.0 153717.0 146422.0 159960.0 152933.0 99717.0 107122.0 133145.0 139756.0 0.0 8071.0 154884.0 161688.0 36012.0 42326.0 23100.0 20184.0 46183.0 38332.0 88839.0 83200.0 154117.0 161259.0 84563.0 78158.0 98744.0 106914.0 174327.0 168210.0 172627.0 176813.0 51276.0 46483.0 158861.0 157053.0 176433.0 176537.0 116082.0 124070.0 41135.0 33952.0 68162.0 73028.0 98453.0 91438.0 130631.0 133515.0 120565.0 118627.0 72345.0 79359.0 163005.0 165074.0 39115.0 46594.0 96695.0 103351.0 133708.0 126023.0 58884.0 58055.0 67587.0 69093.0 118579.0 122098.0 142622.0 135213.0 159428.0 152877.0 172375.0 174158.0 172654.0 167202.0 67479.0 68347.0 64704.0 57220.0 84281.0 89278.0 105279.0 98275.0 8190.0 16588.0 154631.0 156830.0 136866.0 132305.0 103090.0 108646.0 220012.0 211791.0 134627.0 133918.0 98213.0 90525.0 188143.0 181786.0 39914.0 44550.0 44011.0 52002.0 62226.0 70206.0 143031.0 135862.0 157985.0 149802.0 219305.0 225799.0 136244.0 128428.0 146000.0 138448.0 59143.0 55279.0 48887.0 55247.0 17827.0 9456.0 21407.0 28923.0 149818.0 89199.0 149818.0 149818.0 149818.0 149818.0 89199.0 89199.0 89199.0 89199.0
68559.0 65477.0 135301.0 137489.0 164581.0 165989.0 148208.0 152445.0 202998.0 205533.0 168402.0 161570.0 138676.0 144636.0 31853.0 25686.0 109362.0 101361.0 74625.0 80675.0 232460.0 232106.0 189642.0 197372.0 31900.0 24108.0 158616.0 157725.0 162689.0 156159.0 39482.0 33126.0 122432.0 118892.0 85226.0 91961.0 35653.0 32426.0 85970.0 85332.0 161714.0 154441.0 168017.0 161000.0 92009.0 99483.0 125293.0 131846.0 8071.0 0.0 162500.0 169231.0 32578.0 39909.0 15140.0 12419.0 54178.0 46240.0 81584.0 76223.0 162170.0 169297.0 77582.0 71450.0 91999.0 100185.0 166285.0 160150.0 168717.0 172619.0 56234.0 51474.0 153449.0 151934.0 169719.0 169623.0 108115.0 116105.0 39623.0 33458.0 62227.0 66592.0 106475.0 99489.0 137464.0 140576.0 117262.0 114858.0 64336.0 71414.0 160598.0 162298.0 31077.0 38526.0 89457.0 96284.0 141776.0 134092.0 51668.0 50388.0 75649.0 77147.0 111913.0 115166.0 134909.0 127448.0 152206.0 145539.0 166835.0 168373.0 168017.0 162809.0 75032.0 76170.0 56821.0 49280.0 90135.0 95495.0 97723.0 90846.0 6601.0 12284.0 149191.0 151094.0 129125.0 124451.0 95211.0 100677.0 228019.0 219797.0 128540.0 128179.0 90534.0 82807.0 195964.0 189656.0 34401.0 40002.0 40463.0 48504.0 54206.0 62176.0 138912.0 131936.0 151765.0 143602.0 226827.0 233380.0 131063.0 123175.0 138238.0 130655.0 63223.0 60173.0 43079.0 48880.0 9818.0 2204.0 14012.0 20999.0 145762.0 94711.0 145762.0 145762.0 145762.0 145762.0 94711.0 94711.0 94711.0 94711.0
208883.0 211338.0 262741.0 268605.0 270705.0 275355.0 310231.0 314781.0 42039.0 43330.0 307008.0 302240.0 251721.0 259413.0 188541.0 185589.0 271858.0 263845.0 223701.0 226336.0 70449.0 69625.0 314823.0 322552.0 193431.0 186362.0 8493.0 4870.0 290320.0 282366.0 198605.0 194224.0 284505.0 281308.0 242808.0 247810.0 174508.0 166567.0 243469.0 244795.0 31804.0 35399.0 45194.0 47802.0 242490.0 248259.0 287519.0 293797.0 154884.0 162500.0 0.0 7987.0 165763.0 162615.0 175696.0 174915.0 116313.0 124283.0 226851.0 219013.0 42740.0 40514.0 220181.0 212196.0 229448.0 236112.0 321701.0 316743.0 307791.0 313941.0 117168.0 120294.0 264287.0 259430.0 297118.0 300260.0 269759.0 277722.0 157846.0 153007.0 197863.0 205676.0 63223.0 71170.0 40827.0 32890.0 255483.0 256827.0 221975.0 227361.0 286371.0 291473.0 192911.0 199604.0 233495.0 237185.0 50080.0 53568.0 201097.0 204381.0 92430.0 95757.0 271633.0 275941.0 282600.0 276606.0 289674.0 285558.0 277924.0 282462.0 313261.0 306312.0 87478.0 86958.0 212794.0 206645.0 86809.0 78827.0 245343.0 237299.0 158171.0 162641.0 260858.0 266289.0 291585.0 286668.0 257399.0 262342.0 76524.0 68999.0 251387.0 246475.0 253034.0 245298.0 36701.0 33285.0 176975.0 174474.0 168953.0 171687.0 212627.0 220415.0 281630.0 273648.0 273434.0 265954.0 64683.0 70942.0 242000.0 236266.0 286755.0 280199.0 118816.0 114938.0 184000.0 191929.0 171197.0 163055.0 176289.0 183398.0 245365.0 88159.0 245365.0 245365.0 245365.0 245365.0 88159.0 88159.0 88159.0 88159.0
214200.0 216880.0 270654.0 276493.0 275191.0 279840.0 317154.0 321616.0 37500.0 37654.0 311585.0 306957.0 256207.0 263899.0 194785.0 192025.0 278587.0 270592.0 229304.0 231746.0 64675.0 63242.0 319309.0 327037.0 199960.0 193001.0 11165.0 12630.0 294806.0 286852.0 204923.0 200708.0 291001.0 287925.0 248841.0 253697.0 180267.0 172350.0 250731.0 251948.0 37473.0 42028.0 50118.0 53622.0 248058.0 253699.0 294057.0 300257.0 161688.0 169231.0 7987.0 0.0 171537.0 168122.0 182231.0 181650.0 123779.0 131682.0 232238.0 224343.0 48387.0 45112.0 225493.0 217498.0 234435.0 240970.0 327360.0 322515.0 315630.0 321753.0 122737.0 126028.0 268773.0 263915.0 301604.0 304794.0 276176.0 284127.0 163354.0 158755.0 203116.0 210976.0 71069.0 78996.0 42998.0 35545.0 263268.0 264555.0 228088.0 233336.0 294316.0 299400.0 199476.0 206069.0 238772.0 242277.0 57474.0 61277.0 206896.0 210372.0 99974.0 103476.0 278801.0 283022.0 287819.0 281940.0 294266.0 290313.0 282410.0 286948.0 321004.0 314080.0 94213.0 94047.0 218842.0 212810.0 91394.0 83470.0 250733.0 242674.0 164770.0 169035.0 265344.0 270775.0 298228.0 293203.0 263944.0 268770.0 74284.0 67162.0 255872.0 250960.0 259741.0 251984.0 33444.0 31726.0 182815.0 180081.0 174481.0 176956.0 218833.0 226576.0 289383.0 281407.0 277920.0 270440.0 57626.0 64184.0 246486.0 240752.0 292010.0 285543.0 123867.0 120347.0 189663.0 197560.0 177808.0 169730.0 183077.0 190072.0 249851.0 92214.0 249851.0 249851.0 249851.0 249851.0 92214.0 92214.0 92214.0 92214.0
45442.0 46128.0 163424.0 164685.0 134238.0 136331.0 155199.0 157898.0 207612.0 209018.0 147703.0 141684.0 109235.0 115732.0 28084.0 30600.0 114442.0 107146.0 58164.0 61681.0 236133.0 234682.0 164474.0 172323.0 39015.0 37433.0 160449.0 161273.0 137787.0 130654.0 38317.0 38440.0 123137.0 121681.0 77804.0 82222.0 8750.0 867.0 103660.0 100694.0 171111.0 164618.0 179570.0 173368.0 76990.0 83216.0 126627.0 131847.0 36012.0 32578.0 165763.0 171537.0 0.0 8532.0 28053.0 35141.0 74515.0 68403.0 62341.0 55091.0 173573.0 179916.0 56387.0 48769.0 68571.0 76410.0 155965.0 150990.0 192526.0 195512.0 48980.0 45509.0 123869.0 121662.0 144889.0 145893.0 107723.0 115404.0 11145.0 12792.0 35893.0 42583.0 118069.0 112418.0 134329.0 139106.0 143363.0 139810.0 57729.0 62139.0 188245.0 189128.0 39635.0 42363.0 69649.0 74848.0 154640.0 147330.0 35361.0 39454.0 90444.0 94495.0 125153.0 126496.0 118447.0 111873.0 130703.0 125041.0 137556.0 139802.0 189474.0 185166.0 81477.0 85629.0 48172.0 43368.0 83126.0 90228.0 80572.0 72705.0 28015.0 20301.0 119698.0 122440.0 132086.0 125759.0 97414.0 100598.0 236861.0 228655.0 101243.0 99657.0 96108.0 88403.0 201376.0 195946.0 11448.0 10039.0 8000.0 16024.0 49612.0 56658.0 162460.0 156162.0 124807.0 116625.0 228424.0 235277.0 100987.0 93304.0 122362.0 115392.0 50495.0 51806.0 18521.0 26503.0 29199.0 30445.0 37761.0 36857.0 113808.0 85477.0 113808.0 113808.0 113808.0 113808.0 85477.0 85477.0 85477.0 85477.0
46570.0 48759.0 171894.0 173195.0 129940.0 132478.0 162074.0 164519.0 204597.0 205721.0 147903.0 142214.0 105663.0 112449.0 35819.0 38949.0 121241.0 114106.0 61226.0 63761.0 232794.0 231082.0 162812.0 170680.0 47220.0 45938.0 156985.0 158223.0 136379.0 129023.0 45729.0 46531.0 129134.0 128057.0 82729.0 86506.0 14235.0 9169.0 111932.0 108801.0 169492.0 163244.0 178479.0 172533.0 79942.0 85651.0 132712.0 137650.0 42326.0 39909.0 162615.0 168122.0 8532.0 0.0 36540.0 43476.0 77143.0 71705.0 64308.0 56608.0 172475.0 178573.0 57827.0 49919.0 68689.0 76194.0 159295.0 154648.0 201025.0 203976.0 45452.0 42604.0 120124.0 117466.0 143471.0 144934.0 113652.0 121203.0 4770.0 11698.0 35985.0 43459.0 117489.0 112272.0 129874.0 135002.0 151892.0 148341.0 63372.0 67041.0 196744.0 197650.0 47914.0 50183.0 71193.0 75643.0 154059.0 146906.0 39783.0 45020.0 91179.0 95848.0 132960.0 134081.0 120317.0 114090.0 130725.0 125481.0 133932.0 136580.0 197868.0 193609.0 80218.0 85052.0 53763.0 49757.0 78411.0 85801.0 82776.0 74760.0 34707.0 27703.0 116031.0 119261.0 138421.0 131847.0 103907.0 106660.0 234821.0 226645.0 98972.0 96722.0 103135.0 95512.0 198585.0 193399.0 17782.0 12281.0 6380.0 11266.0 55956.0 62560.0 170960.0 164680.0 122522.0 114388.0 224819.0 231672.0 97047.0 89567.0 124375.0 117665.0 45338.0 47794.0 21998.0 29636.0 37434.0 37861.0 46114.0 45389.0 108260.0 80183.0 108260.0 108260.0 108260.0 108260.0 80183.0 80183.0 80183.0 80183.0
55231.0 51326.0 135372.0 136664.0 153315.0 154218.0 136421.0 140203.0 216588.0 218892.0 153699.0 146774.0 126914.0 132514.0 16967.0 10588.0 96746.0 88877.0 59845.0 66171.0 245908.0 245315.0 175819.0 183496.0 17734.0 11529.0 171467.0 170967.0 148871.0 142547.0 24404.0 18615.0 108812.0 105736.0 70206.0 76850.0 27270.0 27521.0 78242.0 76383.0 176068.0 168894.0 182681.0 175749.0 76975.0 84507.0 111830.0 118128.0 23100.0 15140.0 175696.0 182231.0 28053.0 36540.0 0.0 8048.0 69282.0 61377.0 67109.0 62198.0 176805.0 183843.0 63545.0 57915.0 78271.0 86450.0 151262.0 145201.0 165186.0 168457.0 65026.0 60489.0 141688.0 140676.0 155856.0 155480.0 94173.0 102156.0 38087.0 34649.0 50272.0 53601.0 120976.0 114138.0 148891.0 152493.0 115443.0 112086.0 49250.0 56277.0 160204.0 161155.0 17275.0 24044.0 74984.0 82040.0 156546.0 148887.0 37427.0 35448.0 90401.0 92155.0 102242.0 104725.0 119857.0 112361.0 137667.0 130863.0 154821.0 155953.0 162909.0 158270.0 88318.0 90093.0 41687.0 34141.0 99886.0 105896.0 82834.0 76114.0 17655.0 14108.0 137396.0 138799.0 116077.0 110977.0 81714.0 86739.0 242397.0 234167.0 115739.0 115961.0 77868.0 70043.0 209698.0 203544.0 24762.0 32059.0 34674.0 42148.0 39141.0 47132.0 135138.0 128642.0 138686.0 130572.0 239712.0 246415.0 119791.0 111819.0 123151.0 115552.0 70263.0 68731.0 32049.0 36377.0 5344.0 13675.0 10339.0 9609.0 136518.0 103757.0 136518.0 136518.0 136518.0 136518.0 103757.0 103757.0 103757.0 103757.0
62710.0 58349.0 128581.0 130149.0 161216.0 162030.0 135839.0 140037.0 215373.0 217936.0 159901.0 152836.0 134741.0 140258.0 23667.0 16056.0 96945.0 88942.0 66132.0 72795.0 244852.0 244518.0 182837.0 190475.0 20341.0 12088.0 171032.0 170138.0 155912.0 149717.0 29103.0 21845.0 110140.0 106511.0 74212.0 81295.0 35138.0 34695.0 74677.0 73582.0 173851.0 166522.0 179928.0 172827.0 82618.0 90299.0 112962.0 119577.0 20184.0 12419.0 174915.0 181650.0 35141.0 43476.0 8048.0 0.0 65444.0 57263.0 73761.0 69261.0 174110.0 181308.0 70594.0 65288.0 85472.0 93627.0 155144.0 148833.0 159694.0 163235.0 67409.0 62718.0 149507.0 148584.0 162863.0 162280.0 95941.0 103926.0 44517.0 40089.0 58165.0 61219.0 118553.0 111459.0 149675.0 152887.0 109230.0 106218.0 53668.0 61104.0 153580.0 154772.0 19296.0 27064.0 81609.0 88866.0 153591.0 145883.0 44487.0 41624.0 87555.0 88653.0 99981.0 103028.0 125341.0 117709.0 144100.0 137128.0 162578.0 163602.0 158108.0 153204.0 87450.0 88513.0 46969.0 39224.0 101796.0 107389.0 88832.0 82408.0 17613.0 17909.0 145211.0 146494.0 116729.0 112122.0 82906.0 88509.0 240126.0 231910.0 123297.0 123693.0 78121.0 70402.0 208313.0 201969.0 32751.0 39907.0 42167.0 49818.0 43530.0 51355.0 129713.0 123010.0 146116.0 138029.0 239245.0 245799.0 127706.0 119727.0 128484.0 120805.0 73616.0 71265.0 40087.0 44216.0 6256.0 12123.0 2658.0 8830.0 144566.0 106109.0 144566.0 144566.0 144566.0 144566.0 106109.0 106109.0 106109.0 106109.0
118696.0 117302.0 152154.0 156957.0 206650.0 209489.0 196092.0 201270.0 154361.0 157845.0 220627.0 214131.0 182787.0 189591.0 85579.0 79856.0 159614.0 151524.0 127620.0 132962.0 184121.0 184743.0 238953.0 246794.0 85735.0 77527.0 114158.0 111444.0 212206.0 205140.0 93660.0 87115.0 174385.0 170017.0 139384.0 146131.0 81777.0 74951.0 127569.0 129439.0 110220.0 102577.0 115168.0 107846.0 145588.0 152850.0 176928.0 183908.0 46183.0 54178.0 116313.0 123779.0 74515.0 77143.0 69282.0 65444.0 0.0 8434.0 133792.0 127536.0 109467.0 116923.0 128891.0 121888.0 142294.0 150328.0 220431.0 214223.0 194461.0 200049.0 51883.0 49188.0 197191.0 194292.0 219306.0 220068.0 160747.0 168690.0 73643.0 65567.0 110133.0 116164.0 55180.0 47500.0 100857.0 101394.0 141428.0 141932.0 118514.0 125536.0 177115.0 181092.0 84738.0 92442.0 141558.0 147733.0 88629.0 80883.0 104023.0 103961.0 24044.0 23354.0 156111.0 160895.0 188454.0 181151.0 203975.0 197771.0 211028.0 213721.0 198361.0 191760.0 36140.0 31902.0 110848.0 103398.0 68158.0 69096.0 150839.0 143580.0 52769.0 60333.0 193126.0 196396.0 179921.0 176114.0 147238.0 153362.0 176031.0 167868.0 175701.0 173797.0 141254.0 133868.0 146791.0 139894.0 82350.0 84484.0 81548.0 88388.0 108383.0 116349.0 166961.0 159095.0 199274.0 191100.0 180856.0 186716.0 174069.0 166669.0 191926.0 184432.0 62399.0 54637.0 91370.0 98700.0 63989.0 55630.0 65938.0 74249.0 183483.0 75084.0 183483.0 183483.0 183483.0 183483.0 75084.0 75084.0 75084.0 75084.0
111874.0 110134.0 146171.0 150713.0 201594.0 204179.0 187703.0 192857.0 162617.0 166022.0 213490.0 206895.0 177298.0 183966.0 77865.0 71921.0 151180.0 143090.0 120188.0 125722.0 192371.0 192912.0 232535.0 240359.0 77588.0 69330.0 121920.0 119414.0 205715.0 198755.0 85696.0 79009.0 165978.0 161589.0 131340.0 138182.0 75280.0 68777.0 119369.0 121132.0 118635.0 111003.0 123593.0 116256.0 137986.0 145328.0 168510.0 175503.0 38332.0 46240.0 124283.0 131682.0 68403.0 71705.0 61377.0 57263.0 8434.0 0.0 126573.0 120506.0 117897.0 125357.0 121865.0 115020.0 135516.0 143600.0 212357.0 206091.0 187719.0 193154.0 51416.0 48097.0 191808.0 189150.0 212808.0 213377.0 152379.0 160317.0 68513.0 60343.0 103663.0 109437.0 63539.0 55899.0 107468.0 108390.0 134606.0 134839.0 110540.0 117654.0 171309.0 175045.0 76558.0 84305.0 134378.0 140717.0 97044.0 89297.0 96700.0 96325.0 32296.0 31757.0 147839.0 152563.0 180883.0 173514.0 196948.0 190617.0 205594.0 208075.0 191182.0 184693.0 41956.0 38783.0 103032.0 95518.0 71795.0 73559.0 143395.0 136240.0 45272.0 53101.0 187697.0 190723.0 171488.0 167697.0 138841.0 145000.0 184465.0 176301.0 169627.0 168007.0 132825.0 125447.0 155084.0 148226.0 75611.0 78254.0 75717.0 82859.0 100396.0 108340.0 159896.0 152081.0 193181.0 184994.0 188892.0 194823.0 168749.0 161237.0 184298.0 176763.0 61999.0 54598.0 84686.0 91831.0 56056.0 47786.0 57677.0 66043.0 179018.0 78498.0 179018.0 179018.0 179018.0 179018.0 78498.0 78498.0 78498.0 78498.0
18189.0 16529.0 172426.0 170647.0 96681.0 95269.0 117772.0 117577.0 268858.0 269873.0 86939.0 80340.0 69625.0 73056.0 50209.0 57733.0 79887.0 75685.0 9017.0 1044.0 296908.0 295089.0 109345.0 116901.0 56498.0 64086.0 221084.0 222489.0 82529.0 76789.0 46286.0 54484.0 79240.0 81578.0 31981.0 30008.0 53789.0 61638.0 96505.0 89692.0 233397.0 226949.0 241905.0 235664.0 17385.0 21545.0 83235.0 85580.0 88839.0 81584.0 226851.0 232238.0 62341.0 64308.0 67109.0 73761.0 133792.0 126573.0 0.0 8151.0 235910.0 242252.0 7295.0 15040.0 15349.0 22107.0 95864.0 91922.0 186654.0 187061.0 109733.0 106888.0 83398.0 84849.0 89381.0 88535.0 64882.0 70479.0 69069.0 74634.0 29453.0 21464.0 180330.0 174509.0 193105.0 198632.0 148379.0 142185.0 30147.0 24136.0 193769.0 192019.0 58081.0 51250.0 7877.0 15333.0 216869.0 209501.0 29955.0 32337.0 152004.0 155351.0 103899.0 101229.0 56131.0 49782.0 70622.0 64061.0 94786.0 94188.0 177939.0 176167.0 143797.0 147926.0 29792.0 36829.0 141677.0 149331.0 18495.0 10452.0 81368.0 73490.0 79203.0 78204.0 90617.0 82458.0 62114.0 60115.0 298991.0 290800.0 54043.0 57263.0 67628.0 62938.0 262887.0 257701.0 52246.0 52832.0 58035.0 55370.0 36035.0 32445.0 158540.0 154658.0 74800.0 67123.0 288817.0 295670.0 65791.0 58407.0 60113.0 53360.0 108618.0 111922.0 43853.0 35930.0 72288.0 79678.0 74821.0 66896.0 92538.0 142547.0 92538.0 92538.0 92538.0 92538.0 142547.0 142547.0 142547.0 142547.0
10149.0 10915.0 173565.0 172164.0 96734.0 96016.0 124210.0 124338.0 261033.0 261987.0 93126.0 86818.0 69559.0 73765.0 45596.0 53431.0 85549.0 80836.0 11518.0 7961.0 289005.0 287158.0 113624.0 121299.0 53345.0 60404.0 213185.0 214673.0 86681.0 80466.0 43232.0 51315.0 86106.0 87998.0 37933.0 37127.0 46694.0 54423.0 98749.0 92301.0 225938.0 219562.0 234611.0 228451.0 25430.0 29626.0 90081.0 92780.0 83200.0 76223.0 219013.0 224343.0 55091.0 56608.0 62198.0 69261.0 127536.0 120506.0 8151.0 0.0 228611.0 234877.0 1363.0 6914.0 16374.0 24429.0 103979.0 100071.0 189773.0 190501.0 101960.0 99212.0 83827.0 84547.0 93659.0 93401.0 71412.0 77369.0 61353.0 67174.0 21366.0 13402.0 173160.0 167466.0 185067.0 190639.0 149819.0 143900.0 31576.0 27254.0 195498.0 194072.0 54952.0 48763.0 14606.0 20211.0 209730.0 202409.0 24789.0 28938.0 145189.0 148761.0 108180.0 105997.0 63709.0 57599.0 76449.0 70307.0 95891.0 95921.0 181704.0 179609.0 136413.0 140716.0 28652.0 34663.0 133664.0 141343.0 26468.0 18392.0 75511.0 67434.0 79555.0 79378.0 97305.0 89286.0 67486.0 66212.0 291409.0 283227.0 55393.0 57467.0 72134.0 66817.0 255115.0 249988.0 45442.0 45391.0 50398.0 47405.0 35272.0 33472.0 161219.0 156996.0 77362.0 69421.0 280886.0 287739.0 64669.0 56945.0 67785.0 61200.0 100639.0 104075.0 36752.0 28996.0 67227.0 74235.0 70548.0 63001.0 89435.0 134468.0 89435.0 89435.0 89435.0 89435.0 134468.0 134468.0 134468.0 134468.0
218783.0 219604.0 241850.0 248500.0 289269.0 293916.0 304948.0 310381.0 54816.0 61101.0 320269.0 314683.0 269992.0 277605.0 191867.0 187306.0 269056.0 260968.0 231274.0 235239.0 82346.0 85659.0 332124.0 339942.0 194070.0 186149.0 49819.0 41402.0 306670.0 298916.0 201022.0 195252.0 283781.0 279483.0 246713.0 252798.0 182138.0 174272.0 235054.0 237730.0 10953.0 10620.0 6004.0 5370.0 249977.0 256577.0 286368.0 293292.0 154117.0 162170.0 42740.0 48387.0 173573.0 172475.0 176805.0 174110.0 109467.0 117897.0 235910.0 228611.0 0.0 8055.0 229889.0 222134.0 241144.0 248524.0 327508.0 321748.0 288722.0 295495.0 128746.0 130505.0 282812.0 277978.0 313649.0 316017.0 269950.0 277918.0 167864.0 161482.0 208450.0 215772.0 55953.0 62682.0 75191.0 67449.0 238281.0 240837.0 225615.0 232012.0 263910.0 269794.0 193228.0 200672.0 243198.0 248064.0 21170.0 28846.0 207694.0 209396.0 86555.0 86183.0 263993.0 269281.0 291983.0 285267.0 303020.0 297943.0 296481.0 300920.0 296366.0 288931.0 92263.0 88054.0 217154.0 210177.0 106678.0 99180.0 254056.0 246250.0 159310.0 165494.0 279326.0 284520.0 289382.0 285550.0 256592.0 262536.0 66796.0 58739.0 267978.0 263890.0 250721.0 243323.0 46516.0 38558.0 183906.0 183224.0 178444.0 182879.0 215676.0 223676.0 264813.0 256788.0 290808.0 283035.0 86327.0 89458.0 260338.0 254265.0 295842.0 288740.0 133677.0 127748.0 192060.0 200009.0 171739.0 163261.0 174891.0 182932.0 263929.0 110557.0 263929.0 263929.0 263929.0 263929.0 110557.0 110557.0 110557.0 110557.0
224995.0 226007.0 249890.0 256548.0 294041.0 298691.0 312612.0 317995.0 47301.0 53812.0 326201.0 320715.0 274971.0 282621.0 198732.0 194313.0 276537.0 268448.0 237776.0 241598.0 74423.0 77899.0 337429.0 345230.0 201187.0 193323.0 48298.0 40091.0 312146.0 304349.0 207992.0 202337.0 291122.0 286903.0 253616.0 259602.0 188527.0 180629.0 242843.0 245451.0 10620.0 15330.0 5370.0 12310.0 256517.0 263034.0 293743.0 300623.0 161259.0 169297.0 40514.0 45112.0 179916.0 178573.0 183843.0 181308.0 116923.0 125357.0 242252.0 234877.0 8055.0 0.0 236144.0 228348.0 247176.0 254478.0 334305.0 328620.0 296775.0 303550.0 134424.0 136370.0 287619.0 282766.0 319098.0 321607.0 277206.0 285182.0 173926.0 167707.0 214557.0 221954.0 62869.0 69855.0 76170.0 68209.0 246331.0 248874.0 232513.0 238821.0 271915.0 277816.0 200371.0 207764.0 249476.0 254209.0 29054.0 36644.0 214258.0 216129.0 93785.0 93702.0 271762.0 277002.0 298363.0 291721.0 308924.0 303966.0 301228.0 305795.0 304417.0 296984.0 98465.0 94622.0 223968.0 217059.0 110953.0 103290.0 260465.0 252621.0 166297.0 172337.0 284191.0 289522.0 296837.0 292922.0 263915.0 269785.0 59138.0 51018.0 273373.0 269121.0 258151.0 250721.0 39065.0 31153.0 190378.0 189487.0 184605.0 188844.0 222614.0 230607.0 272862.0 264837.0 296071.0 288354.0 78936.0 81813.0 265282.0 259338.0 302259.0 295212.0 138937.0 133255.0 198427.0 206393.0 178815.0 170344.0 182139.0 190121.0 268701.0 114448.0 268701.0 268701.0 268701.0 268701.0 114448.0 114448.0 114448.0 114448.0
11298.0 12245.0 174405.0 172953.0 95694.0 94904.0 124073.0 124112.0 262205.0 263139.0 91778.0 85483.0 68519.0 72648.0 46928.0 54752.0 85590.0 80985.0 11794.0 7257.0 290151.0 288294.0 112279.0 119951.0 54593.0 61692.0 214333.0 215848.0 85338.0 79141.0 44464.0 52563.0 85842.0 87857.0 37861.0 36756.0 48009.0 55724.0 99417.0 92910.0 227193.0 220828.0 235889.0 229740.0 24671.0 28608.0 89824.0 92414.0 84563.0 77582.0 220181.0 225493.0 56387.0 57827.0 63545.0 70594.0 128891.0 121865.0 7295.0 1363.0 229889.0 236144.0 0.0 7999.0 15109.0 23127.0 102970.0 99130.0 190323.0 190998.0 103153.0 100430.0 82742.0 83541.0 92313.0 92042.0 71235.0 77095.0 62567.0 68438.0 22444.0 14519.0 174455.0 168775.0 186149.0 191747.0 150615.0 144657.0 32274.0 27674.0 196260.0 194787.0 56199.0 49954.0 13366.0 18852.0 211027.0 203711.0 26131.0 30176.0 146517.0 150102.0 108511.0 106234.0 62498.0 56448.0 75091.0 68963.0 94745.0 94721.0 182143.0 180104.0 137681.0 142008.0 29667.0 35804.0 134764.0 142455.0 25396.0 17331.0 76874.0 68795.0 78475.0 78220.0 97095.0 89034.0 67580.0 66141.0 292640.0 284460.0 54205.0 56388.0 72405.0 67199.0 256302.0 251191.0 46780.0 46665.0 51634.0 48541.0 36265.0 34234.0 161836.0 157664.0 76096.0 68170.0 282022.0 288875.0 63749.0 56062.0 66593.0 60055.0 101758.0 105246.0 38070.0 30333.0 68579.0 75596.0 71871.0 64302.0 88814.0 135524.0 88814.0 88814.0 88814.0 88814.0 135524.0 135524.0 135524.0 135524.0
3353.0 8819.0 174023.0 172946.0 98112.0 97963.0 129324.0 129740.0 254222.0 255145.0 99042.0 92925.0 71040.0 75833.0 41797.0 49798.0 90087.0 84969.0 16286.0 14765.0 282155.0 280295.0 118199.0 125942.0 50755.0 57244.0 206338.0 207869.0 91250.0 84728.0 40935.0 48744.0 91665.0 93168.0 43069.0 43113.0 40542.0 48132.0 100364.0 94257.0 219354.0 213027.0 228136.0 222033.0 32174.0 36540.0 95615.0 98622.0 78158.0 71450.0 212196.0 217498.0 48769.0 49919.0 57915.0 65288.0 121888.0 115020.0 15040.0 6914.0 222134.0 228348.0 7999.0 0.0 20587.0 28758.0 110891.0 106956.0 191902.0 192905.0 95194.0 92510.0 85590.0 85706.0 98292.0 98443.0 76730.0 82972.0 54647.0 60653.0 14457.0 6522.0 166785.0 161186.0 178163.0 183750.0 150581.0 144910.0 33564.0 30720.0 196426.0 195279.0 52360.0 46857.0 21310.0 26090.0 203368.0 196082.0 21125.0 26855.0 139090.0 142832.0 111472.0 109708.0 70450.0 64445.0 82177.0 76311.0 98127.0 98652.0 184399.0 182029.0 129897.0 134324.0 28676.0 33460.0 126769.0 134458.0 33373.0 25299.0 70312.0 62097.0 81287.0 81770.0 102686.0 94804.0 71876.0 71198.0 284740.0 276564.0 58167.0 59316.0 75787.0 70002.0 248333.0 243242.0 39567.0 38938.0 43768.0 40544.0 35285.0 35054.0 163013.0 158507.0 80829.0 72752.0 274024.0 280876.0 65320.0 57410.0 74566.0 68052.0 93759.0 97264.0 30666.0 23194.0 62771.0 69402.0 66766.0 59621.0 88170.0 127556.0 88170.0 88170.0 88170.0 88170.0 127556.0 127556.0 127556.0 127556.0
23651.0 27229.0 187772.0 185991.0 81424.0 80232.0 129391.0 128508.0 271476.0 272075.0 79250.0 73542.0 54323.0 57979.0 61835.0 69726.0 92990.0 89415.0 24205.0 16322.0 298954.0 297014.0 97645.0 105375.0 69702.0 76773.0 223274.0 225240.0 70691.0 64276.0 59566.0 67671.0 90229.0 93482.0 45489.0 41647.0 60659.0 67994.0 111784.0 104900.0 237982.0 231847.0 247148.0 241222.0 26677.0 26221.0 94227.0 95608.0 98744.0 91999.0 229448.0 234435.0 68571.0 68689.0 78271.0 85472.0 142294.0 135516.0 15349.0 16374.0 241144.0 247176.0 15109.0 20587.0 0.0 8189.0 97643.0 94881.0 201607.0 201857.0 113173.0 110874.0 68233.0 69524.0 77721.0 77882.0 76770.0 81521.0 73280.0 79914.0 32813.0 26140.0 186136.0 180761.0 194242.0 200095.0 163727.0 157518.0 45453.0 39434.0 209095.0 207299.0 71308.0 65002.0 11809.0 8746.0 222718.0 215523.0 40995.0 45283.0 159014.0 162978.0 118271.0 115205.0 54144.0 49496.0 62156.0 56800.0 79916.0 79698.0 192552.0 190969.0 148900.0 153676.0 44279.0 50762.0 143163.0 151016.0 22633.0 17065.0 90895.0 82664.0 64009.0 63352.0 101896.0 93502.0 75722.0 72812.0 302930.0 294791.0 39247.0 41999.0 81982.0 77719.0 265843.0 261011.0 59948.0 58575.0 62851.0 58364.0 50752.0 47701.0 173676.0 169890.0 60989.0 53062.0 290742.0 297595.0 50482.0 43191.0 58543.0 53101.0 110632.0 114893.0 50932.0 43700.0 83211.0 89963.0 86820.0 79349.0 78028.0 143376.0 78028.0 78028.0 78028.0 78028.0 143376.0 143376.0 143376.0 143376.0
31780.0 35329.0 194005.0 191993.0 74901.0 73226.0 130952.0 129565.0 278116.0 278582.0 71745.0 66329.0 48052.0 51062.0 69979.0 77848.0 95958.0 92981.0 31124.0 23142.0 305394.0 303461.0 89457.0 97190.0 77641.0 84816.0 229817.0 231956.0 62504.0 56101.0 67472.0 75611.0 91586.0 95475.0 49436.0 44415.0 68619.0 75854.0 117489.0 110398.0 245203.0 239151.0 254528.0 248678.0 29196.0 26432.0 95548.0 96258.0 106914.0 100185.0 236112.0 240970.0 76410.0 76194.0 86450.0 93627.0 150328.0 143600.0 22107.0 24429.0 248524.0 254478.0 23127.0 28758.0 8189.0 0.0 93676.0 91514.0 206437.0 206420.0 120267.0 118114.0 61479.0 63339.0 69537.0 69777.0 78919.0 83006.0 80723.0 87542.0 40542.0 34170.0 193683.0 188406.0 200588.0 206428.0 169806.0 163436.0 52090.0 45512.0 214935.0 212921.0 79244.0 72791.0 16264.0 9037.0 230250.0 223097.0 49142.0 53221.0 166818.0 170880.0 122395.0 118892.0 49080.0 45373.0 54532.0 49580.0 72686.0 72127.0 196852.0 195552.0 156329.0 161242.0 51732.0 58464.0 149605.0 157503.0 23178.0 20240.0 99050.0 90803.0 57331.0 56105.0 103361.0 94867.0 79283.0 75628.0 309944.0 301823.0 31946.0 35624.0 86250.0 82547.0 272590.0 267867.0 68003.0 66386.0 70478.0 65647.0 58085.0 54460.0 178901.0 175369.0 53057.0 45223.0 297189.0 304042.0 45297.0 38573.0 53567.0 48876.0 117336.0 121857.0 58959.0 51818.0 91398.0 98148.0 94954.0 87428.0 74759.0 149722.0 74759.0 74759.0 74759.0 74759.0 149722.0 149722.0 149722.0 149722.0
114049.0 110563.0 195789.0 190251.0 131762.0 124766.0 83725.0 77010.0 363575.0 364912.0 58112.0 52806.0 116637.0 112701.0 135672.0 140676.0 80701.0 86073.0 98071.0 96223.0 392011.0 390374.0 94648.0 97329.0 134802.0 143141.0 316238.0 317229.0 84717.0 88136.0 126861.0 133349.0 61690.0 69797.0 81060.0 74711.0 147215.0 155171.0 126212.0 118693.0 326026.0 319159.0 333441.0 326701.0 79391.0 74362.0 62453.0 55272.0 174327.0 166285.0 321701.0 327360.0 155965.0 159295.0 151262.0 155144.0 220431.0 212357.0 95864.0 103979.0 327508.0 334305.0 102970.0 110891.0 97643.0 93676.0 0.0 8126.0 185364.0 181668.0 204623.0 201407.0 120426.0 127123.0 85526.0 77859.0 67325.0 61328.0 164054.0 168700.0 125317.0 117326.0 271556.0 265027.0 288839.0 294210.0 172450.0 164593.0 102055.0 95496.0 207952.0 202738.0 135891.0 128079.0 90261.0 88942.0 307561.0 299952.0 120712.0 118212.0 241497.0 243415.0 108846.0 101212.0 45521.0 48315.0 62862.0 58587.0 121220.0 114982.0 169728.0 172411.0 236615.0 239751.0 110354.0 117412.0 237358.0 244926.0 77634.0 85657.0 168445.0 162018.0 118678.0 111535.0 66979.0 62715.0 81239.0 73221.0 392183.0 383953.0 100692.0 109030.0 90959.0 95488.0 357318.0 351794.0 144860.0 147280.0 152921.0 151064.0 112125.0 104131.0 167153.0 167893.0 98148.0 97782.0 384108.0 390961.0 121595.0 119490.0 41087.0 44801.0 204234.0 207086.0 137708.0 129800.0 156501.0 164936.0 154942.0 146438.0 154576.0 238386.0 154576.0 154576.0 154576.0 154576.0 238386.0 238386.0 238386.0 238386.0
110035.0 106065.0 187674.0 182153.0 134217.0 127495.0 76301.0 69807.0 358541.0 360008.0 62810.0 56811.0 117688.0 114230.0 129889.0 134629.0 72622.0 78084.0 93486.0 92205.0 387123.0 385617.0 99948.0 103071.0 128504.0 136788.0 311415.0 312234.0 88184.0 90968.0 120836.0 127108.0 53581.0 61679.0 75050.0 69137.0 142253.0 150182.0 118208.0 110723.0 320461.0 313518.0 327663.0 320848.0 75048.0 70618.0 54327.0 47164.0 168210.0 160150.0 316743.0 322515.0 150990.0 154648.0 145201.0 148833.0 214223.0 206091.0 91922.0 100071.0 321748.0 328620.0 99130.0 106956.0 94881.0 91514.0 8126.0 0.0 177608.0 174016.0 199822.0 196492.0 122424.0 128879.0 89574.0 82113.0 59569.0 53393.0 159391.0 163763.0 121297.0 113311.0 265807.0 259180.0 284421.0 289649.0 164324.0 156468.0 96137.0 89864.0 199936.0 194767.0 129546.0 121788.0 86774.0 86136.0 301675.0 294041.0 115646.0 112743.0 235558.0 237296.0 100725.0 93098.0 44899.0 46348.0 65601.0 60462.0 124098.0 118130.0 162113.0 164674.0 231214.0 234161.0 104691.0 111571.0 232923.0 240415.0 74024.0 81929.0 162516.0 156283.0 120421.0 113547.0 58904.0 54590.0 73595.0 65644.0 386689.0 378456.0 101108.0 109398.0 83200.0 87919.0 352187.0 346561.0 139776.0 142534.0 148268.0 146767.0 106125.0 98119.0 159137.0 159822.0 100446.0 99429.0 379346.0 386199.0 122064.0 119445.0 40699.0 43047.0 199783.0 202386.0 132892.0 125051.0 150399.0 158859.0 148543.0 140082.0 154719.0 234156.0 154719.0 154719.0 154719.0 154719.0 234156.0 234156.0 234156.0 234156.0
191952.0 183435.0 47928.0 40510.0 279729.0 276337.0 102427.0 110016.0 341256.0 346107.0 232425.0 224581.0 253912.0 255443.0 167083.0 162300.0 115341.0 115500.0 178685.0 185805.0 370377.0 372589.0 269001.0 274172.0 154640.0 155093.0 306955.0 303013.0 248256.0 246648.0 159522.0 155765.0 129351.0 121770.0 157159.0 163306.0 188840.0 191858.0 91924.0 97651.0 293615.0 285598.0 293124.0 285059.0 177900.0 183202.0 126862.0 132245.0 172627.0 168717.0 307791.0 315630.0 192526.0 201025.0 165186.0 159694.0 194461.0 187719.0 186654.0 189773.0 288722.0 296775.0 190323.0 191902.0 201607.0 206437.0 185364.0 177608.0 0.0 8111.0 223793.0 219009.0 265985.0 269096.0 252803.0 247384.0 134271.0 134741.0 203131.0 199664.0 196457.0 193216.0 244569.0 236634.0 295181.0 295847.0 53141.0 54019.0 158416.0 162759.0 34815.0 26743.0 153677.0 153590.0 190395.0 197488.0 268367.0 261416.0 177111.0 169055.0 216894.0 212419.0 85252.0 90593.0 196538.0 190125.0 226022.0 217903.0 274649.0 271624.0 18123.0 13011.0 229574.0 226317.0 163934.0 161671.0 255101.0 258809.0 185330.0 186228.0 175296.0 177596.0 262179.0 258918.0 120296.0 126982.0 128593.0 134313.0 352728.0 345356.0 236205.0 241591.0 120434.0 123930.0 333070.0 325374.0 185326.0 193211.0 197715.0 203718.0 157750.0 156848.0 30066.0 36784.0 250630.0 244985.0 370649.0 375496.0 251718.0 244723.0 195748.0 190235.0 231704.0 227808.0 187741.0 185876.0 165912.0 169801.0 157106.0 155850.0 279075.0 260732.0 279075.0 279075.0 279075.0 279075.0 260732.0 260732.0 260732.0 260732.0
193095.0 184552.0 55494.0 47852.0 279150.0 275540.0 98245.0 105619.0 347795.0 352566.0 229938.0 222170.0 253603.0 254889.0 169589.0 165111.0 113867.0 114591.0 179287.0 186240.0 376995.0 379109.0 266764.0 271762.0 157255.0 158117.0 312958.0 309147.0 246555.0 245202.0 161691.0 158295.0 126990.0 119617.0 157015.0 162863.0 191515.0 194823.0 93633.0 98877.0 300235.0 292212.0 299957.0 291892.0 177648.0 182680.0 124314.0 129340.0 176813.0 172619.0 313941.0 321753.0 195512.0 203976.0 168457.0 163235.0 200049.0 193154.0 187061.0 190501.0 295495.0 303550.0 190998.0 192905.0 201857.0 206420.0 181668.0 174016.0 8111.0 0.0 228065.0 223274.0 265403.0 268723.0 250927.0 245326.0 132786.0 132782.0 206239.0 203045.0 198020.0 194484.0 250725.0 242771.0 300610.0 301436.0 58642.0 58633.0 159350.0 163350.0 42858.0 34774.0 156356.0 155875.0 190501.0 197428.0 275049.0 268040.0 178780.0 170705.0 222713.0 218412.0 84412.0 89195.0 194603.0 188394.0 224090.0 216042.0 273738.0 270513.0 12134.0 10896.0 234909.0 231845.0 165252.0 163354.0 259800.0 263687.0 184935.0 186182.0 179171.0 181141.0 261661.0 258174.0 117481.0 124486.0 127925.0 133274.0 359748.0 352334.0 235742.0 241341.0 120196.0 124151.0 339631.0 331965.0 187962.0 195804.0 200462.0 206257.0 159197.0 157892.0 33796.0 41251.0 249539.0 244091.0 377022.0 381954.0 251715.0 244851.0 193635.0 188353.0 235760.0 232075.0 190014.0 187827.0 169415.0 173622.0 160676.0 159027.0 279587.0 265317.0 279587.0 279587.0 279587.0 279587.0 265317.0 265317.0 265317.0 265317.0
91862.0 94175.0 187316.0 190480.0 163755.0 167807.0 201014.0 204407.0 159146.0 160306.0 191897.0 186591.0 142610.0 150040.0 74212.0 73214.0 160789.0 153116.0 106570.0 109200.0 187394.0 185796.0 203644.0 211487.0 81847.0 76547.0 111617.0 112771.0 177981.0 170272.0 84699.0 82098.0 171041.0 168947.0 126722.0 131192.0 57655.0 49813.0 142036.0 140941.0 124996.0 119121.0 134732.0 129278.0 125339.0 131102.0 174381.0 179984.0 51276.0 56234.0 117168.0 122737.0 48980.0 45452.0 65026.0 67409.0 51883.0 51416.0 109733.0 101960.0 128746.0 134424.0 103153.0 95194.0 113173.0 120267.0 204623.0 199822.0 223793.0 228065.0 0.0 4794.0 156116.0 152016.0 184981.0 187272.0 155789.0 163602.0 40683.0 36197.0 80983.0 88690.0 75497.0 71629.0 85536.0 90144.0 171445.0 169775.0 106364.0 111085.0 212817.0 215347.0 81787.0 87100.0 116503.0 120568.0 111481.0 104773.0 84300.0 88265.0 54855.0 61685.0 167138.0 169750.0 165645.0 159512.0 174592.0 169837.0 169980.0 173811.0 223912.0 218478.0 37806.0 44405.0 96905.0 91471.0 35019.0 41585.0 128214.0 120185.0 50007.0 50919.0 152381.0 156979.0 179372.0 173515.0 144626.0 148520.0 189764.0 181620.0 139408.0 135674.0 142023.0 134184.0 153158.0 148054.0 60376.0 57344.0 51785.0 54881.0 97659.0 105094.0 194276.0 187055.0 162460.0 154581.0 179525.0 186377.0 133166.0 126602.0 169744.0 163094.0 10588.0 4016.0 66937.0 74824.0 61952.0 55678.0 69617.0 74272.0 138719.0 38758.0 138719.0 138719.0 138719.0 138719.0 38758.0 38758.0 38758.0 38758.0
89164.0 91130.0 182637.0 185762.0 163606.0 167449.0 196629.0 200097.0 162197.0 163523.0 189831.0 184386.0 141938.0 149286.0 70097.0 68851.0 156488.0 148781.0 103431.0 106323.0 190634.0 189179.0 202389.0 210245.0 77441.0 71997.0 114942.0 115834.0 176533.0 168890.0 80552.0 77740.0 166971.0 164762.0 123054.0 127701.0 54240.0 46323.0 137316.0 136275.0 127110.0 121045.0 136503.0 130851.0 122237.0 128157.0 170278.0 175962.0 46483.0 51474.0 120294.0 126028.0 45509.0 42604.0 60489.0 62718.0 49188.0 48097.0 106888.0 99212.0 130505.0 136370.0 100430.0 92510.0 110874.0 118114.0 201407.0 196492.0 219009.0 223274.0 4794.0 0.0 155629.0 151729.0 183562.0 185665.0 151765.0 159605.0 37864.0 32729.0 78436.0 86032.0 76519.0 72212.0 89488.0 93881.0 166682.0 164992.0 102557.0 107460.0 208137.0 210632.0 77343.0 82794.0 113794.0 118096.0 112791.0 105924.0 80869.0 84564.0 54180.0 60636.0 162519.0 165193.0 162921.0 156663.0 172557.0 167632.0 169517.0 173169.0 219119.0 213684.0 38742.0 44768.0 93153.0 87548.0 39419.0 45732.0 125335.0 117337.0 45275.0 46392.0 151828.0 156222.0 175184.0 169413.0 140455.0 144470.0 192242.0 184074.0 138133.0 134655.0 137695.0 129853.0 156073.0 150815.0 56816.0 54230.0 48854.0 52510.0 93709.0 101223.0 189485.0 182269.0 161326.0 153384.0 182930.0 189783.0 132588.0 125860.0 166975.0 160230.0 14329.0 8801.0 63712.0 71653.0 57316.0 50943.0 64904.0 69676.0 138832.0 43398.0 138832.0 138832.0 138832.0 138832.0 43398.0 43398.0 43398.0 43398.0
87583.0 93923.0 255415.0 253260.0 13747.0 12542.0 182031.0 178831.0 306107.0 306316.0 68600.0 70131.0 14782.0 10567.0 126727.0 134771.0 152365.0 150856.0 92376.0 84412.0 333092.0 331152.0 55327.0 62179.0 136335.0 142568.0 257650.0 260365.0 40146.0 33806.0 126506.0 134329.0 143586.0 149247.0 109185.0 102691.0 118279.0 123619.0 178590.0 171315.0 277514.0 272641.0 288684.0 283984.0 88378.0 82783.0 147227.0 145596.0 158861.0 153449.0 264287.0 268773.0 123869.0 120124.0 141688.0 149507.0 197191.0 191808.0 83398.0 83827.0 282812.0 287619.0 82742.0 85590.0 68233.0 61479.0 120426.0 122424.0 265985.0 265403.0 156116.0 155629.0 0.0 7611.0 44000.0 51001.0 133875.0 135881.0 123552.0 131630.0 91461.0 88571.0 231501.0 227726.0 228258.0 234114.0 231141.0 224656.0 113519.0 106976.0 276038.0 273774.0 137939.0 132329.0 77639.0 69819.0 266971.0 260558.0 106577.0 112317.0 209128.0 214690.0 180991.0 176558.0 80004.0 82904.0 57865.0 61981.0 13903.0 18404.0 255271.0 254623.0 193918.0 200365.0 112370.0 118451.0 177522.0 185513.0 80736.0 80848.0 150672.0 142282.0 4308.0 8891.0 155142.0 146722.0 137482.0 132363.0 339686.0 331751.0 29951.0 26362.0 145614.0 142821.0 300965.0 296803.0 119095.0 114500.0 116238.0 108950.0 118913.0 115843.0 239243.0 236091.0 22537.0 23343.0 324880.0 331733.0 23163.0 30581.0 83300.0 84627.0 149603.0 156269.0 110388.0 105312.0 145998.0 151266.0 151288.0 144741.0 45843.0 177392.0 45843.0 45843.0 45843.0 45843.0 177392.0 177392.0 177392.0 177392.0
87455.0 94253.0 257246.0 255320.0 12650.0 15940.0 186885.0 183923.0 301250.0 301459.0 76046.0 77360.0 15289.0 14943.0 126192.0 134210.0 156200.0 154347.0 93722.0 85836.0 328235.0 326294.0 62510.0 69185.0 136256.0 142169.0 252792.0 255508.0 47712.0 41218.0 126604.0 134271.0 148153.0 153563.0 111993.0 105861.0 116494.0 121462.0 180821.0 173686.0 272694.0 267744.0 283822.0 279260.0 91209.0 86080.0 151860.0 150539.0 157053.0 151934.0 259430.0 263915.0 121662.0 117466.0 140676.0 148584.0 194292.0 189150.0 84849.0 84547.0 277978.0 282766.0 83541.0 85706.0 69524.0 63339.0 127123.0 128879.0 269096.0 268723.0 152016.0 151729.0 7611.0 0.0 51609.0 58602.0 137914.0 140275.0 120693.0 128832.0 90419.0 88168.0 227217.0 223641.0 223401.0 229257.0 233112.0 226773.0 114977.0 108757.0 278273.0 276214.0 137849.0 132562.0 79603.0 72012.0 262450.0 256141.0 106434.0 112555.0 205509.0 211256.0 184350.0 180166.0 85856.0 88295.0 64844.0 68560.0 18831.0 24764.0 258768.0 257905.0 189769.0 196371.0 113198.0 118949.0 172664.0 180656.0 83793.0 83207.0 148867.0 140523.0 8458.0 15949.0 159796.0 151327.0 140848.0 136049.0 334828.0 326894.0 33059.0 27718.0 148662.0 145518.0 296108.0 291945.0 117533.0 112534.0 113898.0 106404.0 119806.0 117213.0 241984.0 238613.0 29754.0 29454.0 320022.0 326875.0 20893.0 28857.0 89320.0 90210.0 145159.0 152002.0 109017.0 104386.0 144814.0 149739.0 150462.0 144207.0 38771.0 172534.0 38771.0 38771.0 38771.0 38771.0 172534.0 172534.0 172534.0 172534.0
101268.0 104546.0 250212.0 246714.0 50999.0 42930.0 159232.0 154462.0 338938.0 339147.0 27985.0 32787.0 49312.0 41930.0 139200.0 146928.0 137568.0 138397.0 97712.0 90387.0 365923.0 363983.0 19976.0 27654.0 145837.0 153464.0 290481.0 293131.0 7103.0 14764.0 135633.0 143831.0 124223.0 131349.0 104011.0 95887.0 137558.0 144412.0 172890.0 165030.0 309380.0 303861.0 319619.0 314258.0 85546.0 77880.0 127231.0 123472.0 176433.0 169719.0 297118.0 301604.0 144889.0 143471.0 155856.0 162863.0 219306.0 212808.0 89381.0 93659.0 313649.0 319098.0 92313.0 98292.0 77721.0 69537.0 85526.0 89574.0 252803.0 250927.0 184981.0 183562.0 44000.0 51609.0 0.0 7962.0 118709.0 118146.0 147681.0 155121.0 109179.0 103497.0 260032.0 255314.0 261089.0 266945.0 225564.0 218340.0 116051.0 108231.0 268070.0 264600.0 147409.0 140365.0 81689.0 74096.0 296350.0 289467.0 118442.0 121704.0 234649.0 239195.0 168166.0 162280.0 56327.0 62746.0 26864.0 34900.0 38813.0 31594.0 239841.0 240553.0 222290.0 227878.0 118547.0 125966.0 210352.0 218343.0 77714.0 82063.0 168533.0 160246.0 44634.0 36686.0 134645.0 126947.0 126570.0 119660.0 372490.0 364525.0 45780.0 50961.0 136280.0 135856.0 333796.0 329635.0 137235.0 134872.0 138289.0 132369.0 124209.0 118678.0 228814.0 227072.0 24795.0 31366.0 357711.0 364564.0 58555.0 62117.0 57569.0 62581.0 180204.0 185903.0 128143.0 121251.0 160864.0 167684.0 164055.0 156249.0 88720.0 210223.0 88720.0 88720.0 88720.0 88720.0 210223.0 210223.0 210223.0 210223.0
101533.0 104190.0 246009.0 242310.0 58678.0 50684.0 152738.0 147778.0 342129.0 342338.0 20072.0 25323.0 54972.0 47920.0 138673.0 146265.0 132369.0 133565.0 96543.0 89514.0 369114.0 367174.0 22318.0 29070.0 144703.0 152511.0 293672.0 296385.0 11212.0 19049.0 134540.0 142717.0 118414.0 125712.0 100826.0 92564.0 138306.0 145377.0 168917.0 161009.0 311993.0 306333.0 322001.0 316497.0 83191.0 75370.0 121303.0 117254.0 176537.0 169623.0 300260.0 304794.0 145893.0 144934.0 155480.0 162280.0 220068.0 213377.0 88535.0 93401.0 316017.0 321607.0 92042.0 98443.0 77882.0 69777.0 77859.0 82113.0 247384.0 245326.0 187272.0 185665.0 51001.0 58602.0 7962.0 0.0 113615.0 112643.0 149257.0 156512.0 110026.0 103942.0 261992.0 257083.0 264280.0 270136.0 221377.0 214061.0 114038.0 106118.0 263393.0 259747.0 146254.0 139024.0 80719.0 73442.0 298419.0 291445.0 118071.0 120836.0 236044.0 240367.0 163084.0 157005.0 50909.0 57806.0 21636.0 29951.0 46609.0 39463.0 234129.0 235033.0 224324.0 229712.0 117148.0 124702.0 213534.0 221529.0 75563.0 80559.0 168745.0 160540.0 51266.0 43236.0 128594.0 121055.0 122096.0 114961.0 375535.0 367530.0 49109.0 55152.0 131975.0 131950.0 336957.0 332811.0 137774.0 135854.0 139553.0 133957.0 122572.0 116680.0 223863.0 222341.0 30407.0 35859.0 360902.0 367755.0 63839.0 66670.0 51695.0 57275.0 182887.0 188352.0 128717.0 121581.0 160575.0 167631.0 163355.0 155382.0 94953.0 213414.0 94953.0 94953.0 94953.0 94953.0 213414.0 213414.0 213414.0 213414.0
78626.0 71247.0 134040.0 129659.0 147551.0 143385.0 52891.0 53014.0 310758.0 313005.0 100209.0 92140.0 123214.0 123525.0 81717.0 84170.0 18936.0 20516.0 60450.0 64452.0 340046.0 339346.0 135585.0 141259.0 76476.0 84008.0 265321.0 265054.0 114012.0 112427.0 71372.0 75579.0 15509.0 16737.0 33672.0 35192.0 99634.0 106856.0 59863.0 52068.0 269791.0 262457.0 275735.0 268533.0 50134.0 52845.0 19238.0 24197.0 116082.0 108115.0 269759.0 276176.0 107723.0 113652.0 94173.0 95941.0 160747.0 152379.0 64882.0 71412.0 269950.0 277206.0 71235.0 76730.0 76770.0 78919.0 67325.0 59569.0 134271.0 132786.0 155789.0 151765.0 133875.0 137914.0 118709.0 113615.0 0.0 7991.0 117993.0 120110.0 88207.0 81375.0 214491.0 207352.0 241253.0 245473.0 109690.0 102056.0 50313.0 47983.0 150048.0 146192.0 77126.0 70176.0 65017.0 70073.0 249298.0 241565.0 74610.0 68636.0 183423.0 184096.0 49476.0 43680.0 62735.0 55964.0 92070.0 83856.0 141359.0 137857.0 122106.0 122232.0 182475.0 184179.0 59909.0 64423.0 190558.0 197371.0 55825.0 59714.0 111805.0 107141.0 130370.0 126212.0 25962.0 18387.0 14291.0 7440.0 336065.0 327850.0 104918.0 111412.0 23636.0 28748.0 303867.0 297674.0 96378.0 101567.0 107622.0 108974.0 58192.0 51116.0 110261.0 108970.0 116930.0 111831.0 333512.0 340330.0 122910.0 116986.0 62507.0 56347.0 158210.0 158985.0 92144.0 85580.0 98891.0 107254.0 95067.0 87159.0 153652.0 193176.0 153652.0 153652.0 153652.0 153652.0 193176.0 193176.0 193176.0 193176.0
85031.0 77920.0 137266.0 132504.0 149460.0 144919.0 47954.0 47125.0 318738.0 320974.0 98168.0 90195.0 125843.0 125676.0 89595.0 92135.0 20607.0 24825.0 66703.0 70131.0 348018.0 347304.0 134318.0 139671.0 84464.0 91998.0 273265.0 273021.0 113825.0 112803.0 79282.0 83558.0 8763.0 13449.0 40166.0 40485.0 107245.0 114539.0 64956.0 57375.0 277777.0 270439.0 283700.0 276490.0 54870.0 56622.0 12764.0 16450.0 124070.0 116105.0 277722.0 284127.0 115404.0 121203.0 102156.0 103926.0 168690.0 160317.0 70479.0 77369.0 277918.0 285182.0 77095.0 82972.0 81521.0 83006.0 61328.0 53393.0 134741.0 132782.0 163602.0 159605.0 135881.0 140275.0 118146.0 112643.0 7991.0 0.0 125585.0 127847.0 94912.0 87877.0 222474.0 215328.0 249092.0 253353.0 113183.0 105437.0 57831.0 55035.0 152209.0 147989.0 85116.0 78152.0 69913.0 74359.0 257255.0 249521.0 81948.0 76187.0 191398.0 192041.0 51186.0 44572.0 61829.0 55705.0 91320.0 83260.0 142692.0 138824.0 121761.0 122418.0 190453.0 192169.0 67441.0 72174.0 198328.0 205178.0 59831.0 64484.0 119791.0 115095.0 132527.0 127964.0 20386.0 12006.0 21812.0 15430.0 344049.0 335833.0 107473.0 114310.0 30310.0 36135.0 311852.0 305664.0 104030.0 109069.0 115126.0 116264.0 65959.0 58751.0 111952.0 111219.0 118044.0 113396.0 341446.0 348276.0 126122.0 120529.0 61030.0 55571.0 165900.0 166772.0 99582.0 92869.0 106881.0 115245.0 103043.0 95147.0 157491.0 200878.0 157491.0 157491.0 157491.0 157491.0 200878.0 200878.0 200878.0 200878.0
51301.0 53526.0 173097.0 174613.0 133103.0 135846.0 166051.0 168616.0 199828.0 200952.0 152456.0 146820.0 109185.0 116077.0 39201.0 41616.0 125248.0 118031.0 65984.0 68525.0 228025.0 226321.0 166945.0 174815.0 50112.0 48132.0 152218.0 153454.0 140595.0 133184.0 49353.0 49572.0 133458.0 132248.0 87300.0 91177.0 18371.0 11958.0 114685.0 111805.0 164814.0 158597.0 173868.0 167962.0 84707.0 90419.0 137008.0 142035.0 41135.0 39623.0 157846.0 163354.0 11145.0 4770.0 38087.0 44517.0 73643.0 68513.0 69069.0 61353.0 167864.0 173926.0 62567.0 54647.0 73280.0 80723.0 164054.0 159391.0 203131.0 206239.0 40683.0 37864.0 123552.0 120693.0 147681.0 149257.0 117993.0 125585.0 0.0 8186.0 40643.0 48175.0 112984.0 107858.0 125169.0 130264.0 153507.0 150165.0 67765.0 71604.0 198082.0 199173.0 50690.0 53501.0 75931.0 80314.0 149537.0 142416.0 44387.0 49405.0 87005.0 91850.0 136297.0 137609.0 125062.0 118851.0 135254.0 130080.0 137397.0 140207.0 200347.0 195945.0 75623.0 80574.0 58157.0 53892.0 73724.0 81083.0 87541.0 79521.0 33943.0 27741.0 119497.0 122922.0 142630.0 136142.0 108044.0 110956.0 230097.0 221923.0 102976.0 100504.0 107021.0 99350.0 193821.0 188643.0 21756.0 16929.0 11133.0 15313.0 60117.0 66878.0 173068.0 166663.0 126494.0 118384.0 220057.0 226910.0 100425.0 93049.0 129127.0 122428.0 40692.0 43032.0 26650.0 34357.0 38330.0 37691.0 47175.0 47286.0 110802.0 75595.0 110802.0 110802.0 110802.0 110802.0 75595.0 75595.0 75595.0 75595.0
57302.0 58615.0 168234.0 170065.0 141257.0 143946.0 166826.0 169763.0 194879.0 196249.0 159164.0 153346.0 117222.0 124061.0 39306.0 40116.0 126200.0 118756.0 70797.0 74017.0 223361.0 221893.0 174489.0 182357.0 48867.0 45562.0 147664.0 148529.0 148026.0 140693.0 49794.0 48655.0 135472.0 133781.0 90544.0 95013.0 21511.0 13619.0 112606.0 110262.0 158777.0 152390.0 167484.0 161417.0 89620.0 95708.0 138909.0 144273.0 33952.0 33458.0 153007.0 158755.0 12792.0 11698.0 34649.0 40089.0 65567.0 60343.0 74634.0 67174.0 161482.0 167707.0 68438.0 60653.0 79914.0 87542.0 168700.0 163763.0 199664.0 203045.0 36197.0 32729.0 131630.0 128832.0 155121.0 156512.0 120110.0 127847.0 8186.0 0.0 47107.0 54297.0 106241.0 100865.0 121612.0 126335.0 149296.0 146296.0 70323.0 74895.0 193388.0 194756.0 49195.0 53132.0 81777.0 86607.0 142829.0 135613.0 48149.0 52126.0 79547.0 84155.0 135428.0 137204.0 130763.0 124315.0 142040.0 136641.0 145461.0 148193.0 197558.0 192894.0 69247.0 73775.0 60808.0 55688.0 70516.0 77531.0 92983.0 85051.0 27331.0 22395.0 127559.0 130887.0 144201.0 138041.0 109466.0 112925.0 224380.0 216183.0 110671.0 108389.0 107673.0 99897.0 188683.0 183307.0 24182.0 21803.0 17067.0 22950.0 61922.0 69158.0 169643.0 163031.0 134220.0 126086.0 215634.0 222487.0 108519.0 101102.0 134736.0 127855.0 38210.0 39083.0 31064.0 39039.0 33836.0 31712.0 42722.0 44201.0 118974.0 73098.0 118974.0 118974.0 118974.0 118974.0 73098.0 73098.0 73098.0 73098.0
11271.0 16993.0 175212.0 174812.0 103052.0 103999.0 140110.0 141086.0 239896.0 240767.0 112060.0 106263.0 76680.0 82453.0 36260.0 44138.0 100016.0 94198.0 28952.0 29109.0 267763.0 265887.0 128874.0 136702.0 47529.0 52355.0 191954.0 193557.0 102081.0 95094.0 39105.0 45687.0 103473.0 104246.0 54749.0 56077.0 28385.0 35359.0 104535.0 99189.0 205457.0 199229.0 214454.0 208470.0 46338.0 50984.0 107353.0 110923.0 68162.0 62227.0 197863.0 203116.0 35893.0 35985.0 50272.0 58165.0 110133.0 103663.0 29453.0 21366.0 208450.0 214557.0 22444.0 14457.0 32813.0 40542.0 125317.0 121297.0 196457.0 198020.0 80983.0 78436.0 91461.0 90419.0 109179.0 110026.0 88207.0 94912.0 40643.0 47107.0 0.0 7992.0 153342.0 147948.0 163707.0 169307.0 152534.0 147412.0 40809.0 40494.0 198490.0 197925.0 49038.0 45429.0 35658.0 39672.0 189928.0 182719.0 19458.0 27438.0 126276.0 130387.0 118824.0 117891.0 84738.0 78855.0 94961.0 89546.0 104705.0 106146.0 190141.0 187219.0 116188.0 120878.0 33122.0 34839.0 112321.0 120020.0 47830.0 39756.0 60054.0 51647.0 87178.0 88874.0 114101.0 106520.0 81749.0 82140.0 270668.0 262504.0 66468.0 65964.0 84259.0 77721.0 234058.0 229030.0 28320.0 25859.0 30051.0 26176.0 38861.0 41484.0 167011.0 161952.0 89873.0 81683.0 259615.0 266468.0 69544.0 61562.0 88900.0 82469.0 79332.0 82960.0 19278.0 14001.0 54539.0 60071.0 60059.0 54114.0 88120.0 113104.0 88120.0 88120.0 88120.0 88120.0 113104.0 113104.0 113104.0 113104.0
3279.0 10482.0 173768.0 172999.0 100708.0 101047.0 133652.0 134361.0 247703.0 248622.0 105123.0 99126.0 73869.0 79120.0 38159.0 46205.0 93932.0 88444.0 21399.0 21117.0 275633.0 273774.0 123333.0 131117.0 48182.0 54030.0 199816.0 201351.0 96424.0 89693.0 38838.0 46222.0 96506.0 97619.0 47748.0 48547.0 34536.0 41974.0 101388.0 95628.0 212930.0 206630.0 221775.0 215709.0 38382.0 43001.0 100422.0 103738.0 73028.0 66592.0 205676.0 210976.0 42583.0 43459.0 53601.0 61219.0 116164.0 109437.0 21464.0 13402.0 215772.0 221954.0 14519.0 6522.0 26140.0 34170.0 117326.0 113311.0 193216.0 194484.0 88690.0 86032.0 88571.0 88168.0 103497.0 103942.0 81375.0 87877.0 48175.0 54297.0 7992.0 0.0 160494.0 154960.0 171667.0 177238.0 150652.0 145227.0 35729.0 34232.0 196587.0 195707.0 49762.0 45020.0 27823.0 32319.0 197081.0 189819.0 18449.0 25504.0 133001.0 136872.0 114051.0 112696.0 76958.0 70967.0 88156.0 82464.0 101452.0 102383.0 186270.0 183636.0 123520.0 128027.0 29285.0 32677.0 120263.0 127944.0 39869.0 31793.0 65064.0 56754.0 84264.0 85291.0 107326.0 99598.0 75657.0 75544.0 278271.0 270098.0 62144.0 62546.0 78855.0 72671.0 241821.0 236741.0 33833.0 32666.0 37350.0 34022.0 35602.0 36812.0 164044.0 159276.0 85209.0 77062.0 267503.0 274355.0 67481.0 59491.0 81082.0 74574.0 87243.0 90747.0 24796.0 17781.0 58256.0 64496.0 62871.0 56170.0 88461.0 121085.0 88461.0 88461.0 88461.0 88461.0 121085.0 121085.0 121085.0 121085.0
163443.0 163949.0 199675.0 205448.0 238759.0 243071.0 251233.0 256330.0 99379.0 103180.0 265378.0 259586.0 218090.0 225534.0 135921.0 131443.0 214353.0 206266.0 175491.0 179635.0 129139.0 130072.0 278906.0 286763.0 138349.0 130535.0 62806.0 58446.0 252990.0 245380.0 145128.0 139483.0 228547.0 224520.0 190782.0 196845.0 126544.0 118742.0 182610.0 184607.0 55350.0 47970.0 61891.0 55362.0 194150.0 200832.0 231242.0 238025.0 98453.0 106475.0 63223.0 71069.0 118069.0 117489.0 120976.0 118553.0 55180.0 63539.0 180330.0 173160.0 55953.0 62869.0 174455.0 166785.0 186136.0 193683.0 271556.0 265807.0 244569.0 250725.0 75497.0 76519.0 231501.0 227217.0 260032.0 261992.0 214491.0 222474.0 112984.0 106241.0 153342.0 160494.0 0.0 7996.0 61164.0 57972.0 192297.0 193754.0 169681.0 176060.0 223525.0 228476.0 137553.0 144911.0 187711.0 192813.0 36588.0 29453.0 151859.0 153455.0 31341.0 32994.0 211245.0 216074.0 236318.0 229514.0 248213.0 242883.0 245337.0 249274.0 250144.0 243148.0 37782.0 32468.0 161202.0 154236.0 62146.0 56622.0 198370.0 190621.0 103429.0 109542.0 227808.0 232474.0 234548.0 230415.0 201316.0 207061.0 121574.0 113360.0 214651.0 211116.0 195820.0 188305.0 91700.0 84728.0 128190.0 127848.0 123291.0 128188.0 159761.0 167757.0 218495.0 210502.0 237834.0 229901.0 126844.0 132327.0 208615.0 202097.0 240128.0 232968.0 82126.0 75235.0 136488.0 144401.0 115959.0 107494.0 119459.0 127351.0 213451.0 68145.0 213451.0 213451.0 213451.0 213451.0 68145.0 68145.0 68145.0 68145.0
157856.0 158065.0 191841.0 197569.0 235338.0 239436.0 243592.0 248752.0 107286.0 111144.0 260004.0 254085.0 214127.0 221494.0 129355.0 124654.0 206919.0 198830.0 169440.0 173790.0 137038.0 138031.0 274342.0 282208.0 131388.0 123484.0 70579.0 66381.0 248251.0 240714.0 138393.0 132571.0 221301.0 217170.0 184132.0 190332.0 120781.0 113063.0 174784.0 176859.0 62761.0 55209.0 68544.0 61675.0 188019.0 194812.0 223953.0 230795.0 91438.0 99489.0 71170.0 78996.0 112418.0 112272.0 114138.0 111459.0 47500.0 55899.0 174509.0 167466.0 62682.0 69855.0 168775.0 161186.0 180761.0 188406.0 265027.0 259180.0 236634.0 242771.0 71629.0 72212.0 227726.0 223641.0 255314.0 257083.0 207352.0 215328.0 107858.0 100865.0 147948.0 154960.0 7996.0 0.0 67063.0 64480.0 184326.0 185764.0 163045.0 169552.0 215766.0 220664.0 130552.0 137990.0 181971.0 187258.0 42561.0 35043.0 145749.0 147079.0 23940.0 25041.0 203461.0 208348.0 230371.0 223470.0 242902.0 237417.0 241596.0 245351.0 242160.0 235171.0 33908.0 27481.0 154697.0 147631.0 62063.0 57363.0 192423.0 184741.0 96681.0 103039.0 223966.0 228431.0 227158.0 223128.0 194084.0 199930.0 128799.0 120605.0 210118.0 206825.0 188442.0 180966.0 99564.0 92526.0 122282.0 122294.0 117932.0 123137.0 153070.0 161074.0 210513.0 202521.0 233417.0 225430.0 134839.0 140309.0 204737.0 198064.0 234125.0 226897.0 78999.0 71755.0 130730.0 138593.0 109060.0 100581.0 112286.0 120276.0 210164.0 68493.0 210164.0 210164.0 210164.0 210164.0 68493.0 68493.0 68493.0 68493.0
174932.0 178362.0 252875.0 257797.0 234676.0 239326.0 285277.0 289077.0 80262.0 79626.0 271075.0 266457.0 215692.0 223384.0 159567.0 157931.0 245552.0 237736.0 190936.0 192692.0 106350.0 104410.0 278794.0 286523.0 166334.0 160182.0 32708.0 38419.0 254292.0 246337.0 169995.0 166800.0 256445.0 254109.0 212133.0 216321.0 142895.0 135177.0 222307.0 222456.0 65726.0 65027.0 79602.0 79023.0 209472.0 214649.0 259729.0 265450.0 130631.0 137464.0 40827.0 42998.0 134329.0 129874.0 148891.0 149675.0 100857.0 107468.0 193105.0 185067.0 75191.0 76170.0 186149.0 178163.0 194242.0 200588.0 288839.0 284421.0 295181.0 300610.0 85536.0 89488.0 228258.0 223401.0 261089.0 264280.0 241253.0 249092.0 125169.0 121612.0 163707.0 171667.0 61164.0 67063.0 0.0 8101.0 242074.0 242211.0 191889.0 196460.0 277659.0 281835.0 166082.0 171980.0 199262.0 202271.0 71600.0 70555.0 169446.0 173738.0 79946.0 86136.0 249209.0 252627.0 247984.0 242462.0 253754.0 249830.0 241895.0 246434.0 298423.0 292058.0 65785.0 68955.0 182407.0 176998.0 51499.0 44114.0 211534.0 203459.0 132163.0 135041.0 224829.0 230260.0 264519.0 258865.0 229835.0 233953.0 117041.0 109680.0 215358.0 210446.0 226693.0 218853.0 76416.0 73948.0 145771.0 142094.0 136246.0 137782.0 183176.0 190630.0 267273.0 259495.0 237406.0 229925.0 98138.0 104990.0 205971.0 200237.0 252268.0 246087.0 84639.0 82530.0 151806.0 159509.0 145035.0 137552.0 151470.0 157533.0 209336.0 50865.0 209336.0 209336.0 209336.0 209336.0 50865.0 50865.0 50865.0 50865.0
180492.0 183657.0 252893.0 258021.0 240532.0 245182.0 288688.0 292670.0 72997.0 72546.0 276932.0 272313.0 221548.0 229241.0 163759.0 161780.0 249239.0 241364.0 196192.0 198190.0 99269.0 97329.0 284651.0 292379.0 170064.0 163664.0 24935.0 30346.0 260148.0 252194.0 174119.0 170614.0 260573.0 258024.0 216865.0 221270.0 147745.0 139944.0 224740.0 225163.0 57816.0 57412.0 71737.0 71411.0 214819.0 220162.0 263794.0 269658.0 133515.0 140576.0 32890.0 35545.0 139106.0 135002.0 152493.0 152887.0 101394.0 108390.0 198632.0 190639.0 67449.0 68209.0 191747.0 183750.0 200095.0 206428.0 294210.0 289649.0 295847.0 301436.0 90144.0 93881.0 234114.0 229257.0 266945.0 270136.0 245473.0 253353.0 130264.0 126335.0 169307.0 177238.0 57972.0 64480.0 8101.0 0.0 242821.0 243219.0 196438.0 201228.0 277480.0 281856.0 169744.0 175858.0 204930.0 208096.0 64916.0 64434.0 174366.0 178399.0 79499.0 85153.0 251982.0 255612.0 253800.0 248144.0 259610.0 255687.0 247751.0 252290.0 299570.0 293070.0 67343.0 69619.0 187017.0 181405.0 57003.0 49302.0 217098.0 209023.0 135497.0 138797.0 230685.0 236116.0 268413.0 262932.0 233807.0 238135.0 109278.0 101845.0 221214.0 216302.0 230361.0 222534.0 68834.0 66108.0 150517.0 147153.0 141382.0 143263.0 187545.0 195099.0 268271.0 260436.0 243262.0 235781.0 91057.0 97910.0 211828.0 206094.0 258051.0 251763.0 90016.0 87349.0 156837.0 164619.0 148461.0 140782.0 154584.0 160928.0 215192.0 57106.0 215192.0 215192.0 215192.0 215192.0 57106.0 57106.0 57106.0 57106.0
149981.0 141792.0 24648.0 22365.0 244673.0 242490.0 100271.0 108358.0 289912.0 294522.0 209504.0 201395.0 217837.0 220623.0 119918.0 114115.0 92654.0 89174.0 139668.0 147417.0 319271.0 321170.0 243654.0 249812.0 107323.0 106292.0 254388.0 250676.0 220059.0 216970.0 113853.0 108746.0 110975.0 102797.0 122977.0 130510.0 140737.0 142768.0 52931.0 60640.0 242582.0 234550.0 242937.0 234884.0 143411.0 150016.0 109998.0 117296.0 120565.0 117262.0 255483.0 263268.0 143363.0 151892.0 115443.0 109230.0 141428.0 134606.0 148379.0 149819.0 238281.0 246331.0 150615.0 150581.0 163727.0 169806.0 172450.0 164324.0 53141.0 58642.0 171445.0 166682.0 231141.0 233112.0 225564.0 221377.0 109690.0 113183.0 153507.0 149296.0 152534.0 150652.0 192297.0 184326.0 242074.0 242821.0 0.0 7871.0 118446.0 124360.0 45960.0 45856.0 106137.0 107599.0 153563.0 161324.0 217594.0 210437.0 133133.0 125359.0 164080.0 159855.0 63688.0 71472.0 171251.0 163809.0 199767.0 191445.0 241443.0 239571.0 58119.0 50887.0 176440.0 173250.0 121905.0 118036.0 202205.0 205781.0 151364.0 150330.0 123863.0 126953.0 227058.0 225063.0 105988.0 109749.0 99416.0 106923.0 303349.0 295771.0 201255.0 205417.0 89411.0 89866.0 281803.0 274212.0 137403.0 145338.0 149268.0 155909.0 115320.0 116389.0 26537.0 18525.0 218835.0 212204.0 318823.0 323894.0 214115.0 206581.0 171617.0 164861.0 179700.0 175461.0 141106.0 140536.0 115485.0 118526.0 106586.0 106532.0 238750.0 207941.0 238750.0 238750.0 238750.0 238750.0 207941.0 207941.0 207941.0 207941.0
144434.0 136155.0 32023.0 28638.0 238232.0 235903.0 92695.0 100758.0 291922.0 296377.0 201988.0 193883.0 211488.0 214120.0 115583.0 110113.0 84886.0 81541.0 133561.0 141237.0 321393.0 323109.0 236318.0 242420.0 102992.0 102502.0 255475.0 251998.0 212901.0 209930.0 109046.0 104323.0 103143.0 94963.0 116149.0 123563.0 136775.0 139184.0 46124.0 53669.0 244823.0 236794.0 245607.0 237572.0 136695.0 143176.0 102142.0 109430.0 118627.0 114858.0 256827.0 264555.0 139810.0 148341.0 112086.0 106218.0 141932.0 134839.0 142185.0 143900.0 240837.0 248874.0 144657.0 144910.0 157518.0 163436.0 164593.0 156468.0 54019.0 58633.0 169775.0 164992.0 224656.0 226773.0 218340.0 214061.0 102056.0 105437.0 150165.0 146296.0 147412.0 145227.0 193754.0 185764.0 242211.0 243219.0 7871.0 0.0 112410.0 118095.0 51607.0 50515.0 101877.0 102857.0 147176.0 154869.0 220014.0 212758.0 127966.0 120098.0 164968.0 161079.0 55818.0 63600.0 163812.0 156420.0 192438.0 184116.0 234782.0 232786.0 56481.0 49855.0 176455.0 173600.0 116270.0 112731.0 201207.0 205055.0 144613.0 143809.0 121450.0 124067.0 220601.0 218453.0 98117.0 101898.0 92011.0 99433.0 306293.0 298639.0 194735.0 199060.0 82091.0 82839.0 283866.0 276343.0 133371.0 141306.0 145448.0 151877.0 109738.0 110430.0 25062.0 17383.0 211996.0 205457.0 320498.0 325715.0 207970.0 200503.0 164111.0 157415.0 177731.0 173790.0 136667.0 135731.0 112465.0 116004.0 103599.0 102960.0 233058.0 206777.0 233058.0 233058.0 233058.0 233058.0 206777.0 206777.0 206777.0 206777.0
33957.0 25416.0 142375.0 140761.0 126827.0 125316.0 100339.0 102023.0 263473.0 265305.0 108732.0 101237.0 99767.0 103142.0 33806.0 38665.0 59738.0 53548.0 21268.0 29148.0 292421.0 291329.0 135761.0 143006.0 33563.0 41999.0 217097.0 217363.0 109526.0 104608.0 24855.0 31880.0 65814.0 65214.0 21103.0 27654.0 49449.0 56868.0 67177.0 60820.0 224445.0 217440.0 231527.0 224716.0 31013.0 38933.0 69451.0 74279.0 72345.0 64336.0 221975.0 228088.0 57729.0 63372.0 49250.0 53668.0 118514.0 110540.0 30147.0 31576.0 225615.0 232513.0 32274.0 33564.0 45453.0 52090.0 102055.0 96137.0 158416.0 159350.0 106364.0 102557.0 113519.0 114977.0 116051.0 114038.0 50313.0 57831.0 67765.0 70323.0 40809.0 35729.0 169681.0 163045.0 191889.0 196438.0 118446.0 112410.0 0.0 8006.0 164017.0 162513.0 34867.0 26981.0 36237.0 44285.0 205551.0 197927.0 24539.0 18360.0 139456.0 141396.0 78323.0 77117.0 72441.0 64608.0 94123.0 86496.0 124715.0 123800.0 150849.0 148471.0 135518.0 138162.0 9609.0 15469.0 140829.0 147839.0 38475.0 34349.0 66401.0 60205.0 109335.0 108145.0 75455.0 68588.0 41642.0 43443.0 290727.0 282493.0 84009.0 87410.0 43455.0 36989.0 256887.0 251043.0 46303.0 51257.0 57312.0 58859.0 10152.0 2646.0 129699.0 125422.0 103900.0 96501.0 285205.0 292054.0 95688.0 88136.0 75302.0 67541.0 108191.0 109386.0 41849.0 35560.0 54526.0 62924.0 53825.0 45255.0 120994.0 143177.0 120994.0 120994.0 120994.0 120994.0 143177.0 143177.0 143177.0 143177.0
31877.0 23792.0 148505.0 146594.0 120412.0 118599.0 99617.0 100666.0 269008.0 270680.0 100731.0 93248.0 93490.0 96522.0 40218.0 45745.0 59701.0 54305.0 15938.0 23219.0 297804.0 296552.0 127897.0 135109.0 41211.0 49619.0 222296.0 222792.0 101754.0 96971.0 32055.0 39454.0 63407.0 63793.0 15697.0 20785.0 53576.0 61296.0 72369.0 65586.0 230605.0 223691.0 237945.0 231223.0 23022.0 30938.0 67213.0 71337.0 79359.0 71414.0 227361.0 233336.0 62139.0 67041.0 56277.0 61104.0 125536.0 117654.0 24136.0 27254.0 232012.0 238821.0 27674.0 30720.0 39434.0 45512.0 95496.0 89864.0 162759.0 163350.0 111085.0 107460.0 106976.0 108757.0 108231.0 106118.0 47983.0 55035.0 71604.0 74895.0 40494.0 34232.0 176060.0 169552.0 196460.0 201228.0 124360.0 118095.0 8006.0 0.0 169665.0 167883.0 42569.0 34731.0 29358.0 37308.0 212099.0 204508.0 27289.0 22983.0 146094.0 148268.0 80972.0 79010.0 64586.0 56802.0 86133.0 78492.0 117853.0 116698.0 154470.0 152455.0 141379.0 144309.0 14858.0 22139.0 145173.0 152351.0 30566.0 26901.0 73105.0 66525.0 102840.0 101316.0 73746.0 66366.0 41425.0 41693.0 296825.0 288592.0 77257.0 81078.0 45090.0 39568.0 262534.0 256809.0 50713.0 54771.0 60791.0 61344.0 17698.0 10644.0 134474.0 130531.0 96595.0 89325.0 290344.0 297161.0 89912.0 82542.0 67532.0 59799.0 112272.0 113945.0 45100.0 38004.0 61599.0 69907.0 61390.0 52842.0 116316.0 147199.0 116316.0 116316.0 116316.0 116316.0 147199.0 147199.0 147199.0 147199.0
195880.0 187652.0 25501.0 23734.0 289651.0 287165.0 128083.0 136112.0 317559.0 322836.0 250186.0 242142.0 262985.0 265488.0 165592.0 159551.0 131737.0 129852.0 185163.0 192826.0 346150.0 348893.0 285506.0 291292.0 153017.0 151565.0 286327.0 281700.0 262893.0 260309.0 159759.0 154491.0 148385.0 140314.0 167185.0 174353.0 186069.0 187688.0 97463.0 104749.0 269657.0 261718.0 267939.0 259915.0 187867.0 194133.0 146606.0 153058.0 163005.0 160598.0 286371.0 294316.0 188245.0 196744.0 160204.0 153580.0 177115.0 171309.0 193769.0 195498.0 263910.0 271915.0 196260.0 196426.0 209095.0 214935.0 207952.0 199936.0 34815.0 42858.0 212817.0 208137.0 276038.0 278273.0 268070.0 263393.0 150048.0 152209.0 198082.0 193388.0 198490.0 196587.0 223525.0 215766.0 277659.0 277480.0 45960.0 51607.0 164017.0 169665.0 0.0 8088.0 151788.0 153488.0 198671.0 206312.0 244184.0 237610.0 179092.0 171316.0 197982.0 192604.0 101025.0 107936.0 212671.0 205587.0 241768.0 233477.0 285945.0 283741.0 51844.0 44542.0 213113.0 208869.0 167762.0 163987.0 241626.0 244402.0 195720.0 195201.0 167152.0 170995.0 272011.0 269695.0 141133.0 146543.0 141534.0 148447.0 326258.0 319152.0 246096.0 250555.0 132057.0 133623.0 309277.0 301443.0 182809.0 190727.0 194437.0 201279.0 161198.0 162030.0 40799.0 41079.0 262862.0 256500.0 347760.0 352135.0 259559.0 252105.0 212555.0 206264.0 221688.0 216803.0 186817.0 186426.0 159802.0 162051.0 150922.0 151584.0 284593.0 247775.0 284593.0 284593.0 284593.0 284593.0 247775.0 247775.0 247775.0 247775.0
194869.0 186550.0 28965.0 24880.0 287435.0 284737.0 122015.0 129977.0 323215.0 328395.0 246123.0 238114.0 260928.0 263211.0 165741.0 159971.0 127660.0 126211.0 183533.0 191094.0 351943.0 354564.0 281773.0 287424.0 153143.0 152134.0 291243.0 286774.0 259560.0 257196.0 159479.0 154542.0 143808.0 135811.0 164684.0 171646.0 186590.0 188543.0 95516.0 102528.0 275344.0 267381.0 273914.0 265874.0 185447.0 191512.0 141868.0 148110.0 165074.0 162298.0 291473.0 299400.0 189128.0 197650.0 161155.0 154772.0 181092.0 175045.0 192019.0 194072.0 269794.0 277816.0 194787.0 195279.0 207299.0 212921.0 202738.0 194767.0 26743.0 34774.0 215347.0 210632.0 273774.0 276214.0 264600.0 259747.0 146192.0 147989.0 199173.0 194756.0 197925.0 195707.0 228476.0 220664.0 281835.0 281856.0 45856.0 50515.0 162513.0 167883.0 8088.0 0.0 151970.0 153259.0 196668.0 204203.0 249904.0 243235.0 178480.0 170611.0 202382.0 197213.0 96864.0 103502.0 208916.0 201968.0 238151.0 229886.0 283407.0 281013.0 43951.0 36825.0 216952.0 212937.0 166681.0 163241.0 244800.0 247801.0 193227.0 193029.0 168882.0 172371.0 269793.0 267256.0 136137.0 141844.0 138268.0 144948.0 332561.0 325391.0 243824.0 248503.0 129033.0 131040.0 314951.0 307144.0 183259.0 191194.0 195101.0 201765.0 160178.0 160614.0 36042.0 37756.0 260080.0 253872.0 353243.0 357730.0 257780.0 250420.0 208647.0 202519.0 224008.0 219348.0 186907.0 186171.0 161019.0 163668.0 152119.0 152328.0 283373.0 250835.0 283373.0 283373.0 283373.0 283373.0 250835.0 250835.0 250835.0 250835.0
50408.0 44278.0 127715.0 128060.0 150338.0 150323.0 119325.0 122996.0 233713.0 236079.0 142616.0 135336.0 123346.0 128185.0 13809.0 9113.0 79498.0 71655.0 49731.0 57061.0 263076.0 262534.0 167353.0 174854.0 1610.0 7250.0 188726.0 188173.0 140591.0 134846.0 11801.0 3638.0 91633.0 88468.0 55060.0 62337.0 35170.0 38881.0 64030.0 61182.0 192779.0 185517.0 199066.0 192013.0 64825.0 72661.0 94609.0 100986.0 39115.0 31077.0 192911.0 199476.0 39635.0 47914.0 17275.0 19296.0 84738.0 76558.0 58081.0 54952.0 193228.0 200371.0 56199.0 52360.0 71308.0 79244.0 135891.0 129546.0 153677.0 156356.0 81787.0 77343.0 137939.0 137849.0 147409.0 146254.0 77126.0 85116.0 50690.0 49195.0 49038.0 49762.0 137553.0 130552.0 166082.0 169744.0 106137.0 101877.0 34867.0 42569.0 151788.0 151970.0 0.0 7905.0 65720.0 73412.0 172781.0 165084.0 31416.0 26028.0 106687.0 107927.0 86259.0 88270.0 107130.0 99369.0 127297.0 120025.0 150461.0 150787.0 150017.0 145900.0 105488.0 107053.0 29283.0 21588.0 116760.0 122924.0 71538.0 65743.0 34751.0 31065.0 133634.0 134053.0 98805.0 93759.0 64489.0 69687.0 259091.0 250867.0 110241.0 111676.0 60624.0 52792.0 226771.0 220551.0 31650.0 39549.0 44110.0 50088.0 24872.0 32440.0 123656.0 117686.0 132283.0 124369.0 256973.0 263660.0 117227.0 109243.0 110100.0 102360.0 86374.0 85395.0 35046.0 35615.0 21773.0 30134.0 19087.0 10548.0 137159.0 120399.0 137159.0 137159.0 137159.0 137159.0 120399.0 120399.0 120399.0 120399.0
45245.0 38407.0 129911.0 129766.0 144958.0 144627.0 113991.0 117309.0 240588.0 242835.0 135010.0 127676.0 117855.0 122412.0 14367.0 14083.0 73695.0 66023.0 42668.0 50216.0 269871.0 269206.0 160278.0 167728.0 6723.0 15120.0 195255.0 194891.0 133602.0 128021.0 6326.0 5435.0 84936.0 82166.0 47184.0 54432.0 36494.0 41544.0 62607.0 58856.0 200063.0 192855.0 206528.0 199525.0 57157.0 65026.0 88037.0 94196.0 46594.0 38526.0 199604.0 206069.0 42363.0 50183.0 24044.0 27064.0 92442.0 84305.0 51250.0 48763.0 200672.0 207764.0 49954.0 46857.0 65002.0 72791.0 128079.0 121788.0 153590.0 155875.0 87100.0 82794.0 132329.0 132562.0 140365.0 139024.0 70176.0 78152.0 53501.0 53132.0 45429.0 45020.0 144911.0 137990.0 171980.0 175858.0 107599.0 102857.0 26981.0 34731.0 153488.0 153259.0 7905.0 0.0 58746.0 66564.0 180302.0 172617.0 26609.0 20020.0 114171.0 115575.0 82805.0 84187.0 99314.0 91530.0 119843.0 112487.0 144609.0 144675.0 149012.0 145273.0 112301.0 114136.0 21878.0 14426.0 122118.0 128512.0 64016.0 58466.0 41699.0 37104.0 128035.0 128123.0 92561.0 87179.0 57973.0 62749.0 266390.0 258162.0 104155.0 105990.0 54927.0 47092.0 233723.0 227585.0 32837.0 40378.0 45594.0 50605.0 17052.0 24540.0 123713.0 118108.0 125837.0 118007.0 263481.0 270242.0 112124.0 104180.0 102249.0 94501.0 90999.0 90579.0 34155.0 32939.0 28953.0 37419.0 26973.0 18410.0 133236.0 125451.0 133236.0 133236.0 133236.0 133236.0 125451.0 125451.0 125451.0 125451.0
24642.0 24257.0 177789.0 175739.0 91118.0 89242.0 117715.0 116974.0 275524.0 276422.0 79115.0 72584.0 64315.0 67169.0 58077.0 65572.0 81185.0 77680.0 16095.0 8818.0 303420.0 301543.0 101638.0 109162.0 64148.0 71829.0 227611.0 229174.0 74879.0 69305.0 53946.0 62143.0 78646.0 81741.0 33796.0 29859.0 61192.0 68970.0 101226.0 94151.0 240544.0 234163.0 249197.0 243017.0 15059.0 16293.0 82648.0 84276.0 96695.0 89457.0 233495.0 238772.0 69649.0 71193.0 74984.0 81609.0 141558.0 134378.0 7877.0 14606.0 243198.0 249476.0 13366.0 21310.0 11809.0 16264.0 90261.0 86774.0 190395.0 190501.0 116503.0 113794.0 77639.0 79603.0 81689.0 80719.0 65017.0 69913.0 75931.0 81777.0 35658.0 27823.0 187711.0 181971.0 199262.0 204930.0 153563.0 147176.0 36237.0 29358.0 198671.0 196668.0 65720.0 58746.0 0.0 8061.0 224272.0 216934.0 37814.0 40118.0 159583.0 163021.0 106707.0 103508.0 49142.0 43214.0 62750.0 56240.0 88534.0 87567.0 181075.0 179621.0 151011.0 155278.0 37059.0 44324.0 147932.0 155656.0 12777.0 5523.0 89197.0 81283.0 73521.0 71981.0 90265.0 81911.0 63979.0 61003.0 306006.0 297825.0 47900.0 51886.0 70452.0 66466.0 269643.0 264548.0 59795.0 59989.0 64998.0 61819.0 43067.0 38699.0 162720.0 159132.0 67807.0 60303.0 295271.0 302124.0 61349.0 54351.0 53260.0 46834.0 114982.0 118569.0 51243.0 43395.0 80165.0 87546.0 82644.0 74672.0 89706.0 148561.0 89706.0 89706.0 89706.0 89706.0 148561.0 148561.0 148561.0 148561.0
29407.0 30807.0 185604.0 183459.0 83364.0 81317.0 122312.0 121112.0 279223.0 279928.0 72989.0 66837.0 56728.0 59314.0 65237.0 72880.0 86969.0 83945.0 24024.0 16358.0 306852.0 304922.0 94068.0 101654.0 71828.0 79375.0 231112.0 232934.0 67220.0 61461.0 61615.0 69813.0 82993.0 86683.0 40424.0 35411.0 66624.0 74218.0 108849.0 101677.0 245127.0 238882.0 254068.0 248023.0 20182.0 18113.0 86971.0 87959.0 103351.0 96284.0 237185.0 242277.0 74848.0 75643.0 82040.0 88866.0 147733.0 140717.0 15333.0 20211.0 248064.0 254209.0 18852.0 26090.0 8746.0 9037.0 88942.0 86136.0 197488.0 197428.0 120568.0 118096.0 69819.0 72012.0 74096.0 73442.0 70073.0 74359.0 80314.0 86607.0 39672.0 32319.0 192813.0 187258.0 202271.0 208096.0 161324.0 154869.0 44285.0 37308.0 206312.0 204203.0 73412.0 66564.0 8061.0 0.0 229400.0 222134.0 44652.0 47611.0 165175.0 168864.0 113368.0 109855.0 45805.0 40876.0 56243.0 50226.0 80545.0 79515.0 187832.0 186563.0 155804.0 160346.0 44987.0 52139.0 151117.0 158931.0 14648.0 11261.0 95702.0 87642.0 65738.0 64010.0 94739.0 86274.0 70246.0 66650.0 310306.0 302149.0 39985.0 44309.0 77244.0 73641.0 273496.0 268563.0 65544.0 64976.0 69620.0 65687.0 51072.0 46755.0 170053.0 166606.0 59757.0 52243.0 298650.0 305503.0 54290.0 47611.0 50151.0 44493.0 118414.0 122428.0 56726.0 49103.0 87152.0 94324.0 89997.0 82153.0 83699.0 151405.0 83699.0 83699.0 83699.0 83699.0 151405.0 151405.0 151405.0 151405.0
200027.0 200464.0 221755.0 228269.0 273769.0 278356.0 283841.0 289312.0 73415.0 78967.0 301956.0 296174.0 253787.0 261304.0 171893.0 167089.0 248119.0 240034.0 211928.0 216166.0 102077.0 104720.0 315110.0 322958.0 173664.0 165658.0 54664.0 46836.0 289324.0 281670.0 180854.0 174897.0 263012.0 258616.0 226626.0 232876.0 163092.0 155307.0 213889.0 216590.0 25501.0 17690.0 26625.0 19238.0 230539.0 237289.0 265554.0 272533.0 133708.0 141776.0 50080.0 57474.0 154640.0 154059.0 156546.0 153591.0 88629.0 97044.0 216869.0 209730.0 21170.0 29054.0 211027.0 203368.0 222718.0 230250.0 307561.0 301675.0 268367.0 275049.0 111481.0 112791.0 266971.0 262450.0 296350.0 298419.0 249298.0 257255.0 149537.0 142829.0 189928.0 197081.0 36588.0 42561.0 71600.0 64916.0 217594.0 220014.0 205551.0 212099.0 244184.0 249904.0 172781.0 180302.0 224272.0 229400.0 0.0 7751.0 188258.0 189640.0 66146.0 65290.0 242833.0 248141.0 272813.0 265960.0 284782.0 279470.0 280750.0 284895.0 275705.0 268326.0 74095.0 69056.0 197246.0 190153.0 93181.0 86271.0 234863.0 227140.0 139159.0 145595.0 263359.0 268240.0 268473.0 264741.0 235853.0 241896.0 87943.0 79904.0 250862.0 247137.0 229846.0 222489.0 65112.0 57260.0 164689.0 164432.0 159876.0 164715.0 195552.0 203557.0 244111.0 236082.0 273941.0 266058.0 104152.0 108085.0 244231.0 237884.0 276597.0 269399.0 117369.0 110896.0 173038.0 180939.0 151420.0 142940.0 154293.0 162421.0 248445.0 97988.0 248445.0 248445.0 248445.0 248445.0 97988.0 97988.0 97988.0 97988.0
192745.0 193073.0 214976.0 221406.0 267556.0 272027.0 276118.0 281576.0 79983.0 85255.0 294772.0 288935.0 247265.0 254747.0 164295.0 159437.0 240368.0 232283.0 204479.0 208789.0 108962.0 111336.0 308308.0 316162.0 165974.0 157953.0 57164.0 49846.0 282428.0 274807.0 173211.0 167216.0 255267.0 250865.0 218995.0 225280.0 155744.0 147988.0 206218.0 208885.0 32199.0 24186.0 34366.0 26969.0 223062.0 229849.0 257806.0 264789.0 126023.0 134092.0 53568.0 61277.0 147330.0 146906.0 148887.0 145883.0 80883.0 89297.0 209501.0 202409.0 28846.0 36644.0 203711.0 196082.0 215523.0 223097.0 299952.0 294041.0 261416.0 268040.0 104773.0 105924.0 260558.0 256141.0 289467.0 291445.0 241565.0 249521.0 142416.0 135613.0 182719.0 189819.0 29453.0 35043.0 70555.0 64434.0 210437.0 212758.0 197927.0 204508.0 237610.0 243235.0 165084.0 172617.0 216934.0 222134.0 7751.0 0.0 180791.0 182091.0 58488.0 57541.0 235151.0 240436.0 265398.0 258511.0 277623.0 272244.0 274365.0 278414.0 268555.0 261215.0 67183.0 61855.0 189658.0 182541.0 87963.0 81340.0 227449.0 219751.0 131528.0 138022.0 256908.0 261685.0 260722.0 256993.0 228111.0 234166.0 95641.0 87582.0 244052.0 240444.0 222096.0 214740.0 71733.0 63976.0 157292.0 157158.0 152673.0 157633.0 187916.0 195921.0 236938.0 228908.0 267199.0 259285.0 110307.0 114526.0 237746.0 231315.0 269162.0 261940.0 110986.0 104336.0 165693.0 173576.0 143750.0 135270.0 146572.0 154713.0 242216.0 93095.0 242216.0 242216.0 242216.0 242216.0 93095.0 93095.0 93095.0 93095.0
19002.0 13899.0 155940.0 155431.0 118925.0 118992.0 124828.0 126561.0 242910.0 244366.0 116880.0 110203.0 91954.0 96909.0 20841.0 28763.0 84131.0 77674.0 23735.0 29071.0 271483.0 270041.0 138410.0 146077.0 29823.0 36119.0 195810.0 196591.0 111469.0 105231.0 20395.0 27840.0 90116.0 89740.0 42959.0 46904.0 26648.0 34546.0 85210.0 80055.0 205704.0 199018.0 213669.0 207213.0 42290.0 49116.0 93817.0 98348.0 58884.0 51668.0 201097.0 206896.0 35361.0 39783.0 37427.0 44487.0 104023.0 96700.0 29955.0 24789.0 207694.0 214258.0 26131.0 21125.0 40995.0 49142.0 120712.0 115646.0 177111.0 178780.0 84300.0 80869.0 106577.0 106434.0 118442.0 118071.0 74610.0 81948.0 44387.0 48149.0 19458.0 18449.0 151859.0 145749.0 169446.0 174366.0 133133.0 127966.0 24539.0 27289.0 179092.0 178480.0 31416.0 26609.0 37814.0 44652.0 188258.0 180791.0 0.0 8078.0 122852.0 125871.0 100635.0 100249.0 84747.0 77732.0 100560.0 94003.0 119218.0 119775.0 171072.0 168003.0 116101.0 119655.0 15340.0 15440.0 118066.0 125334.0 46900.0 39558.0 51451.0 43692.0 102270.0 102887.0 99953.0 92958.0 66134.0 67886.0 271692.0 263472.0 79278.0 80366.0 67206.0 60182.0 236611.0 231089.0 24149.0 27504.0 33509.0 34374.0 20035.0 24384.0 147605.0 142504.0 101796.0 93760.0 263782.0 270635.0 85830.0 77854.0 88416.0 81149.0 85079.0 87018.0 17813.0 11022.0 42504.0 49740.0 45831.0 38517.0 106667.0 119965.0 106667.0 106667.0 106667.0 106667.0 119965.0 119965.0 119965.0 119965.0
25389.0 18403.0 148326.0 147682.0 124940.0 124628.0 117924.0 119944.0 246025.0 247702.0 118330.0 111347.0 97835.0 102427.0 18535.0 25570.0 77114.0 70427.0 24509.0 31342.0 274826.0 273594.0 141673.0 149237.0 24423.0 31765.0 199340.0 199809.0 114830.0 108943.0 14296.0 22393.0 84125.0 83266.0 38494.0 43606.0 31099.0 38598.0 77146.0 71978.0 207814.0 200962.0 215344.0 208712.0 41664.0 49095.0 87727.0 92636.0 58055.0 50388.0 204381.0 210372.0 39454.0 45020.0 35448.0 41624.0 103961.0 96325.0 32337.0 28938.0 209396.0 216129.0 30176.0 26855.0 45283.0 53221.0 118212.0 112743.0 169055.0 170705.0 88265.0 84564.0 112317.0 112555.0 121704.0 120836.0 68636.0 76187.0 49405.0 52126.0 27438.0 25504.0 153455.0 147079.0 173738.0 178399.0 125359.0 120098.0 18360.0 22983.0 171316.0 170611.0 26028.0 20020.0 40118.0 47611.0 189640.0 182091.0 8078.0 0.0 123807.0 126336.0 92751.0 92536.0 84568.0 77196.0 102476.0 95528.0 124650.0 124832.0 162996.0 159926.0 118472.0 121545.0 8753.0 7401.0 122581.0 129655.0 47387.0 40788.0 51208.0 44114.0 108021.0 108189.0 93577.0 86862.0 59338.0 61684.0 273987.0 265756.0 84289.0 85984.0 59789.0 52598.0 239560.0 233856.0 28009.0 32950.0 39000.0 41004.0 12156.0 17608.0 139577.0 134523.0 106255.0 98345.0 267401.0 274229.0 92160.0 84234.0 87977.0 80471.0 89866.0 91210.0 23702.0 18274.0 40756.0 48654.0 42557.0 34560.0 113965.0 124850.0 113965.0 113965.0 113965.0 113965.0 124850.0 124850.0 124850.0 124850.0
135791.0 135495.0 173423.0 178654.0 217522.0 221117.0 219924.0 224994.0 130329.0 133802.0 238115.0 231987.0 195156.0 202327.0 105876.0 100949.0 183033.0 174945.0 146585.0 151249.0 160087.0 160702.0 253949.0 261820.0 107547.0 99596.0 90576.0 87564.0 227557.0 220181.0 114725.0 108762.0 197361.0 193247.0 160515.0 166853.0 98550.0 91033.0 151612.0 153429.0 86635.0 79135.0 92381.0 85358.0 165022.0 171967.0 200016.0 206855.0 67587.0 75649.0 92430.0 99974.0 90444.0 91179.0 90401.0 87555.0 24044.0 32296.0 152004.0 145189.0 86555.0 93785.0 146517.0 139090.0 159014.0 166818.0 241497.0 235558.0 216894.0 222713.0 54855.0 54180.0 209128.0 205509.0 234649.0 236044.0 183423.0 191398.0 87005.0 79547.0 126276.0 133001.0 31341.0 23940.0 79946.0 79499.0 164080.0 164968.0 139456.0 146094.0 197982.0 202382.0 106687.0 114171.0 159583.0 165175.0 66146.0 58488.0 122852.0 123807.0 0.0 8078.0 180128.0 184854.0 207592.0 200559.0 221145.0 215400.0 223032.0 226370.0 221448.0 214690.0 22372.0 14598.0 131257.0 124087.0 57329.0 55609.0 169690.0 162123.0 73055.0 79695.0 205232.0 209236.0 203250.0 199192.0 170144.0 176003.0 152736.0 144539.0 189936.0 187163.0 164528.0 157038.0 122787.0 115945.0 99787.0 100443.0 96495.0 102302.0 129433.0 137439.0 189920.0 181994.0 213413.0 205330.0 156887.0 162699.0 185994.0 179003.0 211263.0 203945.0 63979.0 56086.0 108461.0 116207.0 85276.0 76795.0 88356.0 96377.0 192960.0 64459.0 192960.0 192960.0 192960.0 192960.0 64459.0 64459.0 64459.0 64459.0
139568.0 138822.0 168290.0 173749.0 223369.0 226773.0 219028.0 224326.0 132321.0 136174.0 241853.0 235566.0 200584.0 207660.0 108132.0 102743.0 182873.0 174785.0 149583.0 154561.0 162068.0 163065.0 258627.0 266493.0 108885.0 100741.0 94548.0 90923.0 232095.0 224819.0 116559.0 110216.0 197734.0 193330.0 162355.0 168949.0 102338.0 95033.0 149867.0 152087.0 87282.0 79539.0 91854.0 84499.0 167816.0 174924.0 200265.0 207258.0 69093.0 77147.0 95757.0 103476.0 94495.0 95848.0 92155.0 88653.0 23354.0 31757.0 155351.0 148761.0 86183.0 93702.0 150102.0 142832.0 162978.0 170880.0 243415.0 237296.0 212419.0 218412.0 61685.0 60636.0 214690.0 211256.0 239195.0 240367.0 184096.0 192041.0 91850.0 84155.0 130387.0 136872.0 32994.0 25041.0 86136.0 85153.0 159855.0 161079.0 141396.0 148268.0 192604.0 197213.0 107927.0 115575.0 163021.0 168864.0 65290.0 57541.0 125871.0 126336.0 8078.0 0.0 178611.0 183610.0 210568.0 203396.0 225001.0 219063.0 228589.0 231752.0 217529.0 210628.0 30444.0 22661.0 133497.0 126159.0 65403.0 63584.0 172770.0 165336.0 75201.0 82323.0 210744.0 214547.0 203206.0 199452.0 170590.0 176708.0 152836.0 144693.0 194806.0 192296.0 164562.0 157199.0 124575.0 117480.0 103326.0 104532.0 100906.0 107065.0 131296.0 139286.0 185915.0 177946.0 218338.0 210219.0 159764.0 165308.0 191532.0 184420.0 214143.0 206731.0 71136.0 63179.0 112166.0 119773.0 86916.0 78480.0 89222.0 97475.0 199086.0 72531.0 199086.0 199086.0 199086.0 199086.0 72531.0 72531.0 72531.0 72531.0
112185.0 103689.0 86988.0 81732.0 194738.0 191175.0 42977.0 50055.0 310455.0 313801.0 149263.0 141250.0 169263.0 170478.0 97150.0 95314.0 30798.0 30251.0 96718.0 103150.0 340209.0 340668.0 185014.0 190585.0 86562.0 90724.0 268597.0 266778.0 163380.0 161523.0 87389.0 86858.0 47741.0 39572.0 72976.0 78511.0 119073.0 124340.0 29028.0 26868.0 265845.0 258030.0 269391.0 261649.0 93419.0 98283.0 46449.0 53625.0 118579.0 111913.0 271633.0 278801.0 125153.0 132960.0 102242.0 99981.0 156111.0 147839.0 103899.0 108180.0 263993.0 271762.0 108511.0 111472.0 118271.0 122395.0 108846.0 100725.0 85252.0 84412.0 167138.0 162519.0 180991.0 184350.0 168166.0 163084.0 49476.0 51186.0 136297.0 135428.0 118824.0 114051.0 211245.0 203461.0 249209.0 251982.0 63688.0 55818.0 78323.0 80972.0 101025.0 96864.0 86259.0 82805.0 106707.0 113368.0 242833.0 235151.0 100635.0 92751.0 180128.0 178611.0 0.0 7913.0 112189.0 105425.0 141546.0 133328.0 189432.0 186373.0 74488.0 73643.0 185209.0 184758.0 85778.0 85898.0 201751.0 207356.0 100589.0 102171.0 117590.0 116320.0 177253.0 173787.0 42334.0 46255.0 43516.0 49068.0 330773.0 322732.0 151347.0 157044.0 36298.0 41469.0 302901.0 295971.0 115415.0 122603.0 128130.0 132299.0 80619.0 77385.0 60859.0 60069.0 165378.0 159772.0 336316.0 342445.0 167631.0 160941.0 111810.0 105811.0 172441.0 170905.0 114955.0 110921.0 105206.0 112027.0 97987.0 92875.0 196277.0 205896.0 196277.0 196277.0 196277.0 196277.0 205896.0 205896.0 205896.0 205896.0
110648.0 102247.0 94577.0 89142.0 190291.0 186478.0 36315.0 42992.0 315113.0 318321.0 142736.0 134767.0 165186.0 166093.0 98413.0 97208.0 24747.0 25923.0 94482.0 100534.0 344845.0 345154.0 178804.0 184229.0 88433.0 93203.0 272710.0 271096.0 157670.0 156090.0 88354.0 88551.0 40478.0 32380.0 69720.0 74626.0 120026.0 125665.0 35117.0 31551.0 270891.0 263121.0 274734.0 267044.0 89741.0 94134.0 38942.0 45947.0 122098.0 115166.0 275941.0 283022.0 126496.0 134081.0 104725.0 103028.0 160895.0 152563.0 101229.0 105997.0 269281.0 277002.0 106234.0 109708.0 115205.0 118892.0 101212.0 93098.0 90593.0 89195.0 169750.0 165193.0 176558.0 180166.0 162280.0 157005.0 43680.0 44572.0 137609.0 137204.0 117891.0 112696.0 216074.0 208348.0 252627.0 255612.0 71472.0 63600.0 77117.0 79010.0 107936.0 103502.0 88270.0 84187.0 103508.0 109855.0 248141.0 240436.0 100249.0 92536.0 184854.0 183610.0 7913.0 0.0 106102.0 99560.0 135551.0 127389.0 184606.0 181322.0 78746.0 78584.0 189152.0 188992.0 85121.0 85957.0 204549.0 210353.0 96628.0 98763.0 120622.0 118833.0 172902.0 169166.0 34516.0 38799.0 39609.0 44204.0 336077.0 328006.0 147112.0 153074.0 33922.0 40180.0 307633.0 300786.0 116389.0 123339.0 129010.0 132756.0 80385.0 76434.0 67461.0 67166.0 160352.0 154981.0 340601.0 346829.0 163954.0 157461.0 105521.0 99762.0 174643.0 173452.0 115309.0 110802.0 107997.0 115139.0 101167.0 95548.0 193212.0 208479.0 193212.0 193212.0 193212.0 193212.0 208479.0 208479.0 208479.0 208479.0
73784.0 72381.0 195823.0 191865.0 92730.0 86906.0 104104.0 100042.0 324634.0 325473.0 38659.0 30590.0 73606.0 70951.0 103076.0 109576.0 81461.0 82823.0 61013.0 56768.0 352443.0 350536.0 72858.0 78669.0 105744.0 114114.0 276656.0 278294.0 52250.0 52150.0 96259.0 103942.0 67971.0 75023.0 54803.0 46460.0 109847.0 117734.0 119321.0 111358.0 289527.0 283065.0 297975.0 291674.0 42906.0 35645.0 71080.0 67826.0 142622.0 134909.0 282600.0 287819.0 118447.0 120317.0 119857.0 125341.0 188454.0 180883.0 56131.0 63709.0 291983.0 298363.0 62498.0 70450.0 54144.0 49080.0 45521.0 44899.0 196538.0 194603.0 165645.0 162921.0 80004.0 85856.0 56327.0 50909.0 62735.0 61829.0 125062.0 130763.0 84738.0 76958.0 236318.0 230371.0 247984.0 253800.0 171251.0 163812.0 72441.0 64586.0 212671.0 208916.0 107130.0 99314.0 49142.0 45805.0 272813.0 265398.0 84747.0 84568.0 207592.0 210568.0 112189.0 106102.0 0.0 8042.0 29490.0 21493.0 84053.0 79175.0 183517.0 184246.0 199919.0 203959.0 78375.0 86119.0 196802.0 204580.0 37951.0 45742.0 135688.0 128265.0 77480.0 71317.0 78635.0 70760.0 71841.0 64413.0 355098.0 346911.0 56453.0 64679.0 81951.0 82777.0 318778.0 313689.0 108129.0 108960.0 114093.0 110914.0 82267.0 74993.0 172996.0 171598.0 59345.0 56662.0 344264.0 351117.0 77378.0 74554.0 4510.0 6409.0 163971.0 167692.0 99937.0 91977.0 125195.0 133211.0 125800.0 117299.0 109849.0 197172.0 109849.0 109849.0 109849.0 109849.0 197172.0 197172.0 197172.0 197172.0
67740.0 65745.0 188411.0 184577.0 96025.0 90681.0 99607.0 96038.0 318621.0 319585.0 46542.0 38513.0 75219.0 73356.0 95657.0 102019.0 74833.0 75767.0 54032.0 50341.0 346599.0 344738.0 79962.0 86004.0 98001.0 106391.0 270781.0 272256.0 58162.0 57200.0 88609.0 96219.0 62378.0 69068.0 46765.0 38431.0 103214.0 111141.0 111684.0 103730.0 282980.0 276441.0 291253.0 284876.0 35581.0 28690.0 65697.0 63135.0 135213.0 127448.0 276606.0 281940.0 111873.0 114090.0 112361.0 117709.0 181151.0 173514.0 49782.0 57599.0 285267.0 291721.0 56448.0 64445.0 49496.0 45373.0 48315.0 46348.0 190125.0 188394.0 159512.0 156663.0 82904.0 88295.0 62746.0 57806.0 55964.0 55705.0 118851.0 124315.0 78855.0 70967.0 229514.0 223470.0 242462.0 248144.0 163809.0 156420.0 64608.0 56802.0 205587.0 201968.0 99369.0 91530.0 43214.0 40876.0 265960.0 258511.0 77732.0 77196.0 200559.0 203396.0 105425.0 99560.0 8042.0 0.0 36187.0 27920.0 88089.0 83686.0 177450.0 177949.0 193334.0 197216.0 70774.0 78490.0 191146.0 198868.0 31337.0 39330.0 128385.0 121073.0 80062.0 74442.0 73432.0 65308.0 64409.0 57164.0 348694.0 340495.0 57390.0 65362.0 74423.0 75005.0 312668.0 307478.0 101361.0 102536.0 107810.0 104988.0 74497.0 67141.0 166123.0 164537.0 63281.0 59679.0 338466.0 345319.0 78026.0 74427.0 10790.0 3633.0 158187.0 161669.0 93353.0 85370.0 117703.0 125783.0 118114.0 109593.0 109735.0 191730.0 109735.0 109735.0 109735.0 109735.0 191730.0 191730.0 191730.0 191730.0
85432.0 86879.0 224395.0 220675.0 68903.0 61955.0 132656.0 128099.0 331585.0 331771.0 17342.0 13869.0 56137.0 51019.0 120721.0 128044.0 110873.0 111953.0 77971.0 71534.0 358510.0 356570.0 43887.0 50258.0 125784.0 133815.0 283145.0 285618.0 23386.0 25370.0 115737.0 123837.0 97359.0 104496.0 79788.0 71450.0 122672.0 130113.0 147366.0 139446.0 299583.0 293601.0 309022.0 303203.0 63111.0 55196.0 100378.0 96724.0 159428.0 152206.0 289674.0 294266.0 130703.0 130725.0 137667.0 144100.0 203975.0 196948.0 70622.0 76449.0 303020.0 308924.0 75091.0 82177.0 62156.0 54532.0 62862.0 65601.0 226022.0 224090.0 174592.0 172557.0 57865.0 64844.0 26864.0 21636.0 92070.0 91320.0 135254.0 142040.0 94961.0 88156.0 248213.0 242902.0 253754.0 259610.0 199767.0 192438.0 94123.0 86133.0 241768.0 238151.0 127297.0 119843.0 62750.0 56243.0 284782.0 277623.0 100560.0 102476.0 221145.0 225001.0 141546.0 135551.0 29490.0 36187.0 0.0 8322.0 58504.0 52582.0 212984.0 213737.0 210852.0 215768.0 98023.0 105716.0 202911.0 210872.0 55853.0 61711.0 151868.0 143859.0 56489.0 49012.0 107819.0 100089.0 100463.0 93329.0 364054.0 355962.0 43578.0 51467.0 110358.0 110439.0 326272.0 321747.0 121732.0 120722.0 124973.0 120149.0 103083.0 96768.0 202290.0 200722.0 35402.0 36164.0 350298.0 357151.0 62932.0 63128.0 30752.0 35792.0 171191.0 176043.0 112837.0 105312.0 142879.0 150296.0 144989.0 136801.0 96105.0 202888.0 96105.0 96105.0 96105.0 96105.0 202888.0 202888.0 202888.0 202888.0
79617.0 80487.0 216073.0 212359.0 73830.0 67344.0 125259.0 120919.0 327534.0 327887.0 22878.0 16755.0 58344.0 54123.0 113897.0 121087.0 102689.0 103679.0 71035.0 64933.0 354622.0 352721.0 52209.0 58542.0 118530.0 126642.0 279170.0 281435.0 30795.0 31382.0 108555.0 116604.0 89463.0 96495.0 71678.0 63316.0 116850.0 124421.0 139052.0 131131.0 294739.0 288636.0 303947.0 298009.0 55505.0 47582.0 92556.0 89138.0 152877.0 145539.0 285558.0 290313.0 125041.0 125481.0 130863.0 137128.0 197771.0 190617.0 64061.0 70307.0 297943.0 303966.0 68963.0 76311.0 56800.0 49580.0 58587.0 60462.0 217903.0 216042.0 169837.0 167632.0 61981.0 68560.0 34900.0 29951.0 83856.0 83260.0 130080.0 136641.0 89546.0 82464.0 242883.0 237417.0 249830.0 255687.0 191445.0 184116.0 86496.0 78492.0 233477.0 229886.0 120025.0 112487.0 56240.0 50226.0 279470.0 272244.0 94003.0 95528.0 215400.0 219063.0 133328.0 127389.0 21493.0 27920.0 8322.0 0.0 64153.0 58717.0 204987.0 205657.0 205697.0 210416.0 90743.0 98477.0 198919.0 206850.0 48486.0 54754.0 145429.0 137521.0 60108.0 53097.0 100077.0 92243.0 92146.0 85032.0 359523.0 351403.0 43753.0 51995.0 102036.0 102136.0 322081.0 317411.0 115738.0 115126.0 119596.0 115128.0 95627.0 89136.0 194042.0 192436.0 40038.0 39195.0 346449.0 353302.0 64129.0 63278.0 23237.0 27689.0 166848.0 171436.0 106950.0 99290.0 136113.0 143668.0 137937.0 129673.0 97414.0 198964.0 97414.0 97414.0 97414.0 97414.0 198964.0 198964.0 198964.0 198964.0
100286.0 106255.0 265860.0 263419.0 12504.0 4241.0 187695.0 183978.0 319745.0 319954.0 65974.0 69071.0 28321.0 22332.0 139588.0 147635.0 160114.0 159188.0 103803.0 95817.0 346729.0 344789.0 45599.0 51655.0 148853.0 155308.0 271287.0 274003.0 37128.0 33135.0 138909.0 146835.0 150012.0 156135.0 118764.0 111801.0 131819.0 137290.0 188658.0 181219.0 291188.0 286282.0 302341.0 297696.0 98096.0 91901.0 153502.0 151223.0 172375.0 166835.0 277924.0 282410.0 137556.0 133932.0 154821.0 162578.0 211028.0 205594.0 94786.0 95891.0 296481.0 301228.0 94745.0 98127.0 79916.0 72686.0 121220.0 124098.0 274649.0 273738.0 169980.0 169517.0 13903.0 18831.0 38813.0 46609.0 141359.0 142692.0 137397.0 145461.0 104705.0 101452.0 245337.0 241596.0 241895.0 247751.0 241443.0 234782.0 124715.0 117853.0 285945.0 283407.0 150461.0 144609.0 88534.0 80545.0 280750.0 274365.0 119218.0 124650.0 223032.0 228589.0 189432.0 184606.0 84053.0 88089.0 58504.0 64153.0 0.0 7456.0 263331.0 263034.0 207777.0 214246.0 124195.0 130549.0 191159.0 199150.0 90224.0 91250.0 164192.0 155789.0 17902.0 16582.0 161333.0 153057.0 146076.0 140464.0 353323.0 345388.0 40743.0 38906.0 154655.0 152378.0 314602.0 310440.0 132540.0 128113.0 129970.0 122739.0 130652.0 127119.0 248499.0 245662.0 24808.0 29663.0 338517.0 345370.0 37057.0 44365.0 86815.0 89312.0 163392.0 170102.0 123757.0 118459.0 159223.0 164661.0 164297.0 157570.0 57108.0 191029.0 57108.0 57108.0 57108.0 57108.0 191029.0 191029.0 191029.0 191029.0
100996.0 106509.0 264074.0 261419.0 19957.0 11696.0 183164.0 179218.0 324283.0 324492.0 59056.0 62522.0 31237.0 24133.0 140364.0 148396.0 156710.0 156126.0 103185.0 95228.0 351267.0 349327.0 38363.0 44657.0 149178.0 155891.0 275825.0 278541.0 30433.0 27357.0 139127.0 147151.0 145926.0 152272.0 116638.0 109395.0 133725.0 139494.0 186683.0 179138.0 295721.0 290784.0 306805.0 302030.0 96180.0 89627.0 149332.0 146748.0 174158.0 168373.0 282462.0 286948.0 139802.0 136580.0 155953.0 163602.0 213721.0 208075.0 94188.0 95921.0 300920.0 305795.0 94721.0 98652.0 79698.0 72127.0 114982.0 118130.0 271624.0 270513.0 173811.0 173169.0 18404.0 24764.0 31594.0 39463.0 137857.0 138824.0 140207.0 148193.0 106146.0 102383.0 249274.0 245351.0 246434.0 252290.0 239571.0 232786.0 123800.0 116698.0 283741.0 281013.0 150787.0 144675.0 87567.0 79515.0 284895.0 278414.0 119775.0 124832.0 226370.0 231752.0 186373.0 181322.0 79175.0 83686.0 52582.0 58717.0 7456.0 0.0 259954.0 259864.0 211614.0 217936.0 123854.0 130460.0 195697.0 203689.0 88209.0 89878.0 165996.0 157579.0 21604.0 17363.0 157104.0 148918.0 143209.0 137316.0 357861.0 349926.0 40547.0 40243.0 152047.0 150119.0 319140.0 314978.0 134249.0 130191.0 132360.0 125335.0 130207.0 126265.0 245878.0 243256.0 20997.0 27424.0 343055.0 349908.0 40667.0 47369.0 81693.0 84671.0 167538.0 174081.0 125347.0 119699.0 160491.0 166216.0 165228.0 158263.0 63495.0 195567.0 63495.0 63495.0 63495.0 63495.0 195567.0 195567.0 195567.0 195567.0
184744.0 176189.0 60045.0 51925.0 269010.0 265222.0 86211.0 93535.0 348007.0 352576.0 218501.0 210778.0 243715.0 244788.0 162970.0 158920.0 103247.0 104433.0 170380.0 177146.0 377384.0 379251.0 255451.0 260350.0 150824.0 152252.0 311953.0 308438.0 235586.0 234412.0 154657.0 151746.0 115720.0 108494.0 147417.0 152977.0 185057.0 188757.0 86422.0 91022.0 300701.0 292669.0 300987.0 292930.0 167906.0 172688.0 112937.0 117761.0 172654.0 168017.0 313261.0 321004.0 189474.0 197868.0 162909.0 158108.0 198361.0 191182.0 177939.0 181704.0 296366.0 304417.0 182143.0 184399.0 192552.0 196852.0 169728.0 162113.0 18123.0 12134.0 223912.0 219119.0 255271.0 258768.0 239841.0 234129.0 122106.0 121761.0 200347.0 197558.0 190141.0 186270.0 250144.0 242160.0 298423.0 299570.0 58119.0 56481.0 150849.0 154470.0 51844.0 43951.0 150017.0 149012.0 181075.0 187832.0 275705.0 268555.0 171072.0 162996.0 221448.0 217529.0 74488.0 78746.0 183517.0 177450.0 212984.0 204987.0 263331.0 259954.0 0.0 8118.0 232639.0 229962.0 157167.0 155707.0 256317.0 260513.0 175051.0 176618.0 174503.0 175959.0 251585.0 247911.0 105967.0 113140.0 117930.0 122945.0 361249.0 353718.0 225736.0 231518.0 110629.0 115021.0 339908.0 332325.0 181461.0 189225.0 194080.0 199583.0 151282.0 149519.0 31671.0 39691.0 239008.0 233718.0 376808.0 381939.0 242108.0 235373.0 182437.0 177307.0 231239.0 227905.0 183029.0 180439.0 164209.0 168890.0 155605.0 153377.0 270462.0 261626.0 270462.0 270462.0 270462.0 270462.0 261626.0 261626.0 261626.0 261626.0
182233.0 173687.0 51929.0 43817.0 268370.0 264808.0 89417.0 97009.0 340770.0 345403.0 219862.0 212051.0 242774.0 244103.0 159057.0 154704.0 103299.0 103856.0 168391.0 175344.0 370097.0 372040.0 256560.0 261649.0 146771.0 147813.0 305120.0 301498.0 236108.0 234659.0 151049.0 147778.0 116820.0 109337.0 146155.0 152046.0 181036.0 184467.0 82912.0 88050.0 293381.0 285350.0 293510.0 285449.0 166804.0 171880.0 114245.0 119491.0 167202.0 162809.0 306312.0 314080.0 185166.0 193609.0 158270.0 153204.0 191760.0 184693.0 176167.0 179609.0 288931.0 296984.0 180104.0 182029.0 190969.0 195552.0 172411.0 164674.0 13011.0 10896.0 218478.0 213684.0 254623.0 257905.0 240553.0 235033.0 122232.0 122418.0 195945.0 192894.0 187219.0 183636.0 243148.0 235171.0 292058.0 293070.0 50887.0 49855.0 148471.0 152455.0 44542.0 36825.0 145900.0 145273.0 179621.0 186563.0 268326.0 261215.0 168003.0 159926.0 214690.0 210628.0 73643.0 78584.0 184246.0 177949.0 213737.0 205657.0 263034.0 259864.0 8118.0 0.0 226293.0 223452.0 154416.0 152584.0 250543.0 254588.0 174113.0 175315.0 169336.0 171098.0 250868.0 247428.0 107569.0 114388.0 117141.0 122580.0 353661.0 346158.0 224937.0 230503.0 109341.0 113259.0 332650.0 325041.0 177470.0 185292.0 190009.0 195721.0 148383.0 147023.0 24800.0 32697.0 238882.0 233380.0 369709.0 374777.0 240848.0 233972.0 183360.0 177971.0 226010.0 222481.0 179392.0 177113.0 159357.0 163758.0 150666.0 148798.0 268692.0 255959.0 268692.0 268692.0 268692.0 268692.0 255959.0 255959.0 255959.0 255959.0
126545.0 127594.0 188052.0 192661.0 201439.0 205581.0 222995.0 227406.0 128290.0 130593.0 228072.0 222431.0 180409.0 187823.0 101793.0 98359.0 184394.0 176390.0 139474.0 143151.0 157592.0 157097.0 241131.0 248987.0 106045.0 98892.0 83673.0 82715.0 215255.0 207626.0 111612.0 106897.0 197116.0 193838.0 156547.0 162077.0 90120.0 82199.0 157629.0 158346.0 89653.0 83154.0 98267.0 92352.0 158262.0 164659.0 200091.0 206445.0 67479.0 75032.0 87478.0 94213.0 81477.0 80218.0 88318.0 87450.0 36140.0 41956.0 143797.0 136413.0 92263.0 98465.0 137681.0 129897.0 148900.0 156329.0 236615.0 231214.0 229574.0 234909.0 37806.0 38742.0 193918.0 189769.0 222290.0 224324.0 182475.0 190453.0 75623.0 69247.0 116188.0 123520.0 37782.0 33908.0 65785.0 67343.0 176440.0 176455.0 135518.0 141379.0 213113.0 216952.0 105488.0 112301.0 151011.0 155804.0 74095.0 67183.0 116101.0 118472.0 22372.0 30444.0 185209.0 189152.0 199919.0 193334.0 210852.0 205697.0 207777.0 211614.0 232639.0 226293.0 0.0 8049.0 126607.0 120073.0 35058.0 34068.0 162046.0 154178.0 70737.0 75568.0 190186.0 194762.0 204109.0 199242.0 169972.0 175045.0 155600.0 147376.0 176875.0 173342.0 165562.0 157821.0 121493.0 115534.0 92079.0 91022.0 86183.0 90712.0 125904.0 133804.0 201516.0 193757.0 200051.0 192120.0 151827.0 158349.0 170972.0 164385.0 203838.0 196841.0 45165.0 37848.0 99995.0 107971.0 83746.0 75578.0 88864.0 95921.0 176257.0 42206.0 176257.0 176257.0 176257.0 176257.0 42206.0 42206.0 42206.0 42206.0
130981.0 131579.0 183986.0 188847.0 208149.0 212133.0 223325.0 227978.0 126889.0 129627.0 232922.0 227118.0 186705.0 194051.0 104357.0 100378.0 185283.0 177235.0 143221.0 147241.0 156439.0 156348.0 246876.0 254740.0 107720.0 100245.0 83884.0 82120.0 220820.0 213265.0 113882.0 108705.0 198595.0 195016.0 159254.0 165075.0 94137.0 86309.0 156782.0 157902.0 86300.0 79422.0 94037.0 87741.0 161931.0 168526.0 201462.0 207995.0 68347.0 76170.0 86958.0 94047.0 85629.0 85052.0 90093.0 88513.0 31902.0 38783.0 147926.0 140716.0 88054.0 94622.0 142008.0 134324.0 153676.0 161242.0 239751.0 234161.0 226317.0 231845.0 44405.0 44768.0 200365.0 196371.0 227878.0 229712.0 184179.0 192169.0 80574.0 73775.0 120878.0 128027.0 32468.0 27481.0 68955.0 69619.0 173250.0 173600.0 138162.0 144309.0 208869.0 212937.0 107053.0 114136.0 155278.0 160346.0 69056.0 61855.0 119655.0 121545.0 14598.0 22661.0 184758.0 188992.0 203959.0 197216.0 215768.0 210416.0 214246.0 217936.0 229962.0 223452.0 8049.0 0.0 129471.0 122693.0 42748.0 41104.0 166022.0 158240.0 72439.0 77966.0 196581.0 200987.0 205207.0 200620.0 171379.0 176739.0 152565.0 144331.0 182645.0 179346.0 166532.0 158864.0 119799.0 113502.0 95857.0 95386.0 90828.0 95814.0 128375.0 136337.0 198652.0 190820.0 205937.0 197952.0 151608.0 157880.0 177344.0 170627.0 207800.0 200687.0 52424.0 44864.0 104074.0 112004.0 85289.0 76936.0 89719.0 97168.0 183114.0 49871.0 183114.0 183114.0 183114.0 183114.0 49871.0 49871.0 49871.0 49871.0
28204.0 19890.0 145371.0 144271.0 125360.0 124471.0 109553.0 111416.0 254373.0 256122.0 113359.0 106129.0 98186.0 102210.0 25388.0 31259.0 68815.0 62334.0 20970.0 28749.0 283243.0 282076.0 138442.0 145873.0 27787.0 35967.0 207829.0 208203.0 111816.0 106360.0 17932.0 25871.0 75405.0 74669.0 30016.0 35644.0 39850.0 47313.0 72108.0 66378.0 215770.0 208843.0 223087.0 216367.0 35697.0 43464.0 79024.0 83888.0 64704.0 56821.0 212794.0 218842.0 48172.0 53763.0 41687.0 46969.0 110848.0 103032.0 29792.0 28652.0 217154.0 223968.0 29667.0 28676.0 44279.0 51732.0 110354.0 104691.0 163934.0 165252.0 96905.0 93153.0 112370.0 113198.0 118547.0 117148.0 59909.0 67441.0 58157.0 60808.0 33122.0 29285.0 161202.0 154697.0 182407.0 187017.0 121905.0 116270.0 9609.0 14858.0 167762.0 166681.0 29283.0 21878.0 37059.0 44987.0 197246.0 189658.0 15340.0 8753.0 131257.0 133497.0 85778.0 85121.0 78375.0 70774.0 98023.0 90743.0 124195.0 123854.0 157167.0 154416.0 126607.0 129471.0 0.0 7778.0 131292.0 138338.0 42258.0 36590.0 58306.0 51667.0 108113.0 107630.0 84949.0 78161.0 50883.0 52996.0 282003.0 273770.0 83506.0 86032.0 51901.0 44976.0 247850.0 242080.0 36734.0 41660.0 47714.0 49435.0 6654.0 9070.0 134772.0 130070.0 104591.0 96890.0 275913.0 282753.0 93263.0 85480.0 81559.0 73917.0 98609.0 99887.0 32300.0 26285.0 47028.0 55249.0 47496.0 39072.0 116844.0 133594.0 116844.0 116844.0 116844.0 116844.0 133594.0 133594.0 133594.0 133594.0
32309.0 24737.0 141091.0 140370.0 131247.0 130672.0 112397.0 114762.0 248089.0 249972.0 121115.0 113900.0 104091.0 108426.0 18337.0 23631.0 71546.0 64570.0 28256.0 35795.0 277082.0 276051.0 145889.0 153358.0 20068.0 28197.0 201843.0 202018.0 119190.0 113595.0 10156.0 18128.0 79796.0 78361.0 36566.0 42796.0 35552.0 42500.0 69772.0 64686.0 208977.0 201979.0 216094.0 209306.0 43474.0 51240.0 83264.0 88591.0 57220.0 49280.0 206645.0 212810.0 43368.0 49757.0 34141.0 39224.0 103398.0 95518.0 36829.0 34663.0 210177.0 217059.0 35804.0 33460.0 50762.0 58464.0 117412.0 111571.0 161671.0 163354.0 91471.0 87548.0 118451.0 118949.0 125966.0 124702.0 64423.0 72174.0 53892.0 55688.0 34839.0 32677.0 154236.0 147631.0 176998.0 181405.0 118036.0 112731.0 15469.0 22139.0 163987.0 163241.0 21588.0 14426.0 44324.0 52139.0 190153.0 182541.0 15440.0 7401.0 124087.0 126159.0 85898.0 85957.0 86119.0 78490.0 105716.0 98477.0 130549.0 130460.0 155707.0 152584.0 120073.0 122693.0 7778.0 0.0 126154.0 133029.0 50000.0 44166.0 51045.0 44738.0 114170.0 114024.0 88751.0 82397.0 54158.0 57250.0 275258.0 267023.0 89984.0 92090.0 53735.0 46323.0 241473.0 235604.0 32145.0 38101.0 44048.0 46939.0 6245.0 13770.0 132179.0 127123.0 111483.0 103687.0 269975.0 276828.0 98720.0 90839.0 89269.0 81606.0 93813.0 94605.0 29463.0 25050.0 39467.0 47769.0 39722.0 31295.0 121091.0 128765.0 121091.0 121091.0 121091.0 121091.0 128765.0 128765.0 128765.0 128765.0
123521.0 126864.0 216227.0 220096.0 183940.0 188589.0 236025.0 239423.0 128674.0 128981.0 220238.0 215565.0 164956.0 172648.0 109139.0 108227.0 195803.0 188134.0 139437.0 141249.0 155801.0 153863.0 228058.0 235786.0 116845.0 111381.0 80254.0 82861.0 203554.0 195601.0 119645.0 117113.0 205868.0 203898.0 160864.0 164901.0 91601.0 83982.0 176092.0 175363.0 100688.0 96261.0 112405.0 108441.0 157982.0 163216.0 209248.0 214740.0 84281.0 90135.0 86809.0 91394.0 83126.0 78411.0 99886.0 101796.0 68158.0 71795.0 141677.0 133664.0 106678.0 110953.0 134764.0 126769.0 143163.0 149605.0 237358.0 232923.0 255101.0 259800.0 35019.0 39419.0 177522.0 172664.0 210352.0 213534.0 190558.0 198328.0 73724.0 70516.0 112321.0 120263.0 62146.0 62063.0 51499.0 57003.0 202205.0 201207.0 140829.0 145173.0 241626.0 244800.0 116760.0 122118.0 147932.0 151117.0 93181.0 87963.0 118066.0 122581.0 57329.0 65403.0 201751.0 204549.0 196802.0 191146.0 202911.0 198919.0 191159.0 195697.0 256317.0 250543.0 35058.0 42748.0 131292.0 126154.0 0.0 7995.0 160129.0 152054.0 84213.0 85801.0 174093.0 179524.0 214325.0 208381.0 179571.0 183328.0 162168.0 154244.0 164620.0 159709.0 177042.0 169203.0 123475.0 119291.0 94573.0 90654.0 84777.0 86323.0 132373.0 139672.0 226040.0 218583.0 186669.0 179188.0 147591.0 154443.0 155235.0 149501.0 201049.0 194766.0 33140.0 31610.0 100373.0 108040.0 96579.0 89830.0 103874.0 109003.0 158600.0 7151.0 158600.0 158600.0 158600.0 158600.0 7151.0 7151.0 7151.0 7151.0
131195.0 134387.0 219090.0 223203.0 191931.0 196581.0 242249.0 245798.0 120714.0 121080.0 228202.0 223504.0 172947.0 180639.0 115783.0 114538.0 202198.0 194468.0 146937.0 148888.0 147938.0 145999.0 236050.0 243778.0 123076.0 117334.0 72322.0 74868.0 211547.0 203592.0 126259.0 123427.0 212626.0 210488.0 168028.0 172214.0 98783.0 91078.0 181291.0 180827.0 92968.0 88710.0 104859.0 101088.0 165537.0 170860.0 215961.0 221565.0 89278.0 95495.0 78827.0 83470.0 90228.0 85801.0 105896.0 107389.0 69096.0 73559.0 149331.0 141343.0 99180.0 103290.0 142455.0 134458.0 151016.0 157503.0 244926.0 240415.0 258809.0 263687.0 41585.0 45732.0 185513.0 180656.0 218343.0 221529.0 197371.0 205178.0 81083.0 77531.0 120020.0 127944.0 56622.0 57363.0 44114.0 49302.0 205781.0 205055.0 147839.0 152351.0 244402.0 247801.0 122924.0 128512.0 155656.0 158931.0 86271.0 81340.0 125334.0 129655.0 55609.0 63584.0 207356.0 210353.0 204580.0 198868.0 210872.0 206850.0 199150.0 203689.0 260513.0 254588.0 34068.0 41104.0 138338.0 133029.0 7995.0 0.0 167800.0 159725.0 89776.0 91875.0 182084.0 187515.0 220911.0 215095.0 186176.0 190104.0 154187.0 146271.0 172613.0 167701.0 183389.0 175545.0 115486.0 111298.0 101673.0 98001.0 92178.0 93961.0 139227.0 146618.0 229985.0 222439.0 194661.0 187173.0 139727.0 146580.0 163227.0 157493.0 208813.0 202485.0 40714.0 38453.0 107708.0 115436.0 102370.0 95329.0 109372.0 114849.0 166591.0 11757.0 166591.0 166591.0 166591.0 166591.0 11757.0 11757.0 11757.0 11757.0
36609.0 34458.0 175867.0 173251.0 94463.0 91512.0 107781.0 106487.0 287347.0 288368.0 71128.0 64004.0 68676.0 70174.0 65898.0 72839.0 73200.0 70725.0 23219.0 19016.0 315403.0 313580.0 97337.0 104544.0 70046.0 78182.0 239579.0 240976.0 71314.0 66850.0 60099.0 68124.0 68426.0 72326.0 28546.0 22077.0 71938.0 79848.0 98495.0 91005.0 251682.0 245175.0 260046.0 253728.0 8031.0 3612.0 72395.0 73310.0 105279.0 97723.0 245343.0 250733.0 80572.0 82776.0 82834.0 88832.0 150839.0 143395.0 18495.0 26468.0 254056.0 260465.0 25396.0 33373.0 22633.0 23178.0 77634.0 74024.0 185330.0 184935.0 128214.0 125335.0 80736.0 83793.0 77714.0 75563.0 55825.0 59831.0 87541.0 92983.0 47830.0 39869.0 198370.0 192423.0 211534.0 217098.0 151364.0 144613.0 38475.0 30566.0 195720.0 193227.0 71538.0 64016.0 12777.0 14648.0 234863.0 227449.0 46900.0 47387.0 169690.0 172770.0 100589.0 96628.0 37951.0 31337.0 55853.0 48486.0 90224.0 88209.0 175051.0 174113.0 162046.0 166022.0 42258.0 50000.0 160129.0 167800.0 0.0 8076.0 98130.0 90543.0 76872.0 74030.0 80194.0 71708.0 57130.0 52863.0 317363.0 309166.0 50880.0 56473.0 64906.0 62188.0 281361.0 276150.0 70180.0 71201.0 76485.0 73845.0 47232.0 41117.0 158525.0 155498.0 67548.0 60847.0 307308.0 314161.0 67413.0 61228.0 41794.0 34895.0 127091.0 130416.0 62052.0 54076.0 88137.0 95938.0 89555.0 81236.0 97835.0 160920.0 97835.0 97835.0 97835.0 97835.0 160920.0 160920.0 160920.0 160920.0
28533.0 26678.0 174672.0 172418.0 94450.0 92178.0 112331.0 111517.0 279308.0 280312.0 77586.0 70733.0 67932.0 70311.0 59148.0 66357.0 76144.0 72878.0 16283.0 11034.0 307342.0 305513.0 101913.0 109306.0 64206.0 72146.0 231519.0 232939.0 75412.0 70294.0 54093.0 62236.0 73206.0 76420.0 29200.0 24650.0 64112.0 71993.0 97745.0 90515.0 243795.0 237323.0 252244.0 245968.0 9617.0 11317.0 77206.0 78769.0 98275.0 90846.0 237299.0 242674.0 72705.0 74760.0 76114.0 82408.0 143580.0 136240.0 10452.0 18392.0 246250.0 252621.0 17331.0 25299.0 17065.0 20240.0 85657.0 81929.0 186228.0 186182.0 120185.0 117337.0 80848.0 83207.0 82063.0 80559.0 59714.0 64484.0 79521.0 85051.0 39756.0 31793.0 190621.0 184741.0 203459.0 209023.0 150330.0 143809.0 34349.0 26901.0 195201.0 193029.0 65743.0 58466.0 5523.0 11261.0 227140.0 219751.0 39558.0 40788.0 162123.0 165336.0 102171.0 98763.0 45742.0 39330.0 61711.0 54754.0 91250.0 89878.0 176618.0 175315.0 154178.0 158240.0 36590.0 44166.0 152054.0 159725.0 8076.0 0.0 90974.0 83248.0 76810.0 74785.0 84851.0 76475.0 59170.0 55891.0 309421.0 301228.0 50930.0 55526.0 66009.0 62387.0 273340.0 268151.0 62459.0 63254.0 68484.0 65773.0 42146.0 36923.0 158814.0 155408.0 69696.0 62476.0 299241.0 306094.0 65533.0 58771.0 49685.0 42908.0 119017.0 122367.0 54196.0 46241.0 81373.0 89005.0 83278.0 75106.0 94554.0 152851.0 94554.0 94554.0 94554.0 94554.0 152851.0 152851.0 152851.0 152851.0
67276.0 64992.0 141837.0 144067.0 161493.0 163194.0 153194.0 157226.0 198974.0 201329.0 168306.0 161655.0 135934.0 142105.0 32932.0 28020.0 113928.0 105987.0 74918.0 80503.0 228326.0 227796.0 188391.0 196167.0 35332.0 28258.0 154057.0 153428.0 161469.0 154752.0 41714.0 36269.0 126382.0 123156.0 87467.0 93833.0 32398.0 28001.0 92043.0 91150.0 158455.0 151313.0 165203.0 158336.0 92819.0 100096.0 129357.0 135724.0 8190.0 6601.0 158171.0 164770.0 28015.0 34707.0 17655.0 17613.0 52769.0 45272.0 81368.0 75511.0 159310.0 166297.0 76874.0 70312.0 90895.0 99050.0 168445.0 162516.0 175296.0 179171.0 50007.0 45275.0 150672.0 148867.0 168533.0 168745.0 111805.0 119791.0 33943.0 27331.0 60054.0 65064.0 103429.0 96681.0 132163.0 135497.0 123863.0 121450.0 66401.0 73105.0 167152.0 168882.0 34751.0 41699.0 89197.0 95702.0 139159.0 131528.0 51451.0 51208.0 73055.0 75201.0 117590.0 120622.0 135688.0 128385.0 151868.0 145429.0 164192.0 165996.0 174503.0 169336.0 70737.0 72439.0 58306.0 51045.0 84213.0 89776.0 98130.0 90974.0 0.0 8419.0 146443.0 148664.0 133460.0 128507.0 99237.0 104369.0 224784.0 216553.0 126522.0 125754.0 95054.0 87265.0 192061.0 185893.0 31769.0 36378.0 36012.0 44036.0 56394.0 64399.0 145476.0 138517.0 149907.0 141721.0 222302.0 228952.0 128055.0 120238.0 139158.0 131675.0 56746.0 53912.0 40777.0 47290.0 13041.0 5674.0 19666.0 25437.0 141771.0 88619.0 141771.0 141771.0 141771.0 141771.0 88619.0 88619.0 88619.0 88619.0
59023.0 57035.0 145856.0 147672.0 153155.0 154807.0 150382.0 154046.0 203807.0 205916.0 160391.0 153827.0 127539.0 133693.0 26402.0 23024.0 110511.0 102701.0 67328.0 72649.0 232984.0 232211.0 180086.0 187870.0 31293.0 25634.0 158191.0 157952.0 153176.0 146420.0 36044.0 31821.0 122014.0 119242.0 81305.0 87310.0 24030.0 20170.0 91971.0 90353.0 164240.0 157244.0 171423.0 164704.0 85494.0 92627.0 125138.0 131233.0 16588.0 12284.0 162641.0 169035.0 20301.0 27703.0 14108.0 17909.0 60333.0 53101.0 73490.0 67434.0 165494.0 172337.0 68795.0 62097.0 82664.0 90803.0 162018.0 156283.0 177596.0 181141.0 50919.0 46392.0 142282.0 140523.0 160246.0 160540.0 107141.0 115095.0 27741.0 22395.0 51647.0 56754.0 109542.0 103039.0 135041.0 138797.0 126953.0 124067.0 60205.0 66525.0 170995.0 172371.0 31065.0 37104.0 81283.0 87642.0 145595.0 138022.0 43692.0 44114.0 79695.0 82323.0 116320.0 118833.0 128265.0 121073.0 143859.0 137521.0 155789.0 157579.0 175959.0 171098.0 75568.0 77966.0 51667.0 44738.0 85801.0 91875.0 90543.0 83248.0 8419.0 0.0 138050.0 140248.0 129623.0 124279.0 95076.0 99736.0 230529.0 222294.0 118113.0 117337.0 91652.0 83812.0 197059.0 191071.0 23352.0 28122.0 28216.0 36262.0 50419.0 58372.0 147620.0 140900.0 141510.0 133322.0 226402.0 233193.0 119697.0 111867.0 131821.0 124412.0 56292.0 54624.0 32372.0 38998.0 11750.0 10180.0 20491.0 23487.0 133739.0 89649.0 133739.0 133739.0 133739.0 133739.0 89649.0 89649.0 89649.0 89649.0
83276.0 89629.0 251309.0 249196.0 17643.0 16822.0 178907.0 175835.0 302679.0 302888.0 68115.0 69153.0 10515.0 6852.0 122420.0 130465.0 148786.0 147155.0 88170.0 80213.0 329663.0 327723.0 57273.0 64357.0 132031.0 138261.0 254221.0 256937.0 40193.0 33313.0 122206.0 130025.0 140314.0 145862.0 105269.0 98873.0 114054.0 119441.0 174554.0 167308.0 274116.0 269183.0 285208.0 280451.0 84458.0 78992.0 143987.0 142513.0 154631.0 149191.0 260858.0 265344.0 119698.0 116031.0 137396.0 145211.0 193126.0 187697.0 79203.0 79555.0 279326.0 284191.0 78475.0 81287.0 64009.0 57331.0 118678.0 120421.0 262179.0 261661.0 152381.0 151828.0 4308.0 8458.0 44634.0 51266.0 130370.0 132527.0 119497.0 127559.0 87178.0 84264.0 227808.0 223966.0 224829.0 230685.0 227058.0 220601.0 109335.0 102840.0 272011.0 269793.0 133634.0 128035.0 73521.0 65738.0 263359.0 256908.0 102270.0 108021.0 205232.0 210744.0 177253.0 172902.0 77480.0 80062.0 56489.0 60108.0 17902.0 21604.0 251585.0 250868.0 190186.0 196581.0 108113.0 114170.0 174093.0 182084.0 76872.0 76810.0 146443.0 138050.0 0.0 8039.0 151913.0 143468.0 133737.0 128724.0 336257.0 328322.0 26005.0 22088.0 141774.0 138886.0 297536.0 293374.0 114847.0 110298.0 112091.0 104840.0 114664.0 111647.0 235333.0 232127.0 21669.0 20999.0 321451.0 328304.0 19247.0 26463.0 80908.0 81912.0 145992.0 152590.0 106124.0 101020.0 141716.0 147009.0 146988.0 140434.0 44275.0 173963.0 44275.0 44275.0 44275.0 44275.0 173963.0 173963.0 173963.0 173963.0
84011.0 89807.0 249445.0 247084.0 21604.0 17482.0 173787.0 170453.0 308109.0 308318.0 60166.0 61416.0 14574.0 6940.0 123365.0 131407.0 144827.0 143583.0 87221.0 79235.0 335094.0 333154.0 50130.0 57431.0 132444.0 139000.0 259652.0 262367.0 32154.0 25339.0 122463.0 130423.0 135545.0 141368.0 102572.0 95787.0 116376.0 122131.0 172336.0 164947.0 279520.0 274450.0 290427.0 285530.0 81832.0 75855.0 139141.0 137320.0 156830.0 151094.0 266289.0 270775.0 122440.0 119261.0 138799.0 146494.0 196396.0 190723.0 78204.0 79378.0 284520.0 289522.0 78220.0 81770.0 63352.0 56105.0 111535.0 113547.0 258918.0 258174.0 156979.0 156222.0 8891.0 15949.0 36686.0 43236.0 126212.0 127964.0 122922.0 130887.0 88874.0 85291.0 232474.0 228431.0 230260.0 236116.0 225063.0 218453.0 108145.0 101316.0 269695.0 267256.0 134053.0 128123.0 71981.0 64010.0 268240.0 261685.0 102887.0 108189.0 209236.0 214547.0 173787.0 169166.0 71317.0 74442.0 49012.0 53097.0 16582.0 17363.0 247911.0 247428.0 194762.0 200987.0 107630.0 114024.0 179524.0 187515.0 74030.0 74785.0 148664.0 140248.0 8039.0 0.0 147035.0 138654.0 130330.0 124966.0 341688.0 333753.0 24161.0 22919.0 138707.0 136217.0 302967.0 298805.0 116927.0 112829.0 115006.0 108009.0 114079.0 110544.0 232492.0 229527.0 13805.0 14763.0 326882.0 333735.0 24339.0 30377.0 74544.0 76061.0 150957.0 157358.0 108046.0 102494.0 143289.0 148933.0 148162.0 141312.0 52073.0 179394.0 52073.0 52073.0 52073.0 52073.0 179394.0 179394.0 179394.0 179394.0
104587.0 97164.0 128959.0 123298.0 168610.0 163747.0 27594.0 27054.0 332090.0 334657.0 112547.0 104866.0 145570.0 145074.0 105187.0 106635.0 20468.0 28497.0 86403.0 90228.0 361582.0 361205.0 149628.0 154407.0 98401.0 105230.0 287512.0 286823.0 130869.0 130548.0 94680.0 97802.0 11804.0 10427.0 59633.0 60697.0 124268.0 131218.0 64274.0 57928.0 289883.0 282366.0 295058.0 287645.0 75234.0 76955.0 7946.0 12001.0 136866.0 129125.0 291585.0 298228.0 132086.0 138421.0 116077.0 116729.0 179921.0 171488.0 90617.0 97305.0 289382.0 296837.0 97095.0 102686.0 101896.0 103361.0 66979.0 58904.0 120296.0 117481.0 179372.0 175184.0 155142.0 159796.0 134645.0 128594.0 25962.0 20386.0 142630.0 144201.0 114101.0 107326.0 234548.0 227158.0 264519.0 268413.0 105988.0 98117.0 75455.0 73746.0 141133.0 136137.0 98805.0 92561.0 90265.0 94739.0 268473.0 260722.0 99953.0 93577.0 203250.0 203206.0 42334.0 34516.0 78635.0 73432.0 107819.0 100077.0 161333.0 157104.0 105967.0 107569.0 204109.0 205207.0 84949.0 88751.0 214325.0 220911.0 80194.0 84851.0 133460.0 129623.0 151913.0 147035.0 0.0 8540.0 34757.0 32111.0 355918.0 347740.0 127194.0 134216.0 38733.0 46344.0 324986.0 318556.0 120894.0 126498.0 132531.0 134310.0 82516.0 75969.0 100349.0 100918.0 136561.0 132355.0 355759.0 362408.0 146169.0 140718.0 77077.0 72700.0 182408.0 182716.0 117246.0 110967.0 120421.0 128531.0 115490.0 108189.0 177758.0 217268.0 177758.0 177758.0 177758.0 177758.0 217268.0 217268.0 217268.0 217268.0
96798.0 89542.0 133240.0 127928.0 160216.0 155425.0 36112.0 35126.0 327419.0 329835.0 105475.0 97684.0 137065.0 136626.0 99317.0 101255.0 19156.0 26320.0 78522.0 82098.0 356821.0 356289.0 142311.0 147279.0 93245.0 100403.0 282415.0 281931.0 123007.0 122490.0 88870.0 92510.0 3281.0 7406.0 51850.0 52477.0 117772.0 124892.0 65032.0 58077.0 285763.0 278324.0 291276.0 283950.0 66863.0 68450.0 867.0 8532.0 132305.0 124451.0 286668.0 293203.0 125759.0 131847.0 110977.0 112122.0 176114.0 167697.0 82458.0 89286.0 285550.0 292922.0 89034.0 94804.0 93502.0 94867.0 62715.0 54590.0 126982.0 124486.0 173515.0 169413.0 146722.0 151327.0 126947.0 121055.0 18387.0 12006.0 136142.0 138041.0 106520.0 99598.0 230415.0 223128.0 258865.0 262932.0 109749.0 101898.0 68588.0 66366.0 146543.0 141844.0 93759.0 87179.0 81911.0 86274.0 264741.0 256993.0 92958.0 86862.0 199192.0 199452.0 46255.0 38799.0 70760.0 65308.0 100089.0 92243.0 153057.0 148918.0 113140.0 114388.0 199242.0 200620.0 78161.0 82397.0 208381.0 215095.0 71708.0 76475.0 128507.0 124279.0 143468.0 138654.0 8540.0 0.0 29270.0 25187.0 351927.0 343730.0 118688.0 125689.0 35153.0 42271.0 320413.0 314091.0 114468.0 119811.0 125862.0 127329.0 76152.0 69288.0 105878.0 105925.0 128306.0 123994.0 350650.0 357385.0 137631.0 132179.0 69406.0 64724.0 176205.0 176780.0 110437.0 103940.0 115499.0 123738.0 111035.0 103454.0 169228.0 211139.0 169228.0 169228.0 169228.0 169228.0 211139.0 211139.0 211139.0 211139.0
73253.0 65211.0 124006.0 120214.0 151229.0 147744.0 58698.0 60637.0 298157.0 300565.0 110214.0 102100.0 125785.0 126965.0 70432.0 72056.0 18279.0 13709.0 56022.0 61485.0 327552.0 327022.0 144328.0 150410.0 63985.0 71145.0 253167.0 252662.0 121360.0 118938.0 59929.0 63278.0 27238.0 24330.0 30266.0 35072.0 89709.0 96547.0 47826.0 39868.0 256657.0 249254.0 262346.0 255079.0 50138.0 54772.0 30121.0 36711.0 103090.0 95211.0 257399.0 263944.0 97414.0 103907.0 81714.0 82906.0 147238.0 138841.0 62114.0 67486.0 256592.0 263915.0 67580.0 71876.0 75722.0 79283.0 81239.0 73595.0 128593.0 127925.0 144626.0 140455.0 137482.0 140848.0 126570.0 122096.0 14291.0 21812.0 108044.0 109466.0 81749.0 75657.0 201316.0 194084.0 229835.0 233807.0 99416.0 92011.0 41642.0 41425.0 141534.0 138268.0 64489.0 57973.0 63979.0 70246.0 235853.0 228111.0 66134.0 59338.0 170144.0 170590.0 43516.0 39609.0 71841.0 64409.0 100463.0 92146.0 146076.0 143209.0 117930.0 117141.0 169972.0 171379.0 50883.0 54158.0 179571.0 186176.0 57130.0 59170.0 99237.0 95076.0 133737.0 130330.0 34757.0 29270.0 0.0 8174.0 322868.0 314663.0 107835.0 113603.0 10336.0 14459.0 291165.0 284864.0 86290.0 92112.0 98115.0 100302.0 47951.0 41818.0 102784.0 100609.0 122216.0 116414.0 321407.0 328127.0 124369.0 117852.0 72331.0 65457.0 147675.0 147961.0 83036.0 77139.0 86229.0 94478.0 81874.0 74211.0 153675.0 182518.0 153675.0 153675.0 153675.0 153675.0 182518.0 182518.0 182518.0 182518.0
72910.0 65269.0 131454.0 127455.0 146093.0 142293.0 58137.0 58974.0 303326.0 305582.0 102584.0 94474.0 121139.0 121908.0 74394.0 76754.0 20343.0 18863.0 54996.0 59600.0 332620.0 331933.0 137123.0 143073.0 69039.0 76570.0 257923.0 257634.0 114634.0 112535.0 64018.0 68148.0 22548.0 22106.0 28282.0 31263.0 92587.0 99731.0 55781.0 47847.0 262358.0 255028.0 268324.0 261133.0 46485.0 50174.0 26053.0 31527.0 108646.0 100677.0 262342.0 268770.0 100598.0 106660.0 86739.0 88509.0 153362.0 145000.0 60115.0 66212.0 262536.0 269785.0 66141.0 71198.0 72812.0 75628.0 73221.0 65644.0 134313.0 133274.0 148520.0 144470.0 132363.0 136049.0 119660.0 114961.0 7440.0 15430.0 110956.0 112925.0 82140.0 75544.0 207061.0 199930.0 233953.0 238135.0 106923.0 99433.0 43443.0 41693.0 148447.0 144948.0 69687.0 62749.0 61003.0 66650.0 241896.0 234166.0 67886.0 61684.0 176003.0 176708.0 49068.0 44204.0 64413.0 57164.0 93329.0 85032.0 140464.0 137316.0 122945.0 122580.0 175045.0 176739.0 52996.0 57250.0 183328.0 190104.0 52863.0 55891.0 104369.0 99736.0 128724.0 124966.0 32111.0 25187.0 8174.0 0.0 328635.0 320419.0 102990.0 109120.0 18434.0 22276.0 296430.0 290235.0 89291.0 94635.0 100683.0 102257.0 51009.0 44102.0 109242.0 107421.0 116325.0 110820.0 326120.0 332929.0 120269.0 114042.0 64694.0 58008.0 151063.0 151741.0 85287.0 78891.0 91452.0 99815.0 87648.0 79725.0 150345.0 186013.0 150345.0 150345.0 150345.0 150345.0 186013.0 186013.0 186013.0 186013.0
281392.0 282969.0 305284.0 312277.0 346104.0 350754.0 371732.0 377131.0 39744.0 44580.0 381390.0 376268.0 327120.0 334812.0 256922.0 252797.0 335638.0 327549.0 294987.0 298389.0 37772.0 45511.0 390186.0 397890.0 259862.0 252097.0 84356.0 79828.0 365664.0 357732.0 266389.0 260956.0 350091.0 345957.0 311819.0 317570.0 245564.0 237610.0 301820.0 304526.0 66330.0 73615.0 61399.0 69235.0 313798.0 320067.0 352752.0 359579.0 220012.0 228019.0 76524.0 74284.0 236861.0 234821.0 242397.0 240126.0 176031.0 184465.0 298991.0 291409.0 66796.0 59138.0 292640.0 284740.0 302930.0 309944.0 392183.0 386689.0 352728.0 359748.0 189764.0 192242.0 339686.0 334828.0 372490.0 375535.0 336065.0 344049.0 230097.0 224380.0 270668.0 278271.0 121574.0 128799.0 117041.0 109278.0 303349.0 306293.0 290727.0 296825.0 326258.0 332561.0 259091.0 266390.0 306006.0 310306.0 87943.0 95641.0 271692.0 273987.0 152736.0 152836.0 330773.0 336077.0 355098.0 348694.0 364054.0 359523.0 353323.0 357861.0 361249.0 353661.0 155600.0 152565.0 282003.0 275258.0 162168.0 154187.0 317363.0 309421.0 224784.0 230529.0 336257.0 341688.0 355918.0 351927.0 322868.0 328635.0 0.0 8235.0 326732.0 321865.0 317217.0 309759.0 41035.0 43250.0 247633.0 246168.0 241011.0 244634.0 280926.0 288895.0 329872.0 321873.0 348813.0 341353.0 54703.0 51147.0 317399.0 311665.0 359104.0 352230.0 192902.0 188087.0 255367.0 263355.0 237442.0 228994.0 241027.0 248920.0 320764.0 164164.0 320764.0 320764.0 320764.0 320764.0 164164.0 164164.0 164164.0 164164.0
273215.0 274767.0 297994.0 304932.0 338169.0 342819.0 363630.0 369006.0 34295.0 40002.0 373296.0 368150.0 319185.0 326877.0 248687.0 244565.0 327468.0 319378.0 286776.0 290195.0 38521.0 45743.0 382275.0 389988.0 251636.0 243877.0 76973.0 72147.0 357688.0 349765.0 258155.0 252728.0 341888.0 337770.0 303584.0 309338.0 237356.0 229402.0 293792.0 296454.0 58100.0 65409.0 53428.0 61327.0 305585.0 311864.0 344555.0 351373.0 211791.0 219797.0 68999.0 67162.0 228655.0 226645.0 234167.0 231910.0 167868.0 176301.0 290800.0 283227.0 58739.0 51018.0 284460.0 276564.0 294791.0 301823.0 383953.0 378456.0 345356.0 352334.0 181620.0 184074.0 331751.0 326894.0 364525.0 367530.0 327850.0 335833.0 221923.0 216183.0 262504.0 270098.0 113360.0 120605.0 109680.0 101845.0 295771.0 298639.0 282493.0 288592.0 319152.0 325391.0 250867.0 258162.0 297825.0 302149.0 79904.0 87582.0 263472.0 265756.0 144539.0 144693.0 322732.0 328006.0 346911.0 340495.0 355962.0 351403.0 345388.0 349926.0 353718.0 346158.0 147376.0 144331.0 273770.0 267023.0 154244.0 146271.0 309166.0 301228.0 216553.0 222294.0 328322.0 333753.0 347740.0 343730.0 314663.0 320419.0 8235.0 0.0 318760.0 313938.0 309034.0 301569.0 34353.0 35737.0 239417.0 237974.0 232829.0 236483.0 272691.0 280661.0 322301.0 314296.0 340894.0 333412.0 53717.0 51322.0 309464.0 303730.0 350911.0 344029.0 184836.0 179969.0 247163.0 255151.0 229215.0 220768.0 232817.0 240702.0 312829.0 156343.0 312829.0 312829.0 312829.0 312829.0 156343.0 156343.0 156343.0 156343.0
60599.0 65963.0 225570.0 223348.0 43629.0 41342.0 154465.0 151830.0 293207.0 293416.0 59467.0 57447.0 18377.0 19393.0 99938.0 107955.0 123150.0 121307.0 63060.0 55075.0 320192.0 318251.0 64256.0 72112.0 108631.0 115380.0 244750.0 247433.0 38935.0 31015.0 98582.0 106605.0 115485.0 120694.0 79265.0 72906.0 94569.0 100852.0 148656.0 141367.0 263627.0 258150.0 273941.0 268653.0 58454.0 53065.0 119249.0 118301.0 134627.0 128540.0 251387.0 255872.0 101243.0 98972.0 115739.0 123297.0 175701.0 169627.0 54043.0 55393.0 267978.0 273373.0 54205.0 58167.0 39247.0 31946.0 100692.0 101108.0 236205.0 235742.0 139408.0 138133.0 29951.0 33059.0 45780.0 49109.0 104918.0 107473.0 102976.0 110671.0 66468.0 62144.0 214651.0 210118.0 215358.0 221214.0 201255.0 194735.0 84009.0 77257.0 246096.0 243824.0 110241.0 104155.0 47900.0 39985.0 250862.0 244052.0 79278.0 84289.0 189936.0 194806.0 151347.0 147112.0 56453.0 57390.0 43578.0 43753.0 40743.0 40547.0 225736.0 224937.0 176875.0 182645.0 83506.0 89984.0 164620.0 172613.0 50880.0 50930.0 126522.0 118113.0 26005.0 24161.0 127194.0 118688.0 107835.0 102990.0 326732.0 318760.0 0.0 8344.0 115786.0 112887.0 288065.0 283911.0 94773.0 91378.0 94182.0 87741.0 89936.0 86397.0 209329.0 206145.0 23574.0 15417.0 311980.0 318832.0 20956.0 19599.0 60461.0 59803.0 134453.0 140237.0 85746.0 79686.0 120389.0 126410.0 124862.0 117787.0 53939.0 164492.0 53939.0 53939.0 53939.0 53939.0 164492.0 164492.0 164492.0 164492.0
61406.0 67584.0 229582.0 227614.0 39426.0 38652.0 161604.0 159174.0 288295.0 288504.0 66916.0 65312.0 12430.0 16574.0 100684.0 108732.0 129388.0 127187.0 66194.0 58263.0 315280.0 313339.0 68372.0 76137.0 110070.0 116430.0 239838.0 242553.0 44455.0 36386.0 100196.0 108058.0 122461.0 127418.0 84435.0 78541.0 93486.0 99331.0 153103.0 145976.0 259265.0 253953.0 269832.0 264711.0 63704.0 58961.0 126273.0 125602.0 133918.0 128179.0 246475.0 250960.0 99657.0 96722.0 115961.0 123693.0 173797.0 168007.0 57263.0 57467.0 263890.0 269121.0 56388.0 59316.0 41999.0 35624.0 109030.0 109398.0 241591.0 241341.0 135674.0 134655.0 26362.0 27718.0 50961.0 55152.0 111412.0 114310.0 100504.0 108389.0 65964.0 62546.0 211116.0 206825.0 210446.0 216302.0 205417.0 199060.0 87410.0 81078.0 250555.0 248503.0 111676.0 105990.0 51886.0 44309.0 247137.0 240444.0 80366.0 85984.0 187163.0 192296.0 157044.0 153074.0 64679.0 65362.0 51467.0 51995.0 38906.0 40243.0 231518.0 230503.0 173342.0 179346.0 86032.0 92090.0 159709.0 167701.0 56473.0 55526.0 125754.0 117337.0 22088.0 22919.0 134216.0 125689.0 113603.0 109120.0 321865.0 313938.0 8344.0 0.0 121185.0 117884.0 283153.0 278990.0 94011.0 89989.0 92305.0 85457.0 92590.0 89688.0 214335.0 210915.0 26974.0 19598.0 307068.0 313920.0 12705.0 11791.0 68729.0 67873.0 130218.0 136291.0 85127.0 79624.0 120413.0 126016.0 125398.0 118671.0 45598.0 159580.0 45598.0 45598.0 45598.0 45598.0 159580.0 159580.0 159580.0 159580.0
76756.0 68389.0 114036.0 110436.0 159351.0 156170.0 59153.0 62411.0 293421.0 296047.0 120411.0 112298.0 133487.0 135060.0 68368.0 68851.0 18881.0 11099.0 60629.0 66892.0 322942.0 322639.0 154244.0 160415.0 60362.0 66797.0 249079.0 248258.0 130932.0 128253.0 57895.0 59962.0 33864.0 28771.0 36822.0 42934.0 88909.0 95251.0 37521.0 29556.0 251158.0 243651.0 256414.0 249036.0 57481.0 62865.0 35929.0 43350.0 98213.0 90534.0 253034.0 259741.0 96108.0 103135.0 77868.0 78121.0 141254.0 132825.0 67628.0 72134.0 250721.0 258151.0 72405.0 75787.0 81982.0 86250.0 90959.0 83200.0 120434.0 120196.0 142023.0 137695.0 145614.0 148662.0 136280.0 131975.0 23636.0 30310.0 107021.0 107673.0 84259.0 78855.0 195820.0 188442.0 226693.0 230361.0 89411.0 82091.0 43455.0 45090.0 132057.0 129033.0 60624.0 54927.0 70452.0 77244.0 229846.0 222096.0 67206.0 59789.0 164528.0 164562.0 36298.0 33922.0 81951.0 74423.0 110358.0 102036.0 154655.0 152047.0 110629.0 109341.0 165562.0 166532.0 51901.0 53735.0 177042.0 183389.0 64906.0 66009.0 95054.0 91652.0 141774.0 138707.0 38733.0 35153.0 10336.0 18434.0 317217.0 309034.0 115786.0 121185.0 0.0 7844.0 286290.0 279838.0 85360.0 91768.0 97648.0 100629.0 47795.0 42994.0 93853.0 91295.0 131087.0 125033.0 317315.0 323904.0 131534.0 124747.0 82549.0 75586.0 145769.0 145505.0 83168.0 78010.0 82021.0 90013.0 76816.0 69676.0 159981.0 180349.0 159981.0 159981.0 159981.0 159981.0 180349.0 180349.0 180349.0 180349.0
70743.0 62269.0 114500.0 111422.0 156517.0 153699.0 66945.0 70254.0 285749.0 288338.0 121425.0 113335.0 130267.0 132254.0 60594.0 61008.0 26706.0 18932.0 55412.0 62134.0 315249.0 314910.0 154267.0 160673.0 52521.0 59008.0 241308.0 240528.0 130243.0 127110.0 50143.0 52118.0 40703.0 36217.0 33652.0 40755.0 81300.0 87548.0 37039.0 29228.0 243651.0 236173.0 249036.0 241693.0 54444.0 60513.0 43077.0 50243.0 90525.0 82807.0 245298.0 251984.0 88403.0 95512.0 70043.0 70402.0 133868.0 125447.0 62938.0 66817.0 243323.0 250721.0 67199.0 70002.0 77719.0 82547.0 95488.0 87919.0 123930.0 124151.0 134184.0 129853.0 142821.0 145518.0 135856.0 131950.0 28748.0 36135.0 99350.0 99897.0 77721.0 72671.0 188305.0 180966.0 218853.0 222534.0 89866.0 82839.0 36989.0 39568.0 133623.0 131040.0 52792.0 47092.0 66466.0 73641.0 222489.0 214740.0 60182.0 52598.0 157038.0 157199.0 41469.0 40180.0 82777.0 75005.0 110439.0 102136.0 152378.0 150119.0 115021.0 113259.0 157821.0 158864.0 44976.0 46323.0 169203.0 175545.0 62188.0 62387.0 87265.0 83812.0 138886.0 136217.0 46344.0 42271.0 14459.0 22276.0 309759.0 301569.0 112887.0 117884.0 7844.0 0.0 278643.0 272221.0 77731.0 84250.0 90093.0 93262.0 40507.0 36255.0 96468.0 93311.0 129258.0 122886.0 309548.0 316153.0 127802.0 120795.0 83791.0 76518.0 137969.0 137670.0 75786.0 70866.0 74228.0 82255.0 69146.0 61912.0 155476.0 172526.0 155476.0 155476.0 155476.0 155476.0 172526.0 172526.0 172526.0 172526.0
245007.0 247203.0 286709.0 293119.0 307383.0 312033.0 342561.0 347456.0 8332.0 14879.0 343610.0 338780.0 288399.0 296091.0 223236.0 219827.0 305002.0 296940.0 259475.0 262346.0 37573.0 39616.0 351501.0 359230.0 227392.0 220021.0 43952.0 40655.0 326886.0 319044.0 233104.0 228305.0 318370.0 314810.0 277849.0 283116.0 210126.0 202163.0 274305.0 276216.0 39621.0 47570.0 44034.0 51331.0 278292.0 284218.0 321256.0 327752.0 188143.0 195964.0 36701.0 33444.0 201376.0 198585.0 209698.0 208313.0 146791.0 155084.0 262887.0 255115.0 46516.0 39065.0 256302.0 248333.0 265843.0 272590.0 357318.0 352187.0 333070.0 339631.0 153158.0 156073.0 300965.0 296108.0 333796.0 336957.0 303867.0 311852.0 193821.0 188683.0 234058.0 241821.0 91700.0 99564.0 76416.0 68834.0 281803.0 283866.0 256887.0 262534.0 309277.0 314951.0 226771.0 233723.0 269643.0 273496.0 65112.0 71733.0 236611.0 239560.0 122787.0 124575.0 302901.0 307633.0 318778.0 312668.0 326272.0 322081.0 314602.0 319140.0 339908.0 332650.0 121493.0 119799.0 247850.0 241473.0 123475.0 115486.0 281361.0 273340.0 192061.0 197059.0 297536.0 302967.0 324986.0 320413.0 291165.0 296430.0 41035.0 34353.0 288065.0 283153.0 286290.0 278643.0 0.0 7962.0 212462.0 210302.0 204887.0 207892.0 247353.0 255225.0 308253.0 300225.0 310112.0 302632.0 39872.0 43059.0 278678.0 272944.0 322895.0 316247.0 155254.0 151100.0 219740.0 227701.0 204998.0 196694.0 209498.0 216959.0 282043.0 124850.0 282043.0 282043.0 282043.0 282043.0 124850.0 124850.0 124850.0 124850.0
239906.0 241897.0 278939.0 285382.0 303221.0 307870.0 335840.0 340818.0 16285.0 22671.0 339089.0 334134.0 284237.0 291929.0 217327.0 213744.0 298508.0 290436.0 254097.0 257138.0 45060.0 47469.0 347339.0 355067.0 221205.0 213743.0 41243.0 36623.0 322844.0 314887.0 227106.0 222159.0 312088.0 308415.0 272051.0 277447.0 204689.0 196721.0 267309.0 269331.0 31803.0 39792.0 36180.0 43397.0 272922.0 278959.0 314931.0 321495.0 181786.0 189656.0 33285.0 31726.0 195946.0 193399.0 203544.0 201969.0 139894.0 148226.0 257701.0 249988.0 38558.0 31153.0 251191.0 243242.0 261011.0 267867.0 351794.0 346561.0 325374.0 331965.0 148054.0 150815.0 296803.0 291945.0 329635.0 332811.0 297674.0 305664.0 188643.0 183307.0 229030.0 236741.0 84728.0 92526.0 73948.0 66108.0 274212.0 276343.0 251043.0 256809.0 301443.0 307144.0 220551.0 227585.0 264548.0 268563.0 57260.0 63976.0 231089.0 233856.0 115945.0 117480.0 295971.0 300786.0 313689.0 307478.0 321747.0 317411.0 310440.0 314978.0 332325.0 325041.0 115534.0 113502.0 242080.0 235604.0 119291.0 111298.0 276150.0 268151.0 185893.0 191071.0 293374.0 298805.0 318556.0 314091.0 284864.0 290235.0 43250.0 35737.0 283911.0 278990.0 279838.0 272221.0 7962.0 0.0 206946.0 205002.0 199668.0 202895.0 241436.0 249337.0 300679.0 292649.0 305950.0 298440.0 47798.0 51003.0 274516.0 268782.0 317770.0 311045.0 150577.0 146140.0 214370.0 222346.0 198783.0 190438.0 203099.0 210655.0 277881.0 121060.0 277881.0 277881.0 277881.0 277881.0 121060.0 121060.0 121060.0 121060.0
36352.0 35783.0 158375.0 159122.0 130180.0 131631.0 144332.0 146860.0 218769.0 220256.0 138531.0 132259.0 104332.0 110399.0 18553.0 23289.0 103513.0 96341.0 47404.0 51514.0 247377.0 245990.0 157012.0 164820.0 30708.0 31289.0 171743.0 172458.0 130149.0 123282.0 28052.0 29715.0 111816.0 110506.0 66367.0 70887.0 3661.0 10596.0 95195.0 91679.0 181722.0 175110.0 189892.0 183548.0 66183.0 72671.0 115335.0 120477.0 39914.0 34401.0 176975.0 182815.0 11448.0 17782.0 24762.0 32751.0 82350.0 75611.0 52246.0 45442.0 183906.0 190378.0 46780.0 39567.0 59948.0 68003.0 144860.0 139776.0 185326.0 187962.0 60376.0 56816.0 119095.0 117533.0 137235.0 137774.0 96378.0 104030.0 21756.0 24182.0 28320.0 33833.0 128190.0 122282.0 145771.0 150517.0 137403.0 133371.0 46303.0 50713.0 182809.0 183259.0 31650.0 32837.0 59795.0 65544.0 164689.0 157292.0 24149.0 28009.0 99787.0 103326.0 115415.0 116389.0 108129.0 101361.0 121732.0 115738.0 132540.0 134249.0 181461.0 177470.0 92079.0 95857.0 36734.0 32145.0 94573.0 101673.0 70180.0 62459.0 31769.0 23352.0 114847.0 116927.0 120894.0 114468.0 86290.0 89291.0 247633.0 239417.0 94773.0 94011.0 85360.0 77731.0 212462.0 206946.0 0.0 7938.0 12758.0 18511.0 38378.0 45279.0 155306.0 149308.0 118193.0 110003.0 239746.0 246598.0 96663.0 88779.0 111946.0 104840.0 61892.0 63244.0 9096.0 16448.0 27900.0 32207.0 35100.0 31671.0 112043.0 96878.0 112043.0 112043.0 112043.0 112043.0 96878.0 96878.0 96878.0 96878.0
35595.0 36902.0 166263.0 167044.0 125150.0 126997.0 150492.0 152749.0 216412.0 217646.0 137752.0 131792.0 99807.0 106171.0 26255.0 31225.0 109639.0 102655.0 49230.0 52221.0 244737.0 243113.0 154477.0 162323.0 38573.0 39180.0 168958.0 170041.0 127769.0 120660.0 35255.0 37514.0 117064.0 116164.0 70455.0 74248.0 4795.0 9541.0 102898.0 99221.0 180579.0 174174.0 189225.0 183098.0 68017.0 73961.0 120676.0 125509.0 44550.0 40002.0 174474.0 180081.0 10039.0 12281.0 32059.0 39907.0 84484.0 78254.0 52832.0 45391.0 183224.0 189487.0 46665.0 38938.0 58575.0 66386.0 147280.0 142534.0 193211.0 195804.0 57344.0 54230.0 114500.0 112534.0 134872.0 135854.0 101567.0 109069.0 16929.0 21803.0 25859.0 32666.0 127848.0 122294.0 142094.0 147153.0 145338.0 141306.0 51257.0 54771.0 190727.0 191194.0 39549.0 40378.0 59989.0 64976.0 164432.0 157158.0 27504.0 32950.0 100443.0 104532.0 122603.0 123339.0 108960.0 102536.0 120722.0 115126.0 128113.0 130191.0 189225.0 185292.0 91022.0 95386.0 41660.0 38101.0 90654.0 98001.0 71201.0 63254.0 36378.0 28122.0 110298.0 112829.0 126498.0 119811.0 92112.0 94635.0 246168.0 237974.0 91378.0 89989.0 91768.0 84250.0 210302.0 205002.0 7938.0 0.0 6057.0 10574.0 44218.0 50547.0 163200.0 157226.0 114928.0 106740.0 236842.0 243695.0 91759.0 83989.0 112939.0 106084.0 57607.0 59852.0 9723.0 17487.0 34638.0 37802.0 42357.0 39449.0 105770.0 92464.0 105770.0 105770.0 105770.0 105770.0 92464.0 92464.0 92464.0 92464.0
40415.0 42399.0 169788.0 170805.0 126453.0 128671.0 156444.0 158750.0 210925.0 212074.0 142100.0 136309.0 101654.0 108256.0 31289.0 35423.0 115593.0 108563.0 54851.0 57471.0 239150.0 237453.0 157750.0 165612.0 43259.0 42980.0 163346.0 164550.0 131189.0 123932.0 40743.0 42364.0 123118.0 122191.0 76469.0 80159.0 9100.0 8047.0 107881.0 104429.0 175587.0 169281.0 184448.0 178430.0 73578.0 79333.0 126726.0 131566.0 44011.0 40463.0 168953.0 174481.0 8000.0 6380.0 34674.0 42167.0 81548.0 75717.0 58035.0 50398.0 178444.0 184605.0 51634.0 43768.0 62851.0 70478.0 152921.0 148268.0 197715.0 200462.0 51785.0 48854.0 116238.0 113898.0 138289.0 139553.0 107622.0 115126.0 11133.0 17067.0 30051.0 37350.0 123291.0 117932.0 136246.0 141382.0 149268.0 145448.0 57312.0 60791.0 194437.0 195101.0 44110.0 45594.0 64998.0 69620.0 159876.0 152673.0 33509.0 39000.0 96495.0 100906.0 128130.0 129010.0 114093.0 107810.0 124973.0 119596.0 129970.0 132360.0 194080.0 190009.0 86183.0 90828.0 47714.0 44048.0 84777.0 92178.0 76485.0 68484.0 36012.0 28216.0 112091.0 115006.0 132531.0 125862.0 98115.0 100683.0 241011.0 232829.0 94182.0 92305.0 97648.0 90093.0 204887.0 199668.0 12758.0 6057.0 0.0 8047.0 50194.0 56590.0 167670.0 161561.0 117756.0 109592.0 231189.0 238042.0 93285.0 85658.0 118129.0 111379.0 51688.0 54165.0 15698.0 23263.0 36455.0 38310.0 44732.0 42858.0 105814.0 86491.0 105814.0 105814.0 105814.0 105814.0 86491.0 86491.0 86491.0 86491.0
37256.0 40787.0 176781.0 177602.0 118916.0 121331.0 158925.0 160848.0 213720.0 214605.0 137390.0 131880.0 94454.0 101205.0 36668.0 41798.0 118118.0 111372.0 53399.0 54930.0 241611.0 239754.0 151650.0 159520.0 49083.0 49718.0 165796.0 167382.0 125283.0 117880.0 45225.0 47969.0 124477.0 124071.0 76820.0 79715.0 15218.0 16094.0 113204.0 109347.0 179620.0 173516.0 188882.0 183062.0 71736.0 76900.0 128188.0 132633.0 52002.0 48504.0 171687.0 176956.0 16024.0 11266.0 42148.0 49818.0 88388.0 82859.0 55370.0 47405.0 182879.0 188844.0 48541.0 40544.0 58364.0 65647.0 151064.0 146767.0 203718.0 206257.0 54881.0 52510.0 108950.0 106404.0 132369.0 133957.0 108974.0 116264.0 15313.0 22950.0 26176.0 34022.0 128188.0 123137.0 137782.0 143263.0 155909.0 151877.0 58859.0 61344.0 201279.0 201765.0 50088.0 50605.0 61819.0 65687.0 164715.0 157633.0 34374.0 41004.0 102302.0 107065.0 132299.0 132756.0 110914.0 104988.0 120149.0 115128.0 122739.0 125335.0 199583.0 195721.0 90712.0 95814.0 49435.0 46939.0 86323.0 93961.0 73845.0 65773.0 44036.0 36262.0 104840.0 108009.0 134310.0 127329.0 100302.0 102257.0 244634.0 236483.0 87741.0 85457.0 100629.0 93262.0 207892.0 202895.0 18511.0 10574.0 8047.0 0.0 52838.0 58489.0 173719.0 167774.0 111281.0 103155.0 233482.0 240335.0 85906.0 78379.0 115072.0 108596.0 53248.0 56792.0 17477.0 23398.0 44247.0 46347.0 52341.0 49893.0 97865.0 87390.0 97865.0 97865.0 97865.0 97865.0 87390.0 87390.0 87390.0 87390.0
34696.0 26479.0 138742.0 137685.0 131944.0 130978.0 106281.0 108572.0 254011.0 255949.0 118067.0 110686.0 104771.0 108720.0 24118.0 28553.0 65429.0 58548.0 27083.0 34992.0 283052.0 282071.0 144048.0 151411.0 23517.0 31935.0 207882.0 207987.0 117547.0 112264.0 14737.0 21783.0 73555.0 72131.0 31084.0 37806.0 41766.0 48745.0 65852.0 60338.0 214621.0 207572.0 221579.0 214730.0 40189.0 48086.0 77020.0 82368.0 62226.0 54206.0 212627.0 218833.0 49612.0 55956.0 39141.0 43530.0 108383.0 100396.0 36035.0 35272.0 215676.0 222614.0 36265.0 35285.0 50752.0 58085.0 112125.0 106125.0 157750.0 159197.0 97659.0 93709.0 118913.0 119806.0 124209.0 122572.0 58192.0 65959.0 60117.0 61922.0 38861.0 35602.0 159761.0 153070.0 183176.0 187545.0 115320.0 109738.0 10152.0 17698.0 161198.0 160178.0 24872.0 17052.0 43067.0 51072.0 195552.0 187916.0 20035.0 12156.0 129433.0 131296.0 80619.0 80385.0 82267.0 74497.0 103083.0 95627.0 130652.0 130207.0 151282.0 148383.0 125904.0 128375.0 6654.0 6245.0 132373.0 139227.0 47232.0 42146.0 56394.0 50419.0 114664.0 114079.0 82516.0 76152.0 47951.0 51009.0 280926.0 272691.0 89936.0 92590.0 47795.0 40507.0 247353.0 241436.0 38378.0 44218.0 50194.0 52838.0 0.0 8006.0 128476.0 123674.0 110790.0 103154.0 276028.0 282879.0 99906.0 92130.0 85229.0 77494.0 100056.0 100814.0 35391.0 30418.0 44401.0 52817.0 43732.0 35171.0 123436.0 135005.0 123436.0 123436.0 123436.0 123436.0 135005.0 135005.0 135005.0 135005.0
35229.0 26675.0 140242.0 138722.0 129113.0 127682.0 100483.0 102374.0 261852.0 263742.0 111358.0 103853.0 102024.0 105488.0 32016.0 36545.0 59751.0 53324.0 23497.0 31434.0 290852.0 289818.0 138396.0 145645.0 31168.0 39608.0 215605.0 215787.0 112145.0 107200.0 22732.0 29528.0 66582.0 65663.0 23081.0 29943.0 48517.0 55794.0 65403.0 59203.0 222596.0 215558.0 229580.0 222735.0 33657.0 41577.0 70153.0 75198.0 70206.0 62176.0 220415.0 226576.0 56658.0 62560.0 47132.0 51355.0 116349.0 108340.0 32445.0 33472.0 223676.0 230607.0 34234.0 35054.0 47701.0 54460.0 104131.0 98119.0 156848.0 157892.0 105094.0 101223.0 115843.0 117213.0 118678.0 116680.0 51116.0 58751.0 66878.0 69158.0 41484.0 36812.0 167757.0 161074.0 190630.0 195099.0 116389.0 110430.0 2646.0 10644.0 162030.0 160614.0 32440.0 24540.0 38699.0 46755.0 203557.0 195921.0 24384.0 17608.0 137439.0 139286.0 77385.0 76434.0 74993.0 67141.0 96768.0 89136.0 127119.0 126265.0 149519.0 147023.0 133804.0 136337.0 9070.0 13770.0 139672.0 146618.0 41117.0 36923.0 64399.0 58372.0 111647.0 110544.0 75969.0 69288.0 41818.0 44102.0 288895.0 280661.0 86397.0 89688.0 42994.0 36255.0 255225.0 249337.0 45279.0 50547.0 56590.0 58489.0 8006.0 0.0 128004.0 123621.0 106418.0 98989.0 283732.0 290585.0 97813.0 90216.0 77819.0 70048.0 107153.0 108173.0 41291.0 35352.0 52379.0 60806.0 51451.0 42877.0 122800.0 142135.0 122800.0 122800.0 122800.0 122800.0 142135.0 142135.0 142135.0 142135.0
162910.0 154439.0 34883.0 27010.0 252954.0 249968.0 88027.0 96140.0 316347.0 320907.0 210098.0 202096.0 226727.0 228677.0 137106.0 132252.0 91657.0 90432.0 150327.0 157655.0 345738.0 347586.0 245843.0 251443.0 124636.0 125027.0 280379.0 276810.0 223871.0 221688.0 129700.0 125786.0 107800.0 99785.0 130064.0 136715.0 158810.0 161793.0 62672.0 68927.0 269071.0 261039.0 269474.0 261421.0 150875.0 156641.0 105919.0 112287.0 143031.0 138912.0 281630.0 289383.0 162460.0 170960.0 135138.0 129713.0 166961.0 159896.0 158540.0 161219.0 264813.0 272862.0 161836.0 163013.0 173676.0 178901.0 167153.0 159137.0 30066.0 33796.0 194276.0 189485.0 239243.0 241984.0 228814.0 223863.0 110261.0 111952.0 173068.0 169643.0 167011.0 164044.0 218495.0 210513.0 267273.0 268271.0 26537.0 25062.0 129699.0 134474.0 40799.0 36042.0 123656.0 123713.0 162720.0 170053.0 244111.0 236938.0 147605.0 139577.0 189920.0 185915.0 60859.0 67461.0 172996.0 166123.0 202290.0 194042.0 248499.0 245878.0 31671.0 24800.0 201516.0 198652.0 134772.0 132179.0 226040.0 229985.0 158525.0 158814.0 145476.0 147620.0 235333.0 232492.0 100349.0 105878.0 102784.0 109242.0 329872.0 322301.0 209329.0 214335.0 93853.0 96468.0 308253.0 300679.0 155306.0 163200.0 167670.0 173719.0 128476.0 128004.0 0.0 8030.0 224904.0 218885.0 345139.0 350269.0 224045.0 216867.0 172667.0 166607.0 202012.0 198286.0 157846.0 156158.0 135919.0 139949.0 127135.0 125789.0 250648.0 231534.0 250648.0 250648.0 250648.0 250648.0 231534.0 231534.0 231534.0 231534.0
158267.0 149854.0 30104.0 23025.0 249766.0 247009.0 90684.0 98842.0 308320.0 312886.0 209122.0 201074.0 223332.0 225526.0 131258.0 126146.0 90705.0 88785.0 146283.0 153749.0 337709.0 339561.0 244439.0 250213.0 118722.0 118751.0 272427.0 268830.0 221955.0 219502.0 124183.0 119946.0 107642.0 99522.0 126961.0 133892.0 152773.0 155512.0 58248.0 64998.0 261040.0 253008.0 261454.0 253402.0 147738.0 153763.0 106032.0 112731.0 135862.0 131936.0 273648.0 281407.0 156162.0 164680.0 128642.0 123010.0 159095.0 152081.0 154658.0 156996.0 256788.0 264837.0 157664.0 158507.0 169890.0 175369.0 167893.0 159822.0 36784.0 41251.0 187055.0 182269.0 236091.0 238613.0 227072.0 222341.0 108970.0 111219.0 166663.0 163031.0 161952.0 159276.0 210502.0 202521.0 259495.0 260436.0 18525.0 17383.0 125422.0 130531.0 41079.0 37756.0 117686.0 118108.0 159132.0 166606.0 236082.0 228908.0 142504.0 134523.0 181994.0 177946.0 60069.0 67166.0 171598.0 164537.0 200722.0 192436.0 245662.0 243256.0 39691.0 32697.0 193757.0 190820.0 130070.0 127123.0 218583.0 222439.0 155498.0 155408.0 138517.0 140900.0 232127.0 229527.0 100918.0 105925.0 100609.0 107421.0 321873.0 314296.0 206145.0 210915.0 91295.0 93311.0 300225.0 292649.0 149308.0 157226.0 161561.0 167774.0 123674.0 123621.0 8030.0 0.0 222325.0 216119.0 337129.0 342249.0 220348.0 213059.0 171476.0 165192.0 194925.0 191069.0 152160.0 150767.0 129239.0 133030.0 120410.0 119384.0 246410.0 224138.0 246410.0 246410.0 246410.0 246410.0 224138.0 224138.0 224138.0 224138.0
83455.0 88176.0 243374.0 240620.0 33792.0 27564.0 162887.0 159189.0 315255.0 315464.0 46455.0 47619.0 24611.0 17546.0 122594.0 130557.0 135761.0 135131.0 83708.0 75844.0 342239.0 340299.0 41398.0 49167.0 130678.0 137740.0 266797.0 269513.0 19196.0 11738.0 120521.0 128648.0 125277.0 131493.0 95860.0 88511.0 118068.0 124412.0 165920.0 158332.0 286229.0 280893.0 296755.0 291591.0 75556.0 68824.0 128743.0 126416.0 157985.0 151765.0 273434.0 277920.0 124807.0 122522.0 138686.0 146116.0 199274.0 193181.0 74800.0 77362.0 290808.0 296071.0 76096.0 80829.0 60989.0 53057.0 98148.0 100446.0 250630.0 249539.0 162460.0 161326.0 22537.0 29754.0 24795.0 30407.0 116930.0 118044.0 126494.0 134220.0 89873.0 85209.0 237834.0 233417.0 237406.0 243262.0 218835.0 211996.0 103900.0 96595.0 262862.0 260080.0 132283.0 125837.0 67807.0 59757.0 273941.0 267199.0 101796.0 106255.0 213413.0 218338.0 165378.0 160352.0 59345.0 63281.0 35402.0 40038.0 24808.0 20997.0 239008.0 238882.0 200051.0 205937.0 104591.0 111483.0 186669.0 194661.0 67548.0 69696.0 149907.0 141510.0 21669.0 13805.0 136561.0 128306.0 122216.0 116325.0 348813.0 340894.0 23574.0 26974.0 131087.0 129258.0 310112.0 305950.0 118193.0 114928.0 117756.0 111281.0 110790.0 106418.0 224904.0 222325.0 0.0 8193.0 334027.0 340880.0 33760.0 37602.0 62245.0 64522.0 157150.0 163152.0 109139.0 102886.0 143437.0 149652.0 147582.0 140272.0 64593.0 186539.0 64593.0 64593.0 64593.0 64593.0 186539.0 186539.0 186539.0 186539.0
75343.0 80196.0 236689.0 234094.0 36358.0 31558.0 159051.0 155692.0 307774.0 307983.0 49567.0 49419.0 20220.0 14953.0 114537.0 122514.0 130534.0 129530.0 76078.0 68167.0 334759.0 332819.0 49089.0 56916.0 122762.0 129753.0 259317.0 262032.0 24953.0 16888.0 112626.0 120732.0 120900.0 126818.0 89332.0 82229.0 109874.0 116227.0 159341.0 151832.0 278552.0 273157.0 288989.0 283771.0 68795.0 62373.0 124472.0 122579.0 149802.0 143602.0 265954.0 270440.0 116625.0 114388.0 130572.0 138029.0 191100.0 184994.0 67123.0 69421.0 283035.0 288354.0 68170.0 72752.0 53062.0 45223.0 97782.0 99429.0 244985.0 244091.0 154581.0 153384.0 23343.0 29454.0 31366.0 35859.0 111831.0 113396.0 118384.0 126086.0 81683.0 77062.0 229901.0 225430.0 229925.0 235781.0 212204.0 205457.0 96501.0 89325.0 256500.0 253872.0 124369.0 118007.0 60303.0 52243.0 266058.0 259285.0 93760.0 98345.0 205330.0 210219.0 159772.0 154981.0 56662.0 59679.0 36164.0 39195.0 29663.0 27424.0 233718.0 233380.0 192120.0 197952.0 96890.0 103687.0 179188.0 187173.0 60847.0 62476.0 141721.0 133322.0 20999.0 14763.0 132355.0 123994.0 116414.0 110820.0 341353.0 333412.0 15417.0 19598.0 125033.0 122886.0 302632.0 298440.0 110003.0 106740.0 109592.0 103155.0 103154.0 98989.0 218885.0 216119.0 8193.0 0.0 326547.0 333400.0 28234.0 30861.0 59989.0 61320.0 149418.0 155331.0 100950.0 94722.0 135304.0 141485.0 139517.0 132257.0 60608.0 179059.0 60608.0 60608.0 60608.0 60608.0 179059.0 179059.0 179059.0 179059.0
270738.0 273574.0 324789.0 330990.0 331298.0 335948.0 374779.0 379233.0 31693.0 25269.0 367697.0 363065.0 312314.0 320006.0 252020.0 249417.0 336169.0 328183.0 286037.0 288341.0 18761.0 11333.0 375416.0 383144.0 257429.0 250549.0 68247.0 69542.0 350913.0 342959.0 262182.0 258141.0 348413.0 345439.0 305889.0 310631.0 237138.0 229245.0 308141.0 309475.0 78747.0 86463.0 83884.0 91195.0 304759.0 310307.0 351507.0 357631.0 219305.0 226827.0 64683.0 57626.0 228424.0 224819.0 239712.0 239245.0 180856.0 188892.0 288817.0 280886.0 86327.0 78936.0 282022.0 274024.0 290742.0 297189.0 384108.0 379346.0 370649.0 377022.0 179525.0 182930.0 324880.0 320022.0 357711.0 360902.0 333512.0 341446.0 220057.0 215634.0 259615.0 267503.0 126844.0 134839.0 98138.0 91057.0 318823.0 320498.0 285205.0 290344.0 347760.0 353243.0 256973.0 263481.0 295271.0 298650.0 104152.0 110307.0 263782.0 267401.0 156887.0 159764.0 336316.0 340601.0 344264.0 338466.0 350298.0 346449.0 338517.0 343055.0 376808.0 369709.0 151827.0 151608.0 275913.0 269975.0 147591.0 139727.0 307308.0 299241.0 222302.0 226402.0 321451.0 326882.0 355759.0 350650.0 321407.0 326120.0 54703.0 53717.0 311980.0 307068.0 317315.0 309548.0 39872.0 47798.0 239746.0 236842.0 231189.0 233482.0 276028.0 283732.0 345139.0 337129.0 334027.0 326547.0 0.0 8022.0 302593.0 296859.0 348478.0 342076.0 180298.0 177025.0 246459.0 254328.0 235343.0 227303.0 240689.0 247639.0 305958.0 149265.0 305958.0 305958.0 305958.0 305958.0 149265.0 149265.0 149265.0 149265.0
277591.0 280427.0 329386.0 335693.0 338151.0 342800.0 381173.0 385713.0 34728.0 29390.0 374550.0 369918.0 319167.0 326859.0 258865.0 256192.0 342742.0 334739.0 292889.0 295194.0 13501.0 5638.0 382269.0 389997.0 264143.0 257179.0 75015.0 75764.0 357766.0 349812.0 269042.0 264886.0 355177.0 352108.0 312721.0 317484.0 243990.0 236097.0 314161.0 315627.0 82585.0 90459.0 86551.0 94124.0 311612.0 317159.0 358239.0 364424.0 225799.0 233380.0 70942.0 64184.0 235277.0 231672.0 246415.0 245799.0 186716.0 194823.0 295670.0 287739.0 89458.0 81813.0 288875.0 280876.0 297595.0 304042.0 390961.0 386199.0 375496.0 381954.0 186377.0 189783.0 331733.0 326875.0 364564.0 367755.0 340330.0 348276.0 226910.0 222487.0 266468.0 274355.0 132327.0 140309.0 104990.0 97910.0 323894.0 325715.0 292054.0 297161.0 352135.0 357730.0 263660.0 270242.0 302124.0 305503.0 108085.0 114526.0 270635.0 274229.0 162699.0 165308.0 342445.0 346829.0 351117.0 345319.0 357151.0 353302.0 345370.0 349908.0 381939.0 374777.0 158349.0 157880.0 282753.0 276828.0 154443.0 146580.0 314161.0 306094.0 228952.0 233193.0 328304.0 333735.0 362408.0 357385.0 328127.0 332929.0 51147.0 51322.0 318832.0 313920.0 323904.0 316153.0 43059.0 51003.0 246598.0 243695.0 238042.0 240335.0 282879.0 290585.0 350269.0 342249.0 340880.0 333400.0 8022.0 0.0 309446.0 303712.0 355331.0 348929.0 187151.0 183878.0 253312.0 261181.0 241989.0 233899.0 247199.0 254242.0 312811.0 156118.0 312811.0 312811.0 312811.0 312811.0 156118.0 156118.0 156118.0 156118.0
66908.0 73984.0 238053.0 236407.0 33542.0 35431.0 173638.0 171387.0 283821.0 284030.0 77541.0 76652.0 9783.0 17574.0 105405.0 113410.0 140598.0 138032.0 74447.0 66734.0 310805.0 308865.0 74009.0 81486.0 115640.0 121415.0 235363.0 238079.0 52718.0 44794.0 106094.0 113667.0 134385.0 139106.0 94713.0 89330.0 95667.0 100765.0 162266.0 155351.0 255254.0 250235.0 266234.0 261405.0 74242.0 70148.0 138236.0 137800.0 136244.0 131063.0 242000.0 246486.0 100987.0 97047.0 119791.0 127706.0 174069.0 168749.0 65791.0 64669.0 260338.0 265282.0 63749.0 65320.0 50482.0 45297.0 121595.0 122064.0 251718.0 251715.0 133166.0 132588.0 23163.0 20893.0 58555.0 63839.0 122910.0 126122.0 100425.0 108519.0 69544.0 67481.0 208615.0 204737.0 205971.0 211828.0 214115.0 207970.0 95688.0 89912.0 259559.0 257780.0 117227.0 112124.0 61349.0 54290.0 244231.0 237746.0 85830.0 92160.0 185994.0 191532.0 167631.0 163954.0 77378.0 78026.0 62932.0 64129.0 37057.0 40667.0 242108.0 240848.0 170972.0 177344.0 93263.0 98720.0 155235.0 163227.0 67413.0 65533.0 128055.0 119697.0 19247.0 24339.0 146169.0 137631.0 124369.0 120269.0 317399.0 309464.0 20956.0 12705.0 131534.0 127802.0 278678.0 274516.0 96663.0 91759.0 93285.0 85906.0 99906.0 97813.0 224045.0 220348.0 33760.0 28234.0 302593.0 309446.0 0.0 8000.0 81411.0 80565.0 126882.0 133415.0 88127.0 83522.0 123921.0 128870.0 129597.0 123410.0 33292.0 155105.0 33292.0 33292.0 33292.0 33292.0 155105.0 155105.0 155105.0 155105.0
58950.0 66105.0 230449.0 228894.0 41497.0 43027.0 168266.0 166296.0 278087.0 278296.0 78702.0 76989.0 16165.0 23438.0 97405.0 105410.0 134385.0 131546.0 66942.0 59327.0 305071.0 303131.0 78764.0 86413.0 107658.0 113416.0 229629.0 232345.0 55813.0 47749.0 98135.0 105687.0 128915.0 133347.0 87966.0 82921.0 87842.0 93063.0 154909.0 148079.0 249386.0 244233.0 260183.0 255227.0 67735.0 64141.0 132811.0 132729.0 128428.0 123175.0 236266.0 240752.0 93304.0 89567.0 111819.0 119727.0 166669.0 161237.0 58407.0 56945.0 254265.0 259338.0 56062.0 57410.0 43191.0 38573.0 119490.0 119445.0 244723.0 244851.0 126602.0 125860.0 30581.0 28857.0 62117.0 66670.0 116986.0 120529.0 93049.0 101102.0 61562.0 59491.0 202097.0 198064.0 200237.0 206094.0 206581.0 200503.0 88136.0 82542.0 252105.0 250420.0 109243.0 104180.0 54351.0 47611.0 237884.0 231315.0 77854.0 84234.0 179003.0 184420.0 160941.0 157461.0 74554.0 74427.0 63128.0 63278.0 44365.0 47369.0 235373.0 233972.0 164385.0 170627.0 85480.0 90839.0 149501.0 157493.0 61228.0 58771.0 120238.0 111867.0 26463.0 30377.0 140718.0 132179.0 117852.0 114042.0 311665.0 303730.0 19599.0 11791.0 124747.0 120795.0 272944.0 268782.0 88779.0 83989.0 85658.0 78379.0 92130.0 90216.0 216867.0 213059.0 37602.0 30861.0 296859.0 303712.0 8000.0 0.0 78762.0 77197.0 120644.0 126994.0 80200.0 75534.0 115972.0 120984.0 121610.0 115410.0 35337.0 149371.0 35337.0 35337.0 35337.0 35337.0 149371.0 149371.0 149371.0 149371.0
77889.0 76251.0 196134.0 192009.0 95830.0 89793.0 102030.0 97696.0 328784.0 329662.0 37892.0 29781.0 77379.0 74462.0 106444.0 112806.0 81019.0 82817.0 64694.0 60719.0 356646.0 354750.0 73291.0 78777.0 108741.0 117139.0 280847.0 282434.0 53955.0 54467.0 99382.0 106968.0 66731.0 74027.0 57022.0 48782.0 113732.0 121640.0 120032.0 112062.0 293468.0 286969.0 301830.0 295489.0 46342.0 39313.0 69676.0 65984.0 146000.0 138238.0 286755.0 292010.0 122362.0 124375.0 123151.0 128484.0 191926.0 184298.0 60113.0 67785.0 295842.0 302259.0 66593.0 74566.0 58543.0 53567.0 41087.0 40699.0 195748.0 193635.0 169744.0 166975.0 83300.0 89320.0 57569.0 51695.0 62507.0 61030.0 129127.0 134736.0 88900.0 81082.0 240128.0 234125.0 252268.0 258051.0 171617.0 164111.0 75302.0 67532.0 212555.0 208647.0 110100.0 102249.0 53260.0 50151.0 276597.0 269162.0 88416.0 87977.0 211263.0 214143.0 111810.0 105521.0 4510.0 10790.0 30752.0 23237.0 86815.0 81693.0 182437.0 183360.0 203838.0 207800.0 81559.0 89269.0 201049.0 208813.0 41794.0 49685.0 139158.0 131821.0 80908.0 74544.0 77077.0 69406.0 72331.0 64694.0 359104.0 350911.0 60461.0 68729.0 82549.0 83791.0 322895.0 317770.0 111946.0 112939.0 118129.0 115072.0 85229.0 77819.0 172667.0 171476.0 62245.0 59989.0 348478.0 355331.0 81411.0 78762.0 0.0 7807.0 168180.0 171829.0 103843.0 95869.0 128494.0 136572.0 128875.0 120347.0 114021.0 201470.0 114021.0 114021.0 114021.0 114021.0 201470.0 201470.0 201470.0 201470.0
71344.0 69266.0 189428.0 185458.0 97592.0 92028.0 98492.0 94668.0 322211.0 323187.0 44915.0 36819.0 77429.0 75268.0 98898.0 105174.0 75100.0 76415.0 57477.0 53908.0 350204.0 348348.0 79258.0 85078.0 101010.0 109416.0 274385.0 275845.0 58332.0 57872.0 91703.0 99248.0 61882.0 68822.0 49231.0 40979.0 106723.0 114656.0 112985.0 105019.0 286491.0 279936.0 294724.0 288329.0 38928.0 32182.0 65070.0 62096.0 138448.0 130655.0 280199.0 285543.0 115392.0 117665.0 115552.0 120805.0 184432.0 176763.0 53360.0 61200.0 288740.0 295212.0 60055.0 68052.0 53101.0 48876.0 44801.0 43047.0 190235.0 188353.0 163094.0 160230.0 84627.0 90210.0 62581.0 57275.0 56347.0 55571.0 122428.0 127855.0 82469.0 74574.0 232968.0 226897.0 246087.0 251763.0 164861.0 157415.0 67541.0 59799.0 206264.0 202519.0 102360.0 94501.0 46834.0 44493.0 269399.0 261940.0 81149.0 80471.0 203945.0 206731.0 105811.0 99762.0 6409.0 3633.0 35792.0 27689.0 89312.0 84671.0 177307.0 177971.0 196841.0 200687.0 73917.0 81606.0 194766.0 202485.0 34895.0 42908.0 131675.0 124412.0 81912.0 76061.0 72700.0 64724.0 65457.0 58008.0 352230.0 344029.0 59803.0 67873.0 75586.0 76518.0 316247.0 311045.0 104840.0 106084.0 111379.0 108596.0 77494.0 70048.0 166607.0 165192.0 64522.0 61320.0 342076.0 348929.0 80565.0 77197.0 7807.0 0.0 161801.0 165262.0 96875.0 88889.0 120896.0 129010.0 121168.0 112632.0 112529.0 195359.0 112529.0 112529.0 112529.0 112529.0 195359.0 195359.0 195359.0 195359.0
90490.0 93725.0 196200.0 199128.0 156639.0 161042.0 204914.0 207944.0 160844.0 161520.0 188532.0 183563.0 136469.0 144028.0 77436.0 77491.0 164360.0 156862.0 106297.0 108174.0 188473.0 186570.0 198496.0 206302.0 86251.0 81746.0 112702.0 114626.0 173276.0 165447.0 87949.0 86268.0 173608.0 171989.0 127969.0 131844.0 58783.0 51361.0 148205.0 146632.0 129176.0 123744.0 139615.0 134584.0 124851.0 130146.0 177072.0 182341.0 59143.0 63223.0 118816.0 123867.0 50495.0 45338.0 70263.0 73616.0 62399.0 61999.0 108618.0 100639.0 133677.0 138937.0 101758.0 93759.0 110632.0 117336.0 204234.0 199783.0 231704.0 235760.0 10588.0 14329.0 149603.0 145159.0 180204.0 182887.0 158210.0 165900.0 40692.0 38210.0 79332.0 87243.0 82126.0 78999.0 84639.0 90016.0 179700.0 177731.0 108191.0 112272.0 221688.0 224008.0 86374.0 90999.0 114982.0 118414.0 117369.0 110986.0 85079.0 89866.0 63979.0 71136.0 172441.0 174643.0 163971.0 158187.0 171191.0 166848.0 163392.0 167538.0 231239.0 226010.0 45165.0 52424.0 98609.0 93813.0 33140.0 40714.0 127091.0 119017.0 56746.0 56292.0 145992.0 150957.0 182408.0 176205.0 147675.0 151063.0 192902.0 184836.0 134453.0 130218.0 145769.0 137969.0 155254.0 150577.0 61892.0 57607.0 51688.0 53248.0 100056.0 107153.0 202012.0 194925.0 157150.0 149418.0 180298.0 187151.0 126882.0 120644.0 168180.0 161801.0 0.0 8000.0 67330.0 74940.0 67811.0 62381.0 75984.0 79765.0 131325.0 34986.0 131325.0 131325.0 131325.0 131325.0 34986.0 34986.0 34986.0 34986.0
93948.0 96551.0 191302.0 194482.0 163618.0 167844.0 204542.0 207863.0 156959.0 157964.0 193368.0 188182.0 142929.0 150421.0 77530.0 76753.0 164241.0 156601.0 109014.0 111416.0 185021.0 183289.0 204418.0 212247.0 85421.0 80259.0 109203.0 110605.0 178929.0 171169.0 88037.0 85626.0 174277.0 172289.0 129610.0 133922.0 60409.0 52652.0 145917.0 144759.0 123686.0 117987.0 133717.0 128441.0 127735.0 133359.0 177646.0 183173.0 55279.0 60173.0 114938.0 120347.0 51806.0 47794.0 68731.0 71265.0 54637.0 54598.0 111922.0 104075.0 127748.0 133255.0 105246.0 97264.0 114893.0 121857.0 207086.0 202386.0 227808.0 232075.0 4016.0 8801.0 156269.0 152002.0 185903.0 188352.0 158985.0 166772.0 43032.0 39083.0 82960.0 90747.0 75235.0 71755.0 82530.0 87349.0 175461.0 173790.0 109386.0 113945.0 216803.0 219348.0 85395.0 90579.0 118569.0 122428.0 110896.0 104336.0 87018.0 91210.0 56086.0 63179.0 170905.0 173452.0 167692.0 161669.0 176043.0 171436.0 170102.0 174081.0 227905.0 222481.0 37848.0 44864.0 99887.0 94605.0 31610.0 38453.0 130416.0 122367.0 53912.0 54624.0 152590.0 157358.0 182716.0 176780.0 147961.0 151741.0 188087.0 179969.0 140237.0 136291.0 145505.0 137670.0 151100.0 146140.0 63244.0 59852.0 54165.0 56792.0 100814.0 108173.0 198286.0 191069.0 163152.0 155331.0 177025.0 183878.0 133415.0 126994.0 171829.0 165262.0 8000.0 0.0 69511.0 77336.0 65753.0 59585.0 73495.0 78030.0 138409.0 35028.0 138409.0 138409.0 138409.0 138409.0 35028.0 35028.0 35028.0 35028.0
27406.0 27609.0 162753.0 163086.0 121667.0 122929.0 141584.0 143646.0 225907.0 227205.0 129704.0 123526.0 95611.0 101564.0 21239.0 28011.0 100751.0 93938.0 39735.0 43179.0 254306.0 252731.0 147917.0 155725.0 33800.0 36415.0 178550.0 179545.0 121056.0 114186.0 28372.0 32365.0 107650.0 106953.0 60772.0 64528.0 9949.0 17798.0 96609.0 92422.0 189632.0 183131.0 198055.0 191814.0 58556.0 64702.0 111299.0 116008.0 48887.0 43079.0 184000.0 189663.0 18521.0 21998.0 32049.0 40087.0 91370.0 84686.0 43853.0 36752.0 192060.0 198427.0 38070.0 30666.0 50932.0 58959.0 137708.0 132892.0 187741.0 190014.0 66937.0 63712.0 110388.0 109017.0 128143.0 128717.0 92144.0 99582.0 26650.0 31064.0 19278.0 24796.0 136488.0 130730.0 151806.0 156837.0 141106.0 136667.0 41849.0 45100.0 186817.0 186907.0 35046.0 34155.0 51243.0 56726.0 173038.0 165693.0 17813.0 23702.0 108461.0 112166.0 114955.0 115309.0 99937.0 93353.0 112837.0 106950.0 123757.0 125347.0 183029.0 179392.0 99995.0 104074.0 32300.0 29463.0 100373.0 107708.0 62052.0 54196.0 40777.0 32372.0 106124.0 108046.0 117246.0 110437.0 83036.0 85287.0 255367.0 247163.0 85746.0 85127.0 83168.0 75786.0 219740.0 214370.0 9096.0 9723.0 15698.0 17477.0 35391.0 41291.0 157846.0 152160.0 109139.0 100950.0 246459.0 253312.0 88127.0 80200.0 103843.0 96875.0 67330.0 69511.0 0.0 7988.0 35857.0 40906.0 42227.0 37483.0 104539.0 102177.0 104539.0 104539.0 104539.0 104539.0 102177.0 102177.0 102177.0 102177.0
20049.0 19625.0 162774.0 162703.0 117013.0 117842.0 135826.0 137582.0 233850.0 235117.0 122087.0 115814.0 90540.0 96163.0 22424.0 30201.0 95100.0 88567.0 31778.0 35237.0 262212.0 260599.0 141102.0 148879.0 34169.0 38485.0 186440.0 187484.0 114183.0 107473.0 26692.0 32432.0 101081.0 100760.0 53569.0 56939.0 17871.0 25772.0 94201.0 89480.0 197612.0 191100.0 206003.0 199739.0 50591.0 56715.0 104798.0 109245.0 55247.0 48880.0 191929.0 197560.0 26503.0 29636.0 36377.0 44216.0 98700.0 91831.0 35930.0 28996.0 200009.0 206393.0 30333.0 23194.0 43700.0 51818.0 129800.0 125051.0 185876.0 187827.0 74824.0 71653.0 105312.0 104386.0 121251.0 121581.0 85580.0 92869.0 34357.0 39039.0 14001.0 17781.0 144401.0 138593.0 159509.0 164619.0 140536.0 135731.0 35560.0 38004.0 186426.0 186171.0 35615.0 32939.0 43395.0 49103.0 180939.0 173576.0 11022.0 18274.0 116207.0 119773.0 110921.0 110802.0 91977.0 85370.0 105312.0 99290.0 118459.0 119699.0 180439.0 177113.0 107971.0 112004.0 26285.0 25050.0 108040.0 115436.0 54076.0 46241.0 47290.0 38998.0 101020.0 102494.0 110967.0 103940.0 77139.0 78891.0 263355.0 255151.0 79686.0 79624.0 78010.0 70866.0 227701.0 222346.0 16448.0 17487.0 23263.0 23398.0 30418.0 35352.0 156158.0 150767.0 102886.0 94722.0 254328.0 261181.0 83522.0 75534.0 95869.0 88889.0 74940.0 77336.0 7988.0 0.0 40796.0 46767.0 46076.0 40153.0 101763.0 109679.0 101763.0 101763.0 101763.0 101763.0 109679.0 109679.0 109679.0 109679.0
60010.0 56388.0 134776.0 136386.0 157462.0 158537.0 140257.0 144225.0 211945.0 214338.0 158958.0 152057.0 131217.0 136943.0 22244.0 15869.0 100897.0 92965.0 65115.0 71359.0 241323.0 240822.0 180817.0 188512.0 22441.0 15225.0 167097.0 166450.0 153864.0 147473.0 29672.0 23523.0 113396.0 110120.0 75441.0 82145.0 29941.0 28802.0 80395.0 79010.0 171118.0 163903.0 177603.0 170633.0 82310.0 89830.0 116348.0 122757.0 17827.0 9818.0 171197.0 177808.0 29199.0 37434.0 5344.0 6256.0 63989.0 56056.0 72288.0 67227.0 171739.0 178815.0 68579.0 62771.0 83211.0 91398.0 156501.0 150399.0 165912.0 169415.0 61952.0 57316.0 145998.0 144814.0 160864.0 160575.0 98891.0 106881.0 38330.0 33836.0 54539.0 58256.0 115959.0 109060.0 145035.0 148461.0 115485.0 112465.0 54526.0 61599.0 159802.0 161019.0 21773.0 28953.0 80165.0 87152.0 151420.0 143750.0 42504.0 40756.0 85276.0 86916.0 105206.0 107997.0 125195.0 117703.0 142879.0 136113.0 159223.0 160491.0 164209.0 159357.0 83746.0 85289.0 47028.0 39467.0 96579.0 102370.0 88137.0 81373.0 13041.0 11750.0 141716.0 143289.0 120421.0 115499.0 86229.0 91452.0 237442.0 229215.0 120389.0 120413.0 82021.0 74228.0 204998.0 198783.0 27900.0 34638.0 36455.0 44247.0 44401.0 52379.0 135919.0 129239.0 143437.0 135304.0 235343.0 241989.0 123921.0 115972.0 128494.0 120896.0 67811.0 65753.0 35857.0 40796.0 0.0 8481.0 8902.0 12502.0 139943.0 100704.0 139943.0 139943.0 139943.0 139943.0 100704.0 100704.0 100704.0 100704.0
66492.0 63518.0 136792.0 138882.0 162385.0 163805.0 147923.0 152058.0 203681.0 206144.0 166537.0 159737.0 136495.0 142467.0 30135.0 24263.0 108867.0 100892.0 72807.0 78776.0 233102.0 232675.0 187601.0 195337.0 30868.0 23336.0 159071.0 158293.0 160650.0 154096.0 38080.0 31994.0 121676.0 118265.0 83878.0 90514.0 33449.0 30279.0 86380.0 85541.0 162674.0 155444.0 169124.0 162152.0 90306.0 97740.0 124584.0 131064.0 9456.0 2204.0 163055.0 169730.0 30445.0 37861.0 13675.0 12123.0 55630.0 47786.0 79678.0 74235.0 163261.0 170344.0 75596.0 69402.0 89963.0 98148.0 164936.0 158859.0 169801.0 173622.0 55678.0 50943.0 151266.0 149739.0 167684.0 167631.0 107254.0 115245.0 37691.0 31712.0 60071.0 64496.0 107494.0 100581.0 137552.0 140782.0 118526.0 116004.0 62924.0 69907.0 162051.0 163668.0 30134.0 37419.0 87546.0 94324.0 142940.0 135270.0 49740.0 48654.0 76795.0 78480.0 112027.0 115139.0 133211.0 125783.0 150296.0 143668.0 164661.0 166216.0 168890.0 163758.0 75578.0 76936.0 55249.0 47769.0 89830.0 95329.0 95938.0 89005.0 5674.0 10180.0 147009.0 148933.0 128531.0 123738.0 94478.0 99815.0 228994.0 220768.0 126410.0 126016.0 90013.0 82255.0 196694.0 190438.0 32207.0 37802.0 38310.0 46347.0 52817.0 60806.0 139949.0 133030.0 149652.0 141485.0 227303.0 233899.0 128870.0 120984.0 136572.0 129010.0 62381.0 59585.0 40906.0 46767.0 8481.0 0.0 14049.0 20344.0 143565.0 94275.0 143565.0 143565.0 143565.0 143565.0 94275.0 94275.0 94275.0 94275.0
64263.0 59634.0 125923.0 127493.0 163085.0 163800.0 134240.0 138547.0 216607.0 219245.0 160670.0 153540.0 136533.0 141969.0 24996.0 17130.0 95595.0 87566.0 67028.0 73842.0 246127.0 245868.0 184032.0 191645.0 20287.0 11854.0 172503.0 171499.0 157127.0 151012.0 29566.0 21950.0 109111.0 105318.0 74147.0 81382.0 37576.0 37306.0 72422.0 71493.0 174790.0 167413.0 180687.0 173532.0 83191.0 90927.0 111870.0 118576.0 21407.0 14012.0 176289.0 183077.0 37761.0 46114.0 10339.0 2658.0 65938.0 57677.0 74821.0 70548.0 174891.0 182139.0 71871.0 66766.0 86820.0 94954.0 154942.0 148543.0 157106.0 160676.0 69617.0 64904.0 151288.0 150462.0 164055.0 163355.0 95067.0 103043.0 47175.0 42722.0 60059.0 62871.0 119459.0 112286.0 151470.0 154584.0 106586.0 103599.0 53825.0 61390.0 150922.0 152119.0 19087.0 26973.0 82644.0 89997.0 154293.0 146572.0 45831.0 42557.0 88356.0 89222.0 97987.0 101167.0 125800.0 118114.0 144989.0 137937.0 164297.0 165228.0 155605.0 150666.0 88864.0 89719.0 47496.0 39722.0 103874.0 109372.0 89555.0 83278.0 19666.0 20491.0 146988.0 148162.0 115490.0 111035.0 81874.0 87648.0 241027.0 232817.0 124862.0 125398.0 76816.0 69146.0 209498.0 203099.0 35100.0 42357.0 44732.0 52341.0 43732.0 51451.0 127135.0 120410.0 147582.0 139517.0 240689.0 247199.0 129597.0 121610.0 128875.0 121168.0 75984.0 73495.0 42227.0 46076.0 8902.0 14049.0 0.0 8574.0 146755.0 108273.0 146755.0 146755.0 146755.0 146755.0 108273.0 108273.0 108273.0 108273.0
57301.0 52121.0 126943.0 127966.0 156791.0 157215.0 127772.0 131791.0 223980.0 226476.0 152364.0 145184.0 130032.0 135240.0 18022.0 10000.0 88537.0 80576.0 58906.0 65902.0 253423.0 253017.0 176220.0 183794.0 11714.0 3298.0 179403.0 178634.0 149358.0 143377.0 21150.0 13389.0 101433.0 97931.0 65593.0 72808.0 34698.0 36245.0 68639.0 66869.0 182634.0 175321.0 188753.0 181657.0 74764.0 82533.0 104297.0 110851.0 28923.0 20999.0 183398.0 190072.0 36857.0 45389.0 9609.0 8830.0 74249.0 66043.0 66896.0 63001.0 182932.0 190121.0 64302.0 59621.0 79349.0 87428.0 146438.0 140082.0 155850.0 159027.0 74272.0 69676.0 144741.0 144207.0 156249.0 155382.0 87159.0 95147.0 47286.0 44201.0 54114.0 56170.0 127351.0 120276.0 157533.0 160928.0 106532.0 102960.0 45255.0 52842.0 151584.0 152328.0 10548.0 18410.0 74672.0 82153.0 162421.0 154713.0 38517.0 34560.0 96377.0 97475.0 92875.0 95548.0 117299.0 109593.0 136801.0 129673.0 157570.0 158263.0 153377.0 148798.0 95921.0 97168.0 39072.0 31295.0 109003.0 114849.0 81236.0 75106.0 25437.0 23487.0 140434.0 141312.0 108189.0 103454.0 74211.0 79725.0 248920.0 240702.0 117787.0 118671.0 69676.0 61912.0 216959.0 210655.0 31671.0 39449.0 42858.0 49893.0 35171.0 42877.0 125789.0 119384.0 140272.0 132257.0 247639.0 254242.0 123410.0 115410.0 120347.0 112632.0 79765.0 78030.0 37483.0 40153.0 12502.0 20344.0 8574.0 0.0 141709.0 113029.0 141709.0 141709.0 141709.0 141709.0 113029.0 113029.0 113029.0 113029.0
88850.0 96959.0 262112.0 261115.0 46895.0 53539.0 205338.0 203519.0 287186.0 287395.0 110171.0 109736.0 40422.0 47048.0 124185.0 131866.0 170653.0 167380.0 100394.0 93350.0 314170.0 312230.0 101167.0 107939.0 135648.0 140215.0 238728.0 241444.0 83749.0 76242.0 126955.0 133796.0 165956.0 170149.0 123494.0 119091.0 110237.0 113779.0 188170.0 181724.0 258629.0 253719.0 269783.0 265195.0 103862.0 100912.0 169876.0 169977.0 149818.0 145762.0 245365.0 249851.0 113808.0 108260.0 136518.0 144566.0 183483.0 179018.0 92538.0 89435.0 263929.0 268701.0 88814.0 88170.0 78028.0 74759.0 154576.0 154719.0 279075.0 279587.0 138719.0 138832.0 45843.0 38771.0 88720.0 94953.0 153652.0 157491.0 110802.0 118974.0 88120.0 88461.0 213451.0 210164.0 209336.0 215192.0 238750.0 233058.0 120994.0 116316.0 284593.0 283373.0 137159.0 133236.0 89706.0 83699.0 248445.0 242216.0 106667.0 113965.0 192960.0 199086.0 196277.0 193212.0 109849.0 109735.0 96105.0 97414.0 57108.0 63495.0 270462.0 268692.0 176257.0 183114.0 116844.0 121091.0 158600.0 166591.0 97835.0 94554.0 141771.0 133739.0 44275.0 52073.0 177758.0 169228.0 153675.0 150345.0 320764.0 312829.0 53939.0 45598.0 159981.0 155476.0 282043.0 277881.0 112043.0 105770.0 105814.0 97865.0 123436.0 122800.0 250648.0 246410.0 64593.0 60608.0 305958.0 312811.0 33292.0 35337.0 114021.0 112529.0 131325.0 138409.0 104539.0 101763.0 139943.0 143565.0 146755.0 141709.0 0.0 158470.0 0.0 0.0 0.0 0.0 158470.0 158470.0 158470.0 158470.0
124359.0 128140.0 222342.0 226086.0 183810.0 188460.0 239442.0 242642.0 129679.0 129575.0 220209.0 215591.0 164826.0 172518.0 112154.0 111706.0 199028.0 191448.0 140747.0 142168.0 157477.0 155537.0 227928.0 235656.0 120401.0 115283.0 81174.0 84457.0 203425.0 195471.0 122677.0 120562.0 208560.0 206844.0 162894.0 166617.0 93760.0 86341.0 180652.0 179673.0 104040.0 100037.0 116178.0 112592.0 159119.0 164086.0 212006.0 217317.0 89199.0 94711.0 88159.0 92214.0 85477.0 80183.0 103757.0 106109.0 75084.0 78498.0 142547.0 134468.0 110557.0 114448.0 135524.0 127556.0 143376.0 149722.0 238386.0 234156.0 260732.0 265317.0 38758.0 43398.0 177392.0 172534.0 210223.0 213414.0 193176.0 200878.0 75595.0 73098.0 113104.0 121085.0 68145.0 68493.0 50865.0 57106.0 207941.0 206777.0 143177.0 147199.0 247775.0 250835.0 120399.0 125451.0 148561.0 151405.0 97988.0 93095.0 119965.0 124850.0 64459.0 72531.0 205896.0 208479.0 197172.0 191730.0 202888.0 198964.0 191029.0 195567.0 261626.0 255959.0 42206.0 49871.0 133594.0 128765.0 7151.0 11757.0 160920.0 152851.0 88619.0 89649.0 173963.0 179394.0 217268.0 211139.0 182518.0 186013.0 164164.0 156343.0 164492.0 159580.0 180349.0 172526.0 124850.0 121060.0 96878.0 92464.0 86491.0 87390.0 135005.0 142135.0 231534.0 224138.0 186539.0 179059.0 149265.0 156118.0 155105.0 149371.0 201470.0 195359.0 34986.0 35028.0 102177.0 109679.0 100704.0 94275.0 108273.0 113029.0 158470.0 0.0 158470.0 158470.0 158470.0 158470.0 0.0 0.0 0.0 0.0
88850.0 96959.0 262112.0 261115.0 46895.0 53539.0 205338.0 203519.0 287186.0 287395.0 110171.0 109736.0 40422.0 47048.0 124185.0 131866.0 170653.0 167380.0 100394.0 93350.0 314170.0 312230.0 101167.0 107939.0 135648.0 140215.0 238728.0 241444.0 83749.0 76242.0 126955.0 133796.0 165956.0 170149.0 123494.0 119091.0 110237.0 113779.0 188170.0 181724.0 258629.0 253719.0 269783.0 265195.0 103862.0 100912.0 169876.0 169977.0 149818.0 145762.0 245365.0 249851.0 113808.0 108260.0 136518.0 144566.0 183483.0 179018.0 92538.0 89435.0 263929.0 268701.0 88814.0 88170.0 78028.0 74759.0 154576.0 154719.0 279075.0 279587.0 138719.0 138832.0 45843.0 38771.0 88720.0 94953.0 153652.0 157491.0 110802.0 118974.0 88120.0 88461.0 213451.0 210164.0 209336.0 215192.0 238750.0 233058.0 120994.0 116316.0 284593.0 283373.0 137159.0 133236.0 89706.0 83699.0 248445.0 242216.0 106667.0 113965.0 192960.0 199086.0 196277.0 193212.0 109849.0 109735.0 96105.0 97414.0 57108.0 63495.0 270462.0 268692.0 176257.0 183114.0 116844.0 121091.0 158600.0 166591.0 97835.0 94554.0 141771.0 133739.0 44275.0 52073.0 177758.0 169228.0 153675.0 150345.0 320764.0 312829.0 53939.0 45598.0 159981.0 155476.0 282043.0 277881.0 112043.0 105770.0 105814.0 97865.0 123436.0 122800.0 250648.0 246410.0 64593.0 60608.0 305958.0 312811.0 33292.0 35337.0 114021.0 112529.0 131325.0 138409.0 104539.0 101763.0 139943.0 143565.0 146755.0 141709.0 0.0 158470.0 0.0 0.0 0.0 0.0 158470.0 158470.0 158470.0 158470.0
88850.0 96959.0 262112.0 261115.0 46895.0 53539.0 205338.0 203519.0 287186.0 287395.0 110171.0 109736.0 40422.0 47048.0 124185.0 131866.0 170653.0 167380.0 100394.0 93350.0 314170.0 312230.0 101167.0 107939.0 135648.0 140215.0 238728.0 241444.0 83749.0 76242.0 126955.0 133796.0 165956.0 170149.0 123494.0 119091.0 110237.0 113779.0 188170.0 181724.0 258629.0 253719.0 269783.0 265195.0 103862.0 100912.0 169876.0 169977.0 149818.0 145762.0 245365.0 249851.0 113808.0 108260.0 136518.0 144566.0 183483.0 179018.0 92538.0 89435.0 263929.0 268701.0 88814.0 88170.0 78028.0 74759.0 154576.0 154719.0 279075.0 279587.0 138719.0 138832.0 45843.0 38771.0 88720.0 94953.0 153652.0 157491.0 110802.0 118974.0 88120.0 88461.0 213451.0 210164.0 209336.0 215192.0 238750.0 233058.0 120994.0 116316.0 284593.0 283373.0 137159.0 133236.0 89706.0 83699.0 248445.0 242216.0 106667.0 113965.0 192960.0 199086.0 196277.0 193212.0 109849.0 109735.0 96105.0 97414.0 57108.0 63495.0 270462.0 268692.0 176257.0 183114.0 116844.0 121091.0 158600.0 166591.0 97835.0 94554.0 141771.0 133739.0 44275.0 52073.0 177758.0 169228.0 153675.0 150345.0 320764.0 312829.0 53939.0 45598.0 159981.0 155476.0 282043.0 277881.0 112043.0 105770.0 105814.0 97865.0 123436.0 122800.0 250648.0 246410.0 64593.0 60608.0 305958.0 312811.0 33292.0 35337.0 114021.0 112529.0 131325.0 138409.0 104539.0 101763.0 139943.0 143565.0 146755.0 141709.0 0.0 158470.0 0.0 0.0 0.0 0.0 158470.0 158470.0 158470.0 158470.0
88850.0 96959.0 262112.0 261115.0 46895.0 53539.0 205338.0 203519.0 287186.0 287395.0 110171.0 109736.0 40422.0 47048.0 124185.0 131866.0 170653.0 167380.0 100394.0 93350.0 314170.0 312230.0 101167.0 107939.0 135648.0 140215.0 238728.0 241444.0 83749.0 76242.0 126955.0 133796.0 165956.0 170149.0 123494.0 119091.0 110237.0 113779.0 188170.0 181724.0 258629.0 253719.0 269783.0 265195.0 103862.0 100912.0 169876.0 169977.0 149818.0 145762.0 245365.0 249851.0 113808.0 108260.0 136518.0 144566.0 183483.0 179018.0 92538.0 89435.0 263929.0 268701.0 88814.0 88170.0 78028.0 74759.0 154576.0 154719.0 279075.0 279587.0 138719.0 138832.0 45843.0 38771.0 88720.0 94953.0 153652.0 157491.0 110802.0 118974.0 88120.0 88461.0 213451.0 210164.0 209336.0 215192.0 238750.0 233058.0 120994.0 116316.0 284593.0 283373.0 137159.0 133236.0 89706.0 83699.0 248445.0 242216.0 106667.0 113965.0 192960.0 199086.0 196277.0 193212.0 109849.0 109735.0 96105.0 97414.0 57108.0 63495.0 270462.0 268692.0 176257.0 183114.0 116844.0 121091.0 158600.0 166591.0 97835.0 94554.0 141771.0 133739.0 44275.0 52073.0 177758.0 169228.0 153675.0 150345.0 320764.0 312829.0 53939.0 45598.0 159981.0 155476.0 282043.0 277881.0 112043.0 105770.0 105814.0 97865.0 123436.0 122800.0 250648.0 246410.0 64593.0 60608.0 305958.0 312811.0 33292.0 35337.0 114021.0 112529.0 131325.0 138409.0 104539.0 101763.0 139943.0 143565.0 146755.0 141709.0 0.0 158470.0 0.0 0.0 0.0 0.0 158470.0 158470.0 158470.0 158470.0
88850.0 96959.0 262112.0 261115.0 46895.0 53539.0 205338.0 203519.0 287186.0 287395.0 110171.0 109736.0 40422.0 47048.0 124185.0 131866.0 170653.0 167380.0 100394.0 93350.0 314170.0 312230.0 101167.0 107939.0 135648.0 140215.0 238728.0 241444.0 83749.0 76242.0 126955.0 133796.0 165956.0 170149.0 123494.0 119091.0 110237.0 113779.0 188170.0 181724.0 258629.0 253719.0 269783.0 265195.0 103862.0 100912.0 169876.0 169977.0 149818.0 145762.0 245365.0 249851.0 113808.0 108260.0 136518.0 144566.0 183483.0 179018.0 92538.0 89435.0 263929.0 268701.0 88814.0 88170.0 78028.0 74759.0 154576.0 154719.0 279075.0 279587.0 138719.0 138832.0 45843.0 38771.0 88720.0 94953.0 153652.0 157491.0 110802.0 118974.0 88120.0 88461.0 213451.0 210164.0 209336.0 215192.0 238750.0 233058.0 120994.0 116316.0 284593.0 283373.0 137159.0 133236.0 89706.0 83699.0 248445.0 242216.0 106667.0 113965.0 192960.0 199086.0 196277.0 193212.0 109849.0 109735.0 96105.0 97414.0 57108.0 63495.0 270462.0 268692.0 176257.0 183114.0 116844.0 121091.0 158600.0 166591.0 97835.0 94554.0 141771.0 133739.0 44275.0 52073.0 177758.0 169228.0 153675.0 150345.0 320764.0 312829.0 53939.0 45598.0 159981.0 155476.0 282043.0 277881.0 112043.0 105770.0 105814.0 97865.0 123436.0 122800.0 250648.0 246410.0 64593.0 60608.0 305958.0 312811.0 33292.0 35337.0 114021.0 112529.0 131325.0 138409.0 104539.0 101763.0 139943.0 143565.0 146755.0 141709.0 0.0 158470.0 0.0 0.0 0.0 0.0 158470.0 158470.0 158470.0 158470.0
124359.0 128140.0 222342.0 226086.0 183810.0 188460.0 239442.0 242642.0 129679.0 129575.0 220209.0 215591.0 164826.0 172518.0 112154.0 111706.0 199028.0 191448.0 140747.0 142168.0 157477.0 155537.0 227928.0 235656.0 120401.0 115283.0 81174.0 84457.0 203425.0 195471.0 122677.0 120562.0 208560.0 206844.0 162894.0 166617.0 93760.0 86341.0 180652.0 179673.0 104040.0 100037.0 116178.0 112592.0 159119.0 164086.0 212006.0 217317.0 89199.0 94711.0 88159.0 92214.0 85477.0 80183.0 103757.0 106109.0 75084.0 78498.0 142547.0 134468.0 110557.0 114448.0 135524.0 127556.0 143376.0 149722.0 238386.0 234156.0 260732.0 265317.0 38758.0 43398.0 177392.0 172534.0 210223.0 213414.0 193176.0 200878.0 75595.0 73098.0 113104.0 121085.0 68145.0 68493.0 50865.0 57106.0 207941.0 206777.0 143177.0 147199.0 247775.0 250835.0 120399.0 125451.0 148561.0 151405.0 97988.0 93095.0 119965.0 124850.0 64459.0 72531.0 205896.0 208479.0 197172.0 191730.0 202888.0 198964.0 191029.0 195567.0 261626.0 255959.0 42206.0 49871.0 133594.0 128765.0 7151.0 11757.0 160920.0 152851.0 88619.0 89649.0 173963.0 179394.0 217268.0 211139.0 182518.0 186013.0 164164.0 156343.0 164492.0 159580.0 180349.0 172526.0 124850.0 121060.0 96878.0 92464.0 86491.0 87390.0 135005.0 142135.0 231534.0 224138.0 186539.0 179059.0 149265.0 156118.0 155105.0 149371.0 201470.0 195359.0 34986.0 35028.0 102177.0 109679.0 100704.0 94275.0 108273.0 113029.0 158470.0 0.0 158470.0 158470.0 158470.0 158470.0 0.0 0.0 0.0 0.0
124359.0 128140.0 222342.0 226086.0 183810.0 188460.0 239442.0 242642.0 129679.0 129575.0 220209.0 215591.0 164826.0 172518.0 112154.0 111706.0 199028.0 191448.0 140747.0 142168.0 157477.0 155537.0 227928.0 235656.0 120401.0 115283.0 81174.0 84457.0 203425.0 195471.0 122677.0 120562.0 208560.0 206844.0 162894.0 166617.0 93760.0 86341.0 180652.0 179673.0 104040.0 100037.0 116178.0 112592.0 159119.0 164086.0 212006.0 217317.0 89199.0 94711.0 88159.0 92214.0 85477.0 80183.0 103757.0 106109.0 75084.0 78498.0 142547.0 134468.0 110557.0 114448.0 135524.0 127556.0 143376.0 149722.0 238386.0 234156.0 260732.0 265317.0 38758.0 43398.0 177392.0 172534.0 210223.0 213414.0 193176.0 200878.0 75595.0 73098.0 113104.0 121085.0 68145.0 68493.0 50865.0 57106.0 207941.0 206777.0 143177.0 147199.0 247775.0 250835.0 120399.0 125451.0 148561.0 151405.0 97988.0 93095.0 119965.0 124850.0 64459.0 72531.0 205896.0 208479.0 197172.0 191730.0 202888.0 198964.0 191029.0 195567.0 261626.0 255959.0 42206.0 49871.0 133594.0 128765.0 7151.0 11757.0 160920.0 152851.0 88619.0 89649.0 173963.0 179394.0 217268.0 211139.0 182518.0 186013.0 164164.0 156343.0 164492.0 159580.0 180349.0 172526.0 124850.0 121060.0 96878.0 92464.0 86491.0 87390.0 135005.0 142135.0 231534.0 224138.0 186539.0 179059.0 149265.0 156118.0 155105.0 149371.0 201470.0 195359.0 34986.0 35028.0 102177.0 109679.0 100704.0 94275.0 108273.0 113029.0 158470.0 0.0 158470.0 158470.0 158470.0 158470.0 0.0 0.0 0.0 0.0
124359.0 128140.0 222342.0 226086.0 183810.0 188460.0 239442.0 242642.0 129679.0 129575.0 220209.0 215591.0 164826.0 172518.0 112154.0 111706.0 199028.0 191448.0 140747.0 142168.0 157477.0 155537.0 227928.0 235656.0 120401.0 115283.0 81174.0 84457.0 203425.0 195471.0 122677.0 120562.0 208560.0 206844.0 162894.0 166617.0 93760.0 86341.0 180652.0 179673.0 104040.0 100037.0 116178.0 112592.0 159119.0 164086.0 212006.0 217317.0 89199.0 94711.0 88159.0 92214.0 85477.0 80183.0 103757.0 106109.0 75084.0 78498.0 142547.0 134468.0 110557.0 114448.0 135524.0 127556.0 143376.0 149722.0 238386.0 234156.0 260732.0 265317.0 38758.0 43398.0 177392.0 172534.0 210223.0 213414.0 193176.0 200878.0 75595.0 73098.0 113104.0 121085.0 68145.0 68493.0 50865.0 57106.0 207941.0 206777.0 143177.0 147199.0 247775.0 250835.0 120399.0 125451.0 148561.0 151405.0 97988.0 93095.0 119965.0 124850.0 64459.0 72531.0 205896.0 208479.0 197172.0 191730.0 202888.0 198964.0 191029.0 195567.0 261626.0 255959.0 42206.0 49871.0 133594.0 128765.0 7151.0 11757.0 160920.0 152851.0 88619.0 89649.0 173963.0 179394.0 217268.0 211139.0 182518.0 186013.0 164164.0 156343.0 164492.0 159580.0 180349.0 172526.0 124850.0 121060.0 96878.0 92464.0 86491.0 87390.0 135005.0 142135.0 231534.0 224138.0 186539.0 179059.0 149265.0 156118.0 155105.0 149371.0 201470.0 195359.0 34986.0 35028.0 102177.0 109679.0 100704.0 94275.0 108273.0 113029.0 158470.0 0.0 158470.0 158470.0 158470.0 158470.0 0.0 0.0 0.0 0.0
124359.0 128140.0 222342.0 226086.0 183810.0 188460.0 239442.0 242642.0 129679.0 129575.0 220209.0 215591.0 164826.0 172518.0 112154.0 111706.0 199028.0 191448.0 140747.0 142168.0 157477.0 155537.0 227928.0 235656.0 120401.0 115283.0 81174.0 84457.0 203425.0 195471.0 122677.0 120562.0 208560.0 206844.0 162894.0 166617.0 93760.0 86341.0 180652.0 179673.0 104040.0 100037.0 116178.0 112592.0 159119.0 164086.0 212006.0 217317.0 89199.0 94711.0 88159.0 92214.0 85477.0 80183.0 103757.0 106109.0 75084.0 78498.0 142547.0 134468.0 110557.0 114448.0 135524.0 127556.0 143376.0 149722.0 238386.0 234156.0 260732.0 265317.0 38758.0 43398.0 177392.0 172534.0 210223.0 213414.0 193176.0 200878.0 75595.0 73098.0 113104.0 121085.0 68145.0 68493.0 50865.0 57106.0 207941.0 206777.0 143177.0 147199.0 247775.0 250835.0 120399.0 125451.0 148561.0 151405.0 97988.0 93095.0 119965.0 124850.0 64459.0 72531.0 205896.0 208479.0 197172.0 191730.0 202888.0 198964.0 191029.0 195567.0 261626.0 255959.0 42206.0 49871.0 133594.0 128765.0 7151.0 11757.0 160920.0 152851.0 88619.0 89649.0 173963.0 179394.0 217268.0 211139.0 182518.0 186013.0 164164.0 156343.0 164492.0 159580.0 180349.0 172526.0 124850.0 121060.0 96878.0 92464.0 86491.0 87390.0 135005.0 142135.0 231534.0 224138.0 186539.0 179059.0 149265.0 156118.0 155105.0 149371.0 201470.0 195359.0 34986.0 35028.0 102177.0 109679.0 100704.0 94275.0 108273.0 113029.0 158470.0 0.0 158470.0 158470.0 158470.0 158470.0 0.0 0.0 0.0 0.0
FIXED_EDGES_SECTION
1 2
3 4
5 6
7 8
9 10
11 12
13 14
15 16
17 18
19 20
21 22
23 24
25 26
27 28
29 30
31 32
33 34
35 36
37 38
39 40
41 42
43 44
45 46
47 48
49 50
51 52
53 54
55 56
57 58
59 60
61 62
63 64
65 66
67 68
69 70
71 72
73 74
75 76
77 78
79 80
81 82
83 84
85 86
87 88
89 90
91 92
93 94
95 96
97 98
99 100
101 102
103 104
105 106
107 108
109 110
111 112
113 114
115 116
117 118
119 120
121 122
123 124
125 126
127 128
129 130
131 132
133 134
135 136
137 138
139 140
141 142
143 144
145 146
147 148
149 150
151 152
153 154
155 156
157 158
159 160
-1 
DEMAND_SECTION
1 94
2 94
3 234
4 234
5 292
6 292
7 68
8 68
9 60
10 60
11 265
12 265
13 618
14 618
15 380
16 380
17 479
18 479
19 119
20 119
21 71
22 71
23 316
24 316
25 279
26 279
27 534
28 534
29 379
30 379
31 94
32 94
33 211
34 211
35 349
36 349
37 80
38 80
39 180
40 180
41 341
42 341
43 268
44 268
45 353
46 353
47 224
48 224
49 158
50 158
51 184
52 184
53 358
54 358
55 177
56 177
57 68
58 68
59 171
60 171
61 350
62 350
63 277
64 277
65 394
66 394
67 497
68 497
69 138
70 138
71 399
72 399
73 341
74 341
75 274
76 274
77 90
78 90
79 324
80 324
81 56
82 56
83 319
84 319
85 114
86 114
87 277
88 277
89 541
90 541
91 120
92 120
93 90
94 90
95 207
96 207
97 244
98 244
99 114
100 114
101 84
102 84
103 72
104 72
105 461
106 461
107 375
108 375
109 219
110 219
111 542
112 542
113 313
114 313
115 191
116 191
117 37
118 37
119 293
120 293
121 223
122 223
123 104
124 104
125 217
126 217
127 211
128 211
129 421
130 421
131 100
132 100
133 82
134 82
135 322
136 322
137 214
138 214
139 373
140 373
141 256
142 256
143 258
144 258
145 396
146 396
147 280
148 280
149 485
150 485
151 497
152 497
153 100
154 100
155 432
156 432
157 421
158 421
159 271
160 271
161 0
162 0
163 0
164 0
165 0
166 0
167 0
168 0
169 0
170 0
DEPOT_SECTION
161 
-1 
CAPACITIES_SECTION
10000 
11000 
12000 
13000 
-1 
EOF