NAME: GFS_20_1
TYPE: GFSP
DIMENSION: 86
VEHICLES: 4
CAPACITY: 10000.0
TRIP_DIST_LIMIT: 750000.0
TOTAL_DIST_LIMIT: 1050000.0
EDGE_WEIGHT_TYPE: EXPLICIT
EDGE_WEIGHT_FORMAT: FULL_MATRIX
EDGE_WEIGHT_SECTION
0.0 8219.0 73287.0 76422.0 28126.0 28515.0 35806.0 33803.0 176525.0 184195.0 191646.0 185023.0 148422.0 141647.0 270021.0 263018.0 160395.0 154243.0 219463.0 219503.0 50867.0 48153.0 162851.0 166231.0 116252.0 115953.0 41011.0 40342.0 154887.0 160182.0 66217.0 63051.0 21207.0 16121.0 206078.0 203756.0 103295.0 97098.0 117400.0 116428.0 142862.0 139182.0 142298.0 139103.0 100338.0 93312.0 20025.0 17589.0 33423.0 34976.0 287746.0 293411.0 88636.0 80949.0 161285.0 154247.0 90319.0 93622.0 31851.0 24343.0 57890.0 62947.0 16906.0 21742.0 225596.0 222547.0 135936.0 128153.0 19971.0 21723.0 140561.0 132306.0 23743.0 31510.0 266115.0 268802.0 39487.0 43257.0 64192.0 70265.0 76270.0 185857.0 76270.0 76270.0 185857.0 185857.0
8219.0 0.0 67484.0 71284.0 34032.0 35660.0 44024.0 41838.0 169124.0 176746.0 185279.0 178808.0 142621.0 136035.0 262793.0 255840.0 161794.0 155944.0 220426.0 220164.0 54824.0 50956.0 156320.0 159926.0 117209.0 116342.0 45493.0 43440.0 147277.0 152698.0 63833.0 59801.0 26930.0 20133.0 205945.0 203316.0 103325.0 97585.0 110858.0 109534.0 145677.0 142394.0 136825.0 133962.0 94173.0 87385.0 19041.0 13428.0 40779.0 42940.0 280357.0 285951.0 85410.0 77960.0 155386.0 148496.0 85119.0 88954.0 31470.0 25025.0 56934.0 61056.0 21829.0 24033.0 224349.0 221580.0 130918.0 123327.0 27970.0 28631.0 134672.0 126355.0 15610.0 23577.0 258291.0 260999.0 43936.0 46462.0 59052.0 64597.0 68795.0 178033.0 68795.0 68795.0 178033.0 178033.0
73287.0 67484.0 0.0 8555.0 101268.0 101533.0 102329.0 96244.0 108928.0 116916.0 118696.0 111874.0 75167.0 68559.0 200027.0 192745.0 133458.0 130675.0 184744.0 182233.0 121859.0 116988.0 90357.0 93228.0 91510.0 86176.0 112875.0 109992.0 90490.0 93948.0 33214.0 26231.0 94212.0 87604.0 162910.0 158267.0 73253.0 72910.0 45442.0 46570.0 131043.0 131635.0 69424.0 67020.0 27406.0 20049.0 83455.0 75343.0 106095.0 105676.0 218783.0 224995.0 33957.0 31877.0 88000.0 81023.0 19002.0 25389.0 94372.0 90310.0 114985.0 115532.0 70389.0 62739.0 173264.0 172342.0 64263.0 57301.0 85432.0 79617.0 67276.0 59023.0 60599.0 61406.0 203042.0 204550.0 73784.0 67740.0 11298.0 3353.0 88850.0 124359.0 88850.0 88850.0 124359.0 124359.0
76422.0 71284.0 8555.0 0.0 104546.0 104190.0 103357.0 96835.0 110861.0 118884.0 117302.0 110134.0 72572.0 65477.0 200464.0 193073.0 125069.0 122407.0 176189.0 173687.0 126049.0 121610.0 89707.0 91880.0 83489.0 77964.0 116770.0 114399.0 93725.0 96551.0 27684.0 21913.0 97578.0 91381.0 154439.0 149854.0 65211.0 65269.0 46128.0 48759.0 123328.0 124171.0 65962.0 62711.0 27609.0 19625.0 88176.0 80196.0 108521.0 107465.0 219604.0 226007.0 25416.0 23792.0 85589.0 78263.0 13899.0 18403.0 99517.0 94962.0 121052.0 122004.0 71658.0 63659.0 165209.0 164157.0 59634.0 52121.0 86879.0 80487.0 64992.0 57035.0 65963.0 67584.0 205744.0 206921.0 72381.0 65745.0 12245.0 8819.0 96959.0 128140.0 96959.0 96959.0 128140.0 128140.0
28126.0 34032.0 101268.0 104546.0 0.0 7962.0 27985.0 32787.0 202468.0 209990.0 219306.0 212808.0 176433.0 169719.0 296350.0 289467.0 180190.0 173384.0 239841.0 240553.0 24949.0 25582.0 190350.0 193944.0 137568.0 138397.0 14718.0 18392.0 180204.0 185903.0 93135.0 90630.0 7103.0 14764.0 228814.0 227072.0 126570.0 119660.0 144889.0 143471.0 159232.0 154462.0 170399.0 167229.0 128143.0 121251.0 24795.0 31366.0 11955.0 19443.0 313649.0 319098.0 116051.0 108231.0 189256.0 182278.0 118442.0 121704.0 25791.0 20478.0 45809.0 53323.0 38122.0 45908.0 250212.0 246714.0 164055.0 156249.0 26864.0 34900.0 168533.0 160246.0 45780.0 50961.0 290481.0 293131.0 56327.0 62746.0 92313.0 98292.0 88720.0 210223.0 88720.0 88720.0 210223.0 210223.0
28515.0 35660.0 101533.0 104190.0 7962.0 0.0 20072.0 25323.0 204784.0 212404.0 220068.0 213377.0 176537.0 169623.0 298419.0 291445.0 174423.0 167466.0 234129.0 235033.0 30550.0 32605.0 191333.0 194634.0 132369.0 133565.0 20811.0 25889.0 182887.0 188352.0 90797.0 88940.0 11212.0 19049.0 223863.0 222341.0 122096.0 114961.0 145893.0 144934.0 152738.0 147778.0 170152.0 166645.0 128717.0 121581.0 30407.0 35859.0 5358.0 11616.0 316017.0 321607.0 114038.0 106118.0 189457.0 182318.0 118071.0 120836.0 33265.0 27215.0 53745.0 61284.0 34918.0 43104.0 246009.0 242310.0 163355.0 155382.0 21636.0 29951.0 168745.0 160540.0 49109.0 55152.0 293672.0 296385.0 50909.0 57806.0 92042.0 98443.0 94953.0 213414.0 94953.0 94953.0 213414.0 213414.0
35806.0 44024.0 102329.0 103357.0 27985.0 20072.0 0.0 8114.0 209354.0 217175.0 220627.0 213490.0 175753.0 168402.0 301956.0 294772.0 158839.0 151539.0 218501.0 219862.0 48726.0 52126.0 192639.0 195178.0 118479.0 120612.0 39926.0 45825.0 188532.0 193368.0 85254.0 85159.0 28947.0 34833.0 210098.0 209122.0 110214.0 102584.0 147703.0 147903.0 135472.0 130072.0 168542.0 164218.0 129704.0 122087.0 46455.0 49567.0 18091.0 10159.0 320269.0 326201.0 108732.0 100731.0 188809.0 181322.0 116880.0 118330.0 52132.0 45155.0 73793.0 81253.0 31951.0 39712.0 234010.0 229826.0 160670.0 152364.0 17342.0 22878.0 168306.0 160391.0 59467.0 66916.0 300467.0 302956.0 38659.0 46542.0 91778.0 99042.0 110171.0 220209.0 110171.0 110171.0 220209.0 220209.0
33803.0 41838.0 96244.0 96835.0 32787.0 25323.0 8114.0 0.0 203996.0 211865.0 214131.0 206895.0 169006.0 161570.0 296174.0 288935.0 151086.0 143857.0 210778.0 212051.0 55306.0 57924.0 186375.0 188715.0 110459.0 112526.0 45991.0 51120.0 183563.0 188182.0 77810.0 78065.0 32100.0 36536.0 202096.0 201074.0 102100.0 94474.0 141684.0 142214.0 128180.0 122960.0 161624.0 157135.0 123526.0 115814.0 47619.0 49419.0 24653.0 17505.0 314683.0 320715.0 101237.0 93248.0 182071.0 174517.0 110203.0 111347.0 54954.0 47480.0 78121.0 85237.0 26387.0 33525.0 225906.0 221739.0 153540.0 145184.0 13869.0 16755.0 161655.0 153827.0 57447.0 65312.0 295820.0 298130.0 30590.0 38513.0 85483.0 92925.0 109736.0 215591.0 109736.0 109736.0 215591.0 215591.0
176525.0 169124.0 108928.0 110861.0 202468.0 204784.0 209354.0 203996.0 0.0 8025.0 45043.0 47431.0 59816.0 66227.0 94107.0 87502.0 201195.0 202708.0 231124.0 225273.0 217949.0 211049.0 36088.0 42411.0 174039.0 166204.0 210925.0 205725.0 23979.0 16851.0 137385.0 132680.0 195473.0 187751.0 200724.0 193233.0 158509.0 162879.0 65069.0 62372.0 213734.0 217541.0 69059.0 76891.0 83388.0 91348.0 179862.0 172008.0 209869.0 211117.0 111234.0 116919.0 121567.0 126737.0 54729.0 59646.0 100388.0 103776.0 187364.0 186388.0 199027.0 195702.0 177659.0 170617.0 190824.0 194655.0 80181.0 86018.0 192057.0 187240.0 60713.0 63537.0 156864.0 153035.0 95564.0 96206.0 182689.0 176427.0 120197.0 112272.0 155178.0 31579.0 155178.0 155178.0 31579.0 31579.0
184195.0 176746.0 116916.0 118884.0 209990.0 212404.0 217175.0 211865.0 8025.0 0.0 46385.0 50069.0 66512.0 73219.0 86936.0 80513.0 208026.0 209703.0 236767.0 230777.0 225183.0 218201.0 42171.0 47804.0 181542.0 173675.0 218274.0 212975.0 30473.0 24092.0 145404.0 140705.0 203013.0 195258.0 206141.0 198567.0 166164.0 170627.0 73088.0 70371.0 221083.0 224992.0 75951.0 83821.0 91414.0 99373.0 187231.0 179419.0 217509.0 218844.0 103659.0 109215.0 129478.0 134703.0 60432.0 65891.0 108399.0 111735.0 194553.0 193718.0 205741.0 202285.0 185516.0 178512.0 195173.0 199252.0 87220.0 93314.0 199867.0 195111.0 67917.0 71112.0 164330.0 160355.0 87623.0 88192.0 190685.0 184439.0 128189.0 120258.0 161762.0 28701.0 161762.0 161762.0 28701.0 28701.0
191646.0 185279.0 118696.0 117302.0 219306.0 220068.0 220627.0 214131.0 45043.0 46385.0 0.0 8434.0 46183.0 54178.0 88629.0 80883.0 177850.0 181021.0 198361.0 191760.0 238166.0 232268.0 29411.0 25472.0 159614.0 151524.0 229908.0 225972.0 62399.0 54637.0 139348.0 136979.0 212206.0 205140.0 166961.0 159095.0 147238.0 153362.0 74515.0 77143.0 196092.0 201270.0 55172.0 61903.0 91370.0 98700.0 199274.0 191100.0 224723.0 224350.0 109467.0 116923.0 118514.0 125536.0 33578.0 41577.0 104023.0 103961.0 208662.0 206112.0 224483.0 222529.0 188816.0 180915.0 152154.0 156957.0 65938.0 74249.0 203975.0 197771.0 52769.0 60333.0 175701.0 173797.0 114158.0 111444.0 188454.0 181151.0 128891.0 121888.0 183483.0 75084.0 183483.0 183483.0 75084.0 75084.0
185023.0 178808.0 111874.0 110134.0 212808.0 213377.0 213490.0 206895.0 47431.0 50069.0 8434.0 0.0 38332.0 46240.0 97044.0 89297.0 169673.0 172760.0 191182.0 184693.0 232068.0 226329.0 24618.0 19060.0 151180.0 143090.0 223661.0 219911.0 61999.0 54598.0 131637.0 129475.0 205715.0 198755.0 159896.0 152081.0 138841.0 145000.0 68403.0 71705.0 187703.0 192857.0 47070.0 53643.0 84686.0 91831.0 193181.0 184994.0 217968.0 217412.0 117897.0 125357.0 110540.0 117654.0 25497.0 33475.0 96700.0 96325.0 202806.0 200038.0 219234.0 217525.0 181755.0 173792.0 146171.0 150713.0 57677.0 66043.0 196948.0 190617.0 45272.0 53101.0 169627.0 168007.0 121920.0 119414.0 180883.0 173514.0 121865.0 115020.0 179018.0 78498.0 179018.0 179018.0 78498.0 78498.0
148422.0 142621.0 75167.0 72572.0 176433.0 176537.0 175753.0 169006.0 59816.0 66512.0 46183.0 38332.0 0.0 8071.0 133708.0 126023.0 141517.0 143299.0 172654.0 167202.0 196699.0 191436.0 24870.0 22438.0 117001.0 108973.0 187910.0 184689.0 59143.0 55279.0 93314.0 91301.0 169379.0 162718.0 143031.0 135862.0 103090.0 108646.0 36012.0 42326.0 155548.0 159928.0 9847.0 17644.0 48887.0 55247.0 157985.0 149802.0 180977.0 180037.0 154117.0 161259.0 72345.0 79359.0 13067.0 5989.0 58884.0 58055.0 168268.0 164865.0 186538.0 185668.0 144195.0 136129.0 137575.0 140201.0 21407.0 28923.0 159428.0 152877.0 8190.0 16588.0 134627.0 133918.0 151139.0 150093.0 142622.0 135213.0 84563.0 78158.0 149818.0 89199.0 149818.0 149818.0 89199.0 89199.0
141647.0 136035.0 68559.0 65477.0 169719.0 169623.0 168402.0 161570.0 66227.0 73219.0 54178.0 46240.0 8071.0 0.0 141776.0 134092.0 134990.0 136501.0 168017.0 162809.0 190354.0 185272.0 32305.0 30451.0 109362.0 101361.0 181431.0 178414.0 63223.0 60173.0 85509.0 83705.0 162689.0 156159.0 138912.0 131936.0 95211.0 100677.0 32578.0 39909.0 148208.0 152445.0 3303.0 10701.0 43079.0 48880.0 151765.0 143602.0 173992.0 172872.0 162170.0 169297.0 64336.0 71414.0 20788.0 12978.0 51668.0 50388.0 162274.0 158641.0 181142.0 180547.0 136964.0 128848.0 135301.0 137489.0 14012.0 20999.0 152206.0 145539.0 6601.0 12284.0 128540.0 128179.0 158616.0 157725.0 134909.0 127448.0 77582.0 71450.0 145762.0 94711.0 145762.0 145762.0 94711.0 94711.0
270021.0 262793.0 200027.0 200464.0 296350.0 298419.0 301956.0 296174.0 94107.0 86936.0 88629.0 97044.0 133708.0 141776.0 0.0 7751.0 263632.0 267531.0 275705.0 268326.0 312053.0 305120.0 111581.0 111433.0 248119.0 240034.0 305011.0 299831.0 117369.0 110896.0 224938.0 221522.0 289324.0 281670.0 244111.0 236082.0 235853.0 241896.0 154640.0 154059.0 283841.0 289312.0 143187.0 150270.0 173038.0 180939.0 273941.0 266058.0 303435.0 304308.0 21170.0 29054.0 205551.0 212099.0 121802.0 129735.0 188258.0 189640.0 281454.0 280485.0 292467.0 288969.0 270050.0 262650.0 221755.0 228269.0 154293.0 162421.0 284782.0 279470.0 139159.0 145595.0 250862.0 247137.0 54664.0 46836.0 272813.0 265960.0 211027.0 203368.0 248445.0 97988.0 248445.0 248445.0 97988.0 97988.0
263018.0 255840.0 192745.0 193073.0 289467.0 291445.0 294772.0 288935.0 87502.0 80513.0 80883.0 89297.0 126023.0 134092.0 7751.0 0.0 256001.0 259865.0 268555.0 261215.0 305412.0 298546.0 104029.0 103773.0 240368.0 232283.0 298275.0 293178.0 110986.0 104336.0 217416.0 214065.0 282428.0 274807.0 236938.0 228908.0 228111.0 234166.0 147330.0 146906.0 276118.0 281576.0 135482.0 142548.0 165693.0 173576.0 267199.0 259285.0 296439.0 297223.0 28846.0 36644.0 197927.0 204508.0 114081.0 122019.0 180791.0 182091.0 274853.0 273772.0 286226.0 282740.0 262850.0 255410.0 214976.0 221406.0 146572.0 154713.0 277623.0 272244.0 131528.0 138022.0 244052.0 240444.0 57164.0 49846.0 265398.0 258511.0 203711.0 196082.0 242216.0 93095.0 242216.0 242216.0 93095.0 93095.0
160395.0 161794.0 133458.0 125069.0 180190.0 174423.0 158839.0 151086.0 201195.0 208026.0 177850.0 169673.0 141517.0 134990.0 263632.0 256001.0 0.0 8425.0 59719.0 61167.0 204883.0 205387.0 166139.0 161814.0 45004.0 48038.0 194821.0 197650.0 195754.0 194171.0 107098.0 114711.0 176040.0 175090.0 56380.0 58724.0 61702.0 65300.0 148388.0 156137.0 31984.0 40144.0 132136.0 124309.0 137798.0 133471.0 180126.0 175176.0 175242.0 168588.0 284801.0 292645.0 99949.0 101770.0 149120.0 142591.0 122986.0 115222.0 192234.0 184699.0 218249.0 222831.0 144407.0 138675.0 88535.0 81748.0 121112.0 116148.0 153327.0 145372.0 140748.0 139608.0 168127.0 174392.0 290948.0 288924.0 123886.0 117978.0 128868.0 132483.0 215326.0 229147.0 215326.0 215326.0 229147.0 229147.0
154243.0 155944.0 130675.0 122407.0 173384.0 167466.0 151539.0 143857.0 202708.0 209703.0 181021.0 172760.0 143299.0 136501.0 267531.0 259865.0 8425.0 0.0 67004.0 68919.0 197976.0 198690.0 168073.0 164080.0 40314.0 44545.0 187966.0 190995.0 196291.0 195046.0 103052.0 110804.0 169403.0 168702.0 64804.0 67094.0 57908.0 60611.0 148118.0 155658.0 23725.0 31873.0 133756.0 125882.0 136652.0 131920.0 174081.0 169357.0 168141.0 161362.0 288698.0 296492.0 97635.0 98823.0 151483.0 144709.0 121237.0 113647.0 186094.0 178486.0 212133.0 216901.0 138058.0 132578.0 96835.0 90113.0 122528.0 117087.0 146526.0 138660.0 142055.0 140422.0 162828.0 169304.0 293515.0 291716.0 117169.0 111510.0 125469.0 129508.0 210954.0 230070.0 210954.0 210954.0 230070.0 230070.0
219463.0 220426.0 184744.0 176189.0 239841.0 234129.0 218501.0 210778.0 231124.0 236767.0 198361.0 191182.0 172654.0 168017.0 275705.0 268555.0 59719.0 67004.0 0.0 8118.0 264570.0 264963.0 195047.0 188966.0 103247.0 104433.0 254489.0 257199.0 231239.0 227905.0 162533.0 169652.0 235586.0 234412.0 31671.0 39691.0 117930.0 122945.0 189474.0 197868.0 86211.0 93535.0 164775.0 157743.0 183029.0 180439.0 239008.0 233718.0 234961.0 228282.0 296366.0 304417.0 150849.0 154470.0 176422.0 171755.0 171072.0 162996.0 251231.0 243803.0 277174.0 281459.0 203729.0 197721.0 60045.0 51925.0 155605.0 153377.0 212984.0 204987.0 174503.0 175959.0 225736.0 231518.0 311953.0 308438.0 183517.0 177450.0 182143.0 184399.0 270462.0 261626.0 270462.0 270462.0 261626.0 261626.0
219503.0 220164.0 182233.0 173687.0 240553.0 235033.0 219862.0 212051.0 225273.0 230777.0 191760.0 184693.0 167202.0 162809.0 268326.0 261215.0 61167.0 68919.0 8118.0 0.0 265376.0 265508.0 189233.0 183005.0 103299.0 103856.0 255241.0 257704.0 226010.0 222481.0 161174.0 168113.0 236108.0 234659.0 24800.0 32697.0 117141.0 122580.0 185166.0 193609.0 89417.0 97009.0 159545.0 152660.0 179392.0 177113.0 238882.0 233380.0 236046.0 229539.0 288931.0 296984.0 148471.0 152455.0 170544.0 166096.0 168003.0 159926.0 251173.0 243840.0 277033.0 281110.0 204019.0 197784.0 51929.0 43817.0 150666.0 148798.0 213737.0 205657.0 169336.0 171098.0 224937.0 230503.0 305120.0 301498.0 184246.0 177949.0 180104.0 182029.0 268692.0 255959.0 268692.0 268692.0 255959.0 255959.0
50867.0 54824.0 121859.0 126049.0 24949.0 30550.0 48726.0 55306.0 217949.0 225183.0 238166.0 232068.0 196699.0 190354.0 312053.0 305412.0 204883.0 197976.0 264570.0 265376.0 0.0 8543.0 208898.0 213052.0 162478.0 163346.0 10258.0 12261.0 194906.0 201162.0 116996.0 113902.0 30421.0 34958.0 253761.0 252015.0 151494.0 144607.0 163699.0 161363.0 183241.0 178191.0 191281.0 188652.0 147910.0 141507.0 38893.0 47075.0 30724.0 38616.0 328548.0 333617.0 139500.0 131814.0 209293.0 202626.0 139838.0 143778.0 30719.0 32058.0 33853.0 42109.0 62876.0 70430.0 275041.0 271602.0 185665.0 178132.0 51643.0 59788.0 188651.0 180268.0 62465.0 65047.0 303812.0 306527.0 81132.0 87674.0 113835.0 119102.0 92852.0 223554.0 92852.0 92852.0 223554.0 223554.0
48153.0 50956.0 116988.0 121610.0 25582.0 32605.0 52126.0 57924.0 211049.0 218201.0 232268.0 226329.0 191436.0 185272.0 305120.0 298546.0 205387.0 198690.0 264963.0 265508.0 8543.0 0.0 202931.0 207284.0 162323.0 162768.0 12311.0 7888.0 187851.0 194231.0 114268.0 110668.0 29401.0 32042.0 253178.0 251169.0 150560.0 143938.0 157926.0 155276.0 184793.0 180044.0 186315.0 183967.0 142562.0 136393.0 33534.0 41674.0 34118.0 42335.0 321410.0 326390.0 136298.0 128758.0 203906.0 197389.0 135281.0 139586.0 23756.0 26682.0 25792.0 34077.0 61806.0 68855.0 273558.0 270352.0 181088.0 173727.0 52242.0 60031.0 183339.0 174933.0 56824.0 58606.0 296479.0 299194.0 81523.0 87559.0 109475.0 114350.0 84514.0 216221.0 84514.0 84514.0 216221.0 216221.0
162851.0 156320.0 90357.0 89707.0 190350.0 191333.0 192639.0 186375.0 36088.0 42171.0 29411.0 24618.0 24870.0 32305.0 111581.0 104029.0 166139.0 168073.0 195047.0 189233.0 208898.0 202931.0 0.0 7909.0 141667.0 133666.0 200733.0 196689.0 41911.0 35838.0 113402.0 110249.0 183247.0 176086.0 164726.0 157282.0 127340.0 132573.0 45465.0 47737.0 180401.0 184722.0 34643.0 42499.0 62953.0 70567.0 170015.0 161852.0 196067.0 195976.0 131460.0 138331.0 94182.0 100563.0 18774.0 23723.0 76978.0 78062.0 179301.0 176840.0 195101.0 193219.0 160723.0 152968.0 155956.0 159424.0 46180.0 53207.0 175789.0 169855.0 28224.0 34038.0 146442.0 144424.0 126328.0 125432.0 161721.0 154685.0 100899.0 93617.0 154464.0 66901.0 154464.0 154464.0 66901.0 66901.0
166231.0 159926.0 93228.0 91880.0 193944.0 194634.0 195178.0 188715.0 42411.0 47804.0 25472.0 19060.0 22438.0 30451.0 111433.0 103773.0 161814.0 164080.0 188966.0 183005.0 213052.0 207284.0 7909.0 0.0 139138.0 131084.0 204688.0 200887.0 49787.0 43570.0 114417.0 111778.0 186847.0 179834.0 158402.0 150872.0 125482.0 131082.0 49363.0 52714.0 177226.0 181823.0 32180.0 39737.0 65920.0 73228.0 174162.0 165977.0 199273.0 198878.0 131744.0 138850.0 94223.0 100975.0 12788.0 19504.0 78696.0 78977.0 183752.0 181015.0 200230.0 198592.0 163354.0 155466.0 148764.0 152400.0 43648.0 51358.0 178507.0 172328.0 27871.0 35031.0 150601.0 148947.0 129562.0 128187.0 163291.0 156072.0 103427.0 96417.0 160365.0 73696.0 160365.0 160365.0 73696.0 73696.0
116252.0 117209.0 91510.0 83489.0 137568.0 132369.0 118479.0 110459.0 174039.0 181542.0 159614.0 151180.0 117001.0 109362.0 248119.0 240368.0 45004.0 40314.0 103247.0 103299.0 162478.0 162323.0 141667.0 139138.0 0.0 8090.0 152283.0 154495.0 164360.0 164241.0 62792.0 70593.0 132926.0 131360.0 91657.0 90705.0 18279.0 20343.0 114442.0 121241.0 40853.0 43622.0 107154.0 99433.0 100751.0 95100.0 135761.0 130534.0 133764.0 127748.0 269056.0 276537.0 59738.0 59701.0 127331.0 119748.0 84131.0 77114.0 147992.0 140595.0 173926.0 178260.0 100730.0 94518.0 116675.0 111900.0 95595.0 88537.0 110873.0 102689.0 113928.0 110511.0 123150.0 129388.0 267938.0 267077.0 81461.0 74833.0 85590.0 90087.0 170653.0 199028.0 170653.0 170653.0 199028.0 199028.0
115953.0 116342.0 86176.0 77964.0 138397.0 133565.0 120612.0 112526.0 166204.0 173675.0 151524.0 143090.0 108973.0 101361.0 240034.0 232283.0 48038.0 44545.0 104433.0 103856.0 163346.0 162768.0 133666.0 131084.0 8090.0 0.0 153107.0 154901.0 156862.0 156601.0 59092.0 66675.0 133444.0 131397.0 90432.0 88785.0 13709.0 18863.0 107146.0 114106.0 48073.0 51345.0 99127.0 91391.0 93938.0 88567.0 135131.0 129530.0 135265.0 129599.0 260968.0 268448.0 53548.0 54305.0 119254.0 111682.0 77674.0 70427.0 147468.0 140243.0 173249.0 177255.0 100974.0 94326.0 113531.0 109215.0 87566.0 80576.0 111953.0 103679.0 105987.0 102701.0 121307.0 127187.0 259959.0 259060.0 82823.0 75767.0 80985.0 84969.0 167380.0 191448.0 167380.0 167380.0 191448.0 191448.0
41011.0 45493.0 112875.0 116770.0 14718.0 20811.0 39926.0 45991.0 210925.0 218274.0 229908.0 223661.0 187910.0 181431.0 305011.0 298275.0 194821.0 187966.0 254489.0 255241.0 10258.0 12311.0 200733.0 204688.0 152283.0 153107.0 0.0 8198.0 188147.0 194202.0 106977.0 104053.0 20253.0 25396.0 243527.0 241764.0 141237.0 134359.0 155394.0 153383.0 173508.0 168584.0 182273.0 179455.0 139248.0 132667.0 31077.0 39070.0 21864.0 30056.0 321820.0 327037.0 129614.0 121883.0 200594.0 193813.0 130612.0 134331.0 25501.0 24576.0 36719.0 44884.0 52628.0 60223.0 264790.0 261344.0 176403.0 168773.0 41511.0 49604.0 179909.0 171552.0 54450.0 57930.0 297549.0 300265.0 70998.0 77463.0 104532.0 110040.0 89757.0 217291.0 89757.0 89757.0 217291.0 217291.0
40342.0 43440.0 109992.0 114399.0 18392.0 25889.0 45825.0 51120.0 205725.0 212975.0 225972.0 219911.0 184689.0 178414.0 299831.0 293178.0 197650.0 190995.0 257199.0 257704.0 12261.0 7888.0 196689.0 200887.0 154495.0 154901.0 8198.0 0.0 182720.0 188944.0 106513.0 103023.0 21613.0 24221.0 245305.0 243285.0 142676.0 136067.0 151527.0 149130.0 177318.0 172668.0 179391.0 176893.0 135861.0 129544.0 26741.0 34934.0 28184.0 36404.0 316377.0 321477.0 128655.0 121077.0 197240.0 190627.0 128132.0 132274.0 18722.0 19874.0 28955.0 37008.0 53932.0 60967.0 265678.0 262466.0 173960.0 166517.0 44676.0 52346.0 176622.0 168229.0 50285.0 52789.0 291734.0 294449.0 73828.0 79766.0 102223.0 107290.0 82210.0 211476.0 82210.0 82210.0 211476.0 211476.0
154887.0 147277.0 90490.0 93725.0 180204.0 182887.0 188532.0 183563.0 23979.0 30473.0 62399.0 61999.0 59143.0 63223.0 117369.0 110986.0 195754.0 196291.0 231239.0 226010.0 194906.0 187851.0 41911.0 49787.0 164360.0 156862.0 188147.0 182720.0 0.0 8000.0 121137.0 115603.0 173276.0 165447.0 202012.0 194925.0 147675.0 151063.0 50495.0 45338.0 204914.0 207944.0 66473.0 73564.0 67330.0 74940.0 157150.0 149418.0 188051.0 189721.0 133677.0 138937.0 108191.0 112272.0 59318.0 61330.0 85079.0 89866.0 164241.0 163574.0 175277.0 171836.0 157177.0 150500.0 196200.0 199128.0 75984.0 79765.0 171191.0 166848.0 56746.0 56292.0 134453.0 130218.0 112702.0 114626.0 163971.0 158187.0 101758.0 93759.0 131325.0 34986.0 131325.0 131325.0 34986.0 34986.0
160182.0 152698.0 93948.0 96551.0 185903.0 188352.0 193368.0 188182.0 16851.0 24092.0 54637.0 54598.0 55279.0 60173.0 110896.0 104336.0 194171.0 195046.0 227905.0 222481.0 201162.0 194231.0 35838.0 43570.0 164241.0 156601.0 194202.0 188944.0 8000.0 0.0 123625.0 118462.0 178929.0 171169.0 198286.0 191069.0 147961.0 151741.0 51806.0 47794.0 204542.0 207863.0 63333.0 70756.0 69511.0 77336.0 163152.0 155331.0 193469.0 194885.0 127748.0 133255.0 109386.0 113945.0 53959.0 56800.0 87018.0 91210.0 170558.0 169652.0 182199.0 178924.0 161807.0 154927.0 191302.0 194482.0 73495.0 78030.0 176043.0 171436.0 53912.0 54624.0 140237.0 136291.0 109203.0 110605.0 167692.0 161669.0 105246.0 97264.0 138409.0 35028.0 138409.0 138409.0 35028.0 35028.0
66217.0 63833.0 33214.0 27684.0 93135.0 90797.0 85254.0 77810.0 137385.0 145404.0 139348.0 131637.0 93314.0 85509.0 224938.0 217416.0 107098.0 103052.0 162533.0 161174.0 116996.0 114268.0 113402.0 114417.0 62792.0 59092.0 106977.0 106513.0 121137.0 123625.0 0.0 7955.0 86775.0 82318.0 144671.0 141320.0 45399.0 42780.0 72316.0 75912.0 100233.0 100021.0 85132.0 79981.0 54132.0 46294.0 82730.0 75805.0 94244.0 91339.0 244556.0 251196.0 23503.0 15497.0 106286.0 98461.0 37090.0 35441.0 95068.0 88856.0 119603.0 122397.0 55965.0 47707.0 160950.0 158545.0 76242.0 67758.0 70662.0 62997.0 86626.0 79531.0 64873.0 69665.0 232675.0 233587.0 49569.0 41969.0 24225.0 30701.0 108311.0 155705.0 108311.0 108311.0 155705.0 155705.0
63051.0 59801.0 26231.0 21913.0 90630.0 88940.0 85159.0 78065.0 132680.0 140705.0 136979.0 129475.0 91301.0 83705.0 221522.0 214065.0 114711.0 110804.0 169652.0 168113.0 113902.0 110668.0 110249.0 111778.0 70593.0 66675.0 104053.0 103023.0 115603.0 118462.0 7955.0 0.0 84025.0 78990.0 151107.0 147517.0 53022.0 50671.0 67762.0 70668.0 108188.0 107952.0 83632.0 79077.0 49307.0 41334.0 78387.0 71115.0 92722.0 90486.0 240888.0 247394.0 25632.0 18214.0 104356.0 96680.0 33283.0 33340.0 90574.0 84746.0 114531.0 116929.0 54594.0 46290.0 166327.0 164201.0 75511.0 67217.0 69683.0 62458.0 84231.0 76749.0 59254.0 63464.0 227650.0 228790.0 51519.0 44449.0 16497.0 23458.0 100915.0 149917.0 100915.0 100915.0 149917.0 149917.0
21207.0 26930.0 94212.0 97578.0 7103.0 11212.0 28947.0 32100.0 195473.0 203013.0 212206.0 205715.0 169379.0 162689.0 289324.0 282428.0 176040.0 169403.0 235586.0 236108.0 30421.0 29401.0 183247.0 186847.0 132926.0 133444.0 20253.0 21613.0 173276.0 178929.0 86775.0 84025.0 0.0 8072.0 223871.0 221955.0 121360.0 114634.0 137787.0 136379.0 155967.0 151473.0 163391.0 160277.0 121056.0 114183.0 19196.0 24953.0 16455.0 22272.0 306670.0 312146.0 109526.0 101754.0 182191.0 175230.0 111469.0 114830.0 23189.0 16390.0 46234.0 53171.0 32589.0 40015.0 244705.0 241347.0 157127.0 149358.0 23386.0 30795.0 161469.0 153176.0 38935.0 44455.0 283683.0 286361.0 52250.0 58162.0 85338.0 91250.0 83749.0 203425.0 83749.0 83749.0 203425.0 203425.0
16121.0 20133.0 87604.0 91381.0 14764.0 19049.0 34833.0 36536.0 187751.0 195258.0 205140.0 198755.0 162718.0 156159.0 281670.0 274807.0 175090.0 168702.0 234412.0 234659.0 34958.0 32042.0 176086.0 179834.0 131360.0 131397.0 25396.0 24221.0 165447.0 171169.0 82318.0 78990.0 8072.0 0.0 221688.0 219502.0 118938.0 112535.0 130654.0 129023.0 156254.0 152123.0 156958.0 154075.0 114186.0 107473.0 11738.0 16888.0 24377.0 29482.0 298916.0 304349.0 104608.0 96971.0 175458.0 168601.0 105231.0 108943.0 18996.0 11157.0 44279.0 50408.0 30688.0 37114.0 241595.0 238471.0 151012.0 143377.0 25370.0 31382.0 154752.0 146420.0 31015.0 36386.0 275729.0 278390.0 52150.0 57200.0 79141.0 84728.0 76242.0 195471.0 76242.0 76242.0 195471.0 195471.0
206078.0 205945.0 162910.0 154439.0 228814.0 223863.0 210098.0 202096.0 200724.0 206141.0 166961.0 159896.0 143031.0 138912.0 244111.0 236938.0 56380.0 64804.0 31671.0 24800.0 253761.0 253178.0 164726.0 158402.0 91657.0 90432.0 243527.0 245305.0 202012.0 198286.0 144671.0 151107.0 223871.0 221688.0 0.0 8030.0 102784.0 109242.0 162460.0 170960.0 88027.0 96140.0 135629.0 128936.0 157846.0 156158.0 224904.0 218885.0 225380.0 219405.0 264813.0 272862.0 129699.0 134474.0 146002.0 141731.0 147605.0 139577.0 237309.0 230262.0 262840.0 266372.0 191373.0 184577.0 34883.0 27010.0 127135.0 125789.0 202290.0 194042.0 145476.0 147620.0 209329.0 214335.0 280379.0 276810.0 172996.0 166123.0 161836.0 163013.0 250648.0 231534.0 250648.0 250648.0 231534.0 231534.0
203756.0 203316.0 158267.0 149854.0 227072.0 222341.0 209122.0 201074.0 193233.0 198567.0 159095.0 152081.0 135862.0 131936.0 236082.0 228908.0 58724.0 67094.0 39691.0 32697.0 252015.0 251169.0 157282.0 150872.0 90705.0 88785.0 241764.0 243285.0 194925.0 191069.0 141320.0 147517.0 221955.0 219502.0 8030.0 0.0 100609.0 107421.0 156162.0 164680.0 90684.0 98842.0 128644.0 122087.0 152160.0 150767.0 222325.0 216119.0 224039.0 218270.0 256788.0 264837.0 125422.0 130531.0 138535.0 134416.0 142504.0 134523.0 234750.0 227826.0 260112.0 263429.0 189388.0 182400.0 30104.0 23025.0 120410.0 119384.0 200722.0 192436.0 138517.0 140900.0 206145.0 210915.0 272427.0 268830.0 171598.0 164537.0 157664.0 158507.0 246410.0 224138.0 246410.0 246410.0 224138.0 224138.0
103295.0 103325.0 73253.0 65211.0 126570.0 122096.0 110214.0 102100.0 158509.0 166164.0 147238.0 138841.0 103090.0 95211.0 235853.0 228111.0 61702.0 57908.0 117930.0 117141.0 151494.0 150560.0 127340.0 125482.0 18279.0 13709.0 141237.0 142676.0 147675.0 147961.0 45399.0 53022.0 121360.0 118938.0 102784.0 100609.0 0.0 8174.0 97414.0 103907.0 58698.0 60637.0 93302.0 85844.0 83036.0 77139.0 122216.0 116414.0 124099.0 118833.0 256592.0 263915.0 41642.0 41425.0 114216.0 106403.0 66134.0 59338.0 134599.0 127494.0 160259.0 164087.0 88784.0 81825.0 124006.0 120214.0 81874.0 74211.0 100463.0 92146.0 99237.0 95076.0 107835.0 113603.0 253167.0 252662.0 71841.0 64409.0 67580.0 71876.0 153675.0 182518.0 153675.0 153675.0 182518.0 182518.0
97098.0 97585.0 72910.0 65269.0 119660.0 114961.0 102584.0 94474.0 162879.0 170627.0 153362.0 145000.0 108646.0 100677.0 241896.0 234166.0 65300.0 60611.0 122945.0 122580.0 144607.0 143938.0 132573.0 131082.0 20343.0 18863.0 134359.0 136067.0 151063.0 151741.0 42780.0 50671.0 114634.0 112535.0 109242.0 107421.0 8174.0 0.0 100598.0 106660.0 58137.0 58974.0 98939.0 91657.0 85287.0 78891.0 116325.0 110820.0 116803.0 111351.0 262536.0 269785.0 43443.0 41693.0 120115.0 112226.0 67886.0 61684.0 128646.0 121396.0 154462.0 158560.0 82135.0 75463.0 131454.0 127455.0 87648.0 79725.0 93329.0 85032.0 104369.0 99736.0 102990.0 109120.0 257923.0 257634.0 64413.0 57164.0 66141.0 71198.0 150345.0 186013.0 150345.0 150345.0 186013.0 186013.0
117400.0 110858.0 45442.0 46128.0 144889.0 145893.0 147703.0 141684.0 65069.0 73088.0 74515.0 68403.0 36012.0 32578.0 154640.0 147330.0 148388.0 148118.0 189474.0 185166.0 163699.0 157926.0 45465.0 49363.0 114442.0 107146.0 155394.0 151527.0 50495.0 51806.0 72316.0 67762.0 137787.0 130654.0 162460.0 156162.0 97414.0 100598.0 0.0 8532.0 155199.0 157898.0 35101.0 37822.0 18521.0 26503.0 124807.0 116625.0 150655.0 150721.0 173573.0 179916.0 57729.0 62139.0 47070.0 41868.0 35361.0 39454.0 134417.0 131657.0 151455.0 150229.0 115752.0 108172.0 163424.0 164685.0 37761.0 36857.0 130703.0 125041.0 28015.0 20301.0 101243.0 99657.0 160449.0 161273.0 118447.0 111873.0 56387.0 48769.0 113808.0 85477.0 113808.0 113808.0 85477.0 85477.0
116428.0 109534.0 46570.0 48759.0 143471.0 144934.0 147903.0 142214.0 62372.0 70371.0 77143.0 71705.0 42326.0 39909.0 154059.0 146906.0 156137.0 155658.0 197868.0 193609.0 161363.0 155276.0 47737.0 52714.0 121241.0 114106.0 153383.0 149130.0 45338.0 47794.0 75912.0 70668.0 136379.0 129023.0 170960.0 164680.0 103907.0 106660.0 8532.0 0.0 162074.0 164519.0 42654.0 45967.0 21998.0 29636.0 122522.0 114388.0 149829.0 150361.0 172475.0 178573.0 63372.0 67041.0 52282.0 47949.0 39783.0 45020.0 131612.0 129316.0 147529.0 145893.0 116015.0 108716.0 171894.0 173195.0 46114.0 45389.0 130725.0 125481.0 34707.0 27703.0 98972.0 96722.0 156985.0 158223.0 120317.0 114090.0 57827.0 49919.0 108260.0 80183.0 108260.0 108260.0 80183.0 80183.0
142862.0 145677.0 131043.0 123328.0 159232.0 152738.0 135472.0 128180.0 213734.0 221083.0 196092.0 187703.0 155548.0 148208.0 283841.0 276118.0 31984.0 23725.0 86211.0 89417.0 183241.0 184793.0 180401.0 177226.0 40853.0 48073.0 173508.0 177318.0 204914.0 204542.0 100233.0 108188.0 155967.0 156254.0 88027.0 90684.0 58698.0 58137.0 155199.0 162074.0 0.0 8160.0 145758.0 137906.0 141584.0 135826.0 162887.0 159051.0 152801.0 145532.0 304948.0 312612.0 100339.0 99617.0 164982.0 157722.0 124828.0 117924.0 174433.0 166617.0 200376.0 205794.0 126134.0 121726.0 120518.0 113709.0 134240.0 127772.0 132656.0 125259.0 153194.0 150382.0 154465.0 161604.0 306668.0 305411.0 104104.0 99607.0 124073.0 129324.0 205338.0 239442.0 205338.0 205338.0 239442.0 239442.0
139182.0 142394.0 131635.0 124171.0 154462.0 147778.0 130072.0 122960.0 217541.0 224992.0 201270.0 192857.0 159928.0 152445.0 289312.0 281576.0 40144.0 31873.0 93535.0 97009.0 178191.0 180044.0 184722.0 181823.0 43622.0 51345.0 168584.0 172668.0 207944.0 207863.0 100021.0 107952.0 151473.0 152123.0 96140.0 98842.0 60637.0 58974.0 157898.0 164519.0 8160.0 0.0 150101.0 142293.0 143646.0 137582.0 159189.0 155692.0 147613.0 140185.0 310381.0 317995.0 102023.0 100666.0 169730.0 162340.0 126561.0 119944.0 170525.0 162660.0 196359.0 201997.0 122346.0 118369.0 128678.0 121866.0 138547.0 131791.0 128099.0 120919.0 157226.0 154046.0 151830.0 159174.0 311049.0 309977.0 100042.0 96038.0 124112.0 129740.0 203519.0 242642.0 203519.0 203519.0 242642.0 242642.0
142298.0 136825.0 69424.0 65962.0 170399.0 170152.0 168542.0 161624.0 69059.0 75951.0 55172.0 47070.0 9847.0 3303.0 143187.0 135482.0 132136.0 133756.0 164775.0 159545.0 191281.0 186315.0 34643.0 32180.0 107154.0 99127.0 182273.0 179391.0 66473.0 63333.0 85132.0 83632.0 163391.0 156958.0 135629.0 128644.0 93302.0 98939.0 35101.0 42654.0 145758.0 150101.0 0.0 7886.0 44550.0 49980.0 152789.0 144641.0 174461.0 173187.0 163687.0 170879.0 63531.0 70779.0 21597.0 13601.0 52086.0 50294.0 163427.0 159658.0 182608.0 182146.0 137235.0 129077.0 132035.0 134199.0 11562.0 19246.0 152476.0 145701.0 9904.0 14951.0 129659.0 129496.0 160954.0 159937.0 134634.0 127100.0 78139.0 72234.0 147836.0 97785.0 147836.0 147836.0 97785.0 97785.0
139103.0 133962.0 67020.0 62711.0 167229.0 166645.0 164218.0 157135.0 76891.0 83821.0 61903.0 53643.0 17644.0 10701.0 150270.0 142548.0 124309.0 125882.0 157743.0 152660.0 188652.0 183967.0 42499.0 39737.0 99433.0 91391.0 179455.0 176893.0 73564.0 70756.0 79981.0 79077.0 160277.0 154075.0 128936.0 122087.0 85844.0 91657.0 37822.0 45967.0 137906.0 142293.0 7886.0 0.0 44011.0 48387.0 150443.0 142350.0 170819.0 169218.0 170879.0 178137.0 57709.0 65220.0 28468.0 20573.0 48845.0 45967.0 161379.0 157285.0 181330.0 181224.0 133227.0 124998.0 126678.0 128497.0 4035.0 12518.0 148443.0 141454.0 16862.0 19185.0 127594.0 127929.0 168782.0 167706.0 129549.0 121892.0 74956.0 69617.0 148365.0 105378.0 148365.0 148365.0 105378.0 105378.0
100338.0 94173.0 27406.0 27609.0 128143.0 128717.0 129704.0 123526.0 83388.0 91414.0 91370.0 84686.0 48887.0 43079.0 173038.0 165693.0 137798.0 136652.0 183029.0 179392.0 147910.0 142562.0 62953.0 65920.0 100751.0 93938.0 139248.0 135861.0 67330.0 69511.0 54132.0 49307.0 121056.0 114186.0 157846.0 152160.0 83036.0 85287.0 18521.0 21998.0 141584.0 143646.0 44550.0 44011.0 0.0 7988.0 109139.0 100950.0 133354.0 133065.0 192060.0 198427.0 41849.0 45100.0 61382.0 54854.0 17813.0 23702.0 119385.0 116018.0 138079.0 137607.0 97776.0 90063.0 162753.0 163086.0 42227.0 37483.0 112837.0 106950.0 40777.0 32372.0 85746.0 85127.0 178550.0 179545.0 99937.0 93353.0 38070.0 30666.0 104539.0 102177.0 104539.0 104539.0 102177.0 102177.0
93312.0 87385.0 20049.0 19625.0 121251.0 121581.0 122087.0 115814.0 91348.0 99373.0 98700.0 91831.0 55247.0 48880.0 180939.0 173576.0 133471.0 131920.0 180439.0 177113.0 141507.0 136393.0 70567.0 73228.0 95100.0 88567.0 132667.0 129544.0 74940.0 77336.0 46294.0 41334.0 114183.0 107473.0 156158.0 150767.0 77139.0 78891.0 26503.0 29636.0 135826.0 137582.0 49980.0 48387.0 7988.0 0.0 102886.0 94722.0 126142.0 125650.0 200009.0 206393.0 35560.0 38004.0 68009.0 61145.0 11022.0 18274.0 113448.0 109762.0 132953.0 132864.0 90196.0 82403.0 162774.0 162703.0 46076.0 40153.0 105312.0 99290.0 47290.0 38998.0 79686.0 79624.0 186440.0 187484.0 91977.0 85370.0 30333.0 23194.0 101763.0 109679.0 101763.0 101763.0 109679.0 109679.0
20025.0 19041.0 83455.0 88176.0 24795.0 30407.0 46455.0 47619.0 179862.0 187231.0 199274.0 193181.0 157985.0 151765.0 273941.0 267199.0 180126.0 174081.0 239008.0 238882.0 38893.0 33534.0 170015.0 174162.0 135761.0 135131.0 31077.0 26741.0 157150.0 163152.0 82730.0 78387.0 19196.0 11738.0 224904.0 222325.0 122216.0 116325.0 124807.0 122522.0 162887.0 159189.0 152789.0 150443.0 109139.0 102886.0 0.0 8193.0 35632.0 41171.0 290808.0 296071.0 103900.0 96595.0 170512.0 163929.0 101796.0 106255.0 12431.0 6880.0 38165.0 42937.0 36852.0 41508.0 243374.0 240620.0 147582.0 140272.0 35402.0 40038.0 149907.0 141510.0 23574.0 26974.0 266797.0 269513.0 59345.0 63281.0 76096.0 80829.0 64593.0 186539.0 64593.0 64593.0 186539.0 186539.0
17589.0 13428.0 75343.0 80196.0 31366.0 35859.0 49567.0 49419.0 172008.0 179419.0 191100.0 184994.0 149802.0 143602.0 266058.0 259285.0 175176.0 169357.0 233718.0 233380.0 47075.0 41674.0 161852.0 165977.0 130534.0 129530.0 39070.0 34934.0 149418.0 155331.0 75805.0 71115.0 24953.0 16888.0 218885.0 216119.0 116414.0 110820.0 116625.0 114388.0 159051.0 155692.0 144641.0 142350.0 100950.0 94722.0 8193.0 0.0 41209.0 45721.0 283035.0 288354.0 96501.0 89325.0 162322.0 155748.0 93760.0 98345.0 19535.0 15070.0 43996.0 47742.0 34136.0 37338.0 236689.0 234094.0 139517.0 132257.0 36164.0 39195.0 141721.0 133322.0 15417.0 19598.0 259317.0 262032.0 56662.0 59679.0 68170.0 72752.0 60608.0 179059.0 60608.0 60608.0 179059.0 179059.0
33423.0 40779.0 106095.0 108521.0 11955.0 5358.0 18091.0 24653.0 209869.0 217509.0 224723.0 217968.0 180977.0 173992.0 303435.0 296439.0 175242.0 168141.0 234961.0 236046.0 30724.0 34118.0 196067.0 199273.0 133764.0 135265.0 21864.0 28184.0 188051.0 193469.0 94244.0 92722.0 16455.0 24377.0 225380.0 224039.0 124099.0 116803.0 150655.0 149829.0 152801.0 147613.0 174461.0 170819.0 133354.0 126142.0 35632.0 41209.0 0.0 8242.0 321101.0 326720.0 117604.0 109647.0 193927.0 186731.0 122376.0 124932.0 37740.0 32115.0 56786.0 64557.0 38285.0 46574.0 248098.0 244250.0 167483.0 159444.0 23998.0 32241.0 173229.0 165058.0 54425.0 60509.0 298917.0 301633.0 52442.0 59691.0 96426.0 102971.0 100102.0 218659.0 100102.0 100102.0 218659.0 218659.0
34976.0 42940.0 105676.0 107465.0 19443.0 11616.0 10159.0 17505.0 211117.0 218844.0 224350.0 217412.0 180037.0 172872.0 304308.0 297223.0 168588.0 161362.0 228282.0 229539.0 38616.0 42335.0 195976.0 198878.0 127748.0 129599.0 30056.0 36404.0 189721.0 194885.0 91339.0 90486.0 22272.0 29482.0 219405.0 218270.0 118833.0 111351.0 150721.0 150361.0 145532.0 140185.0 173187.0 169218.0 133065.0 125650.0 41171.0 45721.0 8242.0 0.0 322273.0 328035.0 114827.0 106828.0 193050.0 185710.0 121207.0 123251.0 44860.0 38598.0 64892.0 72585.0 35992.0 44242.0 242796.0 238762.0 165777.0 157601.0 20805.0 28383.0 172420.0 164356.0 57625.0 64378.0 301081.0 303757.0 46995.0 54607.0 95562.0 102465.0 105724.0 220823.0 105724.0 105724.0 220823.0 220823.0
287746.0 280357.0 218783.0 219604.0 313649.0 316017.0 320269.0 314683.0 111234.0 103659.0 109467.0 117897.0 154117.0 162170.0 21170.0 28846.0 284801.0 288698.0 296366.0 288931.0 328548.0 321410.0 131460.0 131744.0 269056.0 260968.0 321820.0 316377.0 133677.0 127748.0 244556.0 240888.0 306670.0 298916.0 264813.0 256788.0 256592.0 262536.0 173573.0 172475.0 304948.0 310381.0 163687.0 170879.0 192060.0 200009.0 290808.0 283035.0 321101.0 322273.0 0.0 8055.0 225615.0 232012.0 142423.0 150314.0 207694.0 209396.0 297859.0 297249.0 307950.0 304453.0 288443.0 281191.0 241850.0 248500.0 174891.0 182932.0 303020.0 297943.0 159310.0 165494.0 267978.0 263890.0 49819.0 41402.0 291983.0 285267.0 229889.0 222134.0 263929.0 110557.0 263929.0 263929.0 110557.0 110557.0
293411.0 285951.0 224995.0 226007.0 319098.0 321607.0 326201.0 320715.0 116919.0 109215.0 116923.0 125357.0 161259.0 169297.0 29054.0 36644.0 292645.0 296492.0 304417.0 296984.0 333617.0 326390.0 138331.0 138850.0 276537.0 268448.0 327037.0 321477.0 138937.0 133255.0 251196.0 247394.0 312146.0 304349.0 272862.0 264837.0 263915.0 269785.0 179916.0 178573.0 312612.0 317995.0 170879.0 178137.0 198427.0 206393.0 296071.0 288354.0 326720.0 328035.0 8055.0 0.0 232513.0 238821.0 149706.0 157564.0 214258.0 216129.0 302907.0 302461.0 312722.0 309225.0 294430.0 287255.0 249890.0 256548.0 182139.0 190121.0 308924.0 303966.0 166297.0 172337.0 273373.0 269121.0 48298.0 40091.0 298363.0 291721.0 236144.0 228348.0 268701.0 114448.0 268701.0 268701.0 114448.0 114448.0
88636.0 85410.0 33957.0 25416.0 116051.0 114038.0 108732.0 101237.0 121567.0 129478.0 118514.0 110540.0 72345.0 64336.0 205551.0 197927.0 99949.0 97635.0 150849.0 148471.0 139500.0 136298.0 94182.0 94223.0 59738.0 53548.0 129614.0 128655.0 108191.0 109386.0 23503.0 25632.0 109526.0 104608.0 129699.0 125422.0 41642.0 43443.0 57729.0 63372.0 100339.0 102023.0 63531.0 57709.0 41849.0 35560.0 103900.0 96501.0 117604.0 114827.0 225615.0 232513.0 0.0 8006.0 85046.0 77087.0 24539.0 18360.0 116010.0 110317.0 139559.0 141561.0 79322.0 71030.0 142375.0 140761.0 53825.0 45255.0 94123.0 86496.0 66401.0 60205.0 84009.0 87410.0 217097.0 217363.0 72441.0 64608.0 32274.0 33564.0 120994.0 143177.0 120994.0 120994.0 143177.0 143177.0
80949.0 77960.0 31877.0 23792.0 108231.0 106118.0 100731.0 93248.0 126737.0 134703.0 125536.0 117654.0 79359.0 71414.0 212099.0 204508.0 101770.0 98823.0 154470.0 152455.0 131814.0 128758.0 100563.0 100975.0 59701.0 54305.0 121883.0 121077.0 112272.0 113945.0 15497.0 18214.0 101754.0 96971.0 134474.0 130531.0 41425.0 41693.0 62139.0 67041.0 99617.0 100666.0 70779.0 65220.0 45100.0 38004.0 96595.0 89325.0 109647.0 106828.0 232012.0 238821.0 8006.0 0.0 92186.0 84268.0 27289.0 22983.0 108788.0 102933.0 132665.0 134916.0 71362.0 63078.0 148505.0 146594.0 61390.0 52842.0 86133.0 78492.0 73105.0 66525.0 77257.0 81078.0 222296.0 222792.0 64586.0 56802.0 27674.0 30720.0 116316.0 147199.0 116316.0 116316.0 147199.0 147199.0
161285.0 155386.0 88000.0 85589.0 189256.0 189457.0 188809.0 182071.0 54729.0 60432.0 33578.0 25497.0 13067.0 20788.0 121802.0 114081.0 149120.0 151483.0 176422.0 170544.0 209293.0 203906.0 18774.0 12788.0 127331.0 119254.0 200594.0 197240.0 59318.0 53959.0 106286.0 104356.0 182191.0 175458.0 146002.0 138535.0 114216.0 120115.0 47070.0 52282.0 164982.0 169730.0 21597.0 28468.0 61382.0 68009.0 170512.0 162322.0 193927.0 193050.0 142423.0 149706.0 85046.0 92186.0 0.0 7999.0 71933.0 71088.0 180629.0 177391.0 198399.0 197283.0 157230.0 149175.0 137397.0 140746.0 32491.0 40702.0 172460.0 165933.0 20724.0 29042.0 147082.0 146117.0 142055.0 140489.0 155646.0 148212.0 97539.0 91032.0 160498.0 85675.0 160498.0 160498.0 85675.0 85675.0
154247.0 148496.0 81023.0 78263.0 182278.0 182318.0 181322.0 174517.0 59646.0 65891.0 41577.0 33475.0 5989.0 12978.0 129735.0 122019.0 142591.0 144709.0 171755.0 166096.0 202626.0 197389.0 23723.0 19504.0 119748.0 111682.0 193813.0 190627.0 61330.0 56800.0 98461.0 96680.0 175230.0 168601.0 141731.0 134416.0 106403.0 112226.0 41868.0 47949.0 157722.0 162340.0 13601.0 20573.0 54854.0 61145.0 163929.0 155748.0 186731.0 185710.0 150314.0 157564.0 77087.0 84268.0 7999.0 0.0 64511.0 63366.0 174238.0 170809.0 192525.0 191644.0 149832.0 141738.0 134884.0 137817.0 24578.0 32721.0 165071.0 158453.0 14177.0 22576.0 140586.0 139902.0 149045.0 147689.0 147881.0 140409.0 90305.0 83989.0 155671.0 89876.0 155671.0 155671.0 89876.0 89876.0
90319.0 85119.0 19002.0 13899.0 118442.0 118071.0 116880.0 110203.0 100388.0 108399.0 104023.0 96700.0 58884.0 51668.0 188258.0 180791.0 122986.0 121237.0 171072.0 168003.0 139838.0 135281.0 76978.0 78696.0 84131.0 77674.0 130612.0 128132.0 85079.0 87018.0 37090.0 33283.0 111469.0 105231.0 147605.0 142504.0 66134.0 67886.0 35361.0 39783.0 124828.0 126561.0 52086.0 48845.0 17813.0 11022.0 101796.0 93760.0 122376.0 121207.0 207694.0 214258.0 24539.0 27289.0 71933.0 64511.0 0.0 8078.0 112971.0 108610.0 133943.0 134533.0 85322.0 77244.0 155940.0 155431.0 45831.0 38517.0 100560.0 94003.0 51451.0 43692.0 79278.0 80366.0 195810.0 196591.0 84747.0 77732.0 26131.0 21125.0 106667.0 119965.0 106667.0 106667.0 119965.0 119965.0
93622.0 88954.0 25389.0 18403.0 121704.0 120836.0 118330.0 111347.0 103776.0 111735.0 103961.0 96325.0 58055.0 50388.0 189640.0 182091.0 115222.0 113647.0 162996.0 159926.0 143778.0 139586.0 78062.0 78977.0 77114.0 70427.0 134331.0 132274.0 89866.0 91210.0 35441.0 33340.0 114830.0 108943.0 139577.0 134523.0 59338.0 61684.0 39454.0 45020.0 117924.0 119944.0 50294.0 45967.0 23702.0 18274.0 106255.0 98345.0 124932.0 123251.0 209396.0 216129.0 18360.0 22983.0 71088.0 63366.0 8078.0 0.0 117740.0 112997.0 139452.0 140387.0 87260.0 79032.0 148326.0 147682.0 42557.0 34560.0 102476.0 95528.0 51208.0 44114.0 84289.0 85984.0 199340.0 199809.0 84568.0 77196.0 30176.0 26855.0 113965.0 124850.0 113965.0 113965.0 124850.0 124850.0
31851.0 31470.0 94372.0 99517.0 25791.0 33265.0 52132.0 54954.0 187364.0 194553.0 208662.0 202806.0 168268.0 162274.0 281454.0 274853.0 192234.0 186094.0 251231.0 251173.0 30719.0 23756.0 179301.0 183752.0 147992.0 147468.0 25501.0 18722.0 164241.0 170558.0 95068.0 90574.0 23189.0 18996.0 237309.0 234750.0 134599.0 128646.0 134417.0 131612.0 174433.0 170525.0 163427.0 161379.0 119385.0 113448.0 12431.0 19535.0 37740.0 44860.0 297859.0 302907.0 116010.0 108788.0 180629.0 174238.0 112971.0 117740.0 0.0 7927.0 26044.0 31558.0 48315.0 53560.0 255783.0 253047.0 158627.0 151488.0 44359.0 50205.0 160139.0 151723.0 33789.0 34896.0 273093.0 275808.0 70489.0 74932.0 87568.0 91891.0 64505.0 192835.0 64505.0 64505.0 192835.0 192835.0
24343.0 25025.0 90310.0 94962.0 20478.0 27215.0 45155.0 47480.0 186388.0 193718.0 206112.0 200038.0 164865.0 158641.0 280485.0 273772.0 184699.0 178486.0 243803.0 243840.0 32058.0 26682.0 176840.0 181015.0 140595.0 140243.0 24576.0 19874.0 163574.0 169652.0 88856.0 84746.0 16390.0 11157.0 230262.0 227826.0 127494.0 121396.0 131657.0 129316.0 166617.0 162660.0 159658.0 157285.0 116018.0 109762.0 6880.0 15070.0 32115.0 38598.0 297249.0 302461.0 110317.0 102933.0 177391.0 170809.0 108610.0 112997.0 7927.0 0.0 33769.0 39479.0 40552.0 46082.0 249227.0 246356.0 154410.0 147071.0 36518.0 42278.0 156787.0 148390.0 30415.0 33364.0 273009.0 275725.0 62618.0 67189.0 82855.0 87668.0 68264.0 192751.0 68264.0 68264.0 192751.0 192751.0
57890.0 56934.0 114985.0 121052.0 45809.0 53745.0 73793.0 78121.0 199027.0 205741.0 224483.0 219234.0 186538.0 181142.0 292467.0 286226.0 218249.0 212133.0 277174.0 277033.0 33853.0 25792.0 195101.0 200230.0 173926.0 173249.0 36719.0 28955.0 175277.0 182199.0 119603.0 114531.0 46234.0 44279.0 262840.0 260112.0 160259.0 154462.0 151455.0 147529.0 200376.0 196359.0 182608.0 181330.0 138079.0 132953.0 38165.0 43996.0 56786.0 64892.0 307950.0 312722.0 139559.0 132665.0 198399.0 192525.0 133943.0 139452.0 26044.0 33769.0 0.0 8285.0 74315.0 79578.0 280552.0 278041.0 178879.0 172236.0 69149.0 75643.0 178349.0 169963.0 55603.0 53580.0 282748.0 285464.0 96329.0 100947.0 109586.0 112875.0 65346.0 202490.0 65346.0 65346.0 202490.0 202490.0
62947.0 61056.0 115532.0 122004.0 53323.0 61284.0 81253.0 85237.0 195702.0 202285.0 222529.0 217525.0 185668.0 180547.0 288969.0 282740.0 222831.0 216901.0 281459.0 281110.0 42109.0 34077.0 193219.0 198592.0 178260.0 177255.0 44884.0 37008.0 171836.0 178924.0 122397.0 116929.0 53171.0 50408.0 266372.0 263429.0 164087.0 158560.0 150229.0 145893.0 205794.0 201997.0 182146.0 181224.0 137607.0 132864.0 42937.0 47742.0 64557.0 72585.0 304453.0 309225.0 141561.0 134916.0 197283.0 191644.0 134533.0 140387.0 31558.0 39479.0 8285.0 0.0 79676.0 84393.0 283232.0 280939.0 178924.0 172543.0 75633.0 81739.0 177482.0 169141.0 57676.0 54486.0 279252.0 281967.0 101994.0 106200.0 110871.0 113615.0 60282.0 198994.0 60282.0 60282.0 198994.0 198994.0
16906.0 21829.0 70389.0 71658.0 38122.0 34918.0 31951.0 26387.0 177659.0 185516.0 188816.0 181755.0 144195.0 136964.0 270050.0 262850.0 144407.0 138058.0 203729.0 204019.0 62876.0 61806.0 160723.0 163354.0 100730.0 100974.0 52628.0 53932.0 157177.0 161807.0 55965.0 54594.0 32589.0 30688.0 191373.0 189388.0 88784.0 82135.0 115752.0 116015.0 126134.0 122346.0 137235.0 133227.0 97776.0 90196.0 36852.0 34136.0 38285.0 35992.0 288443.0 294430.0 79322.0 71362.0 157230.0 149832.0 85322.0 87260.0 48315.0 40552.0 74315.0 79676.0 0.0 8311.0 212165.0 208765.0 129788.0 121626.0 15243.0 9712.0 136650.0 128659.0 35870.0 44211.0 269469.0 271751.0 22592.0 26639.0 59926.0 67110.0 89809.0 189257.0 89809.0 89809.0 189257.0 189257.0
21742.0 24033.0 62739.0 63659.0 45908.0 43104.0 39712.0 33525.0 170617.0 178512.0 180915.0 173792.0 136129.0 128848.0 262650.0 255410.0 138675.0 132578.0 197721.0 197784.0 70430.0 68855.0 152968.0 155466.0 94518.0 94326.0 60223.0 60967.0 150500.0 154927.0 47707.0 46290.0 40015.0 37114.0 184577.0 182400.0 81825.0 75463.0 108172.0 108716.0 121726.0 118369.0 129077.0 124998.0 90063.0 82403.0 41508.0 37338.0 46574.0 44242.0 281191.0 287255.0 71030.0 63078.0 149175.0 141738.0 77244.0 79032.0 53560.0 46082.0 79578.0 84393.0 8311.0 0.0 204757.0 201500.0 121542.0 113359.0 23447.0 16888.0 128633.0 120691.0 35541.0 43742.0 262998.0 265124.0 20944.0 22454.0 52079.0 59430.0 88942.0 182886.0 88942.0 88942.0 182886.0 182886.0
225596.0 224349.0 173264.0 165209.0 250212.0 246009.0 234010.0 225906.0 190824.0 195173.0 152154.0 146171.0 137575.0 135301.0 221755.0 214976.0 88535.0 96835.0 60045.0 51929.0 275041.0 273558.0 155956.0 148764.0 116675.0 113531.0 264790.0 265678.0 196200.0 191302.0 160950.0 166327.0 244705.0 241595.0 34883.0 30104.0 124006.0 131454.0 163424.0 171894.0 120518.0 128678.0 132035.0 126678.0 162753.0 162774.0 243374.0 236689.0 248098.0 242796.0 241850.0 249890.0 142375.0 148505.0 137397.0 134884.0 155940.0 148326.0 255783.0 249227.0 280552.0 283232.0 212165.0 204757.0 0.0 8242.0 125923.0 126943.0 224395.0 216073.0 141837.0 145856.0 225570.0 229582.0 262412.0 258025.0 195823.0 188411.0 174405.0 174023.0 262112.0 222342.0 262112.0 262112.0 222342.0 222342.0
222547.0 221580.0 172342.0 164157.0 246714.0 242310.0 229826.0 221739.0 194655.0 199252.0 156957.0 150713.0 140201.0 137489.0 228269.0 221406.0 81748.0 90113.0 51925.0 43817.0 271602.0 270352.0 159424.0 152400.0 111900.0 109215.0 261344.0 262466.0 199128.0 194482.0 158545.0 164201.0 241347.0 238471.0 27010.0 23025.0 120214.0 127455.0 164685.0 173195.0 113709.0 121866.0 134199.0 128497.0 163086.0 162703.0 240620.0 234094.0 244250.0 238762.0 248500.0 256548.0 140761.0 146594.0 140746.0 137817.0 155431.0 147682.0 253047.0 246356.0 278041.0 280939.0 208765.0 201500.0 8242.0 0.0 127493.0 127966.0 220675.0 212359.0 144067.0 147672.0 223348.0 227614.0 268088.0 263864.0 191865.0 184577.0 172953.0 172946.0 261115.0 226086.0 261115.0 261115.0 226086.0 226086.0
135936.0 130918.0 64263.0 59634.0 164055.0 163355.0 160670.0 153540.0 80181.0 87220.0 65938.0 57677.0 21407.0 14012.0 154293.0 146572.0 121112.0 122528.0 155605.0 150666.0 185665.0 181088.0 46180.0 43648.0 95595.0 87566.0 176403.0 173960.0 75984.0 73495.0 76242.0 75511.0 157127.0 151012.0 127135.0 120410.0 81874.0 87648.0 37761.0 46114.0 134240.0 138547.0 11562.0 4035.0 42227.0 46076.0 147582.0 139517.0 167483.0 165777.0 174891.0 182139.0 53825.0 61390.0 32491.0 24578.0 45831.0 42557.0 158627.0 154410.0 178879.0 178924.0 129788.0 121542.0 125923.0 127493.0 0.0 8574.0 144989.0 137937.0 19666.0 20491.0 124862.0 125398.0 172503.0 171499.0 125800.0 118114.0 71871.0 66766.0 146755.0 108273.0 146755.0 146755.0 108273.0 108273.0
128153.0 123327.0 57301.0 52121.0 156249.0 155382.0 152364.0 145184.0 86018.0 93314.0 74249.0 66043.0 28923.0 20999.0 162421.0 154713.0 116148.0 117087.0 153377.0 148798.0 178132.0 173727.0 53207.0 51358.0 88537.0 80576.0 168773.0 166517.0 79765.0 78030.0 67758.0 67217.0 149358.0 143377.0 125789.0 119384.0 74211.0 79725.0 36857.0 45389.0 127772.0 131791.0 19246.0 12518.0 37483.0 40153.0 140272.0 132257.0 159444.0 157601.0 182932.0 190121.0 45255.0 52842.0 40702.0 32721.0 38517.0 34560.0 151488.0 147071.0 172236.0 172543.0 121626.0 113359.0 126943.0 127966.0 8574.0 0.0 136801.0 129673.0 25437.0 23487.0 117787.0 118671.0 179403.0 178634.0 117299.0 109593.0 64302.0 59621.0 141709.0 113029.0 141709.0 141709.0 113029.0 113029.0
19971.0 27970.0 85432.0 86879.0 26864.0 21636.0 17342.0 13869.0 192057.0 199867.0 203975.0 196948.0 159428.0 152206.0 284782.0 277623.0 153327.0 146526.0 212984.0 213737.0 51643.0 52242.0 175789.0 178507.0 110873.0 111953.0 41511.0 44676.0 171191.0 176043.0 70662.0 69683.0 23386.0 25370.0 202290.0 200722.0 100463.0 93329.0 130703.0 130725.0 132656.0 128099.0 152476.0 148443.0 112837.0 105312.0 35402.0 36164.0 23998.0 20805.0 303020.0 308924.0 94123.0 86133.0 172460.0 165071.0 100560.0 102476.0 44359.0 36518.0 69149.0 75633.0 15243.0 23447.0 224395.0 220675.0 144989.0 136801.0 0.0 8322.0 151868.0 143859.0 43578.0 51467.0 283145.0 285618.0 29490.0 36187.0 75091.0 82177.0 96105.0 202888.0 96105.0 96105.0 202888.0 202888.0
21723.0 28631.0 79617.0 80487.0 34900.0 29951.0 22878.0 16755.0 187240.0 195111.0 197771.0 190617.0 152877.0 145539.0 279470.0 272244.0 145372.0 138660.0 204987.0 205657.0 59788.0 60031.0 169855.0 172328.0 102689.0 103679.0 49604.0 52346.0 166848.0 171436.0 62997.0 62458.0 30795.0 31382.0 194042.0 192436.0 92146.0 85032.0 125041.0 125481.0 125259.0 120919.0 145701.0 141454.0 106950.0 99290.0 40038.0 39195.0 32241.0 28383.0 297943.0 303966.0 86496.0 78492.0 165933.0 158453.0 94003.0 95528.0 50205.0 42278.0 75643.0 81739.0 9712.0 16888.0 216073.0 212359.0 137937.0 129673.0 8322.0 0.0 145429.0 137521.0 43753.0 51995.0 279170.0 281435.0 21493.0 27920.0 68963.0 76311.0 97414.0 198964.0 97414.0 97414.0 198964.0 198964.0
140561.0 134672.0 67276.0 64992.0 168533.0 168745.0 168306.0 161655.0 60713.0 67917.0 52769.0 45272.0 8190.0 6601.0 139159.0 131528.0 140748.0 142055.0 174503.0 169336.0 188651.0 183339.0 28224.0 27871.0 113928.0 105987.0 179909.0 176622.0 56746.0 53912.0 86626.0 84231.0 161469.0 154752.0 145476.0 138517.0 99237.0 104369.0 28015.0 34707.0 153194.0 157226.0 9904.0 16862.0 40777.0 47290.0 149907.0 141721.0 173229.0 172420.0 159310.0 166297.0 66401.0 73105.0 20724.0 14177.0 51451.0 51208.0 160139.0 156787.0 178349.0 177482.0 136650.0 128633.0 141837.0 144067.0 19666.0 25437.0 151868.0 145429.0 0.0 8419.0 126522.0 125754.0 154057.0 153428.0 135688.0 128385.0 76874.0 70312.0 141771.0 88619.0 141771.0 141771.0 88619.0 88619.0
132306.0 126355.0 59023.0 57035.0 160246.0 160540.0 160391.0 153827.0 63537.0 71112.0 60333.0 53101.0 16588.0 12284.0 145595.0 138022.0 139608.0 140422.0 175959.0 171098.0 180268.0 174933.0 34038.0 35031.0 110511.0 102701.0 171552.0 168229.0 56292.0 54624.0 79531.0 76749.0 153176.0 146420.0 147620.0 140900.0 95076.0 99736.0 20301.0 27703.0 150382.0 154046.0 14951.0 19185.0 32372.0 38998.0 141510.0 133322.0 165058.0 164356.0 165494.0 172337.0 60205.0 66525.0 29042.0 22576.0 43692.0 44114.0 151723.0 148390.0 169963.0 169141.0 128659.0 120691.0 145856.0 147672.0 20491.0 23487.0 143859.0 137521.0 8419.0 0.0 118113.0 117337.0 158191.0 157952.0 128265.0 121073.0 68795.0 62097.0 133739.0 89649.0 133739.0 133739.0 89649.0 89649.0
23743.0 15610.0 60599.0 65963.0 45780.0 49109.0 59467.0 57447.0 156864.0 164330.0 175701.0 169627.0 134627.0 128540.0 250862.0 244052.0 168127.0 162828.0 225736.0 224937.0 62465.0 56824.0 146442.0 150601.0 123150.0 121307.0 54450.0 50285.0 134453.0 140237.0 64873.0 59254.0 38935.0 31015.0 209329.0 206145.0 107835.0 102990.0 101243.0 98972.0 154465.0 151830.0 129659.0 127594.0 85746.0 79686.0 23574.0 15417.0 54425.0 57625.0 267978.0 273373.0 84009.0 77257.0 147082.0 140586.0 79278.0 84289.0 33789.0 30415.0 55603.0 57676.0 35870.0 35541.0 225570.0 223348.0 124862.0 117787.0 43578.0 43753.0 126522.0 118113.0 0.0 8344.0 244750.0 247433.0 56453.0 57390.0 54205.0 58167.0 53939.0 164492.0 53939.0 53939.0 164492.0 164492.0
31510.0 23577.0 61406.0 67584.0 50961.0 55152.0 66916.0 65312.0 153035.0 160355.0 173797.0 168007.0 133918.0 128179.0 247137.0 240444.0 174392.0 169304.0 231518.0 230503.0 65047.0 58606.0 144424.0 148947.0 129388.0 127187.0 57930.0 52789.0 130218.0 136291.0 69665.0 63464.0 44455.0 36386.0 214335.0 210915.0 113603.0 109120.0 99657.0 96722.0 161604.0 159174.0 129496.0 127929.0 85127.0 79624.0 26974.0 19598.0 60509.0 64378.0 263890.0 269121.0 87410.0 81078.0 146117.0 139902.0 80366.0 85984.0 34896.0 33364.0 53580.0 54486.0 44211.0 43742.0 229582.0 227614.0 125398.0 118671.0 51467.0 51995.0 125754.0 117337.0 8344.0 0.0 239838.0 242553.0 64679.0 65362.0 56388.0 59316.0 45598.0 159580.0 45598.0 45598.0 159580.0 159580.0
266115.0 258291.0 203042.0 205744.0 290481.0 293672.0 300467.0 295820.0 95564.0 87623.0 114158.0 121920.0 151139.0 158616.0 54664.0 57164.0 290948.0 293515.0 311953.0 305120.0 303812.0 296479.0 126328.0 129562.0 267938.0 259959.0 297549.0 291734.0 112702.0 109203.0 232675.0 227650.0 283683.0 275729.0 280379.0 272427.0 253167.0 257923.0 160449.0 156985.0 306668.0 311049.0 160954.0 168782.0 178550.0 186440.0 266797.0 259317.0 298917.0 301081.0 49819.0 48298.0 217097.0 222296.0 142055.0 149045.0 195810.0 199340.0 273093.0 273009.0 282748.0 279252.0 269469.0 262998.0 262412.0 268088.0 172503.0 179403.0 283145.0 279170.0 154057.0 158191.0 244750.0 239838.0 0.0 8428.0 276656.0 270781.0 214333.0 206338.0 238728.0 81174.0 238728.0 238728.0 81174.0 81174.0
268802.0 260999.0 204550.0 206921.0 293131.0 296385.0 302956.0 298130.0 96206.0 88192.0 111444.0 119414.0 150093.0 157725.0 46836.0 49846.0 288924.0 291716.0 308438.0 301498.0 306527.0 299194.0 125432.0 128187.0 267077.0 259060.0 300265.0 294449.0 114626.0 110605.0 233587.0 228790.0 286361.0 278390.0 276810.0 268830.0 252662.0 257634.0 161273.0 158223.0 305411.0 309977.0 159937.0 167706.0 179545.0 187484.0 269513.0 262032.0 301633.0 303757.0 41402.0 40091.0 217363.0 222792.0 140489.0 147689.0 196591.0 199809.0 275808.0 275725.0 285464.0 281967.0 271751.0 265124.0 258025.0 263864.0 171499.0 178634.0 285618.0 281435.0 153428.0 157952.0 247433.0 242553.0 8428.0 0.0 278294.0 272256.0 215848.0 207869.0 241444.0 84457.0 241444.0 241444.0 84457.0 84457.0
39487.0 43936.0 73784.0 72381.0 56327.0 50909.0 38659.0 30590.0 182689.0 190685.0 188454.0 180883.0 142622.0 134909.0 272813.0 265398.0 123886.0 117169.0 183517.0 184246.0 81132.0 81523.0 161721.0 163291.0 81461.0 82823.0 70998.0 73828.0 163971.0 167692.0 49569.0 51519.0 52250.0 52150.0 172996.0 171598.0 71841.0 64413.0 118447.0 120317.0 104104.0 100042.0 134634.0 129549.0 99937.0 91977.0 59345.0 56662.0 52442.0 46995.0 291983.0 298363.0 72441.0 64586.0 155646.0 147881.0 84747.0 84568.0 70489.0 62618.0 96329.0 101994.0 22592.0 20944.0 195823.0 191865.0 125800.0 117299.0 29490.0 21493.0 135688.0 128265.0 56453.0 64679.0 276656.0 278294.0 0.0 8042.0 62498.0 70450.0 109849.0 197172.0 109849.0 109849.0 197172.0 197172.0
43257.0 46462.0 67740.0 65745.0 62746.0 57806.0 46542.0 38513.0 176427.0 184439.0 181151.0 173514.0 135213.0 127448.0 265960.0 258511.0 117978.0 111510.0 177450.0 177949.0 87674.0 87559.0 154685.0 156072.0 74833.0 75767.0 77463.0 79766.0 158187.0 161669.0 41969.0 44449.0 58162.0 57200.0 166123.0 164537.0 64409.0 57164.0 111873.0 114090.0 99607.0 96038.0 127100.0 121892.0 93353.0 85370.0 63281.0 59679.0 59691.0 54607.0 285267.0 291721.0 64608.0 56802.0 148212.0 140409.0 77732.0 77196.0 74932.0 67189.0 100947.0 106200.0 26639.0 22454.0 188411.0 184577.0 118114.0 109593.0 36187.0 27920.0 128385.0 121073.0 57390.0 65362.0 270781.0 272256.0 8042.0 0.0 56448.0 64445.0 109735.0 191730.0 109735.0 109735.0 191730.0 191730.0
64192.0 59052.0 11298.0 12245.0 92313.0 92042.0 91778.0 85483.0 120197.0 128189.0 128891.0 121865.0 84563.0 77582.0 211027.0 203711.0 128868.0 125469.0 182143.0 180104.0 113835.0 109475.0 100899.0 103427.0 85590.0 80985.0 104532.0 102223.0 101758.0 105246.0 24225.0 16497.0 85338.0 79141.0 161836.0 157664.0 67580.0 66141.0 56387.0 57827.0 124073.0 124112.0 78139.0 74956.0 38070.0 30333.0 76096.0 68170.0 96426.0 95562.0 229889.0 236144.0 32274.0 27674.0 97539.0 90305.0 26131.0 30176.0 87568.0 82855.0 109586.0 110871.0 59926.0 52079.0 174405.0 172953.0 71871.0 64302.0 75091.0 68963.0 76874.0 68795.0 54205.0 56388.0 214333.0 215848.0 62498.0 56448.0 0.0 7999.0 88814.0 135524.0 88814.0 88814.0 135524.0 135524.0
70265.0 64597.0 3353.0 8819.0 98292.0 98443.0 99042.0 92925.0 112272.0 120258.0 121888.0 115020.0 78158.0 71450.0 203368.0 196082.0 132483.0 129508.0 184399.0 182029.0 119102.0 114350.0 93617.0 96417.0 90087.0 84969.0 110040.0 107290.0 93759.0 97264.0 30701.0 23458.0 91250.0 84728.0 163013.0 158507.0 71876.0 71198.0 48769.0 49919.0 129324.0 129740.0 72234.0 69617.0 30666.0 23194.0 80829.0 72752.0 102971.0 102465.0 222134.0 228348.0 33564.0 30720.0 91032.0 83989.0 21125.0 26855.0 91891.0 87668.0 112875.0 113615.0 67110.0 59430.0 174023.0 172946.0 66766.0 59621.0 82177.0 76311.0 70312.0 62097.0 58167.0 59316.0 206338.0 207869.0 70450.0 64445.0 7999.0 0.0 88170.0 127556.0 88170.0 88170.0 127556.0 127556.0
76270.0 68795.0 88850.0 96959.0 88720.0 94953.0 110171.0 109736.0 155178.0 161762.0 183483.0 179018.0 149818.0 145762.0 248445.0 242216.0 215326.0 210954.0 270462.0 268692.0 92852.0 84514.0 154464.0 160365.0 170653.0 167380.0 89757.0 82210.0 131325.0 138409.0 108311.0 100915.0 83749.0 76242.0 250648.0 246410.0 153675.0 150345.0 113808.0 108260.0 205338.0 203519.0 147836.0 148365.0 104539.0 101763.0 64593.0 60608.0 100102.0 105724.0 263929.0 268701.0 120994.0 116316.0 160498.0 155671.0 106667.0 113965.0 64505.0 68264.0 65346.0 60282.0 89809.0 88942.0 262112.0 261115.0 146755.0 141709.0 96105.0 97414.0 141771.0 133739.0 53939.0 45598.0 238728.0 241444.0 109849.0 109735.0 88814.0 88170.0 0.0 158470.0 0.0 0.0 158470.0 158470.0
185857.0 178033.0 124359.0 128140.0 210223.0 213414.0 220209.0 215591.0 31579.0 28701.0 75084.0 78498.0 89199.0 94711.0 97988.0 93095.0 229147.0 230070.0 261626.0 255959.0 223554.0 216221.0 66901.0 73696.0 199028.0 191448.0 217291.0 211476.0 34986.0 35028.0 155705.0 149917.0 203425.0 195471.0 231534.0 224138.0 182518.0 186013.0 85477.0 80183.0 239442.0 242642.0 97785.0 105378.0 102177.0 109679.0 186539.0 179059.0 218659.0 220823.0 110557.0 114448.0 143177.0 147199.0 85675.0 89876.0 119965.0 124850.0 192835.0 192751.0 202490.0 198994.0 189257.0 182886.0 222342.0 226086.0 108273.0 113029.0 202888.0 198964.0 88619.0 89649.0 164492.0 159580.0 81174.0 84457.0 197172.0 191730.0 135524.0 127556.0 158470.0 0.0 158470.0 158470.0 0.0 0.0
76270.0 68795.0 88850.0 96959.0 88720.0 94953.0 110171.0 109736.0 155178.0 161762.0 183483.0 179018.0 149818.0 145762.0 248445.0 242216.0 215326.0 210954.0 270462.0 268692.0 92852.0 84514.0 154464.0 160365.0 170653.0 167380.0 89757.0 82210.0 131325.0 138409.0 108311.0 100915.0 83749.0 76242.0 250648.0 246410.0 153675.0 150345.0 113808.0 108260.0 205338.0 203519.0 147836.0 148365.0 104539.0 101763.0 64593.0 60608.0 100102.0 105724.0 263929.0 268701.0 120994.0 116316.0 160498.0 155671.0 106667.0 113965.0 64505.0 68264.0 65346.0 60282.0 89809.0 88942.0 262112.0 261115.0 146755.0 141709.0 96105.0 97414.0 141771.0 133739.0 53939.0 45598.0 238728.0 241444.0 109849.0 109735.0 88814.0 88170.0 0.0 158470.0 0.0 0.0 158470.0 158470.0
76270.0 68795.0 88850.0 96959.0 88720.0 94953.0 110171.0 109736.0 155178.0 161762.0 183483.0 179018.0 149818.0 145762.0 248445.0 242216.0 215326.0 210954.0 270462.0 268692.0 92852.0 84514.0 154464.0 160365.0 170653.0 167380.0 89757.0 82210.0 131325.0 138409.0 108311.0 100915.0 83749.0 76242.0 250648.0 246410.0 153675.0 150345.0 113808.0 108260.0 205338.0 203519.0 147836.0 148365.0 104539.0 101763.0 64593.0 60608.0 100102.0 105724.0 263929.0 268701.0 120994.0 116316.0 160498.0 155671.0 106667.0 113965.0 64505.0 68264.0 65346.0 60282.0 89809.0 88942.0 262112.0 261115.0 146755.0 141709.0 96105.0 97414.0 141771.0 133739.0 53939.0 45598.0 238728.0 241444.0 109849.0 109735.0 88814.0 88170.0 0.0 158470.0 0.0 0.0 158470.0 158470.0
185857.0 178033.0 124359.0 128140.0 210223.0 213414.0 220209.0 215591.0 31579.0 28701.0 75084.0 78498.0 89199.0 94711.0 97988.0 93095.0 229147.0 230070.0 261626.0 255959.0 223554.0 216221.0 66901.0 73696.0 199028.0 191448.0 217291.0 211476.0 34986.0 35028.0 155705.0 149917.0 203425.0 195471.0 231534.0 224138.0 182518.0 186013.0 85477.0 80183.0 239442.0 242642.0 97785.0 105378.0 102177.0 109679.0 186539.0 179059.0 218659.0 220823.0 110557.0 114448.0 143177.0 147199.0 85675.0 89876.0 119965.0 124850.0 192835.0 192751.0 202490.0 198994.0 189257.0 182886.0 222342.0 226086.0 108273.0 113029.0 202888.0 198964.0 88619.0 89649.0 164492.0 159580.0 81174.0 84457.0 197172.0 191730.0 135524.0 127556.0 158470.0 0.0 158470.0 158470.0 0.0 0.0
185857.0 178033.0 124359.0 128140.0 210223.0 213414.0 220209.0 215591.0 31579.0 28701.0 75084.0 78498.0 89199.0 94711.0 97988.0 93095.0 229147.0 230070.0 261626.0 255959.0 223554.0 216221.0 66901.0 73696.0 199028.0 191448.0 217291.0 211476.0 34986.0 35028.0 155705.0 149917.0 203425.0 195471.0 231534.0 224138.0 182518.0 186013.0 85477.0 80183.0 239442.0 242642.0 97785.0 105378.0 102177.0 109679.0 186539.0 179059.0 218659.0 220823.0 110557.0 114448.0 143177.0 147199.0 85675.0 89876.0 119965.0 124850.0 192835.0 192751.0 202490.0 198994.0 189257.0 182886.0 222342.0 226086.0 108273.0 113029.0 202888.0 198964.0 88619.0 89649.0 164492.0 159580.0 81174.0 84457.0 197172.0 191730.0 135524.0 127556.0 158470.0 0.0 158470.0 158470.0 0.0 0.0
FIXED_EDGES_SECTION
1 2
3 4
5 6
7 8
9 10
11 12
13 14
15 16
17 18
19 20
21 22
23 24
25 26
27 28
29 30
31 32
33 34
35 36
37 38
39 40
41 42
43 44
45 46
47 48
49 50
51 52
53 54
55 56
57 58
59 60
61 62
63 64
65 66
67 68
69 70
71 72
73 74
75 76
77 78
79 80
-1 
DEMAND_SECTION
1 493
2 493
3 94
4 94
5 274
6 274
7 265
8 265
9 371
10 371
11 68
12 68
13 158
14 158
15 244
16 244
17 76
18 76
19 542
20 542
21 251
22 251
23 342
24 342
25 479
26 479
27 216
28 216
29 100
30 100
31 341
32 341
33 379
34 379
35 258
36 258
37 211
38 211
39 358
40 358
41 68
42 68
43 291
44 291
45 432
46 432
47 396
48 396
49 500
50 500
51 350
52 350
53 541
54 541
55 130
56 130
57 114
58 114
59 247
60 247
61 369
62 369
63 57
64 57
65 234
66 234
67 271
68 271
69 375
70 375
71 223
72 223
73 100
74 100
75 534
76 534
77 461
78 461
79 277
80 277
81 0
82 0
83 0
84 0
85 0
86 0
DEPOT_SECTION
81 
-1 
CAPACITIES_SECTION
10000 
11000 
12000 
13000 
-1 
EOF