NAME: GFS_20_1
TYPE: GFSP
DIMENSION: 86
VEHICLES: 4
CAPACITY: 10000.0
TRIP_DIST_LIMIT: 750000.0
TOTAL_DIST_LIMIT: 1050000.0
EDGE_WEIGHT_TYPE: EXPLICIT
EDGE_WEIGHT_FORMAT: FULL_MATRIX
EDGE_WEIGHT_SECTION
0.0 8111.0 126862.0 132245.0 185330.0 186228.0 18123.0 13011.0 255067.0 249903.0 231704.0 227808.0 248256.0 246648.0 362649.0 354886.0 185326.0 193211.0 190323.0 191902.0 262959.0 255693.0 165912.0 169801.0 347738.0 339589.0 162102.0 162771.0 226022.0 217903.0 192526.0 201025.0 370377.0 372589.0 201607.0 206437.0 232425.0 224581.0 262179.0 258918.0 223793.0 219009.0 155687.0 156795.0 229710.0 234895.0 193841.0 187310.0 175075.0 171109.0 120434.0 123930.0 71331.0 70908.0 279729.0 276337.0 341256.0 346107.0 306955.0 303013.0 120296.0 126982.0 159522.0 155765.0 274649.0 271624.0 307791.0 315630.0 47928.0 40510.0 191952.0 183435.0 278191.0 282454.0 134271.0 134741.0 196457.0 193216.0 255101.0 258809.0 279075.0 260732.0 279075.0 279075.0 260732.0 260732.0
8111.0 0.0 124314.0 129340.0 184935.0 186182.0 12134.0 10896.0 261379.0 256321.0 235760.0 232075.0 246555.0 245202.0 369669.0 361884.0 187962.0 195804.0 190998.0 192905.0 261813.0 254451.0 169415.0 173622.0 353965.0 345794.0 160219.0 160491.0 224090.0 216042.0 195512.0 203976.0 376995.0 379109.0 201857.0 206420.0 229938.0 222170.0 261661.0 258174.0 228065.0 223274.0 157487.0 158181.0 234465.0 239818.0 198490.0 192115.0 179754.0 175526.0 120196.0 124151.0 73343.0 72035.0 279150.0 275540.0 347795.0 352566.0 312958.0 309147.0 117481.0 124486.0 161691.0 158295.0 273738.0 270513.0 313941.0 321753.0 55494.0 47852.0 193095.0 184552.0 277901.0 282358.0 132786.0 132782.0 198020.0 194484.0 259800.0 263687.0 279587.0 265317.0 279587.0 279587.0 265317.0 265317.0
126862.0 124314.0 0.0 7940.0 72395.0 77206.0 112937.0 114245.0 244178.0 242350.0 177072.0 177646.0 123330.0 122865.0 362073.0 354097.0 115335.0 120676.0 89824.0 95615.0 140571.0 132867.0 116348.0 124584.0 326384.0 318223.0 37591.0 36393.0 100378.0 92556.0 126627.0 132712.0 357670.0 357141.0 94227.0 95548.0 105629.0 97858.0 143987.0 139141.0 174381.0 170278.0 81391.0 75459.0 188501.0 196190.0 157451.0 155508.0 144108.0 136345.0 35929.0 43077.0 75592.0 69217.0 160709.0 155888.0 328265.0 330684.0 283271.0 282782.0 7946.0 867.0 89734.0 93366.0 153502.0 149332.0 287519.0 294057.0 133436.0 128083.0 97617.0 90374.0 161384.0 167127.0 19238.0 12764.0 107353.0 100422.0 209248.0 215961.0 169876.0 212006.0 169876.0 169876.0 212006.0 212006.0
132245.0 129340.0 7940.0 0.0 73310.0 78769.0 117761.0 119491.0 250983.0 249272.0 182341.0 183173.0 119919.0 119937.0 368861.0 360895.0 120477.0 125509.0 92414.0 98622.0 138008.0 130212.0 122757.0 131064.0 332523.0 324349.0 35906.0 33041.0 96724.0 89138.0 131847.0 137650.0 364036.0 363401.0 95608.0 96258.0 100862.0 93258.0 142513.0 137320.0 179984.0 175962.0 87130.0 80812.0 194405.0 202154.0 163890.0 162164.0 150927.0 143112.0 43350.0 50243.0 83128.0 76581.0 158924.0 153780.0 334697.0 337016.0 289423.0 289080.0 12001.0 8532.0 95544.0 99574.0 151223.0 146748.0 293797.0 300257.0 140521.0 134995.0 100819.0 93938.0 160085.0 166089.0 24197.0 16450.0 110923.0 103738.0 214740.0 221565.0 169977.0 217317.0 169977.0 169977.0 217317.0 217317.0
185330.0 184935.0 72395.0 73310.0 0.0 8076.0 175051.0 174113.0 211156.0 211458.0 127091.0 130416.0 71314.0 66850.0 325895.0 318207.0 70180.0 71201.0 25396.0 33373.0 79936.0 73562.0 88137.0 95938.0 282191.0 274024.0 39985.0 47032.0 55853.0 48486.0 80572.0 82776.0 315403.0 313580.0 22633.0 23178.0 71128.0 64004.0 76872.0 74030.0 128214.0 125335.0 54368.0 46644.0 145097.0 153110.0 123829.0 125569.0 118341.0 110693.0 64906.0 62188.0 118024.0 115767.0 94463.0 91512.0 287347.0 288368.0 239579.0 240976.0 80194.0 71708.0 60099.0 68124.0 90224.0 88209.0 245343.0 250733.0 175867.0 173251.0 36609.0 34458.0 92975.0 97654.0 55825.0 59831.0 47830.0 39869.0 160129.0 167800.0 97835.0 160920.0 97835.0 97835.0 160920.0 160920.0
186228.0 186182.0 77206.0 78769.0 8076.0 0.0 176618.0 175315.0 203380.0 203764.0 119017.0 122367.0 75412.0 70294.0 317931.0 310253.0 62459.0 63254.0 17331.0 25299.0 81908.0 76036.0 81373.0 89005.0 274125.0 265957.0 46790.0 54169.0 61711.0 54754.0 72705.0 74760.0 307342.0 305513.0 17065.0 20240.0 77586.0 70733.0 76810.0 74785.0 120185.0 117337.0 49053.0 41770.0 137103.0 145113.0 116296.0 118236.0 111342.0 103786.0 66009.0 62387.0 117734.0 116016.0 94450.0 92178.0 279308.0 280312.0 231519.0 232939.0 84851.0 76475.0 54093.0 62236.0 91250.0 89878.0 237299.0 242674.0 174672.0 172418.0 28533.0 26678.0 92111.0 96226.0 59714.0 64484.0 39756.0 31793.0 152054.0 159725.0 94554.0 152851.0 94554.0 94554.0 152851.0 152851.0
18123.0 12134.0 112937.0 117761.0 175051.0 176618.0 0.0 8118.0 261140.0 256346.0 231239.0 227905.0 235586.0 234412.0 371164.0 363320.0 181461.0 189225.0 182143.0 184399.0 251231.0 243803.0 164209.0 168890.0 353423.0 345210.0 149204.0 149223.0 212984.0 204987.0 189474.0 197868.0 377384.0 379251.0 192552.0 196852.0 218501.0 210778.0 251585.0 247911.0 223912.0 219119.0 150003.0 150197.0 231124.0 236767.0 195047.0 188966.0 176422.0 171755.0 110629.0 115021.0 66812.0 64390.0 269010.0 265222.0 348007.0 352576.0 311953.0 308438.0 105967.0 113140.0 154657.0 151746.0 263331.0 259954.0 313261.0 321004.0 60045.0 51925.0 184744.0 176189.0 268011.0 272639.0 122106.0 121761.0 190141.0 186270.0 256317.0 260513.0 270462.0 261626.0 270462.0 270462.0 261626.0 261626.0
13011.0 10896.0 114245.0 119491.0 174113.0 175315.0 8118.0 0.0 254031.0 249151.0 226010.0 222481.0 236108.0 234659.0 363578.0 355748.0 177470.0 185292.0 180104.0 182029.0 251173.0 243840.0 159357.0 163758.0 346432.0 338233.0 149831.0 150290.0 213737.0 205657.0 185166.0 193609.0 370097.0 372040.0 190969.0 195552.0 219862.0 212051.0 250868.0 247428.0 218478.0 213684.0 146746.0 147356.0 225273.0 230777.0 189233.0 183005.0 170544.0 166096.0 109341.0 113259.0 62750.0 61216.0 268370.0 264808.0 340770.0 345403.0 305120.0 301498.0 107569.0 114388.0 151049.0 147778.0 263034.0 259864.0 306312.0 314080.0 51929.0 43817.0 182233.0 173687.0 267071.0 271502.0 122232.0 122418.0 187219.0 183636.0 250543.0 254588.0 268692.0 255959.0 268692.0 268692.0 255959.0 255959.0
255067.0 261379.0 244178.0 250983.0 211156.0 203380.0 261140.0 254031.0 0.0 7469.0 93172.0 86621.0 265036.0 257375.0 117896.0 109920.0 140984.0 140481.0 187124.0 179416.0 257176.0 256185.0 128969.0 120502.0 92764.0 84692.0 238390.0 246431.0 260650.0 255413.0 130757.0 129949.0 117085.0 118355.0 198634.0 206120.0 277849.0 272132.0 239138.0 243976.0 87180.0 88508.0 166435.0 174155.0 69817.0 62710.0 88498.0 89026.0 100071.0 107872.0 208713.0 201217.0 204904.0 211784.0 249695.0 254203.0 87382.0 91543.0 54303.0 48806.0 247436.0 243351.0 158134.0 152492.0 256564.0 260661.0 53379.0 61356.0 209604.0 215606.0 176070.0 176717.0 240577.0 237927.0 227473.0 235455.0 165870.0 173094.0 70330.0 63927.0 224357.0 75676.0 224357.0 224357.0 75676.0 75676.0
249903.0 256321.0 242350.0 249272.0 211458.0 203764.0 256346.0 249151.0 7469.0 0.0 96065.0 89183.0 266770.0 259182.0 120080.0 112068.0 141305.0 141220.0 187750.0 180135.0 259511.0 258303.0 127913.0 119432.0 98389.0 90427.0 237701.0 245695.0 261746.0 256326.0 131375.0 131050.0 121241.0 122907.0 199627.0 207229.0 278877.0 273008.0 241751.0 246401.0 89421.0 90373.0 165540.0 173378.0 72334.0 65648.0 88054.0 87918.0 98424.0 106330.0 206719.0 199309.0 201089.0 208095.0 252702.0 257020.0 91704.0 96258.0 61064.0 55163.0 245393.0 241532.0 157323.0 151402.0 259284.0 263212.0 59599.0 67585.0 204104.0 210243.0 176801.0 177087.0 243592.0 240959.0 225949.0 233915.0 166817.0 173885.0 75135.0 69134.0 227389.0 80817.0 227389.0 227389.0 80817.0 80817.0
231704.0 235760.0 177072.0 182341.0 127091.0 119017.0 231239.0 226010.0 93172.0 96065.0 0.0 8000.0 173276.0 165447.0 200905.0 193464.0 61892.0 57607.0 101758.0 93759.0 164241.0 163574.0 67811.0 62381.0 155182.0 147014.0 160889.0 169027.0 171191.0 166848.0 50495.0 45338.0 188473.0 186570.0 110632.0 117336.0 188532.0 183563.0 145992.0 150957.0 10588.0 14329.0 96005.0 101617.0 23979.0 30473.0 41911.0 49787.0 59318.0 61330.0 145769.0 137969.0 165291.0 169662.0 156639.0 161042.0 160844.0 161520.0 112702.0 114626.0 182408.0 176205.0 87949.0 86268.0 163392.0 167538.0 118816.0 123867.0 196200.0 199128.0 90490.0 93725.0 147536.0 144895.0 158210.0 165900.0 79332.0 87243.0 33140.0 40714.0 131325.0 34986.0 131325.0 131325.0 34986.0 34986.0
227808.0 232075.0 177646.0 183173.0 130416.0 122367.0 227905.0 222481.0 86621.0 89183.0 8000.0 0.0 178929.0 171169.0 196280.0 188744.0 63244.0 59852.0 105246.0 97264.0 170558.0 169652.0 65753.0 59585.0 151909.0 143742.0 163058.0 171219.0 176043.0 171436.0 51806.0 47794.0 185021.0 183289.0 114893.0 121857.0 193368.0 188182.0 152590.0 157358.0 4016.0 8801.0 96287.0 102367.0 16851.0 24092.0 35838.0 43570.0 53959.0 56800.0 145505.0 137670.0 162412.0 167085.0 163618.0 167844.0 156959.0 157964.0 109203.0 110605.0 182716.0 176780.0 88037.0 85626.0 170102.0 174081.0 114938.0 120347.0 191302.0 194482.0 93948.0 96551.0 154622.0 151979.0 158985.0 166772.0 82960.0 90747.0 31610.0 38453.0 138409.0 35028.0 138409.0 138409.0 35028.0 35028.0
248256.0 246555.0 123330.0 119919.0 71314.0 75412.0 235586.0 236108.0 265036.0 266770.0 173276.0 178929.0 0.0 8072.0 373322.0 366074.0 130149.0 127769.0 85338.0 91250.0 23189.0 16390.0 153864.0 160650.0 325797.0 317630.0 86385.0 87043.0 23386.0 30795.0 137787.0 136379.0 359125.0 357185.0 70691.0 62504.0 28947.0 32100.0 40193.0 32154.0 177981.0 176533.0 124373.0 117182.0 195473.0 203013.0 183247.0 186847.0 182191.0 175230.0 130932.0 130243.0 185544.0 182026.0 48726.0 41009.0 332141.0 332350.0 283683.0 286361.0 130869.0 123007.0 128806.0 137004.0 37128.0 30433.0 290320.0 294806.0 244705.0 241347.0 94212.0 97578.0 55234.0 63189.0 114012.0 113825.0 102081.0 96424.0 203554.0 211547.0 83749.0 203425.0 83749.0 83749.0 203425.0 203425.0
246648.0 245202.0 122865.0 119937.0 66850.0 70294.0 234412.0 234659.0 257375.0 259182.0 165447.0 171169.0 8072.0 0.0 365365.0 358131.0 123282.0 120660.0 79141.0 84728.0 18996.0 11157.0 147473.0 154096.0 317843.0 309676.0 85491.0 86903.0 25370.0 31382.0 130654.0 129023.0 351171.0 349231.0 64276.0 56101.0 34833.0 36536.0 33313.0 25339.0 170272.0 168890.0 118956.0 111982.0 187751.0 195258.0 176086.0 179834.0 175458.0 168601.0 128253.0 127110.0 182741.0 179527.0 43794.0 36630.0 324187.0 324396.0 275729.0 278390.0 130548.0 122490.0 123045.0 131237.0 33135.0 27357.0 282366.0 286852.0 241595.0 238471.0 87604.0 91381.0 49326.0 57165.0 112427.0 112803.0 95094.0 89693.0 195601.0 203592.0 76242.0 195471.0 76242.0 76242.0 195471.0 195471.0
362649.0 369669.0 362073.0 368861.0 325895.0 317931.0 371164.0 363578.0 117896.0 120080.0 200905.0 196280.0 373322.0 365365.0 0.0 8018.0 256313.0 254696.0 301080.0 293158.0 362724.0 362640.0 246581.0 238146.0 63039.0 66179.0 355295.0 363398.0 372095.0 367674.0 245467.0 243253.0 34804.0 42765.0 311171.0 318108.0 389436.0 384409.0 343852.0 349283.0 198061.0 200651.0 283800.0 291353.0 180886.0 172904.0 205708.0 206776.0 217965.0 225751.0 326592.0 319110.0 319759.0 327017.0 353699.0 358349.0 44180.0 47731.0 90958.0 87037.0 365307.0 361246.0 275423.0 270082.0 360918.0 365456.0 83440.0 80486.0 315202.0 322198.0 289814.0 291541.0 344580.0 341929.0 345291.0 353277.0 279026.0 286675.0 169769.0 161775.0 328359.0 171494.0 328359.0 328359.0 171494.0 171494.0
354886.0 361884.0 354097.0 360895.0 318207.0 310253.0 363320.0 355748.0 109920.0 112068.0 193464.0 188744.0 366074.0 358131.0 8018.0 0.0 248558.0 247007.0 293433.0 285522.0 355500.0 355281.0 238654.0 230215.0 59066.0 61365.0 347448.0 355546.0 364645.0 360169.0 237744.0 235607.0 35142.0 42934.0 303619.0 310594.0 381984.0 376909.0 336628.0 342059.0 190475.0 193013.0 275903.0 283472.0 173255.0 165286.0 197809.0 198830.0 209991.0 217783.0 318604.0 311126.0 311768.0 319020.0 346475.0 351125.0 38769.0 43234.0 84264.0 79988.0 357316.0 353271.0 267531.0 262160.0 353694.0 358232.0 76554.0 74023.0 307483.0 314449.0 282175.0 283835.0 337356.0 334705.0 337340.0 345326.0 271417.0 279045.0 162536.0 154548.0 321135.0 164411.0 321135.0 321135.0 164411.0 164411.0
185326.0 187962.0 115335.0 120477.0 70180.0 62459.0 181461.0 177470.0 140984.0 141305.0 61892.0 63244.0 130149.0 123282.0 256313.0 248558.0 0.0 7938.0 46780.0 39567.0 128371.0 125072.0 27900.0 32207.0 214629.0 206462.0 100037.0 108204.0 121732.0 115738.0 11448.0 17782.0 247377.0 245990.0 59948.0 68003.0 138531.0 132259.0 114847.0 116927.0 60376.0 56816.0 35202.0 39936.0 76265.0 84270.0 54119.0 56887.0 52319.0 45894.0 85360.0 77731.0 114751.0 117337.0 130180.0 131631.0 218769.0 220256.0 171743.0 172458.0 120894.0 114468.0 28052.0 29715.0 132540.0 134249.0 176975.0 182815.0 158375.0 159122.0 36352.0 35783.0 123525.0 123722.0 96378.0 104030.0 28320.0 33833.0 94573.0 101673.0 112043.0 96878.0 112043.0 112043.0 96878.0 96878.0
193211.0 195804.0 120676.0 125509.0 71201.0 63254.0 189225.0 185292.0 140481.0 141220.0 57607.0 59852.0 127769.0 120660.0 254696.0 247007.0 7938.0 0.0 46665.0 38938.0 124669.0 121786.0 34638.0 37802.0 211725.0 203558.0 103328.0 111478.0 120722.0 115126.0 10039.0 12281.0 244737.0 243113.0 58575.0 66386.0 137752.0 131792.0 110298.0 112829.0 57344.0 54230.0 41863.0 45753.0 73960.0 81982.0 55495.0 59248.0 56264.0 50515.0 91768.0 84250.0 122557.0 125036.0 125150.0 126997.0 216412.0 217646.0 168958.0 170041.0 126498.0 119811.0 35255.0 37514.0 128113.0 130191.0 174474.0 180081.0 166263.0 167044.0 35595.0 36902.0 118140.0 117962.0 101567.0 109069.0 25859.0 32666.0 90654.0 98001.0 105770.0 92464.0 105770.0 105770.0 92464.0 92464.0
190323.0 190998.0 89824.0 92414.0 25396.0 17331.0 182143.0 180104.0 187124.0 187750.0 101758.0 105246.0 85338.0 79141.0 301080.0 293433.0 46780.0 46665.0 0.0 7999.0 87568.0 82855.0 68579.0 75596.0 256905.0 248738.0 62794.0 70506.0 75091.0 68963.0 56387.0 57827.0 290151.0 288294.0 15109.0 23127.0 91778.0 85483.0 78475.0 78220.0 103153.0 100430.0 41838.0 36545.0 120197.0 128189.0 100899.0 103427.0 97539.0 90305.0 72405.0 67199.0 120008.0 119440.0 95694.0 94904.0 262205.0 263139.0 214333.0 215848.0 97095.0 89034.0 44464.0 52563.0 94745.0 94721.0 220181.0 225493.0 174405.0 172953.0 11298.0 12245.0 91591.0 94375.0 71235.0 77095.0 22444.0 14519.0 134764.0 142455.0 88814.0 135524.0 88814.0 88814.0 135524.0 135524.0
191902.0 192905.0 95615.0 98622.0 33373.0 25299.0 184399.0 182029.0 179416.0 180135.0 93759.0 97264.0 91250.0 84728.0 293158.0 285522.0 39567.0 38938.0 7999.0 0.0 91891.0 87668.0 62771.0 69402.0 248907.0 240740.0 70108.0 77931.0 82177.0 76311.0 48769.0 49919.0 282155.0 280295.0 20587.0 28758.0 99042.0 92925.0 81287.0 81770.0 95194.0 92510.0 39790.0 35896.0 112272.0 120258.0 93617.0 96417.0 91032.0 83989.0 75787.0 70002.0 121058.0 121017.0 98112.0 97963.0 254222.0 255145.0 206338.0 207869.0 102686.0 94804.0 40935.0 48744.0 98127.0 98652.0 212196.0 217498.0 174023.0 172946.0 3353.0 8819.0 93274.0 95418.0 76730.0 82972.0 14457.0 6522.0 126769.0 134458.0 88170.0 127556.0 88170.0 88170.0 127556.0 127556.0
262959.0 261813.0 140571.0 138008.0 79936.0 81908.0 251231.0 251173.0 257176.0 259511.0 164241.0 170558.0 23189.0 18996.0 362724.0 355500.0 128371.0 124669.0 87568.0 91891.0 0.0 7927.0 154173.0 160136.0 315206.0 307039.0 103015.0 104983.0 44359.0 50205.0 134417.0 131612.0 348535.0 346595.0 72475.0 64713.0 52132.0 54954.0 20418.0 13538.0 170102.0 169242.0 128946.0 122612.0 187364.0 194553.0 179301.0 183752.0 180629.0 174238.0 143503.0 141689.0 197570.0 194815.0 25547.0 17873.0 321550.0 321759.0 273093.0 275808.0 148345.0 140155.0 132032.0 140113.0 14177.0 8764.0 279730.0 284216.0 255783.0 253047.0 94372.0 99517.0 32612.0 40607.0 129129.0 130065.0 100117.0 95932.0 192965.0 200956.0 64505.0 192835.0 64505.0 64505.0 192835.0 192835.0
255693.0 254451.0 132867.0 130212.0 73562.0 76036.0 243803.0 243840.0 256185.0 258303.0 163574.0 169652.0 16390.0 11157.0 362640.0 355281.0 125072.0 121786.0 82855.0 87668.0 7927.0 0.0 150300.0 156529.0 315123.0 306955.0 95343.0 97178.0 36518.0 42278.0 131657.0 129316.0 348451.0 346511.0 67755.0 59779.0 45155.0 47480.0 24167.0 16208.0 169011.0 167935.0 123789.0 117209.0 186388.0 193718.0 176840.0 181015.0 177391.0 170809.0 136537.0 134941.0 190773.0 187864.0 32767.0 25480.0 321467.0 321676.0 273009.0 275725.0 140620.0 132462.0 127251.0 135389.0 21991.0 16558.0 279646.0 284132.0 249227.0 246356.0 90310.0 94962.0 38864.0 46807.0 121702.0 122477.0 96752.0 92079.0 192881.0 200872.0 68264.0 192751.0 68264.0 68264.0 192751.0 192751.0
165912.0 169415.0 116348.0 122757.0 88137.0 81373.0 164209.0 159357.0 128969.0 127913.0 67811.0 65753.0 153864.0 147473.0 246581.0 238654.0 27900.0 34638.0 68579.0 62771.0 154173.0 150300.0 0.0 8481.0 210242.0 202070.0 109970.0 117896.0 142879.0 136113.0 29199.0 37434.0 241323.0 240822.0 83211.0 91398.0 158958.0 152057.0 141716.0 143289.0 61952.0 57316.0 37692.0 45686.0 73517.0 80826.0 41133.0 40000.0 30592.0 22714.0 82021.0 74228.0 97786.0 101912.0 157462.0 158537.0 211945.0 214338.0 167097.0 166450.0 120421.0 115499.0 29672.0 23523.0 159223.0 160491.0 171197.0 177808.0 134776.0 136386.0 60010.0 56388.0 151086.0 151489.0 98891.0 106881.0 54539.0 58256.0 96579.0 102370.0 139943.0 100704.0 139943.0 139943.0 100704.0 100704.0
169801.0 173622.0 124584.0 131064.0 95938.0 89005.0 168890.0 163758.0 120502.0 119432.0 62381.0 59585.0 160650.0 154096.0 238146.0 230215.0 32207.0 37802.0 75596.0 69402.0 160136.0 156529.0 8481.0 0.0 202224.0 194044.0 118426.0 126362.0 150296.0 143668.0 30445.0 37861.0 233102.0 232675.0 89963.0 98148.0 166537.0 159737.0 147009.0 148933.0 55678.0 50943.0 46157.0 54119.0 66180.0 73293.0 32875.0 31520.0 22435.0 14785.0 90013.0 82255.0 102946.0 107505.0 162385.0 163805.0 203681.0 206144.0 159071.0 158293.0 128531.0 123738.0 38080.0 31994.0 164661.0 166216.0 163055.0 169730.0 136792.0 138882.0 66492.0 63518.0 155667.0 155692.0 107254.0 115245.0 60071.0 64496.0 89830.0 95329.0 143565.0 94275.0 143565.0 143565.0 94275.0 94275.0
347738.0 353965.0 326384.0 332523.0 282191.0 274125.0 353423.0 346432.0 92764.0 98389.0 155182.0 151909.0 325797.0 317843.0 63039.0 59066.0 214629.0 211725.0 256905.0 248907.0 315206.0 315123.0 210242.0 202224.0 0.0 8282.0 314666.0 322833.0 325182.0 321333.0 203308.0 199703.0 36574.0 32798.0 265625.0 272073.0 342581.0 337949.0 296335.0 301765.0 154408.0 157814.0 245552.0 252427.0 138527.0 130612.0 169490.0 172679.0 185129.0 192171.0 292227.0 284450.0 295263.0 301753.0 306182.0 310831.0 22567.0 16121.0 43162.0 45141.0 330633.0 325527.0 237097.0 233024.0 313401.0 317939.0 40278.0 32831.0 302363.0 308365.0 245622.0 248458.0 297062.0 294411.0 308411.0 316349.0 234499.0 242386.0 122474.0 114611.0 280842.0 124149.0 280842.0 280842.0 124149.0 124149.0
339589.0 345794.0 318223.0 324349.0 274024.0 265957.0 345210.0 338233.0 84692.0 90427.0 147014.0 143742.0 317630.0 309676.0 66179.0 61365.0 206462.0 203558.0 248738.0 240740.0 307039.0 306955.0 202070.0 194044.0 8282.0 0.0 306498.0 314665.0 317014.0 313166.0 195140.0 191536.0 42924.0 40042.0 257458.0 263906.0 334414.0 329782.0 288167.0 293598.0 146241.0 149646.0 237365.0 244215.0 130359.0 122445.0 161291.0 164437.0 176874.0 183932.0 284053.0 276282.0 286984.0 293472.0 298014.0 302664.0 22884.0 18508.0 34974.0 36872.0 322483.0 317366.0 228911.0 224856.0 305233.0 309772.0 32013.0 24552.0 294295.0 300263.0 237455.0 240291.0 288895.0 286244.0 300234.0 308170.0 226332.0 234219.0 114307.0 106444.0 272674.0 115982.0 272674.0 272674.0 115982.0 115982.0
162102.0 160219.0 37591.0 35906.0 39985.0 46790.0 149204.0 149831.0 238390.0 237701.0 160889.0 163058.0 86385.0 85491.0 355295.0 347448.0 100037.0 103328.0 62794.0 70108.0 103015.0 95343.0 109970.0 118426.0 314666.0 306498.0 0.0 8167.0 63920.0 55827.0 111374.0 115565.0 347363.0 346025.0 62600.0 61940.0 71604.0 63533.0 106673.0 101640.0 160341.0 156852.0 72282.0 64336.0 176254.0 184240.0 149895.0 149848.0 140268.0 132272.0 49815.0 52325.0 102900.0 98211.0 123230.0 118312.0 318623.0 320239.0 271776.0 272380.0 45435.0 37153.0 80395.0 86726.0 115911.0 111778.0 276932.0 282840.0 162524.0 158238.0 72889.0 67722.0 124204.0 130183.0 28607.0 27444.0 83926.0 76095.0 193976.0 201322.0 134550.0 195588.0 134550.0 134550.0 195588.0 195588.0
162771.0 160491.0 36393.0 33041.0 47032.0 54169.0 149223.0 150290.0 246431.0 245695.0 169027.0 171219.0 87043.0 86903.0 363398.0 355546.0 108204.0 111478.0 70506.0 77931.0 104983.0 97178.0 117896.0 126362.0 322833.0 314665.0 8167.0 0.0 64001.0 56248.0 119540.0 123709.0 355526.0 354192.0 69503.0 68249.0 69756.0 61842.0 110089.0 104623.0 168507.0 165019.0 80205.0 72317.0 184419.0 192404.0 157943.0 157815.0 148120.0 140122.0 54506.0 57879.0 106099.0 100936.0 126218.0 120893.0 326778.0 328402.0 279942.0 280540.0 43832.0 36129.0 88372.0 94582.0 118267.0 113718.0 285094.0 291006.0 165527.0 160912.0 80767.0 75766.0 127786.0 134054.0 31768.0 28523.0 91858.0 83990.0 202120.0 209475.0 139846.0 203707.0 139846.0 139846.0 203707.0 203707.0
226022.0 224090.0 100378.0 96724.0 55853.0 61711.0 212984.0 213737.0 260650.0 261746.0 171191.0 176043.0 23386.0 25370.0 372095.0 364645.0 121732.0 120722.0 75091.0 82177.0 44359.0 36518.0 142879.0 150296.0 325182.0 317014.0 63920.0 64001.0 0.0 8322.0 130703.0 130725.0 358510.0 356570.0 62156.0 54532.0 17342.0 13869.0 56489.0 49012.0 174592.0 172557.0 110218.0 102472.0 192057.0 199867.0 175789.0 178507.0 172460.0 165071.0 110358.0 110439.0 164901.0 160948.0 68903.0 61955.0 331585.0 331771.0 283145.0 285618.0 107819.0 100089.0 115737.0 123837.0 58504.0 52582.0 289674.0 294266.0 224395.0 220675.0 85432.0 86879.0 73610.0 81202.0 92070.0 91320.0 94961.0 88156.0 202911.0 210872.0 96105.0 202888.0 96105.0 96105.0 202888.0 202888.0
217903.0 216042.0 92556.0 89138.0 48486.0 54754.0 204987.0 205657.0 255413.0 256326.0 166848.0 171436.0 30795.0 31382.0 367674.0 360169.0 115738.0 115126.0 68963.0 76311.0 50205.0 42278.0 136113.0 143668.0 321333.0 313166.0 55827.0 56248.0 8322.0 0.0 125041.0 125481.0 354622.0 352721.0 56800.0 49580.0 22878.0 16755.0 60108.0 53097.0 169837.0 167632.0 102805.0 94963.0 187240.0 195111.0 169855.0 172328.0 165933.0 158453.0 102036.0 102136.0 156582.0 152648.0 73830.0 67344.0 327534.0 327887.0 279170.0 281435.0 100077.0 92243.0 108555.0 116604.0 64153.0 58717.0 285558.0 290313.0 216073.0 212359.0 79617.0 80487.0 77671.0 84998.0 83856.0 83260.0 89546.0 82464.0 198919.0 206850.0 97414.0 198964.0 97414.0 97414.0 198964.0 198964.0
192526.0 195512.0 126627.0 131847.0 80572.0 72705.0 189474.0 185166.0 130757.0 131375.0 50495.0 51806.0 137787.0 130654.0 245467.0 237744.0 11448.0 10039.0 56387.0 48769.0 134417.0 131657.0 29199.0 30445.0 203308.0 195140.0 111374.0 119540.0 130703.0 125041.0 0.0 8532.0 236133.0 234682.0 68571.0 76410.0 147703.0 141684.0 119698.0 122440.0 48980.0 45509.0 45970.0 51174.0 65069.0 73088.0 45465.0 49363.0 47070.0 41868.0 96108.0 88403.0 122662.0 125751.0 134238.0 136331.0 207612.0 209018.0 160449.0 161273.0 132086.0 125759.0 38317.0 38440.0 137556.0 139802.0 165763.0 171537.0 163424.0 164685.0 45442.0 46128.0 126975.0 126467.0 107723.0 115404.0 35893.0 42583.0 83126.0 90228.0 113808.0 85477.0 113808.0 113808.0 85477.0 85477.0
201025.0 203976.0 132712.0 137650.0 82776.0 74760.0 197868.0 193609.0 129949.0 131050.0 45338.0 47794.0 136379.0 129023.0 243253.0 235607.0 17782.0 12281.0 57827.0 49919.0 131612.0 129316.0 37434.0 37861.0 199703.0 191536.0 115565.0 123709.0 130725.0 125481.0 8532.0 0.0 232794.0 231082.0 68689.0 76194.0 147903.0 142214.0 116031.0 119261.0 45452.0 42604.0 52984.0 57507.0 62372.0 70371.0 47737.0 52714.0 52282.0 47949.0 103135.0 95512.0 131059.0 134046.0 129940.0 132478.0 204597.0 205721.0 156985.0 158223.0 138421.0 131847.0 45729.0 46531.0 133932.0 136580.0 162615.0 168122.0 171894.0 173195.0 46570.0 48759.0 122296.0 121341.0 113652.0 121203.0 35985.0 43459.0 78411.0 85801.0 108260.0 80183.0 108260.0 108260.0 80183.0 80183.0
370377.0 376995.0 357670.0 364036.0 315403.0 307342.0 377384.0 370097.0 117085.0 121241.0 188473.0 185021.0 359125.0 351171.0 34804.0 35142.0 247377.0 244737.0 290151.0 282155.0 348535.0 348451.0 241323.0 233102.0 36574.0 42924.0 347363.0 355526.0 358510.0 354622.0 236133.0 232794.0 0.0 7961.0 298954.0 305394.0 375909.0 371221.0 329663.0 335094.0 187394.0 190634.0 277444.0 284547.0 171117.0 163124.0 200227.0 202601.0 214654.0 222055.0 322942.0 315249.0 321983.0 328830.0 339510.0 344160.0 29764.0 27124.0 75824.0 75065.0 361582.0 356821.0 268983.0 264475.0 346729.0 351267.0 70449.0 64675.0 323832.0 330333.0 278861.0 281549.0 330391.0 327740.0 340046.0 348018.0 267763.0 275633.0 155801.0 147938.0 314170.0 157477.0 314170.0 314170.0 157477.0 157477.0
372589.0 379109.0 357141.0 363401.0 313580.0 305513.0 379251.0 372040.0 118355.0 122907.0 186570.0 183289.0 357185.0 349231.0 42765.0 42934.0 245990.0 243113.0 288294.0 280295.0 346595.0 346511.0 240822.0 232675.0 32798.0 40042.0 346025.0 354192.0 356570.0 352721.0 234682.0 231082.0 7961.0 0.0 297014.0 303461.0 373969.0 369337.0 327723.0 333154.0 185796.0 189179.0 276595.0 283577.0 169818.0 161868.0 199815.0 202486.0 214693.0 221979.0 322639.0 314910.0 323027.0 329770.0 337570.0 342220.0 31355.0 26905.0 74256.0 74383.0 361205.0 356289.0 268134.0 263831.0 344789.0 349327.0 69625.0 63242.0 326304.0 332687.0 277010.0 279832.0 328451.0 325800.0 339346.0 347304.0 265887.0 273774.0 153863.0 145999.0 312230.0 155537.0 312230.0 312230.0 155537.0 155537.0
201607.0 201857.0 94227.0 95608.0 22633.0 17065.0 192552.0 190969.0 198634.0 199627.0 110632.0 114893.0 70691.0 64276.0 311171.0 303619.0 59948.0 58575.0 15109.0 20587.0 72475.0 67755.0 83211.0 89963.0 265625.0 257458.0 62600.0 69503.0 62156.0 56800.0 68571.0 68689.0 298954.0 297014.0 0.0 8189.0 79250.0 73542.0 64009.0 63352.0 113173.0 110874.0 56672.0 50868.0 130524.0 138425.0 113800.0 116834.0 111617.0 104570.0 81982.0 77719.0 132150.0 130985.0 81424.0 80232.0 271476.0 272075.0 223274.0 225240.0 101896.0 93502.0 59566.0 67671.0 79916.0 79698.0 229448.0 234435.0 187772.0 185991.0 23651.0 27229.0 77938.0 81327.0 76770.0 81521.0 32813.0 26140.0 143163.0 151016.0 78028.0 143376.0 78028.0 78028.0 143376.0 143376.0
206437.0 206420.0 95548.0 96258.0 23178.0 20240.0 196852.0 195552.0 206120.0 207229.0 117336.0 121857.0 62504.0 56101.0 318108.0 310594.0 68003.0 66386.0 23127.0 28758.0 64713.0 59779.0 91398.0 98148.0 272073.0 263906.0 61940.0 68249.0 54532.0 49580.0 76410.0 76194.0 305394.0 303461.0 8189.0 0.0 71745.0 66329.0 57331.0 56105.0 120267.0 118114.0 64242.0 58093.0 137687.0 145543.0 121735.0 124879.0 119773.0 112747.0 86250.0 82547.0 137652.0 136119.0 74901.0 73226.0 278116.0 278582.0 229817.0 231956.0 103361.0 94867.0 67472.0 75611.0 72686.0 72127.0 236112.0 240970.0 194005.0 191993.0 31780.0 35329.0 72083.0 76025.0 78919.0 83006.0 40542.0 34170.0 149605.0 157503.0 74759.0 149722.0 74759.0 74759.0 149722.0 149722.0
232425.0 229938.0 105629.0 100862.0 71128.0 77586.0 218501.0 219862.0 277849.0 278877.0 188532.0 193368.0 28947.0 34833.0 389436.0 381984.0 138531.0 137752.0 91778.0 99042.0 52132.0 45155.0 158958.0 166537.0 342581.0 334414.0 71604.0 69756.0 17342.0 22878.0 147703.0 147903.0 375909.0 373969.0 79250.0 71745.0 0.0 8114.0 68115.0 60166.0 191897.0 189831.0 125282.0 117342.0 209354.0 217175.0 192639.0 195178.0 188809.0 181322.0 120411.0 121425.0 174362.0 169810.0 77672.0 69918.0 348912.0 349080.0 300467.0 302956.0 112547.0 105475.0 131225.0 139230.0 65974.0 59056.0 307008.0 311585.0 234010.0 229826.0 102329.0 103357.0 83978.0 91881.0 100209.0 98168.0 112060.0 105123.0 220238.0 228202.0 110171.0 220209.0 110171.0 110171.0 220209.0 220209.0
224581.0 222170.0 97858.0 93258.0 64004.0 70733.0 210778.0 212051.0 272132.0 273008.0 183563.0 188182.0 32100.0 36536.0 384409.0 376909.0 132259.0 131792.0 85483.0 92925.0 54954.0 47480.0 152057.0 159737.0 337949.0 329782.0 63533.0 61842.0 13869.0 16755.0 141684.0 142214.0 371221.0 369337.0 73542.0 66329.0 8114.0 0.0 69153.0 61416.0 186591.0 184386.0 117920.0 109921.0 203996.0 211865.0 186375.0 188715.0 182071.0 174517.0 112298.0 113335.0 166258.0 161727.0 80247.0 72822.0 344204.0 344515.0 295820.0 298130.0 104866.0 97684.0 124034.0 131986.0 69071.0 62522.0 302240.0 306957.0 225906.0 221739.0 96244.0 96835.0 85778.0 93542.0 92140.0 90195.0 106263.0 99126.0 215565.0 223504.0 109736.0 215591.0 109736.0 109736.0 215591.0 215591.0
262179.0 261661.0 143987.0 142513.0 76872.0 76810.0 251585.0 250868.0 239138.0 241751.0 145992.0 152590.0 40193.0 33313.0 343852.0 336628.0 114847.0 110298.0 78475.0 81287.0 20418.0 24167.0 141716.0 147009.0 296335.0 288167.0 106673.0 110089.0 56489.0 60108.0 119698.0 116031.0 329663.0 327723.0 64009.0 57331.0 68115.0 69153.0 0.0 8039.0 152381.0 151828.0 120290.0 114838.0 169440.0 176430.0 163717.0 168661.0 166562.0 160619.0 141774.0 138886.0 194501.0 192544.0 17643.0 16822.0 302679.0 302888.0 254221.0 256937.0 151913.0 143468.0 122206.0 130025.0 17902.0 21604.0 260858.0 265344.0 251309.0 249196.0 83276.0 89629.0 17818.0 24893.0 130370.0 132527.0 87178.0 84264.0 174093.0 182084.0 44275.0 173963.0 44275.0 44275.0 173963.0 173963.0
258918.0 258174.0 139141.0 137320.0 74030.0 74785.0 247911.0 247428.0 243976.0 246401.0 150957.0 157358.0 32154.0 25339.0 349283.0 342059.0 116927.0 112829.0 78220.0 81770.0 13538.0 16208.0 143289.0 148933.0 301765.0 293598.0 101640.0 104623.0 49012.0 53097.0 122440.0 119261.0 335094.0 333154.0 63352.0 56105.0 60166.0 61416.0 8039.0 0.0 156979.0 156222.0 120006.0 114144.0 174184.0 181315.0 166996.0 171663.0 169002.0 162815.0 138707.0 136217.0 192032.0 189769.0 21604.0 17482.0 308109.0 308318.0 259652.0 262367.0 147035.0 138654.0 122463.0 130423.0 16582.0 17363.0 266289.0 270775.0 249445.0 247084.0 84011.0 89807.0 24629.0 32199.0 126212.0 127964.0 88874.0 85291.0 179524.0 187515.0 52073.0 179394.0 52073.0 52073.0 179394.0 179394.0
223793.0 228065.0 174381.0 179984.0 128214.0 120185.0 223912.0 218478.0 87180.0 89421.0 10588.0 4016.0 177981.0 170272.0 198061.0 190475.0 60376.0 57344.0 103153.0 95194.0 170102.0 169011.0 61952.0 55678.0 154408.0 146241.0 160341.0 168507.0 174592.0 169837.0 48980.0 45452.0 187394.0 185796.0 113173.0 120267.0 191897.0 186591.0 152381.0 156979.0 0.0 4794.0 92994.0 99208.0 17514.0 25279.0 31987.0 39768.0 49998.0 52784.0 142023.0 134184.0 158459.0 163163.0 163755.0 167807.0 159146.0 160306.0 111617.0 112771.0 179372.0 173515.0 84699.0 82098.0 169980.0 173811.0 117168.0 122737.0 187316.0 190480.0 91862.0 94175.0 154874.0 152289.0 155789.0 163602.0 80983.0 88690.0 35019.0 41585.0 138719.0 38758.0 138719.0 138719.0 38758.0 38758.0
219009.0 223274.0 170278.0 175962.0 125335.0 117337.0 219119.0 213684.0 88508.0 90373.0 14329.0 8801.0 176533.0 168890.0 200651.0 193013.0 56816.0 54230.0 100430.0 92510.0 169242.0 167935.0 57316.0 50943.0 157814.0 149646.0 156852.0 165019.0 172557.0 167632.0 45509.0 42604.0 190634.0 189179.0 110874.0 118114.0 189831.0 184386.0 151828.0 156222.0 4794.0 0.0 88891.0 95251.0 19769.0 27776.0 27628.0 35482.0 45388.0 48027.0 137695.0 129853.0 153685.0 158411.0 163606.0 167449.0 162197.0 163523.0 114942.0 115834.0 175184.0 169413.0 80552.0 77740.0 169517.0 173169.0 120294.0 126028.0 182637.0 185762.0 89164.0 91130.0 154871.0 152402.0 151765.0 159605.0 78436.0 86032.0 39419.0 45732.0 138832.0 43398.0 138832.0 138832.0 43398.0 43398.0
155687.0 157487.0 81391.0 87130.0 54368.0 49053.0 150003.0 146746.0 166435.0 165540.0 96005.0 96287.0 124373.0 118956.0 283800.0 275903.0 35202.0 41863.0 41838.0 39790.0 128946.0 123789.0 37692.0 46157.0 245552.0 237365.0 72282.0 80205.0 110218.0 102805.0 45970.0 52984.0 277444.0 276595.0 56672.0 64242.0 125282.0 117920.0 120290.0 120006.0 92994.0 88891.0 0.0 8237.0 107288.0 115064.0 78094.0 77631.0 68044.0 60060.0 50175.0 42529.0 84356.0 85642.0 137426.0 136741.0 248295.0 250363.0 202484.0 202394.0 86456.0 80525.0 8462.0 14649.0 136552.0 136333.0 207066.0 213382.0 134722.0 134036.0 38685.0 31033.0 132948.0 135206.0 62948.0 70845.0 40999.0 39049.0 127897.0 134571.0 127471.0 130820.0 127471.0 127471.0 130820.0 130820.0
156795.0 158181.0 75459.0 80812.0 46644.0 41770.0 150197.0 147356.0 174155.0 173378.0 101617.0 102367.0 117182.0 111982.0 291353.0 283472.0 39936.0 45753.0 36545.0 35896.0 122612.0 117209.0 45686.0 54119.0 252427.0 244215.0 64336.0 72317.0 102472.0 94963.0 51174.0 57507.0 284547.0 283577.0 50868.0 58093.0 117342.0 109921.0 114838.0 114144.0 99208.0 95251.0 8237.0 0.0 113985.0 121837.0 85708.0 85513.0 76144.0 68172.0 46323.0 39074.0 85625.0 86146.0 132161.0 131099.0 255494.0 257445.0 209394.0 209482.0 80958.0 74591.0 16060.0 22874.0 130723.0 130188.0 214125.0 220341.0 138194.0 137051.0 35438.0 27121.0 128130.0 130782.0 56635.0 64405.0 39955.0 36462.0 133928.0 140777.0 124066.0 136565.0 124066.0 124066.0 136565.0 136565.0
229710.0 234465.0 188501.0 194405.0 145097.0 137103.0 231124.0 225273.0 69817.0 72334.0 23979.0 16851.0 195473.0 187751.0 180886.0 173255.0 76265.0 73960.0 120197.0 112272.0 187364.0 186388.0 73517.0 66180.0 138527.0 130359.0 176254.0 184419.0 192057.0 187240.0 65069.0 62372.0 171117.0 169818.0 130524.0 137687.0 209354.0 203996.0 169440.0 174184.0 17514.0 19769.0 107288.0 113985.0 0.0 8025.0 36088.0 42411.0 54729.0 59646.0 155171.0 147335.0 166977.0 172259.0 180431.0 184689.0 142544.0 143995.0 95564.0 96206.0 193127.0 187639.0 98862.0 95339.0 186953.0 190926.0 100710.0 106599.0 190824.0 194655.0 108928.0 110861.0 171398.0 168748.0 170233.0 178131.0 98171.0 105791.0 25448.0 29526.0 155178.0 31579.0 155178.0 155178.0 31579.0 31579.0
234895.0 239818.0 196190.0 202154.0 153110.0 145113.0 236767.0 230777.0 62710.0 65648.0 30473.0 24092.0 203013.0 195258.0 172904.0 165286.0 84270.0 81982.0 128189.0 120258.0 194553.0 193718.0 80826.0 73293.0 130612.0 122445.0 184240.0 192404.0 199867.0 195111.0 73088.0 70371.0 163124.0 161868.0 138425.0 145543.0 217175.0 211865.0 176430.0 181315.0 25279.0 27776.0 115064.0 121837.0 8025.0 0.0 42171.0 47804.0 60432.0 65891.0 162665.0 154837.0 173152.0 178608.0 187092.0 191515.0 134523.0 136001.0 87623.0 88192.0 200735.0 195329.0 106625.0 102933.0 193857.0 197960.0 92706.0 98638.0 195173.0 199252.0 116916.0 118884.0 177982.0 175331.0 177994.0 185906.0 106131.0 113772.0 21799.0 23958.0 161762.0 28701.0 161762.0 161762.0 28701.0 28701.0
193841.0 198490.0 157451.0 163890.0 123829.0 116296.0 195047.0 189233.0 88498.0 88054.0 41911.0 35838.0 183247.0 176086.0 205708.0 197809.0 54119.0 55495.0 100899.0 93617.0 179301.0 176840.0 41133.0 32875.0 169490.0 161291.0 149895.0 157943.0 175789.0 169855.0 45465.0 47737.0 200227.0 199815.0 113800.0 121735.0 192639.0 186375.0 163717.0 166996.0 31987.0 27628.0 78094.0 85708.0 36088.0 42171.0 0.0 7909.0 18774.0 23723.0 122833.0 115096.0 131010.0 136437.0 177320.0 180094.0 170819.0 173270.0 126328.0 125432.0 161395.0 156604.0 69731.0 64493.0 181619.0 184317.0 130203.0 136927.0 155956.0 159424.0 90357.0 89707.0 169382.0 167923.0 140011.0 147999.0 81307.0 87677.0 61315.0 65563.0 154464.0 66901.0 154464.0 154464.0 66901.0 66901.0
187310.0 192115.0 155508.0 162164.0 125569.0 118236.0 188966.0 183005.0 89026.0 87918.0 49787.0 43570.0 186847.0 179834.0 206776.0 198830.0 56887.0 59248.0 103427.0 96417.0 183752.0 181015.0 40000.0 31520.0 172679.0 164437.0 149848.0 157815.0 178507.0 172328.0 49363.0 52714.0 202601.0 202486.0 116834.0 124879.0 195178.0 188715.0 168661.0 171663.0 39768.0 35482.0 77631.0 85513.0 42411.0 47804.0 7909.0 0.0 12788.0 19504.0 120413.0 112775.0 125627.0 131316.0 182646.0 185163.0 173031.0 175787.0 129562.0 128187.0 159115.0 154672.0 69453.0 63508.0 186555.0 189016.0 133005.0 139955.0 148764.0 152400.0 93228.0 91880.0 174914.0 173709.0 138517.0 146504.0 84767.0 90711.0 67839.0 71586.0 160365.0 73696.0 160365.0 160365.0 73696.0 73696.0
175075.0 179754.0 144108.0 150927.0 118341.0 111342.0 176422.0 170544.0 100071.0 98424.0 59318.0 53959.0 182191.0 175458.0 217965.0 209991.0 52319.0 56264.0 97539.0 91032.0 180629.0 177391.0 30592.0 22435.0 185129.0 176874.0 140268.0 148120.0 172460.0 165933.0 47070.0 52282.0 214654.0 214693.0 111617.0 119773.0 188809.0 182071.0 166562.0 169002.0 49998.0 45388.0 68044.0 76144.0 54729.0 60432.0 18774.0 12788.0 0.0 7999.0 108721.0 101176.0 112858.0 118529.0 181291.0 183256.0 185014.0 187932.0 142055.0 140489.0 147454.0 143281.0 60205.0 53543.0 184372.0 186354.0 145324.0 152361.0 137397.0 140746.0 88000.0 85589.0 174037.0 173414.0 127527.0 135495.0 80640.0 85779.0 80048.0 84094.0 160498.0 85675.0 160498.0 160498.0 85675.0 85675.0
171109.0 175526.0 136345.0 143112.0 110693.0 103786.0 171755.0 166096.0 107872.0 106330.0 61330.0 56800.0 175230.0 168601.0 225751.0 217783.0 45894.0 50515.0 90305.0 83989.0 174238.0 170809.0 22714.0 14785.0 192171.0 183932.0 132272.0 140122.0 165071.0 158453.0 41868.0 47949.0 222055.0 221979.0 104570.0 112747.0 181322.0 174517.0 160619.0 162815.0 52784.0 48027.0 60060.0 68172.0 59646.0 65891.0 23723.0 19504.0 7999.0 0.0 101074.0 93483.0 107338.0 112717.0 175654.0 177370.0 192459.0 195266.0 149045.0 147689.0 139799.0 135515.0 52259.0 45547.0 178364.0 180142.0 152509.0 159455.0 134884.0 137817.0 81023.0 78263.0 168634.0 168292.0 119644.0 127618.0 74126.0 78922.0 84613.0 89168.0 155671.0 89876.0 155671.0 155671.0 89876.0 89876.0
120434.0 120196.0 35929.0 43350.0 64906.0 66009.0 110629.0 109341.0 208713.0 206719.0 145769.0 145505.0 130932.0 128253.0 326592.0 318604.0 85360.0 91768.0 72405.0 75787.0 143503.0 136537.0 82021.0 90013.0 292227.0 284053.0 49815.0 54506.0 110358.0 102036.0 96108.0 103135.0 322942.0 322639.0 81982.0 86250.0 120411.0 112298.0 141774.0 138707.0 142023.0 137695.0 50175.0 46323.0 155171.0 162665.0 122833.0 120413.0 108721.0 101074.0 0.0 7844.0 54625.0 51328.0 159351.0 156170.0 293421.0 296047.0 249079.0 248258.0 38733.0 35153.0 57895.0 59962.0 154655.0 152047.0 253034.0 259741.0 114036.0 110436.0 76756.0 68389.0 157774.0 162162.0 23636.0 30310.0 84259.0 78855.0 177042.0 183389.0 159981.0 180349.0 159981.0 159981.0 180349.0 180349.0
123930.0 124151.0 43077.0 50243.0 62188.0 62387.0 115021.0 113259.0 201217.0 199309.0 137969.0 137670.0 130243.0 127110.0 319110.0 311126.0 77731.0 84250.0 67199.0 70002.0 141689.0 134941.0 74228.0 82255.0 284450.0 276282.0 52325.0 57879.0 110439.0 102136.0 88403.0 95512.0 315249.0 314910.0 77719.0 82547.0 121425.0 113335.0 138886.0 136217.0 134184.0 129853.0 42529.0 39074.0 147335.0 154837.0 115096.0 112775.0 101176.0 93483.0 7844.0 0.0 55894.0 53668.0 156517.0 153699.0 285749.0 288338.0 241308.0 240528.0 46344.0 42271.0 50143.0 52118.0 152378.0 150119.0 245298.0 251984.0 114500.0 111422.0 70743.0 62269.0 154485.0 158571.0 28748.0 36135.0 77721.0 72671.0 169203.0 175545.0 155476.0 172526.0 155476.0 155476.0 172526.0 172526.0
71331.0 73343.0 75592.0 83128.0 118024.0 117734.0 66812.0 62750.0 204904.0 201089.0 165291.0 162412.0 185544.0 182741.0 319759.0 311768.0 114751.0 122557.0 120008.0 121058.0 197570.0 190773.0 97786.0 102946.0 295263.0 286984.0 102900.0 106099.0 164901.0 156582.0 122662.0 131059.0 321983.0 323027.0 132150.0 137652.0 174362.0 166258.0 194501.0 192032.0 158459.0 153685.0 84356.0 85625.0 166977.0 173152.0 131010.0 125627.0 112858.0 107338.0 54625.0 55894.0 0.0 8039.0 212143.0 209510.0 292257.0 296130.0 252758.0 250137.0 72280.0 75277.0 88354.0 85046.0 208244.0 206012.0 255006.0 262476.0 59648.0 55811.0 120942.0 112474.0 209734.0 213455.0 74480.0 78084.0 125153.0 122085.0 191768.0 196503.0 208797.0 196710.0 208797.0 208797.0 196710.0 196710.0
70908.0 72035.0 69217.0 76581.0 115767.0 116016.0 64390.0 61216.0 211784.0 208095.0 169662.0 167085.0 182026.0 179527.0 327017.0 319020.0 117337.0 125036.0 119440.0 121017.0 194815.0 187864.0 101912.0 107505.0 301753.0 293472.0 98211.0 100936.0 160948.0 152648.0 125751.0 134046.0 328830.0 329770.0 130985.0 136119.0 169810.0 161727.0 192544.0 189769.0 163163.0 158411.0 85642.0 86146.0 172259.0 178608.0 136437.0 131316.0 118529.0 112717.0 51328.0 53668.0 8039.0 0.0 210170.0 207249.0 299086.0 302866.0 259124.0 256655.0 65444.0 68958.0 90298.0 87660.0 205834.0 203340.0 261524.0 268943.0 64648.0 60035.0 121123.0 112591.0 208127.0 212110.0 69625.0 72621.0 126005.0 122467.0 196841.0 201775.0 208225.0 201614.0 208225.0 208225.0 201614.0 201614.0
279729.0 279150.0 160709.0 158924.0 94463.0 94450.0 269010.0 268370.0 249695.0 252702.0 156639.0 163618.0 48726.0 43794.0 353699.0 346475.0 130180.0 125150.0 95694.0 98112.0 25547.0 32767.0 157462.0 162385.0 306182.0 298014.0 123230.0 126218.0 68903.0 73830.0 134238.0 129940.0 339510.0 337570.0 81424.0 74901.0 77672.0 80247.0 17643.0 21604.0 163755.0 163606.0 137426.0 132161.0 180431.0 187092.0 177320.0 182646.0 181291.0 175654.0 159351.0 156517.0 212143.0 210170.0 0.0 8263.0 312526.0 312734.0 264068.0 266783.0 168610.0 160216.0 139038.0 146751.0 12504.0 19957.0 270705.0 275191.0 268903.0 266822.0 99931.0 106597.0 10047.0 17005.0 147551.0 149460.0 103052.0 100708.0 183940.0 191931.0 46895.0 183810.0 46895.0 46895.0 183810.0 183810.0
276337.0 275540.0 155888.0 153780.0 91512.0 92178.0 265222.0 264808.0 254203.0 257020.0 161042.0 167844.0 41009.0 36630.0 358349.0 351125.0 131631.0 126997.0 94904.0 97963.0 17873.0 25480.0 158537.0 163805.0 310831.0 302664.0 118312.0 120893.0 61955.0 67344.0 136331.0 132478.0 344160.0 342220.0 80232.0 73226.0 69918.0 72822.0 16822.0 17482.0 167807.0 167449.0 136741.0 131099.0 184689.0 191515.0 180094.0 185163.0 183256.0 177370.0 156170.0 153699.0 209510.0 207249.0 8263.0 0.0 317175.0 317384.0 268718.0 271433.0 163747.0 155425.0 138847.0 146707.0 4241.0 11696.0 275355.0 279840.0 266850.0 264532.0 100011.0 106226.0 17479.0 25009.0 143385.0 144919.0 103999.0 101047.0 188589.0 196581.0 53539.0 188460.0 53539.0 53539.0 188460.0 188460.0
341256.0 347795.0 328265.0 334697.0 287347.0 279308.0 348007.0 340770.0 87382.0 91704.0 160844.0 156959.0 332141.0 324187.0 44180.0 38769.0 218769.0 216412.0 262205.0 254222.0 321550.0 321467.0 211945.0 203681.0 22567.0 22884.0 318623.0 326778.0 331585.0 327534.0 207612.0 204597.0 29764.0 31355.0 271476.0 278116.0 348912.0 344204.0 302679.0 308109.0 159146.0 162197.0 248295.0 255494.0 142544.0 134523.0 170819.0 173031.0 185014.0 192459.0 293421.0 285749.0 292257.0 299086.0 312526.0 317175.0 0.0 7469.0 48507.0 46375.0 332090.0 327419.0 239840.0 235180.0 319745.0 324283.0 42039.0 37500.0 294950.0 301337.0 250906.0 253294.0 303406.0 300755.0 310758.0 318738.0 239896.0 247703.0 128674.0 120714.0 287186.0 129679.0 287186.0 287186.0 129679.0 129679.0
346107.0 352566.0 330684.0 337016.0 288368.0 280312.0 352576.0 345403.0 91543.0 96258.0 161520.0 157964.0 332350.0 324396.0 47731.0 43234.0 220256.0 217646.0 263139.0 255145.0 321759.0 321676.0 214338.0 206144.0 16121.0 18508.0 320239.0 328402.0 331771.0 327887.0 209018.0 205721.0 27124.0 26905.0 272075.0 278582.0 349080.0 344515.0 302888.0 308318.0 160306.0 163523.0 250363.0 257445.0 143995.0 136001.0 173270.0 175787.0 187932.0 195266.0 296047.0 288338.0 296130.0 302866.0 312734.0 317384.0 7469.0 0.0 48819.0 47969.0 334657.0 329835.0 241902.0 237445.0 319954.0 324492.0 43330.0 37654.0 300024.0 306314.0 251845.0 254472.0 303615.0 300964.0 313005.0 320974.0 240767.0 248622.0 128981.0 121080.0 287395.0 129575.0 287395.0 287395.0 129575.0 129575.0
306955.0 312958.0 283271.0 289423.0 239579.0 231519.0 311953.0 305120.0 54303.0 61064.0 112702.0 109203.0 283683.0 275729.0 90958.0 84264.0 171743.0 168958.0 214333.0 206338.0 273093.0 273009.0 167097.0 159071.0 43162.0 34974.0 271776.0 279942.0 283145.0 279170.0 160449.0 156985.0 75824.0 74256.0 223274.0 229817.0 300467.0 295820.0 254221.0 259652.0 111617.0 114942.0 202484.0 209394.0 95564.0 87623.0 126328.0 129562.0 142055.0 149045.0 249079.0 241308.0 252758.0 259124.0 264068.0 268718.0 48507.0 48819.0 0.0 8428.0 287512.0 282415.0 194027.0 189907.0 271287.0 275825.0 8493.0 11165.0 262412.0 268088.0 203042.0 205744.0 254949.0 252298.0 265321.0 273265.0 191954.0 199816.0 80254.0 72322.0 238728.0 81174.0 238728.0 238728.0 81174.0 81174.0
303013.0 309147.0 282782.0 289080.0 240976.0 232939.0 308438.0 301498.0 48806.0 55163.0 114626.0 110605.0 286361.0 278390.0 87037.0 79988.0 172458.0 170041.0 215848.0 207869.0 275808.0 275725.0 166450.0 158293.0 45141.0 36872.0 272380.0 280540.0 285618.0 281435.0 161273.0 158223.0 75065.0 74383.0 225240.0 231956.0 302956.0 298130.0 256937.0 262367.0 112771.0 115834.0 202394.0 209482.0 96206.0 88192.0 125432.0 128187.0 140489.0 147689.0 248258.0 240528.0 250137.0 256655.0 266783.0 271433.0 46375.0 47969.0 8428.0 0.0 286823.0 281931.0 193933.0 189506.0 274003.0 278541.0 4870.0 12630.0 258025.0 263864.0 204550.0 206921.0 257664.0 255013.0 265054.0 273021.0 193557.0 201351.0 82861.0 74868.0 241444.0 84457.0 241444.0 241444.0 84457.0 84457.0
120296.0 117481.0 7946.0 12001.0 80194.0 84851.0 105967.0 107569.0 247436.0 245393.0 182408.0 182716.0 130869.0 130548.0 365307.0 357316.0 120894.0 126498.0 97095.0 102686.0 148345.0 140620.0 120421.0 128531.0 330633.0 322483.0 45435.0 43832.0 107819.0 100077.0 132086.0 138421.0 361582.0 361205.0 101896.0 103361.0 112547.0 104866.0 151913.0 147035.0 179372.0 175184.0 86456.0 80958.0 193127.0 200735.0 161395.0 159115.0 147454.0 139799.0 38733.0 46344.0 72280.0 65444.0 168610.0 163747.0 332090.0 334657.0 287512.0 286823.0 0.0 8540.0 94680.0 97802.0 161333.0 157104.0 291585.0 298228.0 128959.0 123298.0 104587.0 97164.0 169321.0 175073.0 25962.0 20386.0 114101.0 107326.0 214325.0 220911.0 177758.0 217268.0 177758.0 177758.0 217268.0 217268.0
126982.0 124486.0 867.0 8532.0 71708.0 76475.0 113140.0 114388.0 243351.0 241532.0 176205.0 176780.0 123007.0 122490.0 361246.0 353271.0 114468.0 119811.0 89034.0 94804.0 140155.0 132462.0 115499.0 123738.0 325527.0 317366.0 37153.0 36129.0 100089.0 92243.0 125759.0 131847.0 356821.0 356289.0 93502.0 94867.0 105475.0 97684.0 143468.0 138654.0 173515.0 169413.0 80525.0 74591.0 187639.0 195329.0 156604.0 154672.0 143281.0 135515.0 35153.0 42271.0 75277.0 68958.0 160216.0 155425.0 327419.0 329835.0 282415.0 281931.0 8540.0 0.0 88870.0 92510.0 153057.0 148918.0 286668.0 293203.0 133240.0 127928.0 96798.0 89542.0 160847.0 166568.0 18387.0 12006.0 106520.0 99598.0 208381.0 215095.0 169228.0 211139.0 169228.0 169228.0 211139.0 211139.0
159522.0 161691.0 89734.0 95544.0 60099.0 54093.0 154657.0 151049.0 158134.0 157323.0 87949.0 88037.0 128806.0 123045.0 275423.0 267531.0 28052.0 35255.0 44464.0 40935.0 132032.0 127251.0 29672.0 38080.0 237097.0 228911.0 80395.0 88372.0 115737.0 108555.0 38317.0 45729.0 268983.0 268134.0 59566.0 67472.0 131225.0 124034.0 122206.0 122463.0 84699.0 80552.0 8462.0 16060.0 98862.0 106625.0 69731.0 69453.0 60205.0 52259.0 57895.0 50143.0 88354.0 90298.0 139038.0 138847.0 239840.0 241902.0 194027.0 193933.0 94680.0 88870.0 0.0 8199.0 138909.0 139127.0 198605.0 204923.0 136224.0 136041.0 39187.0 32657.0 134015.0 135790.0 71372.0 79282.0 39105.0 38838.0 119645.0 126259.0 126955.0 122677.0 126955.0 126955.0 122677.0 122677.0
155765.0 158295.0 93366.0 99574.0 68124.0 62236.0 151746.0 147778.0 152492.0 151402.0 86268.0 85626.0 137004.0 131237.0 270082.0 262160.0 29715.0 37514.0 52563.0 48744.0 140113.0 135389.0 23523.0 31994.0 233024.0 224856.0 86726.0 94582.0 123837.0 116604.0 38440.0 46531.0 264475.0 263831.0 67671.0 75611.0 139230.0 131986.0 130025.0 130423.0 82098.0 77740.0 14649.0 22874.0 95339.0 102933.0 64493.0 63508.0 53543.0 45547.0 59962.0 52118.0 85046.0 87660.0 146751.0 146707.0 235180.0 237445.0 189907.0 189506.0 97802.0 92510.0 8199.0 0.0 146835.0 147151.0 194224.0 200708.0 130563.0 130758.0 46820.0 40643.0 141542.0 143121.0 75579.0 83558.0 45687.0 46222.0 117113.0 123427.0 133796.0 120562.0 133796.0 133796.0 120562.0 120562.0
274649.0 273738.0 153502.0 151223.0 90224.0 91250.0 263331.0 263034.0 256564.0 259284.0 163392.0 170102.0 37128.0 33135.0 360918.0 353694.0 132540.0 128113.0 94745.0 98127.0 14177.0 21991.0 159223.0 164661.0 313401.0 305233.0 115911.0 118267.0 58504.0 64153.0 137556.0 133932.0 346729.0 344789.0 79916.0 72686.0 65974.0 69071.0 17902.0 16582.0 169980.0 169517.0 136552.0 130723.0 186953.0 193857.0 181619.0 186555.0 184372.0 178364.0 154655.0 152378.0 208244.0 205834.0 12504.0 4241.0 319745.0 319954.0 271287.0 274003.0 161333.0 153057.0 138909.0 146835.0 0.0 7456.0 277924.0 282410.0 265860.0 263419.0 100286.0 106255.0 21521.0 29168.0 141359.0 142692.0 104705.0 101452.0 191159.0 199150.0 57108.0 191029.0 57108.0 57108.0 191029.0 191029.0
271624.0 270513.0 149332.0 146748.0 88209.0 89878.0 259954.0 259864.0 260661.0 263212.0 167538.0 174081.0 30433.0 27357.0 365456.0 358232.0 134249.0 130191.0 94721.0 98652.0 8764.0 16558.0 160491.0 166216.0 317939.0 309772.0 111778.0 113718.0 52582.0 58717.0 139802.0 136580.0 351267.0 349327.0 79698.0 72127.0 59056.0 62522.0 21604.0 17363.0 173811.0 173169.0 136333.0 130188.0 190926.0 197960.0 184317.0 189016.0 186354.0 180142.0 152047.0 150119.0 206012.0 203340.0 19957.0 11696.0 324283.0 324492.0 275825.0 278541.0 157104.0 148918.0 139127.0 147151.0 7456.0 0.0 282462.0 286948.0 264074.0 261419.0 100996.0 106509.0 28723.0 36493.0 137857.0 138824.0 106146.0 102383.0 195697.0 203689.0 63495.0 195567.0 63495.0 63495.0 195567.0 195567.0
307791.0 313941.0 287519.0 293797.0 245343.0 237299.0 313261.0 306312.0 53379.0 59599.0 118816.0 114938.0 290320.0 282366.0 83440.0 76554.0 176975.0 174474.0 220181.0 212196.0 279730.0 279646.0 171197.0 163055.0 40278.0 32013.0 276932.0 285094.0 289674.0 285558.0 165763.0 162615.0 70449.0 69625.0 229448.0 236112.0 307008.0 302240.0 260858.0 266289.0 117168.0 120294.0 207066.0 214125.0 100710.0 92706.0 130203.0 133005.0 145324.0 152509.0 253034.0 245298.0 255006.0 261524.0 270705.0 275355.0 42039.0 43330.0 8493.0 4870.0 291585.0 286668.0 198605.0 194224.0 277924.0 282462.0 0.0 7987.0 262741.0 268605.0 208883.0 211338.0 261586.0 258935.0 269759.0 277722.0 197863.0 205676.0 86809.0 78827.0 245365.0 88159.0 245365.0 245365.0 88159.0 88159.0
315630.0 321753.0 294057.0 300257.0 250733.0 242674.0 321004.0 314080.0 61356.0 67585.0 123867.0 120347.0 294806.0 286852.0 80486.0 74023.0 182815.0 180081.0 225493.0 217498.0 284216.0 284132.0 177808.0 169730.0 32831.0 24552.0 282840.0 291006.0 294266.0 290313.0 171537.0 168122.0 64675.0 63242.0 234435.0 240970.0 311585.0 306957.0 265344.0 270775.0 122737.0 126028.0 213382.0 220341.0 106599.0 98638.0 136927.0 139955.0 152361.0 159455.0 259741.0 251984.0 262476.0 268943.0 275191.0 279840.0 37500.0 37654.0 11165.0 12630.0 298228.0 293203.0 204923.0 200708.0 282410.0 286948.0 7987.0 0.0 270654.0 276493.0 214200.0 216880.0 266072.0 263421.0 276176.0 284127.0 203116.0 210976.0 91394.0 83470.0 249851.0 92214.0 249851.0 249851.0 92214.0 92214.0
47928.0 55494.0 133436.0 140521.0 175867.0 174672.0 60045.0 51929.0 209604.0 204104.0 196200.0 191302.0 244705.0 241595.0 315202.0 307483.0 158375.0 166263.0 174405.0 174023.0 255783.0 249227.0 134776.0 136792.0 302363.0 294295.0 162524.0 165527.0 224395.0 216073.0 163424.0 171894.0 323832.0 326304.0 187772.0 194005.0 234010.0 225906.0 251309.0 249445.0 187316.0 182637.0 134722.0 138194.0 190824.0 195173.0 155956.0 148764.0 137397.0 134884.0 114036.0 114500.0 59648.0 64648.0 268903.0 266850.0 294950.0 300024.0 262412.0 258025.0 128959.0 133240.0 136224.0 130563.0 265860.0 264074.0 262741.0 270654.0 0.0 8242.0 173264.0 165209.0 265703.0 268770.0 134040.0 137266.0 175212.0 173768.0 216227.0 219090.0 262112.0 222342.0 262112.0 262112.0 222342.0 222342.0
40510.0 47852.0 128083.0 134995.0 173251.0 172418.0 51925.0 43817.0 215606.0 210243.0 199128.0 194482.0 241347.0 238471.0 322198.0 314449.0 159122.0 167044.0 172953.0 172946.0 253047.0 246356.0 136386.0 138882.0 308365.0 300263.0 158238.0 160912.0 220675.0 212359.0 164685.0 173195.0 330333.0 332687.0 185991.0 191993.0 229826.0 221739.0 249196.0 247084.0 190480.0 185762.0 134036.0 137051.0 194655.0 199252.0 159424.0 152400.0 140746.0 137817.0 110436.0 111422.0 55811.0 60035.0 266822.0 264532.0 301337.0 306314.0 268088.0 263864.0 123298.0 127928.0 136041.0 130758.0 263419.0 261419.0 268605.0 276493.0 8242.0 0.0 172342.0 164157.0 263910.0 267199.0 129659.0 132504.0 174812.0 172999.0 220096.0 223203.0 261115.0 226086.0 261115.0 261115.0 226086.0 226086.0
191952.0 193095.0 97617.0 100819.0 36609.0 28533.0 184744.0 182233.0 176070.0 176801.0 90490.0 93948.0 94212.0 87604.0 289814.0 282175.0 36352.0 35595.0 11298.0 3353.0 94372.0 90310.0 60010.0 66492.0 245622.0 237455.0 72889.0 80767.0 85432.0 79617.0 45442.0 46570.0 278861.0 277010.0 23651.0 31780.0 102329.0 96244.0 83276.0 84011.0 91862.0 89164.0 38685.0 35438.0 108928.0 116916.0 90357.0 93228.0 88000.0 81023.0 76756.0 70743.0 120942.0 121123.0 99931.0 100011.0 250906.0 251845.0 203042.0 204550.0 104587.0 96798.0 39187.0 46820.0 100286.0 100996.0 208883.0 214200.0 173264.0 172342.0 0.0 8555.0 94831.0 96728.0 78626.0 85031.0 11271.0 3279.0 123521.0 131195.0 88850.0 124359.0 88850.0 88850.0 124359.0 124359.0
183435.0 184552.0 90374.0 93938.0 34458.0 26678.0 176189.0 173687.0 176717.0 177087.0 93725.0 96551.0 97578.0 91381.0 291541.0 283835.0 35783.0 36902.0 12245.0 8819.0 99517.0 94962.0 56388.0 63518.0 248458.0 240291.0 67722.0 75766.0 86879.0 80487.0 46128.0 48759.0 281549.0 279832.0 27229.0 35329.0 103357.0 96835.0 89629.0 89807.0 94175.0 91130.0 31033.0 27121.0 110861.0 118884.0 89707.0 91880.0 85589.0 78263.0 68389.0 62269.0 112474.0 112591.0 106597.0 106226.0 253294.0 254472.0 205744.0 206921.0 97164.0 89542.0 32657.0 40643.0 106255.0 106509.0 211338.0 216880.0 165209.0 164157.0 8555.0 0.0 101939.0 104184.0 71247.0 77920.0 16993.0 10482.0 126864.0 134387.0 96959.0 128140.0 96959.0 96959.0 128140.0 128140.0
278191.0 277901.0 161384.0 160085.0 92975.0 92111.0 268011.0 267071.0 240577.0 243592.0 147536.0 154622.0 55234.0 49326.0 344580.0 337356.0 123525.0 118140.0 91591.0 93274.0 32612.0 38864.0 151086.0 155667.0 297062.0 288895.0 124204.0 127786.0 73610.0 77671.0 126975.0 122296.0 330391.0 328451.0 77938.0 72083.0 83978.0 85778.0 17818.0 24629.0 154874.0 154871.0 132948.0 128130.0 171398.0 177982.0 169382.0 174914.0 174037.0 168634.0 157774.0 154485.0 209734.0 208127.0 10047.0 17479.0 303406.0 303615.0 254949.0 257664.0 169321.0 160847.0 134015.0 141542.0 21521.0 28723.0 261586.0 266072.0 265703.0 263910.0 94831.0 101939.0 0.0 7995.0 147339.0 149768.0 97024.0 95326.0 174821.0 182812.0 36893.0 174691.0 36893.0 36893.0 174691.0 174691.0
282454.0 282358.0 167127.0 166089.0 97654.0 96226.0 272639.0 271502.0 237927.0 240959.0 144895.0 151979.0 63189.0 57165.0 341929.0 334705.0 123722.0 117962.0 94375.0 95418.0 40607.0 46807.0 151489.0 155692.0 294411.0 286244.0 130183.0 134054.0 81202.0 84998.0 126467.0 121341.0 327740.0 325800.0 81327.0 76025.0 91881.0 93542.0 24893.0 32199.0 152289.0 152402.0 135206.0 130782.0 168748.0 175331.0 167923.0 173709.0 173414.0 168292.0 162162.0 158571.0 213455.0 212110.0 17005.0 25009.0 300755.0 300964.0 252298.0 255013.0 175073.0 166568.0 135790.0 143121.0 29168.0 36493.0 258935.0 263421.0 268770.0 267199.0 96728.0 104184.0 7995.0 0.0 152607.0 155331.0 98015.0 96958.0 172170.0 180161.0 31861.0 172040.0 31861.0 31861.0 172040.0 172040.0
134271.0 132786.0 19238.0 24197.0 55825.0 59714.0 122106.0 122232.0 227473.0 225949.0 158210.0 158985.0 114012.0 112427.0 345291.0 337340.0 96378.0 101567.0 71235.0 76730.0 129129.0 121702.0 98891.0 107254.0 308411.0 300234.0 28607.0 31768.0 92070.0 83856.0 107723.0 113652.0 340046.0 339346.0 76770.0 78919.0 100209.0 92140.0 130370.0 126212.0 155789.0 151765.0 62948.0 56635.0 170233.0 177994.0 140011.0 138517.0 127527.0 119644.0 23636.0 28748.0 74480.0 69625.0 147551.0 143385.0 310758.0 313005.0 265321.0 265054.0 25962.0 18387.0 71372.0 75579.0 141359.0 137857.0 269759.0 276176.0 134040.0 129659.0 78626.0 71247.0 147339.0 152607.0 0.0 7991.0 88207.0 81375.0 190558.0 197371.0 153652.0 193176.0 153652.0 153652.0 193176.0 193176.0
134741.0 132782.0 12764.0 16450.0 59831.0 64484.0 121761.0 122418.0 235455.0 233915.0 165900.0 166772.0 113825.0 112803.0 353277.0 345326.0 104030.0 109069.0 77095.0 82972.0 130065.0 122477.0 106881.0 115245.0 316349.0 308170.0 27444.0 28523.0 91320.0 83260.0 115404.0 121203.0 348018.0 347304.0 81521.0 83006.0 98168.0 90195.0 132527.0 127964.0 163602.0 159605.0 70845.0 64405.0 178131.0 185906.0 147999.0 146504.0 135495.0 127618.0 30310.0 36135.0 78084.0 72621.0 149460.0 144919.0 318738.0 320974.0 273265.0 273021.0 20386.0 12006.0 79282.0 83558.0 142692.0 138824.0 277722.0 284127.0 137266.0 132504.0 85031.0 77920.0 149768.0 155331.0 7991.0 0.0 94912.0 87877.0 198328.0 205178.0 157491.0 200878.0 157491.0 157491.0 200878.0 200878.0
196457.0 198020.0 107353.0 110923.0 47830.0 39756.0 190141.0 187219.0 165870.0 166817.0 79332.0 82960.0 102081.0 95094.0 279026.0 271417.0 28320.0 25859.0 22444.0 14457.0 100117.0 96752.0 54539.0 60071.0 234499.0 226332.0 83926.0 91858.0 94961.0 89546.0 35893.0 35985.0 267763.0 265887.0 32813.0 40542.0 112060.0 106263.0 87178.0 88874.0 80983.0 78436.0 40999.0 39955.0 98171.0 106131.0 81307.0 84767.0 80640.0 74126.0 84259.0 77721.0 125153.0 126005.0 103052.0 103999.0 239896.0 240767.0 191954.0 193557.0 114101.0 106520.0 39105.0 45687.0 104705.0 106146.0 197863.0 203116.0 175212.0 174812.0 11271.0 16993.0 97024.0 98015.0 88207.0 94912.0 0.0 7992.0 112321.0 120020.0 88120.0 113104.0 88120.0 88120.0 113104.0 113104.0
193216.0 194484.0 100422.0 103738.0 39869.0 31793.0 186270.0 183636.0 173094.0 173885.0 87243.0 90747.0 96424.0 89693.0 286675.0 279045.0 33833.0 32666.0 14519.0 6522.0 95932.0 92079.0 58256.0 64496.0 242386.0 234219.0 76095.0 83990.0 88156.0 82464.0 42583.0 43459.0 275633.0 273774.0 26140.0 34170.0 105123.0 99126.0 84264.0 85291.0 88690.0 86032.0 39049.0 36462.0 105791.0 113772.0 87677.0 90711.0 85779.0 78922.0 78855.0 72671.0 122085.0 122467.0 100708.0 101047.0 247703.0 248622.0 199816.0 201351.0 107326.0 99598.0 38838.0 46222.0 101452.0 102383.0 205676.0 210976.0 173768.0 172999.0 3279.0 10482.0 95326.0 96958.0 81375.0 87877.0 7992.0 0.0 120263.0 127944.0 88461.0 121085.0 88461.0 88461.0 121085.0 121085.0
255101.0 259800.0 209248.0 214740.0 160129.0 152054.0 256317.0 250543.0 70330.0 75135.0 33140.0 31610.0 203554.0 195601.0 169769.0 162536.0 94573.0 90654.0 134764.0 126769.0 192965.0 192881.0 96579.0 89830.0 122474.0 114307.0 193976.0 202120.0 202911.0 198919.0 83126.0 78411.0 155801.0 153863.0 143163.0 149605.0 220238.0 215565.0 174093.0 179524.0 35019.0 39419.0 127897.0 133928.0 25448.0 21799.0 61315.0 67839.0 80048.0 84613.0 177042.0 169203.0 191768.0 196841.0 183940.0 188589.0 128674.0 128981.0 80254.0 82861.0 214325.0 208381.0 119645.0 117113.0 191159.0 195697.0 86809.0 91394.0 216227.0 220096.0 123521.0 126864.0 174821.0 172170.0 190558.0 198328.0 112321.0 120263.0 0.0 7995.0 158600.0 7151.0 158600.0 158600.0 7151.0 7151.0
258809.0 263687.0 215961.0 221565.0 167800.0 159725.0 260513.0 254588.0 63927.0 69134.0 40714.0 38453.0 211547.0 203592.0 161775.0 154548.0 101673.0 98001.0 142455.0 134458.0 200956.0 200872.0 102370.0 95329.0 114611.0 106444.0 201322.0 209475.0 210872.0 206850.0 90228.0 85801.0 147938.0 145999.0 151016.0 157503.0 228202.0 223504.0 182084.0 187515.0 41585.0 45732.0 134571.0 140777.0 29526.0 23958.0 65563.0 71586.0 84094.0 89168.0 183389.0 175545.0 196503.0 201775.0 191931.0 196581.0 120714.0 121080.0 72322.0 74868.0 220911.0 215095.0 126259.0 123427.0 199150.0 203689.0 78827.0 83470.0 219090.0 223203.0 131195.0 134387.0 182812.0 180161.0 197371.0 205178.0 120020.0 127944.0 7995.0 0.0 166591.0 11757.0 166591.0 166591.0 11757.0 11757.0
279075.0 279587.0 169876.0 169977.0 97835.0 94554.0 270462.0 268692.0 224357.0 227389.0 131325.0 138409.0 83749.0 76242.0 328359.0 321135.0 112043.0 105770.0 88814.0 88170.0 64505.0 68264.0 139943.0 143565.0 280842.0 272674.0 134550.0 139846.0 96105.0 97414.0 113808.0 108260.0 314170.0 312230.0 78028.0 74759.0 110171.0 109736.0 44275.0 52073.0 138719.0 138832.0 127471.0 124066.0 155178.0 161762.0 154464.0 160365.0 160498.0 155671.0 159981.0 155476.0 208797.0 208225.0 46895.0 53539.0 287186.0 287395.0 238728.0 241444.0 177758.0 169228.0 126955.0 133796.0 57108.0 63495.0 245365.0 249851.0 262112.0 261115.0 88850.0 96959.0 36893.0 31861.0 153652.0 157491.0 88120.0 88461.0 158600.0 166591.0 0.0 158470.0 0.0 0.0 158470.0 158470.0
260732.0 265317.0 212006.0 217317.0 160920.0 152851.0 261626.0 255959.0 75676.0 80817.0 34986.0 35028.0 203425.0 195471.0 171494.0 164411.0 96878.0 92464.0 135524.0 127556.0 192835.0 192751.0 100704.0 94275.0 124149.0 115982.0 195588.0 203707.0 202888.0 198964.0 85477.0 80183.0 157477.0 155537.0 143376.0 149722.0 220209.0 215591.0 173963.0 179394.0 38758.0 43398.0 130820.0 136565.0 31579.0 28701.0 66901.0 73696.0 85675.0 89876.0 180349.0 172526.0 196710.0 201614.0 183810.0 188460.0 129679.0 129575.0 81174.0 84457.0 217268.0 211139.0 122677.0 120562.0 191029.0 195567.0 88159.0 92214.0 222342.0 226086.0 124359.0 128140.0 174691.0 172040.0 193176.0 200878.0 113104.0 121085.0 7151.0 11757.0 158470.0 0.0 158470.0 158470.0 0.0 0.0
279075.0 279587.0 169876.0 169977.0 97835.0 94554.0 270462.0 268692.0 224357.0 227389.0 131325.0 138409.0 83749.0 76242.0 328359.0 321135.0 112043.0 105770.0 88814.0 88170.0 64505.0 68264.0 139943.0 143565.0 280842.0 272674.0 134550.0 139846.0 96105.0 97414.0 113808.0 108260.0 314170.0 312230.0 78028.0 74759.0 110171.0 109736.0 44275.0 52073.0 138719.0 138832.0 127471.0 124066.0 155178.0 161762.0 154464.0 160365.0 160498.0 155671.0 159981.0 155476.0 208797.0 208225.0 46895.0 53539.0 287186.0 287395.0 238728.0 241444.0 177758.0 169228.0 126955.0 133796.0 57108.0 63495.0 245365.0 249851.0 262112.0 261115.0 88850.0 96959.0 36893.0 31861.0 153652.0 157491.0 88120.0 88461.0 158600.0 166591.0 0.0 158470.0 0.0 0.0 158470.0 158470.0
279075.0 279587.0 169876.0 169977.0 97835.0 94554.0 270462.0 268692.0 224357.0 227389.0 131325.0 138409.0 83749.0 76242.0 328359.0 321135.0 112043.0 105770.0 88814.0 88170.0 64505.0 68264.0 139943.0 143565.0 280842.0 272674.0 134550.0 139846.0 96105.0 97414.0 113808.0 108260.0 314170.0 312230.0 78028.0 74759.0 110171.0 109736.0 44275.0 52073.0 138719.0 138832.0 127471.0 124066.0 155178.0 161762.0 154464.0 160365.0 160498.0 155671.0 159981.0 155476.0 208797.0 208225.0 46895.0 53539.0 287186.0 287395.0 238728.0 241444.0 177758.0 169228.0 126955.0 133796.0 57108.0 63495.0 245365.0 249851.0 262112.0 261115.0 88850.0 96959.0 36893.0 31861.0 153652.0 157491.0 88120.0 88461.0 158600.0 166591.0 0.0 158470.0 0.0 0.0 158470.0 158470.0
260732.0 265317.0 212006.0 217317.0 160920.0 152851.0 261626.0 255959.0 75676.0 80817.0 34986.0 35028.0 203425.0 195471.0 171494.0 164411.0 96878.0 92464.0 135524.0 127556.0 192835.0 192751.0 100704.0 94275.0 124149.0 115982.0 195588.0 203707.0 202888.0 198964.0 85477.0 80183.0 157477.0 155537.0 143376.0 149722.0 220209.0 215591.0 173963.0 179394.0 38758.0 43398.0 130820.0 136565.0 31579.0 28701.0 66901.0 73696.0 85675.0 89876.0 180349.0 172526.0 196710.0 201614.0 183810.0 188460.0 129679.0 129575.0 81174.0 84457.0 217268.0 211139.0 122677.0 120562.0 191029.0 195567.0 88159.0 92214.0 222342.0 226086.0 124359.0 128140.0 174691.0 172040.0 193176.0 200878.0 113104.0 121085.0 7151.0 11757.0 158470.0 0.0 158470.0 158470.0 0.0 0.0
260732.0 265317.0 212006.0 217317.0 160920.0 152851.0 261626.0 255959.0 75676.0 80817.0 34986.0 35028.0 203425.0 195471.0 171494.0 164411.0 96878.0 92464.0 135524.0 127556.0 192835.0 192751.0 100704.0 94275.0 124149.0 115982.0 195588.0 203707.0 202888.0 198964.0 85477.0 80183.0 157477.0 155537.0 143376.0 149722.0 220209.0 215591.0 173963.0 179394.0 38758.0 43398.0 130820.0 136565.0 31579.0 28701.0 66901.0 73696.0 85675.0 89876.0 180349.0 172526.0 196710.0 201614.0 183810.0 188460.0 129679.0 129575.0 81174.0 84457.0 217268.0 211139.0 122677.0 120562.0 191029.0 195567.0 88159.0 92214.0 222342.0 226086.0 124359.0 128140.0 174691.0 172040.0 193176.0 200878.0 113104.0 121085.0 7151.0 11757.0 158470.0 0.0 158470.0 158470.0 0.0 0.0
FIXED_EDGES_SECTION
1 2
3 4
5 6
7 8
9 10
11 12
13 14
15 16
17 18
19 20
21 22
23 24
25 26
27 28
29 30
31 32
33 34
35 36
37 38
39 40
41 42
43 44
45 46
47 48
49 50
51 52
53 54
55 56
57 58
59 60
61 62
63 64
65 66
67 68
69 70
71 72
73 74
75 76
77 78
79 80
-1 
DEMAND_SECTION
1 138
2 138
3 224
4 224
5 293
6 293
7 542
8 542
9 620
10 620
11 100
12 100
13 379
14 379
15 229
16 229
17 214
18 214
19 277
20 277
21 247
22 247
23 421
24 421
25 224
26 224
27 247
28 247
29 375
30 375
31 358
32 358
33 71
34 71
35 394
36 394
37 265
38 265
39 104
40 104
41 399
42 399
43 89
44 89
45 371
46 371
47 342
48 342
49 130
50 130
51 82
52 82
53 157
54 157
55 292
56 292
57 60
58 60
59 534
60 534
61 217
62 217
63 94
64 94
65 219
66 219
67 184
68 184
69 234
70 234
71 94
72 94
73 97
74 97
75 90
76 90
77 56
78 56
79 37
80 37
81 0
82 0
83 0
84 0
85 0
86 0
DEPOT_SECTION
81 
-1 
CAPACITIES_SECTION
10000 
11000 
12000 
13000 
-1 
EOF