NAME: GFS_20_1
TYPE: GFSP
DIMENSION: 86
VEHICLES: 4
CAPACITY: 10000.0
TRIP_DIST_LIMIT: 750000.0
TOTAL_DIST_LIMIT: 1050000.0
EDGE_WEIGHT_TYPE: EXPLICIT
EDGE_WEIGHT_FORMAT: FULL_MATRIX
EDGE_WEIGHT_SECTION
0.0 8242.0 265860.0 264074.0 177789.0 185604.0 141837.0 145856.0 216227.0 219090.0 142375.0 148505.0 334145.0 328581.0 173264.0 165209.0 280552.0 283232.0 161564.0 162890.0 187316.0 182637.0 124006.0 131454.0 241850.0 249890.0 88535.0 96835.0 25501.0 28965.0 167896.0 174570.0 323832.0 326304.0 197100.0 189233.0 255783.0 249227.0 209604.0 204104.0 187772.0 194005.0 132035.0 126678.0 180850.0 183676.0 246101.0 238045.0 241989.0 244918.0 294950.0 300024.0 77528.0 85273.0 243374.0 236689.0 195823.0 188411.0 127715.0 129911.0 135372.0 128581.0 133436.0 140521.0 137575.0 135301.0 141516.0 135200.0 265703.0 268770.0 160950.0 166327.0 134040.0 137266.0 175867.0 174672.0 128959.0 133240.0 275041.0 273558.0 262112.0 222342.0 262112.0 262112.0 222342.0 222342.0
8242.0 0.0 263419.0 261419.0 175739.0 183459.0 144067.0 147672.0 220096.0 223203.0 140761.0 146594.0 340763.0 335284.0 172342.0 164157.0 278041.0 280939.0 162398.0 164117.0 190480.0 185762.0 120214.0 127455.0 248500.0 256548.0 81748.0 90113.0 23734.0 24880.0 165334.0 171804.0 330333.0 332687.0 203205.0 195299.0 253047.0 246356.0 215606.0 210243.0 185991.0 191993.0 134199.0 128497.0 182069.0 185186.0 252833.0 244771.0 240039.0 242729.0 301337.0 306314.0 74762.0 82289.0 240620.0 234094.0 191865.0 184577.0 128060.0 129766.0 136664.0 130149.0 128083.0 134995.0 140201.0 137489.0 141863.0 135854.0 263910.0 267199.0 158545.0 164201.0 129659.0 132504.0 173251.0 172418.0 123298.0 127928.0 271602.0 270352.0 261115.0 226086.0 261115.0 261115.0 226086.0 226086.0
265860.0 263419.0 0.0 7456.0 88534.0 80545.0 164192.0 155789.0 191159.0 199150.0 124715.0 117853.0 359656.0 358528.0 100286.0 106255.0 14862.0 18187.0 131819.0 137290.0 169980.0 169517.0 146076.0 140464.0 296481.0 301228.0 204655.0 198714.0 285945.0 283407.0 98096.0 91901.0 346729.0 344789.0 255644.0 251710.0 14177.0 21991.0 256564.0 259284.0 79916.0 72686.0 168235.0 166803.0 128212.0 132974.0 302341.0 297696.0 28321.0 22332.0 319745.0 319954.0 188658.0 181219.0 24808.0 29663.0 84053.0 88089.0 150461.0 144609.0 154821.0 162578.0 153502.0 151223.0 172375.0 166835.0 139588.0 147635.0 21521.0 29168.0 104915.0 99740.0 141359.0 142692.0 90224.0 91250.0 161333.0 153057.0 35920.0 27475.0 57108.0 191029.0 57108.0 57108.0 191029.0 191029.0
264074.0 261419.0 7456.0 0.0 87567.0 79515.0 165996.0 157579.0 195697.0 203689.0 123800.0 116698.0 364195.0 363066.0 100996.0 106509.0 17281.0 23060.0 133725.0 139494.0 173811.0 173169.0 143209.0 137316.0 300920.0 305795.0 200985.0 194855.0 283741.0 281013.0 96180.0 89627.0 351267.0 349327.0 259422.0 255313.0 8764.0 16558.0 260661.0 263212.0 79698.0 72127.0 169642.0 167873.0 131236.0 136267.0 306805.0 302030.0 31237.0 24133.0 324283.0 324492.0 186683.0 179138.0 20997.0 27424.0 79175.0 83686.0 150787.0 144675.0 155953.0 163602.0 149332.0 146748.0 174158.0 168373.0 140364.0 148396.0 28723.0 36493.0 103224.0 98497.0 137857.0 138824.0 88209.0 89878.0 157104.0 148918.0 29382.0 21190.0 63495.0 195567.0 63495.0 63495.0 195567.0 195567.0
177789.0 175739.0 88534.0 87567.0 0.0 8061.0 89197.0 81283.0 147932.0 155656.0 36237.0 29358.0 316323.0 314659.0 24642.0 24257.0 103363.0 105558.0 61192.0 68970.0 116503.0 113794.0 63979.0 61003.0 243198.0 249476.0 125661.0 121489.0 198671.0 196668.0 15059.0 16293.0 303420.0 301543.0 195711.0 189936.0 79829.0 74324.0 200405.0 200963.0 11809.0 16264.0 89763.0 85970.0 71267.0 78395.0 249197.0 243017.0 64315.0 67169.0 275524.0 276422.0 101226.0 94151.0 67807.0 60303.0 49142.0 43214.0 65720.0 58746.0 74984.0 81609.0 82648.0 84276.0 96695.0 89457.0 58077.0 65572.0 88331.0 92154.0 18611.0 11617.0 65017.0 69913.0 12777.0 5523.0 90265.0 81911.0 104256.0 100576.0 89706.0 148561.0 89706.0 89706.0 148561.0 148561.0
185604.0 183459.0 80545.0 79515.0 8061.0 0.0 95702.0 87642.0 151117.0 158931.0 44285.0 37308.0 319779.0 318295.0 29407.0 30807.0 95362.0 97661.0 66624.0 74218.0 120568.0 118096.0 70246.0 66650.0 248064.0 254209.0 131744.0 127261.0 206312.0 204203.0 20182.0 18113.0 306852.0 304922.0 201091.0 195486.0 71769.0 66292.0 205409.0 206195.0 8746.0 9037.0 96737.0 93232.0 74850.0 81853.0 254068.0 248023.0 56728.0 59314.0 279223.0 279928.0 108849.0 101677.0 59757.0 52243.0 45805.0 40876.0 73412.0 66564.0 82040.0 88866.0 86971.0 87959.0 103351.0 96284.0 65237.0 72880.0 80874.0 84967.0 25426.0 19277.0 70073.0 74359.0 14648.0 11261.0 94739.0 86274.0 96387.0 92594.0 83699.0 151405.0 83699.0 83699.0 151405.0 151405.0
141837.0 144067.0 164192.0 165996.0 89197.0 95702.0 0.0 8419.0 84213.0 89776.0 66401.0 73105.0 240823.0 237856.0 67276.0 64992.0 178349.0 177482.0 32398.0 28001.0 50007.0 45275.0 99237.0 104369.0 159310.0 166297.0 140748.0 142055.0 167152.0 168882.0 92819.0 100096.0 228326.0 227796.0 109651.0 103095.0 160139.0 156787.0 116437.0 115624.0 90895.0 99050.0 9904.0 16862.0 43495.0 43972.0 165203.0 158336.0 135934.0 142105.0 198974.0 201329.0 92043.0 91150.0 149907.0 141721.0 135688.0 128385.0 34751.0 41699.0 17655.0 17613.0 129357.0 135724.0 8190.0 6601.0 32932.0 28020.0 154516.0 154256.0 86626.0 84231.0 111805.0 119791.0 98130.0 90974.0 133460.0 128507.0 188651.0 183339.0 141771.0 88619.0 141771.0 141771.0 88619.0 88619.0
145856.0 147672.0 155789.0 157579.0 81283.0 87642.0 8419.0 0.0 85801.0 91875.0 60205.0 66525.0 245577.0 242824.0 59023.0 57035.0 169963.0 169141.0 24030.0 20170.0 50919.0 46392.0 95076.0 99736.0 165494.0 172337.0 139608.0 140422.0 170995.0 172371.0 85494.0 92627.0 232984.0 232211.0 116271.0 109935.0 151723.0 148390.0 122522.0 122060.0 82664.0 90803.0 14951.0 19185.0 36729.0 38190.0 171423.0 164704.0 127539.0 133693.0 203807.0 205916.0 91971.0 90353.0 141510.0 133322.0 128265.0 121073.0 31065.0 37104.0 14108.0 17909.0 125138.0 131233.0 16588.0 12284.0 26402.0 23024.0 146242.0 146077.0 79531.0 76749.0 107141.0 115095.0 90543.0 83248.0 129623.0 124279.0 180268.0 174933.0 133739.0 89649.0 133739.0 133739.0 89649.0 89649.0
216227.0 220096.0 191159.0 195697.0 147932.0 151117.0 84213.0 85801.0 0.0 7995.0 140829.0 145173.0 168743.0 167516.0 123521.0 126864.0 202620.0 199124.0 91601.0 83982.0 35019.0 39419.0 179571.0 183328.0 106678.0 110953.0 224945.0 226084.0 241626.0 244800.0 157982.0 163216.0 155801.0 153863.0 74070.0 73664.0 192965.0 192881.0 70330.0 75135.0 143163.0 149605.0 93134.0 100833.0 76725.0 69560.0 112405.0 108441.0 164956.0 172648.0 128674.0 128981.0 176092.0 175363.0 186669.0 179188.0 196802.0 191146.0 116760.0 122118.0 99886.0 101796.0 209248.0 214740.0 84281.0 90135.0 109139.0 108227.0 174821.0 172170.0 154267.0 148737.0 190558.0 198328.0 160129.0 152054.0 214325.0 208381.0 223683.0 216351.0 158600.0 7151.0 158600.0 158600.0 7151.0 7151.0
219090.0 223203.0 199150.0 203689.0 155656.0 158931.0 89776.0 91875.0 7995.0 0.0 147839.0 152351.0 160874.0 159588.0 131195.0 134387.0 210612.0 207115.0 98783.0 91078.0 41585.0 45732.0 186176.0 190104.0 99180.0 103290.0 230477.0 231823.0 244402.0 247801.0 165537.0 170860.0 147938.0 145999.0 68620.0 68904.0 200956.0 200872.0 63927.0 69134.0 151016.0 157503.0 98401.0 106188.0 84406.0 77262.0 104859.0 101088.0 172947.0 180639.0 120714.0 121080.0 181291.0 180827.0 194661.0 187173.0 204580.0 198868.0 122924.0 128512.0 105896.0 107389.0 215961.0 221565.0 89278.0 95495.0 115783.0 114538.0 182812.0 180161.0 161707.0 156281.0 197371.0 205178.0 167800.0 159725.0 220911.0 215095.0 231675.0 224342.0 166591.0 11757.0 166591.0 166591.0 11757.0 11757.0
142375.0 140761.0 124715.0 123800.0 36237.0 44285.0 66401.0 60205.0 140829.0 147839.0 0.0 8006.0 305111.0 302585.0 33957.0 25416.0 139559.0 141561.0 49449.0 56868.0 106364.0 102557.0 41642.0 43443.0 225615.0 232513.0 99949.0 97635.0 164017.0 162513.0 31013.0 38933.0 292421.0 291329.0 176049.0 169437.0 116010.0 110317.0 182675.0 182013.0 45453.0 52090.0 63531.0 57709.0 68031.0 74758.0 231527.0 224716.0 99767.0 103142.0 263473.0 265305.0 67177.0 60820.0 103900.0 96501.0 72441.0 64608.0 34867.0 26981.0 49250.0 53668.0 69451.0 74279.0 72345.0 64336.0 33806.0 38665.0 123340.0 126448.0 23503.0 25632.0 50313.0 57831.0 38475.0 34349.0 75455.0 68588.0 139500.0 136298.0 120994.0 143177.0 120994.0 120994.0 143177.0 143177.0
148505.0 146594.0 117853.0 116698.0 29358.0 37308.0 73105.0 66525.0 145173.0 152351.0 8006.0 0.0 310543.0 308163.0 31877.0 23792.0 132665.0 134916.0 53576.0 61296.0 111085.0 107460.0 41425.0 41693.0 232012.0 238821.0 101770.0 98823.0 169665.0 167883.0 23022.0 30938.0 297804.0 296552.0 182695.0 176198.0 108788.0 102933.0 189031.0 188560.0 39434.0 45512.0 70779.0 65220.0 70823.0 77777.0 237945.0 231223.0 93490.0 96522.0 269008.0 270680.0 72369.0 65586.0 96595.0 89325.0 64586.0 56802.0 42569.0 34731.0 56277.0 61104.0 67213.0 71337.0 79359.0 71414.0 40218.0 45745.0 117317.0 120751.0 15497.0 18214.0 47983.0 55035.0 30566.0 26901.0 73746.0 66366.0 131814.0 128758.0 116316.0 147199.0 116316.0 116316.0 147199.0 147199.0
334145.0 340763.0 359656.0 364195.0 316323.0 319779.0 240823.0 245577.0 168743.0 160874.0 305111.0 310543.0 0.0 8049.0 291756.0 294405.0 371118.0 367621.0 257676.0 249740.0 200238.0 203445.0 340025.0 345157.0 92301.0 84272.0 373762.0 377064.0 356165.0 362087.0 325576.0 331249.0 12954.0 17418.0 139646.0 147643.0 361462.0 361378.0 128690.0 132540.0 311889.0 318339.0 246955.0 254633.0 245077.0 237989.0 88254.0 96259.0 333453.0 341145.0 41892.0 39932.0 323553.0 325472.0 355166.0 347686.0 365357.0 359496.0 275568.0 282412.0 258426.0 257258.0 370136.0 376546.0 237113.0 244880.0 271602.0 268451.0 343318.0 340667.0 321228.0 316303.0 352586.0 360564.0 328289.0 320230.0 373979.0 369290.0 392181.0 384848.0 327097.0 170417.0 327097.0 327097.0 170417.0 170417.0
328581.0 335284.0 358528.0 363066.0 314659.0 318295.0 237856.0 242824.0 167516.0 159588.0 302585.0 308163.0 8049.0 0.0 290050.0 292480.0 369989.0 366492.0 255554.0 247600.0 198322.0 201389.0 336955.0 342225.0 86816.0 78762.0 369637.0 373083.0 350383.0 356391.0 323618.0 329422.0 14310.0 21292.0 135100.0 143065.0 360333.0 360250.0 124520.0 128027.0 310503.0 317078.0 243747.0 251368.0 243490.0 236447.0 82487.0 90537.0 332324.0 340017.0 39193.0 38674.0 319505.0 321592.0 354038.0 346557.0 363756.0 357775.0 272567.0 279515.0 255492.0 254093.0 367044.0 373547.0 233920.0 241751.0 268969.0 265611.0 342189.0 339538.0 319120.0 314349.0 349661.0 357647.0 326511.0 318468.0 370747.0 366201.0 391052.0 383719.0 325969.0 168223.0 325969.0 325969.0 168223.0 168223.0
173264.0 172342.0 100286.0 100996.0 24642.0 29407.0 67276.0 59023.0 123521.0 131195.0 33957.0 31877.0 291756.0 290050.0 0.0 8555.0 114985.0 115532.0 37253.0 44811.0 91862.0 89164.0 73253.0 72910.0 218783.0 224995.0 133458.0 130675.0 195880.0 194869.0 35122.0 39729.0 278861.0 277010.0 171684.0 166091.0 94372.0 90310.0 176070.0 176801.0 23651.0 31780.0 69424.0 67020.0 46797.0 53965.0 224785.0 218687.0 72953.0 77963.0 250906.0 251845.0 100238.0 94310.0 83455.0 75343.0 73784.0 67740.0 50408.0 45245.0 55231.0 62710.0 97617.0 100819.0 75167.0 68559.0 39368.0 47404.0 94831.0 96728.0 33214.0 26231.0 78626.0 85031.0 36609.0 28533.0 104587.0 96798.0 121859.0 116988.0 88850.0 124359.0 88850.0 88850.0 124359.0 124359.0
165209.0 164157.0 106255.0 106509.0 24257.0 30807.0 64992.0 57035.0 126864.0 134387.0 25416.0 23792.0 294405.0 292480.0 8555.0 0.0 121052.0 122004.0 37481.0 45397.0 94175.0 91130.0 65211.0 65269.0 219604.0 226007.0 125069.0 122407.0 187652.0 186550.0 31185.0 37098.0 281549.0 279832.0 171733.0 165857.0 99517.0 94962.0 176717.0 177087.0 27229.0 35329.0 65962.0 62711.0 50493.0 57675.0 225596.0 219299.0 79469.0 84025.0 253294.0 254472.0 91771.0 85787.0 88176.0 80196.0 72381.0 65745.0 44278.0 38407.0 51326.0 58349.0 90374.0 93938.0 72572.0 65477.0 34683.0 42520.0 101939.0 104184.0 27684.0 21913.0 71247.0 77920.0 34458.0 26678.0 97164.0 89542.0 126049.0 121610.0 96959.0 128140.0 96959.0 96959.0 128140.0 128140.0
280552.0 278041.0 14862.0 17281.0 103363.0 95362.0 178349.0 169963.0 202620.0 210612.0 139559.0 132665.0 371118.0 369989.0 114985.0 121052.0 0.0 8285.0 145953.0 151220.0 182271.0 182031.0 160259.0 154462.0 307950.0 312722.0 218249.0 212133.0 300489.0 297866.0 112709.0 106368.0 358191.0 356250.0 267886.0 264177.0 26044.0 33769.0 268373.0 271326.0 94774.0 87544.0 182608.0 181330.0 141490.0 145972.0 313803.0 309216.0 42468.0 37042.0 331206.0 331415.0 203280.0 195800.0 38165.0 43996.0 96329.0 100947.0 165227.0 159424.0 169329.0 177125.0 166606.0 163979.0 186538.0 181142.0 154237.0 162285.0 28514.0 34156.0 119603.0 114531.0 155090.0 156101.0 104796.0 106012.0 174373.0 166194.0 33853.0 25792.0 65346.0 202490.0 65346.0 65346.0 202490.0 202490.0
283232.0 280939.0 18187.0 23060.0 105558.0 97661.0 177482.0 169141.0 199124.0 207115.0 141561.0 134916.0 367621.0 366492.0 115532.0 122004.0 8285.0 0.0 145112.0 150039.0 179165.0 179130.0 164087.0 158560.0 304453.0 309225.0 222831.0 216901.0 303585.0 301157.0 115730.0 109731.0 354694.0 352754.0 264627.0 261125.0 31558.0 39479.0 264880.0 267889.0 96343.0 89479.0 182146.0 181224.0 139481.0 143640.0 310306.0 305719.0 42582.0 38419.0 327709.0 327918.0 206204.0 198835.0 42937.0 47742.0 101994.0 106200.0 165928.0 160405.0 169196.0 177079.0 171670.0 169332.0 185668.0 180547.0 154521.0 162555.0 24303.0 28492.0 122397.0 116929.0 159523.0 160879.0 107931.0 108563.0 179494.0 171228.0 42109.0 34077.0 60282.0 198994.0 60282.0 60282.0 198994.0 198994.0
161564.0 162398.0 131819.0 133725.0 61192.0 66624.0 32398.0 24030.0 91601.0 98783.0 49449.0 53576.0 257676.0 255554.0 37253.0 37481.0 145953.0 145112.0 0.0 7968.0 57655.0 54240.0 89709.0 92587.0 182138.0 188527.0 142189.0 141571.0 186069.0 186590.0 68259.0 74541.0 244871.0 243400.0 134544.0 128867.0 128029.0 124940.0 139277.0 139772.0 60659.0 68619.0 37608.0 38559.0 21083.0 26627.0 188132.0 181875.0 103548.0 109776.0 216361.0 217757.0 98816.0 95330.0 118068.0 109874.0 109847.0 103214.0 35170.0 36494.0 27270.0 35138.0 118638.0 123695.0 40587.0 35653.0 22194.0 26663.0 122268.0 122243.0 63567.0 59040.0 99634.0 107245.0 71938.0 64112.0 124268.0 117772.0 156919.0 151377.0 110237.0 93760.0 110237.0 110237.0 93760.0 93760.0
162890.0 164117.0 137290.0 139494.0 68970.0 74218.0 28001.0 20170.0 83982.0 91078.0 56868.0 61296.0 249740.0 247600.0 44811.0 45397.0 151220.0 150039.0 7968.0 0.0 49813.0 46323.0 96547.0 99731.0 174272.0 180629.0 147570.0 147285.0 187688.0 188543.0 76225.0 82478.0 236942.0 235500.0 126875.0 121302.0 134069.0 131265.0 131442.0 132028.0 67994.0 75854.0 34895.0 37448.0 17962.0 21785.0 180267.0 174050.0 108971.0 115436.0 208408.0 209826.0 102910.0 99914.0 124412.0 116227.0 117734.0 111141.0 38881.0 41544.0 27521.0 34695.0 125759.0 130981.0 36044.0 32426.0 27253.0 29863.0 126829.0 126376.0 71521.0 67002.0 106856.0 114539.0 79848.0 71993.0 131218.0 124892.0 163302.0 157560.0 113779.0 86341.0 113779.0 113779.0 86341.0 86341.0
187316.0 190480.0 169980.0 173811.0 116503.0 120568.0 50007.0 50919.0 35019.0 41585.0 106364.0 111085.0 200238.0 198322.0 91862.0 94175.0 182271.0 179165.0 57655.0 49813.0 0.0 4794.0 144626.0 148520.0 128746.0 134424.0 190391.0 191329.0 212817.0 215347.0 125339.0 131102.0 187394.0 185796.0 85665.0 81959.0 170102.0 169011.0 87180.0 89421.0 113173.0 120267.0 59382.0 66838.0 45947.0 39322.0 134732.0 129278.0 142610.0 150040.0 159146.0 160306.0 142036.0 140941.0 162460.0 154581.0 165645.0 159512.0 81787.0 87100.0 65026.0 67409.0 174381.0 179984.0 51276.0 56234.0 74212.0 73214.0 154874.0 152289.0 121068.0 116066.0 155789.0 163602.0 128214.0 120185.0 179372.0 173515.0 200641.0 193812.0 138719.0 38758.0 138719.0 138719.0 38758.0 38758.0
182637.0 185762.0 169517.0 173169.0 113794.0 118096.0 45275.0 46392.0 39419.0 45732.0 102557.0 107460.0 203445.0 201389.0 89164.0 91130.0 182031.0 179130.0 54240.0 46323.0 4794.0 0.0 140455.0 144470.0 130505.0 136370.0 185759.0 186756.0 208137.0 210632.0 122237.0 128157.0 190634.0 189179.0 86298.0 82194.0 169242.0 167935.0 88508.0 90373.0 110874.0 118114.0 54612.0 62091.0 43938.0 37650.0 136503.0 130851.0 141938.0 149286.0 162197.0 163523.0 137316.0 136275.0 161326.0 153384.0 162921.0 156663.0 77343.0 82794.0 60489.0 62718.0 170278.0 175962.0 46483.0 51474.0 70097.0 68851.0 154871.0 152402.0 117783.0 112972.0 151765.0 159605.0 125335.0 117337.0 175184.0 169413.0 199687.0 192983.0 138832.0 43398.0 138832.0 138832.0 43398.0 43398.0
124006.0 120214.0 146076.0 143209.0 63979.0 70246.0 99237.0 95076.0 179571.0 186176.0 41642.0 41425.0 340025.0 336955.0 73253.0 65211.0 160259.0 164087.0 89709.0 96547.0 144626.0 140455.0 0.0 8174.0 256592.0 263915.0 61702.0 57908.0 141534.0 138268.0 50138.0 54772.0 327552.0 327022.0 206103.0 198868.0 134599.0 127494.0 214272.0 212574.0 75722.0 79283.0 93302.0 85844.0 109263.0 115789.0 262346.0 255079.0 125785.0 126965.0 298157.0 300565.0 47826.0 39868.0 122216.0 116414.0 71841.0 64409.0 64489.0 57973.0 81714.0 82906.0 30121.0 36711.0 103090.0 95211.0 70432.0 72056.0 150081.0 154767.0 45399.0 53022.0 14291.0 21812.0 57130.0 59170.0 34757.0 29270.0 151494.0 150560.0 153675.0 182518.0 153675.0 153675.0 182518.0 182518.0
131454.0 127455.0 140464.0 137316.0 61003.0 66650.0 104369.0 99736.0 183328.0 190104.0 43443.0 41693.0 345157.0 342225.0 72910.0 65269.0 154462.0 158560.0 92587.0 99731.0 148520.0 144470.0 8174.0 0.0 262536.0 269785.0 65300.0 60611.0 148447.0 144948.0 46485.0 50174.0 332620.0 331933.0 212147.0 205006.0 128646.0 121396.0 220045.0 218539.0 72812.0 75628.0 98939.0 91657.0 111472.0 118192.0 268324.0 261133.0 121139.0 121908.0 303326.0 305582.0 55781.0 47847.0 116325.0 110820.0 64413.0 57164.0 69687.0 62749.0 86739.0 88509.0 26053.0 31527.0 108646.0 100677.0 74394.0 76754.0 145385.0 150359.0 42780.0 50671.0 7440.0 15430.0 52863.0 55891.0 32111.0 25187.0 144607.0 143938.0 150345.0 186013.0 150345.0 150345.0 186013.0 186013.0
241850.0 248500.0 296481.0 300920.0 243198.0 248064.0 159310.0 165494.0 106678.0 99180.0 225615.0 232012.0 92301.0 86816.0 218783.0 219604.0 307950.0 304453.0 182138.0 174272.0 128746.0 130505.0 256592.0 262536.0 0.0 8055.0 284801.0 288698.0 263910.0 269794.0 249977.0 256577.0 82346.0 85659.0 50621.0 58200.0 297859.0 297249.0 42998.0 44020.0 241144.0 248524.0 163687.0 170879.0 174442.0 168021.0 6004.0 5370.0 269992.0 277605.0 54816.0 61101.0 235054.0 237730.0 290808.0 283035.0 291983.0 285267.0 193228.0 200672.0 176805.0 174110.0 286368.0 293292.0 154117.0 162170.0 191867.0 187306.0 280150.0 277499.0 244556.0 240888.0 269950.0 277918.0 254056.0 246250.0 289382.0 285550.0 328548.0 321410.0 263929.0 110557.0 263929.0 263929.0 110557.0 110557.0
249890.0 256548.0 301228.0 305795.0 249476.0 254209.0 166297.0 172337.0 110953.0 103290.0 232513.0 238821.0 84272.0 78762.0 224995.0 226007.0 312722.0 309225.0 188527.0 180629.0 134424.0 136370.0 263915.0 269785.0 8055.0 0.0 292645.0 296492.0 271915.0 277816.0 256517.0 263034.0 74423.0 77899.0 58200.0 65887.0 302907.0 302461.0 49860.0 51456.0 247176.0 254478.0 170879.0 178137.0 180266.0 173744.0 5370.0 12310.0 274971.0 282621.0 47301.0 53812.0 242843.0 245451.0 296071.0 288354.0 298363.0 291721.0 200371.0 207764.0 183843.0 181308.0 293743.0 300623.0 161259.0 169297.0 198732.0 194313.0 284922.0 282271.0 251196.0 247394.0 277206.0 285182.0 260465.0 252621.0 296837.0 292922.0 333617.0 326390.0 268701.0 114448.0 268701.0 268701.0 114448.0 114448.0
88535.0 81748.0 204655.0 200985.0 125661.0 131744.0 140748.0 139608.0 224945.0 230477.0 99949.0 101770.0 373762.0 369637.0 133458.0 125069.0 218249.0 222831.0 142189.0 147570.0 190391.0 185759.0 61702.0 65300.0 284801.0 292645.0 0.0 8425.0 96856.0 91183.0 111567.0 115469.0 361937.0 362582.0 234771.0 226903.0 192234.0 184699.0 245130.0 241771.0 137419.0 140763.0 132136.0 124309.0 163101.0 168779.0 290094.0 282270.0 186351.0 186859.0 332173.0 335689.0 50320.0 49677.0 180126.0 175176.0 123886.0 117978.0 109576.0 106027.0 125539.0 123150.0 53230.0 58324.0 141517.0 134990.0 120352.0 118625.0 210553.0 215632.0 107098.0 114711.0 63372.0 62289.0 118151.0 120776.0 46408.0 53423.0 204883.0 205387.0 215326.0 229147.0 215326.0 215326.0 229147.0 229147.0
96835.0 90113.0 198714.0 194855.0 121489.0 127261.0 142055.0 140422.0 226084.0 231823.0 97635.0 98823.0 377064.0 373083.0 130675.0 122407.0 212133.0 216901.0 141571.0 147285.0 191329.0 186756.0 57908.0 60611.0 288698.0 296492.0 8425.0 0.0 105255.0 99530.0 107093.0 110553.0 365130.0 365604.0 238467.0 230651.0 186094.0 178486.0 248570.0 245421.0 133291.0 136235.0 133756.0 125882.0 162303.0 168198.0 294062.0 286291.0 181128.0 181360.0 335375.0 338735.0 53651.0 51785.0 174081.0 169357.0 117169.0 111510.0 109921.0 105831.0 126315.0 124446.0 46166.0 50757.0 143299.0 136501.0 120035.0 118867.0 205243.0 210514.0 103052.0 110804.0 57914.0 56037.0 113376.0 116458.0 38994.0 46438.0 197976.0 198690.0 210954.0 230070.0 210954.0 210954.0 230070.0 230070.0
25501.0 23734.0 285945.0 283741.0 198671.0 206312.0 167152.0 170995.0 241626.0 244402.0 164017.0 169665.0 356165.0 350383.0 195880.0 187652.0 300489.0 303585.0 186069.0 187688.0 212817.0 208137.0 141534.0 148447.0 263910.0 271915.0 96856.0 105255.0 0.0 8088.0 187867.0 194133.0 346150.0 348893.0 220411.0 212631.0 275293.0 268468.0 233074.0 227343.0 209095.0 214935.0 157321.0 151810.0 205647.0 208660.0 267939.0 259915.0 262985.0 265488.0 317559.0 322836.0 97463.0 104749.0 262862.0 256500.0 212671.0 205587.0 151788.0 153488.0 160204.0 153580.0 146606.0 153058.0 163005.0 160598.0 165592.0 159551.0 286951.0 290382.0 181227.0 187094.0 150048.0 152209.0 195720.0 195201.0 141133.0 146543.0 293006.0 292056.0 284593.0 247775.0 284593.0 284593.0 247775.0 247775.0
28965.0 24880.0 283407.0 281013.0 196668.0 204203.0 168882.0 172371.0 244800.0 247801.0 162513.0 167883.0 362087.0 356391.0 194869.0 186550.0 297866.0 301157.0 186590.0 188543.0 215347.0 210632.0 138268.0 144948.0 269794.0 277816.0 91183.0 99530.0 8088.0 0.0 185447.0 191512.0 351943.0 354564.0 225686.0 217856.0 272504.0 265569.0 238263.0 232661.0 207299.0 212921.0 159005.0 153213.0 206472.0 209736.0 273914.0 265874.0 260928.0 263211.0 323215.0 328395.0 95516.0 102528.0 260080.0 253872.0 208916.0 201968.0 151970.0 153259.0 161155.0 154772.0 141868.0 148110.0 165074.0 162298.0 165741.0 159971.0 284999.0 288626.0 178971.0 185061.0 146192.0 147989.0 193227.0 193029.0 136137.0 141844.0 289548.0 288812.0 283373.0 250835.0 283373.0 283373.0 250835.0 250835.0
167896.0 165334.0 98096.0 96180.0 15059.0 20182.0 92819.0 85494.0 157982.0 165537.0 31013.0 23022.0 325576.0 323618.0 35122.0 31185.0 112709.0 115730.0 68259.0 76225.0 125339.0 122237.0 50138.0 46485.0 249977.0 256517.0 111567.0 107093.0 187867.0 185447.0 0.0 7924.0 312725.0 311017.0 201498.0 195340.0 87935.0 81589.0 207010.0 207068.0 26677.0 29196.0 91774.0 86869.0 81416.0 88611.0 255954.0 249503.0 76012.0 77811.0 284428.0 285644.0 90572.0 83126.0 75556.0 68795.0 42906.0 35581.0 64825.0 57157.0 76975.0 82618.0 67596.0 69255.0 99717.0 92009.0 60171.0 66754.0 100295.0 104738.0 7607.0 9274.0 50134.0 54870.0 8031.0 9617.0 75234.0 66863.0 109464.0 106834.0 103862.0 159119.0 103862.0 103862.0 159119.0 159119.0
174570.0 171804.0 91901.0 89627.0 16293.0 18113.0 100096.0 92627.0 163216.0 170860.0 38933.0 30938.0 331249.0 329422.0 39729.0 37098.0 106368.0 109731.0 74541.0 82478.0 131102.0 128157.0 54772.0 50174.0 256577.0 263034.0 115469.0 110553.0 194133.0 191512.0 7924.0 0.0 318372.0 316525.0 208372.0 202313.0 81246.0 74670.0 213647.0 213855.0 26221.0 26432.0 99334.0 94571.0 86497.0 93676.0 262563.0 256193.0 71054.0 72243.0 290248.0 291323.0 97097.0 89516.0 68824.0 62373.0 35645.0 28690.0 72661.0 65026.0 84507.0 90299.0 69126.0 69891.0 107122.0 99483.0 67630.0 74376.0 95339.0 100194.0 15474.0 15878.0 52845.0 56622.0 3612.0 11317.0 76955.0 68450.0 101966.0 99559.0 100912.0 164086.0 100912.0 100912.0 164086.0 164086.0
323832.0 330333.0 346729.0 351267.0 303420.0 306852.0 228326.0 232984.0 155801.0 147938.0 292421.0 297804.0 12954.0 14310.0 278861.0 281549.0 358191.0 354694.0 244871.0 236942.0 187394.0 190634.0 327552.0 332620.0 82346.0 74423.0 361937.0 365130.0 346150.0 351943.0 312725.0 318372.0 0.0 7961.0 128362.0 136374.0 348535.0 348451.0 117085.0 121241.0 298954.0 305394.0 234575.0 242281.0 232167.0 225074.0 78765.0 86631.0 320526.0 328218.0 29764.0 27124.0 311682.0 313479.0 342239.0 334759.0 352443.0 346599.0 263076.0 269871.0 245908.0 244852.0 357670.0 364036.0 224730.0 232460.0 258956.0 255890.0 330391.0 327740.0 308412.0 303452.0 340046.0 348018.0 315403.0 307342.0 361582.0 356821.0 379254.0 371921.0 314170.0 157477.0 314170.0 314170.0 157477.0 157477.0
326304.0 332687.0 344789.0 349327.0 301543.0 304922.0 227796.0 232211.0 153863.0 145999.0 291329.0 296552.0 17418.0 21292.0 277010.0 279832.0 356250.0 352754.0 243400.0 235500.0 185796.0 189179.0 327022.0 331933.0 85659.0 77899.0 362582.0 365604.0 348893.0 354564.0 311017.0 316525.0 7961.0 0.0 130024.0 138030.0 346595.0 346511.0 118355.0 122907.0 297014.0 303461.0 234306.0 242063.0 230279.0 223172.0 82508.0 90198.0 318586.0 326278.0 31355.0 26905.0 312281.0 313880.0 340299.0 332819.0 350536.0 344738.0 262534.0 269206.0 245315.0 244518.0 357141.0 363401.0 224461.0 232106.0 258015.0 255180.0 328451.0 325800.0 306863.0 301745.0 339346.0 347304.0 313580.0 305513.0 361205.0 356289.0 377313.0 369981.0 312230.0 155537.0 312230.0 312230.0 155537.0 155537.0
197100.0 203205.0 255644.0 259422.0 195711.0 201091.0 109651.0 116271.0 74070.0 68620.0 176049.0 182695.0 139646.0 135100.0 171684.0 171733.0 267886.0 264627.0 134544.0 126875.0 85665.0 86298.0 206103.0 212147.0 50621.0 58200.0 234771.0 238467.0 220411.0 225686.0 201498.0 208372.0 128362.0 130024.0 0.0 8013.0 255539.0 254152.0 13028.0 7123.0 194670.0 202347.0 113480.0 120531.0 129510.0 123700.0 56284.0 48986.0 228201.0 235575.0 98826.0 103361.0 184819.0 187303.0 247507.0 239517.0 243967.0 237000.0 143087.0 150639.0 126951.0 123876.0 235817.0 242785.0 104047.0 112117.0 142477.0 137513.0 240324.0 237672.0 195750.0 192553.0 219548.0 227504.0 206034.0 198398.0 238776.0 235002.0 285960.0 279281.0 224102.0 80125.0 224102.0 224102.0 80125.0 80125.0
189233.0 195299.0 251710.0 255313.0 189936.0 195486.0 103095.0 109935.0 73664.0 68904.0 169437.0 176198.0 147643.0 143065.0 166091.0 165857.0 264177.0 261125.0 128867.0 121302.0 81959.0 82194.0 198868.0 205006.0 58200.0 65887.0 226903.0 230651.0 212631.0 217856.0 195340.0 202313.0 136374.0 138030.0 8013.0 0.0 251221.0 249629.0 20470.0 15136.0 189245.0 197005.0 106556.0 113480.0 124802.0 119224.0 63761.0 56284.0 224077.0 231372.0 106838.0 111353.0 177001.0 179564.0 242938.0 234902.0 237943.0 230889.0 136174.0 143789.0 120244.0 116915.0 228502.0 235523.0 97241.0 105308.0 135998.0 130825.0 236833.0 234236.0 189466.0 186463.0 212392.0 220336.0 200047.0 192485.0 231361.0 227692.0 281526.0 274976.0 220667.0 80081.0 220667.0 220667.0 80081.0 80081.0
255783.0 253047.0 14177.0 8764.0 79829.0 71769.0 160139.0 151723.0 192965.0 200956.0 116010.0 108788.0 361462.0 360333.0 94372.0 99517.0 26044.0 31558.0 128029.0 134069.0 170102.0 169242.0 134599.0 128646.0 297859.0 302907.0 192234.0 186094.0 275293.0 272504.0 87935.0 81246.0 348535.0 346595.0 255539.0 251221.0 0.0 7927.0 257176.0 259511.0 72475.0 64713.0 163427.0 161379.0 126688.0 132007.0 303774.0 298825.0 28077.0 20325.0 321550.0 321759.0 178340.0 170758.0 12431.0 19535.0 70489.0 74932.0 143751.0 137465.0 149529.0 157078.0 140571.0 138008.0 168268.0 162274.0 133683.0 141689.0 32612.0 40607.0 95068.0 90574.0 129129.0 130065.0 79936.0 81908.0 148345.0 140155.0 30719.0 23756.0 64505.0 192835.0 64505.0 64505.0 192835.0 192835.0
249227.0 246356.0 21991.0 16558.0 74324.0 66292.0 156787.0 148390.0 192881.0 200872.0 110317.0 102933.0 361378.0 360250.0 90310.0 94962.0 33769.0 39479.0 124940.0 131265.0 169011.0 167935.0 127494.0 121396.0 297249.0 302461.0 184699.0 178486.0 268468.0 265569.0 81589.0 74670.0 348451.0 346511.0 254152.0 249629.0 7927.0 0.0 256185.0 258303.0 67755.0 59779.0 159658.0 157285.0 124857.0 130458.0 303189.0 298074.0 29373.0 21744.0 321467.0 321676.0 171725.0 164083.0 6880.0 15070.0 62618.0 67189.0 139022.0 132525.0 145540.0 152956.0 132867.0 130212.0 164865.0 158641.0 129418.0 137374.0 38864.0 46807.0 88856.0 84746.0 121702.0 122477.0 73562.0 76036.0 140620.0 132462.0 32058.0 26682.0 68264.0 192751.0 68264.0 68264.0 192751.0 192751.0
209604.0 215606.0 256564.0 260661.0 200405.0 205409.0 116437.0 122522.0 70330.0 63927.0 182675.0 189031.0 128690.0 124520.0 176070.0 176717.0 268373.0 264880.0 139277.0 131442.0 87180.0 88508.0 214272.0 220045.0 42998.0 49860.0 245130.0 248570.0 233074.0 238263.0 207010.0 213647.0 117085.0 118355.0 13028.0 20470.0 257176.0 256185.0 0.0 7469.0 198634.0 206120.0 121110.0 128439.0 132361.0 126157.0 48957.0 42617.0 229535.0 237039.0 87382.0 91543.0 194985.0 197135.0 249639.0 241756.0 249097.0 242335.0 150555.0 157920.0 133986.0 131540.0 244178.0 250983.0 111451.0 119478.0 148907.0 144453.0 240577.0 237927.0 201562.0 197935.0 227473.0 235455.0 211156.0 203380.0 247436.0 243351.0 287766.0 280851.0 224357.0 75676.0 224357.0 224357.0 75676.0 75676.0
204104.0 210243.0 259284.0 263212.0 200963.0 206195.0 115624.0 122060.0 75135.0 69134.0 182013.0 188560.0 132540.0 128027.0 176801.0 177087.0 271326.0 267889.0 139772.0 132028.0 89421.0 90373.0 212574.0 218539.0 44020.0 51456.0 241771.0 245421.0 227343.0 232661.0 207068.0 213855.0 121241.0 122907.0 7123.0 15136.0 259511.0 258303.0 7469.0 0.0 199627.0 207229.0 119742.0 126887.0 133946.0 127956.0 49785.0 42722.0 232024.0 239461.0 91704.0 96258.0 191779.0 194197.0 251700.0 243754.0 249406.0 242516.0 149317.0 156812.0 133026.0 130157.0 242350.0 249272.0 110225.0 118289.0 148353.0 143563.0 243592.0 240959.0 201430.0 198070.0 225949.0 233915.0 211458.0 203764.0 245393.0 241532.0 290017.0 283229.0 227389.0 80817.0 227389.0 227389.0 80817.0 80817.0
187772.0 185991.0 79916.0 79698.0 11809.0 8746.0 90895.0 82664.0 143163.0 151016.0 45453.0 39434.0 311889.0 310503.0 23651.0 27229.0 94774.0 96343.0 60659.0 67994.0 113173.0 110874.0 75722.0 72812.0 241144.0 247176.0 137419.0 133291.0 209095.0 207299.0 26677.0 26221.0 298954.0 297014.0 194670.0 189245.0 72475.0 67755.0 198634.0 199627.0 0.0 8189.0 92717.0 89825.0 67283.0 74179.0 247148.0 241222.0 54323.0 57979.0 271476.0 272075.0 111784.0 104900.0 60989.0 53062.0 54144.0 49496.0 71308.0 65002.0 78271.0 85472.0 94227.0 95608.0 98744.0 91999.0 61835.0 69726.0 77938.0 81327.0 30323.0 22906.0 76770.0 81521.0 22633.0 17065.0 101896.0 93502.0 98845.0 94388.0 78028.0 143376.0 78028.0 78028.0 143376.0 143376.0
194005.0 191993.0 72686.0 72127.0 16264.0 9037.0 99050.0 90803.0 149605.0 157503.0 52090.0 45512.0 318339.0 317078.0 31780.0 35329.0 87544.0 89479.0 68619.0 75854.0 120267.0 118114.0 79283.0 75628.0 248524.0 254478.0 140763.0 136235.0 214935.0 212921.0 29196.0 26432.0 305394.0 303461.0 202347.0 197005.0 64713.0 59779.0 206120.0 207229.0 8189.0 0.0 100906.0 97983.0 74321.0 81086.0 254528.0 248678.0 48052.0 51062.0 278116.0 278582.0 117489.0 110398.0 53057.0 45223.0 49080.0 45373.0 79244.0 72791.0 86450.0 93627.0 95548.0 96258.0 106914.0 100185.0 69979.0 77848.0 72083.0 76025.0 34382.0 27860.0 78919.0 83006.0 23178.0 20240.0 103361.0 94867.0 90719.0 86368.0 74759.0 149722.0 74759.0 74759.0 149722.0 149722.0
132035.0 134199.0 168235.0 169642.0 89763.0 96737.0 9904.0 14951.0 93134.0 98401.0 63531.0 70779.0 246955.0 243747.0 69424.0 65962.0 182608.0 182146.0 37608.0 34895.0 59382.0 54612.0 93302.0 98939.0 163687.0 170879.0 132136.0 133756.0 157321.0 159005.0 91774.0 99334.0 234575.0 234306.0 113480.0 106556.0 163427.0 159658.0 121110.0 119742.0 92717.0 100906.0 0.0 7886.0 51677.0 52894.0 169509.0 162421.0 140140.0 145993.0 205066.0 207687.0 82959.0 82463.0 152789.0 144641.0 134634.0 127100.0 29618.0 37272.0 14850.0 10431.0 123338.0 129984.0 9847.0 3303.0 31813.0 25090.0 159618.0 159784.0 85132.0 83632.0 106369.0 114354.0 97681.0 90957.0 127025.0 122500.0 191281.0 186315.0 147836.0 97785.0 147836.0 147836.0 97785.0 97785.0
126678.0 128497.0 166803.0 167873.0 85970.0 93232.0 16862.0 19185.0 100833.0 106188.0 57709.0 65220.0 254633.0 251368.0 67020.0 62711.0 181330.0 181224.0 38559.0 37448.0 66838.0 62091.0 85844.0 91657.0 170879.0 178137.0 124309.0 125882.0 151810.0 153213.0 86869.0 94571.0 242281.0 242063.0 120531.0 113480.0 161379.0 157285.0 128439.0 126887.0 89825.0 97983.0 7886.0 0.0 55059.0 57166.0 176671.0 169509.0 138926.0 144489.0 212741.0 215419.0 75283.0 74644.0 150443.0 142350.0 129549.0 121892.0 23061.0 30926.0 12032.0 4367.0 115817.0 122551.0 17644.0 10701.0 28032.0 20407.0 159142.0 159702.0 79981.0 79077.0 99073.0 107046.0 93134.0 86745.0 119379.0 114984.0 188652.0 183967.0 148365.0 105378.0 148365.0 148365.0 105378.0 105378.0
180850.0 182069.0 128212.0 131236.0 71267.0 74850.0 43495.0 36729.0 76725.0 84406.0 68031.0 70823.0 245077.0 243490.0 46797.0 50493.0 141490.0 139481.0 21083.0 17962.0 45947.0 43938.0 109263.0 111472.0 174442.0 180266.0 163101.0 162303.0 205647.0 206472.0 81416.0 86497.0 232167.0 230279.0 129510.0 124802.0 126688.0 124857.0 132361.0 133946.0 67283.0 74321.0 51677.0 55059.0 0.0 7195.0 180439.0 174773.0 100102.0 107135.0 204393.0 205189.0 119845.0 116413.0 118147.0 110100.0 120285.0 114472.0 55995.0 57574.0 45479.0 52530.0 137457.0 142031.0 50910.0 48880.0 43273.0 47201.0 115629.0 114275.0 78140.0 72217.0 118272.0 125634.0 83405.0 75329.0 143464.0 136597.0 156809.0 150430.0 100929.0 77703.0 100929.0 100929.0 77703.0 77703.0
183676.0 185186.0 132974.0 136267.0 78395.0 81853.0 43972.0 38190.0 69560.0 77262.0 74758.0 77777.0 237989.0 236447.0 53965.0 57675.0 145972.0 143640.0 26627.0 21785.0 39322.0 37650.0 115789.0 118192.0 168021.0 173744.0 168779.0 168198.0 208660.0 209736.0 88611.0 93676.0 225074.0 223172.0 123700.0 119224.0 132007.0 130458.0 126157.0 127956.0 74179.0 81086.0 52894.0 57166.0 7195.0 0.0 174012.0 168457.0 105052.0 112240.0 197370.0 198112.0 124664.0 121545.0 123807.0 115825.0 127369.0 121606.0 60638.0 62889.0 48615.0 55096.0 144209.0 148888.0 50772.0 49879.0 48522.0 51644.0 119599.0 117834.0 85309.0 79411.0 125053.0 132472.0 90572.0 82496.0 150120.0 143346.0 162311.0 155763.0 104309.0 70508.0 104309.0 104309.0 70508.0 70508.0
246101.0 252833.0 302341.0 306805.0 249197.0 254068.0 165203.0 171423.0 112405.0 104859.0 231527.0 237945.0 88254.0 82487.0 224785.0 225596.0 313803.0 310306.0 188132.0 180267.0 134732.0 136503.0 262346.0 268324.0 6004.0 5370.0 290094.0 294062.0 267939.0 273914.0 255954.0 262563.0 78765.0 82508.0 56284.0 63761.0 303774.0 303189.0 48957.0 49785.0 247148.0 254528.0 169509.0 176671.0 180439.0 174012.0 0.0 8065.0 275894.0 283514.0 52203.0 58849.0 240429.0 243186.0 296755.0 288989.0 297975.0 291253.0 199066.0 206528.0 182681.0 179928.0 292091.0 299039.0 159960.0 168017.0 197790.0 193191.0 286003.0 283353.0 250519.0 246869.0 275735.0 283700.0 260046.0 252244.0 295058.0 291276.0 334467.0 327315.0 269783.0 116178.0 269783.0 269783.0 116178.0 116178.0
238045.0 244771.0 297696.0 302030.0 243017.0 248023.0 158336.0 164704.0 108441.0 101088.0 224716.0 231223.0 96259.0 90537.0 218687.0 219299.0 309216.0 305719.0 181875.0 174050.0 129278.0 130851.0 255079.0 261133.0 5370.0 12310.0 282270.0 286291.0 259915.0 265874.0 249503.0 256193.0 86631.0 90198.0 48986.0 56284.0 298825.0 298074.0 42617.0 42722.0 241222.0 248678.0 162421.0 169509.0 174773.0 168457.0 8065.0 0.0 271026.0 278605.0 59589.0 66024.0 232672.0 235502.0 291591.0 283771.0 291674.0 284876.0 192013.0 199525.0 175749.0 172827.0 284762.0 291754.0 152933.0 161000.0 191029.0 186284.0 281416.0 278765.0 243967.0 240456.0 268533.0 276490.0 253728.0 245968.0 287645.0 283950.0 329486.0 322426.0 265195.0 112592.0 265195.0 265195.0 112592.0 112592.0
241989.0 240039.0 28321.0 31237.0 64315.0 56728.0 135934.0 127539.0 164956.0 172947.0 99767.0 93490.0 333453.0 332324.0 72953.0 79469.0 42468.0 42582.0 103548.0 108971.0 142610.0 141938.0 125785.0 121139.0 269992.0 274971.0 186351.0 181128.0 262985.0 260928.0 76012.0 71054.0 320526.0 318586.0 228201.0 224077.0 28077.0 29373.0 229535.0 232024.0 54323.0 48052.0 140140.0 138926.0 100102.0 105052.0 275894.0 271026.0 0.0 7799.0 293541.0 293750.0 165532.0 158400.0 24611.0 20220.0 73606.0 75219.0 123346.0 117855.0 126914.0 134741.0 137624.0 136628.0 144121.0 138676.0 112013.0 120055.0 24300.0 29503.0 82059.0 75894.0 123214.0 125843.0 68676.0 67932.0 145570.0 137065.0 58761.0 51422.0 40422.0 164826.0 40422.0 40422.0 164826.0 164826.0
244918.0 242729.0 22332.0 24133.0 67169.0 59314.0 142105.0 133693.0 172648.0 180639.0 103142.0 96522.0 341145.0 340017.0 77963.0 84025.0 37042.0 38419.0 109776.0 115436.0 150040.0 149286.0 126965.0 121908.0 277605.0 282621.0 186859.0 181360.0 265488.0 263211.0 77811.0 72243.0 328218.0 326278.0 235575.0 231372.0 20325.0 21744.0 237039.0 239461.0 57979.0 51062.0 145993.0 144489.0 107135.0 112240.0 283514.0 278605.0 7799.0 0.0 301234.0 301443.0 168045.0 160759.0 17546.0 14953.0 70951.0 73356.0 128185.0 122412.0 132514.0 140258.0 137147.0 135705.0 150280.0 144636.0 117256.0 125303.0 24466.0 31170.0 84266.0 78591.0 123525.0 125676.0 70174.0 70311.0 145074.0 136626.0 51038.0 43823.0 47048.0 172518.0 47048.0 47048.0 172518.0 172518.0
294950.0 301337.0 319745.0 324283.0 275524.0 279223.0 198974.0 203807.0 128674.0 120714.0 263473.0 269008.0 41892.0 39193.0 250906.0 253294.0 331206.0 327709.0 216361.0 208408.0 159146.0 162197.0 298157.0 303326.0 54816.0 47301.0 332173.0 335375.0 317559.0 323215.0 284428.0 290248.0 29764.0 31355.0 98826.0 106838.0 321550.0 321467.0 87382.0 91704.0 271476.0 278116.0 205066.0 212741.0 204393.0 197370.0 52203.0 59589.0 293541.0 301234.0 0.0 7469.0 281920.0 283734.0 315255.0 307774.0 324634.0 318621.0 233713.0 240588.0 216588.0 215373.0 328265.0 334697.0 195225.0 202998.0 229897.0 226647.0 303406.0 300755.0 279928.0 275161.0 310758.0 318738.0 287347.0 279308.0 332090.0 327419.0 352269.0 344936.0 287186.0 129679.0 287186.0 287186.0 129679.0 129679.0
300024.0 306314.0 319954.0 324492.0 276422.0 279928.0 201329.0 205916.0 128981.0 121080.0 265305.0 270680.0 39932.0 38674.0 251845.0 254472.0 331415.0 327918.0 217757.0 209826.0 160306.0 163523.0 300565.0 305582.0 61101.0 53812.0 335689.0 338735.0 322836.0 328395.0 285644.0 291323.0 27124.0 26905.0 103361.0 111353.0 321759.0 321676.0 91543.0 96258.0 272075.0 278582.0 207687.0 215419.0 205189.0 198112.0 58849.0 66024.0 293750.0 301443.0 7469.0 0.0 285391.0 287023.0 315464.0 307983.0 325473.0 319585.0 236079.0 242835.0 218892.0 217936.0 330684.0 337016.0 197840.0 205533.0 231858.0 228840.0 303615.0 300964.0 281304.0 276370.0 313005.0 320974.0 288368.0 280312.0 334657.0 329835.0 352478.0 345145.0 287395.0 129575.0 287395.0 287395.0 129575.0 129575.0
77528.0 74762.0 188658.0 186683.0 101226.0 108849.0 92043.0 91971.0 176092.0 181291.0 67177.0 72369.0 323553.0 319505.0 100238.0 91771.0 203280.0 206204.0 98816.0 102910.0 142036.0 137316.0 47826.0 55781.0 235054.0 242843.0 50320.0 53651.0 97463.0 95516.0 90572.0 97097.0 311682.0 312281.0 184819.0 177001.0 178340.0 171725.0 194985.0 191779.0 111784.0 117489.0 82959.0 75283.0 119845.0 124664.0 240429.0 232672.0 165532.0 168045.0 281920.0 285391.0 0.0 7971.0 165920.0 159341.0 119321.0 111684.0 64030.0 62607.0 78242.0 74677.0 65542.0 73460.0 92030.0 85970.0 76659.0 73072.0 189539.0 193110.0 83809.0 89639.0 59863.0 64956.0 98495.0 97745.0 64274.0 65032.0 197655.0 196053.0 188170.0 180652.0 188170.0 188170.0 180652.0 180652.0
85273.0 82289.0 181219.0 179138.0 94151.0 101677.0 91150.0 90353.0 175363.0 180827.0 60820.0 65586.0 325472.0 321592.0 94310.0 85787.0 195800.0 198835.0 95330.0 99914.0 140941.0 136275.0 39868.0 47847.0 237730.0 245451.0 49677.0 51785.0 104749.0 102528.0 83126.0 89516.0 313479.0 313880.0 187303.0 179564.0 170758.0 164083.0 197135.0 194197.0 104900.0 110398.0 82463.0 74644.0 116413.0 121545.0 243186.0 235502.0 158400.0 160759.0 283734.0 287023.0 7971.0 0.0 158332.0 151832.0 111358.0 103730.0 61182.0 58856.0 76383.0 73582.0 58631.0 66570.0 91846.0 85332.0 73144.0 70294.0 182480.0 186197.0 76494.0 82540.0 52068.0 57375.0 91005.0 90515.0 57928.0 58077.0 189817.0 188285.0 181724.0 179673.0 181724.0 181724.0 179673.0 179673.0
243374.0 240620.0 24808.0 20997.0 67807.0 59757.0 149907.0 141510.0 186669.0 194661.0 103900.0 96595.0 355166.0 354038.0 83455.0 88176.0 38165.0 42937.0 118068.0 124412.0 162460.0 161326.0 122216.0 116325.0 290808.0 296071.0 180126.0 174081.0 262862.0 260080.0 75556.0 68824.0 342239.0 340299.0 247507.0 242938.0 12431.0 6880.0 249639.0 251700.0 60989.0 53057.0 152789.0 150443.0 118147.0 123807.0 296755.0 291591.0 24611.0 17546.0 315255.0 315464.0 165920.0 158332.0 0.0 8193.0 59345.0 63281.0 132283.0 125837.0 138686.0 146116.0 128743.0 126416.0 157985.0 151765.0 122594.0 130557.0 38250.0 45942.0 82730.0 78387.0 116930.0 118044.0 67548.0 69696.0 136561.0 128306.0 38893.0 33534.0 64593.0 186539.0 64593.0 64593.0 186539.0 186539.0
236689.0 234094.0 29663.0 27424.0 60303.0 52243.0 141721.0 133322.0 179188.0 187173.0 96501.0 89325.0 347686.0 346557.0 75343.0 80196.0 43996.0 47742.0 109874.0 116227.0 154581.0 153384.0 116414.0 110820.0 283035.0 288354.0 175176.0 169357.0 256500.0 253872.0 68795.0 62373.0 334759.0 332819.0 239517.0 234902.0 19535.0 15070.0 241756.0 243754.0 53062.0 45223.0 144641.0 142350.0 110100.0 115825.0 288989.0 283771.0 20220.0 14953.0 307774.0 307983.0 159341.0 151832.0 8193.0 0.0 56662.0 59679.0 124369.0 118007.0 130572.0 138029.0 124472.0 122579.0 149802.0 143602.0 114537.0 122514.0 38749.0 45873.0 75805.0 71115.0 111831.0 113396.0 60847.0 62476.0 132355.0 123994.0 47075.0 41674.0 60608.0 179059.0 60608.0 60608.0 179059.0 179059.0
195823.0 191865.0 84053.0 79175.0 49142.0 45805.0 135688.0 128265.0 196802.0 204580.0 72441.0 64586.0 365357.0 363756.0 73784.0 72381.0 96329.0 101994.0 109847.0 117734.0 165645.0 162921.0 71841.0 64413.0 291983.0 298363.0 123886.0 117169.0 212671.0 208916.0 42906.0 35645.0 352443.0 350536.0 243967.0 237943.0 70489.0 62618.0 249097.0 249406.0 54144.0 49080.0 134634.0 129549.0 120285.0 127369.0 297975.0 291674.0 73606.0 70951.0 324634.0 325473.0 119321.0 111358.0 59345.0 56662.0 0.0 8042.0 107130.0 99314.0 119857.0 125341.0 71080.0 67826.0 142622.0 134909.0 103076.0 109576.0 95298.0 102101.0 49569.0 51519.0 62735.0 61829.0 37951.0 45742.0 78635.0 70760.0 81132.0 81523.0 109849.0 197172.0 109849.0 109849.0 197172.0 197172.0
188411.0 184577.0 88089.0 83686.0 43214.0 40876.0 128385.0 121073.0 191146.0 198868.0 64608.0 56802.0 359496.0 357775.0 67740.0 65745.0 100947.0 106200.0 103214.0 111141.0 159512.0 156663.0 64409.0 57164.0 285267.0 291721.0 117978.0 111510.0 205587.0 201968.0 35581.0 28690.0 346599.0 344738.0 237000.0 230889.0 74932.0 67189.0 242335.0 242516.0 49496.0 45373.0 127100.0 121892.0 114472.0 121606.0 291253.0 284876.0 75219.0 73356.0 318621.0 319585.0 111684.0 103730.0 63281.0 59679.0 8042.0 0.0 99369.0 91530.0 112361.0 117709.0 65697.0 63135.0 135213.0 127448.0 95657.0 102019.0 97822.0 104281.0 41969.0 44449.0 55964.0 55705.0 31337.0 39330.0 73432.0 65308.0 87674.0 87559.0 109735.0 191730.0 109735.0 109735.0 191730.0 191730.0
127715.0 128060.0 150461.0 150787.0 65720.0 73412.0 34751.0 31065.0 116760.0 122924.0 34867.0 42569.0 275568.0 272567.0 50408.0 44278.0 165227.0 165928.0 35170.0 38881.0 81787.0 77343.0 64489.0 69687.0 193228.0 200371.0 109576.0 109921.0 151788.0 151970.0 64825.0 72661.0 263076.0 262534.0 143087.0 136174.0 143751.0 139022.0 150555.0 149317.0 71308.0 79244.0 29618.0 23061.0 55995.0 60638.0 199066.0 192013.0 123346.0 128185.0 233713.0 236079.0 64030.0 61182.0 132283.0 124369.0 107130.0 99369.0 0.0 7905.0 17275.0 19296.0 94609.0 100986.0 39115.0 31077.0 13809.0 9113.0 145088.0 146617.0 57678.0 57615.0 77126.0 85116.0 71538.0 65743.0 98805.0 93759.0 169725.0 165602.0 137159.0 120399.0 137159.0 137159.0 120399.0 120399.0
129911.0 129766.0 144609.0 144675.0 58746.0 66564.0 41699.0 37104.0 122118.0 128512.0 26981.0 34731.0 282412.0 279515.0 45245.0 38407.0 159424.0 160405.0 36494.0 41544.0 87100.0 82794.0 57973.0 62749.0 200672.0 207764.0 106027.0 105831.0 153488.0 153259.0 57157.0 65026.0 269871.0 269206.0 150639.0 143789.0 137465.0 132525.0 157920.0 156812.0 65002.0 72791.0 37272.0 30926.0 57574.0 62889.0 206528.0 199525.0 117855.0 122412.0 240588.0 242835.0 62607.0 58856.0 125837.0 118007.0 99314.0 91530.0 7905.0 0.0 24044.0 27064.0 88037.0 94196.0 46594.0 38526.0 14367.0 14083.0 140063.0 141932.0 49934.0 50189.0 70176.0 78152.0 64016.0 58466.0 92561.0 87179.0 162951.0 159022.0 133236.0 125451.0 133236.0 133236.0 125451.0 125451.0
135372.0 136664.0 154821.0 155953.0 74984.0 82040.0 17655.0 14108.0 99886.0 105896.0 49250.0 56277.0 258426.0 255492.0 55231.0 51326.0 169329.0 169196.0 27270.0 27521.0 65026.0 60489.0 81714.0 86739.0 176805.0 183843.0 125539.0 126315.0 160204.0 161155.0 76975.0 84507.0 245908.0 245315.0 126951.0 120244.0 149529.0 145540.0 133986.0 133026.0 78271.0 86450.0 14850.0 12032.0 45479.0 48615.0 182681.0 175749.0 126914.0 132514.0 216588.0 218892.0 78242.0 76383.0 138686.0 130572.0 119857.0 112361.0 17275.0 24044.0 0.0 8048.0 111830.0 118128.0 23100.0 15140.0 16967.0 10588.0 147117.0 147717.0 70406.0 68787.0 94173.0 102156.0 82834.0 76114.0 116077.0 110977.0 177015.0 172218.0 136518.0 103757.0 136518.0 136518.0 103757.0 103757.0
128581.0 130149.0 162578.0 163602.0 81609.0 88866.0 17613.0 17909.0 101796.0 107389.0 53668.0 61104.0 257258.0 254093.0 62710.0 58349.0 177125.0 177079.0 35138.0 34695.0 67409.0 62718.0 82906.0 88509.0 174110.0 181308.0 123150.0 124446.0 153580.0 154772.0 82618.0 90299.0 244852.0 244518.0 123876.0 116915.0 157078.0 152956.0 131540.0 130157.0 85472.0 93627.0 10431.0 4367.0 52530.0 55096.0 179928.0 172827.0 134741.0 140258.0 215373.0 217936.0 74677.0 73582.0 146116.0 138029.0 125341.0 117709.0 19296.0 27064.0 8048.0 0.0 112962.0 119577.0 20184.0 12419.0 23667.0 16056.0 155087.0 155735.0 75774.0 74772.0 95941.0 103926.0 88832.0 82408.0 116729.0 112122.0 184303.0 179638.0 144566.0 106109.0 144566.0 144566.0 106109.0 106109.0
133436.0 128083.0 153502.0 149332.0 82648.0 86971.0 129357.0 125138.0 209248.0 215961.0 69451.0 67213.0 370136.0 367044.0 97617.0 90374.0 166606.0 171670.0 118638.0 125759.0 174381.0 170278.0 30121.0 26053.0 286368.0 293743.0 53230.0 46166.0 146606.0 141868.0 67596.0 69126.0 357670.0 357141.0 235817.0 228502.0 140571.0 132867.0 244178.0 242350.0 94227.0 95548.0 123338.0 115817.0 137457.0 144209.0 292091.0 284762.0 137624.0 137147.0 328265.0 330684.0 65542.0 58631.0 128743.0 124472.0 71080.0 65697.0 94609.0 88037.0 111830.0 112962.0 0.0 7940.0 133145.0 125293.0 100183.0 102114.0 161384.0 167127.0 65687.0 73609.0 19238.0 12764.0 72395.0 77206.0 7946.0 867.0 151810.0 152572.0 169876.0 212006.0 169876.0 169876.0 212006.0 212006.0
140521.0 134995.0 151223.0 146748.0 84276.0 87959.0 135724.0 131233.0 214740.0 221565.0 74279.0 71337.0 376546.0 373547.0 100819.0 93938.0 163979.0 169332.0 123695.0 130981.0 179984.0 175962.0 36711.0 31527.0 293292.0 300623.0 58324.0 50757.0 153058.0 148110.0 69255.0 69891.0 364036.0 363401.0 242785.0 235523.0 138008.0 130212.0 250983.0 249272.0 95608.0 96258.0 129984.0 122551.0 142031.0 148888.0 299039.0 291754.0 136628.0 135705.0 334697.0 337016.0 73460.0 66570.0 126416.0 122579.0 67826.0 63135.0 100986.0 94196.0 118128.0 119577.0 7940.0 0.0 139756.0 131846.0 105907.0 108232.0 160085.0 166089.0 68190.0 75989.0 24197.0 16450.0 73310.0 78769.0 12001.0 8532.0 147804.0 148959.0 169977.0 217317.0 169977.0 169977.0 217317.0 217317.0
137575.0 140201.0 172375.0 174158.0 96695.0 103351.0 8190.0 16588.0 84281.0 89278.0 72345.0 79359.0 237113.0 233920.0 75167.0 72572.0 186538.0 185668.0 40587.0 36044.0 51276.0 46483.0 103090.0 108646.0 154117.0 161259.0 141517.0 143299.0 163005.0 165074.0 99717.0 107122.0 224730.0 224461.0 104047.0 97241.0 168268.0 164865.0 111451.0 110225.0 98744.0 106914.0 9847.0 17644.0 50910.0 50772.0 159960.0 152933.0 144121.0 150280.0 195225.0 197840.0 92030.0 91846.0 157985.0 149802.0 142622.0 135213.0 39115.0 46594.0 23100.0 20184.0 133145.0 139756.0 0.0 8071.0 39556.0 33681.0 162681.0 162379.0 93314.0 91301.0 116082.0 124070.0 105279.0 98275.0 136866.0 132305.0 196699.0 191436.0 149818.0 89199.0 149818.0 149818.0 89199.0 89199.0
135301.0 137489.0 166835.0 168373.0 89457.0 96284.0 6601.0 12284.0 90135.0 95495.0 64336.0 71414.0 244880.0 241751.0 68559.0 65477.0 181142.0 180547.0 35653.0 32426.0 56234.0 51474.0 95211.0 100677.0 162170.0 169297.0 134990.0 136501.0 160598.0 162298.0 92009.0 99483.0 232460.0 232106.0 112117.0 105308.0 162274.0 158641.0 119478.0 118289.0 91999.0 100185.0 3303.0 10701.0 48880.0 49879.0 168017.0 161000.0 138676.0 144636.0 202998.0 205533.0 85970.0 85332.0 151765.0 143602.0 134909.0 127448.0 31077.0 38526.0 15140.0 12419.0 125293.0 131846.0 8071.0 0.0 31853.0 25686.0 157869.0 157896.0 85509.0 83705.0 108115.0 116105.0 97723.0 90846.0 129125.0 124451.0 190354.0 185272.0 145762.0 94711.0 145762.0 145762.0 94711.0 94711.0
141516.0 141863.0 139588.0 140364.0 58077.0 65237.0 32932.0 26402.0 109139.0 115783.0 33806.0 40218.0 271602.0 268969.0 39368.0 34683.0 154237.0 154521.0 22194.0 27253.0 74212.0 70097.0 70432.0 74394.0 191867.0 198732.0 120352.0 120035.0 165592.0 165741.0 60171.0 67630.0 258956.0 258015.0 142477.0 135998.0 133683.0 129418.0 148907.0 148353.0 61835.0 69979.0 31813.0 28032.0 43273.0 48522.0 197790.0 191029.0 112013.0 117256.0 229897.0 231858.0 76659.0 73144.0 122594.0 114537.0 103076.0 95657.0 13809.0 14367.0 16967.0 23667.0 100183.0 105907.0 39556.0 31853.0 0.0 8048.0 133093.0 134255.0 53778.0 51865.0 81717.0 89595.0 65898.0 59148.0 105187.0 99317.0 160679.0 156095.0 124185.0 112154.0 124185.0 124185.0 112154.0 112154.0
135200.0 135854.0 147635.0 148396.0 65572.0 72880.0 28020.0 23024.0 108227.0 114538.0 38665.0 45745.0 268451.0 265611.0 47404.0 42520.0 162285.0 162555.0 26663.0 29863.0 73214.0 68851.0 72056.0 76754.0 187306.0 194313.0 118625.0 118867.0 159551.0 159971.0 66754.0 74376.0 255890.0 255180.0 137513.0 130825.0 141689.0 137374.0 144453.0 143563.0 69726.0 77848.0 25090.0 20407.0 47201.0 51644.0 193191.0 186284.0 120055.0 125303.0 226647.0 228840.0 73072.0 70294.0 130557.0 122514.0 109576.0 102019.0 9113.0 14083.0 10588.0 16056.0 102114.0 108232.0 33681.0 25686.0 8048.0 0.0 141067.0 142153.0 60050.0 58776.0 84170.0 92135.0 72839.0 66357.0 106635.0 101255.0 168565.0 164045.0 131866.0 111706.0 131866.0 131866.0 111706.0 111706.0
265703.0 263910.0 21521.0 28723.0 88331.0 80874.0 154516.0 146242.0 174821.0 182812.0 123340.0 117317.0 343318.0 342189.0 94831.0 101939.0 28514.0 24303.0 122268.0 126829.0 154874.0 154871.0 150081.0 145385.0 280150.0 284922.0 210553.0 205243.0 286951.0 284999.0 100295.0 95339.0 330391.0 328451.0 240324.0 236833.0 32612.0 38864.0 240577.0 243592.0 77938.0 72083.0 159618.0 159142.0 115629.0 119599.0 286003.0 281416.0 24300.0 24466.0 303406.0 303615.0 189539.0 182480.0 38250.0 38749.0 95298.0 97822.0 145088.0 140063.0 147117.0 155087.0 161384.0 160085.0 162681.0 157869.0 133093.0 141067.0 0.0 7995.0 106261.0 99940.0 147339.0 149768.0 92975.0 92111.0 169321.0 160847.0 57298.0 48785.0 36893.0 174691.0 36893.0 36893.0 174691.0 174691.0
268770.0 267199.0 29168.0 36493.0 92154.0 84967.0 154256.0 146077.0 172170.0 180161.0 126448.0 120751.0 340667.0 339538.0 96728.0 104184.0 34156.0 28492.0 122243.0 126376.0 152289.0 152402.0 154767.0 150359.0 277499.0 282271.0 215632.0 210514.0 290382.0 288626.0 104738.0 100194.0 327740.0 325800.0 237672.0 234236.0 40607.0 46807.0 237927.0 240959.0 81327.0 76025.0 159784.0 159702.0 114275.0 117834.0 283353.0 278765.0 29503.0 31170.0 300755.0 300964.0 193110.0 186197.0 45942.0 45873.0 102101.0 104281.0 146617.0 141932.0 147717.0 155735.0 167127.0 166089.0 162379.0 157896.0 134255.0 142153.0 7995.0 0.0 110390.0 103764.0 152607.0 155331.0 97654.0 96226.0 175073.0 166568.0 64628.0 56088.0 31861.0 172040.0 31861.0 31861.0 172040.0 172040.0
160950.0 158545.0 104915.0 103224.0 18611.0 25426.0 86626.0 79531.0 154267.0 161707.0 23503.0 15497.0 321228.0 319120.0 33214.0 27684.0 119603.0 122397.0 63567.0 71521.0 121068.0 117783.0 45399.0 42780.0 244556.0 251196.0 107098.0 103052.0 181227.0 178971.0 7607.0 15474.0 308412.0 306863.0 195750.0 189466.0 95068.0 88856.0 201562.0 201430.0 30323.0 34382.0 85132.0 79981.0 78140.0 85309.0 250519.0 243967.0 82059.0 84266.0 279928.0 281304.0 83809.0 76494.0 82730.0 75805.0 49569.0 41969.0 57678.0 49934.0 70406.0 75774.0 65687.0 68190.0 93314.0 85509.0 53778.0 60050.0 106261.0 110390.0 0.0 7955.0 47343.0 52937.0 15479.0 14166.0 73056.0 64907.0 116996.0 114268.0 108311.0 155705.0 108311.0 108311.0 155705.0 155705.0
166327.0 164201.0 99740.0 98497.0 11617.0 19277.0 84231.0 76749.0 148737.0 156281.0 25632.0 18214.0 316303.0 314349.0 26231.0 21913.0 114531.0 116929.0 59040.0 67002.0 116066.0 112972.0 53022.0 50671.0 240888.0 247394.0 114711.0 110804.0 187094.0 185061.0 9274.0 15878.0 303452.0 301745.0 192553.0 186463.0 90574.0 84746.0 197935.0 198070.0 22906.0 27860.0 83632.0 79077.0 72217.0 79411.0 246869.0 240456.0 75894.0 78591.0 275161.0 276370.0 89639.0 82540.0 78387.0 71115.0 51519.0 44449.0 57615.0 50189.0 68787.0 74772.0 73609.0 75989.0 91301.0 83705.0 51865.0 58776.0 99940.0 103764.0 7955.0 0.0 55298.0 60853.0 14063.0 8721.0 81000.0 72833.0 113902.0 110668.0 100915.0 149917.0 100915.0 100915.0 149917.0 149917.0
134040.0 129659.0 141359.0 137857.0 65017.0 70073.0 111805.0 107141.0 190558.0 197371.0 50313.0 47983.0 352586.0 349661.0 78626.0 71247.0 155090.0 159523.0 99634.0 106856.0 155789.0 151765.0 14291.0 7440.0 269950.0 277206.0 63372.0 57914.0 150048.0 146192.0 50134.0 52845.0 340046.0 339346.0 219548.0 212392.0 129129.0 121702.0 227473.0 225949.0 76770.0 78919.0 106369.0 99073.0 118272.0 125053.0 275735.0 268533.0 123214.0 123525.0 310758.0 313005.0 59863.0 52068.0 116930.0 111831.0 62735.0 55964.0 77126.0 70176.0 94173.0 95941.0 19238.0 24197.0 116082.0 108115.0 81717.0 84170.0 147339.0 152607.0 47343.0 55298.0 0.0 7991.0 55825.0 59714.0 25962.0 18387.0 143634.0 143404.0 153652.0 193176.0 153652.0 153652.0 193176.0 193176.0
137266.0 132504.0 142692.0 138824.0 69913.0 74359.0 119791.0 115095.0 198328.0 205178.0 57831.0 55035.0 360564.0 357647.0 85031.0 77920.0 156101.0 160879.0 107245.0 114539.0 163602.0 159605.0 21812.0 15430.0 277918.0 285182.0 62289.0 56037.0 152209.0 147989.0 54870.0 56622.0 348018.0 347304.0 227504.0 220336.0 130065.0 122477.0 235455.0 233915.0 81521.0 83006.0 114354.0 107046.0 125634.0 132472.0 283700.0 276490.0 125843.0 125676.0 318738.0 320974.0 64956.0 57375.0 118044.0 113396.0 61829.0 55705.0 85116.0 78152.0 102156.0 103926.0 12764.0 16450.0 124070.0 116105.0 89595.0 92135.0 149768.0 155331.0 52937.0 60853.0 7991.0 0.0 59831.0 64484.0 20386.0 12006.0 142958.0 143204.0 157491.0 200878.0 157491.0 157491.0 200878.0 200878.0
175867.0 173251.0 90224.0 88209.0 12777.0 14648.0 98130.0 90543.0 160129.0 167800.0 38475.0 30566.0 328289.0 326511.0 36609.0 34458.0 104796.0 107931.0 71938.0 79848.0 128214.0 125335.0 57130.0 52863.0 254056.0 260465.0 118151.0 113376.0 195720.0 193227.0 8031.0 3612.0 315403.0 313580.0 206034.0 200047.0 79936.0 73562.0 211156.0 211458.0 22633.0 23178.0 97681.0 93134.0 83405.0 90572.0 260046.0 253728.0 68676.0 70174.0 287347.0 288368.0 98495.0 91005.0 67548.0 60847.0 37951.0 31337.0 71538.0 64016.0 82834.0 88832.0 72395.0 73310.0 105279.0 97723.0 65898.0 72839.0 92975.0 97654.0 15479.0 14063.0 55825.0 59831.0 0.0 8076.0 80194.0 71708.0 101517.0 98821.0 97835.0 160920.0 97835.0 97835.0 160920.0 160920.0
174672.0 172418.0 91250.0 89878.0 5523.0 11261.0 90974.0 83248.0 152054.0 159725.0 34349.0 26901.0 320230.0 318468.0 28533.0 26678.0 106012.0 108563.0 64112.0 71993.0 120185.0 117337.0 59170.0 55891.0 246250.0 252621.0 120776.0 116458.0 195201.0 193029.0 9617.0 11317.0 307342.0 305513.0 198398.0 192485.0 81908.0 76036.0 203380.0 203764.0 17065.0 20240.0 90957.0 86745.0 75329.0 82496.0 252244.0 245968.0 67932.0 70311.0 279308.0 280312.0 97745.0 90515.0 69696.0 62476.0 45742.0 39330.0 65743.0 58466.0 76114.0 82408.0 77206.0 78769.0 98275.0 90846.0 59148.0 66357.0 92111.0 96226.0 14166.0 8721.0 59714.0 64484.0 8076.0 0.0 84851.0 76475.0 105220.0 101949.0 94554.0 152851.0 94554.0 94554.0 152851.0 152851.0
128959.0 123298.0 161333.0 157104.0 90265.0 94739.0 133460.0 129623.0 214325.0 220911.0 75455.0 73746.0 373979.0 370747.0 104587.0 97164.0 174373.0 179494.0 124268.0 131218.0 179372.0 175184.0 34757.0 32111.0 289382.0 296837.0 46408.0 38994.0 141133.0 136137.0 75234.0 76955.0 361582.0 361205.0 238776.0 231361.0 148345.0 140620.0 247436.0 245393.0 101896.0 103361.0 127025.0 119379.0 143464.0 150120.0 295058.0 287645.0 145570.0 145074.0 332090.0 334657.0 64274.0 57928.0 136561.0 132355.0 78635.0 73432.0 98805.0 92561.0 116077.0 116729.0 7946.0 12001.0 136866.0 129125.0 105187.0 106635.0 169321.0 175073.0 73056.0 81000.0 25962.0 20386.0 80194.0 84851.0 0.0 8540.0 159129.0 160049.0 177758.0 217268.0 177758.0 177758.0 217268.0 217268.0
133240.0 127928.0 153057.0 148918.0 81911.0 86274.0 128507.0 124279.0 208381.0 215095.0 68588.0 66366.0 369290.0 366201.0 96798.0 89542.0 166194.0 171228.0 117772.0 124892.0 173515.0 169413.0 29270.0 25187.0 285550.0 292922.0 53423.0 46438.0 146543.0 141844.0 66863.0 68450.0 356821.0 356289.0 235002.0 227692.0 140155.0 132462.0 243351.0 241532.0 93502.0 94867.0 122500.0 114984.0 136597.0 143346.0 291276.0 283950.0 137065.0 136626.0 327419.0 329835.0 65032.0 58077.0 128306.0 123994.0 70760.0 65308.0 93759.0 87179.0 110977.0 112122.0 867.0 8532.0 132305.0 124451.0 99317.0 101255.0 160847.0 166568.0 64907.0 72833.0 18387.0 12006.0 71708.0 76475.0 8540.0 0.0 151551.0 152267.0 169228.0 211139.0 169228.0 169228.0 211139.0 211139.0
275041.0 271602.0 35920.0 29382.0 104256.0 96387.0 188651.0 180268.0 223683.0 231675.0 139500.0 131814.0 392181.0 391052.0 121859.0 126049.0 33853.0 42109.0 156919.0 163302.0 200641.0 199687.0 151494.0 144607.0 328548.0 333617.0 204883.0 197976.0 293006.0 289548.0 109464.0 101966.0 379254.0 377313.0 285960.0 281526.0 30719.0 32058.0 287766.0 290017.0 98845.0 90719.0 191281.0 188652.0 156809.0 162311.0 334467.0 329486.0 58761.0 51038.0 352269.0 352478.0 197655.0 189817.0 38893.0 47075.0 81132.0 87674.0 169725.0 162951.0 177015.0 184303.0 151810.0 147804.0 196699.0 190354.0 160679.0 168565.0 57298.0 64628.0 116996.0 113902.0 143634.0 142958.0 101517.0 105220.0 159129.0 151551.0 0.0 8543.0 92852.0 223554.0 92852.0 92852.0 223554.0 223554.0
273558.0 270352.0 27475.0 21190.0 100576.0 92594.0 183339.0 174933.0 216351.0 224342.0 136298.0 128758.0 384848.0 383719.0 116988.0 121610.0 25792.0 34077.0 151377.0 157560.0 193812.0 192983.0 150560.0 143938.0 321410.0 326390.0 205387.0 198690.0 292056.0 288812.0 106834.0 99559.0 371921.0 369981.0 279281.0 274976.0 23756.0 26682.0 280851.0 283229.0 94388.0 86368.0 186315.0 183967.0 150430.0 155763.0 327315.0 322426.0 51422.0 43823.0 344936.0 345145.0 196053.0 188285.0 33534.0 41674.0 81523.0 87559.0 165602.0 159022.0 172218.0 179638.0 152572.0 148959.0 191436.0 185272.0 156095.0 164045.0 48785.0 56088.0 114268.0 110668.0 143404.0 143204.0 98821.0 101949.0 160049.0 152267.0 8543.0 0.0 84514.0 216221.0 84514.0 84514.0 216221.0 216221.0
262112.0 261115.0 57108.0 63495.0 89706.0 83699.0 141771.0 133739.0 158600.0 166591.0 120994.0 116316.0 327097.0 325969.0 88850.0 96959.0 65346.0 60282.0 110237.0 113779.0 138719.0 138832.0 153675.0 150345.0 263929.0 268701.0 215326.0 210954.0 284593.0 283373.0 103862.0 100912.0 314170.0 312230.0 224102.0 220667.0 64505.0 68264.0 224357.0 227389.0 78028.0 74759.0 147836.0 148365.0 100929.0 104309.0 269783.0 265195.0 40422.0 47048.0 287186.0 287395.0 188170.0 181724.0 64593.0 60608.0 109849.0 109735.0 137159.0 133236.0 136518.0 144566.0 169876.0 169977.0 149818.0 145762.0 124185.0 131866.0 36893.0 31861.0 108311.0 100915.0 153652.0 157491.0 97835.0 94554.0 177758.0 169228.0 92852.0 84514.0 0.0 158470.0 0.0 0.0 158470.0 158470.0
222342.0 226086.0 191029.0 195567.0 148561.0 151405.0 88619.0 89649.0 7151.0 11757.0 143177.0 147199.0 170417.0 168223.0 124359.0 128140.0 202490.0 198994.0 93760.0 86341.0 38758.0 43398.0 182518.0 186013.0 110557.0 114448.0 229147.0 230070.0 247775.0 250835.0 159119.0 164086.0 157477.0 155537.0 80125.0 80081.0 192835.0 192751.0 75676.0 80817.0 143376.0 149722.0 97785.0 105378.0 77703.0 70508.0 116178.0 112592.0 164826.0 172518.0 129679.0 129575.0 180652.0 179673.0 186539.0 179059.0 197172.0 191730.0 120399.0 125451.0 103757.0 106109.0 212006.0 217317.0 89199.0 94711.0 112154.0 111706.0 174691.0 172040.0 155705.0 149917.0 193176.0 200878.0 160920.0 152851.0 217268.0 211139.0 223554.0 216221.0 158470.0 0.0 158470.0 158470.0 0.0 0.0
262112.0 261115.0 57108.0 63495.0 89706.0 83699.0 141771.0 133739.0 158600.0 166591.0 120994.0 116316.0 327097.0 325969.0 88850.0 96959.0 65346.0 60282.0 110237.0 113779.0 138719.0 138832.0 153675.0 150345.0 263929.0 268701.0 215326.0 210954.0 284593.0 283373.0 103862.0 100912.0 314170.0 312230.0 224102.0 220667.0 64505.0 68264.0 224357.0 227389.0 78028.0 74759.0 147836.0 148365.0 100929.0 104309.0 269783.0 265195.0 40422.0 47048.0 287186.0 287395.0 188170.0 181724.0 64593.0 60608.0 109849.0 109735.0 137159.0 133236.0 136518.0 144566.0 169876.0 169977.0 149818.0 145762.0 124185.0 131866.0 36893.0 31861.0 108311.0 100915.0 153652.0 157491.0 97835.0 94554.0 177758.0 169228.0 92852.0 84514.0 0.0 158470.0 0.0 0.0 158470.0 158470.0
262112.0 261115.0 57108.0 63495.0 89706.0 83699.0 141771.0 133739.0 158600.0 166591.0 120994.0 116316.0 327097.0 325969.0 88850.0 96959.0 65346.0 60282.0 110237.0 113779.0 138719.0 138832.0 153675.0 150345.0 263929.0 268701.0 215326.0 210954.0 284593.0 283373.0 103862.0 100912.0 314170.0 312230.0 224102.0 220667.0 64505.0 68264.0 224357.0 227389.0 78028.0 74759.0 147836.0 148365.0 100929.0 104309.0 269783.0 265195.0 40422.0 47048.0 287186.0 287395.0 188170.0 181724.0 64593.0 60608.0 109849.0 109735.0 137159.0 133236.0 136518.0 144566.0 169876.0 169977.0 149818.0 145762.0 124185.0 131866.0 36893.0 31861.0 108311.0 100915.0 153652.0 157491.0 97835.0 94554.0 177758.0 169228.0 92852.0 84514.0 0.0 158470.0 0.0 0.0 158470.0 158470.0
222342.0 226086.0 191029.0 195567.0 148561.0 151405.0 88619.0 89649.0 7151.0 11757.0 143177.0 147199.0 170417.0 168223.0 124359.0 128140.0 202490.0 198994.0 93760.0 86341.0 38758.0 43398.0 182518.0 186013.0 110557.0 114448.0 229147.0 230070.0 247775.0 250835.0 159119.0 164086.0 157477.0 155537.0 80125.0 80081.0 192835.0 192751.0 75676.0 80817.0 143376.0 149722.0 97785.0 105378.0 77703.0 70508.0 116178.0 112592.0 164826.0 172518.0 129679.0 129575.0 180652.0 179673.0 186539.0 179059.0 197172.0 191730.0 120399.0 125451.0 103757.0 106109.0 212006.0 217317.0 89199.0 94711.0 112154.0 111706.0 174691.0 172040.0 155705.0 149917.0 193176.0 200878.0 160920.0 152851.0 217268.0 211139.0 223554.0 216221.0 158470.0 0.0 158470.0 158470.0 0.0 0.0
222342.0 226086.0 191029.0 195567.0 148561.0 151405.0 88619.0 89649.0 7151.0 11757.0 143177.0 147199.0 170417.0 168223.0 124359.0 128140.0 202490.0 198994.0 93760.0 86341.0 38758.0 43398.0 182518.0 186013.0 110557.0 114448.0 229147.0 230070.0 247775.0 250835.0 159119.0 164086.0 157477.0 155537.0 80125.0 80081.0 192835.0 192751.0 75676.0 80817.0 143376.0 149722.0 97785.0 105378.0 77703.0 70508.0 116178.0 112592.0 164826.0 172518.0 129679.0 129575.0 180652.0 179673.0 186539.0 179059.0 197172.0 191730.0 120399.0 125451.0 103757.0 106109.0 212006.0 217317.0 89199.0 94711.0 112154.0 111706.0 174691.0 172040.0 155705.0 149917.0 193176.0 200878.0 160920.0 152851.0 217268.0 211139.0 223554.0 216221.0 158470.0 0.0 158470.0 158470.0 0.0 0.0
FIXED_EDGES_SECTION
1 2
3 4
5 6
7 8
9 10
11 12
13 14
15 16
17 18
19 20
21 22
23 24
25 26
27 28
29 30
31 32
33 34
35 36
37 38
39 40
41 42
43 44
45 46
47 48
49 50
51 52
53 54
55 56
57 58
59 60
61 62
63 64
65 66
67 68
69 70
71 72
73 74
75 76
77 78
79 80
-1 
DEMAND_SECTION
1 234
2 234
3 219
4 219
5 207
6 207
7 223
8 223
9 37
10 37
11 541
12 541
13 491
14 491
15 94
16 94
17 369
18 369
19 80
20 80
21 399
22 399
23 211
24 211
25 350
26 350
27 76
28 76
29 120
30 120
31 353
32 353
33 71
34 71
35 336
36 336
37 247
38 247
39 620
40 620
41 394
42 394
43 291
44 291
45 75
46 75
47 268
48 268
49 618
50 618
51 60
52 60
53 180
54 180
55 396
56 396
57 461
58 461
59 90
60 90
61 177
62 177
63 224
64 224
65 158
66 158
67 380
68 380
69 97
70 97
71 341
72 341
73 90
74 90
75 293
76 293
77 217
78 217
79 251
80 251
81 0
82 0
83 0
84 0
85 0
86 0
DEPOT_SECTION
81 
-1 
CAPACITIES_SECTION
10000 
11000 
12000 
13000 
-1 
EOF