NAME: GFS_20_1
TYPE: GFSP
DIMENSION: 86
VEHICLES: 4
CAPACITY: 10000.0
TRIP_DIST_LIMIT: 750000.0
TOTAL_DIST_LIMIT: 1050000.0
EDGE_WEIGHT_TYPE: EXPLICIT
EDGE_WEIGHT_FORMAT: FULL_MATRIX
EDGE_WEIGHT_SECTION
0.0 8322.0 260650.0 261746.0 142457.0 137570.0 44359.0 36518.0 43578.0 51467.0 172460.0 165071.0 41511.0 44676.0 63111.0 55196.0 175789.0 178507.0 26864.0 21636.0 57865.0 64844.0 303020.0 308924.0 223060.0 227406.0 100560.0 102476.0 112837.0 105312.0 62750.0 56243.0 135254.0 142040.0 371356.0 370377.0 55853.0 61711.0 210852.0 215768.0 350298.0 357151.0 34771.0 39504.0 110358.0 110439.0 29490.0 36187.0 17342.0 13869.0 326272.0 321747.0 174592.0 172557.0 202290.0 200722.0 132656.0 128099.0 132698.0 140944.0 120721.0 128044.0 358510.0 356570.0 98023.0 105716.0 226022.0 224090.0 283145.0 285618.0 121732.0 120722.0 289674.0 294266.0 248213.0 242902.0 23998.0 20805.0 56489.0 49012.0 96105.0 202888.0 96105.0 96105.0 202888.0 202888.0
8322.0 0.0 255413.0 256326.0 135918.0 131303.0 50205.0 42278.0 43753.0 51995.0 165933.0 158453.0 49604.0 52346.0 55505.0 47582.0 169855.0 172328.0 34900.0 29951.0 61981.0 68560.0 297943.0 303966.0 214805.0 219185.0 94003.0 95528.0 106950.0 99290.0 56240.0 50226.0 130080.0 136641.0 367573.0 366435.0 48486.0 54754.0 205697.0 210416.0 346449.0 353302.0 32765.0 35905.0 102036.0 102136.0 21493.0 27920.0 22878.0 16755.0 322081.0 317411.0 169837.0 167632.0 194042.0 192436.0 125259.0 120919.0 124395.0 132639.0 113897.0 121087.0 354622.0 352721.0 90743.0 98477.0 217903.0 216042.0 279170.0 281435.0 115738.0 115126.0 285558.0 290313.0 242883.0 237417.0 32241.0 28383.0 60108.0 53097.0 97414.0 198964.0 97414.0 97414.0 198964.0 198964.0
260650.0 255413.0 0.0 7469.0 126127.0 127688.0 257176.0 256185.0 226561.0 222840.0 100071.0 107872.0 280710.0 275541.0 207010.0 213647.0 88498.0 89026.0 272060.0 274158.0 242769.0 238309.0 42998.0 49860.0 181263.0 175665.0 164722.0 166399.0 149212.0 157144.0 200405.0 205409.0 125397.0 118804.0 128690.0 124520.0 211156.0 203380.0 49849.0 45140.0 115679.0 120850.0 228054.0 221658.0 208713.0 201217.0 249097.0 242335.0 277849.0 272132.0 79539.0 72372.0 87180.0 88508.0 229470.0 221457.0 263911.0 269076.0 211974.0 210819.0 148907.0 144453.0 117085.0 118355.0 174174.0 167226.0 255067.0 261379.0 54303.0 48806.0 140984.0 140481.0 53379.0 61356.0 13010.0 20324.0 279183.0 280109.0 239138.0 243976.0 224357.0 75676.0 224357.0 224357.0 75676.0 75676.0
261746.0 256326.0 7469.0 0.0 125406.0 127453.0 259511.0 258303.0 228487.0 225005.0 98424.0 106330.0 282776.0 277772.0 207068.0 213855.0 88054.0 87918.0 273819.0 275712.0 245447.0 241166.0 44020.0 51456.0 175634.0 169888.0 164797.0 166115.0 149721.0 157598.0 200963.0 206195.0 126587.0 119714.0 132540.0 128027.0 211458.0 203764.0 51665.0 46017.0 120759.0 125641.0 229529.0 222966.0 206719.0 199309.0 249406.0 242516.0 278877.0 273008.0 83679.0 76255.0 89421.0 90373.0 224679.0 216655.0 261246.0 266575.0 209190.0 207767.0 148353.0 143563.0 121241.0 122907.0 173707.0 166613.0 249903.0 256321.0 61064.0 55163.0 141305.0 141220.0 59599.0 67585.0 13949.0 19050.0 280687.0 281398.0 241751.0 246401.0 227389.0 80817.0 227389.0 227389.0 80817.0 80817.0
142457.0 135918.0 126127.0 125406.0 0.0 8448.0 151947.0 148350.0 118222.0 117836.0 30015.0 22698.0 171214.0 168137.0 83023.0 90341.0 37719.0 37723.0 159600.0 159620.0 143121.0 141648.0 169036.0 175983.0 122591.0 122483.0 41918.0 41384.0 32741.0 38593.0 79726.0 86389.0 32230.0 27523.0 249972.0 247113.0 88426.0 81353.0 79869.0 81903.0 231080.0 237814.0 114509.0 106733.0 86626.0 78796.0 125908.0 118577.0 158794.0 152073.0 201328.0 195244.0 56319.0 51753.0 142240.0 135564.0 145212.0 148979.0 96635.0 98600.0 23075.0 18501.0 237423.0 236758.0 48452.0 41220.0 172235.0 175727.0 162842.0 162439.0 24129.0 30089.0 167153.0 173636.0 113124.0 106441.0 164039.0 163067.0 138860.0 140752.0 135822.0 95068.0 135822.0 135822.0 95068.0 95068.0
137570.0 131303.0 127688.0 127453.0 8448.0 0.0 145227.0 141887.0 111612.0 110861.0 35535.0 29041.0 165059.0 161727.0 79746.0 86758.0 39431.0 41062.0 153785.0 154124.0 135862.0 134167.0 170685.0 177428.0 130857.0 130841.0 37685.0 38711.0 25870.0 32553.0 75085.0 81334.0 24302.0 20676.0 249740.0 247139.0 84585.0 77190.0 80042.0 82873.0 230159.0 236999.0 108588.0 100983.0 89048.0 81209.0 122402.0 115298.0 154164.0 147661.0 201422.0 195563.0 52975.0 48677.0 149142.0 142619.0 148065.0 151435.0 100798.0 103335.0 21876.0 20297.0 237087.0 236140.0 46615.0 40051.0 179186.0 182472.0 161988.0 162022.0 16859.0 21982.0 166667.0 172911.0 114746.0 108408.0 158662.0 158029.0 131623.0 133775.0 127741.0 91411.0 127741.0 127741.0 91411.0 91411.0
44359.0 50205.0 257176.0 259511.0 151947.0 145227.0 0.0 7927.0 33789.0 34896.0 180629.0 174238.0 25501.0 18722.0 87935.0 81246.0 179301.0 183752.0 25791.0 33265.0 18777.0 26267.0 297859.0 302907.0 250454.0 253793.0 112971.0 117740.0 119385.0 113448.0 79829.0 71769.0 135400.0 143283.0 361462.0 360333.0 79936.0 81908.0 207853.0 213987.0 340323.0 347176.0 41364.0 49518.0 143503.0 141689.0 70489.0 74932.0 52132.0 54954.0 316408.0 312246.0 170102.0 169242.0 237309.0 234750.0 174433.0 170525.0 166896.0 174906.0 133683.0 141689.0 348535.0 346595.0 116410.0 123169.0 262959.0 261813.0 273093.0 275808.0 128371.0 124669.0 279730.0 284216.0 245596.0 241451.0 37740.0 44860.0 20418.0 13538.0 64505.0 192835.0 64505.0 64505.0 192835.0 192835.0
36518.0 42278.0 256185.0 258303.0 148350.0 141887.0 7927.0 0.0 30415.0 33364.0 177391.0 170809.0 24576.0 19874.0 81589.0 74670.0 176840.0 181015.0 20478.0 27215.0 23799.0 31391.0 297249.0 302461.0 244446.0 247933.0 108610.0 112997.0 116018.0 109762.0 74324.0 66292.0 133264.0 141013.0 361378.0 360250.0 73562.0 76036.0 206645.0 212580.0 340239.0 347092.0 35664.0 43924.0 136537.0 134941.0 62618.0 67189.0 45155.0 47480.0 316324.0 312162.0 169011.0 167935.0 230262.0 227826.0 166617.0 162660.0 159860.0 167913.0 129418.0 137374.0 348451.0 346511.0 111203.0 118152.0 255693.0 254451.0 273009.0 275725.0 125072.0 121786.0 279646.0 284132.0 244425.0 240062.0 32115.0 38598.0 24167.0 16208.0 68264.0 192751.0 68264.0 68264.0 192751.0 192751.0
43578.0 43753.0 226561.0 228487.0 118222.0 111612.0 33789.0 30415.0 0.0 8344.0 147082.0 140586.0 54450.0 50285.0 58454.0 53065.0 146442.0 150601.0 45780.0 49109.0 29951.0 33059.0 267978.0 273373.0 218659.0 221666.0 79278.0 84289.0 85746.0 79686.0 47900.0 39985.0 102976.0 110671.0 333119.0 331990.0 50880.0 50930.0 176875.0 182645.0 311980.0 318832.0 14198.0 19750.0 115786.0 112887.0 56453.0 57390.0 59467.0 57447.0 288065.0 283911.0 139408.0 138133.0 209329.0 206145.0 154465.0 151830.0 139306.0 147006.0 99938.0 107955.0 320192.0 318251.0 83506.0 89984.0 236205.0 235742.0 244750.0 247433.0 94773.0 91378.0 251387.0 255872.0 214651.0 210118.0 54425.0 57625.0 26005.0 24161.0 53939.0 164492.0 53939.0 53939.0 164492.0 164492.0
51467.0 51995.0 222840.0 225005.0 117836.0 110861.0 34896.0 33364.0 8344.0 0.0 146117.0 139902.0 57930.0 52789.0 63704.0 58961.0 144424.0 148947.0 50961.0 55152.0 26362.0 27718.0 263890.0 269121.0 221730.0 224480.0 80366.0 85984.0 85127.0 79624.0 51886.0 44309.0 100504.0 108389.0 328207.0 327078.0 56473.0 55526.0 173342.0 179346.0 307068.0 313920.0 22113.0 26378.0 121185.0 117884.0 64679.0 65362.0 66916.0 65312.0 283153.0 278990.0 135674.0 134655.0 214335.0 210915.0 161604.0 159174.0 144641.0 152200.0 100684.0 108732.0 315280.0 313339.0 86032.0 92090.0 241591.0 241341.0 239838.0 242553.0 94011.0 89989.0 246475.0 250960.0 211116.0 206825.0 60509.0 64378.0 22088.0 22919.0 45598.0 159580.0 45598.0 45598.0 159580.0 159580.0
172460.0 165933.0 100071.0 98424.0 30015.0 35535.0 180629.0 177391.0 147082.0 146117.0 0.0 7999.0 200594.0 197240.0 112741.0 120169.0 18774.0 12788.0 189256.0 189457.0 170763.0 168701.0 142423.0 149706.0 114453.0 112465.0 71933.0 71088.0 61382.0 68009.0 109738.0 116348.0 50224.0 42326.0 226890.0 223443.0 118341.0 111342.0 58657.0 58370.0 209956.0 216249.0 144080.0 136417.0 108721.0 101176.0 155646.0 148212.0 188809.0 182071.0 177750.0 171192.0 49998.0 45388.0 146002.0 138535.0 164982.0 169730.0 113730.0 113724.0 52570.0 46443.0 214654.0 214693.0 77610.0 70059.0 175075.0 179754.0 142055.0 140489.0 52319.0 56264.0 145324.0 152361.0 87137.0 79868.0 193927.0 193050.0 166562.0 169002.0 160498.0 85675.0 160498.0 160498.0 85675.0 85675.0
165071.0 158453.0 107872.0 106330.0 22698.0 29041.0 174238.0 170809.0 140586.0 139902.0 7999.0 0.0 193813.0 190627.0 104984.0 112460.0 23723.0 19504.0 182278.0 182318.0 164849.0 163030.0 150314.0 157564.0 113073.0 111621.0 64511.0 63366.0 54854.0 61145.0 102322.0 109062.0 46515.0 39069.0 234347.0 230988.0 110693.0 103786.0 65432.0 65639.0 217076.0 223451.0 137161.0 129413.0 101074.0 93483.0 147881.0 140409.0 181322.0 174517.0 185258.0 178768.0 52784.0 48027.0 141731.0 134416.0 157722.0 162340.0 106753.0 107060.0 44831.0 38526.0 222055.0 221979.0 69739.0 62154.0 171109.0 175526.0 149045.0 147689.0 45894.0 50515.0 152509.0 159455.0 94914.0 87712.0 186731.0 185710.0 160619.0 162815.0 155671.0 89876.0 155671.0 155671.0 89876.0 89876.0
41511.0 49604.0 280710.0 282776.0 171214.0 165059.0 25501.0 24576.0 54450.0 57930.0 200594.0 193813.0 0.0 8198.0 99426.0 91878.0 200733.0 204688.0 14718.0 20811.0 43917.0 51110.0 321820.0 327037.0 262040.0 265984.0 130612.0 134331.0 139248.0 132667.0 94609.0 86812.0 157417.0 165078.0 385918.0 384790.0 91506.0 95397.0 231129.0 237004.0 364779.0 371632.0 56858.0 64910.0 150909.0 150375.0 70998.0 77463.0 39926.0 45991.0 340864.0 336702.0 193531.0 192403.0 243527.0 241764.0 173508.0 168584.0 173630.0 181845.0 151444.0 159283.0 372991.0 371051.0 131641.0 138925.0 267505.0 265601.0 297549.0 300265.0 148339.0 145448.0 304186.0 308672.0 268911.0 264484.0 21864.0 30056.0 45902.0 38869.0 89757.0 217291.0 89757.0 89757.0 217291.0 217291.0
44676.0 52346.0 275541.0 277772.0 168137.0 161727.0 18722.0 19874.0 50285.0 52789.0 197240.0 190627.0 8198.0 0.0 99059.0 91746.0 196689.0 200887.0 18392.0 25889.0 36469.0 43460.0 316377.0 321477.0 262039.0 265771.0 128132.0 132274.0 135861.0 129544.0 93056.0 85107.0 153045.0 160825.0 380103.0 378974.0 91053.0 94310.0 226107.0 232135.0 358964.0 365816.0 54618.0 62844.0 152133.0 151178.0 73828.0 79766.0 45825.0 51120.0 335049.0 330886.0 188405.0 187436.0 245305.0 243285.0 177318.0 172668.0 175130.0 183297.0 148965.0 156886.0 367176.0 365236.0 130093.0 137201.0 269833.0 268160.0 291734.0 294449.0 144921.0 141660.0 298371.0 302856.0 263875.0 259613.0 28184.0 36404.0 38795.0 32259.0 82210.0 211476.0 82210.0 82210.0 211476.0 211476.0
63111.0 55505.0 207010.0 207068.0 83023.0 79746.0 87935.0 81589.0 58454.0 63704.0 112741.0 104984.0 99426.0 99059.0 0.0 7924.0 119156.0 120491.0 85546.0 83191.0 88378.0 91209.0 249977.0 256517.0 163009.0 166717.0 42290.0 41664.0 58556.0 50591.0 15059.0 20182.0 84707.0 89620.0 325576.0 323618.0 8031.0 9617.0 158262.0 161931.0 304759.0 311612.0 46847.0 39143.0 57481.0 54444.0 42906.0 35581.0 77878.0 70521.0 278292.0 272922.0 125339.0 122237.0 150875.0 147738.0 102715.0 101917.0 80952.0 88579.0 60171.0 66754.0 312725.0 311017.0 35697.0 43474.0 177900.0 177648.0 236924.0 238058.0 66183.0 68017.0 242490.0 248058.0 194150.0 188019.0 86652.0 83818.0 84458.0 81832.0 103862.0 159119.0 103862.0 103862.0 159119.0 159119.0
55196.0 47582.0 213647.0 213855.0 90341.0 86758.0 81246.0 74670.0 53065.0 58961.0 120169.0 112460.0 91878.0 91746.0 7924.0 0.0 126093.0 127656.0 77880.0 75370.0 82783.0 86080.0 256577.0 263034.0 170306.0 174133.0 49116.0 49095.0 64702.0 56715.0 16293.0 18113.0 90419.0 95708.0 331249.0 329422.0 3612.0 11317.0 164659.0 168526.0 310307.0 317159.0 40636.0 33387.0 62865.0 60513.0 35645.0 28690.0 69988.0 62676.0 284218.0 278959.0 131102.0 128157.0 156641.0 153763.0 104549.0 103140.0 86394.0 94210.0 67630.0 74376.0 318372.0 316525.0 43464.0 51240.0 183202.0 182680.0 242549.0 243873.0 72671.0 73961.0 248259.0 253699.0 200832.0 194812.0 78776.0 75895.0 78992.0 75855.0 100912.0 164086.0 100912.0 100912.0 164086.0 164086.0
175789.0 169855.0 88498.0 88054.0 37719.0 39431.0 179301.0 176840.0 146442.0 144424.0 18774.0 23723.0 200733.0 196689.0 119156.0 126093.0 0.0 7909.0 190350.0 191333.0 167786.0 164933.0 131460.0 138331.0 132499.0 130159.0 76978.0 78062.0 62953.0 70567.0 113862.0 119650.0 44251.0 36158.0 212685.0 209661.0 123829.0 116296.0 42728.0 44219.0 194528.0 201076.0 145249.0 138064.0 122833.0 115096.0 161721.0 154685.0 192639.0 186375.0 163865.0 157672.0 31987.0 27628.0 164726.0 157282.0 180401.0 184722.0 129947.0 130545.0 60410.0 56169.0 200227.0 199815.0 85705.0 78729.0 193841.0 198490.0 126328.0 125432.0 54119.0 55495.0 130203.0 136927.0 75511.0 69021.0 196067.0 195976.0 163717.0 166996.0 154464.0 66901.0 154464.0 154464.0 66901.0 66901.0
178507.0 172328.0 89026.0 87918.0 37723.0 41062.0 183752.0 181015.0 150601.0 148947.0 12788.0 19504.0 204688.0 200887.0 120491.0 127656.0 7909.0 0.0 193944.0 194634.0 172779.0 170180.0 131744.0 138850.0 124969.0 122501.0 78696.0 78977.0 65920.0 73228.0 116133.0 122267.0 49655.0 41469.0 214922.0 211632.0 125569.0 118236.0 46009.0 46165.0 197574.0 203947.0 148747.0 141368.0 120413.0 112775.0 163291.0 156072.0 195178.0 188715.0 165876.0 159453.0 39768.0 35482.0 158402.0 150872.0 177226.0 181823.0 126207.0 126365.0 60795.0 55667.0 202601.0 202486.0 86176.0 78903.0 187310.0 192115.0 129562.0 128187.0 56887.0 59248.0 133005.0 139955.0 76024.0 69063.0 199273.0 198878.0 168661.0 171663.0 160365.0 73696.0 160365.0 160365.0 73696.0 73696.0
26864.0 34900.0 272060.0 273819.0 159600.0 153785.0 25791.0 20478.0 45780.0 50961.0 189256.0 182278.0 14718.0 18392.0 85546.0 77880.0 190350.0 193944.0 0.0 7962.0 44000.0 51609.0 313649.0 319098.0 247781.0 251825.0 118442.0 121704.0 128143.0 121251.0 81689.0 74096.0 147681.0 155121.0 378850.0 377721.0 77714.0 82063.0 222290.0 227878.0 357711.0 364564.0 45216.0 52867.0 136280.0 135856.0 56327.0 62746.0 27985.0 32787.0 333796.0 329635.0 184981.0 183562.0 228814.0 227072.0 159232.0 154462.0 158947.0 167168.0 139200.0 146928.0 365923.0 363983.0 118547.0 125966.0 252803.0 250927.0 290481.0 293131.0 137235.0 134872.0 297118.0 301604.0 260032.0 255314.0 11955.0 19443.0 44634.0 36686.0 88720.0 210223.0 88720.0 88720.0 210223.0 210223.0
21636.0 29951.0 274158.0 275712.0 159620.0 154124.0 33265.0 27215.0 49109.0 55152.0 189457.0 182318.0 20811.0 25889.0 83191.0 75370.0 191333.0 194634.0 7962.0 0.0 51001.0 58602.0 316017.0 321607.0 244394.0 248631.0 118071.0 120836.0 128717.0 121581.0 80719.0 73442.0 149257.0 156512.0 382041.0 380912.0 75563.0 80559.0 224324.0 229712.0 360902.0 367755.0 46229.0 53280.0 131975.0 131950.0 50909.0 57806.0 20072.0 25323.0 336957.0 332811.0 187272.0 185665.0 223863.0 222341.0 152738.0 147778.0 154332.0 162579.0 138673.0 146265.0 369114.0 367174.0 117148.0 124702.0 247384.0 245326.0 293672.0 296385.0 137774.0 135854.0 300260.0 304794.0 261992.0 257083.0 5358.0 11616.0 51266.0 43236.0 94953.0 213414.0 94953.0 94953.0 213414.0 213414.0
57865.0 61981.0 242769.0 245447.0 143121.0 135862.0 18777.0 23799.0 29951.0 26362.0 170763.0 164849.0 43917.0 36469.0 88378.0 82783.0 167786.0 172779.0 44000.0 51001.0 0.0 7611.0 282812.0 287619.0 247999.0 250805.0 106577.0 112317.0 110388.0 105312.0 77639.0 69819.0 123552.0 131630.0 346019.0 344890.0 80736.0 80848.0 193918.0 200365.0 324880.0 331733.0 42481.0 49403.0 145614.0 142821.0 80004.0 82904.0 68600.0 70131.0 300965.0 296803.0 156116.0 155629.0 239243.0 236091.0 182031.0 178831.0 169143.0 176886.0 126727.0 134771.0 333092.0 331152.0 112370.0 118451.0 265985.0 265403.0 257650.0 260365.0 119095.0 114500.0 264287.0 268773.0 231501.0 227726.0 55819.0 62391.0 4308.0 8891.0 45843.0 177392.0 45843.0 45843.0 177392.0 177392.0
64844.0 68560.0 238309.0 241166.0 141648.0 134167.0 26267.0 31391.0 33059.0 27718.0 168701.0 163030.0 51110.0 43460.0 91209.0 86080.0 164933.0 170180.0 51609.0 58602.0 7611.0 0.0 277978.0 282766.0 249007.0 251591.0 106434.0 112555.0 109017.0 104386.0 79603.0 72012.0 120693.0 128832.0 341162.0 340033.0 83793.0 83207.0 189769.0 196371.0 320022.0 326875.0 46580.0 52809.0 148662.0 145518.0 85856.0 88295.0 76046.0 77360.0 296108.0 291945.0 152016.0 151729.0 241984.0 238613.0 186885.0 183923.0 172156.0 179777.0 126192.0 134210.0 328235.0 326294.0 113198.0 118949.0 269096.0 268723.0 252792.0 255508.0 117533.0 112534.0 259430.0 263915.0 227217.0 223641.0 63430.0 69971.0 8458.0 15949.0 38771.0 172534.0 38771.0 38771.0 172534.0 172534.0
303020.0 297943.0 42998.0 44020.0 169036.0 170685.0 297859.0 297249.0 267978.0 263890.0 142423.0 150314.0 321820.0 316377.0 249977.0 256577.0 131460.0 131744.0 313649.0 316017.0 282812.0 277978.0 0.0 8055.0 213045.0 206686.0 207694.0 209396.0 192060.0 200009.0 243198.0 248064.0 167864.0 161482.0 92301.0 86816.0 254056.0 246250.0 92263.0 88054.0 86327.0 89458.0 270062.0 263856.0 250721.0 243323.0 291983.0 285267.0 320269.0 314683.0 46516.0 38558.0 128746.0 130505.0 264813.0 256788.0 304948.0 310381.0 252834.0 251181.0 191867.0 187306.0 82346.0 85659.0 217154.0 210177.0 288722.0 295495.0 49819.0 41402.0 183906.0 183224.0 42740.0 48387.0 55953.0 62682.0 321101.0 322273.0 279326.0 284520.0 263929.0 110557.0 263929.0 263929.0 110557.0 110557.0
308924.0 303966.0 49860.0 51456.0 175983.0 177428.0 302907.0 302461.0 273373.0 269121.0 149706.0 157564.0 327037.0 321477.0 256517.0 263034.0 138331.0 138850.0 319098.0 321607.0 287619.0 282766.0 8055.0 0.0 221082.0 214709.0 214258.0 216129.0 198427.0 206393.0 249476.0 254209.0 173926.0 167707.0 84272.0 78762.0 260465.0 252621.0 98465.0 94622.0 78936.0 81813.0 275757.0 269668.0 258151.0 250721.0 298363.0 291721.0 326201.0 320715.0 39065.0 31153.0 134424.0 136370.0 272862.0 264837.0 312612.0 317995.0 260519.0 258938.0 198732.0 194313.0 74423.0 77899.0 223968.0 217059.0 296775.0 303550.0 48298.0 40091.0 190378.0 189487.0 40514.0 45112.0 62869.0 69855.0 326720.0 328035.0 284191.0 289522.0 268701.0 114448.0 268701.0 268701.0 114448.0 114448.0
223060.0 214805.0 181263.0 175634.0 122591.0 130857.0 250454.0 244446.0 218659.0 221730.0 114453.0 113073.0 262040.0 262039.0 163009.0 170306.0 132499.0 124969.0 247781.0 244394.0 247999.0 249007.0 213045.0 221082.0 0.0 7817.0 144157.0 137154.0 148119.0 149430.0 170883.0 178911.0 154721.0 149010.0 305345.0 299757.0 171032.0 168547.0 161878.0 157355.0 296224.0 300743.0 209090.0 200961.0 114505.0 112989.0 195764.0 187968.0 234414.0 226323.0 258008.0 250221.0 164356.0 159806.0 57995.0 50890.0 134319.0 142309.0 96087.0 88504.0 127253.0 120108.0 295078.0 297614.0 135812.0 130350.0 76466.0 83788.0 234402.0 229827.0 142523.0 150178.0 234512.0 242448.0 171603.0 163834.0 247045.0 242520.0 243773.0 242806.0 250760.0 197841.0 250760.0 250760.0 197841.0 197841.0
227406.0 219185.0 175665.0 169888.0 122483.0 130841.0 253793.0 247933.0 221666.0 224480.0 112465.0 111621.0 265984.0 265771.0 166717.0 174133.0 130159.0 122501.0 251825.0 248631.0 250805.0 251591.0 206686.0 214709.0 7817.0 0.0 146104.0 139326.0 149153.0 150869.0 174049.0 182100.0 154417.0 148412.0 298981.0 293307.0 174718.0 171922.0 157971.0 153169.0 290298.0 294704.0 212449.0 204275.0 119687.0 117775.0 200460.0 192604.0 239118.0 231046.0 251882.0 244064.0 162122.0 157647.0 65788.0 58706.0 141498.0 149449.0 102037.0 94635.0 128543.0 121182.0 288839.0 291498.0 138453.0 132693.0 83598.0 91043.0 229091.0 224343.0 143183.0 150716.0 228995.0 236950.0 166291.0 158592.0 251404.0 247060.0 246557.0 245826.0 252484.0 194778.0 252484.0 252484.0 194778.0 194778.0
100560.0 94003.0 164722.0 164797.0 41918.0 37685.0 112971.0 108610.0 79278.0 80366.0 71933.0 64511.0 130612.0 128132.0 42290.0 49116.0 76978.0 78696.0 118442.0 118071.0 106577.0 106434.0 207694.0 214258.0 144157.0 146104.0 0.0 8078.0 17813.0 11022.0 37814.0 44652.0 44387.0 48149.0 284277.0 282099.0 46900.0 39558.0 116101.0 119655.0 263782.0 270635.0 73758.0 65730.0 67206.0 60182.0 84747.0 77732.0 116880.0 110203.0 236611.0 231089.0 84300.0 80869.0 147605.0 142504.0 124828.0 126561.0 85814.0 91035.0 20841.0 28763.0 271483.0 270041.0 15340.0 15440.0 177111.0 178780.0 195810.0 196591.0 24149.0 27504.0 201097.0 206896.0 151859.0 145749.0 122376.0 121207.0 102270.0 102887.0 106667.0 119965.0 106667.0 106667.0 119965.0 119965.0
102476.0 95528.0 166399.0 166115.0 41384.0 38711.0 117740.0 112997.0 84289.0 85984.0 71088.0 63366.0 134331.0 132274.0 41664.0 49095.0 78062.0 78977.0 121704.0 120836.0 112317.0 112555.0 209396.0 216129.0 137154.0 139326.0 8078.0 0.0 23702.0 18274.0 40118.0 47611.0 49405.0 52126.0 287561.0 285182.0 47387.0 40788.0 118472.0 121545.0 267401.0 274229.0 77672.0 69490.0 59789.0 52598.0 84568.0 77196.0 118330.0 111347.0 239560.0 233856.0 88265.0 84564.0 139577.0 134523.0 117924.0 119944.0 77901.0 83021.0 18535.0 25570.0 274826.0 273594.0 8753.0 7401.0 169055.0 170705.0 199340.0 199809.0 28009.0 32950.0 204381.0 210372.0 153455.0 147079.0 124932.0 123251.0 108021.0 108189.0 113965.0 124850.0 113965.0 113965.0 124850.0 124850.0
112837.0 106950.0 149212.0 149721.0 32741.0 25870.0 119385.0 116018.0 85746.0 85127.0 61382.0 54854.0 139248.0 135861.0 58556.0 64702.0 62953.0 65920.0 128143.0 128717.0 110388.0 109017.0 192060.0 198427.0 148119.0 149153.0 17813.0 23702.0 0.0 7988.0 51243.0 56726.0 26650.0 31064.0 267134.0 265099.0 62052.0 54196.0 99995.0 104074.0 246459.0 253312.0 82928.0 75463.0 83168.0 75786.0 99937.0 93353.0 129704.0 123526.0 219740.0 214370.0 66937.0 63712.0 157846.0 152160.0 141584.0 143646.0 100042.0 104473.0 21239.0 28011.0 254306.0 252731.0 32300.0 29463.0 187741.0 190014.0 178550.0 179545.0 9096.0 9723.0 184000.0 189663.0 136488.0 130730.0 133354.0 133065.0 106124.0 108046.0 104539.0 102177.0 104539.0 104539.0 102177.0 102177.0
105312.0 99290.0 157144.0 157598.0 38593.0 32553.0 113448.0 109762.0 79686.0 79624.0 68009.0 61145.0 132667.0 129544.0 50591.0 56715.0 70567.0 73228.0 121251.0 121581.0 105312.0 104386.0 200009.0 206393.0 149430.0 150869.0 11022.0 18274.0 7988.0 0.0 43395.0 49103.0 34357.0 39039.0 275048.0 273041.0 54076.0 46241.0 107971.0 112004.0 254328.0 261181.0 76071.0 68432.0 78010.0 70866.0 91977.0 85370.0 122087.0 115814.0 227701.0 222346.0 74824.0 71653.0 156158.0 150767.0 135826.0 137582.0 96044.0 100953.0 22424.0 30201.0 262212.0 260599.0 26285.0 25050.0 185876.0 187827.0 186440.0 187484.0 16448.0 17487.0 191929.0 197560.0 144401.0 138593.0 126142.0 125650.0 101020.0 102494.0 101763.0 109679.0 101763.0 101763.0 109679.0 109679.0
62750.0 56240.0 200405.0 200963.0 79726.0 75085.0 79829.0 74324.0 47900.0 51886.0 109738.0 102322.0 94609.0 93056.0 15059.0 16293.0 113862.0 116133.0 81689.0 80719.0 77639.0 79603.0 243198.0 249476.0 170883.0 174049.0 37814.0 40118.0 51243.0 43395.0 0.0 8061.0 75931.0 81777.0 316323.0 314659.0 12777.0 5523.0 151011.0 155278.0 295271.0 302124.0 38659.0 30404.0 70452.0 66466.0 49142.0 43214.0 79115.0 72584.0 269643.0 264548.0 116503.0 113794.0 162720.0 159132.0 117715.0 116974.0 93613.0 100913.0 58077.0 65572.0 303420.0 301543.0 37059.0 44324.0 190395.0 190501.0 227611.0 229174.0 59795.0 59989.0 233495.0 238772.0 187711.0 181971.0 84849.0 83427.0 73521.0 71981.0 89706.0 148561.0 89706.0 89706.0 148561.0 148561.0
56243.0 50226.0 205409.0 206195.0 86389.0 81334.0 71769.0 66292.0 39985.0 44309.0 116348.0 109062.0 86812.0 85107.0 20182.0 18113.0 119650.0 122267.0 74096.0 73442.0 69819.0 72012.0 248064.0 254209.0 178911.0 182100.0 44652.0 47611.0 56726.0 49103.0 8061.0 0.0 80314.0 86607.0 319779.0 318295.0 14648.0 11261.0 155804.0 160346.0 298650.0 305503.0 30629.0 22368.0 77244.0 73641.0 45805.0 40876.0 72989.0 66837.0 273496.0 268563.0 120568.0 118096.0 170053.0 166606.0 122312.0 121112.0 100582.0 108027.0 65237.0 72880.0 306852.0 304922.0 44987.0 52139.0 197488.0 197428.0 231112.0 232934.0 65544.0 64976.0 237185.0 242277.0 192813.0 187258.0 77725.0 76720.0 65738.0 64010.0 83699.0 151405.0 83699.0 83699.0 151405.0 151405.0
135254.0 130080.0 125397.0 126587.0 32230.0 24302.0 135400.0 133264.0 102976.0 100504.0 50224.0 46515.0 157417.0 153045.0 84707.0 90419.0 44251.0 49655.0 147681.0 149257.0 123552.0 120693.0 167864.0 173926.0 154721.0 154417.0 44387.0 49405.0 26650.0 34357.0 75931.0 80314.0 0.0 8186.0 240884.0 239004.0 87541.0 79521.0 75623.0 80574.0 220057.0 226910.0 103033.0 96381.0 107021.0 99350.0 125062.0 118851.0 152456.0 146820.0 193821.0 188643.0 40683.0 37864.0 173068.0 166663.0 166051.0 168616.0 121511.0 124874.0 39201.0 41616.0 228025.0 226321.0 58157.0 53892.0 203131.0 206239.0 152218.0 153454.0 21756.0 16929.0 157846.0 163354.0 112984.0 107858.0 154181.0 154812.0 119497.0 122922.0 110802.0 75595.0 110802.0 110802.0 75595.0 75595.0
142040.0 136641.0 118804.0 119714.0 27523.0 20676.0 143283.0 141013.0 110671.0 108389.0 42326.0 39069.0 165078.0 160825.0 89620.0 95708.0 36158.0 41469.0 155121.0 156512.0 131630.0 128832.0 161482.0 167707.0 149010.0 148412.0 48149.0 52126.0 31064.0 39039.0 81777.0 86607.0 8186.0 0.0 236169.0 234072.0 92983.0 85051.0 69247.0 73775.0 215634.0 222487.0 110289.0 103453.0 107673.0 99897.0 130763.0 124315.0 159164.0 153346.0 188683.0 183307.0 36197.0 32729.0 169643.0 163031.0 166826.0 169763.0 120796.0 123651.0 39306.0 40116.0 223361.0 221893.0 60808.0 55688.0 199664.0 203045.0 147664.0 148529.0 24182.0 21803.0 153007.0 158755.0 106241.0 100865.0 161382.0 161801.0 127559.0 130887.0 118974.0 73098.0 118974.0 118974.0 73098.0 73098.0
371356.0 367573.0 128690.0 132540.0 249972.0 249740.0 361462.0 361378.0 333119.0 328207.0 226890.0 234347.0 385918.0 380103.0 325576.0 331249.0 212685.0 214922.0 378850.0 382041.0 346019.0 341162.0 92301.0 84272.0 305345.0 298981.0 284277.0 287561.0 267134.0 275048.0 316323.0 319779.0 240884.0 236169.0 0.0 8049.0 328289.0 320230.0 170111.0 168781.0 28460.0 20951.0 337211.0 331939.0 335312.0 327638.0 365357.0 359496.0 388646.0 384174.0 49257.0 56333.0 200238.0 203445.0 356640.0 348609.0 391770.0 396618.0 340102.0 339254.0 271602.0 268451.0 12954.0 17418.0 295959.0 289755.0 380929.0 387638.0 88714.0 87755.0 260160.0 257577.0 83190.0 77556.0 140943.0 148788.0 387287.0 389450.0 342590.0 348021.0 327097.0 170417.0 327097.0 327097.0 170417.0 170417.0
370377.0 366435.0 124520.0 128027.0 247113.0 247139.0 360333.0 360250.0 331990.0 327078.0 223443.0 230988.0 384790.0 378974.0 323618.0 329422.0 209661.0 211632.0 377721.0 380912.0 344890.0 340033.0 86816.0 78762.0 299757.0 293307.0 282099.0 285182.0 265099.0 273041.0 314659.0 318295.0 239004.0 234072.0 8049.0 0.0 326511.0 318468.0 167264.0 165583.0 32603.0 26016.0 335990.0 330910.0 332041.0 324405.0 363756.0 357775.0 387691.0 383080.0 45796.0 52291.0 198322.0 201389.0 351541.0 343513.0 388131.0 393100.0 336334.0 335314.0 268969.0 265611.0 14310.0 21292.0 293511.0 287186.0 375532.0 382312.0 87266.0 85560.0 257956.0 255601.0 81170.0 76123.0 136986.0 144746.0 386158.0 388321.0 341462.0 346892.0 325969.0 168223.0 325969.0 325969.0 168223.0 168223.0
55853.0 48486.0 211156.0 211458.0 88426.0 84585.0 79936.0 73562.0 50880.0 56473.0 118341.0 110693.0 91506.0 91053.0 8031.0 3612.0 123829.0 125569.0 77714.0 75563.0 80736.0 83793.0 254056.0 260465.0 171032.0 174718.0 46900.0 47387.0 62052.0 54076.0 12777.0 14648.0 87541.0 92983.0 328289.0 326511.0 0.0 8076.0 162046.0 166022.0 307308.0 314161.0 38938.0 31374.0 64906.0 62188.0 37951.0 31337.0 71128.0 64004.0 281361.0 276150.0 128214.0 125335.0 158525.0 155498.0 107781.0 106487.0 88426.0 96150.0 65898.0 72839.0 315403.0 313580.0 42258.0 50000.0 185330.0 184935.0 239579.0 240976.0 70180.0 71201.0 245343.0 250733.0 198370.0 192423.0 79159.0 76635.0 76872.0 74030.0 97835.0 160920.0 97835.0 97835.0 160920.0 160920.0
61711.0 54754.0 203380.0 203764.0 81353.0 77190.0 81908.0 76036.0 50930.0 55526.0 111342.0 103786.0 95397.0 94310.0 9617.0 11317.0 116296.0 118236.0 82063.0 80559.0 80848.0 83207.0 246250.0 252621.0 168547.0 171922.0 39558.0 40788.0 54196.0 46241.0 5523.0 11261.0 79521.0 85051.0 320230.0 318468.0 8076.0 0.0 154178.0 158240.0 299241.0 306094.0 40545.0 32430.0 66009.0 62387.0 45742.0 39330.0 77586.0 70733.0 273340.0 268151.0 120185.0 117337.0 158814.0 155408.0 112331.0 111517.0 89327.0 96767.0 59148.0 66357.0 307342.0 305513.0 36590.0 44166.0 186228.0 186182.0 231519.0 232939.0 62459.0 63254.0 237299.0 242674.0 190621.0 184741.0 84452.0 82503.0 76810.0 74785.0 94554.0 152851.0 94554.0 94554.0 152851.0 152851.0
210852.0 205697.0 49849.0 51665.0 79869.0 80042.0 207853.0 206645.0 176875.0 173342.0 58657.0 65432.0 231129.0 226107.0 158262.0 164659.0 42728.0 46009.0 222290.0 224324.0 193918.0 189769.0 92263.0 98465.0 161878.0 157971.0 116101.0 118472.0 99995.0 107971.0 151011.0 155804.0 75623.0 69247.0 170111.0 167264.0 162046.0 154178.0 0.0 8049.0 151827.0 158349.0 178207.0 171816.0 165562.0 157821.0 199919.0 193334.0 228072.0 222431.0 121493.0 115534.0 37806.0 38742.0 201516.0 193757.0 222995.0 227406.0 172185.0 172365.0 101793.0 98359.0 157592.0 157097.0 126607.0 120073.0 229574.0 234909.0 83673.0 82715.0 92079.0 91022.0 87478.0 94213.0 37782.0 33908.0 229342.0 230266.0 190186.0 194762.0 176257.0 42206.0 176257.0 176257.0 42206.0 42206.0
215768.0 210416.0 45140.0 46017.0 81903.0 82873.0 213987.0 212580.0 182645.0 179346.0 58370.0 65639.0 237004.0 232135.0 161931.0 168526.0 44219.0 46165.0 227878.0 229712.0 200365.0 196371.0 88054.0 94622.0 157355.0 153169.0 119655.0 121545.0 104074.0 112004.0 155278.0 160346.0 80574.0 73775.0 168781.0 165583.0 166022.0 158240.0 8049.0 0.0 151608.0 157880.0 183519.0 176951.0 166532.0 158864.0 203959.0 197216.0 232922.0 227118.0 119799.0 113502.0 44405.0 44768.0 198652.0 190820.0 223325.0 227978.0 172075.0 171868.0 104357.0 100378.0 156439.0 156348.0 129471.0 122693.0 226317.0 231845.0 83884.0 82120.0 95857.0 95386.0 86958.0 94047.0 32468.0 27481.0 234678.0 235386.0 196581.0 200987.0 183114.0 49871.0 183114.0 183114.0 49871.0 49871.0
350298.0 346449.0 115679.0 120759.0 231080.0 230159.0 340323.0 340239.0 311980.0 307068.0 209956.0 217076.0 364779.0 358964.0 304759.0 310307.0 194528.0 197574.0 357711.0 360902.0 324880.0 320022.0 86327.0 78936.0 296224.0 290298.0 263782.0 267401.0 246459.0 254328.0 295271.0 298650.0 220057.0 215634.0 28460.0 32603.0 307308.0 299241.0 151827.0 151608.0 0.0 8022.0 316072.0 310854.0 317315.0 309548.0 344264.0 338466.0 367697.0 363065.0 39872.0 47798.0 179525.0 182930.0 345139.0 337129.0 374779.0 379233.0 323680.0 323415.0 252020.0 249417.0 18761.0 11333.0 275913.0 269975.0 370649.0 377022.0 68247.0 69542.0 239746.0 236842.0 64683.0 57626.0 126844.0 134839.0 366147.0 368311.0 321451.0 326882.0 305958.0 149265.0 305958.0 305958.0 149265.0 149265.0
357151.0 353302.0 120850.0 125641.0 237814.0 236999.0 347176.0 347092.0 318832.0 313920.0 216249.0 223451.0 371632.0 365816.0 311612.0 317159.0 201076.0 203947.0 364564.0 367755.0 331733.0 326875.0 89458.0 81813.0 300743.0 294704.0 270635.0 274229.0 253312.0 261181.0 302124.0 305503.0 226910.0 222487.0 20951.0 26016.0 314161.0 306094.0 158349.0 157880.0 8022.0 0.0 322925.0 317707.0 323904.0 316153.0 351117.0 345319.0 374550.0 369918.0 43059.0 51003.0 186377.0 189783.0 350269.0 342249.0 381173.0 385713.0 329932.0 329538.0 258865.0 256192.0 13501.0 5638.0 282753.0 276828.0 375496.0 381954.0 75015.0 75764.0 246598.0 243695.0 70942.0 64184.0 132327.0 140309.0 373000.0 375164.0 328304.0 333735.0 312811.0 156118.0 312811.0 312811.0 156118.0 156118.0
34771.0 32765.0 228054.0 229529.0 114509.0 108588.0 41364.0 35664.0 14198.0 22113.0 144080.0 137161.0 56858.0 54618.0 46847.0 40636.0 145249.0 148747.0 45216.0 46229.0 42481.0 46580.0 270062.0 275757.0 209090.0 212449.0 73758.0 77672.0 82928.0 76071.0 38659.0 30629.0 103033.0 110289.0 337211.0 335990.0 38938.0 40545.0 178207.0 183519.0 316072.0 322925.0 0.0 8263.0 103472.0 101084.0 42730.0 43259.0 51885.0 48256.0 292110.0 287732.0 141342.0 139607.0 197275.0 194375.0 140450.0 137715.0 126993.0 134840.0 94595.0 102453.0 324284.0 322344.0 75577.0 82607.0 223693.0 223002.0 248815.0 251469.0 92019.0 89754.0 255461.0 259914.0 215833.0 210872.0 51159.0 52363.0 38925.0 35239.0 67138.0 168584.0 67138.0 67138.0 168584.0 168584.0
39504.0 35905.0 221658.0 222966.0 106733.0 100983.0 49518.0 43924.0 19750.0 26378.0 136417.0 129413.0 64910.0 62844.0 39143.0 33387.0 138064.0 141368.0 52867.0 53280.0 49403.0 52809.0 263856.0 269668.0 200961.0 204275.0 65730.0 69490.0 75463.0 68432.0 30404.0 22368.0 96381.0 103453.0 331939.0 330910.0 31374.0 32430.0 171816.0 176951.0 310854.0 317707.0 8263.0 0.0 96213.0 93549.0 41556.0 40549.0 56844.0 52287.0 286769.0 282248.0 135264.0 133352.0 189897.0 186858.0 135231.0 132868.0 119743.0 127507.0 86550.0 94375.0 319066.0 317126.0 67316.0 74362.0 216586.0 216055.0 243667.0 246115.0 84533.0 82605.0 250175.0 254794.0 209335.0 204227.0 58012.0 58451.0 45608.0 42689.0 69266.0 163413.0 69266.0 69266.0 163413.0 163413.0
110358.0 102036.0 208713.0 206719.0 86626.0 89048.0 143503.0 136537.0 115786.0 121185.0 108721.0 101074.0 150909.0 152133.0 57481.0 62865.0 122833.0 120413.0 136280.0 131975.0 145614.0 148662.0 250721.0 258151.0 114505.0 119687.0 67206.0 59789.0 83168.0 78010.0 70452.0 77244.0 107021.0 107673.0 335312.0 332041.0 64906.0 66009.0 165562.0 166532.0 317315.0 323904.0 103472.0 96213.0 0.0 7844.0 81951.0 74423.0 120411.0 112298.0 286290.0 279838.0 142023.0 137695.0 93853.0 91295.0 59153.0 62411.0 23531.0 31411.0 68368.0 68851.0 322942.0 322639.0 51901.0 53735.0 120434.0 120196.0 249079.0 248258.0 85360.0 91768.0 253034.0 259741.0 195820.0 188442.0 134088.0 128943.0 141774.0 138707.0 159981.0 180349.0 159981.0 159981.0 180349.0 180349.0
110439.0 102136.0 201217.0 199309.0 78796.0 81209.0 141689.0 134941.0 112887.0 117884.0 101176.0 93483.0 150375.0 151178.0 54444.0 60513.0 115096.0 112775.0 135856.0 131950.0 142821.0 145518.0 243323.0 250721.0 112989.0 117775.0 60182.0 52598.0 75786.0 70866.0 66466.0 73641.0 99350.0 99897.0 327638.0 324405.0 62188.0 62387.0 157821.0 158864.0 309548.0 316153.0 101084.0 93549.0 7844.0 0.0 82777.0 75005.0 121425.0 113335.0 278643.0 272221.0 134184.0 129853.0 96468.0 93311.0 66945.0 70254.0 27405.0 34453.0 60594.0 61008.0 315249.0 314910.0 44976.0 46323.0 123930.0 124151.0 241308.0 240528.0 77731.0 84250.0 245298.0 251984.0 188305.0 180966.0 134350.0 129597.0 138886.0 136217.0 155476.0 172526.0 155476.0 155476.0 172526.0 172526.0
29490.0 21493.0 249097.0 249406.0 125908.0 122402.0 70489.0 62618.0 56453.0 64679.0 155646.0 147881.0 70998.0 73828.0 42906.0 35645.0 161721.0 163291.0 56327.0 50909.0 80004.0 85856.0 291983.0 298363.0 195764.0 200460.0 84747.0 84568.0 99937.0 91977.0 49142.0 45805.0 125062.0 130763.0 365357.0 363756.0 37951.0 45742.0 199919.0 203959.0 344264.0 351117.0 42730.0 41556.0 81951.0 82777.0 0.0 8042.0 38659.0 30590.0 318778.0 313689.0 165645.0 162921.0 172996.0 171598.0 104104.0 100042.0 103766.0 112027.0 103076.0 109576.0 352443.0 350536.0 78375.0 86119.0 196538.0 194603.0 276656.0 278294.0 108129.0 108960.0 282600.0 287819.0 236318.0 230371.0 52442.0 46995.0 77480.0 71317.0 109849.0 197172.0 109849.0 109849.0 197172.0 197172.0
36187.0 27920.0 242335.0 242516.0 118577.0 115298.0 74932.0 67189.0 57390.0 65362.0 148212.0 140409.0 77463.0 79766.0 35581.0 28690.0 154685.0 156072.0 62746.0 57806.0 82904.0 88295.0 285267.0 291721.0 187968.0 192604.0 77732.0 77196.0 93353.0 85370.0 43214.0 40876.0 118851.0 124315.0 359496.0 357775.0 31337.0 39330.0 193334.0 197216.0 338466.0 345319.0 43259.0 40549.0 74423.0 75005.0 8042.0 0.0 46542.0 38513.0 312668.0 307478.0 159512.0 156663.0 166123.0 164537.0 99607.0 96038.0 96543.0 104795.0 95657.0 102019.0 346599.0 344738.0 70774.0 78490.0 190125.0 188394.0 270781.0 272256.0 101361.0 102536.0 276606.0 281940.0 229514.0 223470.0 59691.0 54607.0 80062.0 74442.0 109735.0 191730.0 109735.0 109735.0 191730.0 191730.0
17342.0 22878.0 277849.0 278877.0 158794.0 154164.0 52132.0 45155.0 59467.0 66916.0 188809.0 181322.0 39926.0 45825.0 77878.0 69988.0 192639.0 195178.0 27985.0 20072.0 68600.0 76046.0 320269.0 326201.0 234414.0 239118.0 116880.0 118330.0 129704.0 122087.0 79115.0 72989.0 152456.0 159164.0 388646.0 387691.0 71128.0 77586.0 228072.0 232922.0 367697.0 374550.0 51885.0 56844.0 120411.0 121425.0 38659.0 46542.0 0.0 8114.0 343610.0 339089.0 191897.0 189831.0 210098.0 209122.0 135472.0 130072.0 141754.0 150008.0 136733.0 143873.0 375909.0 373969.0 113359.0 121115.0 232425.0 229938.0 300467.0 302956.0 138531.0 137752.0 307008.0 311585.0 265378.0 260004.0 18091.0 10159.0 68115.0 60166.0 110171.0 220209.0 110171.0 110171.0 220209.0 220209.0
13869.0 16755.0 272132.0 273008.0 152073.0 147661.0 54954.0 47480.0 57447.0 65312.0 182071.0 174517.0 45991.0 51120.0 70521.0 62676.0 186375.0 188715.0 32787.0 25323.0 70131.0 77360.0 314683.0 320715.0 226323.0 231046.0 110203.0 111347.0 123526.0 115814.0 72584.0 66837.0 146820.0 153346.0 384174.0 383080.0 64004.0 70733.0 222431.0 227118.0 363065.0 369918.0 48256.0 52287.0 112298.0 113335.0 30590.0 38513.0 8114.0 0.0 338780.0 334134.0 186591.0 184386.0 202096.0 201074.0 128180.0 122960.0 133658.0 141913.0 129815.0 136839.0 371221.0 369337.0 106129.0 113900.0 224581.0 222170.0 295820.0 298130.0 132259.0 131792.0 302240.0 306957.0 259586.0 254085.0 24653.0 17505.0 69153.0 61416.0 109736.0 215591.0 109736.0 109736.0 215591.0 215591.0
326272.0 322081.0 79539.0 83679.0 201328.0 201422.0 316408.0 316324.0 288065.0 283153.0 177750.0 185258.0 340864.0 335049.0 278292.0 284218.0 163865.0 165876.0 333796.0 336957.0 300965.0 296108.0 46516.0 39065.0 258008.0 251882.0 236611.0 239560.0 219740.0 227701.0 269643.0 273496.0 193821.0 188683.0 49257.0 45796.0 281361.0 273340.0 121493.0 119799.0 39872.0 43059.0 292110.0 286769.0 286290.0 278643.0 318778.0 312668.0 343610.0 338780.0 0.0 7962.0 153158.0 156073.0 308253.0 300225.0 342561.0 347456.0 290859.0 289997.0 223236.0 219827.0 37573.0 39616.0 247850.0 241473.0 333070.0 339631.0 43952.0 40655.0 212462.0 210302.0 36701.0 33444.0 91700.0 99564.0 342213.0 344385.0 297536.0 302967.0 282043.0 124850.0 282043.0 282043.0 124850.0 124850.0
321747.0 317411.0 72372.0 76255.0 195244.0 195563.0 312246.0 312162.0 283911.0 278990.0 171192.0 178768.0 336702.0 330886.0 272922.0 278959.0 157672.0 159453.0 329635.0 332811.0 296803.0 291945.0 38558.0 31153.0 250221.0 244064.0 231089.0 233856.0 214370.0 222346.0 264548.0 268563.0 188643.0 183307.0 56333.0 52291.0 276150.0 268151.0 115534.0 113502.0 47798.0 51003.0 287732.0 282248.0 279838.0 272221.0 313689.0 307478.0 339089.0 334134.0 7962.0 0.0 148054.0 150815.0 300679.0 292649.0 335840.0 340818.0 284050.0 283073.0 217327.0 213744.0 45060.0 47469.0 242080.0 235604.0 325374.0 331965.0 41243.0 36623.0 206946.0 205002.0 33285.0 31726.0 84728.0 92526.0 338045.0 340060.0 293374.0 298805.0 277881.0 121060.0 277881.0 277881.0 121060.0 121060.0
174592.0 169837.0 87180.0 89421.0 56319.0 52975.0 170102.0 169011.0 139408.0 135674.0 49998.0 52784.0 193531.0 188405.0 125339.0 131102.0 31987.0 39768.0 184981.0 187272.0 156116.0 152016.0 128746.0 134424.0 164356.0 162122.0 84300.0 88265.0 66937.0 74824.0 116503.0 120568.0 40683.0 36197.0 200238.0 198322.0 128214.0 120185.0 37806.0 44405.0 179525.0 186377.0 141342.0 135264.0 142023.0 134184.0 165645.0 159512.0 191897.0 186591.0 153158.0 148054.0 0.0 4794.0 194276.0 187055.0 201014.0 204407.0 152954.0 154796.0 74212.0 73214.0 187394.0 185796.0 96905.0 91471.0 223793.0 228065.0 111617.0 112771.0 60376.0 57344.0 117168.0 122737.0 75497.0 71629.0 192356.0 193611.0 152381.0 156979.0 138719.0 38758.0 138719.0 138719.0 38758.0 38758.0
172557.0 167632.0 88508.0 90373.0 51753.0 48677.0 169242.0 167935.0 138133.0 134655.0 45388.0 48027.0 192403.0 187436.0 122237.0 128157.0 27628.0 35482.0 183562.0 185665.0 155629.0 151729.0 130505.0 136370.0 159806.0 157647.0 80869.0 84564.0 63712.0 71653.0 113794.0 118096.0 37864.0 32729.0 203445.0 201389.0 125335.0 117337.0 38742.0 44768.0 182930.0 189783.0 139607.0 133352.0 137695.0 129853.0 162921.0 156663.0 189831.0 184386.0 156073.0 150815.0 4794.0 0.0 189485.0 182269.0 196629.0 200097.0 148375.0 150148.0 70097.0 68851.0 190634.0 189179.0 93153.0 87548.0 219009.0 223274.0 114942.0 115834.0 56816.0 54230.0 120294.0 126028.0 76519.0 72212.0 190707.0 191773.0 151828.0 156222.0 138832.0 43398.0 138832.0 138832.0 43398.0 43398.0
202290.0 194042.0 229470.0 224679.0 142240.0 149142.0 237309.0 230262.0 209329.0 214335.0 146002.0 141731.0 243527.0 245305.0 150875.0 156641.0 164726.0 158402.0 228814.0 223863.0 239243.0 241984.0 264813.0 272862.0 57995.0 65788.0 147605.0 139577.0 157846.0 156158.0 162720.0 170053.0 173068.0 169643.0 356640.0 351541.0 158525.0 158814.0 201516.0 198652.0 345139.0 350269.0 197275.0 189897.0 93853.0 96468.0 172996.0 166123.0 210098.0 202096.0 308253.0 300679.0 194276.0 189485.0 0.0 8030.0 88027.0 96140.0 70413.0 62447.0 137106.0 132252.0 345738.0 347586.0 134772.0 132179.0 30066.0 33796.0 280379.0 276810.0 155306.0 163200.0 281630.0 289383.0 218495.0 210513.0 225380.0 219405.0 235333.0 232492.0 250648.0 231534.0 250648.0 250648.0 231534.0 231534.0
200722.0 192436.0 221457.0 216655.0 135564.0 142619.0 234750.0 227826.0 206145.0 210915.0 138535.0 134416.0 241764.0 243285.0 147738.0 153763.0 157282.0 150872.0 227072.0 222341.0 236091.0 238613.0 256788.0 264837.0 50890.0 58706.0 142504.0 134523.0 152160.0 150767.0 159132.0 166606.0 166663.0 163031.0 348609.0 343513.0 155498.0 155408.0 193757.0 190820.0 337129.0 342249.0 194375.0 186858.0 91295.0 93311.0 171598.0 164537.0 209122.0 201074.0 300225.0 292649.0 187055.0 182269.0 8030.0 0.0 90684.0 98842.0 68160.0 59992.0 131258.0 126146.0 337709.0 339561.0 130070.0 127123.0 36784.0 41251.0 272427.0 268830.0 149308.0 157226.0 273648.0 281407.0 210502.0 202521.0 224039.0 218270.0 232127.0 229527.0 246410.0 224138.0 246410.0 246410.0 224138.0 224138.0
132656.0 125259.0 263911.0 261246.0 145212.0 148065.0 174433.0 166617.0 154465.0 161604.0 164982.0 157722.0 173508.0 177318.0 102715.0 104549.0 180401.0 177226.0 159232.0 152738.0 182031.0 186885.0 304948.0 312612.0 134319.0 141498.0 124828.0 117924.0 141584.0 135826.0 117715.0 122312.0 166051.0 166826.0 391770.0 388131.0 107781.0 112331.0 222995.0 223325.0 374779.0 381173.0 140450.0 135231.0 59153.0 66945.0 104104.0 99607.0 135472.0 128180.0 342561.0 335840.0 201014.0 196629.0 88027.0 90684.0 0.0 8160.0 52157.0 54881.0 127520.0 127800.0 379601.0 379670.0 109553.0 112397.0 102427.0 98245.0 306668.0 305411.0 144332.0 150492.0 310231.0 317154.0 251233.0 243592.0 152801.0 145532.0 178907.0 173787.0 205338.0 239442.0 205338.0 205338.0 239442.0 239442.0
128099.0 120919.0 269076.0 266575.0 148979.0 151435.0 170525.0 162660.0 151830.0 159174.0 169730.0 162340.0 168584.0 172668.0 101917.0 103140.0 184722.0 181823.0 154462.0 147778.0 178831.0 183923.0 310381.0 317995.0 142309.0 149449.0 126561.0 119944.0 143646.0 137582.0 116974.0 121112.0 168616.0 169763.0 396618.0 393100.0 106487.0 111517.0 227406.0 227978.0 379233.0 385713.0 137715.0 132868.0 62411.0 70254.0 100042.0 96038.0 130072.0 122960.0 347456.0 340818.0 204407.0 200097.0 96140.0 98842.0 8160.0 0.0 58057.0 61489.0 130514.0 131260.0 384376.0 384306.0 111416.0 114762.0 110016.0 105619.0 311049.0 309977.0 146860.0 152749.0 314781.0 321616.0 256330.0 248752.0 147613.0 140185.0 175835.0 170453.0 203519.0 242642.0 203519.0 203519.0 242642.0 242642.0
132698.0 124395.0 211974.0 209190.0 96635.0 100798.0 166896.0 159860.0 139306.0 144641.0 113730.0 106753.0 173630.0 175130.0 80952.0 86394.0 129947.0 126207.0 158947.0 154332.0 169143.0 172156.0 252834.0 260519.0 96087.0 102037.0 85814.0 77901.0 100042.0 96044.0 93613.0 100582.0 121511.0 120796.0 340102.0 336334.0 88426.0 89327.0 172185.0 172075.0 323680.0 329932.0 126993.0 119743.0 23531.0 27405.0 103766.0 96543.0 141754.0 133658.0 290859.0 284050.0 152954.0 148375.0 70413.0 68160.0 52157.0 58057.0 0.0 8262.0 82336.0 80709.0 328029.0 328286.0 71050.0 71010.0 96950.0 96889.0 255761.0 254189.0 100550.0 107708.0 259030.0 266091.0 199364.0 191670.0 156177.0 150652.0 165298.0 162230.0 182844.0 191700.0 182844.0 182844.0 191700.0 191700.0
140944.0 132639.0 210819.0 207767.0 98600.0 103335.0 174906.0 167913.0 147006.0 152200.0 113724.0 107060.0 181845.0 183297.0 88579.0 94210.0 130545.0 126365.0 167168.0 162579.0 176886.0 179777.0 251181.0 258938.0 88504.0 94635.0 91035.0 83021.0 104473.0 100953.0 100913.0 108027.0 124874.0 123651.0 339254.0 335314.0 96150.0 96767.0 172365.0 171868.0 323415.0 329538.0 134840.0 127507.0 31411.0 34453.0 112027.0 104795.0 150008.0 141913.0 289997.0 283073.0 154796.0 150148.0 62447.0 59992.0 54881.0 61489.0 8262.0 0.0 85907.0 83567.0 327300.0 327758.0 76638.0 75925.0 89483.0 89758.0 255716.0 253876.0 104345.0 111721.0 258732.0 265907.0 198346.0 190568.0 164436.0 158914.0 173009.0 170065.0 189830.0 193544.0 189830.0 189830.0 193544.0 193544.0
120721.0 113897.0 148907.0 148353.0 23075.0 21876.0 133683.0 129418.0 99938.0 100684.0 52570.0 44831.0 151444.0 148965.0 60171.0 67630.0 60410.0 60795.0 139200.0 138673.0 126727.0 126192.0 191867.0 198732.0 127253.0 128543.0 20841.0 18535.0 21239.0 22424.0 58077.0 65237.0 39201.0 39306.0 271602.0 268969.0 65898.0 59148.0 101793.0 104357.0 252020.0 258865.0 94595.0 86550.0 68368.0 60594.0 103076.0 95657.0 136733.0 129815.0 223236.0 217327.0 74212.0 70097.0 137106.0 131258.0 127520.0 130514.0 82336.0 85907.0 0.0 8048.0 258956.0 258015.0 25388.0 18337.0 167083.0 169589.0 183856.0 183892.0 18553.0 26255.0 188541.0 194785.0 135921.0 129355.0 142893.0 141458.0 122420.0 123365.0 124185.0 112154.0 124185.0 124185.0 112154.0 112154.0
128044.0 121087.0 144453.0 143563.0 18501.0 20297.0 141689.0 137374.0 107955.0 108732.0 46443.0 38526.0 159283.0 156886.0 66754.0 74376.0 56169.0 55667.0 146928.0 146265.0 134771.0 134210.0 187306.0 194313.0 120108.0 121182.0 28763.0 25570.0 28011.0 30201.0 65572.0 72880.0 41616.0 40116.0 268451.0 265611.0 72839.0 66357.0 98359.0 100378.0 249417.0 256192.0 102453.0 94375.0 68851.0 61008.0 109576.0 102019.0 143873.0 136839.0 219827.0 213744.0 73214.0 68851.0 132252.0 126146.0 127800.0 131260.0 80709.0 83567.0 8048.0 0.0 255890.0 255180.0 31259.0 23631.0 162300.0 165111.0 181197.0 180886.0 23289.0 31225.0 185589.0 192025.0 131443.0 124654.0 150421.0 148816.0 130465.0 131407.0 131866.0 111706.0 131866.0 131866.0 111706.0 111706.0
358510.0 354622.0 117085.0 121241.0 237423.0 237087.0 348535.0 348451.0 320192.0 315280.0 214654.0 222055.0 372991.0 367176.0 312725.0 318372.0 200227.0 202601.0 365923.0 369114.0 333092.0 328235.0 82346.0 74423.0 295078.0 288839.0 271483.0 274826.0 254306.0 262212.0 303420.0 306852.0 228025.0 223361.0 12954.0 14310.0 315403.0 307342.0 157592.0 156439.0 18761.0 13501.0 324284.0 319066.0 322942.0 315249.0 352443.0 346599.0 375909.0 371221.0 37573.0 45060.0 187394.0 190634.0 345738.0 337709.0 379601.0 384376.0 328029.0 327300.0 258956.0 255890.0 0.0 7961.0 283243.0 277082.0 370377.0 376995.0 75824.0 75065.0 247377.0 244737.0 70449.0 64675.0 129139.0 137038.0 374359.0 376523.0 329663.0 335094.0 314170.0 157477.0 314170.0 314170.0 157477.0 157477.0
356570.0 352721.0 118355.0 122907.0 236758.0 236140.0 346595.0 346511.0 318251.0 313339.0 214693.0 221979.0 371051.0 365236.0 311017.0 316525.0 199815.0 202486.0 363983.0 367174.0 331152.0 326294.0 85659.0 77899.0 297614.0 291498.0 270041.0 273594.0 252731.0 260599.0 301543.0 304922.0 226321.0 221893.0 17418.0 21292.0 313580.0 305513.0 157097.0 156348.0 11333.0 5638.0 322344.0 317126.0 322639.0 314910.0 350536.0 344738.0 373969.0 369337.0 39616.0 47469.0 185796.0 189179.0 347586.0 339561.0 379670.0 384306.0 328286.0 327758.0 258015.0 255180.0 7961.0 0.0 282076.0 276051.0 372589.0 379109.0 74256.0 74383.0 245990.0 243113.0 69625.0 63242.0 130072.0 138031.0 372419.0 374583.0 327723.0 333154.0 312230.0 155537.0 312230.0 312230.0 155537.0 155537.0
98023.0 90743.0 174174.0 173707.0 48452.0 46615.0 116410.0 111203.0 83506.0 86032.0 77610.0 69739.0 131641.0 130093.0 35697.0 43464.0 85705.0 86176.0 118547.0 117148.0 112370.0 113198.0 217154.0 223968.0 135812.0 138453.0 15340.0 8753.0 32300.0 26285.0 37059.0 44987.0 58157.0 60808.0 295959.0 293511.0 42258.0 36590.0 126607.0 129471.0 275913.0 282753.0 75577.0 67316.0 51901.0 44976.0 78375.0 70774.0 113359.0 106129.0 247850.0 242080.0 96905.0 93153.0 134772.0 130070.0 109553.0 111416.0 71050.0 76638.0 25388.0 31259.0 283243.0 282076.0 0.0 7778.0 163934.0 165252.0 207829.0 208203.0 36734.0 41660.0 212794.0 218842.0 161202.0 154697.0 121011.0 118825.0 108113.0 107630.0 116844.0 133594.0 116844.0 116844.0 133594.0 133594.0
105716.0 98477.0 167226.0 166613.0 41220.0 40051.0 123169.0 118152.0 89984.0 92090.0 70059.0 62154.0 138925.0 137201.0 43474.0 51240.0 78729.0 78903.0 125966.0 124702.0 118451.0 118949.0 210177.0 217059.0 130350.0 132693.0 15440.0 7401.0 29463.0 25050.0 44324.0 52139.0 53892.0 55688.0 289755.0 287186.0 50000.0 44166.0 120073.0 122693.0 269975.0 276828.0 82607.0 74362.0 53735.0 46323.0 86119.0 78490.0 121115.0 113900.0 241473.0 235604.0 91471.0 87548.0 132179.0 127123.0 112397.0 114762.0 71010.0 75925.0 18337.0 23631.0 277082.0 276051.0 7778.0 0.0 161671.0 163354.0 201843.0 202018.0 32145.0 38101.0 206645.0 212810.0 154236.0 147631.0 128618.0 126520.0 114170.0 114024.0 121091.0 128765.0 121091.0 121091.0 128765.0 128765.0
226022.0 217903.0 255067.0 249903.0 172235.0 179186.0 262959.0 255693.0 236205.0 241591.0 175075.0 171109.0 267505.0 269833.0 177900.0 183202.0 193841.0 187310.0 252803.0 247384.0 265985.0 269096.0 288722.0 296775.0 76466.0 83598.0 177111.0 169055.0 187741.0 185876.0 190395.0 197488.0 203131.0 199664.0 380929.0 375532.0 185330.0 186228.0 229574.0 226317.0 370649.0 375496.0 223693.0 216586.0 120434.0 123930.0 196538.0 190125.0 232425.0 224581.0 333070.0 325374.0 223793.0 219009.0 30066.0 36784.0 102427.0 110016.0 96950.0 89483.0 167083.0 162300.0 370377.0 372589.0 163934.0 161671.0 0.0 8111.0 306955.0 303013.0 185326.0 193211.0 307791.0 315630.0 244569.0 236634.0 248483.0 242055.0 262179.0 258918.0 279075.0 260732.0 279075.0 279075.0 260732.0 260732.0
224090.0 216042.0 261379.0 256321.0 175727.0 182472.0 261813.0 254451.0 235742.0 241341.0 179754.0 175526.0 265601.0 268160.0 177648.0 182680.0 198490.0 192115.0 250927.0 245326.0 265403.0 268723.0 295495.0 303550.0 83788.0 91043.0 178780.0 170705.0 190014.0 187827.0 190501.0 197428.0 206239.0 203045.0 387638.0 382312.0 184935.0 186182.0 234909.0 231845.0 377022.0 381954.0 223002.0 216055.0 120196.0 124151.0 194603.0 188394.0 229938.0 222170.0 339631.0 331965.0 228065.0 223274.0 33796.0 41251.0 98245.0 105619.0 96889.0 89758.0 169589.0 165111.0 376995.0 379109.0 165252.0 163354.0 8111.0 0.0 312958.0 309147.0 187962.0 195804.0 313941.0 321753.0 250725.0 242771.0 246258.0 239669.0 261661.0 258174.0 279587.0 265317.0 279587.0 279587.0 265317.0 265317.0
283145.0 279170.0 54303.0 61064.0 162842.0 161988.0 273093.0 273009.0 244750.0 239838.0 142055.0 149045.0 297549.0 291734.0 236924.0 242549.0 126328.0 129562.0 290481.0 293672.0 257650.0 252792.0 49819.0 48298.0 234402.0 229091.0 195810.0 199340.0 178550.0 186440.0 227611.0 231112.0 152218.0 147664.0 88714.0 87266.0 239579.0 231519.0 83673.0 83884.0 68247.0 75015.0 248815.0 243667.0 249079.0 241308.0 276656.0 270781.0 300467.0 295820.0 43952.0 41243.0 111617.0 114942.0 280379.0 272427.0 306668.0 311049.0 255761.0 255716.0 183856.0 181197.0 75824.0 74256.0 207829.0 201843.0 306955.0 312958.0 0.0 8428.0 171743.0 168958.0 8493.0 11165.0 62806.0 70579.0 298917.0 301081.0 254221.0 259652.0 238728.0 81174.0 238728.0 238728.0 81174.0 81174.0
285618.0 281435.0 48806.0 55163.0 162439.0 162022.0 275808.0 275725.0 247433.0 242553.0 140489.0 147689.0 300265.0 294449.0 238058.0 243873.0 125432.0 128187.0 293131.0 296385.0 260365.0 255508.0 41402.0 40091.0 229827.0 224343.0 196591.0 199809.0 179545.0 187484.0 229174.0 232934.0 153454.0 148529.0 87755.0 85560.0 240976.0 232939.0 82715.0 82120.0 69542.0 75764.0 251469.0 246115.0 248258.0 240528.0 278294.0 272256.0 302956.0 298130.0 40655.0 36623.0 112771.0 115834.0 276810.0 268830.0 305411.0 309977.0 254189.0 253876.0 183892.0 180886.0 75065.0 74383.0 208203.0 202018.0 303013.0 309147.0 8428.0 0.0 172458.0 170041.0 4870.0 12630.0 58446.0 66381.0 301633.0 303757.0 256937.0 262367.0 241444.0 84457.0 241444.0 241444.0 84457.0 84457.0
121732.0 115738.0 140984.0 141305.0 24129.0 16859.0 128371.0 125072.0 94773.0 94011.0 52319.0 45894.0 148339.0 144921.0 66183.0 72671.0 54119.0 56887.0 137235.0 137774.0 119095.0 117533.0 183906.0 190378.0 142523.0 143183.0 24149.0 28009.0 9096.0 16448.0 59795.0 65544.0 21756.0 24182.0 260160.0 257956.0 70180.0 62459.0 92079.0 95857.0 239746.0 246598.0 92019.0 84533.0 85360.0 77731.0 108129.0 101361.0 138531.0 132259.0 212462.0 206946.0 60376.0 56816.0 155306.0 149308.0 144332.0 146860.0 100550.0 104345.0 18553.0 23289.0 247377.0 245990.0 36734.0 32145.0 185326.0 187962.0 171743.0 172458.0 0.0 7938.0 176975.0 182815.0 128190.0 122282.0 142392.0 142025.0 114847.0 116927.0 112043.0 96878.0 112043.0 112043.0 96878.0 96878.0
120722.0 115126.0 140481.0 141220.0 30089.0 21982.0 124669.0 121786.0 91378.0 89989.0 56264.0 50515.0 145448.0 141660.0 68017.0 73961.0 55495.0 59248.0 134872.0 135854.0 114500.0 112534.0 183224.0 189487.0 150178.0 150716.0 27504.0 32950.0 9723.0 17487.0 59989.0 64976.0 16929.0 21803.0 257577.0 255601.0 71201.0 63254.0 91022.0 95386.0 236842.0 243695.0 89754.0 82605.0 91768.0 84250.0 108960.0 102536.0 137752.0 131792.0 210302.0 205002.0 57344.0 54230.0 163200.0 157226.0 150492.0 152749.0 107708.0 111721.0 26255.0 31225.0 244737.0 243113.0 41660.0 38101.0 193211.0 195804.0 168958.0 170041.0 7938.0 0.0 174474.0 180081.0 127848.0 122294.0 140616.0 140703.0 110298.0 112829.0 105770.0 92464.0 105770.0 105770.0 92464.0 92464.0
289674.0 285558.0 53379.0 59599.0 167153.0 166667.0 279730.0 279646.0 251387.0 246475.0 145324.0 152509.0 304186.0 298371.0 242490.0 248259.0 130203.0 133005.0 297118.0 300260.0 264287.0 259430.0 42740.0 40514.0 234512.0 228995.0 201097.0 204381.0 184000.0 191929.0 233495.0 237185.0 157846.0 153007.0 83190.0 81170.0 245343.0 237299.0 87478.0 86958.0 64683.0 70942.0 255461.0 250175.0 253034.0 245298.0 282600.0 276606.0 307008.0 302240.0 36701.0 33285.0 117168.0 120294.0 281630.0 273648.0 310231.0 314781.0 259030.0 258732.0 188541.0 185589.0 70449.0 69625.0 212794.0 206645.0 307791.0 313941.0 8493.0 4870.0 176975.0 174474.0 0.0 7987.0 63223.0 71170.0 305518.0 307717.0 260858.0 266289.0 245365.0 88159.0 245365.0 245365.0 88159.0 88159.0
294266.0 290313.0 61356.0 67585.0 173636.0 172911.0 284216.0 284132.0 255872.0 250960.0 152361.0 159455.0 308672.0 302856.0 248058.0 253699.0 136927.0 139955.0 301604.0 304794.0 268773.0 263915.0 48387.0 45112.0 242448.0 236950.0 206896.0 210372.0 189663.0 197560.0 238772.0 242277.0 163354.0 158755.0 77556.0 76123.0 250733.0 242674.0 94213.0 94047.0 57626.0 64184.0 259914.0 254794.0 259741.0 251984.0 287819.0 281940.0 311585.0 306957.0 33444.0 31726.0 122737.0 126028.0 289383.0 281407.0 317154.0 321616.0 266091.0 265907.0 194785.0 192025.0 64675.0 63242.0 218842.0 212810.0 315630.0 321753.0 11165.0 12630.0 182815.0 180081.0 7987.0 0.0 71069.0 78996.0 310040.0 312204.0 265344.0 270775.0 249851.0 92214.0 249851.0 249851.0 92214.0 92214.0
248213.0 242883.0 13010.0 13949.0 113124.0 114746.0 245596.0 244425.0 214651.0 211116.0 87137.0 94914.0 268911.0 263875.0 194150.0 200832.0 75511.0 76024.0 260032.0 261992.0 231501.0 227217.0 55953.0 62869.0 171603.0 166291.0 151859.0 153455.0 136488.0 144401.0 187711.0 192813.0 112984.0 106241.0 140943.0 136986.0 198370.0 190621.0 37782.0 32468.0 126844.0 132327.0 215833.0 209335.0 195820.0 188305.0 236318.0 229514.0 265378.0 259586.0 91700.0 84728.0 75497.0 76519.0 218495.0 210502.0 251233.0 256330.0 199364.0 198346.0 135921.0 131443.0 129139.0 130072.0 161202.0 154236.0 244569.0 250725.0 62806.0 58446.0 128190.0 127848.0 63223.0 71069.0 0.0 7996.0 266985.0 267782.0 227808.0 232474.0 213451.0 68145.0 213451.0 213451.0 68145.0 68145.0
242902.0 237417.0 20324.0 19050.0 106441.0 108408.0 241451.0 240062.0 210118.0 206825.0 79868.0 87712.0 264484.0 259613.0 188019.0 194812.0 69021.0 69063.0 255314.0 257083.0 227726.0 223641.0 62682.0 69855.0 163834.0 158592.0 145749.0 147079.0 130730.0 138593.0 181971.0 187258.0 107858.0 100865.0 148788.0 144746.0 192423.0 184741.0 33908.0 27481.0 134839.0 140309.0 210872.0 204227.0 188442.0 180966.0 230371.0 223470.0 260004.0 254085.0 99564.0 92526.0 71629.0 72212.0 210513.0 202521.0 243592.0 248752.0 191670.0 190568.0 129355.0 124654.0 137038.0 138031.0 154697.0 147631.0 236634.0 242771.0 70579.0 66381.0 122282.0 122294.0 71170.0 78996.0 7996.0 0.0 262028.0 262632.0 223966.0 228431.0 210164.0 68493.0 210164.0 210164.0 68493.0 68493.0
23998.0 32241.0 279183.0 280687.0 164039.0 158662.0 37740.0 32115.0 54425.0 60509.0 193927.0 186731.0 21864.0 28184.0 86652.0 78776.0 196067.0 199273.0 11955.0 5358.0 55819.0 63430.0 321101.0 326720.0 247045.0 251404.0 122376.0 124932.0 133354.0 126142.0 84849.0 77725.0 154181.0 161382.0 387287.0 386158.0 79159.0 84452.0 229342.0 234678.0 366147.0 373000.0 51159.0 58012.0 134088.0 134350.0 52442.0 59691.0 18091.0 24653.0 342213.0 338045.0 192356.0 190707.0 225380.0 224039.0 152801.0 147613.0 156177.0 164436.0 142893.0 150421.0 374359.0 372419.0 121011.0 128618.0 248483.0 246258.0 298917.0 301633.0 142392.0 140616.0 305518.0 310040.0 266985.0 262028.0 0.0 8242.0 56256.0 48248.0 100102.0 218659.0 100102.0 100102.0 218659.0 218659.0
20805.0 28383.0 280109.0 281398.0 163067.0 158029.0 44860.0 38598.0 57625.0 64378.0 193050.0 185710.0 30056.0 36404.0 83818.0 75895.0 195976.0 198878.0 19443.0 11616.0 62391.0 69971.0 322273.0 328035.0 242520.0 247060.0 121207.0 123251.0 133065.0 125650.0 83427.0 76720.0 154812.0 161801.0 389450.0 388321.0 76635.0 82503.0 230266.0 235386.0 368311.0 375164.0 52363.0 58451.0 128943.0 129597.0 46995.0 54607.0 10159.0 17505.0 344385.0 340060.0 193611.0 191773.0 219405.0 218270.0 145532.0 140185.0 150652.0 158914.0 141458.0 148816.0 376523.0 374583.0 118825.0 126520.0 242055.0 239669.0 301081.0 303757.0 142025.0 140703.0 307717.0 312204.0 267782.0 262632.0 8242.0 0.0 62449.0 54411.0 105724.0 220823.0 105724.0 105724.0 220823.0 220823.0
56489.0 60108.0 239138.0 241751.0 138860.0 131623.0 20418.0 24167.0 26005.0 22088.0 166562.0 160619.0 45902.0 38795.0 84458.0 78992.0 163717.0 168661.0 44634.0 51266.0 4308.0 8458.0 279326.0 284191.0 243773.0 246557.0 102270.0 108021.0 106124.0 101020.0 73521.0 65738.0 119497.0 127559.0 342590.0 341462.0 76872.0 76810.0 190186.0 196581.0 321451.0 328304.0 38925.0 45608.0 141774.0 138886.0 77480.0 80062.0 68115.0 69153.0 297536.0 293374.0 152381.0 151828.0 235333.0 232127.0 178907.0 175835.0 165298.0 173009.0 122420.0 130465.0 329663.0 327723.0 108113.0 114170.0 262179.0 261661.0 254221.0 256937.0 114847.0 110298.0 260858.0 265344.0 227808.0 223966.0 56256.0 62449.0 0.0 8039.0 44275.0 173963.0 44275.0 44275.0 173963.0 173963.0
49012.0 53097.0 243976.0 246401.0 140752.0 133775.0 13538.0 16208.0 24161.0 22919.0 169002.0 162815.0 38869.0 32259.0 81832.0 75855.0 166996.0 171663.0 36686.0 43236.0 8891.0 15949.0 284520.0 289522.0 242806.0 245826.0 102887.0 108189.0 108046.0 102494.0 71981.0 64010.0 122922.0 130887.0 348021.0 346892.0 74030.0 74785.0 194762.0 200987.0 326882.0 333735.0 35239.0 42689.0 138707.0 136217.0 71317.0 74442.0 60166.0 61416.0 302967.0 298805.0 156979.0 156222.0 232492.0 229527.0 173787.0 170453.0 162230.0 170065.0 123365.0 131407.0 335094.0 333154.0 107630.0 114024.0 258918.0 258174.0 259652.0 262367.0 116927.0 112829.0 266289.0 270775.0 232474.0 228431.0 48248.0 54411.0 8039.0 0.0 52073.0 179394.0 52073.0 52073.0 179394.0 179394.0
96105.0 97414.0 224357.0 227389.0 135822.0 127741.0 64505.0 68264.0 53939.0 45598.0 160498.0 155671.0 89757.0 82210.0 103862.0 100912.0 154464.0 160365.0 88720.0 94953.0 45843.0 38771.0 263929.0 268701.0 250760.0 252484.0 106667.0 113965.0 104539.0 101763.0 89706.0 83699.0 110802.0 118974.0 327097.0 325969.0 97835.0 94554.0 176257.0 183114.0 305958.0 312811.0 67138.0 69266.0 159981.0 155476.0 109849.0 109735.0 110171.0 109736.0 282043.0 277881.0 138719.0 138832.0 250648.0 246410.0 205338.0 203519.0 182844.0 189830.0 124185.0 131866.0 314170.0 312230.0 116844.0 121091.0 279075.0 279587.0 238728.0 241444.0 112043.0 105770.0 245365.0 249851.0 213451.0 210164.0 100102.0 105724.0 44275.0 52073.0 0.0 158470.0 0.0 0.0 158470.0 158470.0
202888.0 198964.0 75676.0 80817.0 95068.0 91411.0 192835.0 192751.0 164492.0 159580.0 85675.0 89876.0 217291.0 211476.0 159119.0 164086.0 66901.0 73696.0 210223.0 213414.0 177392.0 172534.0 110557.0 114448.0 197841.0 194778.0 119965.0 124850.0 102177.0 109679.0 148561.0 151405.0 75595.0 73098.0 170417.0 168223.0 160920.0 152851.0 42206.0 49871.0 149265.0 156118.0 168584.0 163413.0 180349.0 172526.0 197172.0 191730.0 220209.0 215591.0 124850.0 121060.0 38758.0 43398.0 231534.0 224138.0 239442.0 242642.0 191700.0 193544.0 112154.0 111706.0 157477.0 155537.0 133594.0 128765.0 260732.0 265317.0 81174.0 84457.0 96878.0 92464.0 88159.0 92214.0 68145.0 68493.0 218659.0 220823.0 173963.0 179394.0 158470.0 0.0 158470.0 158470.0 0.0 0.0
96105.0 97414.0 224357.0 227389.0 135822.0 127741.0 64505.0 68264.0 53939.0 45598.0 160498.0 155671.0 89757.0 82210.0 103862.0 100912.0 154464.0 160365.0 88720.0 94953.0 45843.0 38771.0 263929.0 268701.0 250760.0 252484.0 106667.0 113965.0 104539.0 101763.0 89706.0 83699.0 110802.0 118974.0 327097.0 325969.0 97835.0 94554.0 176257.0 183114.0 305958.0 312811.0 67138.0 69266.0 159981.0 155476.0 109849.0 109735.0 110171.0 109736.0 282043.0 277881.0 138719.0 138832.0 250648.0 246410.0 205338.0 203519.0 182844.0 189830.0 124185.0 131866.0 314170.0 312230.0 116844.0 121091.0 279075.0 279587.0 238728.0 241444.0 112043.0 105770.0 245365.0 249851.0 213451.0 210164.0 100102.0 105724.0 44275.0 52073.0 0.0 158470.0 0.0 0.0 158470.0 158470.0
96105.0 97414.0 224357.0 227389.0 135822.0 127741.0 64505.0 68264.0 53939.0 45598.0 160498.0 155671.0 89757.0 82210.0 103862.0 100912.0 154464.0 160365.0 88720.0 94953.0 45843.0 38771.0 263929.0 268701.0 250760.0 252484.0 106667.0 113965.0 104539.0 101763.0 89706.0 83699.0 110802.0 118974.0 327097.0 325969.0 97835.0 94554.0 176257.0 183114.0 305958.0 312811.0 67138.0 69266.0 159981.0 155476.0 109849.0 109735.0 110171.0 109736.0 282043.0 277881.0 138719.0 138832.0 250648.0 246410.0 205338.0 203519.0 182844.0 189830.0 124185.0 131866.0 314170.0 312230.0 116844.0 121091.0 279075.0 279587.0 238728.0 241444.0 112043.0 105770.0 245365.0 249851.0 213451.0 210164.0 100102.0 105724.0 44275.0 52073.0 0.0 158470.0 0.0 0.0 158470.0 158470.0
202888.0 198964.0 75676.0 80817.0 95068.0 91411.0 192835.0 192751.0 164492.0 159580.0 85675.0 89876.0 217291.0 211476.0 159119.0 164086.0 66901.0 73696.0 210223.0 213414.0 177392.0 172534.0 110557.0 114448.0 197841.0 194778.0 119965.0 124850.0 102177.0 109679.0 148561.0 151405.0 75595.0 73098.0 170417.0 168223.0 160920.0 152851.0 42206.0 49871.0 149265.0 156118.0 168584.0 163413.0 180349.0 172526.0 197172.0 191730.0 220209.0 215591.0 124850.0 121060.0 38758.0 43398.0 231534.0 224138.0 239442.0 242642.0 191700.0 193544.0 112154.0 111706.0 157477.0 155537.0 133594.0 128765.0 260732.0 265317.0 81174.0 84457.0 96878.0 92464.0 88159.0 92214.0 68145.0 68493.0 218659.0 220823.0 173963.0 179394.0 158470.0 0.0 158470.0 158470.0 0.0 0.0
202888.0 198964.0 75676.0 80817.0 95068.0 91411.0 192835.0 192751.0 164492.0 159580.0 85675.0 89876.0 217291.0 211476.0 159119.0 164086.0 66901.0 73696.0 210223.0 213414.0 177392.0 172534.0 110557.0 114448.0 197841.0 194778.0 119965.0 124850.0 102177.0 109679.0 148561.0 151405.0 75595.0 73098.0 170417.0 168223.0 160920.0 152851.0 42206.0 49871.0 149265.0 156118.0 168584.0 163413.0 180349.0 172526.0 197172.0 191730.0 220209.0 215591.0 124850.0 121060.0 38758.0 43398.0 231534.0 224138.0 239442.0 242642.0 191700.0 193544.0 112154.0 111706.0 157477.0 155537.0 133594.0 128765.0 260732.0 265317.0 81174.0 84457.0 96878.0 92464.0 88159.0 92214.0 68145.0 68493.0 218659.0 220823.0 173963.0 179394.0 158470.0 0.0 158470.0 158470.0 0.0 0.0
FIXED_EDGES_SECTION
1 2
3 4
5 6
7 8
9 10
11 12
13 14
15 16
17 18
19 20
21 22
23 24
25 26
27 28
29 30
31 32
33 34
35 36
37 38
39 40
41 42
43 44
45 46
47 48
49 50
51 52
53 54
55 56
57 58
59 60
61 62
63 64
65 66
67 68
69 70
71 72
73 74
75 76
77 78
79 80
-1 
DEMAND_SECTION
1 375
2 375
3 620
4 620
5 119
6 119
7 247
8 247
9 100
10 100
11 130
12 130
13 216
14 216
15 353
16 353
17 342
18 342
19 274
20 274
21 341
22 341
23 350
24 350
25 321
26 321
27 114
28 114
29 432
30 432
31 207
32 207
33 324
34 324
35 491
36 491
37 293
38 293
39 313
40 313
41 280
42 280
43 155
44 155
45 82
46 82
47 461
48 461
49 265
50 265
51 322
52 322
53 399
54 399
55 258
56 258
57 68
58 68
59 74
60 74
61 380
62 380
63 71
64 71
65 191
66 191
67 138
68 138
69 534
70 534
71 214
72 214
73 184
74 184
75 319
76 319
77 500
78 500
79 104
80 104
81 0
82 0
83 0
84 0
85 0
86 0
DEPOT_SECTION
81 
-1 
CAPACITIES_SECTION
10000 
11000 
12000 
13000 
-1 
EOF