NAME: GFS_20_1
TYPE: GFSP
DIMENSION: 86
VEHICLES: 4
CAPACITY: 10000.0
TRIP_DIST_LIMIT: 750000.0
TOTAL_DIST_LIMIT: 1050000.0
EDGE_WEIGHT_TYPE: EXPLICIT
EDGE_WEIGHT_FORMAT: FULL_MATRIX
EDGE_WEIGHT_SECTION
0.0 8199.0 169321.0 167584.0 29672.0 38080.0 89734.0 95544.0 237097.0 228911.0 29566.0 21150.0 69731.0 69453.0 99382.0 91703.0 135633.0 134540.0 10213.0 18087.0 17932.0 10156.0 20395.0 14296.0 87389.0 88354.0 136224.0 136041.0 275423.0 267531.0 24855.0 32055.0 138909.0 139127.0 155583.0 163098.0 68238.0 64138.0 139038.0 138847.0 159522.0 161691.0 115737.0 108555.0 87949.0 88037.0 122206.0 122463.0 132032.0 127251.0 131830.0 127354.0 37997.0 45269.0 72511.0 76475.0 76413.0 68969.0 126861.0 120836.0 266389.0 258155.0 154657.0 151049.0 38317.0 45729.0 86190.0 80001.0 119645.0 126259.0 96259.0 88609.0 128806.0 123045.0 98862.0 106625.0 129700.0 124183.0 84699.0 80552.0 126955.0 122677.0 126955.0 126955.0 122677.0 122677.0
8199.0 0.0 164875.0 162809.0 23523.0 31994.0 93366.0 99574.0 233024.0 224856.0 21950.0 13389.0 64493.0 63508.0 106968.0 99248.0 143831.0 142717.0 2030.0 10172.0 25871.0 18128.0 27840.0 22393.0 86858.0 88551.0 130563.0 130758.0 270082.0 262160.0 31880.0 39454.0 146835.0 147151.0 163780.0 171291.0 65520.0 62276.0 146751.0 146707.0 155765.0 158295.0 123837.0 116604.0 86268.0 85626.0 130025.0 130423.0 140113.0 135389.0 128704.0 124639.0 46179.0 53467.0 72166.0 75308.0 78783.0 71043.0 133349.0 127108.0 260956.0 252728.0 151746.0 147778.0 38440.0 46531.0 86597.0 80934.0 117113.0 123427.0 103942.0 96219.0 137004.0 131237.0 95339.0 102933.0 125786.0 119946.0 82098.0 77740.0 133796.0 120562.0 133796.0 133796.0 120562.0 120562.0
169321.0 164875.0 0.0 8300.0 141828.0 133685.0 258155.0 264449.0 69044.0 60777.0 146936.0 154028.0 100835.0 103725.0 258514.0 251837.0 270906.0 273893.0 164071.0 156991.0 183687.0 177451.0 172237.0 175327.0 242565.0 246774.0 236799.0 242346.0 109587.0 102161.0 192815.0 198310.0 251853.0 256391.0 288745.0 296479.0 214541.0 215709.0 244634.0 249283.0 281018.0 286952.0 262508.0 258109.0 91318.0 86812.0 234787.0 240218.0 253659.0 253575.0 263906.0 263740.0 195049.0 197931.0 229844.0 229674.0 242495.0 234486.0 292927.0 287853.0 101650.0 93637.0 285826.0 279033.0 136968.0 134172.0 245615.0 241742.0 60798.0 52885.0 254415.0 248262.0 264060.0 256144.0 71927.0 63901.0 254276.0 246337.0 88771.0 91644.0 219294.0 63526.0 219294.0 219294.0 63526.0 63526.0
167584.0 162809.0 8300.0 0.0 139545.0 131278.0 255861.0 262301.0 73199.0 64927.0 144243.0 151579.0 98417.0 100726.0 258441.0 251636.0 272579.0 275345.0 161915.0 154613.0 182434.0 175993.0 171470.0 174202.0 238916.0 243331.0 230715.0 236408.0 109161.0 101520.0 191421.0 197157.0 254053.0 258562.0 290670.0 298441.0 210660.0 212101.0 246834.0 251483.0 275346.0 281399.0 263402.0 258782.0 92462.0 87365.0 236958.0 242412.0 255840.0 255592.0 258815.0 258854.0 194555.0 197750.0 226452.0 226009.0 239828.0 231784.0 292162.0 286908.0 100780.0 92635.0 280542.0 273650.0 136391.0 134094.0 242258.0 238608.0 63494.0 55805.0 254404.0 248083.0 265679.0 257816.0 71735.0 63769.0 248935.0 240967.0 88986.0 91494.0 221494.0 67000.0 221494.0 221494.0 67000.0 67000.0
29672.0 23523.0 141828.0 139545.0 0.0 8481.0 116348.0 122757.0 210242.0 202070.0 8902.0 12502.0 41133.0 40000.0 128494.0 120896.0 160864.0 160575.0 22441.0 15225.0 47028.0 39467.0 42504.0 40756.0 105206.0 107997.0 134776.0 136386.0 246581.0 238654.0 54526.0 61599.0 159223.0 160491.0 180817.0 188512.0 80395.0 79010.0 157462.0 158537.0 165912.0 169415.0 142879.0 136113.0 67811.0 65753.0 141716.0 143289.0 154173.0 150300.0 140920.0 137938.0 65115.0 71359.0 91124.0 92846.0 100897.0 92965.0 156501.0 150399.0 237442.0 229215.0 164209.0 159357.0 29199.0 37434.0 106371.0 101488.0 96579.0 102370.0 125195.0 117703.0 153864.0 147473.0 73517.0 80826.0 135919.0 129239.0 61952.0 57316.0 139943.0 100704.0 139943.0 139943.0 100704.0 100704.0
38080.0 31994.0 133685.0 131278.0 8481.0 0.0 124584.0 131064.0 202224.0 194044.0 14049.0 20344.0 32875.0 31520.0 136572.0 129010.0 167684.0 167631.0 30868.0 23336.0 55249.0 47769.0 49740.0 48654.0 112027.0 115139.0 136792.0 138882.0 238146.0 230215.0 62924.0 69907.0 164661.0 166216.0 187601.0 195337.0 86380.0 85541.0 162385.0 163805.0 169801.0 173622.0 150296.0 143668.0 62381.0 59585.0 147009.0 148933.0 160136.0 156529.0 145616.0 143005.0 72807.0 78776.0 98196.0 99494.0 108867.0 100892.0 164936.0 158859.0 228994.0 220768.0 168890.0 163758.0 30445.0 37861.0 113618.0 108986.0 89830.0 95329.0 133211.0 125783.0 160650.0 154096.0 66180.0 73293.0 139949.0 133030.0 55678.0 50943.0 143565.0 94275.0 143565.0 143565.0 94275.0 94275.0
89734.0 93366.0 258155.0 255861.0 116348.0 124584.0 0.0 7940.0 326384.0 318223.0 111870.0 104297.0 157451.0 155508.0 69676.0 65070.0 127231.0 121303.0 94098.0 101248.0 79024.0 83264.0 93817.0 87727.0 46449.0 38942.0 133436.0 128083.0 362073.0 354097.0 69451.0 67213.0 153502.0 149332.0 142516.0 147448.0 65542.0 58631.0 160709.0 155888.0 126862.0 124314.0 100378.0 92556.0 177072.0 177646.0 143987.0 139141.0 140571.0 132867.0 98046.0 90149.0 79333.0 82880.0 44697.0 51828.0 19735.0 26995.0 62453.0 54327.0 352752.0 344555.0 112937.0 114245.0 126627.0 132712.0 36514.0 31472.0 209248.0 215961.0 71080.0 65697.0 123330.0 122865.0 188501.0 196190.0 105919.0 106032.0 174381.0 170278.0 169876.0 212006.0 169876.0 169876.0 212006.0 212006.0
95544.0 99574.0 264449.0 262301.0 122757.0 131064.0 7940.0 0.0 332523.0 324349.0 118576.0 110851.0 163890.0 162164.0 65984.0 62096.0 123472.0 117254.0 100401.0 107752.0 83888.0 88591.0 98348.0 92636.0 53625.0 45947.0 140521.0 134995.0 368861.0 360895.0 74279.0 71337.0 151223.0 146748.0 138079.0 142727.0 73460.0 66570.0 158924.0 153780.0 132245.0 129340.0 96724.0 89138.0 182341.0 183173.0 142513.0 137320.0 138008.0 130212.0 103867.0 95883.0 82427.0 85314.0 52560.0 59574.0 27671.0 34826.0 55272.0 47164.0 359579.0 351373.0 117761.0 119491.0 131847.0 137650.0 43685.0 39119.0 214740.0 221565.0 67826.0 63135.0 119919.0 119937.0 194405.0 202154.0 112287.0 112731.0 179984.0 175962.0 169977.0 217317.0 169977.0 169977.0 217317.0 217317.0
237097.0 233024.0 69044.0 73199.0 210242.0 202224.0 326384.0 332523.0 0.0 8282.0 215666.0 222552.0 169490.0 172679.0 323362.0 316959.0 332594.0 335785.0 232314.0 225444.0 250796.0 244858.0 238665.0 242285.0 311609.0 315794.0 302363.0 308365.0 63039.0 59066.0 260088.0 265228.0 313401.0 317939.0 350300.0 358028.0 283560.0 284753.0 306182.0 310831.0 347738.0 353965.0 325182.0 321333.0 155182.0 151909.0 296335.0 301765.0 315206.0 315123.0 331860.0 332003.0 260920.0 263225.0 298855.0 298718.0 311089.0 303115.0 358991.0 354230.0 60542.0 56123.0 353423.0 346432.0 203308.0 199703.0 314613.0 310654.0 122474.0 114611.0 319148.0 313350.0 325797.0 317843.0 138527.0 130612.0 321777.0 313786.0 154408.0 157814.0 280842.0 124149.0 280842.0 280842.0 124149.0 124149.0
228911.0 224856.0 60777.0 64927.0 202070.0 194044.0 318223.0 324349.0 8282.0 0.0 207462.0 214377.0 161291.0 164437.0 315194.0 308792.0 324427.0 327618.0 224146.0 217279.0 242629.0 236634.0 230498.0 234117.0 303341.0 307539.0 294295.0 300263.0 66179.0 61365.0 251921.0 257060.0 305233.0 309772.0 342133.0 349861.0 275283.0 276486.0 298014.0 302664.0 339589.0 345794.0 317014.0 313166.0 147014.0 143742.0 288167.0 293598.0 307039.0 306955.0 323622.0 323746.0 252753.0 255057.0 290603.0 290449.0 302911.0 294931.0 350824.0 346063.0 62504.0 57170.0 345210.0 338233.0 195140.0 191536.0 306364.0 302424.0 114307.0 106444.0 310981.0 305182.0 317630.0 309676.0 130359.0 122445.0 313569.0 305581.0 146241.0 149646.0 272674.0 115982.0 272674.0 272674.0 115982.0 115982.0
29566.0 21950.0 146936.0 144243.0 8902.0 14049.0 111870.0 118576.0 215666.0 207462.0 0.0 8574.0 46180.0 43648.0 128875.0 121168.0 164055.0 163355.0 20287.0 11854.0 47496.0 39722.0 45831.0 42557.0 97987.0 101167.0 125923.0 127493.0 250290.0 242327.0 53825.0 61390.0 164297.0 165228.0 184032.0 191645.0 72422.0 71493.0 163085.0 163800.0 157106.0 160676.0 144989.0 137937.0 75984.0 73495.0 146988.0 148162.0 158627.0 154410.0 132315.0 129474.0 67028.0 73842.0 84209.0 85445.0 95595.0 87566.0 154942.0 148543.0 241027.0 232817.0 155605.0 150666.0 37761.0 46114.0 99686.0 95196.0 103874.0 109372.0 125800.0 118114.0 157127.0 151012.0 80181.0 87220.0 127135.0 120410.0 69617.0 64904.0 146755.0 108273.0 146755.0 146755.0 108273.0 108273.0
21150.0 13389.0 154028.0 151579.0 12502.0 20344.0 104297.0 110851.0 222552.0 214377.0 8574.0 0.0 53207.0 51358.0 120347.0 112632.0 156249.0 155382.0 11714.0 3298.0 39072.0 31295.0 38517.0 34560.0 92875.0 95548.0 126943.0 127966.0 258133.0 250184.0 45255.0 52842.0 157570.0 158263.0 176220.0 183794.0 68639.0 66869.0 156791.0 157215.0 155850.0 159027.0 136801.0 129673.0 79765.0 78030.0 140434.0 141312.0 151488.0 147071.0 130117.0 126801.0 58906.0 65902.0 78702.0 80613.0 88537.0 80576.0 146438.0 140082.0 248920.0 240702.0 153377.0 148798.0 36857.0 45389.0 93897.0 88986.0 109003.0 114849.0 117299.0 109593.0 149358.0 143377.0 86018.0 93314.0 125789.0 119384.0 74272.0 69676.0 141709.0 113029.0 141709.0 141709.0 113029.0 113029.0
69731.0 64493.0 100835.0 98417.0 41133.0 32875.0 157451.0 163890.0 169490.0 161291.0 46180.0 53207.0 0.0 7909.0 165388.0 158075.0 190350.0 191333.0 63535.0 56208.0 85705.0 78729.0 76978.0 78062.0 143300.0 146929.0 155956.0 159424.0 205708.0 197809.0 94182.0 100563.0 181619.0 184317.0 209908.0 217762.0 116370.0 116507.0 177320.0 180094.0 193841.0 198490.0 175789.0 169855.0 41911.0 35838.0 163717.0 166996.0 179301.0 176840.0 172032.0 170360.0 100711.0 105458.0 129947.0 130545.0 141667.0 133666.0 196056.0 190298.0 196658.0 188425.0 195047.0 189233.0 45465.0 47737.0 145574.0 141304.0 61315.0 65563.0 161721.0 154685.0 183247.0 176086.0 36088.0 42171.0 164726.0 157282.0 31987.0 27628.0 154464.0 66901.0 154464.0 154464.0 66901.0 66901.0
69453.0 63508.0 103725.0 100726.0 40000.0 31520.0 155508.0 162164.0 172679.0 164437.0 43648.0 51358.0 7909.0 0.0 166829.0 159394.0 193944.0 194634.0 62337.0 54523.0 86176.0 78903.0 78696.0 78977.0 139203.0 143165.0 148764.0 152400.0 206776.0 198830.0 94223.0 100975.0 186555.0 189016.0 213632.0 221465.0 111747.0 112342.0 182646.0 185163.0 187310.0 192115.0 178507.0 172328.0 49787.0 43570.0 168661.0 171663.0 183752.0 181015.0 166062.0 164641.0 102358.0 107566.0 126207.0 126365.0 139138.0 131084.0 196277.0 190289.0 197576.0 189355.0 188966.0 183005.0 49363.0 52714.0 141944.0 138019.0 67839.0 71586.0 163291.0 156072.0 186847.0 179834.0 42411.0 47804.0 158402.0 150872.0 39768.0 35482.0 160365.0 73696.0 160365.0 160365.0 73696.0 73696.0
99382.0 106968.0 258514.0 258441.0 128494.0 136572.0 69676.0 65984.0 323362.0 315194.0 128875.0 120347.0 165388.0 166829.0 0.0 7807.0 57569.0 51695.0 108741.0 117139.0 81559.0 89269.0 88416.0 87977.0 111810.0 105521.0 196134.0 192009.0 367600.0 359930.0 75302.0 67532.0 86815.0 81693.0 73291.0 78777.0 120032.0 112062.0 95830.0 89793.0 195748.0 193635.0 30752.0 23237.0 168180.0 171829.0 80908.0 74544.0 73074.0 65163.0 166338.0 158673.0 64694.0 60719.0 103910.0 112168.0 81019.0 82817.0 41087.0 40699.0 359104.0 350911.0 182437.0 183360.0 122362.0 124375.0 102622.0 95439.0 201049.0 208813.0 4510.0 10790.0 53955.0 54467.0 186743.0 194746.0 172667.0 171476.0 169744.0 166975.0 114021.0 201470.0 114021.0 114021.0 201470.0 201470.0
91703.0 99248.0 251837.0 251636.0 120896.0 129010.0 65070.0 62096.0 316959.0 308792.0 121168.0 112632.0 158075.0 159394.0 7807.0 0.0 62581.0 57275.0 101010.0 109416.0 73917.0 81606.0 81149.0 80471.0 105811.0 99762.0 189428.0 185458.0 360779.0 353085.0 67541.0 59799.0 89312.0 84671.0 79258.0 85078.0 112985.0 105019.0 97592.0 92028.0 190235.0 188353.0 35792.0 27689.0 161801.0 165262.0 81912.0 76061.0 75943.0 68126.0 160664.0 153092.0 57477.0 53908.0 97358.0 105619.0 75100.0 76415.0 44801.0 43047.0 352230.0 344029.0 177307.0 177971.0 115392.0 117665.0 96821.0 89459.0 194766.0 202485.0 6409.0 3633.0 58332.0 57872.0 179991.0 188005.0 166607.0 165192.0 163094.0 160230.0 112529.0 195359.0 112529.0 112529.0 195359.0 195359.0
135633.0 143831.0 270906.0 272579.0 160864.0 167684.0 127231.0 123472.0 332594.0 324427.0 164055.0 156249.0 190350.0 193944.0 57569.0 62581.0 0.0 7962.0 145837.0 153464.0 118547.0 125966.0 118442.0 121704.0 168166.0 162280.0 250212.0 246714.0 380114.0 372885.0 116051.0 108231.0 38813.0 31594.0 19976.0 27654.0 172890.0 165030.0 50999.0 42930.0 252803.0 250927.0 26864.0 34900.0 180204.0 185903.0 44634.0 36686.0 25791.0 20478.0 223187.0 215649.0 97712.0 90387.0 158947.0 167168.0 137568.0 138397.0 85526.0 89574.0 372490.0 364525.0 239841.0 240553.0 144889.0 143471.0 159321.0 151860.0 210352.0 218343.0 56327.0 62746.0 7103.0 14764.0 202468.0 209990.0 228814.0 227072.0 184981.0 183562.0 88720.0 210223.0 88720.0 88720.0 210223.0 210223.0
134540.0 142717.0 273893.0 275345.0 160575.0 167631.0 121303.0 117254.0 335785.0 327618.0 163355.0 155382.0 191333.0 194634.0 51695.0 57275.0 7962.0 0.0 144703.0 152511.0 117148.0 124702.0 118071.0 120836.0 163084.0 157005.0 246009.0 242310.0 383280.0 375985.0 114038.0 106118.0 46609.0 39463.0 22318.0 29070.0 168917.0 161009.0 58678.0 50684.0 247384.0 245326.0 21636.0 29951.0 182887.0 188352.0 51266.0 43236.0 33265.0 27215.0 217890.0 210275.0 96543.0 89514.0 154332.0 162579.0 132369.0 133565.0 77859.0 82113.0 375535.0 367530.0 234129.0 235033.0 145893.0 144934.0 154074.0 146734.0 213534.0 221529.0 50909.0 57806.0 11212.0 19049.0 204784.0 212404.0 223863.0 222341.0 187272.0 185665.0 94953.0 213414.0 94953.0 94953.0 213414.0 213414.0
10213.0 2030.0 164071.0 161915.0 22441.0 30868.0 94098.0 100401.0 232314.0 224146.0 20287.0 11714.0 63535.0 62337.0 108741.0 101010.0 145837.0 144703.0 0.0 8440.0 27787.0 20068.0 29823.0 24423.0 86562.0 88433.0 129005.0 129285.0 269013.0 261083.0 33563.0 41211.0 148853.0 149178.0 165784.0 173290.0 64720.0 61697.0 148742.0 148718.0 154640.0 157255.0 125784.0 118530.0 86251.0 85421.0 132031.0 132444.0 142143.0 137419.0 127739.0 123775.0 48172.0 55480.0 71940.0 74873.0 79218.0 71419.0 134802.0 128504.0 259862.0 251636.0 150824.0 146771.0 39015.0 47220.0 86533.0 81009.0 116845.0 123076.0 105744.0 98001.0 139015.0 133257.0 94826.0 102367.0 124636.0 118722.0 81847.0 77441.0 135648.0 120401.0 135648.0 135648.0 120401.0 120401.0
18087.0 10172.0 156991.0 154613.0 15225.0 23336.0 101248.0 107752.0 225444.0 217279.0 11854.0 3298.0 56208.0 54523.0 117139.0 109416.0 153464.0 152511.0 8440.0 0.0 35967.0 28197.0 36119.0 31765.0 90724.0 93203.0 127087.0 127898.0 261297.0 253353.0 41999.0 49619.0 155308.0 155891.0 173430.0 180983.0 67050.0 64957.0 154728.0 155019.0 155093.0 158117.0 133815.0 126642.0 81746.0 80259.0 138261.0 139000.0 149035.0 144523.0 129024.0 125532.0 55988.0 63084.0 76423.0 78587.0 85672.0 77741.0 143141.0 136788.0 252097.0 243877.0 152252.0 147813.0 37433.0 45938.0 91490.0 86429.0 111381.0 117334.0 114114.0 106391.0 146594.0 140682.0 88641.0 96007.0 125027.0 118751.0 76547.0 71997.0 140215.0 115283.0 140215.0 140215.0 115283.0 115283.0
17932.0 25871.0 183687.0 182434.0 47028.0 55249.0 79024.0 83888.0 250796.0 242629.0 47496.0 39072.0 85705.0 86176.0 81559.0 73917.0 118547.0 117148.0 27787.0 35967.0 0.0 7778.0 15340.0 8753.0 85778.0 85121.0 145371.0 144271.0 290901.0 283059.0 9609.0 14858.0 124195.0 123854.0 138442.0 145873.0 72108.0 66378.0 125360.0 124471.0 163934.0 165252.0 98023.0 90743.0 98609.0 99887.0 108113.0 107630.0 116410.0 111203.0 135079.0 129735.0 20970.0 28749.0 71050.0 76638.0 68815.0 62334.0 110354.0 104691.0 282003.0 273770.0 157167.0 154416.0 48172.0 53763.0 82567.0 75433.0 131292.0 138338.0 78375.0 70774.0 111816.0 106360.0 112271.0 120208.0 134772.0 130070.0 96905.0 93153.0 116844.0 133594.0 116844.0 116844.0 133594.0 133594.0
10156.0 18128.0 177451.0 175993.0 39467.0 47769.0 83264.0 88591.0 244858.0 236634.0 39722.0 31295.0 78729.0 78903.0 89269.0 81606.0 125966.0 124702.0 20068.0 28197.0 7778.0 0.0 15440.0 7401.0 85898.0 85957.0 141091.0 140370.0 284216.0 276352.0 15469.0 22139.0 130549.0 130460.0 145889.0 153358.0 69772.0 64686.0 131247.0 130672.0 161671.0 163354.0 105716.0 98477.0 93813.0 94605.0 114170.0 114024.0 123169.0 118152.0 133262.0 128277.0 28256.0 35795.0 71010.0 75925.0 71546.0 64570.0 117412.0 111571.0 275258.0 267023.0 155707.0 152584.0 43368.0 49757.0 83565.0 76815.0 126154.0 133029.0 86119.0 78490.0 119190.0 113595.0 106374.0 114251.0 132179.0 127123.0 91471.0 87548.0 121091.0 128765.0 121091.0 121091.0 128765.0 128765.0
20395.0 27840.0 172237.0 171470.0 42504.0 49740.0 93817.0 98348.0 238665.0 230498.0 45831.0 38517.0 76978.0 78696.0 88416.0 81149.0 118442.0 118071.0 29823.0 36119.0 15340.0 15440.0 0.0 8078.0 100635.0 100249.0 155940.0 155431.0 280407.0 272638.0 24539.0 27289.0 119218.0 119775.0 138410.0 146077.0 85210.0 80055.0 118925.0 118992.0 177111.0 178780.0 100560.0 94003.0 85079.0 87018.0 102270.0 102887.0 112971.0 108610.0 148676.0 143635.0 23735.0 29071.0 85814.0 91035.0 84131.0 77674.0 120712.0 115646.0 271692.0 263472.0 171072.0 168003.0 35361.0 39783.0 97740.0 90690.0 118066.0 125334.0 84747.0 77732.0 111469.0 105231.0 100388.0 108399.0 147605.0 142504.0 84300.0 80869.0 106667.0 119965.0 106667.0 106667.0 119965.0 119965.0
14296.0 22393.0 175327.0 174202.0 40756.0 48654.0 87727.0 92636.0 242285.0 234117.0 42557.0 34560.0 78062.0 78977.0 87977.0 80471.0 121704.0 120836.0 24423.0 31765.0 8753.0 7401.0 8078.0 0.0 92751.0 92536.0 148326.0 147682.0 282830.0 275010.0 18360.0 22983.0 124650.0 124832.0 141673.0 149237.0 77146.0 71978.0 124940.0 124628.0 169055.0 170705.0 102476.0 95528.0 89866.0 91210.0 108021.0 108189.0 117740.0 112997.0 140599.0 135561.0 24509.0 31342.0 77901.0 83021.0 77114.0 70427.0 118212.0 112743.0 273987.0 265756.0 162996.0 159926.0 39454.0 45020.0 90072.0 83138.0 122581.0 129655.0 84568.0 77196.0 114830.0 108943.0 103776.0 111735.0 139577.0 134523.0 88265.0 84564.0 113965.0 124850.0 113965.0 113965.0 124850.0 124850.0
87389.0 86858.0 242565.0 238916.0 105206.0 112027.0 46449.0 53625.0 311609.0 303341.0 97987.0 92875.0 143300.0 139203.0 111810.0 105811.0 168166.0 163084.0 86562.0 90724.0 85778.0 85898.0 100635.0 92751.0 0.0 7913.0 86988.0 81732.0 340431.0 332413.0 78323.0 80972.0 189432.0 186373.0 185014.0 190585.0 29028.0 26868.0 194738.0 191175.0 85252.0 84412.0 141546.0 133328.0 172441.0 170905.0 177253.0 173787.0 177709.0 170462.0 55339.0 48218.0 96718.0 103150.0 14913.0 12910.0 30798.0 30251.0 108846.0 100725.0 330773.0 322732.0 74488.0 73643.0 125153.0 132960.0 9945.0 16371.0 201751.0 207356.0 112189.0 105425.0 163380.0 161523.0 178139.0 185051.0 60859.0 60069.0 167138.0 162519.0 196277.0 205896.0 196277.0 196277.0 205896.0 205896.0
88354.0 88551.0 246774.0 243331.0 107997.0 115139.0 38942.0 45947.0 315794.0 307539.0 101167.0 95548.0 146929.0 143165.0 105521.0 99762.0 162280.0 157005.0 88433.0 93203.0 85121.0 85957.0 100249.0 92536.0 7913.0 0.0 94577.0 89142.0 345694.0 337675.0 77117.0 79010.0 184606.0 181322.0 178804.0 184229.0 35117.0 31551.0 190291.0 186478.0 90593.0 89195.0 135551.0 127389.0 174643.0 173452.0 172902.0 169166.0 172619.0 165263.0 60908.0 53417.0 94482.0 100534.0 16982.0 18567.0 24747.0 25923.0 101212.0 93098.0 336077.0 328006.0 78746.0 78584.0 126496.0 134081.0 3036.0 11021.0 204549.0 210353.0 106102.0 99560.0 157670.0 156090.0 181318.0 188385.0 67461.0 67166.0 169750.0 165193.0 193212.0 208479.0 193212.0 193212.0 208479.0 208479.0
136224.0 130563.0 236799.0 230715.0 134776.0 136792.0 133436.0 140521.0 302363.0 294295.0 125923.0 126943.0 155956.0 148764.0 196134.0 189428.0 250212.0 246009.0 129005.0 127087.0 145371.0 141091.0 155940.0 148326.0 86988.0 94577.0 0.0 8242.0 315202.0 307483.0 142375.0 148505.0 265860.0 264074.0 268280.0 274414.0 77528.0 85273.0 268903.0 266850.0 47928.0 55494.0 224395.0 216073.0 196200.0 191302.0 251309.0 249445.0 255783.0 249227.0 48697.0 55110.0 163637.0 171451.0 92305.0 84076.0 116675.0 113531.0 195789.0 187674.0 305284.0 297994.0 60045.0 51929.0 163424.0 171894.0 96924.0 102607.0 216227.0 219090.0 195823.0 188411.0 244705.0 241595.0 190824.0 195173.0 34883.0 30104.0 187316.0 182637.0 262112.0 222342.0 262112.0 262112.0 222342.0 222342.0
136041.0 130758.0 242346.0 236408.0 136386.0 138882.0 128083.0 134995.0 308365.0 300263.0 127493.0 127966.0 159424.0 152400.0 192009.0 185458.0 246714.0 242310.0 129285.0 127898.0 144271.0 140370.0 155431.0 147682.0 81732.0 89142.0 8242.0 0.0 322198.0 314449.0 140761.0 146594.0 263419.0 261419.0 264529.0 270528.0 74762.0 82289.0 266822.0 264532.0 40510.0 47852.0 220675.0 212359.0 199128.0 194482.0 249196.0 247084.0 253047.0 246356.0 40690.0 47339.0 161966.0 169691.0 88110.0 79848.0 111900.0 109215.0 190251.0 182153.0 312277.0 304932.0 51925.0 43817.0 164685.0 173195.0 91613.0 97658.0 220096.0 223203.0 191865.0 184577.0 241347.0 238471.0 194655.0 199252.0 27010.0 23025.0 190480.0 185762.0 261115.0 226086.0 261115.0 261115.0 226086.0 226086.0
275423.0 270082.0 109587.0 109161.0 246581.0 238146.0 362073.0 368861.0 63039.0 66179.0 250290.0 258133.0 205708.0 206776.0 367600.0 360779.0 380114.0 383280.0 269013.0 261297.0 290901.0 284216.0 280407.0 282830.0 340431.0 345694.0 315202.0 322198.0 0.0 8018.0 299684.0 305705.0 360918.0 365456.0 397652.0 405328.0 311493.0 314142.0 353699.0 358349.0 362649.0 369669.0 372095.0 367674.0 200905.0 196280.0 343852.0 349283.0 362724.0 362640.0 351420.0 352968.0 303622.0 306903.0 329211.0 327615.0 345053.0 336963.0 400988.0 395563.0 9922.0 17704.0 371164.0 363578.0 245467.0 243253.0 344996.0 342255.0 169769.0 161775.0 363565.0 357232.0 373322.0 365365.0 180886.0 172904.0 339782.0 331782.0 198061.0 200651.0 328359.0 171494.0 328359.0 328359.0 171494.0 171494.0
267531.0 262160.0 102161.0 101520.0 238654.0 230215.0 354097.0 360895.0 59066.0 61365.0 242327.0 250184.0 197809.0 198830.0 359930.0 353085.0 372885.0 375985.0 261083.0 253353.0 283059.0 276352.0 272638.0 275010.0 332413.0 337675.0 307483.0 314449.0 8018.0 0.0 291821.0 297871.0 353694.0 358232.0 390511.0 398203.0 303477.0 306124.0 346475.0 351125.0 354886.0 361884.0 364645.0 360169.0 193464.0 188744.0 336628.0 342059.0 355500.0 355281.0 343523.0 345042.0 295889.0 299223.0 321194.0 319597.0 337057.0 328967.0 393185.0 387733.0 2881.0 9697.0 363320.0 355748.0 237744.0 235607.0 336979.0 334241.0 162536.0 154548.0 355908.0 349542.0 366074.0 358131.0 173255.0 165286.0 331919.0 323915.0 190475.0 193013.0 321135.0 164411.0 321135.0 321135.0 164411.0 164411.0
24855.0 31880.0 192815.0 191421.0 54526.0 62924.0 69451.0 74279.0 260088.0 251921.0 53825.0 45255.0 94182.0 94223.0 75302.0 67541.0 116051.0 114038.0 33563.0 41999.0 9609.0 15469.0 24539.0 18360.0 78323.0 77117.0 142375.0 140761.0 299684.0 291821.0 0.0 8006.0 124715.0 123800.0 135761.0 143006.0 67177.0 60820.0 126827.0 125316.0 158416.0 159350.0 94123.0 86496.0 108191.0 109386.0 109335.0 108145.0 116010.0 110317.0 129175.0 123490.0 21268.0 29148.0 63842.0 69981.0 59738.0 53548.0 102055.0 96137.0 290727.0 282493.0 150849.0 148471.0 57729.0 63372.0 74461.0 67101.0 140829.0 147839.0 72441.0 64608.0 109526.0 104608.0 121567.0 129478.0 129699.0 125422.0 106364.0 102557.0 120994.0 143177.0 120994.0 120994.0 143177.0 143177.0
32055.0 39454.0 198310.0 197157.0 61599.0 69907.0 67213.0 71337.0 265228.0 257060.0 61390.0 52842.0 100563.0 100975.0 67532.0 59799.0 108231.0 106118.0 41211.0 49619.0 14858.0 22139.0 27289.0 22983.0 80972.0 79010.0 148505.0 146594.0 305705.0 297871.0 8006.0 0.0 117853.0 116698.0 127897.0 135109.0 72369.0 65586.0 120412.0 118599.0 162759.0 163350.0 86133.0 78492.0 112272.0 113945.0 102840.0 101316.0 108788.0 102933.0 133245.0 127255.0 15938.0 23219.0 66937.0 73626.0 59701.0 54305.0 95496.0 89864.0 296825.0 288592.0 154470.0 152455.0 62139.0 67041.0 76219.0 68559.0 145173.0 152351.0 64586.0 56802.0 101754.0 96971.0 126737.0 134703.0 134474.0 130531.0 111085.0 107460.0 116316.0 147199.0 116316.0 116316.0 147199.0 147199.0
138909.0 146835.0 251853.0 254053.0 159223.0 164661.0 153502.0 151223.0 313401.0 305233.0 164297.0 157570.0 181619.0 186555.0 86815.0 89312.0 38813.0 46609.0 148853.0 155308.0 124195.0 130549.0 119218.0 124650.0 189432.0 184606.0 265860.0 263419.0 360918.0 353694.0 124715.0 117853.0 0.0 7456.0 45599.0 51655.0 188658.0 181219.0 12504.0 4241.0 274649.0 273738.0 58504.0 64153.0 163392.0 170102.0 17902.0 16582.0 14177.0 21991.0 244699.0 237646.0 103803.0 95817.0 178152.0 186052.0 160114.0 159188.0 121220.0 124098.0 353323.0 345388.0 263331.0 263034.0 137556.0 133932.0 181573.0 173695.0 191159.0 199150.0 84053.0 88089.0 37128.0 33135.0 186953.0 193857.0 248499.0 245662.0 169980.0 169517.0 57108.0 191029.0 57108.0 57108.0 191029.0 191029.0
139127.0 147151.0 256391.0 258562.0 160491.0 166216.0 149332.0 146748.0 317939.0 309772.0 165228.0 158263.0 184317.0 189016.0 81693.0 84671.0 31594.0 39463.0 149178.0 155891.0 123854.0 130460.0 119775.0 124832.0 186373.0 181322.0 264074.0 261419.0 365456.0 358232.0 123800.0 116698.0 7456.0 0.0 38363.0 44657.0 186683.0 179138.0 19957.0 11696.0 271624.0 270513.0 52582.0 58717.0 167538.0 174081.0 21604.0 17363.0 8764.0 16558.0 241701.0 234539.0 103185.0 95228.0 175468.0 183456.0 156710.0 156126.0 114982.0 118130.0 357861.0 349926.0 259954.0 259864.0 139802.0 136580.0 178295.0 170477.0 195697.0 203689.0 79175.0 83686.0 30433.0 27357.0 190926.0 197960.0 245878.0 243256.0 173811.0 173169.0 63495.0 195567.0 63495.0 63495.0 195567.0 195567.0
155583.0 163780.0 288745.0 290670.0 180817.0 187601.0 142516.0 138079.0 350300.0 342133.0 184032.0 176220.0 209908.0 213632.0 73291.0 79258.0 19976.0 22318.0 165784.0 173430.0 138442.0 145889.0 138410.0 141673.0 185014.0 178804.0 268280.0 264529.0 397652.0 390511.0 135761.0 127897.0 45599.0 38363.0 0.0 7871.0 191228.0 183316.0 57925.0 49766.0 269001.0 266764.0 43887.0 52209.0 198496.0 204418.0 57273.0 50130.0 36858.0 35263.0 239628.0 231952.0 117641.0 110349.0 176502.0 184756.0 154249.0 155655.0 94648.0 99948.0 390186.0 382275.0 255451.0 256560.0 164474.0 162812.0 175898.0 168648.0 228058.0 236050.0 72858.0 79962.0 26955.0 33823.0 221084.0 228506.0 245843.0 244439.0 203644.0 202389.0 101167.0 227928.0 101167.0 101167.0 227928.0 227928.0
163098.0 171291.0 296479.0 298441.0 188512.0 195337.0 147448.0 142727.0 358028.0 349861.0 191645.0 183794.0 217762.0 221465.0 78777.0 85078.0 27654.0 29070.0 173290.0 180983.0 145873.0 153358.0 146077.0 149237.0 190585.0 184229.0 274414.0 270528.0 405328.0 398203.0 143006.0 135109.0 51655.0 44657.0 7871.0 0.0 197558.0 189625.0 63724.0 55721.0 274172.0 271762.0 50258.0 58542.0 206302.0 212247.0 64357.0 57431.0 44010.0 42921.0 244941.0 237205.0 125126.0 117900.0 182435.0 190696.0 159790.0 161470.0 97329.0 103071.0 397890.0 389988.0 260350.0 261649.0 172323.0 170680.0 181351.0 174214.0 235786.0 243778.0 78669.0 86004.0 34698.0 41680.0 228922.0 236334.0 251443.0 250213.0 211487.0 210245.0 107939.0 235656.0 107939.0 107939.0 235656.0 235656.0
68238.0 65520.0 214541.0 210660.0 80395.0 86380.0 65542.0 73460.0 283560.0 275283.0 72422.0 68639.0 116370.0 111747.0 120032.0 112985.0 172890.0 168917.0 64720.0 67050.0 72108.0 69772.0 85210.0 77146.0 29028.0 35117.0 77528.0 74762.0 311493.0 303477.0 67177.0 72369.0 188658.0 186683.0 191228.0 197558.0 0.0 7971.0 192192.0 189791.0 91924.0 93633.0 147366.0 139052.0 148205.0 145917.0 174554.0 172336.0 178340.0 171725.0 63636.0 59170.0 88060.0 95582.0 21210.0 16551.0 45986.0 40146.0 126212.0 118208.0 301820.0 293792.0 86422.0 82912.0 103660.0 111932.0 35191.0 35575.0 176092.0 181291.0 119321.0 111684.0 167280.0 164075.0 151847.0 158450.0 62672.0 58248.0 142036.0 137316.0 188170.0 180652.0 188170.0 188170.0 180652.0 180652.0
64138.0 62276.0 215709.0 212101.0 79010.0 85541.0 58631.0 66570.0 284753.0 276486.0 71493.0 66869.0 116507.0 112342.0 112062.0 105019.0 165030.0 161009.0 61697.0 64957.0 66378.0 64686.0 80055.0 71978.0 26868.0 31551.0 85273.0 82289.0 314142.0 306124.0 60820.0 65586.0 181219.0 179138.0 183316.0 189625.0 7971.0 0.0 184951.0 182416.0 97651.0 98877.0 139446.0 131131.0 146632.0 144759.0 167308.0 164947.0 170758.0 164083.0 68712.0 63592.0 81409.0 88793.0 15586.0 14039.0 38931.0 32651.0 118693.0 110723.0 304526.0 296454.0 91022.0 88050.0 100694.0 108801.0 30990.0 29860.0 175363.0 180827.0 111358.0 103730.0 159457.0 156330.0 151523.0 158352.0 68927.0 64998.0 140941.0 136275.0 181724.0 179673.0 181724.0 181724.0 179673.0 179673.0
139038.0 146751.0 244634.0 246834.0 157462.0 162385.0 160709.0 158924.0 306182.0 298014.0 163085.0 156791.0 177320.0 182646.0 95830.0 97592.0 50999.0 58678.0 148742.0 154728.0 125360.0 131247.0 118925.0 124940.0 194738.0 190291.0 268903.0 266822.0 353699.0 346475.0 126827.0 120412.0 12504.0 19957.0 57925.0 63724.0 192192.0 184951.0 0.0 8263.0 279729.0 279150.0 68903.0 73830.0 156639.0 163618.0 17643.0 21604.0 25547.0 32767.0 249780.0 242920.0 105620.0 97684.0 182879.0 190611.0 166073.0 164599.0 131762.0 134217.0 346104.0 338169.0 269010.0 268370.0 134238.0 129940.0 187256.0 179306.0 183940.0 191931.0 92730.0 96025.0 48726.0 43794.0 180431.0 187092.0 252954.0 249766.0 163755.0 163606.0 46895.0 183810.0 46895.0 46895.0 183810.0 183810.0
138847.0 146707.0 249283.0 251483.0 158537.0 163805.0 155888.0 153780.0 310831.0 302664.0 163800.0 157215.0 180094.0 185163.0 89793.0 92028.0 42930.0 50684.0 148718.0 155019.0 124471.0 130672.0 118992.0 124628.0 191175.0 186478.0 266850.0 264532.0 358349.0 351125.0 125316.0 118599.0 4241.0 11696.0 49766.0 55721.0 189791.0 182416.0 8263.0 0.0 276337.0 275540.0 61955.0 67344.0 161042.0 167844.0 16822.0 17482.0 17873.0 25480.0 246381.0 239393.0 104275.0 96293.0 179690.0 187536.0 162070.0 160953.0 124766.0 127495.0 350754.0 342819.0 265222.0 264808.0 136331.0 132478.0 183443.0 175536.0 188589.0 196581.0 86906.0 90681.0 41009.0 36630.0 184689.0 191515.0 249968.0 247009.0 167807.0 167449.0 53539.0 188460.0 53539.0 53539.0 188460.0 188460.0
159522.0 155765.0 281018.0 275346.0 165912.0 169801.0 126862.0 132245.0 347738.0 339589.0 157106.0 155850.0 193841.0 187310.0 195748.0 190235.0 252803.0 247384.0 154640.0 155093.0 163934.0 161671.0 177111.0 169055.0 85252.0 90593.0 47928.0 40510.0 362649.0 354886.0 158416.0 162759.0 274649.0 271624.0 269001.0 274172.0 91924.0 97651.0 279729.0 276337.0 0.0 8111.0 226022.0 217903.0 231704.0 227808.0 262179.0 258918.0 262959.0 255693.0 29957.0 37176.0 178685.0 185805.0 96950.0 89483.0 115341.0 115500.0 185364.0 177608.0 352728.0 345356.0 18123.0 13011.0 192526.0 201025.0 93584.0 101253.0 255101.0 258809.0 196538.0 190125.0 248256.0 246648.0 229710.0 234895.0 30066.0 36784.0 223793.0 219009.0 279075.0 260732.0 279075.0 279075.0 260732.0 260732.0
161691.0 158295.0 286952.0 281399.0 169415.0 173622.0 124314.0 129340.0 353965.0 345794.0 160676.0 159027.0 198490.0 192115.0 193635.0 188353.0 250927.0 245326.0 157255.0 158117.0 165252.0 163354.0 178780.0 170705.0 84412.0 89195.0 55494.0 47852.0 369669.0 361884.0 159350.0 163350.0 273738.0 270513.0 266764.0 271762.0 93633.0 98877.0 279150.0 275540.0 8111.0 0.0 224090.0 216042.0 235760.0 232075.0 261661.0 258174.0 261813.0 254451.0 30184.0 36304.0 179287.0 186240.0 96889.0 89758.0 113867.0 114591.0 181668.0 174016.0 359748.0 352334.0 12134.0 10896.0 195512.0 203976.0 92219.0 100052.0 259800.0 263687.0 194603.0 188394.0 246555.0 245202.0 234465.0 239818.0 33796.0 41251.0 228065.0 223274.0 279587.0 265317.0 279587.0 279587.0 265317.0 265317.0
115737.0 123837.0 262508.0 263402.0 142879.0 150296.0 100378.0 96724.0 325182.0 317014.0 144989.0 136801.0 175789.0 178507.0 30752.0 35792.0 26864.0 21636.0 125784.0 133815.0 98023.0 105716.0 100560.0 102476.0 141546.0 135551.0 224395.0 220675.0 372095.0 364645.0 94123.0 86133.0 58504.0 52582.0 43887.0 50258.0 147366.0 139446.0 68903.0 61955.0 226022.0 224090.0 0.0 8322.0 171191.0 176043.0 56489.0 49012.0 44359.0 36518.0 196455.0 188882.0 77971.0 71534.0 132698.0 140944.0 110873.0 111953.0 62862.0 65601.0 364054.0 355962.0 212984.0 213737.0 130703.0 130725.0 132606.0 125210.0 202911.0 210872.0 29490.0 36187.0 23386.0 25370.0 192057.0 199867.0 202290.0 200722.0 174592.0 172557.0 96105.0 202888.0 96105.0 96105.0 202888.0 202888.0
108555.0 116604.0 258109.0 258782.0 136113.0 143668.0 92556.0 89138.0 321333.0 313166.0 137937.0 129673.0 169855.0 172328.0 23237.0 27689.0 34900.0 29951.0 118530.0 126642.0 90743.0 98477.0 94003.0 95528.0 133328.0 127389.0 216073.0 212359.0 367674.0 360169.0 86496.0 78492.0 64153.0 58717.0 52209.0 58542.0 139052.0 131131.0 73830.0 67344.0 217903.0 216042.0 8322.0 0.0 166848.0 171436.0 60108.0 53097.0 50205.0 42278.0 188297.0 180751.0 71035.0 64933.0 124395.0 132639.0 102689.0 103679.0 58587.0 60462.0 359523.0 351403.0 204987.0 205657.0 125041.0 125481.0 124435.0 117004.0 198919.0 206850.0 21493.0 27920.0 30795.0 31382.0 187240.0 195111.0 194042.0 192436.0 169837.0 167632.0 97414.0 198964.0 97414.0 97414.0 198964.0 198964.0
87949.0 86268.0 91318.0 92462.0 67811.0 62381.0 177072.0 182341.0 155182.0 147014.0 75984.0 79765.0 41911.0 49787.0 168180.0 161801.0 180204.0 182887.0 86251.0 81746.0 98609.0 93813.0 85079.0 89866.0 172441.0 174643.0 196200.0 199128.0 200905.0 193464.0 108191.0 112272.0 163392.0 167538.0 198496.0 206302.0 148205.0 146632.0 156639.0 161042.0 231704.0 235760.0 171191.0 166848.0 0.0 8000.0 145992.0 150957.0 164241.0 163574.0 207974.0 205377.0 106297.0 108174.0 158018.0 160328.0 164360.0 156862.0 204234.0 199783.0 192902.0 184836.0 231239.0 226010.0 50495.0 45338.0 172779.0 167202.0 33140.0 40714.0 163971.0 158187.0 173276.0 165447.0 23979.0 30473.0 202012.0 194925.0 10588.0 14329.0 131325.0 34986.0 131325.0 131325.0 34986.0 34986.0
88037.0 85626.0 86812.0 87365.0 65753.0 59585.0 177646.0 183173.0 151909.0 143742.0 73495.0 78030.0 35838.0 43570.0 171829.0 165262.0 185903.0 188352.0 85421.0 80259.0 99887.0 94605.0 87018.0 91210.0 170905.0 173452.0 191302.0 194482.0 196280.0 188744.0 109386.0 113945.0 170102.0 174081.0 204418.0 212247.0 145917.0 144759.0 163618.0 167844.0 227808.0 232075.0 176043.0 171436.0 8000.0 0.0 152590.0 157358.0 170558.0 169652.0 204691.0 202370.0 109014.0 111416.0 156680.0 158595.0 164241.0 156601.0 207086.0 202386.0 188087.0 179969.0 227905.0 222481.0 51806.0 47794.0 171699.0 166397.0 31610.0 38453.0 167692.0 161669.0 178929.0 171169.0 16851.0 24092.0 198286.0 191069.0 4016.0 8801.0 138409.0 35028.0 138409.0 138409.0 35028.0 35028.0
122206.0 130025.0 234787.0 236958.0 141716.0 147009.0 143987.0 142513.0 296335.0 288167.0 146988.0 140434.0 163717.0 168661.0 80908.0 81912.0 44634.0 51266.0 132031.0 138261.0 108113.0 114170.0 102270.0 108021.0 177253.0 172902.0 251309.0 249196.0 343852.0 336628.0 109335.0 102840.0 17902.0 21604.0 57273.0 64357.0 174554.0 167308.0 17643.0 16822.0 262179.0 261661.0 56489.0 60108.0 145992.0 152590.0 0.0 8039.0 20418.0 24167.0 232236.0 225412.0 88170.0 80213.0 165298.0 173009.0 148786.0 147155.0 118678.0 120421.0 336257.0 328322.0 251585.0 250868.0 119698.0 116031.0 169868.0 161903.0 174093.0 182084.0 77480.0 80062.0 40193.0 33313.0 169440.0 176430.0 235333.0 232127.0 152381.0 151828.0 44275.0 173963.0 44275.0 44275.0 173963.0 173963.0
122463.0 130423.0 240218.0 242412.0 143289.0 148933.0 139141.0 137320.0 301765.0 293598.0 148162.0 141312.0 166996.0 171663.0 74544.0 76061.0 36686.0 43236.0 132444.0 139000.0 107630.0 114024.0 102887.0 108189.0 173787.0 169166.0 249445.0 247084.0 349283.0 342059.0 108145.0 101316.0 16582.0 17363.0 50130.0 57431.0 172336.0 164947.0 21604.0 17482.0 258918.0 258174.0 49012.0 53097.0 150957.0 157358.0 8039.0 0.0 13538.0 16208.0 228962.0 222002.0 87221.0 79235.0 162230.0 170065.0 144827.0 143583.0 111535.0 113547.0 341688.0 333753.0 247911.0 247428.0 122440.0 119261.0 166130.0 158207.0 179524.0 187515.0 71317.0 74442.0 32154.0 25339.0 174184.0 181315.0 232492.0 229527.0 156979.0 156222.0 52073.0 179394.0 52073.0 52073.0 179394.0 179394.0
132032.0 140113.0 253659.0 255840.0 154173.0 160136.0 140571.0 138008.0 315206.0 307039.0 158627.0 151488.0 179301.0 183752.0 73074.0 75943.0 25791.0 33265.0 142143.0 149035.0 116410.0 123169.0 112971.0 117740.0 177709.0 172619.0 255783.0 253047.0 362724.0 355500.0 116010.0 108788.0 14177.0 8764.0 36858.0 44010.0 178340.0 170758.0 25547.0 17873.0 262959.0 261813.0 44359.0 50205.0 164241.0 170558.0 20418.0 13538.0 0.0 7927.0 233044.0 225861.0 95612.0 87696.0 166896.0 174906.0 147992.0 147468.0 107044.0 109961.0 355129.0 347194.0 251231.0 251173.0 134417.0 131612.0 169593.0 161787.0 192965.0 200956.0 70489.0 74932.0 23189.0 18996.0 187364.0 194553.0 237309.0 234750.0 170102.0 169242.0 64505.0 192835.0 64505.0 64505.0 192835.0 192835.0
127251.0 135389.0 253575.0 255592.0 150300.0 156529.0 132867.0 130212.0 315123.0 306955.0 154410.0 147071.0 176840.0 181015.0 65163.0 68126.0 20478.0 27215.0 137419.0 144523.0 111203.0 118152.0 108610.0 112997.0 170462.0 165263.0 249227.0 246356.0 362640.0 355281.0 110317.0 102933.0 21991.0 16558.0 35263.0 42921.0 171725.0 164083.0 32767.0 25480.0 255693.0 254451.0 36518.0 42278.0 163574.0 169652.0 24167.0 16208.0 7927.0 0.0 225801.0 218566.0 90286.0 82457.0 159860.0 167913.0 140595.0 140243.0 99290.0 102108.0 354969.0 347070.0 243803.0 243840.0 131657.0 129316.0 162243.0 154470.0 192881.0 200872.0 62618.0 67189.0 16390.0 11157.0 186388.0 193718.0 230262.0 227826.0 169011.0 167935.0 68264.0 192751.0 68264.0 68264.0 192751.0 192751.0
131830.0 128704.0 263906.0 258815.0 140920.0 145616.0 98046.0 103867.0 331860.0 323622.0 132315.0 130117.0 172032.0 166062.0 166338.0 160664.0 223187.0 217890.0 127739.0 129024.0 135079.0 133262.0 148676.0 140599.0 55339.0 60908.0 48697.0 40690.0 351420.0 343523.0 129175.0 133245.0 244699.0 241701.0 239628.0 244941.0 63636.0 68712.0 249780.0 246381.0 29957.0 30184.0 196455.0 188297.0 207974.0 204691.0 232236.0 228962.0 233044.0 225801.0 0.0 8092.0 149182.0 156194.0 67066.0 59734.0 85628.0 85576.0 158004.0 150094.0 341524.0 333880.0 23290.0 19338.0 166293.0 174706.0 63868.0 71436.0 233256.0 237550.0 166997.0 160460.0 218544.0 216822.0 208119.0 213862.0 13938.0 20806.0 200702.0 195910.0 249526.0 238506.0 249526.0 249526.0 238506.0 238506.0
127354.0 124639.0 263740.0 258854.0 137938.0 143005.0 90149.0 95883.0 332003.0 323746.0 129474.0 126801.0 170360.0 164641.0 158673.0 153092.0 215649.0 210275.0 123775.0 125532.0 129735.0 128277.0 143635.0 135561.0 48218.0 53417.0 55110.0 47339.0 352968.0 345042.0 123490.0 127255.0 237646.0 234539.0 231952.0 237205.0 59170.0 63592.0 242920.0 239393.0 37176.0 36304.0 188882.0 180751.0 205377.0 202370.0 225412.0 222002.0 225861.0 218566.0 8092.0 0.0 143183.0 150053.0 60613.0 53630.0 78165.0 78457.0 149933.0 142031.0 343091.0 335377.0 27441.0 25463.0 162578.0 170923.0 56409.0 64101.0 231403.0 235922.0 159406.0 152957.0 211082.0 209482.0 206425.0 212376.0 20347.0 25733.0 198402.0 193618.0 243402.0 236487.0 243402.0 243402.0 236487.0 236487.0
37997.0 46179.0 195049.0 194555.0 65115.0 72807.0 79333.0 82427.0 260920.0 252753.0 67028.0 58906.0 100711.0 102358.0 64694.0 57477.0 97712.0 96543.0 48172.0 55988.0 20970.0 28256.0 23735.0 24509.0 96718.0 94482.0 163637.0 161966.0 303622.0 295889.0 21268.0 15938.0 103803.0 103185.0 117641.0 125126.0 88060.0 81409.0 105620.0 104275.0 178685.0 179287.0 77971.0 71035.0 106297.0 109014.0 88170.0 87221.0 95612.0 90286.0 149182.0 143183.0 0.0 7986.0 82809.0 89557.0 74135.0 69332.0 98071.0 93486.0 294987.0 286776.0 170380.0 168391.0 58164.0 61226.0 91638.0 83865.0 139437.0 146937.0 61013.0 54032.0 90935.0 85400.0 123122.0 131147.0 150327.0 146283.0 106570.0 103431.0 100394.0 140747.0 100394.0 100394.0 140747.0 140747.0
45269.0 53467.0 197931.0 197750.0 71359.0 78776.0 82880.0 85314.0 263225.0 255057.0 73842.0 65902.0 105458.0 107566.0 60719.0 53908.0 90387.0 89514.0 55480.0 63084.0 28749.0 35795.0 29071.0 31342.0 103150.0 100534.0 171451.0 169691.0 306903.0 299223.0 29148.0 23219.0 95817.0 95228.0 110349.0 117900.0 95582.0 88793.0 97684.0 96293.0 185805.0 186240.0 71534.0 64933.0 108174.0 111416.0 80213.0 79235.0 87696.0 82457.0 156194.0 150053.0 7986.0 0.0 89521.0 96483.0 79308.0 75032.0 96223.0 92205.0 298389.0 290195.0 177146.0 175344.0 61681.0 63761.0 97637.0 89765.0 141249.0 148888.0 56768.0 50341.0 83541.0 77817.0 126086.0 134099.0 157655.0 153749.0 109200.0 106323.0 93350.0 142168.0 93350.0 93350.0 142168.0 142168.0
72511.0 72166.0 229844.0 226452.0 91124.0 98196.0 44697.0 52560.0 298855.0 290603.0 84209.0 78702.0 129947.0 126207.0 103910.0 97358.0 158947.0 154332.0 71940.0 76423.0 71050.0 71010.0 85814.0 77901.0 14913.0 16982.0 92305.0 88110.0 329211.0 321194.0 63842.0 66937.0 178152.0 175468.0 176502.0 182435.0 21210.0 15586.0 182879.0 179690.0 96950.0 96889.0 132698.0 124395.0 158018.0 156680.0 165298.0 162230.0 166896.0 159860.0 67066.0 60613.0 82809.0 89521.0 0.0 8262.0 25560.0 21249.0 106259.0 98182.0 319626.0 311534.0 87626.0 86009.0 110373.0 118128.0 15831.0 14420.0 187699.0 193451.0 103766.0 96543.0 153796.0 151386.0 164376.0 171421.0 70413.0 68160.0 152954.0 148375.0 182844.0 191700.0 182844.0 182844.0 191700.0 191700.0
76475.0 75308.0 229674.0 226009.0 92846.0 99494.0 51828.0 59574.0 298718.0 290449.0 85445.0 80613.0 130545.0 126365.0 112168.0 105619.0 167168.0 162579.0 74873.0 78587.0 76638.0 75925.0 91035.0 83021.0 12910.0 18567.0 84076.0 79848.0 327615.0 319597.0 69981.0 73626.0 186052.0 183456.0 184756.0 190696.0 16551.0 14039.0 190611.0 187536.0 89483.0 89758.0 140944.0 132639.0 160328.0 158595.0 173009.0 170065.0 174906.0 167913.0 59734.0 53630.0 89557.0 96483.0 8262.0 0.0 33244.0 29455.0 113847.0 105747.0 317968.0 309918.0 80904.0 78862.0 113735.0 121704.0 18776.0 20534.0 189294.0 194806.0 112027.0 104795.0 161988.0 159515.0 165526.0 172376.0 62447.0 59992.0 154796.0 150148.0 189830.0 193544.0 189830.0 189830.0 193544.0 193544.0
76413.0 78783.0 242495.0 239828.0 100897.0 108867.0 19735.0 27671.0 311089.0 302911.0 95595.0 88537.0 141667.0 139138.0 81019.0 75100.0 137568.0 132369.0 79218.0 85672.0 68815.0 71546.0 84131.0 77114.0 30798.0 24747.0 116675.0 111900.0 345053.0 337057.0 59738.0 59701.0 160114.0 156710.0 154249.0 159790.0 45986.0 38931.0 166073.0 162070.0 115341.0 113867.0 110873.0 102689.0 164360.0 164241.0 148786.0 144827.0 147992.0 140595.0 85628.0 78165.0 74135.0 79308.0 25560.0 33244.0 0.0 8090.0 80701.0 72622.0 335638.0 327468.0 103247.0 103299.0 114442.0 121241.0 21764.0 14433.0 195803.0 202198.0 81461.0 74833.0 132926.0 131360.0 174039.0 181542.0 91657.0 90705.0 160789.0 156488.0 170653.0 199028.0 170653.0 170653.0 199028.0 199028.0
68969.0 71043.0 234486.0 231784.0 92965.0 100892.0 26995.0 34826.0 303115.0 294931.0 87566.0 80576.0 133666.0 131084.0 82817.0 76415.0 138397.0 133565.0 71419.0 77741.0 62334.0 64570.0 77674.0 70427.0 30251.0 25923.0 113531.0 109215.0 336963.0 328967.0 53548.0 54305.0 159188.0 156126.0 155655.0 161470.0 40146.0 32651.0 164599.0 160953.0 115500.0 114591.0 111953.0 103679.0 156862.0 156601.0 147155.0 143583.0 147468.0 140243.0 85576.0 78457.0 69332.0 75032.0 21249.0 29455.0 8090.0 0.0 86073.0 78084.0 327549.0 319378.0 104433.0 103856.0 107146.0 114106.0 22922.0 14923.0 188134.0 194468.0 82823.0 75767.0 133444.0 131397.0 166204.0 173675.0 90432.0 88785.0 153116.0 148781.0 167380.0 191448.0 167380.0 167380.0 191448.0 191448.0
126861.0 133349.0 292927.0 292162.0 156501.0 164936.0 62453.0 55272.0 358991.0 350824.0 154942.0 146438.0 196056.0 196277.0 41087.0 44801.0 85526.0 77859.0 134802.0 143141.0 110354.0 117412.0 120712.0 118212.0 108846.0 101212.0 195789.0 190251.0 400988.0 393185.0 102055.0 95496.0 121220.0 114982.0 94648.0 97329.0 126212.0 118693.0 131762.0 124766.0 185364.0 181668.0 62862.0 58587.0 204234.0 207086.0 118678.0 111535.0 107044.0 99290.0 158004.0 149933.0 98071.0 96223.0 106259.0 113847.0 80701.0 86073.0 0.0 8126.0 392183.0 383953.0 169728.0 172411.0 155965.0 159295.0 98901.0 93802.0 237358.0 244926.0 45521.0 48315.0 84717.0 88136.0 221032.0 229053.0 167153.0 167893.0 204623.0 201407.0 154576.0 238386.0 154576.0 154576.0 238386.0 238386.0
120836.0 127108.0 287853.0 286908.0 150399.0 158859.0 54327.0 47164.0 354230.0 346063.0 148543.0 140082.0 190298.0 190289.0 40699.0 43047.0 89574.0 82113.0 128504.0 136788.0 104691.0 111571.0 115646.0 112743.0 100725.0 93098.0 187674.0 182153.0 395563.0 387733.0 96137.0 89864.0 124098.0 118130.0 99948.0 103071.0 118208.0 110723.0 134217.0 127495.0 177608.0 174016.0 65601.0 60462.0 199783.0 202386.0 120421.0 113547.0 109961.0 102108.0 150094.0 142031.0 93486.0 92205.0 98182.0 105747.0 72622.0 78084.0 8126.0 0.0 386689.0 378456.0 162113.0 164674.0 150990.0 154648.0 90780.0 85681.0 232923.0 240415.0 44899.0 46348.0 88184.0 90968.0 216034.0 224043.0 159137.0 159822.0 199822.0 196492.0 154719.0 234156.0 154719.0 154719.0 234156.0 234156.0
266389.0 260956.0 101650.0 100780.0 237442.0 228994.0 352752.0 359579.0 60542.0 62504.0 241027.0 248920.0 196658.0 197576.0 359104.0 352230.0 372490.0 375535.0 259862.0 252097.0 282003.0 275258.0 271692.0 273987.0 330773.0 336077.0 305284.0 312277.0 9922.0 2881.0 290727.0 296825.0 353323.0 357861.0 390186.0 397890.0 301820.0 304526.0 346104.0 350754.0 352728.0 359748.0 364054.0 359523.0 192902.0 188087.0 336257.0 341688.0 355129.0 354969.0 341524.0 343091.0 294987.0 298389.0 319626.0 317968.0 335638.0 327549.0 392183.0 386689.0 0.0 8235.0 361249.0 353661.0 236861.0 234821.0 335401.0 332718.0 162168.0 154187.0 355098.0 348694.0 365664.0 357732.0 172497.0 164545.0 329872.0 321873.0 189764.0 192242.0 320764.0 164164.0 320764.0 320764.0 164164.0 164164.0
258155.0 252728.0 93637.0 92635.0 229215.0 220768.0 344555.0 351373.0 56123.0 57170.0 232817.0 240702.0 188425.0 189355.0 350911.0 344029.0 364525.0 367530.0 251636.0 243877.0 273770.0 267023.0 263472.0 265756.0 322732.0 328006.0 297994.0 304932.0 17704.0 9697.0 282493.0 288592.0 345388.0 349926.0 382275.0 389988.0 293792.0 296454.0 338169.0 342819.0 345356.0 352334.0 355962.0 351403.0 184836.0 179969.0 328322.0 333753.0 347194.0 347070.0 333880.0 335377.0 286776.0 290195.0 311534.0 309918.0 327468.0 319378.0 383953.0 378456.0 8235.0 0.0 353718.0 346158.0 228655.0 226645.0 327316.0 324599.0 154244.0 146271.0 346911.0 340495.0 357688.0 349765.0 164334.0 156390.0 322301.0 314296.0 181620.0 184074.0 312829.0 156343.0 312829.0 312829.0 156343.0 156343.0
154657.0 151746.0 285826.0 280542.0 164209.0 168890.0 112937.0 117761.0 353423.0 345210.0 155605.0 153377.0 195047.0 188966.0 182437.0 177307.0 239841.0 234129.0 150824.0 152252.0 157167.0 155707.0 171072.0 162996.0 74488.0 78746.0 60045.0 51925.0 371164.0 363320.0 150849.0 154470.0 263331.0 259954.0 255451.0 260350.0 86422.0 91022.0 269010.0 265222.0 18123.0 12134.0 212984.0 204987.0 231239.0 227905.0 251585.0 247911.0 251231.0 243803.0 23290.0 27441.0 170380.0 177146.0 87626.0 80904.0 103247.0 104433.0 169728.0 162113.0 361249.0 353718.0 0.0 8118.0 189474.0 197868.0 81782.0 89709.0 256317.0 260513.0 183517.0 177450.0 235586.0 234412.0 231124.0 236767.0 31671.0 39691.0 223912.0 219119.0 270462.0 261626.0 270462.0 270462.0 261626.0 261626.0
151049.0 147778.0 279033.0 273650.0 159357.0 163758.0 114245.0 119491.0 346432.0 338233.0 150666.0 148798.0 189233.0 183005.0 183360.0 177971.0 240553.0 235033.0 146771.0 147813.0 154416.0 152584.0 168003.0 159926.0 73643.0 78584.0 51929.0 43817.0 363578.0 355748.0 148471.0 152455.0 263034.0 259864.0 256560.0 261649.0 82912.0 88050.0 268370.0 264808.0 13011.0 10896.0 213737.0 205657.0 226010.0 222481.0 250868.0 247428.0 251173.0 243840.0 19338.0 25463.0 168391.0 175344.0 86009.0 78862.0 103299.0 103856.0 172411.0 164674.0 353661.0 346158.0 8118.0 0.0 185166.0 193609.0 81600.0 89387.0 250543.0 254588.0 184246.0 177949.0 236108.0 234659.0 225273.0 230777.0 24800.0 32697.0 218478.0 213684.0 268692.0 255959.0 268692.0 268692.0 255959.0 255959.0
38317.0 38440.0 136968.0 136391.0 29199.0 30445.0 126627.0 131847.0 203308.0 195140.0 37761.0 36857.0 45465.0 49363.0 122362.0 115392.0 144889.0 145893.0 39015.0 37433.0 48172.0 43368.0 35361.0 39454.0 125153.0 126496.0 163424.0 164685.0 245467.0 237744.0 57729.0 62139.0 137556.0 139802.0 164474.0 172323.0 103660.0 100694.0 134238.0 136331.0 192526.0 195512.0 130703.0 125041.0 50495.0 51806.0 119698.0 122440.0 134417.0 131657.0 166293.0 162578.0 58164.0 61681.0 110373.0 113735.0 114442.0 107146.0 155965.0 150990.0 236861.0 228655.0 189474.0 185166.0 0.0 8532.0 124400.0 118307.0 83126.0 90228.0 118447.0 111873.0 137787.0 130654.0 65069.0 73088.0 162460.0 156162.0 48980.0 45509.0 113808.0 85477.0 113808.0 113808.0 85477.0 85477.0
45729.0 46531.0 134172.0 134094.0 37434.0 37861.0 132712.0 137650.0 199703.0 191536.0 46114.0 45389.0 47737.0 52714.0 124375.0 117665.0 143471.0 144934.0 47220.0 45938.0 53763.0 49757.0 39783.0 45020.0 132960.0 134081.0 171894.0 173195.0 243253.0 235607.0 63372.0 67041.0 133932.0 136580.0 162812.0 170680.0 111932.0 108801.0 129940.0 132478.0 201025.0 203976.0 130725.0 125481.0 45338.0 47794.0 116031.0 119261.0 131612.0 129316.0 174706.0 170923.0 61226.0 63761.0 118128.0 121704.0 121241.0 114106.0 159295.0 154648.0 234821.0 226645.0 197868.0 193609.0 8532.0 0.0 131918.0 125655.0 78411.0 85801.0 120317.0 114090.0 136379.0 129023.0 62372.0 70371.0 170960.0 164680.0 45452.0 42604.0 108260.0 80183.0 108260.0 108260.0 80183.0 80183.0
86190.0 86597.0 245615.0 242258.0 106371.0 113618.0 36514.0 43685.0 314613.0 306364.0 99686.0 93897.0 145574.0 141944.0 102622.0 96821.0 159321.0 154074.0 86533.0 91490.0 82567.0 83565.0 97740.0 90072.0 9945.0 3036.0 96924.0 91613.0 344996.0 336979.0 74461.0 76219.0 181573.0 178295.0 175898.0 181351.0 35191.0 30990.0 187256.0 183443.0 93584.0 92219.0 132606.0 124435.0 172779.0 171699.0 169868.0 166130.0 169593.0 162243.0 63868.0 56409.0 91638.0 97637.0 15831.0 18776.0 21764.0 22922.0 98901.0 90780.0 335401.0 327316.0 81782.0 81600.0 124400.0 131918.0 0.0 8004.0 202868.0 208741.0 103168.0 96593.0 154690.0 153084.0 179779.0 186899.0 70242.0 69786.0 168020.0 163486.0 190251.0 206726.0 190251.0 190251.0 206726.0 206726.0
80001.0 80934.0 241742.0 238608.0 101488.0 108986.0 31472.0 39119.0 310654.0 302424.0 95196.0 88986.0 141304.0 138019.0 95439.0 89459.0 151860.0 146734.0 81009.0 86429.0 75433.0 76815.0 90690.0 83138.0 16371.0 11021.0 102607.0 97658.0 342255.0 334241.0 67101.0 68559.0 173695.0 170477.0 168648.0 174214.0 35575.0 29860.0 179306.0 175536.0 101253.0 100052.0 125210.0 117004.0 167202.0 166397.0 161903.0 158207.0 161787.0 154470.0 71436.0 64101.0 83865.0 89765.0 14420.0 20534.0 14433.0 14923.0 93802.0 85681.0 332718.0 324599.0 89709.0 89387.0 118307.0 125655.0 8004.0 0.0 197723.0 203758.0 95832.0 89115.0 147132.0 145398.0 175003.0 182251.0 77229.0 76306.0 162779.0 158306.0 182282.0 201399.0 182282.0 182282.0 201399.0 201399.0
119645.0 117113.0 60798.0 63494.0 96579.0 89830.0 209248.0 214740.0 122474.0 114307.0 103874.0 109003.0 61315.0 67839.0 201049.0 194766.0 210352.0 213534.0 116845.0 111381.0 131292.0 126154.0 118066.0 122581.0 201751.0 204549.0 216227.0 220096.0 169769.0 162536.0 140829.0 145173.0 191159.0 195697.0 228058.0 235786.0 176092.0 175363.0 183940.0 188589.0 255101.0 259800.0 202911.0 198919.0 33140.0 31610.0 174093.0 179524.0 192965.0 192881.0 233256.0 231403.0 139437.0 141249.0 187699.0 189294.0 195803.0 188134.0 237358.0 232923.0 162168.0 154244.0 256317.0 250543.0 83126.0 78411.0 202868.0 197723.0 0.0 7995.0 196802.0 191146.0 203554.0 195601.0 25448.0 21799.0 226040.0 218583.0 35019.0 39419.0 158600.0 7151.0 158600.0 158600.0 7151.0 7151.0
126259.0 123427.0 52885.0 55805.0 102370.0 95329.0 215961.0 221565.0 114611.0 106444.0 109372.0 114849.0 65563.0 71586.0 208813.0 202485.0 218343.0 221529.0 123076.0 117334.0 138338.0 133029.0 125334.0 129655.0 207356.0 210353.0 219090.0 223203.0 161775.0 154548.0 147839.0 152351.0 199150.0 203689.0 236050.0 243778.0 181291.0 180827.0 191931.0 196581.0 258809.0 263687.0 210872.0 206850.0 40714.0 38453.0 182084.0 187515.0 200956.0 200872.0 237550.0 235922.0 146937.0 148888.0 193451.0 194806.0 202198.0 194468.0 244926.0 240415.0 154187.0 146271.0 260513.0 254588.0 90228.0 85801.0 208741.0 203758.0 7995.0 0.0 204580.0 198868.0 211547.0 203592.0 29526.0 23958.0 229985.0 222439.0 41585.0 45732.0 166591.0 11757.0 166591.0 166591.0 11757.0 11757.0
96259.0 103942.0 254415.0 254404.0 125195.0 133211.0 71080.0 67826.0 319148.0 310981.0 125800.0 117299.0 161721.0 163291.0 4510.0 6409.0 56327.0 50909.0 105744.0 114114.0 78375.0 86119.0 84747.0 84568.0 112189.0 106102.0 195823.0 191865.0 363565.0 355908.0 72441.0 64586.0 84053.0 79175.0 72858.0 78669.0 119321.0 111358.0 92730.0 86906.0 196538.0 194603.0 29490.0 21493.0 163971.0 167692.0 77480.0 71317.0 70489.0 62618.0 166997.0 159406.0 61013.0 56768.0 103766.0 112027.0 81461.0 82823.0 45521.0 44899.0 355098.0 346911.0 183517.0 184246.0 118447.0 120317.0 103168.0 95832.0 196802.0 204580.0 0.0 8042.0 52250.0 52150.0 182689.0 190685.0 172996.0 171598.0 165645.0 162921.0 109849.0 197172.0 109849.0 109849.0 197172.0 197172.0
88609.0 96219.0 248262.0 248083.0 117703.0 125783.0 65697.0 63135.0 313350.0 305182.0 118114.0 109593.0 154685.0 156072.0 10790.0 3633.0 62746.0 57806.0 98001.0 106391.0 70774.0 78490.0 77732.0 77196.0 105425.0 99560.0 188411.0 184577.0 357232.0 349542.0 64608.0 56802.0 88089.0 83686.0 79962.0 86004.0 111684.0 103730.0 96025.0 90681.0 190125.0 188394.0 36187.0 27920.0 158187.0 161669.0 80062.0 74442.0 74932.0 67189.0 160460.0 152957.0 54032.0 50341.0 96543.0 104795.0 74833.0 75767.0 48315.0 46348.0 348694.0 340495.0 177450.0 177949.0 111873.0 114090.0 96593.0 89115.0 191146.0 198868.0 8042.0 0.0 58162.0 57200.0 176427.0 184439.0 166123.0 164537.0 159512.0 156663.0 109735.0 191730.0 109735.0 109735.0 191730.0 191730.0
128806.0 137004.0 264060.0 265679.0 153864.0 160650.0 123330.0 119919.0 325797.0 317630.0 157127.0 149358.0 183247.0 186847.0 53955.0 58332.0 7103.0 11212.0 139015.0 146594.0 111816.0 119190.0 111469.0 114830.0 163380.0 157670.0 244705.0 241347.0 373322.0 366074.0 109526.0 101754.0 37128.0 30433.0 26955.0 34698.0 167280.0 159457.0 48726.0 41009.0 248256.0 246555.0 23386.0 30795.0 173276.0 178929.0 40193.0 32154.0 23189.0 16390.0 218544.0 211082.0 90935.0 83541.0 153796.0 161988.0 132926.0 133444.0 84717.0 88184.0 365664.0 357688.0 235586.0 236108.0 137787.0 136379.0 154690.0 147132.0 203554.0 211547.0 52250.0 58162.0 0.0 8072.0 195473.0 203013.0 223871.0 221955.0 177981.0 176533.0 83749.0 203425.0 83749.0 83749.0 203425.0 203425.0
123045.0 131237.0 256144.0 257816.0 147473.0 154096.0 122865.0 119937.0 317843.0 309676.0 151012.0 143377.0 176086.0 179834.0 54467.0 57872.0 14764.0 19049.0 133257.0 140682.0 106360.0 113595.0 105231.0 108943.0 161523.0 156090.0 241595.0 238471.0 365365.0 358131.0 104608.0 96971.0 33135.0 27357.0 33823.0 41680.0 164075.0 156330.0 43794.0 36630.0 246648.0 245202.0 25370.0 31382.0 165447.0 171169.0 33313.0 25339.0 18996.0 11157.0 216822.0 209482.0 85400.0 77817.0 151386.0 159515.0 131360.0 131397.0 88136.0 90968.0 357732.0 349765.0 234412.0 234659.0 130654.0 129023.0 153084.0 145398.0 195601.0 203592.0 52150.0 57200.0 8072.0 0.0 187751.0 195258.0 221688.0 219502.0 170272.0 168890.0 76242.0 195471.0 76242.0 76242.0 195471.0 195471.0
98862.0 95339.0 71927.0 71735.0 73517.0 66180.0 188501.0 194405.0 138527.0 130359.0 80181.0 86018.0 36088.0 42411.0 186743.0 179991.0 202468.0 204784.0 94826.0 88641.0 112271.0 106374.0 100388.0 103776.0 178139.0 181318.0 190824.0 194655.0 180886.0 173255.0 121567.0 126737.0 186953.0 190926.0 221084.0 228922.0 151847.0 151523.0 180431.0 184689.0 229710.0 234465.0 192057.0 187240.0 23979.0 16851.0 169440.0 174184.0 187364.0 186388.0 208119.0 206425.0 123122.0 126086.0 164376.0 165526.0 174039.0 166204.0 221032.0 216034.0 172497.0 164334.0 231124.0 225273.0 65069.0 62372.0 179779.0 175003.0 25448.0 29526.0 182689.0 176427.0 195473.0 187751.0 0.0 8025.0 200724.0 193233.0 17514.0 19769.0 155178.0 31579.0 155178.0 155178.0 31579.0 31579.0
106625.0 102933.0 63901.0 63769.0 80826.0 73293.0 196190.0 202154.0 130612.0 122445.0 87220.0 93314.0 42171.0 47804.0 194746.0 188005.0 209990.0 212404.0 102367.0 96007.0 120208.0 114251.0 108399.0 111735.0 185051.0 188385.0 195173.0 199252.0 172904.0 165286.0 129478.0 134703.0 193857.0 197960.0 228506.0 236334.0 158450.0 158352.0 187092.0 191515.0 234895.0 239818.0 199867.0 195111.0 30473.0 24092.0 176430.0 181315.0 194553.0 193718.0 213862.0 212376.0 131147.0 134099.0 171421.0 172376.0 181542.0 173675.0 229053.0 224043.0 164545.0 156390.0 236767.0 230777.0 73088.0 70371.0 186899.0 182251.0 21799.0 23958.0 190685.0 184439.0 203013.0 195258.0 8025.0 0.0 206141.0 198567.0 25279.0 27776.0 161762.0 28701.0 161762.0 161762.0 28701.0 28701.0
129700.0 125786.0 254276.0 248935.0 135919.0 139949.0 105919.0 112287.0 321777.0 313569.0 127135.0 125789.0 164726.0 158402.0 172667.0 166607.0 228814.0 223863.0 124636.0 125027.0 134772.0 132179.0 147605.0 139577.0 60859.0 67461.0 34883.0 27010.0 339782.0 331919.0 129699.0 134474.0 248499.0 245878.0 245843.0 251443.0 62672.0 68927.0 252954.0 249968.0 30066.0 33796.0 202290.0 194042.0 202012.0 198286.0 235333.0 232492.0 237309.0 230262.0 13938.0 20347.0 150327.0 157655.0 70413.0 62447.0 91657.0 90432.0 167153.0 159137.0 329872.0 322301.0 31671.0 24800.0 162460.0 170960.0 70242.0 77229.0 226040.0 229985.0 172996.0 166123.0 223871.0 221688.0 200724.0 206141.0 0.0 8030.0 194276.0 189485.0 250648.0 231534.0 250648.0 250648.0 231534.0 231534.0
124183.0 119946.0 246337.0 240967.0 129239.0 133030.0 106032.0 112731.0 313786.0 305581.0 120410.0 119384.0 157282.0 150872.0 171476.0 165192.0 227072.0 222341.0 118722.0 118751.0 130070.0 127123.0 142504.0 134523.0 60069.0 67166.0 30104.0 23025.0 331782.0 323915.0 125422.0 130531.0 245662.0 243256.0 244439.0 250213.0 58248.0 64998.0 249766.0 247009.0 36784.0 41251.0 200722.0 192436.0 194925.0 191069.0 232127.0 229527.0 234750.0 227826.0 20806.0 25733.0 146283.0 153749.0 68160.0 59992.0 90705.0 88785.0 167893.0 159822.0 321873.0 314296.0 39691.0 32697.0 156162.0 164680.0 69786.0 76306.0 218583.0 222439.0 171598.0 164537.0 221955.0 219502.0 193233.0 198567.0 8030.0 0.0 187055.0 182269.0 246410.0 224138.0 246410.0 246410.0 224138.0 224138.0
84699.0 82098.0 88771.0 88986.0 61952.0 55678.0 174381.0 179984.0 154408.0 146241.0 69617.0 74272.0 31987.0 39768.0 169744.0 163094.0 184981.0 187272.0 81847.0 76547.0 96905.0 91471.0 84300.0 88265.0 167138.0 169750.0 187316.0 190480.0 198061.0 190475.0 106364.0 111085.0 169980.0 173811.0 203644.0 211487.0 142036.0 140941.0 163755.0 167807.0 223793.0 228065.0 174592.0 169837.0 10588.0 4016.0 152381.0 156979.0 170102.0 169011.0 200702.0 198402.0 106570.0 109200.0 152954.0 154796.0 160789.0 153116.0 204623.0 199822.0 189764.0 181620.0 223912.0 218478.0 48980.0 45452.0 168020.0 162779.0 35019.0 41585.0 165645.0 159512.0 177981.0 170272.0 17514.0 25279.0 194276.0 187055.0 0.0 4794.0 138719.0 38758.0 138719.0 138719.0 38758.0 38758.0
80552.0 77740.0 91644.0 91494.0 57316.0 50943.0 170278.0 175962.0 157814.0 149646.0 64904.0 69676.0 27628.0 35482.0 166975.0 160230.0 183562.0 185665.0 77441.0 71997.0 93153.0 87548.0 80869.0 84564.0 162519.0 165193.0 182637.0 185762.0 200651.0 193013.0 102557.0 107460.0 169517.0 173169.0 202389.0 210245.0 137316.0 136275.0 163606.0 167449.0 219009.0 223274.0 172557.0 167632.0 14329.0 8801.0 151828.0 156222.0 169242.0 167935.0 195910.0 193618.0 103431.0 106323.0 148375.0 150148.0 156488.0 148781.0 201407.0 196492.0 192242.0 184074.0 219119.0 213684.0 45509.0 42604.0 163486.0 158306.0 39419.0 45732.0 162921.0 156663.0 176533.0 168890.0 19769.0 27776.0 189485.0 182269.0 4794.0 0.0 138832.0 43398.0 138832.0 138832.0 43398.0 43398.0
126955.0 133796.0 219294.0 221494.0 139943.0 143565.0 169876.0 169977.0 280842.0 272674.0 146755.0 141709.0 154464.0 160365.0 114021.0 112529.0 88720.0 94953.0 135648.0 140215.0 116844.0 121091.0 106667.0 113965.0 196277.0 193212.0 262112.0 261115.0 328359.0 321135.0 120994.0 116316.0 57108.0 63495.0 101167.0 107939.0 188170.0 181724.0 46895.0 53539.0 279075.0 279587.0 96105.0 97414.0 131325.0 138409.0 44275.0 52073.0 64505.0 68264.0 249526.0 243402.0 100394.0 93350.0 182844.0 189830.0 170653.0 167380.0 154576.0 154719.0 320764.0 312829.0 270462.0 268692.0 113808.0 108260.0 190251.0 182282.0 158600.0 166591.0 109849.0 109735.0 83749.0 76242.0 155178.0 161762.0 250648.0 246410.0 138719.0 138832.0 0.0 158470.0 0.0 0.0 158470.0 158470.0
122677.0 120562.0 63526.0 67000.0 100704.0 94275.0 212006.0 217317.0 124149.0 115982.0 108273.0 113029.0 66901.0 73696.0 201470.0 195359.0 210223.0 213414.0 120401.0 115283.0 133594.0 128765.0 119965.0 124850.0 205896.0 208479.0 222342.0 226086.0 171494.0 164411.0 143177.0 147199.0 191029.0 195567.0 227928.0 235656.0 180652.0 179673.0 183810.0 188460.0 260732.0 265317.0 202888.0 198964.0 34986.0 35028.0 173963.0 179394.0 192835.0 192751.0 238506.0 236487.0 140747.0 142168.0 191700.0 193544.0 199028.0 191448.0 238386.0 234156.0 164164.0 156343.0 261626.0 255959.0 85477.0 80183.0 206726.0 201399.0 7151.0 11757.0 197172.0 191730.0 203425.0 195471.0 31579.0 28701.0 231534.0 224138.0 38758.0 43398.0 158470.0 0.0 158470.0 158470.0 0.0 0.0
126955.0 133796.0 219294.0 221494.0 139943.0 143565.0 169876.0 169977.0 280842.0 272674.0 146755.0 141709.0 154464.0 160365.0 114021.0 112529.0 88720.0 94953.0 135648.0 140215.0 116844.0 121091.0 106667.0 113965.0 196277.0 193212.0 262112.0 261115.0 328359.0 321135.0 120994.0 116316.0 57108.0 63495.0 101167.0 107939.0 188170.0 181724.0 46895.0 53539.0 279075.0 279587.0 96105.0 97414.0 131325.0 138409.0 44275.0 52073.0 64505.0 68264.0 249526.0 243402.0 100394.0 93350.0 182844.0 189830.0 170653.0 167380.0 154576.0 154719.0 320764.0 312829.0 270462.0 268692.0 113808.0 108260.0 190251.0 182282.0 158600.0 166591.0 109849.0 109735.0 83749.0 76242.0 155178.0 161762.0 250648.0 246410.0 138719.0 138832.0 0.0 158470.0 0.0 0.0 158470.0 158470.0
126955.0 133796.0 219294.0 221494.0 139943.0 143565.0 169876.0 169977.0 280842.0 272674.0 146755.0 141709.0 154464.0 160365.0 114021.0 112529.0 88720.0 94953.0 135648.0 140215.0 116844.0 121091.0 106667.0 113965.0 196277.0 193212.0 262112.0 261115.0 328359.0 321135.0 120994.0 116316.0 57108.0 63495.0 101167.0 107939.0 188170.0 181724.0 46895.0 53539.0 279075.0 279587.0 96105.0 97414.0 131325.0 138409.0 44275.0 52073.0 64505.0 68264.0 249526.0 243402.0 100394.0 93350.0 182844.0 189830.0 170653.0 167380.0 154576.0 154719.0 320764.0 312829.0 270462.0 268692.0 113808.0 108260.0 190251.0 182282.0 158600.0 166591.0 109849.0 109735.0 83749.0 76242.0 155178.0 161762.0 250648.0 246410.0 138719.0 138832.0 0.0 158470.0 0.0 0.0 158470.0 158470.0
122677.0 120562.0 63526.0 67000.0 100704.0 94275.0 212006.0 217317.0 124149.0 115982.0 108273.0 113029.0 66901.0 73696.0 201470.0 195359.0 210223.0 213414.0 120401.0 115283.0 133594.0 128765.0 119965.0 124850.0 205896.0 208479.0 222342.0 226086.0 171494.0 164411.0 143177.0 147199.0 191029.0 195567.0 227928.0 235656.0 180652.0 179673.0 183810.0 188460.0 260732.0 265317.0 202888.0 198964.0 34986.0 35028.0 173963.0 179394.0 192835.0 192751.0 238506.0 236487.0 140747.0 142168.0 191700.0 193544.0 199028.0 191448.0 238386.0 234156.0 164164.0 156343.0 261626.0 255959.0 85477.0 80183.0 206726.0 201399.0 7151.0 11757.0 197172.0 191730.0 203425.0 195471.0 31579.0 28701.0 231534.0 224138.0 38758.0 43398.0 158470.0 0.0 158470.0 158470.0 0.0 0.0
122677.0 120562.0 63526.0 67000.0 100704.0 94275.0 212006.0 217317.0 124149.0 115982.0 108273.0 113029.0 66901.0 73696.0 201470.0 195359.0 210223.0 213414.0 120401.0 115283.0 133594.0 128765.0 119965.0 124850.0 205896.0 208479.0 222342.0 226086.0 171494.0 164411.0 143177.0 147199.0 191029.0 195567.0 227928.0 235656.0 180652.0 179673.0 183810.0 188460.0 260732.0 265317.0 202888.0 198964.0 34986.0 35028.0 173963.0 179394.0 192835.0 192751.0 238506.0 236487.0 140747.0 142168.0 191700.0 193544.0 199028.0 191448.0 238386.0 234156.0 164164.0 156343.0 261626.0 255959.0 85477.0 80183.0 206726.0 201399.0 7151.0 11757.0 197172.0 191730.0 203425.0 195471.0 31579.0 28701.0 231534.0 224138.0 38758.0 43398.0 158470.0 0.0 158470.0 158470.0 0.0 0.0
FIXED_EDGES_SECTION
1 2
3 4
5 6
7 8
9 10
11 12
13 14
15 16
17 18
19 20
21 22
23 24
25 26
27 28
29 30
31 32
33 34
35 36
37 38
39 40
41 42
43 44
45 46
47 48
49 50
51 52
53 54
55 56
57 58
59 60
61 62
63 64
65 66
67 68
69 70
71 72
73 74
75 76
77 78
79 80
-1 
DEMAND_SECTION
1 94
2 94
3 563
4 563
5 421
6 421
7 224
8 224
9 224
10 224
11 271
12 271
13 342
14 342
15 497
16 497
17 274
18 274
19 279
20 279
21 191
22 191
23 114
24 114
25 72
26 72
27 234
28 234
29 229
30 229
31 541
32 541
33 219
34 219
35 316
36 316
37 180
38 180
39 292
40 292
41 138
42 138
43 375
44 375
45 100
46 100
47 104
48 104
49 247
50 247
51 380
52 380
53 119
54 119
55 74
56 74
57 479
58 479
59 497
60 497
61 421
62 421
63 542
64 542
65 358
66 358
67 186
68 186
69 37
70 37
71 461
72 461
73 379
74 379
75 371
76 371
77 258
78 258
79 399
80 399
81 0
82 0
83 0
84 0
85 0
86 0
DEPOT_SECTION
81 
-1 
CAPACITIES_SECTION
10000 
11000 
12000 
13000 
-1 
EOF