NAME: GFS_20_1
TYPE: GFSP
DIMENSION: 86
VEHICLES: 4
CAPACITY: 10000.0
TRIP_DIST_LIMIT: 750000.0
TOTAL_DIST_LIMIT: 1050000.0
EDGE_WEIGHT_TYPE: EXPLICIT
EDGE_WEIGHT_FORMAT: FULL_MATRIX
EDGE_WEIGHT_SECTION
0.0 7469.0 115679.0 120850.0 13010.0 20324.0 92764.0 84692.0 239920.0 240453.0 201562.0 197935.0 229470.0 221457.0 89340.0 95434.0 272060.0 274158.0 194985.0 197135.0 219994.0 213615.0 223705.0 228636.0 13028.0 20470.0 70330.0 63927.0 226561.0 222840.0 165870.0 173094.0 181263.0 175665.0 135825.0 140536.0 249097.0 242335.0 209604.0 215606.0 280710.0 275541.0 211156.0 203380.0 203777.0 209816.0 241499.0 237428.0 284526.0 278796.0 287766.0 280851.0 87382.0 91543.0 233074.0 238263.0 172762.0 180758.0 139277.0 131442.0 247436.0 243351.0 228054.0 221658.0 100071.0 107872.0 108600.0 100391.0 148907.0 144453.0 42998.0 49860.0 256564.0 260661.0 174174.0 167226.0 227798.0 224756.0 117085.0 118355.0 224357.0 75676.0 224357.0 224357.0 75676.0 75676.0
7469.0 0.0 120759.0 125641.0 13949.0 19050.0 98389.0 90427.0 235356.0 236093.0 201430.0 198070.0 224679.0 216655.0 93533.0 99264.0 273819.0 275712.0 191779.0 194197.0 222555.0 216023.0 220623.0 225739.0 7123.0 15136.0 75135.0 69134.0 228487.0 225005.0 166817.0 173885.0 175634.0 169888.0 136779.0 141830.0 249406.0 242516.0 204104.0 210243.0 282776.0 277772.0 211458.0 203764.0 203090.0 209336.0 239761.0 235477.0 284020.0 278139.0 290017.0 283229.0 91704.0 96258.0 227343.0 232661.0 172017.0 180022.0 139772.0 132028.0 245393.0 241532.0 229529.0 222966.0 98424.0 106330.0 110584.0 102439.0 148353.0 143563.0 44020.0 51456.0 259284.0 263212.0 173707.0 166613.0 224991.0 222179.0 121241.0 122907.0 227389.0 80817.0 227389.0 227389.0 80817.0 80817.0
115679.0 120759.0 0.0 8022.0 126844.0 134839.0 25228.0 33284.0 355480.0 355825.0 300591.0 295486.0 345139.0 337129.0 31096.0 30657.0 357711.0 360902.0 308141.0 309475.0 302593.0 296859.0 336316.0 340601.0 127821.0 135771.0 147591.0 139727.0 311980.0 307068.0 259615.0 267503.0 296224.0 290298.0 231189.0 233482.0 344264.0 338466.0 324789.0 330990.0 364779.0 358964.0 307308.0 299241.0 305889.0 310631.0 348413.0 345439.0 384108.0 379346.0 371042.0 363709.0 31693.0 25269.0 347760.0 353243.0 276028.0 283732.0 237138.0 229245.0 355759.0 350650.0 316072.0 310854.0 209956.0 217076.0 54703.0 53717.0 252020.0 249417.0 86327.0 78936.0 338517.0 343055.0 275913.0 269975.0 339457.0 335587.0 18761.0 11333.0 305958.0 149265.0 305958.0 305958.0 149265.0 149265.0
120850.0 125641.0 8022.0 0.0 132327.0 140309.0 32458.0 40238.0 360769.0 361249.0 307444.0 302339.0 350269.0 342249.0 33550.0 31136.0 364564.0 367755.0 314161.0 315627.0 309446.0 303712.0 342445.0 346829.0 132740.0 140729.0 154443.0 146580.0 318832.0 313920.0 266468.0 274355.0 300743.0 294704.0 238042.0 240335.0 351117.0 345319.0 329386.0 335693.0 371632.0 365816.0 314161.0 306094.0 312721.0 317484.0 355177.0 352108.0 390961.0 386199.0 377894.0 370562.0 34728.0 29390.0 352135.0 357730.0 282879.0 290585.0 243990.0 236097.0 362408.0 357385.0 322925.0 317707.0 216249.0 223451.0 51147.0 51322.0 258865.0 256192.0 89458.0 81813.0 345370.0 349908.0 282753.0 276828.0 345727.0 341959.0 13501.0 5638.0 312811.0 156118.0 312811.0 312811.0 156118.0 156118.0
13010.0 13949.0 126844.0 132327.0 0.0 7996.0 103285.0 95087.0 228667.0 228982.0 188654.0 185096.0 218495.0 210502.0 101430.0 107758.0 260032.0 261992.0 182610.0 184607.0 208615.0 202097.0 211245.0 216074.0 12001.0 14422.0 62146.0 56622.0 214651.0 211116.0 153342.0 160494.0 171603.0 166291.0 123291.0 128188.0 236318.0 229514.0 199675.0 205448.0 268911.0 263875.0 198370.0 190621.0 190782.0 196845.0 228547.0 224520.0 271556.0 265807.0 276117.0 269310.0 99379.0 103180.0 223525.0 228476.0 159761.0 167757.0 126544.0 118742.0 234548.0 230415.0 215833.0 209335.0 87137.0 94914.0 121574.0 113360.0 135921.0 131443.0 55953.0 62869.0 245337.0 249274.0 161202.0 154236.0 215193.0 212049.0 129139.0 130072.0 213451.0 68145.0 213451.0 213451.0 68145.0 68145.0
20324.0 19050.0 134839.0 140309.0 7996.0 0.0 111265.0 103062.0 220673.0 220989.0 182384.0 179024.0 210513.0 202521.0 109315.0 115574.0 255314.0 257083.0 174784.0 176859.0 204737.0 198064.0 203461.0 208348.0 14091.0 11601.0 62063.0 57363.0 210118.0 206825.0 147948.0 154960.0 163834.0 158592.0 117932.0 123137.0 230371.0 223470.0 191841.0 197569.0 264484.0 259613.0 192423.0 184741.0 184132.0 190332.0 221301.0 217170.0 265027.0 259180.0 271869.0 265194.0 107286.0 111144.0 215766.0 220664.0 153070.0 161074.0 120781.0 113063.0 227158.0 223128.0 210872.0 204227.0 79868.0 87712.0 128799.0 120605.0 129355.0 124654.0 62682.0 69855.0 241596.0 245351.0 154697.0 147631.0 207496.0 204433.0 137038.0 138031.0 210164.0 68493.0 210164.0 210164.0 68493.0 68493.0
92764.0 98389.0 25228.0 32458.0 103285.0 111265.0 0.0 8282.0 331860.0 332003.0 275475.0 270370.0 321777.0 313786.0 24271.0 30237.0 332594.0 335785.0 283560.0 284753.0 277477.0 271743.0 311609.0 315794.0 105318.0 113139.0 122474.0 114611.0 286863.0 281951.0 234499.0 242386.0 273976.0 268275.0 206073.0 208366.0 319148.0 313350.0 302363.0 308365.0 339663.0 333847.0 282191.0 274125.0 280773.0 285515.0 323299.0 320304.0 358991.0 354230.0 345925.0 338592.0 22567.0 16121.0 325725.0 330993.0 250911.0 258616.0 212021.0 204128.0 330633.0 325527.0 290956.0 285737.0 185129.0 192171.0 60542.0 56123.0 226904.0 224304.0 68957.0 62618.0 313401.0 317939.0 250796.0 244858.0 314613.0 310654.0 36574.0 32798.0 280842.0 124149.0 280842.0 280842.0 124149.0 124149.0
84692.0 90427.0 33284.0 40238.0 95087.0 103062.0 8282.0 0.0 323622.0 323746.0 267307.0 262203.0 313569.0 305581.0 25194.0 32462.0 324427.0 327618.0 275283.0 276486.0 269310.0 263576.0 303341.0 307539.0 97317.0 105102.0 114307.0 106444.0 278696.0 273784.0 226332.0 234219.0 265944.0 260285.0 197906.0 200199.0 310981.0 305182.0 294295.0 300263.0 331496.0 325680.0 274024.0 265957.0 272605.0 277347.0 315129.0 312160.0 350824.0 346063.0 337758.0 330425.0 22884.0 18508.0 317723.0 322952.0 242697.0 250387.0 203854.0 195961.0 322483.0 317366.0 282789.0 277570.0 176874.0 183932.0 62504.0 57170.0 218705.0 216134.0 62661.0 56794.0 305233.0 309772.0 242629.0 236634.0 306364.0 302424.0 42924.0 40042.0 272674.0 115982.0 272674.0 272674.0 115982.0 115982.0
239920.0 235356.0 355480.0 360769.0 228667.0 220673.0 331860.0 323622.0 0.0 8092.0 142228.0 149074.0 13938.0 20806.0 328881.0 334431.0 223187.0 217890.0 63636.0 68712.0 221902.0 214960.0 55339.0 60908.0 228234.0 220221.0 233256.0 237550.0 206267.0 211695.0 167883.0 164304.0 71642.0 79453.0 170996.0 176608.0 166997.0 160460.0 48697.0 40690.0 237899.0 240099.0 155398.0 156386.0 127278.0 133364.0 100314.0 92551.0 158004.0 150094.0 248082.0 247936.0 327059.0 331452.0 51266.0 45137.0 129045.0 127709.0 161995.0 165583.0 91867.0 98104.0 193737.0 186639.0 153462.0 148658.0 341524.0 333880.0 139959.0 135767.0 276089.0 284124.0 244699.0 241701.0 135079.0 133262.0 63868.0 71436.0 356563.0 358214.0 249526.0 238506.0 249526.0 249526.0 238506.0 238506.0
240453.0 236093.0 355825.0 361249.0 228982.0 220989.0 332003.0 323746.0 8092.0 0.0 135748.0 142731.0 20347.0 25733.0 329614.0 335303.0 215649.0 210275.0 59170.0 63592.0 215415.0 208565.0 48218.0 53417.0 228973.0 220962.0 231403.0 235922.0 199477.0 205043.0 162701.0 158857.0 76306.0 84115.0 167001.0 172374.0 159406.0 152957.0 55110.0 47339.0 230355.0 232658.0 148650.0 149882.0 120711.0 126584.0 92482.0 84782.0 149933.0 142031.0 240522.0 240481.0 327744.0 331987.0 59230.0 53206.0 123841.0 122128.0 157951.0 161847.0 83885.0 90223.0 186804.0 179804.0 151948.0 146813.0 343091.0 335377.0 135815.0 131985.0 277330.0 285347.0 237646.0 234539.0 129735.0 128277.0 56409.0 64101.0 357332.0 358807.0 243402.0 236487.0 243402.0 243402.0 236487.0 236487.0
201562.0 201430.0 300591.0 307444.0 188654.0 182384.0 275475.0 267307.0 142228.0 135748.0 0.0 7955.0 144671.0 141320.0 282419.0 289920.0 93135.0 90797.0 83809.0 76494.0 79678.0 72842.0 88125.0 84901.0 195750.0 189466.0 154267.0 161707.0 64873.0 69665.0 44032.0 36336.0 155628.0 159263.0 69533.0 68435.0 49569.0 41969.0 160950.0 158545.0 106977.0 106513.0 15479.0 14166.0 15185.0 12531.0 61695.0 64057.0 83651.0 78762.0 116996.0 114268.0 279928.0 281304.0 181227.0 178971.0 32901.0 26141.0 63567.0 71521.0 73056.0 64907.0 53816.0 45921.0 106286.0 98461.0 308756.0 300534.0 53778.0 60050.0 244556.0 251196.0 104915.0 103224.0 28814.0 36551.0 81942.0 73979.0 308412.0 306863.0 108311.0 155705.0 108311.0 108311.0 155705.0 155705.0
197935.0 198070.0 295486.0 302339.0 185096.0 179024.0 270370.0 262203.0 149074.0 142731.0 7955.0 0.0 151107.0 147517.0 277673.0 285238.0 90630.0 88940.0 89639.0 82540.0 72949.0 65892.0 95368.0 92386.0 192553.0 186463.0 148737.0 156281.0 59254.0 63464.0 37344.0 29453.0 159895.0 163232.0 64304.0 62527.0 51519.0 44449.0 166327.0 164201.0 104053.0 103023.0 14063.0 8721.0 22761.0 20384.0 69614.0 72009.0 88653.0 84239.0 113902.0 110668.0 275161.0 276370.0 187094.0 185061.0 33636.0 28213.0 59040.0 67002.0 81000.0 72833.0 49219.0 41067.0 104356.0 96680.0 304599.0 296389.0 51865.0 58776.0 240888.0 247394.0 99740.0 98497.0 28342.0 36038.0 89449.0 81515.0 303452.0 301745.0 100915.0 149917.0 100915.0 100915.0 149917.0 149917.0
229470.0 224679.0 345139.0 350269.0 218495.0 210513.0 321777.0 313569.0 13938.0 20347.0 144671.0 151107.0 0.0 8030.0 318115.0 323506.0 228814.0 223863.0 62672.0 68927.0 224045.0 216867.0 60859.0 67461.0 217565.0 209562.0 226040.0 229985.0 209329.0 214335.0 167011.0 164044.0 57995.0 65788.0 167670.0 173719.0 172996.0 166123.0 34883.0 27010.0 243527.0 245305.0 158525.0 158814.0 130064.0 136715.0 107800.0 99785.0 167153.0 159137.0 253761.0 253178.0 316347.0 320907.0 40799.0 36042.0 128476.0 128004.0 158810.0 161793.0 100349.0 105878.0 197275.0 189897.0 146002.0 141731.0 329872.0 322301.0 137106.0 132252.0 264813.0 272862.0 248499.0 245878.0 134772.0 132179.0 70242.0 77229.0 345738.0 347586.0 250648.0 231534.0 250648.0 250648.0 231534.0 231534.0
221457.0 216655.0 337129.0 342249.0 210502.0 202521.0 313786.0 305581.0 20806.0 25733.0 141320.0 147517.0 8030.0 0.0 310087.0 315476.0 227072.0 222341.0 58248.0 64998.0 220348.0 213059.0 60069.0 67166.0 209541.0 201539.0 218583.0 222439.0 206145.0 210915.0 161952.0 159276.0 50890.0 58706.0 161561.0 167774.0 171598.0 164537.0 30104.0 23025.0 241764.0 243285.0 155498.0 155408.0 126961.0 133892.0 107642.0 99522.0 167893.0 159822.0 252015.0 251169.0 308320.0 312886.0 41079.0 37756.0 123674.0 123621.0 152773.0 155512.0 100918.0 105925.0 194375.0 186858.0 138535.0 134416.0 321873.0 314296.0 131258.0 126146.0 256788.0 264837.0 245662.0 243256.0 130070.0 127123.0 69786.0 76306.0 337709.0 339561.0 246410.0 224138.0 246410.0 246410.0 224138.0 224138.0
89340.0 93533.0 31096.0 33550.0 101430.0 109315.0 24271.0 25194.0 328881.0 329614.0 282419.0 277673.0 318115.0 310087.0 0.0 8039.0 341561.0 344751.0 284012.0 285871.0 286443.0 280709.0 312576.0 317267.0 100656.0 108669.0 131290.0 123327.0 295829.0 290917.0 242450.0 250252.0 267820.0 261673.0 213450.0 216275.0 327188.0 321162.0 296530.0 302954.0 348629.0 342813.0 289882.0 281845.0 286823.0 291993.0 327672.0 324185.0 366068.0 361016.0 354891.0 347559.0 2678.0 8434.0 319055.0 324751.0 256420.0 264269.0 218854.0 210898.0 334382.0 329741.0 299920.0 294708.0 187248.0 194715.0 37325.0 32114.0 232304.0 229016.0 55915.0 48270.0 322367.0 326905.0 256812.0 250507.0 316303.0 312893.0 27746.0 29861.0 289808.0 132322.0 289808.0 289808.0 132322.0 132322.0
95434.0 99264.0 30657.0 31136.0 107758.0 115574.0 30237.0 32462.0 334431.0 335303.0 289920.0 285238.0 323506.0 315476.0 8039.0 0.0 349445.0 352636.0 290356.0 292346.0 294328.0 288594.0 319001.0 323787.0 106373.0 114373.0 139160.0 131188.0 303714.0 298802.0 250136.0 257921.0 272612.0 266350.0 221053.0 223963.0 334870.0 328804.0 301377.0 307909.0 356514.0 350698.0 297510.0 289480.0 294169.0 299411.0 334708.0 331131.0 373571.0 368468.0 362776.0 355443.0 10717.0 14253.0 323646.0 329457.0 263690.0 271558.0 226365.0 218405.0 341301.0 336746.0 307806.0 302559.0 194026.0 201554.0 30334.0 26140.0 239572.0 236173.0 59828.0 51915.0 330251.0 334790.0 264166.0 257804.0 322865.0 319559.0 22520.0 26510.0 297692.0 140267.0 297692.0 297692.0 140267.0 140267.0
272060.0 273819.0 357711.0 364564.0 260032.0 255314.0 332594.0 324427.0 223187.0 215649.0 93135.0 90630.0 228814.0 227072.0 341561.0 349445.0 0.0 7962.0 172890.0 165030.0 58555.0 62117.0 168166.0 162280.0 269377.0 264506.0 210352.0 218343.0 45780.0 50961.0 109179.0 103497.0 247781.0 251825.0 138289.0 132369.0 56327.0 62746.0 250212.0 246714.0 14718.0 18392.0 77714.0 82063.0 104011.0 95887.0 124223.0 131349.0 85526.0 89574.0 24949.0 25582.0 338938.0 339147.0 268070.0 264600.0 124209.0 118678.0 137558.0 144412.0 134645.0 126947.0 45216.0 52867.0 189256.0 182278.0 372490.0 364525.0 139200.0 146928.0 313649.0 319098.0 38813.0 31594.0 118547.0 125966.0 159321.0 151860.0 365923.0 363983.0 88720.0 210223.0 88720.0 88720.0 210223.0 210223.0
274158.0 275712.0 360902.0 367755.0 261992.0 257083.0 335785.0 327618.0 217890.0 210275.0 90797.0 88940.0 223863.0 222341.0 344751.0 352636.0 7962.0 0.0 168917.0 161009.0 63839.0 66670.0 163084.0 157005.0 271114.0 266059.0 213534.0 221529.0 49109.0 55152.0 110026.0 103942.0 244394.0 248631.0 139553.0 133957.0 50909.0 57806.0 246009.0 242310.0 20811.0 25889.0 75563.0 80559.0 100826.0 92564.0 118414.0 125712.0 77859.0 82113.0 30550.0 32605.0 342129.0 342338.0 263393.0 259747.0 122572.0 116680.0 138306.0 145377.0 128594.0 121055.0 46229.0 53280.0 189457.0 182318.0 375535.0 367530.0 138673.0 146265.0 316017.0 321607.0 46609.0 39463.0 117148.0 124702.0 154074.0 146734.0 369114.0 367174.0 94953.0 213414.0 94953.0 94953.0 213414.0 213414.0
194985.0 191779.0 308141.0 314161.0 182610.0 174784.0 283560.0 275283.0 63636.0 59170.0 83809.0 89639.0 62672.0 58248.0 284012.0 290356.0 172890.0 168917.0 0.0 7971.0 162266.0 154909.0 29028.0 35117.0 184819.0 177001.0 176092.0 181291.0 148656.0 153103.0 104535.0 101388.0 77090.0 82506.0 107881.0 113204.0 119321.0 111684.0 77528.0 74762.0 187414.0 188177.0 98495.0 97745.0 70060.0 77587.0 65220.0 57626.0 126212.0 118208.0 197655.0 196053.0 281920.0 285391.0 97463.0 95516.0 65852.0 65403.0 98816.0 102910.0 64274.0 65032.0 137417.0 129669.0 99004.0 92699.0 301820.0 293792.0 76659.0 73072.0 235054.0 242843.0 188658.0 186683.0 72108.0 69772.0 35191.0 35575.0 311682.0 312281.0 188170.0 180652.0 188170.0 188170.0 180652.0 180652.0
197135.0 194197.0 309475.0 315627.0 184607.0 176859.0 284753.0 276486.0 68712.0 63592.0 76494.0 82540.0 68927.0 64998.0 285871.0 292346.0 165030.0 161009.0 7971.0 0.0 155351.0 148079.0 26868.0 31551.0 187303.0 179564.0 175363.0 180827.0 141367.0 145976.0 99189.0 95628.0 85004.0 90338.0 104429.0 109347.0 111358.0 103730.0 85273.0 82289.0 179572.0 180406.0 91005.0 90515.0 62503.0 69901.0 58067.0 50687.0 118693.0 110723.0 189817.0 188285.0 283734.0 287023.0 104749.0 102528.0 60338.0 59203.0 95330.0 99914.0 57928.0 58077.0 129943.0 122261.0 99716.0 93025.0 304526.0 296454.0 73144.0 70294.0 237730.0 245451.0 181219.0 179138.0 66378.0 64686.0 30990.0 29860.0 313479.0 313880.0 181724.0 179673.0 181724.0 181724.0 179673.0 179673.0
219994.0 222555.0 302593.0 309446.0 208615.0 204737.0 277477.0 269310.0 221902.0 215415.0 79678.0 72949.0 224045.0 220348.0 286443.0 294328.0 58555.0 63839.0 162266.0 155351.0 0.0 8000.0 167631.0 163954.0 218801.0 214766.0 155235.0 163227.0 20956.0 12705.0 69544.0 67481.0 229004.0 231411.0 93285.0 85906.0 77378.0 78026.0 238053.0 236407.0 62922.0 56574.0 67413.0 65533.0 94713.0 89330.0 134385.0 139106.0 121595.0 122064.0 68525.0 61116.0 283821.0 284030.0 259559.0 257780.0 99906.0 97813.0 95667.0 100765.0 146169.0 137631.0 34802.0 38536.0 147979.0 142225.0 317399.0 309464.0 105405.0 113410.0 260338.0 265282.0 37057.0 40667.0 93263.0 98720.0 160947.0 152943.0 310805.0 308865.0 33292.0 155105.0 33292.0 33292.0 155105.0 155105.0
213615.0 216023.0 296859.0 303712.0 202097.0 198064.0 271743.0 263576.0 214960.0 208565.0 72842.0 65892.0 216867.0 213059.0 280709.0 288594.0 62117.0 66670.0 154909.0 148079.0 8000.0 0.0 160941.0 157461.0 212144.0 207969.0 149501.0 157493.0 19599.0 11791.0 61562.0 59491.0 221158.0 223518.0 85658.0 78379.0 74554.0 74427.0 230449.0 228894.0 67963.0 62142.0 61228.0 58771.0 87966.0 82921.0 128915.0 133347.0 119490.0 119445.0 74285.0 67236.0 278087.0 278296.0 252105.0 250420.0 92130.0 90216.0 87842.0 93063.0 140718.0 132179.0 31912.0 34071.0 140240.0 134413.0 311665.0 303730.0 97405.0 105410.0 254265.0 259338.0 44365.0 47369.0 85480.0 90839.0 154468.0 146469.0 305071.0 303131.0 35337.0 149371.0 35337.0 35337.0 149371.0 149371.0
223705.0 220623.0 336316.0 342445.0 211245.0 203461.0 311609.0 303341.0 55339.0 48218.0 88125.0 95368.0 60859.0 60069.0 312576.0 319001.0 168166.0 163084.0 29028.0 26868.0 167631.0 160941.0 0.0 7913.0 213687.0 205896.0 201751.0 207356.0 151347.0 157044.0 118824.0 114051.0 95211.0 101857.0 128130.0 132299.0 112189.0 105425.0 86988.0 81732.0 182884.0 184898.0 100589.0 102171.0 72976.0 78511.0 47741.0 39572.0 108846.0 100725.0 193099.0 192750.0 310455.0 313801.0 101025.0 96864.0 80619.0 77385.0 119073.0 124340.0 42334.0 46255.0 138598.0 131649.0 126583.0 119866.0 330773.0 322732.0 97150.0 95314.0 263993.0 271762.0 189432.0 186373.0 85778.0 85898.0 9945.0 16371.0 340209.0 340668.0 196277.0 205896.0 196277.0 196277.0 205896.0 205896.0
228636.0 225739.0 340601.0 346829.0 216074.0 208348.0 315794.0 307539.0 60908.0 53417.0 84901.0 92386.0 67461.0 67166.0 317267.0 323787.0 162280.0 157005.0 35117.0 31551.0 163954.0 157461.0 7913.0 0.0 218851.0 211115.0 204549.0 210353.0 147112.0 153074.0 117891.0 112696.0 103125.0 109762.0 129010.0 132756.0 106102.0 99560.0 94577.0 89142.0 176991.0 179241.0 96628.0 98763.0 69720.0 74626.0 40478.0 32380.0 101212.0 93098.0 187175.0 187067.0 315113.0 318321.0 107936.0 103502.0 80385.0 76434.0 120026.0 125665.0 34516.0 38799.0 134088.0 127368.0 130665.0 123721.0 336077.0 328006.0 98413.0 97208.0 269281.0 277002.0 184606.0 181322.0 85121.0 85957.0 3036.0 11021.0 344845.0 345154.0 193212.0 208479.0 193212.0 193212.0 208479.0 208479.0
13028.0 7123.0 127821.0 132740.0 12001.0 14091.0 105318.0 97317.0 228234.0 228973.0 195750.0 192553.0 217565.0 209541.0 100656.0 106373.0 269377.0 271114.0 184819.0 187303.0 218801.0 212144.0 213687.0 218851.0 0.0 8013.0 74070.0 68620.0 224202.0 220916.0 161861.0 168813.0 168664.0 162968.0 131870.0 137159.0 243967.0 237000.0 197100.0 203205.0 278572.0 273705.0 206034.0 198398.0 197100.0 203455.0 233266.0 228897.0 278095.0 272136.0 285960.0 279281.0 98826.0 103361.0 220411.0 225686.0 166017.0 174022.0 134544.0 126875.0 238776.0 235002.0 224896.0 218216.0 92064.0 100006.0 117335.0 109217.0 142477.0 137513.0 50621.0 58200.0 255644.0 259422.0 167856.0 160688.0 218127.0 215384.0 128362.0 130024.0 224102.0 80125.0 224102.0 224102.0 80125.0 80125.0
20470.0 15136.0 135771.0 140729.0 14422.0 11601.0 113139.0 105102.0 220221.0 220962.0 189466.0 186463.0 209562.0 201539.0 108669.0 114373.0 264506.0 266059.0 177001.0 179564.0 214766.0 207969.0 205896.0 211115.0 8013.0 0.0 73664.0 68904.0 219543.0 216488.0 156471.0 163276.0 160843.0 155209.0 126585.0 132151.0 237943.0 230889.0 189233.0 195299.0 273972.0 269265.0 200047.0 192485.0 190446.0 196926.0 225995.0 221528.0 271489.0 265440.0 281526.0 274976.0 106838.0 111353.0 212631.0 217856.0 159367.0 167366.0 128867.0 121302.0 231361.0 227692.0 219831.0 213016.0 85046.0 93021.0 124984.0 116895.0 135998.0 130825.0 58200.0 65887.0 251710.0 255313.0 161385.0 154132.0 210421.0 207761.0 136374.0 138030.0 220667.0 80081.0 220667.0 220667.0 80081.0 80081.0
70330.0 75135.0 147591.0 154443.0 62146.0 62063.0 122474.0 114307.0 233256.0 231403.0 154267.0 148737.0 226040.0 218583.0 131290.0 139160.0 210352.0 213534.0 176092.0 175363.0 155235.0 149501.0 201751.0 204549.0 74070.0 73664.0 0.0 7995.0 164620.0 159709.0 112321.0 120263.0 191472.0 188292.0 84777.0 86323.0 196802.0 191146.0 216227.0 220096.0 217421.0 211605.0 160129.0 152054.0 160864.0 164901.0 205868.0 203898.0 237358.0 232923.0 223683.0 216351.0 128674.0 128981.0 241626.0 244800.0 132373.0 139672.0 91601.0 83982.0 214325.0 208381.0 168653.0 163424.0 80048.0 84613.0 162168.0 154244.0 109139.0 108227.0 106678.0 110953.0 191159.0 195697.0 131292.0 126154.0 202868.0 197723.0 155801.0 153863.0 158600.0 7151.0 158600.0 158600.0 7151.0 7151.0
63927.0 69134.0 139727.0 146580.0 56622.0 57363.0 114611.0 106444.0 237550.0 235922.0 161707.0 156281.0 229985.0 222439.0 123327.0 131188.0 218343.0 221529.0 181291.0 180827.0 163227.0 157493.0 207356.0 210353.0 68620.0 68904.0 7995.0 0.0 172613.0 167701.0 120020.0 127944.0 193807.0 190342.0 92178.0 93961.0 204580.0 198868.0 219090.0 223203.0 225413.0 219597.0 167800.0 159725.0 168028.0 172214.0 212626.0 210488.0 244926.0 240415.0 231675.0 224342.0 120714.0 121080.0 244402.0 247801.0 139227.0 146618.0 98783.0 91078.0 220911.0 215095.0 176633.0 171381.0 84094.0 89168.0 154187.0 146271.0 115783.0 114538.0 99180.0 103290.0 199150.0 203689.0 138338.0 133029.0 208741.0 203758.0 147938.0 145999.0 166591.0 11757.0 166591.0 166591.0 11757.0 11757.0
226561.0 228487.0 311980.0 318832.0 214651.0 210118.0 286863.0 278696.0 206267.0 199477.0 64873.0 59254.0 209329.0 206145.0 295829.0 303714.0 45780.0 49109.0 148656.0 141367.0 20956.0 19599.0 151347.0 147112.0 224202.0 219543.0 164620.0 172613.0 0.0 8344.0 66468.0 62144.0 218659.0 221666.0 94182.0 87741.0 56453.0 57390.0 225570.0 223348.0 54450.0 50285.0 50880.0 50930.0 79265.0 72906.0 115485.0 120694.0 100692.0 101108.0 62465.0 56824.0 293207.0 293416.0 246096.0 243824.0 89936.0 86397.0 94569.0 100852.0 127194.0 118688.0 14198.0 19750.0 147082.0 140586.0 326732.0 318760.0 99938.0 107955.0 267978.0 273373.0 40743.0 40547.0 83506.0 89984.0 144081.0 136101.0 320192.0 318251.0 53939.0 164492.0 53939.0 53939.0 164492.0 164492.0
222840.0 225005.0 307068.0 313920.0 211116.0 206825.0 281951.0 273784.0 211695.0 205043.0 69665.0 63464.0 214335.0 210915.0 290917.0 298802.0 50961.0 55152.0 153103.0 145976.0 12705.0 11791.0 157044.0 153074.0 220916.0 216488.0 159709.0 167701.0 8344.0 0.0 65964.0 62546.0 221730.0 224480.0 92305.0 85457.0 64679.0 65362.0 229582.0 227614.0 57930.0 52789.0 56473.0 55526.0 84435.0 78541.0 122461.0 127418.0 109030.0 109398.0 65047.0 58606.0 288295.0 288504.0 250555.0 248503.0 92590.0 89688.0 93486.0 99331.0 134216.0 125689.0 22113.0 26378.0 146117.0 139902.0 321865.0 313938.0 100684.0 108732.0 263890.0 269121.0 38906.0 40243.0 86032.0 92090.0 150052.0 142053.0 315280.0 313339.0 45598.0 159580.0 45598.0 45598.0 159580.0 159580.0
165870.0 166817.0 259615.0 266468.0 153342.0 147948.0 234499.0 226332.0 167883.0 162701.0 44032.0 37344.0 167011.0 161952.0 242450.0 250136.0 109179.0 110026.0 104535.0 99189.0 69544.0 61562.0 118824.0 117891.0 161861.0 156471.0 112321.0 120020.0 66468.0 65964.0 0.0 7992.0 162729.0 164367.0 30051.0 26176.0 84738.0 78855.0 175212.0 174812.0 120070.0 116601.0 47830.0 39756.0 54749.0 56077.0 103473.0 104246.0 125317.0 121297.0 128667.0 123286.0 239896.0 240767.0 198490.0 197925.0 38861.0 41484.0 28385.0 35359.0 114101.0 106520.0 63998.0 56760.0 80640.0 74126.0 270668.0 262504.0 36260.0 44138.0 208450.0 214557.0 104705.0 106146.0 33122.0 34839.0 115257.0 107908.0 267763.0 265887.0 88120.0 113104.0 88120.0 88120.0 113104.0 113104.0
173094.0 173885.0 267503.0 274355.0 160494.0 154960.0 242386.0 234219.0 164304.0 158857.0 36336.0 29453.0 164044.0 159276.0 250252.0 257921.0 103497.0 103942.0 101388.0 95628.0 67481.0 59491.0 114051.0 112696.0 168813.0 163276.0 120263.0 127944.0 62144.0 62546.0 7992.0 0.0 162526.0 164535.0 37350.0 34022.0 76958.0 70967.0 173768.0 172999.0 114892.0 111829.0 39869.0 31793.0 47748.0 48547.0 96506.0 97619.0 117326.0 113311.0 123763.0 118735.0 247703.0 248622.0 196587.0 195707.0 35602.0 36812.0 34536.0 41974.0 107326.0 99598.0 58303.0 50720.0 85779.0 78922.0 278271.0 270098.0 38159.0 46205.0 215772.0 221954.0 101452.0 102383.0 29285.0 32677.0 109985.0 102474.0 275633.0 273774.0 88461.0 121085.0 88461.0 88461.0 121085.0 121085.0
181263.0 175634.0 296224.0 300743.0 171603.0 163834.0 273976.0 265944.0 71642.0 76306.0 155628.0 159895.0 57995.0 50890.0 267820.0 272612.0 247781.0 244394.0 77090.0 85004.0 229004.0 221158.0 95211.0 103125.0 168664.0 160843.0 191472.0 193807.0 218659.0 221730.0 162729.0 162526.0 0.0 7817.0 152935.0 160425.0 195764.0 187968.0 28841.0 35963.0 262040.0 262039.0 171032.0 168547.0 143775.0 151911.0 140674.0 132650.0 202322.0 194231.0 272191.0 269833.0 266261.0 271398.0 51939.0 57028.0 129201.0 132263.0 145388.0 145503.0 137236.0 139906.0 209090.0 200961.0 114453.0 113073.0 276458.0 269158.0 127253.0 120108.0 213045.0 221082.0 259380.0 258383.0 135812.0 130350.0 104854.0 108815.0 295078.0 297614.0 250760.0 197841.0 250760.0 250760.0 197841.0 197841.0
175665.0 169888.0 290298.0 294704.0 166291.0 158592.0 268275.0 260285.0 79453.0 84115.0 159263.0 163232.0 65788.0 58706.0 261673.0 266350.0 251825.0 248631.0 82506.0 90338.0 231411.0 223518.0 101857.0 109762.0 162968.0 155209.0 188292.0 190342.0 221666.0 224480.0 164367.0 164535.0 7817.0 0.0 153192.0 160819.0 200460.0 192604.0 35717.0 43197.0 265984.0 265771.0 174718.0 171922.0 147849.0 156070.0 146731.0 138768.0 208285.0 200215.0 276095.0 273532.0 260155.0 265391.0 57469.0 63110.0 131893.0 135356.0 145921.0 145608.0 143668.0 146072.0 212449.0 204275.0 112465.0 111621.0 269716.0 262473.0 128543.0 121182.0 206686.0 214709.0 262408.0 261615.0 138453.0 132693.0 111392.0 115066.0 288839.0 291498.0 252484.0 194778.0 252484.0 252484.0 194778.0 194778.0
135825.0 136779.0 231189.0 238042.0 123291.0 117932.0 206073.0 197906.0 170996.0 167001.0 69533.0 64304.0 167670.0 161561.0 213450.0 221053.0 138289.0 139553.0 107881.0 104429.0 93285.0 85658.0 128130.0 129010.0 131870.0 126585.0 84777.0 92178.0 94182.0 92305.0 30051.0 37350.0 152935.0 153192.0 0.0 8047.0 114093.0 107810.0 169788.0 170805.0 148489.0 144436.0 76485.0 68484.0 76469.0 80159.0 123118.0 122191.0 152921.0 148268.0 156640.0 150724.0 210925.0 212074.0 194437.0 195101.0 50194.0 56590.0 9100.0 8047.0 132531.0 125862.0 93348.0 86434.0 54942.0 49858.0 241011.0 232829.0 31289.0 35423.0 178444.0 184605.0 129970.0 132360.0 47714.0 44048.0 126786.0 120380.0 239150.0 237453.0 105814.0 86491.0 105814.0 105814.0 86491.0 86491.0
140536.0 141830.0 233482.0 240335.0 128188.0 123137.0 208366.0 200199.0 176608.0 172374.0 68435.0 62527.0 173719.0 167774.0 216275.0 223963.0 132369.0 133957.0 113204.0 109347.0 85906.0 78379.0 132299.0 132756.0 137159.0 132151.0 86323.0 93961.0 87741.0 85457.0 26176.0 34022.0 160425.0 160819.0 8047.0 0.0 110914.0 104988.0 176781.0 177602.0 142167.0 137877.0 73845.0 65773.0 76820.0 79715.0 124477.0 124071.0 151064.0 146767.0 150112.0 144011.0 213720.0 214605.0 201279.0 201765.0 52838.0 58489.0 15218.0 16094.0 134310.0 127329.0 87738.0 81148.0 62728.0 57822.0 244634.0 236483.0 36668.0 41798.0 182879.0 188844.0 122739.0 125335.0 49435.0 46939.0 130421.0 123748.0 241611.0 239754.0 97865.0 87390.0 97865.0 97865.0 87390.0 87390.0
249097.0 249406.0 344264.0 351117.0 236318.0 230371.0 319148.0 310981.0 166997.0 159406.0 49569.0 51519.0 172996.0 171598.0 327188.0 334870.0 56327.0 50909.0 119321.0 111358.0 77378.0 74554.0 112189.0 106102.0 243967.0 237943.0 196802.0 204580.0 56453.0 64679.0 84738.0 76958.0 195764.0 200460.0 114093.0 110914.0 0.0 8042.0 195823.0 191865.0 70998.0 73828.0 37951.0 45742.0 54803.0 46460.0 67971.0 75023.0 45521.0 44899.0 81132.0 81523.0 324634.0 325473.0 212671.0 208916.0 82267.0 74993.0 109847.0 117734.0 78635.0 70760.0 42730.0 41556.0 155646.0 147881.0 355098.0 346911.0 103076.0 109576.0 291983.0 298363.0 84053.0 79175.0 78375.0 86119.0 103168.0 95832.0 352443.0 350536.0 109849.0 197172.0 109849.0 109849.0 197172.0 197172.0
242335.0 242516.0 338466.0 345319.0 229514.0 223470.0 313350.0 305182.0 160460.0 152957.0 41969.0 44449.0 166123.0 164537.0 321162.0 328804.0 62746.0 57806.0 111684.0 103730.0 78026.0 74427.0 105425.0 99560.0 237000.0 230889.0 191146.0 198868.0 57390.0 65362.0 78855.0 70967.0 187968.0 192604.0 107810.0 104988.0 8042.0 0.0 188411.0 184577.0 77463.0 79766.0 31337.0 39330.0 46765.0 38431.0 62378.0 69068.0 48315.0 46348.0 87674.0 87559.0 318621.0 319585.0 205587.0 201968.0 74497.0 67141.0 103214.0 111141.0 73432.0 65308.0 43259.0 40549.0 148212.0 140409.0 348694.0 340495.0 95657.0 102019.0 285267.0 291721.0 88089.0 83686.0 70774.0 78490.0 96593.0 89115.0 346599.0 344738.0 109735.0 191730.0 109735.0 109735.0 191730.0 191730.0
209604.0 204104.0 324789.0 329386.0 199675.0 191841.0 302363.0 294295.0 48697.0 55110.0 160950.0 166327.0 34883.0 30104.0 296530.0 301377.0 250212.0 246009.0 77528.0 85273.0 238053.0 230449.0 86988.0 94577.0 197100.0 189233.0 216227.0 219090.0 225570.0 229582.0 175212.0 173768.0 28841.0 35717.0 169788.0 176781.0 195823.0 188411.0 0.0 8242.0 264790.0 265678.0 175867.0 174672.0 147533.0 155114.0 134643.0 126457.0 195789.0 187674.0 275041.0 273558.0 294950.0 300024.0 25501.0 28965.0 138742.0 140242.0 161564.0 162890.0 128959.0 133240.0 214723.0 206871.0 137397.0 134884.0 305284.0 297994.0 141516.0 135200.0 241850.0 249890.0 265860.0 264074.0 145371.0 141091.0 96924.0 102607.0 323832.0 326304.0 262112.0 222342.0 262112.0 262112.0 222342.0 222342.0
215606.0 210243.0 330990.0 335693.0 205448.0 197569.0 308365.0 300263.0 40690.0 47339.0 158545.0 164201.0 27010.0 23025.0 302954.0 307909.0 246714.0 242310.0 74762.0 82289.0 236407.0 228894.0 81732.0 89142.0 203205.0 195299.0 220096.0 223203.0 223348.0 227614.0 174812.0 172999.0 35963.0 43197.0 170805.0 177602.0 191865.0 184577.0 8242.0 0.0 261344.0 262466.0 173251.0 172418.0 144781.0 152164.0 129473.0 121302.0 190251.0 182153.0 271602.0 270352.0 301337.0 306314.0 23734.0 24880.0 137685.0 138722.0 162398.0 164117.0 123298.0 127928.0 212178.0 204427.0 140746.0 137817.0 312277.0 304932.0 141863.0 135854.0 248500.0 256548.0 263419.0 261419.0 144271.0 140370.0 91613.0 97658.0 330333.0 332687.0 261115.0 226086.0 261115.0 261115.0 226086.0 226086.0
280710.0 282776.0 364779.0 371632.0 268911.0 264484.0 339663.0 331496.0 237899.0 230355.0 106977.0 104053.0 243527.0 241764.0 348629.0 356514.0 14718.0 20811.0 187414.0 179572.0 62922.0 67963.0 182884.0 176991.0 278572.0 273972.0 217421.0 225413.0 54450.0 57930.0 120070.0 114892.0 262040.0 265984.0 148489.0 142167.0 70998.0 77463.0 264790.0 261344.0 0.0 8198.0 91506.0 95397.0 118278.0 110230.0 138833.0 146005.0 98037.0 102620.0 10258.0 12311.0 346007.0 346216.0 282752.0 279304.0 137474.0 132224.0 148411.0 154968.0 149169.0 141531.0 56858.0 64910.0 200594.0 193813.0 379468.0 371580.0 151444.0 159283.0 321820.0 327037.0 34471.0 27135.0 131641.0 138925.0 174034.0 166578.0 372991.0 371051.0 89757.0 217291.0 89757.0 89757.0 217291.0 217291.0
275541.0 277772.0 358964.0 365816.0 263875.0 259613.0 333847.0 325680.0 240099.0 232658.0 106513.0 103023.0 245305.0 243285.0 342813.0 350698.0 18392.0 25889.0 188177.0 180406.0 56574.0 62142.0 184898.0 179241.0 273705.0 269265.0 211605.0 219597.0 50285.0 52789.0 116601.0 111829.0 262039.0 265771.0 144436.0 137877.0 73828.0 79766.0 265678.0 262466.0 8198.0 0.0 91053.0 94310.0 118523.0 110669.0 141793.0 148744.0 103749.0 107929.0 12261.0 7888.0 340191.0 340400.0 284169.0 280931.0 136109.0 131233.0 144808.0 151137.0 152413.0 144588.0 54618.0 62844.0 197240.0 190627.0 373770.0 365835.0 148965.0 156886.0 316377.0 321477.0 26360.0 19108.0 130093.0 137201.0 176257.0 168674.0 367176.0 365236.0 82210.0 211476.0 82210.0 82210.0 211476.0 211476.0
211156.0 211458.0 307308.0 314161.0 198370.0 192423.0 282191.0 274024.0 155398.0 148650.0 15479.0 14063.0 158525.0 155498.0 289882.0 297510.0 77714.0 75563.0 98495.0 91005.0 67413.0 61228.0 100589.0 96628.0 206034.0 200047.0 160129.0 167800.0 50880.0 56473.0 47830.0 39869.0 171032.0 174718.0 76485.0 73845.0 37951.0 31337.0 175867.0 173251.0 91506.0 91053.0 0.0 8076.0 28546.0 22077.0 68426.0 72326.0 77634.0 74024.0 101517.0 98821.0 287347.0 288368.0 195720.0 193227.0 47232.0 41117.0 71938.0 79848.0 80194.0 71708.0 38938.0 31374.0 118341.0 110693.0 317363.0 309166.0 65898.0 72839.0 254056.0 260465.0 90224.0 88209.0 42258.0 50000.0 93611.0 85608.0 315403.0 313580.0 97835.0 160920.0 97835.0 97835.0 160920.0 160920.0
203380.0 203764.0 299241.0 306094.0 190621.0 184741.0 274125.0 265957.0 156386.0 149882.0 14166.0 8721.0 158814.0 155408.0 281845.0 289480.0 82063.0 80559.0 97745.0 90515.0 65533.0 58771.0 102171.0 98763.0 198398.0 192485.0 152054.0 159725.0 50930.0 55526.0 39756.0 31793.0 168547.0 171922.0 68484.0 65773.0 45742.0 39330.0 174672.0 172418.0 95397.0 94310.0 8076.0 0.0 29200.0 24650.0 73206.0 76420.0 85657.0 81929.0 105220.0 101949.0 279308.0 280312.0 195201.0 193029.0 42146.0 36923.0 64112.0 71993.0 84851.0 76475.0 40545.0 32430.0 111342.0 103786.0 309421.0 301228.0 59148.0 66357.0 246250.0 252621.0 91250.0 89878.0 36590.0 44166.0 95783.0 87796.0 307342.0 305513.0 94554.0 152851.0 94554.0 94554.0 152851.0 152851.0
203777.0 203090.0 305889.0 312721.0 190782.0 184132.0 280773.0 272605.0 127278.0 120711.0 15185.0 22761.0 130064.0 126961.0 286823.0 294169.0 104011.0 100826.0 70060.0 62503.0 94713.0 87966.0 72976.0 69720.0 197100.0 190446.0 160864.0 168028.0 79265.0 84435.0 54749.0 47748.0 143775.0 147849.0 76469.0 76820.0 54803.0 46765.0 147533.0 144781.0 118278.0 118523.0 28546.0 29200.0 0.0 8408.0 48763.0 50121.0 81060.0 75050.0 128449.0 126368.0 284386.0 286135.0 167185.0 164684.0 31084.0 23081.0 69263.0 76958.0 59633.0 51850.0 67471.0 59898.0 105849.0 97865.0 311819.0 303584.0 54903.0 59622.0 246713.0 253616.0 118764.0 116638.0 30016.0 36566.0 66764.0 58808.0 313257.0 312071.0 123494.0 162894.0 123494.0 123494.0 162894.0 162894.0
209816.0 209336.0 310631.0 317484.0 196845.0 190332.0 285515.0 277347.0 133364.0 126584.0 12531.0 20384.0 136715.0 133892.0 291993.0 299411.0 95887.0 92564.0 77587.0 69901.0 89330.0 82921.0 78511.0 74626.0 203455.0 196926.0 164901.0 172214.0 72906.0 78541.0 56077.0 48547.0 151911.0 156070.0 80159.0 79715.0 46460.0 38431.0 155114.0 152164.0 110230.0 110669.0 22077.0 24650.0 8408.0 0.0 49248.0 51928.0 74711.0 69137.0 120426.0 118533.0 289531.0 291110.0 174353.0 171646.0 37806.0 29943.0 73539.0 81396.0 60697.0 52477.0 60561.0 53288.0 112690.0 104736.0 317570.0 309338.0 60985.0 66276.0 252798.0 259602.0 111801.0 109395.0 35644.0 42796.0 71617.0 63613.0 318234.0 316877.0 119091.0 166617.0 119091.0 119091.0 166617.0 166617.0
241499.0 239761.0 348413.0 355177.0 228547.0 221301.0 323299.0 315129.0 100314.0 92482.0 61695.0 69614.0 107800.0 107642.0 327672.0 334708.0 124223.0 118414.0 65220.0 58067.0 134385.0 128915.0 47741.0 40478.0 233266.0 225995.0 205868.0 212626.0 115485.0 122461.0 103473.0 96506.0 140674.0 146731.0 123118.0 124477.0 67971.0 62378.0 134643.0 129473.0 138833.0 141793.0 68426.0 73206.0 48763.0 49248.0 0.0 8186.0 61690.0 53581.0 148881.0 149494.0 325340.0 327702.0 148385.0 143808.0 73555.0 66582.0 115093.0 122270.0 11804.0 3281.0 101596.0 96085.0 141435.0 133633.0 350091.0 341888.0 96878.0 98996.0 283781.0 291122.0 150012.0 145926.0 75405.0 79796.0 37885.0 32177.0 354707.0 354119.0 165956.0 208560.0 165956.0 165956.0 208560.0 208560.0
237428.0 235477.0 345439.0 352108.0 224520.0 217170.0 320304.0 312160.0 92551.0 84782.0 64057.0 72009.0 99785.0 99522.0 324185.0 331131.0 131349.0 125712.0 57626.0 50687.0 139106.0 133347.0 39572.0 32380.0 228897.0 221528.0 203898.0 210488.0 120694.0 127418.0 104246.0 97619.0 132650.0 138768.0 122191.0 124071.0 75023.0 69068.0 126457.0 121302.0 146005.0 148744.0 72326.0 76420.0 50121.0 51928.0 8186.0 0.0 69797.0 61679.0 156104.0 156490.0 321884.0 324407.0 140314.0 135811.0 72131.0 65663.0 113891.0 120814.0 10427.0 7406.0 106992.0 101109.0 137393.0 129695.0 345957.0 337770.0 94760.0 96244.0 279483.0 286903.0 156135.0 152272.0 74669.0 78361.0 29741.0 24017.0 351350.0 350932.0 170149.0 206844.0 170149.0 170149.0 206844.0 206844.0
284526.0 284020.0 384108.0 390961.0 271556.0 265027.0 358991.0 350824.0 158004.0 149933.0 83651.0 88653.0 167153.0 167893.0 366068.0 373571.0 85526.0 77859.0 126212.0 118693.0 121595.0 119490.0 108846.0 101212.0 278095.0 271489.0 237358.0 244926.0 100692.0 109030.0 125317.0 117326.0 202322.0 208285.0 152921.0 151064.0 45521.0 48315.0 195789.0 190251.0 98037.0 103749.0 77634.0 85657.0 81060.0 74711.0 61690.0 69797.0 0.0 8126.0 106609.0 110230.0 363575.0 364912.0 207952.0 202738.0 112125.0 104131.0 147215.0 155171.0 66979.0 62715.0 87588.0 87049.0 186878.0 178887.0 392183.0 383953.0 135672.0 140676.0 327508.0 334305.0 121220.0 114982.0 110354.0 117412.0 98901.0 93802.0 392011.0 390374.0 154576.0 238386.0 154576.0 154576.0 238386.0 238386.0
278796.0 278139.0 379346.0 386199.0 265807.0 259180.0 354230.0 346063.0 150094.0 142031.0 78762.0 84239.0 159137.0 159822.0 361016.0 368468.0 89574.0 82113.0 118208.0 110723.0 122064.0 119445.0 100725.0 93098.0 272136.0 265440.0 232923.0 240415.0 101108.0 109398.0 121297.0 113311.0 194231.0 200215.0 148268.0 146767.0 44899.0 46348.0 187674.0 182153.0 102620.0 107929.0 74024.0 81929.0 75050.0 69137.0 53581.0 61679.0 8126.0 0.0 111530.0 114681.0 358541.0 360008.0 199936.0 194767.0 106125.0 98119.0 142253.0 150182.0 58904.0 54590.0 87581.0 86277.0 180648.0 172650.0 386689.0 378456.0 129889.0 134629.0 321748.0 328620.0 124098.0 118130.0 104691.0 111571.0 90780.0 85681.0 387123.0 385617.0 154719.0 234156.0 154719.0 154719.0 234156.0 234156.0
287766.0 290017.0 371042.0 377894.0 276117.0 271869.0 345925.0 337758.0 248082.0 240522.0 116996.0 113902.0 253761.0 252015.0 354891.0 362776.0 24949.0 30550.0 197655.0 189817.0 68525.0 74285.0 193099.0 187175.0 285960.0 281526.0 223683.0 231675.0 62465.0 65047.0 128667.0 123763.0 272191.0 276095.0 156640.0 150112.0 81132.0 87674.0 275041.0 271602.0 10258.0 12261.0 101517.0 105220.0 128449.0 120426.0 148881.0 156104.0 106609.0 111530.0 0.0 8543.0 352269.0 352478.0 293006.0 289548.0 147221.0 142101.0 156919.0 163302.0 159129.0 151551.0 66132.0 74288.0 209293.0 202626.0 385848.0 377913.0 160679.0 168565.0 328548.0 333617.0 35920.0 29382.0 141313.0 148526.0 184223.0 176785.0 379254.0 377313.0 92852.0 223554.0 92852.0 92852.0 223554.0 223554.0
280851.0 283229.0 363709.0 370562.0 269310.0 265194.0 338592.0 330425.0 247936.0 240481.0 114268.0 110668.0 253178.0 251169.0 347559.0 355443.0 25582.0 32605.0 196053.0 188285.0 61116.0 67236.0 192750.0 187067.0 279281.0 274976.0 216351.0 224342.0 56824.0 58606.0 123286.0 118735.0 269833.0 273532.0 150724.0 144011.0 81523.0 87559.0 273558.0 270352.0 12311.0 7888.0 98821.0 101949.0 126368.0 118533.0 149494.0 156490.0 110230.0 114681.0 8543.0 0.0 344936.0 345145.0 292056.0 288812.0 143642.0 138867.0 151377.0 157560.0 160049.0 152267.0 62019.0 70271.0 203906.0 197389.0 378515.0 370580.0 156095.0 164045.0 321410.0 326390.0 27475.0 21190.0 137577.0 144624.0 184086.0 176516.0 371921.0 369981.0 84514.0 216221.0 84514.0 84514.0 216221.0 216221.0
87382.0 91704.0 31693.0 34728.0 99379.0 107286.0 22567.0 22884.0 327059.0 327744.0 279928.0 275161.0 316347.0 308320.0 2678.0 10717.0 338938.0 342129.0 281920.0 283734.0 283821.0 278087.0 310455.0 315113.0 98826.0 106838.0 128674.0 120714.0 293207.0 288295.0 239896.0 247703.0 266261.0 260155.0 210925.0 213720.0 324634.0 318621.0 294950.0 301337.0 346007.0 340191.0 287347.0 279308.0 284386.0 289531.0 325340.0 321884.0 363575.0 358541.0 352269.0 344936.0 0.0 7469.0 317559.0 323215.0 254011.0 261852.0 216361.0 208408.0 332090.0 327419.0 297295.0 292095.0 185014.0 192459.0 39744.0 34295.0 229897.0 226647.0 54816.0 47301.0 319745.0 324283.0 254373.0 248089.0 314135.0 310689.0 29764.0 31355.0 287186.0 129679.0 287186.0 287186.0 129679.0 129679.0
91543.0 96258.0 25269.0 29390.0 103180.0 111144.0 16121.0 18508.0 331452.0 331987.0 281304.0 276370.0 320907.0 312886.0 8434.0 14253.0 339147.0 342338.0 285391.0 287023.0 284030.0 278296.0 313801.0 318321.0 103361.0 111353.0 128981.0 121080.0 293416.0 288504.0 240767.0 248622.0 271398.0 265391.0 212074.0 214605.0 325473.0 319585.0 300024.0 306314.0 346216.0 340400.0 288368.0 280312.0 286135.0 291110.0 327702.0 324407.0 364912.0 360008.0 352478.0 345145.0 7469.0 0.0 322836.0 328395.0 255949.0 263742.0 217757.0 209826.0 334657.0 329835.0 297509.0 292319.0 187932.0 195266.0 44580.0 40002.0 231858.0 228840.0 61101.0 53812.0 319954.0 324492.0 256122.0 249972.0 317281.0 313679.0 27124.0 26905.0 287395.0 129575.0 287395.0 287395.0 129575.0 129575.0
233074.0 227343.0 347760.0 352135.0 223525.0 215766.0 325725.0 317723.0 51266.0 59230.0 181227.0 187094.0 40799.0 41079.0 319055.0 323646.0 268070.0 263393.0 97463.0 104749.0 259559.0 252105.0 101025.0 107936.0 220411.0 212631.0 241626.0 244402.0 246096.0 250555.0 198490.0 196587.0 51939.0 57469.0 194437.0 201279.0 212671.0 205587.0 25501.0 23734.0 282752.0 284169.0 195720.0 195201.0 167185.0 174353.0 148385.0 140314.0 207952.0 199936.0 293006.0 292056.0 317559.0 322836.0 0.0 8088.0 161198.0 162030.0 186069.0 187688.0 141133.0 146543.0 234655.0 227007.0 162896.0 160366.0 326258.0 319152.0 165592.0 159551.0 263910.0 271915.0 285945.0 283741.0 167762.0 163987.0 110635.0 117320.0 346150.0 348893.0 284593.0 247775.0 284593.0 284593.0 247775.0 247775.0
238263.0 232661.0 353243.0 357730.0 228476.0 220664.0 330993.0 322952.0 45137.0 53206.0 178971.0 185061.0 36042.0 37756.0 324751.0 329457.0 264600.0 259747.0 95516.0 102528.0 257780.0 250420.0 96864.0 103502.0 225686.0 217856.0 244800.0 247801.0 243824.0 248503.0 197925.0 195707.0 57028.0 63110.0 195101.0 201765.0 208916.0 201968.0 28965.0 24880.0 279304.0 280931.0 193227.0 193029.0 164684.0 171646.0 143808.0 135811.0 202738.0 194767.0 289548.0 288812.0 323215.0 328395.0 8088.0 0.0 160178.0 160614.0 186590.0 188543.0 136137.0 141844.0 232118.0 224578.0 165581.0 162695.0 332561.0 325391.0 165741.0 159971.0 269794.0 277816.0 283407.0 281013.0 166681.0 163241.0 106284.0 113228.0 351943.0 354564.0 283373.0 250835.0 283373.0 283373.0 250835.0 250835.0
172762.0 172017.0 276028.0 282879.0 159761.0 153070.0 250911.0 242697.0 129045.0 123841.0 32901.0 33636.0 128476.0 123674.0 256420.0 263690.0 124209.0 122572.0 65852.0 60338.0 99906.0 92130.0 80619.0 80385.0 166017.0 159367.0 132373.0 139227.0 89936.0 92590.0 38861.0 35602.0 129201.0 131893.0 50194.0 52838.0 82267.0 74497.0 138742.0 137685.0 137474.0 136109.0 47232.0 42146.0 31084.0 37806.0 73555.0 72131.0 112125.0 106125.0 147221.0 143642.0 254011.0 255949.0 161198.0 160178.0 0.0 8006.0 41766.0 48745.0 82516.0 76152.0 81700.0 73438.0 74900.0 66938.0 280926.0 272691.0 24118.0 28553.0 215676.0 222614.0 130652.0 130207.0 6654.0 6245.0 77931.0 71043.0 283052.0 282071.0 123436.0 135005.0 123436.0 123436.0 135005.0 135005.0
180758.0 180022.0 283732.0 290585.0 167757.0 161074.0 258616.0 250387.0 127709.0 122128.0 26141.0 28213.0 128004.0 123621.0 264269.0 271558.0 118678.0 116680.0 65403.0 59203.0 97813.0 90216.0 77385.0 76434.0 174022.0 167366.0 139672.0 146618.0 86397.0 89688.0 41484.0 36812.0 132263.0 135356.0 56590.0 58489.0 74993.0 67141.0 140242.0 138722.0 132224.0 131233.0 41117.0 36923.0 23081.0 29943.0 66582.0 65663.0 104131.0 98119.0 142101.0 138867.0 261852.0 263742.0 162030.0 160614.0 8006.0 0.0 48517.0 55794.0 75969.0 69288.0 77233.0 69012.0 82843.0 74871.0 288895.0 280661.0 32016.0 36545.0 223676.0 230607.0 127119.0 126265.0 9070.0 13770.0 73830.0 66591.0 290852.0 289818.0 122800.0 142135.0 122800.0 122800.0 142135.0 142135.0
139277.0 139772.0 237138.0 243990.0 126544.0 120781.0 212021.0 203854.0 161995.0 157951.0 63567.0 59040.0 158810.0 152773.0 218854.0 226365.0 137558.0 138306.0 98816.0 95330.0 95667.0 87842.0 119073.0 120026.0 134544.0 128867.0 91601.0 98783.0 94569.0 93486.0 28385.0 34536.0 145388.0 145921.0 9100.0 15218.0 109847.0 103214.0 161564.0 162398.0 148411.0 144808.0 71938.0 64112.0 69263.0 73539.0 115093.0 113891.0 147215.0 142253.0 156919.0 151377.0 216361.0 217757.0 186069.0 186590.0 41766.0 48517.0 0.0 7968.0 124268.0 117772.0 92362.0 85027.0 52631.0 46574.0 245564.0 237356.0 22194.0 26663.0 182138.0 188527.0 131819.0 133725.0 39850.0 35552.0 117828.0 111494.0 244871.0 243400.0 110237.0 93760.0 110237.0 110237.0 93760.0 93760.0
131442.0 132028.0 229245.0 236097.0 118742.0 113063.0 204128.0 195961.0 165583.0 161847.0 71521.0 67002.0 161793.0 155512.0 210898.0 218405.0 144412.0 145377.0 102910.0 99914.0 100765.0 93063.0 124340.0 125665.0 126875.0 121302.0 83982.0 91078.0 100852.0 99331.0 35359.0 41974.0 145503.0 145608.0 8047.0 16094.0 117734.0 111141.0 162890.0 164117.0 154968.0 151137.0 79848.0 71993.0 76958.0 81396.0 122270.0 120814.0 155171.0 150182.0 163302.0 157560.0 208408.0 209826.0 187688.0 188543.0 48745.0 55794.0 7968.0 0.0 131218.0 124892.0 99291.0 92118.0 47244.0 41926.0 237610.0 229402.0 27253.0 29863.0 174272.0 180629.0 137290.0 139494.0 47313.0 42500.0 123565.0 117463.0 236942.0 235500.0 113779.0 86341.0 113779.0 113779.0 86341.0 86341.0
247436.0 245393.0 355759.0 362408.0 234548.0 227158.0 330633.0 322483.0 91867.0 83885.0 73056.0 81000.0 100349.0 100918.0 334382.0 341301.0 134645.0 128594.0 64274.0 57928.0 146169.0 140718.0 42334.0 34516.0 238776.0 231361.0 214325.0 220911.0 127194.0 134216.0 114101.0 107326.0 137236.0 143668.0 132531.0 134310.0 78635.0 73432.0 128959.0 123298.0 149169.0 152413.0 80194.0 84851.0 59633.0 60697.0 11804.0 10427.0 66979.0 58904.0 159129.0 160049.0 332090.0 334657.0 141133.0 136137.0 82516.0 75969.0 124268.0 131218.0 0.0 8540.0 113264.0 107839.0 147454.0 139799.0 355918.0 347740.0 105187.0 106635.0 289382.0 296837.0 161333.0 157104.0 84949.0 88751.0 32474.0 28944.0 361582.0 361205.0 177758.0 217268.0 177758.0 177758.0 217268.0 217268.0
243351.0 241532.0 350650.0 357385.0 230415.0 223128.0 325527.0 317366.0 98104.0 90223.0 64907.0 72833.0 105878.0 105925.0 329741.0 336746.0 126947.0 121055.0 65032.0 58077.0 137631.0 132179.0 46255.0 38799.0 235002.0 227692.0 208381.0 215095.0 118688.0 125689.0 106520.0 99598.0 139906.0 146072.0 125862.0 127329.0 70760.0 65308.0 133240.0 127928.0 141531.0 144588.0 71708.0 76475.0 51850.0 52477.0 3281.0 7406.0 62715.0 54590.0 151551.0 152267.0 327419.0 329835.0 146543.0 141844.0 76152.0 69288.0 117772.0 124892.0 8540.0 0.0 104779.0 99312.0 143281.0 135515.0 351927.0 343730.0 99317.0 101255.0 285550.0 292922.0 153057.0 148918.0 78161.0 82397.0 36330.0 31137.0 356821.0 356289.0 169228.0 211139.0 169228.0 169228.0 211139.0 211139.0
228054.0 229529.0 316072.0 322925.0 215833.0 210872.0 290956.0 282789.0 193737.0 186804.0 53816.0 49219.0 197275.0 194375.0 299920.0 307806.0 45216.0 46229.0 137417.0 129943.0 34802.0 31912.0 138598.0 134088.0 224896.0 219831.0 168653.0 176633.0 14198.0 22113.0 63998.0 58303.0 209090.0 212449.0 93348.0 87738.0 42730.0 43259.0 214723.0 212178.0 56858.0 54618.0 38938.0 40545.0 67471.0 60561.0 101596.0 106992.0 87588.0 87581.0 66132.0 62019.0 297295.0 297509.0 234655.0 232118.0 81700.0 77233.0 92362.0 99291.0 113264.0 104779.0 0.0 8263.0 144080.0 137161.0 330239.0 322186.0 94595.0 102453.0 270062.0 275757.0 51295.0 49414.0 75577.0 82607.0 131052.0 123106.0 324284.0 322344.0 67138.0 168584.0 67138.0 67138.0 168584.0 168584.0
221658.0 222966.0 310854.0 317707.0 209335.0 204227.0 285737.0 277570.0 186639.0 179804.0 45921.0 41067.0 189897.0 186858.0 294708.0 302559.0 52867.0 53280.0 129669.0 122261.0 38536.0 34071.0 131649.0 127368.0 218216.0 213016.0 163424.0 171381.0 19750.0 26378.0 56760.0 50720.0 200961.0 204275.0 86434.0 81148.0 41556.0 40549.0 206871.0 204427.0 64910.0 62844.0 31374.0 32430.0 59898.0 53288.0 96085.0 101109.0 87049.0 86277.0 74288.0 70271.0 292095.0 292319.0 227007.0 224578.0 73438.0 69012.0 85027.0 92118.0 107839.0 99312.0 8263.0 0.0 136417.0 129413.0 324586.0 316503.0 86550.0 94375.0 263856.0 269668.0 58999.0 57448.0 67316.0 74362.0 124336.0 116358.0 319066.0 317126.0 69266.0 163413.0 69266.0 69266.0 163413.0 163413.0
100071.0 98424.0 209956.0 216249.0 87137.0 79868.0 185129.0 176874.0 153462.0 151948.0 106286.0 104356.0 146002.0 138535.0 187248.0 194026.0 189256.0 189457.0 99004.0 99716.0 147979.0 140240.0 126583.0 130665.0 92064.0 85046.0 80048.0 84094.0 147082.0 146117.0 80640.0 85779.0 114453.0 112465.0 54942.0 62728.0 155646.0 148212.0 137397.0 140746.0 200594.0 197240.0 118341.0 111342.0 105849.0 112690.0 141435.0 137393.0 186878.0 180648.0 209293.0 203906.0 185014.0 187932.0 162896.0 165581.0 74900.0 82843.0 52631.0 47244.0 147454.0 143281.0 144080.0 136417.0 0.0 7999.0 208657.0 200455.0 52570.0 46443.0 142423.0 149706.0 184372.0 186354.0 77610.0 70059.0 129502.0 125749.0 214654.0 214693.0 160498.0 85675.0 160498.0 160498.0 85675.0 85675.0
107872.0 106330.0 217076.0 223451.0 94914.0 87712.0 192171.0 183932.0 148658.0 146813.0 98461.0 96680.0 141731.0 134416.0 194715.0 201554.0 182278.0 182318.0 92699.0 93025.0 142225.0 134413.0 119866.0 123721.0 100006.0 93021.0 84613.0 89168.0 140586.0 139902.0 74126.0 78922.0 113073.0 111621.0 49858.0 57822.0 147881.0 140409.0 134884.0 137817.0 193813.0 190627.0 110693.0 103786.0 97865.0 104736.0 133633.0 129695.0 178887.0 172650.0 202626.0 197389.0 192459.0 195266.0 160366.0 162695.0 66938.0 74871.0 46574.0 41926.0 139799.0 135515.0 137161.0 129413.0 7999.0 0.0 216470.0 208263.0 44831.0 38526.0 150314.0 157564.0 178364.0 180142.0 69739.0 62154.0 122472.0 118515.0 222055.0 221979.0 155671.0 89876.0 155671.0 155671.0 89876.0 89876.0
108600.0 110584.0 54703.0 51147.0 121574.0 128799.0 60542.0 62504.0 341524.0 343091.0 308756.0 304599.0 329872.0 321873.0 37325.0 30334.0 372490.0 375535.0 301820.0 304526.0 317399.0 311665.0 330773.0 336077.0 117335.0 124984.0 162168.0 154187.0 326732.0 321865.0 270668.0 278271.0 276458.0 269716.0 241011.0 244634.0 355098.0 348694.0 305284.0 312277.0 379468.0 373770.0 317363.0 309421.0 311819.0 317570.0 350091.0 345957.0 392183.0 386689.0 385848.0 378515.0 39744.0 44580.0 326258.0 332561.0 280926.0 288895.0 245564.0 237610.0 355918.0 351927.0 330239.0 324586.0 208657.0 216470.0 0.0 8235.0 256922.0 252797.0 66796.0 59138.0 353323.0 357861.0 282003.0 275258.0 335401.0 332718.0 37772.0 45511.0 320764.0 164164.0 320764.0 320764.0 164164.0 164164.0
100391.0 102439.0 53717.0 51322.0 113360.0 120605.0 56123.0 57170.0 333880.0 335377.0 300534.0 296389.0 322301.0 314296.0 32114.0 26140.0 364525.0 367530.0 293792.0 296454.0 309464.0 303730.0 322732.0 328006.0 109217.0 116895.0 154244.0 146271.0 318760.0 313938.0 262504.0 270098.0 269158.0 262473.0 232829.0 236483.0 346911.0 340495.0 297994.0 304932.0 371580.0 365835.0 309166.0 301228.0 303584.0 309338.0 341888.0 337770.0 383953.0 378456.0 377913.0 370580.0 34295.0 40002.0 319152.0 325391.0 272691.0 280661.0 237356.0 229402.0 347740.0 343730.0 322186.0 316503.0 200455.0 208263.0 8235.0 0.0 248687.0 244565.0 58739.0 51018.0 345388.0 349926.0 273770.0 267023.0 327316.0 324599.0 38521.0 45743.0 312829.0 156343.0 312829.0 312829.0 156343.0 156343.0
148907.0 148353.0 252020.0 258865.0 135921.0 129355.0 226904.0 218705.0 139959.0 135815.0 53778.0 51865.0 137106.0 131258.0 232304.0 239572.0 139200.0 138673.0 76659.0 73144.0 105405.0 97405.0 97150.0 98413.0 142477.0 135998.0 109139.0 115783.0 99938.0 100684.0 36260.0 38159.0 127253.0 128543.0 31289.0 36668.0 103076.0 95657.0 141516.0 141863.0 151444.0 148965.0 65898.0 59148.0 54903.0 60985.0 96878.0 94760.0 135672.0 129889.0 160679.0 156095.0 229897.0 231858.0 165592.0 165741.0 24118.0 32016.0 22194.0 27253.0 105187.0 99317.0 94595.0 86550.0 52570.0 44831.0 256922.0 248687.0 0.0 8048.0 191867.0 198732.0 139588.0 140364.0 25388.0 18337.0 96319.0 90279.0 258956.0 258015.0 124185.0 112154.0 124185.0 124185.0 112154.0 112154.0
144453.0 143563.0 249417.0 256192.0 131443.0 124654.0 224304.0 216134.0 135767.0 131985.0 60050.0 58776.0 132252.0 126146.0 229016.0 236173.0 146928.0 146265.0 73072.0 70294.0 113410.0 105410.0 95314.0 97208.0 137513.0 130825.0 108227.0 114538.0 107955.0 108732.0 44138.0 46205.0 120108.0 121182.0 35423.0 41798.0 109576.0 102019.0 135200.0 135854.0 159283.0 156886.0 72839.0 66357.0 59622.0 66276.0 98996.0 96244.0 140676.0 134629.0 168565.0 164045.0 226647.0 228840.0 159551.0 159971.0 28553.0 36545.0 26663.0 29863.0 106635.0 101255.0 102453.0 94375.0 46443.0 38526.0 252797.0 244565.0 8048.0 0.0 187306.0 194313.0 147635.0 148396.0 31259.0 23631.0 95302.0 89738.0 255890.0 255180.0 131866.0 111706.0 131866.0 131866.0 111706.0 111706.0
42998.0 44020.0 86327.0 89458.0 55953.0 62682.0 68957.0 62661.0 276089.0 277330.0 244556.0 240888.0 264813.0 256788.0 55915.0 59828.0 313649.0 316017.0 235054.0 237730.0 260338.0 254265.0 263993.0 269281.0 50621.0 58200.0 106678.0 99180.0 267978.0 263890.0 208450.0 215772.0 213045.0 206686.0 178444.0 182879.0 291983.0 285267.0 241850.0 248500.0 321820.0 316377.0 254056.0 246250.0 246713.0 252798.0 283781.0 279483.0 327508.0 321748.0 328548.0 321410.0 54816.0 61101.0 263910.0 269794.0 215676.0 223676.0 182138.0 174272.0 289382.0 285550.0 270062.0 263856.0 142423.0 150314.0 66796.0 58739.0 191867.0 187306.0 0.0 8055.0 296481.0 300920.0 217154.0 210177.0 268607.0 265958.0 82346.0 85659.0 263929.0 110557.0 263929.0 263929.0 110557.0 110557.0
49860.0 51456.0 78936.0 81813.0 62869.0 69855.0 62618.0 56794.0 284124.0 285347.0 251196.0 247394.0 272862.0 264837.0 48270.0 51915.0 319098.0 321607.0 242843.0 245451.0 265282.0 259338.0 271762.0 277002.0 58200.0 65887.0 110953.0 103290.0 273373.0 269121.0 214557.0 221954.0 221082.0 214709.0 184605.0 188844.0 298363.0 291721.0 249890.0 256548.0 327037.0 321477.0 260465.0 252621.0 253616.0 259602.0 291122.0 286903.0 334305.0 328620.0 333617.0 326390.0 47301.0 53812.0 271915.0 277816.0 222614.0 230607.0 188527.0 180629.0 296837.0 292922.0 275757.0 269668.0 149706.0 157564.0 59138.0 51018.0 198732.0 194313.0 8055.0 0.0 301228.0 305795.0 223968.0 217059.0 276303.0 273584.0 74423.0 77899.0 268701.0 114448.0 268701.0 268701.0 114448.0 114448.0
256564.0 259284.0 338517.0 345370.0 245337.0 241596.0 313401.0 305233.0 244699.0 237646.0 104915.0 99740.0 248499.0 245662.0 322367.0 330251.0 38813.0 46609.0 188658.0 181219.0 37057.0 44365.0 189432.0 184606.0 255644.0 251710.0 191159.0 199150.0 40743.0 38906.0 104705.0 101452.0 259380.0 262408.0 129970.0 122739.0 84053.0 88089.0 265860.0 263419.0 34471.0 26360.0 90224.0 91250.0 118764.0 111801.0 150012.0 156135.0 121220.0 124098.0 35920.0 27475.0 319745.0 319954.0 285945.0 283407.0 130652.0 127119.0 131819.0 137290.0 161333.0 153057.0 51295.0 58999.0 184372.0 178364.0 353323.0 345388.0 139588.0 147635.0 296481.0 301228.0 0.0 7456.0 124195.0 130549.0 181573.0 173695.0 346729.0 344789.0 57108.0 191029.0 57108.0 57108.0 191029.0 191029.0
260661.0 263212.0 343055.0 349908.0 249274.0 245351.0 317939.0 309772.0 241701.0 234539.0 103224.0 98497.0 245878.0 243256.0 326905.0 334790.0 31594.0 39463.0 186683.0 179138.0 40667.0 47369.0 186373.0 181322.0 259422.0 255313.0 195697.0 203689.0 40547.0 40243.0 106146.0 102383.0 258383.0 261615.0 132360.0 125335.0 79175.0 83686.0 264074.0 261419.0 27135.0 19108.0 88209.0 89878.0 116638.0 109395.0 145926.0 152272.0 114982.0 118130.0 29382.0 21190.0 324283.0 324492.0 283741.0 281013.0 130207.0 126265.0 133725.0 139494.0 157104.0 148918.0 49414.0 57448.0 186354.0 180142.0 357861.0 349926.0 140364.0 148396.0 300920.0 305795.0 7456.0 0.0 123854.0 130460.0 178295.0 170477.0 351267.0 349327.0 63495.0 195567.0 63495.0 63495.0 195567.0 195567.0
174174.0 173707.0 275913.0 282753.0 161202.0 154697.0 250796.0 242629.0 135079.0 129735.0 28814.0 28342.0 134772.0 130070.0 256812.0 264166.0 118547.0 117148.0 72108.0 66378.0 93263.0 85480.0 85778.0 85121.0 167856.0 161385.0 131292.0 138338.0 83506.0 86032.0 33122.0 29285.0 135812.0 138453.0 47714.0 49435.0 78375.0 70774.0 145371.0 144271.0 131641.0 130093.0 42258.0 36590.0 30016.0 35644.0 75405.0 74669.0 110354.0 104691.0 141313.0 137577.0 254373.0 256122.0 167762.0 166681.0 6654.0 9070.0 39850.0 47313.0 84949.0 78161.0 75577.0 67316.0 77610.0 69739.0 282003.0 273770.0 25388.0 31259.0 217154.0 223968.0 124195.0 123854.0 0.0 7778.0 82567.0 75433.0 283243.0 282076.0 116844.0 133594.0 116844.0 116844.0 133594.0 133594.0
167226.0 166613.0 269975.0 276828.0 154236.0 147631.0 244858.0 236634.0 133262.0 128277.0 36551.0 36038.0 132179.0 127123.0 250507.0 257804.0 125966.0 124702.0 69772.0 64686.0 98720.0 90839.0 85898.0 85957.0 160688.0 154132.0 126154.0 133029.0 89984.0 92090.0 34839.0 32677.0 130350.0 132693.0 44048.0 46939.0 86119.0 78490.0 141091.0 140370.0 138925.0 137201.0 50000.0 44166.0 36566.0 42796.0 79796.0 78361.0 117412.0 111571.0 148526.0 144624.0 248089.0 249972.0 163987.0 163241.0 6245.0 13770.0 35552.0 42500.0 88751.0 82397.0 82607.0 74362.0 70059.0 62154.0 275258.0 267023.0 18337.0 23631.0 210177.0 217059.0 130549.0 130460.0 7778.0 0.0 83565.0 76815.0 277082.0 276051.0 121091.0 128765.0 121091.0 121091.0 128765.0 128765.0
227798.0 224991.0 339457.0 345727.0 215193.0 207496.0 314613.0 306364.0 63868.0 56409.0 81942.0 89449.0 70242.0 69786.0 316303.0 322865.0 159321.0 154074.0 35191.0 30990.0 160947.0 154468.0 9945.0 3036.0 218127.0 210421.0 202868.0 208741.0 144081.0 150052.0 115257.0 109985.0 104854.0 111392.0 126786.0 130421.0 103168.0 96593.0 96924.0 91613.0 174034.0 176257.0 93611.0 95783.0 66764.0 71617.0 37885.0 29741.0 98901.0 90780.0 184223.0 184086.0 314135.0 317281.0 110635.0 106284.0 77931.0 73830.0 117828.0 123565.0 32474.0 36330.0 131052.0 124336.0 129502.0 122472.0 335401.0 327316.0 96319.0 95302.0 268607.0 276303.0 181573.0 178295.0 82567.0 83565.0 0.0 8004.0 343854.0 344096.0 190251.0 206726.0 190251.0 190251.0 206726.0 206726.0
224756.0 222179.0 335587.0 341959.0 212049.0 204433.0 310654.0 302424.0 71436.0 64101.0 73979.0 81515.0 77229.0 76306.0 312893.0 319559.0 151860.0 146734.0 35575.0 29860.0 152943.0 146469.0 16371.0 11021.0 215384.0 207761.0 197723.0 203758.0 136101.0 142053.0 107908.0 102474.0 108815.0 115066.0 120380.0 123748.0 95832.0 89115.0 102607.0 97658.0 166578.0 168674.0 85608.0 87796.0 58808.0 63613.0 32177.0 24017.0 93802.0 85681.0 176785.0 176516.0 310689.0 313679.0 117320.0 113228.0 71043.0 66591.0 111494.0 117463.0 28944.0 31137.0 123106.0 116358.0 125749.0 118515.0 332718.0 324599.0 90279.0 89738.0 265958.0 273584.0 173695.0 170477.0 75433.0 76815.0 8004.0 0.0 340364.0 340440.0 182282.0 201399.0 182282.0 182282.0 201399.0 201399.0
117085.0 121241.0 18761.0 13501.0 129139.0 137038.0 36574.0 42924.0 356563.0 357332.0 308412.0 303452.0 345738.0 337709.0 27746.0 22520.0 365923.0 369114.0 311682.0 313479.0 310805.0 305071.0 340209.0 344845.0 128362.0 136374.0 155801.0 147938.0 320192.0 315280.0 267763.0 275633.0 295078.0 288839.0 239150.0 241611.0 352443.0 346599.0 323832.0 330333.0 372991.0 367176.0 315403.0 307342.0 313257.0 318234.0 354707.0 351350.0 392011.0 387123.0 379254.0 371921.0 29764.0 27124.0 346150.0 351943.0 283052.0 290852.0 244871.0 236942.0 361582.0 356821.0 324284.0 319066.0 214654.0 222055.0 37772.0 38521.0 258956.0 255890.0 82346.0 74423.0 346729.0 351267.0 283243.0 277082.0 343854.0 340364.0 0.0 7961.0 314170.0 157477.0 314170.0 314170.0 157477.0 157477.0
118355.0 122907.0 11333.0 5638.0 130072.0 138031.0 32798.0 40042.0 358214.0 358807.0 306863.0 301745.0 347586.0 339561.0 29861.0 26510.0 363983.0 367174.0 312281.0 313880.0 308865.0 303131.0 340668.0 345154.0 130024.0 138030.0 153863.0 145999.0 318251.0 313339.0 265887.0 273774.0 297614.0 291498.0 237453.0 239754.0 350536.0 344738.0 326304.0 332687.0 371051.0 365236.0 313580.0 305513.0 312071.0 316877.0 354119.0 350932.0 390374.0 385617.0 377313.0 369981.0 31355.0 26905.0 348893.0 354564.0 282071.0 289818.0 243400.0 235500.0 361205.0 356289.0 322344.0 317126.0 214693.0 221979.0 45511.0 45743.0 258015.0 255180.0 85659.0 77899.0 344789.0 349327.0 282076.0 276051.0 344096.0 340440.0 7961.0 0.0 312230.0 155537.0 312230.0 312230.0 155537.0 155537.0
224357.0 227389.0 305958.0 312811.0 213451.0 210164.0 280842.0 272674.0 249526.0 243402.0 108311.0 100915.0 250648.0 246410.0 289808.0 297692.0 88720.0 94953.0 188170.0 181724.0 33292.0 35337.0 196277.0 193212.0 224102.0 220667.0 158600.0 166591.0 53939.0 45598.0 88120.0 88461.0 250760.0 252484.0 105814.0 97865.0 109849.0 109735.0 262112.0 261115.0 89757.0 82210.0 97835.0 94554.0 123494.0 119091.0 165956.0 170149.0 154576.0 154719.0 92852.0 84514.0 287186.0 287395.0 284593.0 283373.0 123436.0 122800.0 110237.0 113779.0 177758.0 169228.0 67138.0 69266.0 160498.0 155671.0 320764.0 312829.0 124185.0 131866.0 263929.0 268701.0 57108.0 63495.0 116844.0 121091.0 190251.0 182282.0 314170.0 312230.0 0.0 158470.0 0.0 0.0 158470.0 158470.0
75676.0 80817.0 149265.0 156118.0 68145.0 68493.0 124149.0 115982.0 238506.0 236487.0 155705.0 149917.0 231534.0 224138.0 132322.0 140267.0 210223.0 213414.0 180652.0 179673.0 155105.0 149371.0 205896.0 208479.0 80125.0 80081.0 7151.0 11757.0 164492.0 159580.0 113104.0 121085.0 197841.0 194778.0 86491.0 87390.0 197172.0 191730.0 222342.0 226086.0 217291.0 211476.0 160920.0 152851.0 162894.0 166617.0 208560.0 206844.0 238386.0 234156.0 223554.0 216221.0 129679.0 129575.0 247775.0 250835.0 135005.0 142135.0 93760.0 86341.0 217268.0 211139.0 168584.0 163413.0 85675.0 89876.0 164164.0 156343.0 112154.0 111706.0 110557.0 114448.0 191029.0 195567.0 133594.0 128765.0 206726.0 201399.0 157477.0 155537.0 158470.0 0.0 158470.0 158470.0 0.0 0.0
224357.0 227389.0 305958.0 312811.0 213451.0 210164.0 280842.0 272674.0 249526.0 243402.0 108311.0 100915.0 250648.0 246410.0 289808.0 297692.0 88720.0 94953.0 188170.0 181724.0 33292.0 35337.0 196277.0 193212.0 224102.0 220667.0 158600.0 166591.0 53939.0 45598.0 88120.0 88461.0 250760.0 252484.0 105814.0 97865.0 109849.0 109735.0 262112.0 261115.0 89757.0 82210.0 97835.0 94554.0 123494.0 119091.0 165956.0 170149.0 154576.0 154719.0 92852.0 84514.0 287186.0 287395.0 284593.0 283373.0 123436.0 122800.0 110237.0 113779.0 177758.0 169228.0 67138.0 69266.0 160498.0 155671.0 320764.0 312829.0 124185.0 131866.0 263929.0 268701.0 57108.0 63495.0 116844.0 121091.0 190251.0 182282.0 314170.0 312230.0 0.0 158470.0 0.0 0.0 158470.0 158470.0
224357.0 227389.0 305958.0 312811.0 213451.0 210164.0 280842.0 272674.0 249526.0 243402.0 108311.0 100915.0 250648.0 246410.0 289808.0 297692.0 88720.0 94953.0 188170.0 181724.0 33292.0 35337.0 196277.0 193212.0 224102.0 220667.0 158600.0 166591.0 53939.0 45598.0 88120.0 88461.0 250760.0 252484.0 105814.0 97865.0 109849.0 109735.0 262112.0 261115.0 89757.0 82210.0 97835.0 94554.0 123494.0 119091.0 165956.0 170149.0 154576.0 154719.0 92852.0 84514.0 287186.0 287395.0 284593.0 283373.0 123436.0 122800.0 110237.0 113779.0 177758.0 169228.0 67138.0 69266.0 160498.0 155671.0 320764.0 312829.0 124185.0 131866.0 263929.0 268701.0 57108.0 63495.0 116844.0 121091.0 190251.0 182282.0 314170.0 312230.0 0.0 158470.0 0.0 0.0 158470.0 158470.0
75676.0 80817.0 149265.0 156118.0 68145.0 68493.0 124149.0 115982.0 238506.0 236487.0 155705.0 149917.0 231534.0 224138.0 132322.0 140267.0 210223.0 213414.0 180652.0 179673.0 155105.0 149371.0 205896.0 208479.0 80125.0 80081.0 7151.0 11757.0 164492.0 159580.0 113104.0 121085.0 197841.0 194778.0 86491.0 87390.0 197172.0 191730.0 222342.0 226086.0 217291.0 211476.0 160920.0 152851.0 162894.0 166617.0 208560.0 206844.0 238386.0 234156.0 223554.0 216221.0 129679.0 129575.0 247775.0 250835.0 135005.0 142135.0 93760.0 86341.0 217268.0 211139.0 168584.0 163413.0 85675.0 89876.0 164164.0 156343.0 112154.0 111706.0 110557.0 114448.0 191029.0 195567.0 133594.0 128765.0 206726.0 201399.0 157477.0 155537.0 158470.0 0.0 158470.0 158470.0 0.0 0.0
75676.0 80817.0 149265.0 156118.0 68145.0 68493.0 124149.0 115982.0 238506.0 236487.0 155705.0 149917.0 231534.0 224138.0 132322.0 140267.0 210223.0 213414.0 180652.0 179673.0 155105.0 149371.0 205896.0 208479.0 80125.0 80081.0 7151.0 11757.0 164492.0 159580.0 113104.0 121085.0 197841.0 194778.0 86491.0 87390.0 197172.0 191730.0 222342.0 226086.0 217291.0 211476.0 160920.0 152851.0 162894.0 166617.0 208560.0 206844.0 238386.0 234156.0 223554.0 216221.0 129679.0 129575.0 247775.0 250835.0 135005.0 142135.0 93760.0 86341.0 217268.0 211139.0 168584.0 163413.0 85675.0 89876.0 164164.0 156343.0 112154.0 111706.0 110557.0 114448.0 191029.0 195567.0 133594.0 128765.0 206726.0 201399.0 157477.0 155537.0 158470.0 0.0 158470.0 158470.0 0.0 0.0
FIXED_EDGES_SECTION
1 2
3 4
5 6
7 8
9 10
11 12
13 14
15 16
17 18
19 20
21 22
23 24
25 26
27 28
29 30
31 32
33 34
35 36
37 38
39 40
41 42
43 44
45 46
47 48
49 50
51 52
53 54
55 56
57 58
59 60
61 62
63 64
65 66
67 68
69 70
71 72
73 74
75 76
77 78
79 80
-1 
DEMAND_SECTION
1 620
2 620
3 280
4 280
5 319
6 319
7 224
8 224
9 380
10 380
11 341
12 341
13 258
14 258
15 99
16 99
17 274
18 274
19 180
20 180
21 485
22 485
23 72
24 72
25 336
26 336
27 37
28 37
29 100
30 100
31 56
32 56
33 321
34 321
35 373
36 373
37 461
38 461
39 234
40 234
41 216
42 216
43 293
44 293
45 349
46 349
47 211
48 211
49 497
50 497
51 251
52 251
53 60
54 60
55 120
56 120
57 256
58 256
59 80
60 80
61 217
62 217
63 155
64 155
65 130
66 130
67 421
68 421
69 380
70 380
71 350
72 350
73 219
74 219
75 191
76 191
77 186
78 186
79 71
80 71
81 0
82 0
83 0
84 0
85 0
86 0
DEPOT_SECTION
81 
-1 
CAPACITIES_SECTION
10000 
11000 
12000 
13000 
-1 
EOF