NAME: GFS_20_1
TYPE: GFSP
DIMENSION: 90
VEHICLES: 2
CAPACITY: 5000.0
TRIP_DIST_LIMIT: 750000.0
TOTAL_DIST_LIMIT: 2100000.0
EDGE_WEIGHT_TYPE: EXPLICIT
EDGE_WEIGHT_FORMAT: FULL_MATRIX
EDGE_WEIGHT_SECTION
0.0 7996.0 178620.0 186639.0 55180.0 63539.0 108123.0 115476.0 186136.0 193683.0 61164.0 57972.0 171603.0 166291.0 99379.0 103180.0 192957.0 199731.0 13010.0 13949.0 120192.0 114135.0 251233.0 256330.0 199675.0 205448.0 248236.0 251439.0 113124.0 114746.0 126844.0 132327.0 206301.0 199013.0 218090.0 225534.0 75511.0 76024.0 55350.0 47970.0 82126.0 75235.0 103429.0 109542.0 36588.0 29453.0 257380.0 253956.0 138349.0 130535.0 233467.0 226062.0 245337.0 249274.0 129139.0 130072.0 250144.0 243148.0 208615.0 202097.0 174455.0 166785.0 37782.0 32468.0 98453.0 106475.0 244569.0 250725.0 225396.0 233434.0 169681.0 176060.0 223525.0 228476.0 231501.0 227217.0 103285.0 95087.0 126544.0 118742.0 213451.0 68145.0 213451.0 213451.0 213451.0 213451.0 68145.0 68145.0 68145.0 68145.0
7996.0 0.0 172026.0 180037.0 47500.0 55899.0 101031.0 108285.0 180761.0 188406.0 67063.0 64480.0 163834.0 158592.0 107286.0 111144.0 185008.0 191804.0 20324.0 19050.0 115438.0 109611.0 243592.0 248752.0 191841.0 197569.0 242054.0 245105.0 106441.0 108408.0 134839.0 140309.0 200038.0 192666.0 214127.0 221494.0 69021.0 69063.0 62761.0 55209.0 78999.0 71755.0 96681.0 103039.0 42561.0 35043.0 253883.0 250677.0 131388.0 123484.0 228064.0 220564.0 241596.0 245351.0 137038.0 138031.0 242160.0 235171.0 204737.0 198064.0 168775.0 161186.0 33908.0 27481.0 91438.0 99489.0 236634.0 242771.0 218748.0 226755.0 163045.0 169552.0 215766.0 220664.0 227726.0 223641.0 111265.0 103062.0 120781.0 113063.0 210164.0 68493.0 210164.0 210164.0 210164.0 210164.0 68493.0 68493.0 68493.0 68493.0
178620.0 172026.0 0.0 8022.0 127604.0 119637.0 72630.0 66773.0 42378.0 48055.0 199880.0 204571.0 139897.0 143417.0 272044.0 273790.0 89780.0 88671.0 191607.0 191007.0 74663.0 81577.0 95494.0 96566.0 146027.0 143940.0 72048.0 73855.0 65608.0 64211.0 293553.0 300388.0 30803.0 22718.0 96106.0 98891.0 103110.0 103263.0 233306.0 226336.0 115828.0 117351.0 75421.0 69095.0 214547.0 206932.0 134772.0 137228.0 42595.0 51035.0 71841.0 63613.0 119999.0 118622.0 300912.0 299730.0 150900.0 148997.0 92829.0 85565.0 31313.0 34713.0 144239.0 147009.0 81430.0 73428.0 159419.0 159893.0 46814.0 54908.0 9099.0 4124.0 166895.0 164973.0 109390.0 111392.0 268437.0 260270.0 57068.0 64706.0 119700.0 150783.0 119700.0 119700.0 119700.0 119700.0 150783.0 150783.0 150783.0 150783.0
186639.0 180037.0 8022.0 0.0 135522.0 127526.0 80486.0 74495.0 42846.0 47388.0 207605.0 212361.0 143425.0 147287.0 280003.0 281720.0 90605.0 88788.0 199627.0 199014.0 81786.0 88782.0 90336.0 90893.0 148080.0 145569.0 64525.0 66061.0 73610.0 72221.0 301433.0 308258.0 24159.0 16199.0 95145.0 97325.0 111129.0 111247.0 241327.0 234358.0 123411.0 125088.0 83416.0 77116.0 222554.0 214936.0 132497.0 135404.0 50279.0 58711.0 66820.0 58744.0 117852.0 116002.0 308843.0 307627.0 149723.0 148243.0 92662.0 85729.0 34175.0 38991.0 152241.0 155029.0 89362.0 81344.0 159056.0 159122.0 38794.0 46893.0 17027.0 11147.0 168189.0 165894.0 107885.0 110411.0 276316.0 268149.0 64723.0 72437.0 120848.0 158330.0 120848.0 120848.0 120848.0 120848.0 158330.0 158330.0 158330.0 158330.0
55180.0 47500.0 127604.0 135522.0 0.0 8434.0 55172.0 61903.0 142294.0 150328.0 100857.0 101394.0 125767.0 121832.0 154361.0 157845.0 138700.0 145222.0 67821.0 65473.0 83051.0 79175.0 196092.0 201270.0 152154.0 156957.0 198996.0 201375.0 62577.0 66473.0 180856.0 186716.0 156885.0 149187.0 182787.0 189591.0 29411.0 25472.0 110220.0 102577.0 62399.0 54637.0 52769.0 60333.0 88629.0 80883.0 224483.0 222529.0 85735.0 77527.0 188816.0 180915.0 211028.0 213721.0 184121.0 184743.0 198361.0 191760.0 174069.0 166669.0 128891.0 121888.0 36140.0 31902.0 46183.0 54178.0 194461.0 200049.0 173835.0 181696.0 118514.0 125536.0 177115.0 181092.0 197191.0 194292.0 156563.0 148284.0 81777.0 74951.0 183483.0 75084.0 183483.0 183483.0 183483.0 183483.0 75084.0 75084.0 75084.0 75084.0
63539.0 55899.0 119637.0 127526.0 8434.0 0.0 47070.0 53643.0 135516.0 143600.0 107468.0 108390.0 120344.0 116784.0 162617.0 166022.0 130839.0 137261.0 76222.0 73906.0 78186.0 74870.0 187703.0 192857.0 146171.0 150713.0 191203.0 193460.0 54987.0 59384.0 188892.0 194823.0 149123.0 141372.0 177298.0 183966.0 24618.0 19060.0 118635.0 111003.0 61999.0 54598.0 45272.0 53101.0 97044.0 89297.0 219234.0 217525.0 77588.0 69330.0 181755.0 173792.0 205594.0 208075.0 192371.0 192912.0 191182.0 184693.0 168749.0 161237.0 121865.0 115020.0 41956.0 38783.0 38332.0 46240.0 187719.0 193154.0 165732.0 173563.0 110540.0 117654.0 171309.0 175045.0 191808.0 189150.0 164495.0 156213.0 75280.0 68777.0 179018.0 78498.0 179018.0 179018.0 179018.0 179018.0 78498.0 78498.0 78498.0 78498.0
108123.0 101031.0 72630.0 80486.0 55172.0 47070.0 0.0 7886.0 92717.0 100906.0 140161.0 143167.0 112428.0 111915.0 205066.0 207687.0 99079.0 103835.0 121110.0 119742.0 51677.0 52894.0 145758.0 150101.0 132035.0 134199.0 144416.0 146482.0 12021.0 20213.0 229133.0 235638.0 102445.0 94594.0 140140.0 145993.0 34643.0 32180.0 163424.0 156091.0 66473.0 63333.0 9904.0 14951.0 143187.0 135482.0 182608.0 182146.0 30572.0 22472.0 137235.0 129077.0 168235.0 169642.0 234575.0 234306.0 164775.0 159545.0 132661.0 124745.0 78139.0 72234.0 77306.0 78183.0 9847.0 3303.0 165425.0 169342.0 118672.0 126524.0 63531.0 70779.0 157321.0 159005.0 154920.0 153548.0 204117.0 195910.0 37608.0 34895.0 147836.0 97785.0 147836.0 147836.0 147836.0 147836.0 97785.0 97785.0 97785.0 97785.0
115476.0 108285.0 66773.0 74495.0 61903.0 53643.0 7886.0 0.0 89825.0 97983.0 148040.0 151053.0 108204.0 108174.0 212741.0 215419.0 91752.0 96329.0 128439.0 126887.0 55059.0 57166.0 137906.0 142293.0 126678.0 128497.0 138787.0 140555.0 14403.0 22673.0 236944.0 243425.0 97035.0 89082.0 138926.0 144489.0 42499.0 39737.0 170813.0 163424.0 73564.0 70756.0 16862.0 19185.0 150270.0 142548.0 181330.0 181224.0 24220.0 15813.0 133227.0 124998.0 166803.0 167873.0 242281.0 242063.0 157743.0 152660.0 131823.0 123851.0 74956.0 69617.0 85119.0 85853.0 17644.0 10701.0 158837.0 162571.0 112277.0 120038.0 57709.0 65220.0 151810.0 153213.0 153698.0 152708.0 211943.0 203731.0 38559.0 37448.0 148365.0 105378.0 148365.0 148365.0 148365.0 148365.0 105378.0 105378.0 105378.0 105378.0
186136.0 180761.0 42378.0 42846.0 142294.0 135516.0 92717.0 89825.0 0.0 8189.0 194242.0 200095.0 179767.0 182608.0 271476.0 272075.0 132150.0 130985.0 198634.0 199627.0 67283.0 74179.0 129391.0 128508.0 187772.0 185991.0 69095.0 75039.0 81884.0 76242.0 290742.0 297595.0 37055.0 36220.0 54323.0 57979.0 113800.0 116834.0 237982.0 231847.0 110632.0 114893.0 90895.0 82664.0 222718.0 215523.0 94774.0 96343.0 69702.0 76773.0 47332.0 40095.0 79916.0 79698.0 298954.0 297014.0 192552.0 190969.0 50482.0 43191.0 15109.0 20587.0 148900.0 153676.0 98744.0 91999.0 201607.0 201857.0 62600.0 69503.0 45453.0 39434.0 209095.0 207299.0 68233.0 69524.0 265625.0 257458.0 60659.0 67994.0 78028.0 143376.0 78028.0 78028.0 78028.0 78028.0 143376.0 143376.0 143376.0 143376.0
193683.0 188406.0 48055.0 47388.0 150328.0 143600.0 100906.0 97983.0 8189.0 0.0 200588.0 206428.0 186718.0 189724.0 278116.0 278582.0 137652.0 136119.0 206120.0 207229.0 74321.0 81086.0 130952.0 129565.0 194005.0 191993.0 64579.0 71051.0 90064.0 84370.0 297189.0 304042.0 37247.0 38178.0 48052.0 51062.0 121735.0 124879.0 245203.0 239151.0 117336.0 121857.0 99050.0 90803.0 230250.0 223097.0 87544.0 89479.0 77641.0 84816.0 39973.0 33181.0 72686.0 72127.0 305394.0 303461.0 196852.0 195552.0 45297.0 38573.0 23127.0 28758.0 156329.0 161242.0 106914.0 100185.0 206437.0 206420.0 61940.0 68249.0 52090.0 45512.0 214935.0 212921.0 61479.0 63339.0 272073.0 263906.0 68619.0 75854.0 74759.0 149722.0 74759.0 74759.0 74759.0 74759.0 149722.0 149722.0 149722.0 149722.0
61164.0 67063.0 199880.0 207605.0 100857.0 107468.0 140161.0 148040.0 194242.0 200588.0 0.0 8101.0 225985.0 221523.0 80262.0 79626.0 236271.0 242040.0 59167.0 66595.0 128155.0 120973.0 285277.0 289077.0 252875.0 257797.0 262108.0 266947.0 140106.0 137987.0 98138.0 104990.0 222533.0 216497.0 215692.0 223384.0 105975.0 110725.0 65726.0 65027.0 84639.0 82530.0 132163.0 135041.0 71600.0 70555.0 253357.0 249860.0 166334.0 160182.0 240124.0 233752.0 241895.0 246434.0 106350.0 104410.0 298423.0 292058.0 205971.0 200237.0 186149.0 178163.0 65785.0 68955.0 130631.0 137464.0 295181.0 300610.0 245421.0 253571.0 191889.0 196460.0 277659.0 281835.0 228258.0 223401.0 73021.0 64854.0 142895.0 135177.0 209336.0 50865.0 209336.0 209336.0 209336.0 209336.0 50865.0 50865.0 50865.0 50865.0
57972.0 64480.0 204571.0 212361.0 101394.0 108390.0 143167.0 151053.0 200095.0 206428.0 8101.0 0.0 225664.0 220973.0 72997.0 72546.0 238179.0 244127.0 54433.0 61902.0 133698.0 126545.0 288688.0 292670.0 252893.0 258021.0 267753.0 272446.0 143739.0 142035.0 91057.0 97910.0 227837.0 221653.0 221548.0 229241.0 108701.0 112995.0 57816.0 57412.0 90016.0 87349.0 135497.0 138797.0 64916.0 64434.0 259213.0 255716.0 170064.0 163664.0 245980.0 239580.0 247751.0 252290.0 99269.0 97329.0 299570.0 293070.0 211828.0 206094.0 191747.0 183750.0 67343.0 69619.0 133515.0 140576.0 295847.0 301436.0 250407.0 258568.0 196438.0 201228.0 277480.0 281856.0 234114.0 229257.0 65941.0 57773.0 147745.0 139944.0 215192.0 57106.0 215192.0 215192.0 215192.0 215192.0 57106.0 57106.0 57106.0 57106.0
171603.0 163834.0 139897.0 143425.0 125767.0 120344.0 112428.0 108204.0 179767.0 186718.0 225985.0 225664.0 0.0 7817.0 266261.0 271398.0 64975.0 72160.0 181263.0 175634.0 163251.0 165194.0 134319.0 142309.0 28841.0 35963.0 196765.0 193964.0 122591.0 130857.0 296224.0 300743.0 165878.0 158809.0 233958.0 237705.0 132499.0 124969.0 218418.0 210441.0 173765.0 168274.0 121861.0 127005.0 193009.0 186279.0 274225.0 276102.0 115278.0 111712.0 209735.0 201877.0 259380.0 258383.0 295078.0 297614.0 87051.0 79047.0 229004.0 221158.0 165466.0 163810.0 161878.0 157355.0 116555.0 115563.0 76466.0 83788.0 164309.0 168583.0 134667.0 141687.0 51939.0 57028.0 247999.0 249007.0 273976.0 265944.0 145388.0 145503.0 250760.0 197841.0 250760.0 250760.0 250760.0 250760.0 197841.0 197841.0 197841.0 197841.0
166291.0 158592.0 143417.0 147287.0 121832.0 116784.0 111915.0 108174.0 182608.0 189724.0 221523.0 220973.0 7817.0 0.0 260155.0 265391.0 71548.0 78927.0 175665.0 169888.0 163193.0 164805.0 141498.0 149449.0 35717.0 43197.0 201947.0 199369.0 122483.0 130841.0 290298.0 294704.0 170101.0 162880.0 236631.0 240587.0 130159.0 122501.0 212268.0 204314.0 171739.0 165996.0 121126.0 126678.0 186814.0 180186.0 277267.0 278932.0 116838.0 112764.0 213864.0 205924.0 262408.0 261615.0 288839.0 291498.0 94623.0 86590.0 231411.0 223518.0 168115.0 166110.0 157971.0 153169.0 115424.0 114972.0 83598.0 91043.0 169489.0 173997.0 137815.0 145022.0 57469.0 63110.0 250805.0 251591.0 268275.0 260285.0 145921.0 145608.0 252484.0 194778.0 252484.0 252484.0 252484.0 252484.0 194778.0 194778.0 194778.0 194778.0
99379.0 107286.0 272044.0 280003.0 154361.0 162617.0 205066.0 212741.0 271476.0 278116.0 80262.0 72997.0 266261.0 260155.0 0.0 7469.0 292257.0 299086.0 87382.0 91704.0 204393.0 197370.0 349924.0 354745.0 294950.0 301337.0 338063.0 342297.0 208159.0 208051.0 31693.0 34728.0 297244.0 290614.0 293541.0 301234.0 170819.0 173031.0 47916.0 55842.0 160844.0 156959.0 198974.0 203807.0 73415.0 79983.0 331206.0 327709.0 234303.0 227017.0 317839.0 311295.0 319745.0 324283.0 29764.0 31355.0 348007.0 340770.0 283821.0 278087.0 262205.0 254222.0 128290.0 126889.0 195225.0 202998.0 341256.0 347795.0 318623.0 326778.0 263473.0 269008.0 317559.0 323215.0 306107.0 301250.0 22567.0 22884.0 216361.0 208408.0 287186.0 129679.0 287186.0 287186.0 287186.0 287186.0 129679.0 129679.0 129679.0 129679.0
103180.0 111144.0 273790.0 281720.0 157845.0 166022.0 207687.0 215419.0 272075.0 278582.0 79626.0 72546.0 271398.0 265391.0 7469.0 0.0 296130.0 302866.0 91543.0 96258.0 205189.0 198112.0 352914.0 357605.0 300024.0 306314.0 339094.0 343477.0 210384.0 209986.0 25269.0 29390.0 298528.0 292015.0 293750.0 301443.0 173270.0 175787.0 53519.0 61291.0 161520.0 157964.0 201329.0 205916.0 78967.0 85255.0 331415.0 327918.0 236624.0 229471.0 318181.0 311760.0 319954.0 324492.0 27124.0 26905.0 352576.0 345403.0 284030.0 278296.0 263139.0 255145.0 130593.0 129627.0 197840.0 205533.0 346107.0 352566.0 320239.0 328402.0 265305.0 270680.0 322836.0 328395.0 306316.0 301459.0 16121.0 18508.0 217757.0 209826.0 287395.0 129575.0 287395.0 287395.0 287395.0 287395.0 129575.0 129575.0 129575.0 129575.0
192957.0 185008.0 89780.0 90605.0 138700.0 130839.0 99079.0 91752.0 132150.0 137652.0 236271.0 238179.0 64975.0 71548.0 292257.0 296130.0 0.0 8039.0 204904.0 201089.0 139229.0 143728.0 71470.0 79108.0 59648.0 55811.0 134949.0 131286.0 104006.0 110206.0 319479.0 325198.0 109642.0 103798.0 185640.0 187928.0 131010.0 125627.0 246316.0 238364.0 165291.0 162412.0 108608.0 109519.0 222378.0 214835.0 222768.0 225931.0 84070.0 85473.0 152960.0 145729.0 208244.0 206012.0 321983.0 323027.0 66812.0 62750.0 182608.0 175321.0 120008.0 121058.0 170836.0 169198.0 107522.0 102250.0 71331.0 73343.0 102900.0 106099.0 87809.0 92802.0 77729.0 75296.0 198489.0 200924.0 295263.0 286984.0 118329.0 121945.0 208797.0 196710.0 208797.0 208797.0 208797.0 208797.0 196710.0 196710.0 196710.0 196710.0
199731.0 191804.0 88671.0 88788.0 145222.0 137261.0 103835.0 96329.0 130985.0 136119.0 242040.0 244127.0 72160.0 78927.0 299086.0 302866.0 8039.0 0.0 211784.0 208095.0 141984.0 146772.0 63517.0 71208.0 64648.0 60035.0 129925.0 125924.0 108040.0 113856.0 326073.0 331870.0 106611.0 101181.0 183925.0 185898.0 136437.0 131316.0 253354.0 245421.0 169662.0 167085.0 113179.0 113578.0 229558.0 221987.0 220236.0 223661.0 86845.0 88956.0 149449.0 142429.0 205834.0 203340.0 328830.0 329770.0 64390.0 61216.0 181297.0 174164.0 119440.0 121017.0 176810.0 175412.0 112568.0 106941.0 70908.0 72035.0 98211.0 100936.0 87511.0 91927.0 80873.0 77705.0 196465.0 199182.0 301753.0 293472.0 120958.0 125006.0 208225.0 201614.0 208225.0 208225.0 208225.0 208225.0 201614.0 201614.0 201614.0 201614.0
13010.0 20324.0 191607.0 199627.0 67821.0 76222.0 121110.0 128439.0 198634.0 206120.0 59167.0 54433.0 181263.0 175665.0 87382.0 91543.0 204904.0 211784.0 0.0 7469.0 132361.0 126157.0 263911.0 269076.0 209604.0 215606.0 261108.0 264361.0 126127.0 127688.0 115679.0 120850.0 219204.0 211943.0 229535.0 237039.0 88498.0 89026.0 42452.0 34985.0 93172.0 86621.0 116437.0 122522.0 24302.0 17897.0 268373.0 264880.0 151355.0 143531.0 245964.0 238616.0 256564.0 260661.0 117085.0 118355.0 261140.0 254031.0 219994.0 213615.0 187124.0 179416.0 49849.0 45140.0 111451.0 119478.0 255067.0 261379.0 238390.0 246431.0 182675.0 189031.0 233074.0 238263.0 242769.0 238309.0 92764.0 84692.0 139277.0 131442.0 224357.0 75676.0 224357.0 224357.0 224357.0 224357.0 75676.0 75676.0 75676.0 75676.0
13949.0 19050.0 191007.0 199014.0 65473.0 73906.0 119742.0 126887.0 199627.0 207229.0 66595.0 61902.0 175634.0 169888.0 91704.0 96258.0 201089.0 208095.0 7469.0 0.0 133946.0 127956.0 261246.0 266575.0 204104.0 210243.0 261103.0 264142.0 125406.0 127453.0 120759.0 125641.0 219084.0 211704.0 232024.0 239461.0 88054.0 87918.0 45282.0 37412.0 96065.0 89183.0 115624.0 122060.0 23540.0 15995.0 271326.0 267889.0 150185.0 142212.0 246947.0 239483.0 259284.0 263212.0 121241.0 122907.0 256346.0 249151.0 222555.0 216023.0 187750.0 180135.0 51665.0 46017.0 110225.0 118289.0 249903.0 256321.0 237701.0 245695.0 182013.0 188560.0 227343.0 232661.0 245447.0 241166.0 98389.0 90427.0 139772.0 132028.0 227389.0 80817.0 227389.0 227389.0 227389.0 227389.0 80817.0 80817.0 80817.0 80817.0
120192.0 115438.0 74663.0 81786.0 83051.0 78186.0 51677.0 55059.0 67283.0 74321.0 128155.0 133698.0 163251.0 163193.0 204393.0 205189.0 139229.0 141984.0 132361.0 133946.0 0.0 7195.0 167773.0 169878.0 180850.0 182069.0 134060.0 138795.0 40710.0 32395.0 224007.0 230860.0 94520.0 88819.0 100102.0 107135.0 53755.0 59442.0 170915.0 164947.0 43716.0 47612.0 43495.0 36729.0 156612.0 149642.0 141490.0 139481.0 55182.0 54517.0 114292.0 107335.0 128212.0 131236.0 232167.0 230279.0 206003.0 201881.0 91176.0 83940.0 58050.0 50053.0 82518.0 87993.0 50910.0 48880.0 209484.0 212307.0 118136.0 126214.0 68031.0 70823.0 205647.0 206472.0 114334.0 111259.0 198891.0 190723.0 21083.0 17962.0 100929.0 77703.0 100929.0 100929.0 100929.0 100929.0 77703.0 77703.0 77703.0 77703.0
114135.0 109611.0 81577.0 88782.0 79175.0 74870.0 52894.0 57166.0 74179.0 81086.0 120973.0 126545.0 165194.0 164805.0 197370.0 198112.0 143728.0 146772.0 126157.0 127956.0 7195.0 0.0 174177.0 176425.0 183676.0 185186.0 141209.0 145974.0 42786.0 34878.0 216900.0 223753.0 101715.0 95995.0 105052.0 112240.0 50259.0 56551.0 164308.0 158438.0 36602.0 40772.0 43972.0 38190.0 150441.0 143558.0 145972.0 143640.0 59959.0 58454.0 121035.0 114174.0 132974.0 136267.0 225074.0 223172.0 210540.0 206228.0 95921.0 88899.0 65205.0 57210.0 76377.0 82130.0 50772.0 49879.0 213531.0 216563.0 125291.0 133376.0 74758.0 77777.0 208660.0 209736.0 119072.0 115665.0 191783.0 183616.0 26627.0 21785.0 104309.0 70508.0 104309.0 104309.0 104309.0 104309.0 70508.0 70508.0 70508.0 70508.0
251233.0 243592.0 95494.0 90336.0 196092.0 187703.0 145758.0 137906.0 129391.0 130952.0 285277.0 288688.0 134319.0 141498.0 349924.0 352914.0 71470.0 63517.0 263911.0 261246.0 167773.0 174177.0 0.0 8160.0 120518.0 113709.0 94859.0 88005.0 145212.0 148065.0 374779.0 381173.0 93910.0 93191.0 172827.0 172087.0 180401.0 177226.0 306275.0 298565.0 204914.0 204542.0 153194.0 150382.0 283841.0 276118.0 200376.0 205794.0 119189.0 125095.0 126134.0 121726.0 187695.0 183164.0 379601.0 379670.0 86211.0 89417.0 173638.0 168266.0 124073.0 129324.0 222995.0 223325.0 155548.0 148208.0 102427.0 98245.0 72234.0 69452.0 100339.0 99617.0 128083.0 122015.0 182031.0 186885.0 349823.0 341599.0 147839.0 154339.0 205338.0 239442.0 205338.0 205338.0 205338.0 205338.0 239442.0 239442.0 239442.0 239442.0
256330.0 248752.0 96566.0 90893.0 201270.0 192857.0 150101.0 142293.0 128508.0 129565.0 289077.0 292670.0 142309.0 149449.0 354745.0 357605.0 79108.0 71208.0 269076.0 266575.0 169878.0 176425.0 8160.0 0.0 128678.0 121866.0 89906.0 82753.0 148979.0 151435.0 379233.0 385713.0 92337.0 92319.0 170135.0 169050.0 184722.0 181823.0 311489.0 303827.0 207944.0 207863.0 157226.0 154046.0 289312.0 281576.0 196359.0 201997.0 122763.0 129011.0 122346.0 118369.0 183978.0 179218.0 384376.0 384306.0 93535.0 97009.0 171387.0 166296.0 124112.0 129740.0 227406.0 227978.0 159928.0 152445.0 110016.0 105619.0 69428.0 65831.0 102023.0 100666.0 136112.0 129977.0 178831.0 183923.0 354211.0 346009.0 150308.0 157033.0 203519.0 242642.0 203519.0 203519.0 203519.0 203519.0 242642.0 242642.0 242642.0 242642.0
199675.0 191841.0 146027.0 148080.0 152154.0 146171.0 132035.0 126678.0 187772.0 194005.0 252875.0 252893.0 28841.0 35717.0 294950.0 300024.0 59648.0 64648.0 209604.0 204104.0 180850.0 183676.0 120518.0 128678.0 0.0 8242.0 194468.0 190567.0 140952.0 148817.0 324789.0 329386.0 168528.0 162253.0 241989.0 244918.0 155956.0 148764.0 247138.0 239151.0 196200.0 191302.0 141837.0 145856.0 221755.0 214976.0 280552.0 283232.0 129005.0 127087.0 212165.0 204757.0 265860.0 264074.0 323832.0 326304.0 60045.0 51929.0 238053.0 230449.0 174405.0 174023.0 188052.0 183986.0 137575.0 135301.0 47928.0 55494.0 162524.0 165527.0 142375.0 148505.0 25501.0 28965.0 255415.0 257246.0 302363.0 294295.0 161564.0 162890.0 262112.0 222342.0 262112.0 262112.0 262112.0 262112.0 222342.0 222342.0 222342.0 222342.0
205448.0 197569.0 143940.0 145569.0 156957.0 150713.0 134199.0 128497.0 185991.0 191993.0 257797.0 258021.0 35963.0 43197.0 301337.0 306314.0 55811.0 60035.0 215606.0 210243.0 182069.0 185186.0 113709.0 121866.0 8242.0 0.0 189927.0 185773.0 142631.0 150312.0 330990.0 335693.0 165357.0 159327.0 240039.0 242729.0 159424.0 152400.0 253594.0 245590.0 199128.0 194482.0 144067.0 147672.0 228269.0 221406.0 278041.0 280939.0 129285.0 127898.0 208765.0 201500.0 263419.0 261419.0 330333.0 332687.0 51925.0 43817.0 236407.0 228894.0 172953.0 172946.0 192661.0 188847.0 140201.0 137489.0 40510.0 47852.0 158238.0 160912.0 140761.0 146594.0 23734.0 24880.0 253260.0 255320.0 308365.0 300263.0 162398.0 164117.0 261115.0 226086.0 261115.0 261115.0 261115.0 261115.0 226086.0 226086.0 226086.0 226086.0
248236.0 242054.0 72048.0 64525.0 198996.0 191203.0 144416.0 138787.0 69095.0 64579.0 262108.0 267753.0 196765.0 201947.0 338063.0 339094.0 134949.0 129925.0 261108.0 261103.0 134060.0 141209.0 94859.0 89906.0 194468.0 189927.0 0.0 8154.0 136481.0 133682.0 358019.0 364872.0 42128.0 49836.0 88493.0 85241.0 173112.0 174148.0 301996.0 295371.0 177769.0 181142.0 146330.0 139275.0 284592.0 277094.0 107640.0 113908.0 114638.0 123078.0 36668.0 36621.0 96383.0 90860.0 366126.0 364291.0 177340.0 178732.0 92809.0 90303.0 76012.0 84010.0 212347.0 216038.0 152874.0 144985.0 191327.0 188784.0 32461.0 29047.0 81084.0 73642.0 209770.0 205488.0 93744.0 99999.0 332903.0 324736.0 122274.0 130228.0 125530.0 211398.0 125530.0 125530.0 125530.0 125530.0 211398.0 211398.0 211398.0 211398.0
251439.0 245105.0 73855.0 66061.0 201375.0 193460.0 146482.0 140555.0 75039.0 71051.0 266947.0 272446.0 193964.0 199369.0 342297.0 343477.0 131286.0 125924.0 264361.0 264142.0 138795.0 145974.0 88005.0 82753.0 190567.0 185773.0 8154.0 0.0 139057.0 136710.0 362530.0 369383.0 45225.0 52439.0 96581.0 93385.0 176089.0 176780.0 305534.0 298801.0 182431.0 185530.0 148912.0 142112.0 287666.0 280117.0 115542.0 121896.0 116337.0 124765.0 44792.0 44431.0 104437.0 98839.0 370547.0 368768.0 171420.0 173073.0 100765.0 98094.0 80842.0 88809.0 215947.0 219392.0 155194.0 147226.0 185767.0 182986.0 30605.0 25382.0 82953.0 75846.0 205151.0 200649.0 101896.0 108150.0 337413.0 329246.0 126094.0 134062.0 133371.0 216364.0 133371.0 133371.0 133371.0 133371.0 216364.0 216364.0 216364.0 216364.0
113124.0 106441.0 65608.0 73610.0 62577.0 54987.0 12021.0 14403.0 81884.0 90064.0 140106.0 143739.0 122591.0 122483.0 208159.0 210384.0 104006.0 108040.0 126127.0 125406.0 40710.0 42786.0 145212.0 148979.0 140952.0 142631.0 136481.0 139057.0 0.0 8448.0 231080.0 237814.0 94355.0 86724.0 128347.0 134294.0 37719.0 37723.0 168054.0 160961.0 61822.0 60056.0 9856.0 5542.0 148945.0 141325.0 170813.0 170256.0 26366.0 20250.0 127224.0 119161.0 156497.0 158032.0 237423.0 236758.0 170481.0 165656.0 120770.0 112872.0 67615.0 61308.0 79869.0 81903.0 16972.0 10343.0 172235.0 175727.0 112307.0 120323.0 56607.0 63258.0 166019.0 167285.0 143121.0 141648.0 205963.0 197796.0 25589.0 23314.0 135822.0 95068.0 135822.0 135822.0 135822.0 135822.0 95068.0 95068.0 95068.0 95068.0
114746.0 108408.0 64211.0 72221.0 66473.0 59384.0 20213.0 22673.0 76242.0 84370.0 137987.0 142035.0 130857.0 130841.0 208051.0 209986.0 110206.0 113856.0 127688.0 127453.0 32395.0 34878.0 148065.0 151435.0 148817.0 150312.0 133682.0 136710.0 8448.0 0.0 230159.0 236999.0 91633.0 84275.0 121111.0 127232.0 39431.0 41062.0 169167.0 162274.0 57251.0 56477.0 14913.0 6503.0 150966.0 143437.0 163547.0 162785.0 29023.0 24939.0 122387.0 114454.0 149346.0 151102.0 237087.0 236140.0 176901.0 172283.0 113325.0 105477.0 62483.0 55692.0 80042.0 82873.0 23057.0 18022.0 179186.0 182472.0 111007.0 119115.0 55480.0 61440.0 173782.0 174884.0 135862.0 134167.0 205042.0 196848.0 17702.0 14868.0 127741.0 91411.0 127741.0 127741.0 127741.0 127741.0 91411.0 91411.0 91411.0 91411.0
126844.0 134839.0 293553.0 301433.0 180856.0 188892.0 229133.0 236944.0 290742.0 297189.0 98138.0 91057.0 296224.0 290298.0 31693.0 25269.0 319479.0 326073.0 115679.0 120759.0 224007.0 216900.0 374779.0 379233.0 324789.0 330990.0 358019.0 362530.0 231080.0 230159.0 0.0 8022.0 317703.0 311321.0 312314.0 320006.0 194528.0 197574.0 78747.0 86463.0 180298.0 177025.0 222302.0 226402.0 104152.0 110307.0 349978.0 346482.0 257429.0 250549.0 336741.0 330362.0 338517.0 343055.0 18761.0 11333.0 376808.0 369709.0 302593.0 296859.0 282022.0 274024.0 151827.0 151608.0 219305.0 226827.0 370649.0 377022.0 339782.0 347949.0 285205.0 290344.0 347760.0 353243.0 324880.0 320022.0 25228.0 33284.0 237138.0 229245.0 305958.0 149265.0 305958.0 305958.0 305958.0 305958.0 149265.0 149265.0 149265.0 149265.0
132327.0 140309.0 300388.0 308258.0 186716.0 194823.0 235638.0 243425.0 297595.0 304042.0 104990.0 97910.0 300743.0 294704.0 34728.0 29390.0 325198.0 331870.0 120850.0 125641.0 230860.0 223753.0 381173.0 385713.0 329386.0 335693.0 364872.0 369383.0 237814.0 236999.0 8022.0 0.0 324556.0 318174.0 319167.0 326859.0 201076.0 203947.0 82585.0 90459.0 187151.0 183878.0 228952.0 233193.0 108085.0 114526.0 356831.0 353335.0 264143.0 257179.0 343594.0 337215.0 345370.0 349908.0 13501.0 5638.0 381939.0 374777.0 309446.0 303712.0 288875.0 280876.0 158349.0 157880.0 225799.0 233380.0 375496.0 381954.0 346555.0 354722.0 292054.0 297161.0 352135.0 357730.0 331733.0 326875.0 32458.0 40238.0 243990.0 236097.0 312811.0 156118.0 312811.0 312811.0 312811.0 312811.0 156118.0 156118.0 156118.0 156118.0
206301.0 200038.0 30803.0 24159.0 156885.0 149123.0 102445.0 97035.0 37055.0 37247.0 222533.0 227837.0 165878.0 170101.0 297244.0 298528.0 109642.0 106611.0 219204.0 219084.0 94520.0 101715.0 93910.0 92337.0 168528.0 165357.0 42128.0 45225.0 94355.0 91633.0 317703.0 324556.0 0.0 8087.0 80421.0 80991.0 131055.0 132021.0 260314.0 253597.0 137900.0 140681.0 104204.0 97169.0 242591.0 235070.0 113870.0 117745.0 73040.0 81452.0 43899.0 36255.0 99703.0 96841.0 325621.0 323969.0 163862.0 163374.0 80163.0 74456.0 37620.0 45250.0 170722.0 174199.0 110790.0 102932.0 174946.0 174109.0 25702.0 33062.0 39571.0 31833.0 187272.0 184315.0 91436.0 95213.0 292587.0 284419.0 80930.0 88896.0 111434.0 172222.0 111434.0 111434.0 111434.0 111434.0 172222.0 172222.0 172222.0 172222.0
199013.0 192666.0 22718.0 16199.0 149187.0 141372.0 94594.0 89082.0 36220.0 38178.0 216497.0 221653.0 158809.0 162880.0 290614.0 292015.0 103798.0 101181.0 211943.0 211704.0 88819.0 95995.0 93191.0 92319.0 162253.0 159327.0 49836.0 52439.0 86724.0 84275.0 311321.0 318174.0 8087.0 0.0 83872.0 85112.0 123651.0 124431.0 253215.0 246432.0 131874.0 134365.0 96580.0 89686.0 235227.0 227680.0 119062.0 122537.0 65037.0 73459.0 50989.0 43068.0 104659.0 102227.0 319126.0 317593.0 159847.0 159012.0 82718.0 76485.0 33572.0 40667.0 163701.0 167012.0 103046.0 95150.0 170335.0 169815.0 29516.0 37479.0 31524.0 23863.0 181523.0 178807.0 95650.0 98929.0 286205.0 278038.0 74264.0 82209.0 112936.0 166420.0 112936.0 112936.0 112936.0 112936.0 166420.0 166420.0 166420.0 166420.0
218090.0 214127.0 96106.0 95145.0 182787.0 177298.0 140140.0 138926.0 54323.0 48052.0 215692.0 221548.0 233958.0 236631.0 293541.0 293750.0 185640.0 183925.0 229535.0 232024.0 100102.0 105052.0 172827.0 170135.0 241989.0 240039.0 88493.0 96581.0 128347.0 121111.0 312314.0 319167.0 80421.0 83872.0 0.0 7799.0 153376.0 158254.0 264960.0 259908.0 136469.0 142929.0 135934.0 127539.0 253787.0 247265.0 42468.0 42582.0 121746.0 127889.0 51870.0 52973.0 28321.0 31237.0 320526.0 318586.0 243715.0 242774.0 9783.0 16165.0 68519.0 71040.0 180409.0 186705.0 144121.0 138676.0 253912.0 253603.0 100725.0 104752.0 99767.0 93490.0 262985.0 260928.0 14782.0 15289.0 287197.0 279030.0 103548.0 108971.0 40422.0 164826.0 40422.0 40422.0 40422.0 40422.0 164826.0 164826.0 164826.0 164826.0
225534.0 221494.0 98891.0 97325.0 189591.0 183966.0 145993.0 144489.0 57979.0 51062.0 223384.0 229241.0 237705.0 240587.0 301234.0 301443.0 187928.0 185898.0 237039.0 239461.0 107135.0 112240.0 172087.0 169050.0 244918.0 242729.0 85241.0 93385.0 134294.0 127232.0 320006.0 326859.0 80991.0 85112.0 7799.0 0.0 160185.0 164908.0 272629.0 267542.0 144028.0 150421.0 142105.0 133693.0 261304.0 254747.0 37042.0 38419.0 126578.0 132988.0 48634.0 50905.0 22332.0 24133.0 328218.0 326278.0 244788.0 244103.0 17574.0 23438.0 72648.0 75833.0 187823.0 194051.0 150280.0 144636.0 255443.0 254889.0 99853.0 103332.0 103142.0 96522.0 265488.0 263211.0 10567.0 14943.0 294890.0 286722.0 109776.0 115436.0 47048.0 172518.0 47048.0 47048.0 47048.0 47048.0 172518.0 172518.0 172518.0 172518.0
75511.0 69021.0 103110.0 111129.0 29411.0 24618.0 34643.0 42499.0 113800.0 121735.0 105975.0 108701.0 132499.0 130159.0 170819.0 173270.0 131010.0 136437.0 88498.0 88054.0 53755.0 50259.0 180401.0 184722.0 155956.0 159424.0 173112.0 176089.0 37719.0 39431.0 194528.0 201076.0 131055.0 123651.0 153376.0 160185.0 0.0 7909.0 130338.0 123272.0 41911.0 35838.0 28224.0 34038.0 111581.0 104029.0 195101.0 193219.0 63535.0 56208.0 160723.0 152968.0 181619.0 184317.0 200227.0 199815.0 195047.0 189233.0 144670.0 137259.0 100899.0 93617.0 42728.0 44219.0 24870.0 32305.0 193841.0 198490.0 149895.0 157943.0 94182.0 100563.0 181445.0 184239.0 167786.0 164933.0 169490.0 161291.0 53143.0 45961.0 154464.0 66901.0 154464.0 154464.0 154464.0 154464.0 66901.0 66901.0 66901.0 66901.0
76024.0 69063.0 103263.0 111247.0 25472.0 19060.0 32180.0 39737.0 116834.0 124879.0 110725.0 112995.0 124969.0 122501.0 173031.0 175787.0 125627.0 131316.0 89026.0 87918.0 59442.0 56551.0 177226.0 181823.0 148764.0 152400.0 174148.0 176780.0 37723.0 41062.0 197574.0 203947.0 132021.0 124431.0 158254.0 164908.0 7909.0 0.0 131280.0 123991.0 49787.0 43570.0 27871.0 35031.0 111433.0 103773.0 200230.0 198592.0 62337.0 54523.0 163354.0 155466.0 186555.0 189016.0 202601.0 202486.0 188966.0 183005.0 149737.0 142204.0 103427.0 96417.0 46009.0 46165.0 22438.0 30451.0 187310.0 192115.0 149848.0 157815.0 94223.0 100975.0 174232.0 177170.0 172779.0 170180.0 172679.0 164437.0 56386.0 49750.0 160365.0 73696.0 160365.0 160365.0 160365.0 160365.0 73696.0 73696.0 73696.0 73696.0
55350.0 62761.0 233306.0 241327.0 110220.0 118635.0 163424.0 170813.0 237982.0 245203.0 65726.0 57816.0 218418.0 212268.0 47916.0 53519.0 246316.0 253354.0 42452.0 45282.0 170915.0 164308.0 306275.0 311489.0 247138.0 253594.0 301996.0 305534.0 168054.0 169167.0 78747.0 82585.0 260314.0 253215.0 264960.0 272629.0 130338.0 131280.0 0.0 8032.0 129176.0 123686.0 158455.0 164240.0 25501.0 32199.0 302650.0 299153.0 193542.0 185802.0 285172.0 278075.0 291188.0 295721.0 76763.0 79236.0 300701.0 293381.0 255254.0 249386.0 227193.0 219354.0 89653.0 86300.0 153717.0 161714.0 293615.0 300235.0 280120.0 288200.0 224445.0 230605.0 269657.0 275344.0 277514.0 272694.0 59713.0 52958.0 179769.0 171840.0 258629.0 104040.0 258629.0 258629.0 258629.0 258629.0 104040.0 104040.0 104040.0 104040.0
47970.0 55209.0 226336.0 234358.0 102577.0 111003.0 156091.0 163424.0 231847.0 239151.0 65027.0 57412.0 210441.0 204314.0 55842.0 61291.0 238364.0 245421.0 34985.0 37412.0 164947.0 158438.0 298565.0 303827.0 239151.0 245590.0 295371.0 298801.0 160961.0 162274.0 86463.0 90459.0 253597.0 246432.0 259908.0 267542.0 123272.0 123991.0 8032.0 0.0 123744.0 117987.0 151313.0 157244.0 17690.0 24186.0 297740.0 294243.0 186305.0 178505.0 279102.0 271925.0 286282.0 290784.0 84784.0 87184.0 292669.0 285350.0 250235.0 244233.0 220828.0 213027.0 83154.0 79422.0 146422.0 154441.0 285598.0 292212.0 273142.0 281204.0 217440.0 223691.0 261718.0 267381.0 272641.0 267744.0 66740.0 59666.0 173238.0 165333.0 253719.0 100037.0 253719.0 253719.0 253719.0 253719.0 100037.0 100037.0 100037.0 100037.0
82126.0 78999.0 115828.0 123411.0 62399.0 61999.0 66473.0 73564.0 110632.0 117336.0 84639.0 90016.0 173765.0 171739.0 160844.0 161520.0 165291.0 169662.0 93172.0 96065.0 43716.0 36602.0 204914.0 207944.0 196200.0 199128.0 177769.0 182431.0 61822.0 57251.0 180298.0 187151.0 137900.0 131874.0 136469.0 144028.0 41911.0 49787.0 129176.0 123744.0 0.0 8000.0 56746.0 56292.0 117369.0 110986.0 175277.0 171836.0 86251.0 81746.0 157177.0 150500.0 163392.0 167538.0 188473.0 186570.0 231239.0 226010.0 126882.0 120644.0 101758.0 93759.0 45165.0 52424.0 59143.0 63223.0 231704.0 235760.0 160889.0 169027.0 108191.0 112272.0 221688.0 224008.0 149603.0 145159.0 155182.0 147014.0 58783.0 51361.0 131325.0 34986.0 131325.0 131325.0 131325.0 131325.0 34986.0 34986.0 34986.0 34986.0
75235.0 71755.0 117351.0 125088.0 54637.0 54598.0 63333.0 70756.0 114893.0 121857.0 82530.0 87349.0 168274.0 165996.0 156959.0 157964.0 162412.0 167085.0 86621.0 89183.0 47612.0 40772.0 204542.0 207863.0 191302.0 194482.0 181142.0 185530.0 60056.0 56477.0 177025.0 183878.0 140681.0 134365.0 142929.0 150421.0 35838.0 43570.0 123686.0 117987.0 8000.0 0.0 53912.0 54624.0 110896.0 104336.0 182199.0 178924.0 85421.0 80259.0 161807.0 154927.0 170102.0 174081.0 185021.0 183289.0 227905.0 222481.0 133415.0 126994.0 105246.0 97264.0 37848.0 44864.0 55279.0 60173.0 227808.0 232075.0 163058.0 171219.0 109386.0 113945.0 216803.0 219348.0 156269.0 152002.0 151909.0 143742.0 60409.0 52652.0 138409.0 35028.0 138409.0 138409.0 138409.0 138409.0 35028.0 35028.0 35028.0 35028.0
103429.0 96681.0 75421.0 83416.0 52769.0 45272.0 9904.0 16862.0 90895.0 99050.0 132163.0 135497.0 121861.0 121126.0 198974.0 201329.0 108608.0 113179.0 116437.0 115624.0 43495.0 43972.0 153194.0 157226.0 141837.0 144067.0 146330.0 148912.0 9856.0 14913.0 222302.0 228952.0 104204.0 96580.0 135934.0 142105.0 28224.0 27871.0 158455.0 151313.0 56746.0 53912.0 0.0 8419.0 139159.0 131528.0 178349.0 177482.0 35332.0 28258.0 136650.0 128633.0 164192.0 165996.0 228326.0 227796.0 174503.0 169336.0 128055.0 120238.0 76874.0 70312.0 70737.0 72439.0 8190.0 6601.0 175296.0 179171.0 122078.0 130076.0 66401.0 73105.0 167152.0 168882.0 150672.0 148867.0 197202.0 189030.0 32398.0 28001.0 141771.0 88619.0 141771.0 141771.0 141771.0 141771.0 88619.0 88619.0 88619.0 88619.0
109542.0 103039.0 69095.0 77116.0 60333.0 53101.0 14951.0 19185.0 82664.0 90803.0 135041.0 138797.0 127005.0 126678.0 203807.0 205916.0 109519.0 113578.0 122522.0 122060.0 36729.0 38190.0 150382.0 154046.0 145856.0 147672.0 139275.0 142112.0 5542.0 6503.0 226402.0 233193.0 97169.0 89686.0 127539.0 133693.0 34038.0 35031.0 164240.0 157244.0 56292.0 54624.0 8419.0 0.0 145595.0 138022.0 169963.0 169141.0 31293.0 25634.0 128659.0 120691.0 155789.0 157579.0 232984.0 232211.0 175959.0 171098.0 119697.0 111867.0 68795.0 62097.0 75568.0 77966.0 16588.0 12284.0 177596.0 181141.0 115898.0 123965.0 60205.0 66525.0 170995.0 172371.0 142282.0 140523.0 201291.0 193120.0 24030.0 20170.0 133739.0 89649.0 133739.0 133739.0 133739.0 133739.0 89649.0 89649.0 89649.0 89649.0
36588.0 42561.0 214547.0 222554.0 88629.0 97044.0 143187.0 150270.0 222718.0 230250.0 71600.0 64916.0 193009.0 186814.0 73415.0 78967.0 222378.0 229558.0 24302.0 23540.0 156612.0 150441.0 283841.0 289312.0 221755.0 228269.0 284592.0 287666.0 148945.0 150966.0 104152.0 108085.0 242591.0 235227.0 253787.0 261304.0 111581.0 111433.0 25501.0 17690.0 117369.0 110896.0 139159.0 145595.0 0.0 7751.0 292467.0 288969.0 173664.0 165658.0 270050.0 262650.0 280750.0 284895.0 102077.0 104720.0 275705.0 268326.0 244231.0 237884.0 211027.0 203368.0 74095.0 69056.0 133708.0 141776.0 268367.0 275049.0 261237.0 269226.0 205551.0 212099.0 244184.0 249904.0 266971.0 262450.0 84170.0 76892.0 163092.0 155307.0 248445.0 97988.0 248445.0 248445.0 248445.0 248445.0 97988.0 97988.0 97988.0 97988.0
29453.0 35043.0 206932.0 214936.0 80883.0 89297.0 135482.0 142548.0 215523.0 223097.0 70555.0 64434.0 186279.0 180186.0 79983.0 85255.0 214835.0 221987.0 17897.0 15995.0 149642.0 143558.0 276118.0 281576.0 214976.0 221406.0 277094.0 280117.0 141325.0 143437.0 110307.0 114526.0 235070.0 227680.0 247265.0 254747.0 104029.0 103773.0 32199.0 24186.0 110986.0 104336.0 131528.0 138022.0 7751.0 0.0 286226.0 282740.0 165974.0 157953.0 262850.0 255410.0 274365.0 278414.0 108962.0 111336.0 268555.0 261215.0 237746.0 231315.0 203711.0 196082.0 67183.0 61855.0 126023.0 134092.0 261416.0 268040.0 253601.0 261582.0 197927.0 204508.0 237610.0 243235.0 260558.0 256141.0 89529.0 81997.0 155744.0 147988.0 242216.0 93095.0 242216.0 242216.0 242216.0 242216.0 93095.0 93095.0 93095.0 93095.0
257380.0 253883.0 134772.0 132497.0 224483.0 219234.0 182608.0 181330.0 94774.0 87544.0 253357.0 259213.0 274225.0 277267.0 331206.0 331415.0 222768.0 220236.0 268373.0 271326.0 141490.0 145972.0 200376.0 196359.0 280552.0 278041.0 107640.0 115542.0 170813.0 163547.0 349978.0 356831.0 113870.0 119062.0 42468.0 37042.0 195101.0 200230.0 302650.0 297740.0 175277.0 182199.0 178349.0 169963.0 292467.0 286226.0 0.0 8285.0 163620.0 170008.0 74315.0 79578.0 14862.0 17281.0 358191.0 356250.0 277174.0 277033.0 50500.0 58160.0 109586.0 112875.0 219997.0 226645.0 186538.0 181142.0 288749.0 287697.0 129057.0 130943.0 139559.0 132665.0 300489.0 297866.0 27693.0 30325.0 324862.0 316695.0 145953.0 151220.0 65346.0 202490.0 65346.0 65346.0 65346.0 65346.0 202490.0 202490.0 202490.0 202490.0
253956.0 250677.0 137228.0 135404.0 222529.0 217525.0 182146.0 181224.0 96343.0 89479.0 249860.0 255716.0 276102.0 278932.0 327709.0 327918.0 225931.0 223661.0 264880.0 267889.0 139481.0 143640.0 205794.0 201997.0 283232.0 280939.0 113908.0 121896.0 170256.0 162785.0 346482.0 353335.0 117745.0 122537.0 42582.0 38419.0 193219.0 198592.0 299153.0 294243.0 171836.0 178924.0 177482.0 169141.0 288969.0 282740.0 8285.0 0.0 164328.0 170436.0 79676.0 84393.0 18187.0 23060.0 354694.0 352754.0 281459.0 281110.0 49486.0 57409.0 110871.0 113615.0 216769.0 223570.0 185668.0 180547.0 292678.0 291828.0 134079.0 136349.0 141561.0 134916.0 303585.0 301157.0 28131.0 28618.0 321365.0 313198.0 145112.0 150039.0 60282.0 198994.0 60282.0 60282.0 60282.0 60282.0 198994.0 198994.0 198994.0 198994.0
138349.0 131388.0 42595.0 50279.0 85735.0 77588.0 30572.0 24220.0 69702.0 77641.0 166334.0 170064.0 115278.0 116838.0 234303.0 236624.0 84070.0 86845.0 151355.0 150185.0 55182.0 59959.0 119189.0 122763.0 129005.0 129285.0 114638.0 116337.0 26366.0 29023.0 257429.0 264143.0 73040.0 65037.0 121746.0 126578.0 63535.0 62337.0 193542.0 186305.0 86251.0 85421.0 35332.0 31293.0 173664.0 165974.0 163620.0 164328.0 0.0 8440.0 110663.0 102370.0 148853.0 149178.0 263636.0 263049.0 150824.0 146771.0 115640.0 107658.0 54593.0 50755.0 106045.0 107720.0 39960.0 31900.0 154640.0 157255.0 88155.0 95975.0 33563.0 41211.0 153017.0 153143.0 136335.0 136256.0 232314.0 224146.0 34265.0 38246.0 135648.0 120401.0 135648.0 135648.0 135648.0 135648.0 120401.0 120401.0 120401.0 120401.0
130535.0 123484.0 51035.0 58711.0 77527.0 69330.0 22472.0 15813.0 76773.0 84816.0 160182.0 163664.0 111712.0 112764.0 227017.0 229471.0 85473.0 88956.0 143531.0 142212.0 54517.0 58454.0 125095.0 129011.0 127087.0 127898.0 123078.0 124765.0 20250.0 24939.0 250549.0 257179.0 81452.0 73459.0 127889.0 132988.0 56208.0 54523.0 185802.0 178505.0 81746.0 80259.0 28258.0 25634.0 165658.0 157953.0 170008.0 170436.0 8440.0 0.0 118656.0 110379.0 155308.0 155891.0 256435.0 255985.0 152252.0 147813.0 121415.0 113416.0 61692.0 57244.0 98892.0 100245.0 32086.0 24108.0 155093.0 158117.0 96480.0 104262.0 41999.0 49619.0 151565.0 152134.0 142568.0 142169.0 225444.0 217279.0 34505.0 36770.0 140215.0 115283.0 140215.0 140215.0 140215.0 140215.0 115283.0 115283.0 115283.0 115283.0
233467.0 228064.0 71841.0 66820.0 188816.0 181755.0 137235.0 133227.0 47332.0 39973.0 240124.0 245980.0 209735.0 213864.0 317839.0 318181.0 152960.0 149449.0 245964.0 246947.0 114292.0 121035.0 126134.0 122346.0 212165.0 208765.0 36668.0 44792.0 127224.0 122387.0 336741.0 343594.0 43899.0 50989.0 51870.0 48634.0 160723.0 163354.0 285172.0 279102.0 157177.0 161807.0 136650.0 128659.0 270050.0 262850.0 74315.0 79676.0 110663.0 118656.0 0.0 8311.0 61632.0 57063.0 344912.0 343013.0 203729.0 204019.0 56691.0 55079.0 59926.0 67110.0 196215.0 201006.0 144195.0 136964.0 216053.0 214544.0 54856.0 56682.0 79322.0 71362.0 230311.0 227014.0 57462.0 63468.0 311625.0 303458.0 107643.0 115147.0 89809.0 189257.0 89809.0 89809.0 89809.0 89809.0 189257.0 189257.0 189257.0 189257.0
226062.0 220564.0 63613.0 58744.0 180915.0 173792.0 129077.0 124998.0 40095.0 33181.0 233752.0 239580.0 201877.0 205924.0 311295.0 311760.0 145729.0 142429.0 238616.0 239483.0 107335.0 114174.0 121726.0 118369.0 204757.0 201500.0 36621.0 44431.0 119161.0 114454.0 330362.0 337215.0 36255.0 43068.0 52973.0 50905.0 152968.0 155466.0 278075.0 271925.0 150500.0 154927.0 128633.0 120691.0 262650.0 255410.0 79578.0 84393.0 102370.0 110379.0 8311.0 0.0 66214.0 62310.0 338563.0 336634.0 197721.0 197784.0 56444.0 53685.0 52079.0 59430.0 188932.0 193594.0 136129.0 128848.0 209685.0 208380.0 49713.0 52549.0 71030.0 63078.0 223236.0 220086.0 60482.0 65845.0 305245.0 297078.0 99965.0 107548.0 88942.0 182886.0 88942.0 88942.0 88942.0 88942.0 182886.0 182886.0 182886.0 182886.0
245337.0 241596.0 119999.0 117852.0 211028.0 205594.0 168235.0 166803.0 79916.0 72686.0 241895.0 247751.0 259380.0 262408.0 319745.0 319954.0 208244.0 205834.0 256564.0 259284.0 128212.0 132974.0 187695.0 183978.0 265860.0 263419.0 96383.0 104437.0 156497.0 149346.0 338517.0 345370.0 99703.0 104659.0 28321.0 22332.0 181619.0 186555.0 291188.0 286282.0 163392.0 170102.0 164192.0 155789.0 280750.0 274365.0 14862.0 18187.0 148853.0 155308.0 61632.0 66214.0 0.0 7456.0 346729.0 344789.0 263331.0 263034.0 37057.0 44365.0 94745.0 98127.0 207777.0 214246.0 172375.0 166835.0 274649.0 273738.0 115911.0 118267.0 124715.0 117853.0 285945.0 283407.0 13903.0 18831.0 313401.0 305233.0 131819.0 137290.0 57108.0 191029.0 57108.0 57108.0 57108.0 57108.0 191029.0 191029.0 191029.0 191029.0
249274.0 245351.0 118622.0 116002.0 213721.0 208075.0 169642.0 167873.0 79698.0 72127.0 246434.0 252290.0 258383.0 261615.0 324283.0 324492.0 206012.0 203340.0 260661.0 263212.0 131236.0 136267.0 183164.0 179218.0 264074.0 261419.0 90860.0 98839.0 158032.0 151102.0 343055.0 349908.0 96841.0 102227.0 31237.0 24133.0 184317.0 189016.0 295721.0 290784.0 167538.0 174081.0 165996.0 157579.0 284895.0 278414.0 17281.0 23060.0 149178.0 155891.0 57063.0 62310.0 7456.0 0.0 351267.0 349327.0 259954.0 259864.0 40667.0 47369.0 94721.0 98652.0 211614.0 217936.0 174158.0 168373.0 271624.0 270513.0 111778.0 113718.0 123800.0 116698.0 283741.0 281013.0 18404.0 24764.0 317939.0 309772.0 133725.0 139494.0 63495.0 195567.0 63495.0 63495.0 63495.0 63495.0 195567.0 195567.0 195567.0 195567.0
129139.0 137038.0 300912.0 308843.0 184121.0 192371.0 234575.0 242281.0 298954.0 305394.0 106350.0 99269.0 295078.0 288839.0 29764.0 27124.0 321983.0 328830.0 117085.0 121241.0 232167.0 225074.0 379601.0 384376.0 323832.0 330333.0 366126.0 370547.0 237423.0 237087.0 18761.0 13501.0 325621.0 319126.0 320526.0 328218.0 200227.0 202601.0 76763.0 84784.0 188473.0 185021.0 228326.0 232984.0 102077.0 108962.0 358191.0 354694.0 263636.0 256435.0 344912.0 338563.0 346729.0 351267.0 0.0 7961.0 377384.0 370097.0 310805.0 305071.0 290151.0 282155.0 157592.0 156439.0 224730.0 232460.0 370377.0 376995.0 347363.0 355526.0 292421.0 297804.0 346150.0 351943.0 333092.0 328235.0 36574.0 42924.0 244871.0 236942.0 314170.0 157477.0 314170.0 314170.0 314170.0 314170.0 157477.0 157477.0 157477.0 157477.0
130072.0 138031.0 299730.0 307627.0 184743.0 192912.0 234306.0 242063.0 297014.0 303461.0 104410.0 97329.0 297614.0 291498.0 31355.0 26905.0 323027.0 329770.0 118355.0 122907.0 230279.0 223172.0 379670.0 384306.0 326304.0 332687.0 364291.0 368768.0 236758.0 236140.0 11333.0 5638.0 323969.0 317593.0 318586.0 326278.0 199815.0 202486.0 79236.0 87184.0 186570.0 183289.0 227796.0 232211.0 104720.0 111336.0 356250.0 352754.0 263049.0 255985.0 343013.0 336634.0 344789.0 349327.0 7961.0 0.0 379251.0 372040.0 308865.0 303131.0 288294.0 280295.0 157097.0 156348.0 224461.0 232106.0 372589.0 379109.0 346025.0 354192.0 291329.0 296552.0 348893.0 354564.0 331152.0 326294.0 32798.0 40042.0 243400.0 235500.0 312230.0 155537.0 312230.0 312230.0 312230.0 312230.0 155537.0 155537.0 155537.0 155537.0
250144.0 242160.0 150900.0 149723.0 198361.0 191182.0 164775.0 157743.0 192552.0 196852.0 298423.0 299570.0 87051.0 94623.0 348007.0 352576.0 66812.0 64390.0 261140.0 256346.0 206003.0 210540.0 86211.0 93535.0 60045.0 51925.0 177340.0 171420.0 170481.0 176901.0 376808.0 381939.0 163862.0 159847.0 243715.0 244788.0 195047.0 188966.0 300701.0 292669.0 231239.0 227905.0 174503.0 175959.0 275705.0 268555.0 277174.0 281459.0 150824.0 152252.0 203729.0 197721.0 263331.0 259954.0 377384.0 379251.0 0.0 8118.0 242108.0 235373.0 182143.0 184399.0 232639.0 229962.0 172654.0 168017.0 18123.0 12134.0 149204.0 149223.0 150849.0 154470.0 51844.0 43951.0 255271.0 258768.0 353423.0 345210.0 185057.0 188757.0 270462.0 261626.0 270462.0 270462.0 270462.0 270462.0 261626.0 261626.0 261626.0 261626.0
243148.0 235171.0 148997.0 148243.0 191760.0 184693.0 159545.0 152660.0 190969.0 195552.0 292058.0 293070.0 79047.0 86590.0 340770.0 345403.0 62750.0 61216.0 254031.0 249151.0 201881.0 206228.0 89417.0 97009.0 51929.0 43817.0 178732.0 173073.0 165656.0 172283.0 369709.0 374777.0 163374.0 159012.0 242774.0 244103.0 189233.0 183005.0 293381.0 285350.0 226010.0 222481.0 169336.0 171098.0 268326.0 261215.0 277033.0 281110.0 146771.0 147813.0 204019.0 197784.0 263034.0 259864.0 370097.0 372040.0 8118.0 0.0 240848.0 233972.0 180104.0 182029.0 226293.0 223452.0 167202.0 162809.0 13011.0 10896.0 149831.0 150290.0 148471.0 152455.0 44542.0 36825.0 254623.0 257905.0 346432.0 338233.0 181036.0 184467.0 268692.0 255959.0 268692.0 268692.0 268692.0 268692.0 255959.0 255959.0 255959.0 255959.0
208615.0 204737.0 92829.0 92662.0 174069.0 168749.0 132661.0 131823.0 50482.0 45297.0 205971.0 211828.0 229004.0 231411.0 283821.0 284030.0 182608.0 181297.0 219994.0 222555.0 91176.0 95921.0 173638.0 171387.0 238053.0 236407.0 92809.0 100765.0 120770.0 113325.0 302593.0 309446.0 80163.0 82718.0 9783.0 17574.0 144670.0 149737.0 255254.0 250235.0 126882.0 133415.0 128055.0 119697.0 244231.0 237746.0 50500.0 49486.0 115640.0 121415.0 56691.0 56444.0 37057.0 40667.0 310805.0 308865.0 242108.0 240848.0 0.0 8000.0 63749.0 65320.0 170972.0 177344.0 136244.0 131063.0 251718.0 251715.0 102051.0 106722.0 95688.0 89912.0 259559.0 257780.0 23163.0 20893.0 277477.0 269310.0 95667.0 100765.0 33292.0 155105.0 33292.0 33292.0 33292.0 33292.0 155105.0 155105.0 155105.0 155105.0
202097.0 198064.0 85565.0 85729.0 166669.0 161237.0 124745.0 123851.0 43191.0 38573.0 200237.0 206094.0 221158.0 223518.0 278087.0 278296.0 175321.0 174164.0 213615.0 216023.0 83940.0 88899.0 168266.0 166296.0 230449.0 228894.0 90303.0 98094.0 112872.0 105477.0 296859.0 303712.0 74456.0 76485.0 16165.0 23438.0 137259.0 142204.0 249386.0 244233.0 120644.0 126994.0 120238.0 111867.0 237884.0 231315.0 58160.0 57409.0 107658.0 113416.0 55079.0 53685.0 44365.0 47369.0 305071.0 303131.0 235373.0 233972.0 8000.0 0.0 56062.0 57410.0 164385.0 170627.0 128428.0 123175.0 244723.0 244851.0 97214.0 102304.0 88136.0 82542.0 252105.0 250420.0 30581.0 28857.0 271743.0 263576.0 87842.0 93063.0 35337.0 149371.0 35337.0 35337.0 35337.0 35337.0 149371.0 149371.0 149371.0 149371.0
174455.0 168775.0 31313.0 34175.0 128891.0 121865.0 78139.0 74956.0 15109.0 23127.0 186149.0 191747.0 165466.0 168115.0 262205.0 263139.0 120008.0 119440.0 187124.0 187750.0 58050.0 65205.0 124073.0 124112.0 174405.0 172953.0 76012.0 80842.0 67615.0 62483.0 282022.0 288875.0 37620.0 33572.0 68519.0 72648.0 100899.0 103427.0 227193.0 220828.0 101758.0 105246.0 76874.0 68795.0 211027.0 203711.0 109586.0 110871.0 54593.0 61692.0 59926.0 52079.0 94745.0 94721.0 290151.0 288294.0 182143.0 180104.0 63749.0 56062.0 0.0 7999.0 137681.0 142008.0 84563.0 77582.0 190323.0 190998.0 62794.0 70506.0 32274.0 27674.0 196260.0 194787.0 82742.0 83541.0 256905.0 248738.0 48009.0 55724.0 88814.0 135524.0 88814.0 88814.0 88814.0 88814.0 135524.0 135524.0 135524.0 135524.0
166785.0 161186.0 34713.0 38991.0 121888.0 115020.0 72234.0 69617.0 20587.0 28758.0 178163.0 183750.0 163810.0 166110.0 254222.0 255145.0 121058.0 121017.0 179416.0 180135.0 50053.0 57210.0 129324.0 129740.0 174023.0 172946.0 84010.0 88809.0 61308.0 55692.0 274024.0 280876.0 45250.0 40667.0 71040.0 75833.0 93617.0 96417.0 219354.0 213027.0 93759.0 97264.0 70312.0 62097.0 203368.0 196082.0 112875.0 113615.0 50755.0 57244.0 67110.0 59430.0 98127.0 98652.0 282155.0 280295.0 184399.0 182029.0 65320.0 57410.0 7999.0 0.0 129897.0 134324.0 78158.0 71450.0 191902.0 192905.0 70108.0 77931.0 33564.0 30720.0 196426.0 195279.0 85590.0 85706.0 248907.0 240740.0 40542.0 48132.0 88170.0 127556.0 88170.0 88170.0 88170.0 88170.0 127556.0 127556.0 127556.0 127556.0
37782.0 33908.0 144239.0 152241.0 36140.0 41956.0 77306.0 85119.0 148900.0 156329.0 65785.0 67343.0 161878.0 157971.0 128290.0 130593.0 170836.0 176810.0 49849.0 51665.0 82518.0 76377.0 222995.0 227406.0 188052.0 192661.0 212347.0 215947.0 79869.0 80042.0 151827.0 158349.0 170722.0 163701.0 180409.0 187823.0 42728.0 46009.0 89653.0 83154.0 45165.0 37848.0 70737.0 75568.0 74095.0 67183.0 219997.0 216769.0 106045.0 98892.0 196215.0 188932.0 207777.0 211614.0 157592.0 157097.0 232639.0 226293.0 170972.0 164385.0 137681.0 129897.0 0.0 8049.0 67479.0 75032.0 229574.0 234909.0 191004.0 199127.0 135518.0 141379.0 213113.0 216952.0 193918.0 189769.0 126830.0 118613.0 90120.0 82199.0 176257.0 42206.0 176257.0 176257.0 176257.0 176257.0 42206.0 42206.0 42206.0 42206.0
32468.0 27481.0 147009.0 155029.0 31902.0 38783.0 78183.0 85853.0 153676.0 161242.0 68955.0 69619.0 157355.0 153169.0 126889.0 129627.0 169198.0 175412.0 45140.0 46017.0 87993.0 82130.0 223325.0 227978.0 183986.0 188847.0 216038.0 219392.0 81903.0 82873.0 151608.0 157880.0 174199.0 167012.0 186705.0 194051.0 44219.0 46165.0 86300.0 79422.0 52424.0 44864.0 72439.0 77966.0 69056.0 61855.0 226645.0 223570.0 107720.0 100245.0 201006.0 193594.0 214246.0 217936.0 156439.0 156348.0 229962.0 223452.0 177344.0 170627.0 142008.0 134324.0 8049.0 0.0 68347.0 76170.0 226317.0 231845.0 193823.0 201908.0 138162.0 144309.0 208869.0 212937.0 200365.0 196371.0 126851.0 118584.0 94137.0 86309.0 183114.0 49871.0 183114.0 183114.0 183114.0 183114.0 49871.0 49871.0 49871.0 49871.0
98453.0 91438.0 81430.0 89362.0 46183.0 38332.0 9847.0 17644.0 98744.0 106914.0 130631.0 133515.0 116555.0 115424.0 195225.0 197840.0 107522.0 112568.0 111451.0 110225.0 50910.0 50772.0 155548.0 159928.0 137575.0 140201.0 152874.0 155194.0 16972.0 23057.0 219305.0 225799.0 110790.0 103046.0 144121.0 150280.0 24870.0 22438.0 153717.0 146422.0 59143.0 55279.0 8190.0 16588.0 133708.0 126023.0 186538.0 185668.0 39960.0 32086.0 144195.0 136129.0 172375.0 174158.0 224730.0 224461.0 172654.0 167202.0 136244.0 128428.0 84563.0 78158.0 67479.0 68347.0 0.0 8071.0 172627.0 176813.0 127786.0 135700.0 72345.0 79359.0 163005.0 165074.0 158861.0 157053.0 194300.0 186089.0 40587.0 36044.0 149818.0 89199.0 149818.0 149818.0 149818.0 149818.0 89199.0 89199.0 89199.0 89199.0
106475.0 99489.0 73428.0 81344.0 54178.0 46240.0 3303.0 10701.0 91999.0 100185.0 137464.0 140576.0 115563.0 114972.0 202998.0 205533.0 102250.0 106941.0 119478.0 118289.0 48880.0 49879.0 148208.0 152445.0 135301.0 137489.0 144985.0 147226.0 10343.0 18022.0 226827.0 233380.0 102932.0 95150.0 138676.0 144636.0 32305.0 30451.0 161714.0 154441.0 63223.0 60173.0 6601.0 12284.0 141776.0 134092.0 181142.0 180547.0 31900.0 24108.0 136964.0 128848.0 166835.0 168373.0 232460.0 232106.0 168017.0 162809.0 131063.0 123175.0 77582.0 71450.0 75032.0 76170.0 8071.0 0.0 168717.0 172619.0 119730.0 127637.0 64336.0 71414.0 160598.0 162298.0 153449.0 151934.0 201777.0 193584.0 35653.0 32426.0 145762.0 94711.0 145762.0 145762.0 145762.0 145762.0 94711.0 94711.0 94711.0 94711.0
244569.0 236634.0 159419.0 159056.0 194461.0 187719.0 165425.0 158837.0 201607.0 206437.0 295181.0 295847.0 76466.0 83598.0 341256.0 346107.0 71331.0 70908.0 255067.0 249903.0 209484.0 213531.0 102427.0 110016.0 47928.0 40510.0 191327.0 185767.0 172235.0 179186.0 370649.0 375496.0 174946.0 170335.0 253912.0 255443.0 193841.0 187310.0 293615.0 285598.0 231704.0 227808.0 175296.0 177596.0 268367.0 261416.0 288749.0 292678.0 154640.0 155093.0 216053.0 209685.0 274649.0 271624.0 370377.0 372589.0 18123.0 13011.0 251718.0 244723.0 190323.0 191902.0 229574.0 226317.0 172627.0 168717.0 0.0 8111.0 162102.0 162771.0 158416.0 162759.0 34815.0 26743.0 265985.0 269096.0 347738.0 339589.0 188840.0 191858.0 279075.0 260732.0 279075.0 279075.0 279075.0 279075.0 260732.0 260732.0 260732.0 260732.0
250725.0 242771.0 159893.0 159122.0 200049.0 193154.0 169342.0 162571.0 201857.0 206420.0 300610.0 301436.0 83788.0 91043.0 347795.0 352566.0 73343.0 72035.0 261379.0 256321.0 212307.0 216563.0 98245.0 105619.0 55494.0 47852.0 188784.0 182986.0 175727.0 182472.0 377022.0 381954.0 174109.0 169815.0 253603.0 254889.0 198490.0 192115.0 300235.0 292212.0 235760.0 232075.0 179171.0 181141.0 275049.0 268040.0 287697.0 291828.0 157255.0 158117.0 214544.0 208380.0 273738.0 270513.0 376995.0 379109.0 12134.0 10896.0 251715.0 244851.0 190998.0 192905.0 234909.0 231845.0 176813.0 172619.0 8111.0 0.0 160219.0 160491.0 159350.0 163350.0 42858.0 34774.0 265403.0 268723.0 353965.0 345794.0 191515.0 194823.0 279587.0 265317.0 279587.0 279587.0 279587.0 279587.0 265317.0 265317.0 265317.0 265317.0
225396.0 218748.0 46814.0 38794.0 173835.0 165732.0 118672.0 112277.0 62600.0 61940.0 245421.0 250407.0 164309.0 169489.0 318623.0 320239.0 102900.0 98211.0 238390.0 237701.0 118136.0 125291.0 72234.0 69428.0 162524.0 158238.0 32461.0 30605.0 112307.0 111007.0 339782.0 346555.0 25702.0 29516.0 100725.0 99853.0 149895.0 149848.0 280120.0 273142.0 160889.0 163058.0 122078.0 115898.0 261237.0 253601.0 129057.0 134079.0 88155.0 96480.0 54856.0 49713.0 115911.0 111778.0 347363.0 346025.0 149204.0 149831.0 102051.0 97214.0 62794.0 70108.0 191004.0 193823.0 127786.0 119730.0 162102.0 160219.0 0.0 8167.0 55716.0 49642.0 178638.0 174711.0 109819.0 114661.0 314666.0 306498.0 102687.0 110548.0 134550.0 195588.0 134550.0 134550.0 134550.0 134550.0 195588.0 195588.0 195588.0 195588.0
233434.0 226755.0 54908.0 46893.0 181696.0 173563.0 126524.0 120038.0 69503.0 68249.0 253571.0 258568.0 168583.0 173997.0 326778.0 328402.0 106099.0 100936.0 246431.0 245695.0 126214.0 133376.0 69452.0 65831.0 165527.0 160912.0 29047.0 25382.0 120323.0 119115.0 347949.0 354722.0 33062.0 37479.0 104752.0 103332.0 157943.0 157815.0 288200.0 281204.0 169027.0 171219.0 130076.0 123965.0 269226.0 261582.0 130943.0 136349.0 95975.0 104262.0 56682.0 52549.0 118267.0 113718.0 355526.0 354192.0 149223.0 150290.0 106722.0 102304.0 70506.0 77931.0 199127.0 201908.0 135700.0 127637.0 162771.0 160491.0 8167.0 0.0 63764.0 57785.0 180731.0 176493.0 113028.0 118242.0 322833.0 314665.0 110852.0 118715.0 139846.0 203707.0 139846.0 139846.0 139846.0 139846.0 203707.0 203707.0 203707.0 203707.0
169681.0 163045.0 9099.0 17027.0 118514.0 110540.0 63531.0 57709.0 45453.0 52090.0 191889.0 196438.0 134667.0 137815.0 263473.0 265305.0 87809.0 87511.0 182675.0 182013.0 68031.0 74758.0 100339.0 102023.0 142375.0 140761.0 81084.0 82953.0 56607.0 55480.0 285205.0 292054.0 39571.0 31524.0 99767.0 103142.0 94182.0 94223.0 224445.0 217440.0 108191.0 109386.0 66401.0 60205.0 205551.0 197927.0 139559.0 141561.0 33563.0 41999.0 79322.0 71030.0 124715.0 123800.0 292421.0 291329.0 150849.0 148471.0 95688.0 88136.0 32274.0 33564.0 135518.0 138162.0 72345.0 64336.0 158416.0 159350.0 55716.0 63764.0 0.0 8006.0 164017.0 162513.0 113519.0 114977.0 260088.0 251921.0 49449.0 56868.0 120994.0 143177.0 120994.0 120994.0 120994.0 120994.0 143177.0 143177.0 143177.0 143177.0
176060.0 169552.0 4124.0 11147.0 125536.0 117654.0 70779.0 65220.0 39434.0 45512.0 196460.0 201228.0 141687.0 145022.0 269008.0 270680.0 92802.0 91927.0 189031.0 188560.0 70823.0 77777.0 99617.0 100666.0 148505.0 146594.0 73642.0 75846.0 63258.0 61440.0 290344.0 297161.0 31833.0 23863.0 93490.0 96522.0 100563.0 100975.0 230605.0 223691.0 112272.0 113945.0 73105.0 66525.0 212099.0 204508.0 132665.0 134916.0 41211.0 49619.0 71362.0 63078.0 117853.0 116698.0 297804.0 296552.0 154470.0 152455.0 89912.0 82542.0 27674.0 30720.0 141379.0 144309.0 79359.0 71414.0 162759.0 163350.0 49642.0 57785.0 8006.0 0.0 169665.0 167883.0 106976.0 108757.0 265228.0 257060.0 53576.0 61296.0 116316.0 147199.0 116316.0 116316.0 116316.0 116316.0 147199.0 147199.0 147199.0 147199.0
223525.0 215766.0 166895.0 168189.0 177115.0 171309.0 157321.0 151810.0 209095.0 214935.0 277659.0 277480.0 51939.0 57469.0 317559.0 322836.0 77729.0 80873.0 233074.0 227343.0 205647.0 208660.0 128083.0 136112.0 25501.0 23734.0 209770.0 205151.0 166019.0 173782.0 347760.0 352135.0 187272.0 181523.0 262985.0 265488.0 181445.0 174232.0 269657.0 261718.0 221688.0 216803.0 167152.0 170995.0 244184.0 237610.0 300489.0 303585.0 153017.0 151565.0 230311.0 223236.0 285945.0 283741.0 346150.0 348893.0 51844.0 44542.0 259559.0 252105.0 196260.0 196426.0 213113.0 208869.0 163005.0 160598.0 34815.0 42858.0 178638.0 180731.0 164017.0 169665.0 0.0 8088.0 276038.0 278273.0 325725.0 317723.0 186069.0 187688.0 284593.0 247775.0 284593.0 284593.0 284593.0 284593.0 247775.0 247775.0 247775.0 247775.0
228476.0 220664.0 164973.0 165894.0 181092.0 175045.0 159005.0 153213.0 207299.0 212921.0 281835.0 281856.0 57028.0 63110.0 323215.0 328395.0 75296.0 77705.0 238263.0 232661.0 206472.0 209736.0 122015.0 129977.0 28965.0 24880.0 205488.0 200649.0 167285.0 174884.0 353243.0 357730.0 184315.0 178807.0 260928.0 263211.0 184239.0 177170.0 275344.0 267381.0 224008.0 219348.0 168882.0 172371.0 249904.0 243235.0 297866.0 301157.0 153143.0 152134.0 227014.0 220086.0 283407.0 281013.0 351943.0 354564.0 43951.0 36825.0 257780.0 250420.0 194787.0 195279.0 216952.0 212937.0 165074.0 162298.0 26743.0 34774.0 174711.0 176493.0 162513.0 167883.0 8088.0 0.0 273774.0 276214.0 330993.0 322952.0 186590.0 188543.0 283373.0 250835.0 283373.0 283373.0 283373.0 283373.0 250835.0 250835.0 250835.0 250835.0
231501.0 227726.0 109390.0 107885.0 197191.0 191808.0 154920.0 153698.0 68233.0 61479.0 228258.0 234114.0 247999.0 250805.0 306107.0 306316.0 198489.0 196465.0 242769.0 245447.0 114334.0 119072.0 182031.0 178831.0 255415.0 253260.0 93744.0 101896.0 143121.0 135862.0 324880.0 331733.0 91436.0 95650.0 14782.0 10567.0 167786.0 172779.0 277514.0 272641.0 149603.0 156269.0 150672.0 142282.0 266971.0 260558.0 27693.0 28131.0 136335.0 142568.0 57462.0 60482.0 13903.0 18404.0 333092.0 331152.0 255271.0 254623.0 23163.0 30581.0 82742.0 85590.0 193918.0 200365.0 158861.0 153449.0 265985.0 265403.0 109819.0 113028.0 113519.0 106976.0 276038.0 273774.0 0.0 7611.0 299763.0 291596.0 118279.0 123619.0 45843.0 177392.0 45843.0 45843.0 45843.0 45843.0 177392.0 177392.0 177392.0 177392.0
227217.0 223641.0 111392.0 110411.0 194292.0 189150.0 153548.0 152708.0 69524.0 63339.0 223401.0 229257.0 249007.0 251591.0 301250.0 301459.0 200924.0 199182.0 238309.0 241166.0 111259.0 115665.0 186885.0 183923.0 257246.0 255320.0 99999.0 108150.0 141648.0 134167.0 320022.0 326875.0 95213.0 98929.0 15289.0 14943.0 164933.0 170180.0 272694.0 267744.0 145159.0 152002.0 148867.0 140523.0 262450.0 256141.0 30325.0 28618.0 136256.0 142169.0 63468.0 65845.0 18831.0 24764.0 328235.0 326294.0 258768.0 257905.0 20893.0 28857.0 83541.0 85706.0 189769.0 196371.0 157053.0 151934.0 269096.0 268723.0 114661.0 118242.0 114977.0 108757.0 278273.0 276214.0 7611.0 0.0 294906.0 286739.0 116494.0 121462.0 38771.0 172534.0 38771.0 38771.0 38771.0 38771.0 172534.0 172534.0 172534.0 172534.0
103285.0 111265.0 268437.0 276316.0 156563.0 164495.0 204117.0 211943.0 265625.0 272073.0 73021.0 65941.0 273976.0 268275.0 22567.0 16121.0 295263.0 301753.0 92764.0 98389.0 198891.0 191783.0 349823.0 354211.0 302363.0 308365.0 332903.0 337413.0 205963.0 205042.0 25228.0 32458.0 292587.0 286205.0 287197.0 294890.0 169490.0 172679.0 59713.0 66740.0 155182.0 151909.0 197202.0 201291.0 84170.0 89529.0 324862.0 321365.0 232314.0 225444.0 311625.0 305245.0 313401.0 317939.0 36574.0 32798.0 353423.0 346432.0 277477.0 271743.0 256905.0 248907.0 126830.0 126851.0 194300.0 201777.0 347738.0 353965.0 314666.0 322833.0 260088.0 265228.0 325725.0 330993.0 299763.0 294906.0 0.0 8282.0 212021.0 204128.0 280842.0 124149.0 280842.0 280842.0 280842.0 280842.0 124149.0 124149.0 124149.0 124149.0
95087.0 103062.0 260270.0 268149.0 148284.0 156213.0 195910.0 203731.0 257458.0 263906.0 64854.0 57773.0 265944.0 260285.0 22884.0 18508.0 286984.0 293472.0 84692.0 90427.0 190723.0 183616.0 341599.0 346009.0 294295.0 300263.0 324736.0 329246.0 197796.0 196848.0 33284.0 40238.0 284419.0 278038.0 279030.0 286722.0 161291.0 164437.0 52958.0 59666.0 147014.0 143742.0 189030.0 193120.0 76892.0 81997.0 316695.0 313198.0 224146.0 217279.0 303458.0 297078.0 305233.0 309772.0 42924.0 40042.0 345210.0 338233.0 269310.0 263576.0 248738.0 240740.0 118613.0 118584.0 186089.0 193584.0 339589.0 345794.0 306498.0 314665.0 251921.0 257060.0 317723.0 322952.0 291596.0 286739.0 8282.0 0.0 203854.0 195961.0 272674.0 115982.0 272674.0 272674.0 272674.0 272674.0 115982.0 115982.0 115982.0 115982.0
126544.0 120781.0 57068.0 64723.0 81777.0 75280.0 37608.0 38559.0 60659.0 68619.0 142895.0 147745.0 145388.0 145921.0 216361.0 217757.0 118329.0 120958.0 139277.0 139772.0 21083.0 26627.0 147839.0 150308.0 161564.0 162398.0 122274.0 126094.0 25589.0 17702.0 237138.0 243990.0 80930.0 74264.0 103548.0 109776.0 53143.0 56386.0 179769.0 173238.0 58783.0 60409.0 32398.0 24030.0 163092.0 155744.0 145953.0 145112.0 34265.0 34505.0 107643.0 99965.0 131819.0 133725.0 244871.0 243400.0 185057.0 181036.0 95667.0 87842.0 48009.0 40542.0 90120.0 94137.0 40587.0 35653.0 188840.0 191515.0 102687.0 110852.0 49449.0 53576.0 186069.0 186590.0 118279.0 116494.0 212021.0 203854.0 0.0 7968.0 110237.0 93760.0 110237.0 110237.0 110237.0 110237.0 93760.0 93760.0 93760.0 93760.0
118742.0 113063.0 64706.0 72437.0 74951.0 68777.0 34895.0 37448.0 67994.0 75854.0 135177.0 139944.0 145503.0 145608.0 208408.0 209826.0 121945.0 125006.0 131442.0 132028.0 17962.0 21785.0 154339.0 157033.0 162890.0 164117.0 130228.0 134062.0 23314.0 14868.0 229245.0 236097.0 88896.0 82209.0 108971.0 115436.0 45961.0 49750.0 171840.0 165333.0 51361.0 52652.0 28001.0 20170.0 155307.0 147988.0 151220.0 150039.0 38246.0 36770.0 115147.0 107548.0 137290.0 139494.0 236942.0 235500.0 188757.0 184467.0 100765.0 93063.0 55724.0 48132.0 82199.0 86309.0 36044.0 32426.0 191858.0 194823.0 110548.0 118715.0 56868.0 61296.0 187688.0 188543.0 123619.0 121462.0 204128.0 195961.0 7968.0 0.0 113779.0 86341.0 113779.0 113779.0 113779.0 113779.0 86341.0 86341.0 86341.0 86341.0
213451.0 210164.0 119700.0 120848.0 183483.0 179018.0 147836.0 148365.0 78028.0 74759.0 209336.0 215192.0 250760.0 252484.0 287186.0 287395.0 208797.0 208225.0 224357.0 227389.0 100929.0 104309.0 205338.0 203519.0 262112.0 261115.0 125530.0 133371.0 135822.0 127741.0 305958.0 312811.0 111434.0 112936.0 40422.0 47048.0 154464.0 160365.0 258629.0 253719.0 131325.0 138409.0 141771.0 133739.0 248445.0 242216.0 65346.0 60282.0 135648.0 140215.0 89809.0 88942.0 57108.0 63495.0 314170.0 312230.0 270462.0 268692.0 33292.0 35337.0 88814.0 88170.0 176257.0 183114.0 149818.0 145762.0 279075.0 279587.0 134550.0 139846.0 120994.0 116316.0 284593.0 283373.0 45843.0 38771.0 280842.0 272674.0 110237.0 113779.0 0.0 158470.0 0.0 0.0 0.0 0.0 158470.0 158470.0 158470.0 158470.0
68145.0 68493.0 150783.0 158330.0 75084.0 78498.0 97785.0 105378.0 143376.0 149722.0 50865.0 57106.0 197841.0 194778.0 129679.0 129575.0 196710.0 201614.0 75676.0 80817.0 77703.0 70508.0 239442.0 242642.0 222342.0 226086.0 211398.0 216364.0 95068.0 91411.0 149265.0 156118.0 172222.0 166420.0 164826.0 172518.0 66901.0 73696.0 104040.0 100037.0 34986.0 35028.0 88619.0 89649.0 97988.0 93095.0 202490.0 198994.0 120401.0 115283.0 189257.0 182886.0 191029.0 195567.0 157477.0 155537.0 261626.0 255959.0 155105.0 149371.0 135524.0 127556.0 42206.0 49871.0 89199.0 94711.0 260732.0 265317.0 195588.0 203707.0 143177.0 147199.0 247775.0 250835.0 177392.0 172534.0 124149.0 115982.0 93760.0 86341.0 158470.0 0.0 158470.0 158470.0 158470.0 158470.0 0.0 0.0 0.0 0.0
213451.0 210164.0 119700.0 120848.0 183483.0 179018.0 147836.0 148365.0 78028.0 74759.0 209336.0 215192.0 250760.0 252484.0 287186.0 287395.0 208797.0 208225.0 224357.0 227389.0 100929.0 104309.0 205338.0 203519.0 262112.0 261115.0 125530.0 133371.0 135822.0 127741.0 305958.0 312811.0 111434.0 112936.0 40422.0 47048.0 154464.0 160365.0 258629.0 253719.0 131325.0 138409.0 141771.0 133739.0 248445.0 242216.0 65346.0 60282.0 135648.0 140215.0 89809.0 88942.0 57108.0 63495.0 314170.0 312230.0 270462.0 268692.0 33292.0 35337.0 88814.0 88170.0 176257.0 183114.0 149818.0 145762.0 279075.0 279587.0 134550.0 139846.0 120994.0 116316.0 284593.0 283373.0 45843.0 38771.0 280842.0 272674.0 110237.0 113779.0 0.0 158470.0 0.0 0.0 0.0 0.0 158470.0 158470.0 158470.0 158470.0
213451.0 210164.0 119700.0 120848.0 183483.0 179018.0 147836.0 148365.0 78028.0 74759.0 209336.0 215192.0 250760.0 252484.0 287186.0 287395.0 208797.0 208225.0 224357.0 227389.0 100929.0 104309.0 205338.0 203519.0 262112.0 261115.0 125530.0 133371.0 135822.0 127741.0 305958.0 312811.0 111434.0 112936.0 40422.0 47048.0 154464.0 160365.0 258629.0 253719.0 131325.0 138409.0 141771.0 133739.0 248445.0 242216.0 65346.0 60282.0 135648.0 140215.0 89809.0 88942.0 57108.0 63495.0 314170.0 312230.0 270462.0 268692.0 33292.0 35337.0 88814.0 88170.0 176257.0 183114.0 149818.0 145762.0 279075.0 279587.0 134550.0 139846.0 120994.0 116316.0 284593.0 283373.0 45843.0 38771.0 280842.0 272674.0 110237.0 113779.0 0.0 158470.0 0.0 0.0 0.0 0.0 158470.0 158470.0 158470.0 158470.0
213451.0 210164.0 119700.0 120848.0 183483.0 179018.0 147836.0 148365.0 78028.0 74759.0 209336.0 215192.0 250760.0 252484.0 287186.0 287395.0 208797.0 208225.0 224357.0 227389.0 100929.0 104309.0 205338.0 203519.0 262112.0 261115.0 125530.0 133371.0 135822.0 127741.0 305958.0 312811.0 111434.0 112936.0 40422.0 47048.0 154464.0 160365.0 258629.0 253719.0 131325.0 138409.0 141771.0 133739.0 248445.0 242216.0 65346.0 60282.0 135648.0 140215.0 89809.0 88942.0 57108.0 63495.0 314170.0 312230.0 270462.0 268692.0 33292.0 35337.0 88814.0 88170.0 176257.0 183114.0 149818.0 145762.0 279075.0 279587.0 134550.0 139846.0 120994.0 116316.0 284593.0 283373.0 45843.0 38771.0 280842.0 272674.0 110237.0 113779.0 0.0 158470.0 0.0 0.0 0.0 0.0 158470.0 158470.0 158470.0 158470.0
213451.0 210164.0 119700.0 120848.0 183483.0 179018.0 147836.0 148365.0 78028.0 74759.0 209336.0 215192.0 250760.0 252484.0 287186.0 287395.0 208797.0 208225.0 224357.0 227389.0 100929.0 104309.0 205338.0 203519.0 262112.0 261115.0 125530.0 133371.0 135822.0 127741.0 305958.0 312811.0 111434.0 112936.0 40422.0 47048.0 154464.0 160365.0 258629.0 253719.0 131325.0 138409.0 141771.0 133739.0 248445.0 242216.0 65346.0 60282.0 135648.0 140215.0 89809.0 88942.0 57108.0 63495.0 314170.0 312230.0 270462.0 268692.0 33292.0 35337.0 88814.0 88170.0 176257.0 183114.0 149818.0 145762.0 279075.0 279587.0 134550.0 139846.0 120994.0 116316.0 284593.0 283373.0 45843.0 38771.0 280842.0 272674.0 110237.0 113779.0 0.0 158470.0 0.0 0.0 0.0 0.0 158470.0 158470.0 158470.0 158470.0
68145.0 68493.0 150783.0 158330.0 75084.0 78498.0 97785.0 105378.0 143376.0 149722.0 50865.0 57106.0 197841.0 194778.0 129679.0 129575.0 196710.0 201614.0 75676.0 80817.0 77703.0 70508.0 239442.0 242642.0 222342.0 226086.0 211398.0 216364.0 95068.0 91411.0 149265.0 156118.0 172222.0 166420.0 164826.0 172518.0 66901.0 73696.0 104040.0 100037.0 34986.0 35028.0 88619.0 89649.0 97988.0 93095.0 202490.0 198994.0 120401.0 115283.0 189257.0 182886.0 191029.0 195567.0 157477.0 155537.0 261626.0 255959.0 155105.0 149371.0 135524.0 127556.0 42206.0 49871.0 89199.0 94711.0 260732.0 265317.0 195588.0 203707.0 143177.0 147199.0 247775.0 250835.0 177392.0 172534.0 124149.0 115982.0 93760.0 86341.0 158470.0 0.0 158470.0 158470.0 158470.0 158470.0 0.0 0.0 0.0 0.0
68145.0 68493.0 150783.0 158330.0 75084.0 78498.0 97785.0 105378.0 143376.0 149722.0 50865.0 57106.0 197841.0 194778.0 129679.0 129575.0 196710.0 201614.0 75676.0 80817.0 77703.0 70508.0 239442.0 242642.0 222342.0 226086.0 211398.0 216364.0 95068.0 91411.0 149265.0 156118.0 172222.0 166420.0 164826.0 172518.0 66901.0 73696.0 104040.0 100037.0 34986.0 35028.0 88619.0 89649.0 97988.0 93095.0 202490.0 198994.0 120401.0 115283.0 189257.0 182886.0 191029.0 195567.0 157477.0 155537.0 261626.0 255959.0 155105.0 149371.0 135524.0 127556.0 42206.0 49871.0 89199.0 94711.0 260732.0 265317.0 195588.0 203707.0 143177.0 147199.0 247775.0 250835.0 177392.0 172534.0 124149.0 115982.0 93760.0 86341.0 158470.0 0.0 158470.0 158470.0 158470.0 158470.0 0.0 0.0 0.0 0.0
68145.0 68493.0 150783.0 158330.0 75084.0 78498.0 97785.0 105378.0 143376.0 149722.0 50865.0 57106.0 197841.0 194778.0 129679.0 129575.0 196710.0 201614.0 75676.0 80817.0 77703.0 70508.0 239442.0 242642.0 222342.0 226086.0 211398.0 216364.0 95068.0 91411.0 149265.0 156118.0 172222.0 166420.0 164826.0 172518.0 66901.0 73696.0 104040.0 100037.0 34986.0 35028.0 88619.0 89649.0 97988.0 93095.0 202490.0 198994.0 120401.0 115283.0 189257.0 182886.0 191029.0 195567.0 157477.0 155537.0 261626.0 255959.0 155105.0 149371.0 135524.0 127556.0 42206.0 49871.0 89199.0 94711.0 260732.0 265317.0 195588.0 203707.0 143177.0 147199.0 247775.0 250835.0 177392.0 172534.0 124149.0 115982.0 93760.0 86341.0 158470.0 0.0 158470.0 158470.0 158470.0 158470.0 0.0 0.0 0.0 0.0
68145.0 68493.0 150783.0 158330.0 75084.0 78498.0 97785.0 105378.0 143376.0 149722.0 50865.0 57106.0 197841.0 194778.0 129679.0 129575.0 196710.0 201614.0 75676.0 80817.0 77703.0 70508.0 239442.0 242642.0 222342.0 226086.0 211398.0 216364.0 95068.0 91411.0 149265.0 156118.0 172222.0 166420.0 164826.0 172518.0 66901.0 73696.0 104040.0 100037.0 34986.0 35028.0 88619.0 89649.0 97988.0 93095.0 202490.0 198994.0 120401.0 115283.0 189257.0 182886.0 191029.0 195567.0 157477.0 155537.0 261626.0 255959.0 155105.0 149371.0 135524.0 127556.0 42206.0 49871.0 89199.0 94711.0 260732.0 265317.0 195588.0 203707.0 143177.0 147199.0 247775.0 250835.0 177392.0 172534.0 124149.0 115982.0 93760.0 86341.0 158470.0 0.0 158470.0 158470.0 158470.0 158470.0 0.0 0.0 0.0 0.0
FIXED_EDGES_SECTION
1 2
3 4
5 6
7 8
9 10
11 12
13 14
15 16
17 18
19 20
21 22
23 24
25 26
27 28
29 30
31 32
33 34
35 36
37 38
39 40
41 42
43 44
45 46
47 48
49 50
51 52
53 54
55 56
57 58
59 60
61 62
63 64
65 66
67 68
69 70
71 72
73 74
75 76
77 78
79 80
-1 
DEMAND_SECTION
1 319
2 319
3 96
4 96
5 68
6 68
7 291
8 291
9 394
10 394
11 114
12 114
13 321
14 321
15 60
16 60
17 157
18 157
19 620
20 620
21 75
22 75
23 68
24 68
25 234
26 234
27 55
28 55
29 119
30 119
31 280
32 280
33 583
34 583
35 618
36 618
37 342
38 342
39 341
40 341
41 100
42 100
43 223
44 223
45 244
46 244
47 369
48 369
49 279
50 279
51 57
52 57
53 219
54 219
55 71
56 71
57 542
58 542
59 485
60 485
61 277
62 277
63 313
64 313
65 158
66 158
67 138
68 138
69 247
70 247
71 541
72 541
73 120
74 120
75 341
76 341
77 224
78 224
79 80
80 80
81 0
82 0
83 0
84 0
85 0
86 0
87 0
88 0
89 0
90 0
DEPOT_SECTION
81 
-1 
CAPACITIES_SECTION
5000 
5500 
-1 
EOF