NAME: GFS_20_1
TYPE: GFSP
DIMENSION: 92
VEHICLES: 2
CAPACITY: 5000.0
TRIP_DIST_LIMIT: 750000.0
TOTAL_DIST_LIMIT: 2100000.0
EDGE_WEIGHT_TYPE: EXPLICIT
EDGE_WEIGHT_FORMAT: FULL_MATRIX
EDGE_WEIGHT_SECTION
0.0 7195.0 78140.0 72217.0 86363.0 89383.0 55995.0 57574.0 156371.0 158088.0 235661.0 227529.0 120192.0 115438.0 43495.0 36729.0 43716.0 47612.0 35617.0 43541.0 60221.0 56387.0 180439.0 174773.0 156612.0 149642.0 180850.0 182069.0 128672.0 123894.0 128155.0 133698.0 53755.0 59442.0 94520.0 88819.0 126688.0 124857.0 50910.0 48880.0 17433.0 9094.0 245077.0 243490.0 26233.0 32820.0 55182.0 54517.0 206003.0 201881.0 132829.0 125276.0 146824.0 147834.0 115629.0 114275.0 139885.0 141809.0 182898.0 178949.0 83051.0 78186.0 138567.0 132072.0 158922.0 166790.0 94742.0 91838.0 125155.0 129063.0 174442.0 180266.0 120285.0 114472.0 95327.0 100528.0 141490.0 139481.0 91176.0 83940.0 100929.0 77703.0 100929.0 100929.0 100929.0 100929.0 100929.0 77703.0 77703.0 77703.0 77703.0 77703.0
7195.0 0.0 85309.0 79411.0 93361.0 96498.0 60638.0 62889.0 149294.0 151091.0 228859.0 220741.0 114135.0 109611.0 43972.0 38190.0 36602.0 40772.0 42763.0 50704.0 58814.0 55874.0 174012.0 168457.0 150441.0 143558.0 183676.0 185186.0 135304.0 130664.0 120973.0 126545.0 50259.0 56551.0 101715.0 95995.0 132007.0 130458.0 50772.0 49879.0 21068.0 12746.0 237989.0 236447.0 32911.0 39792.0 59959.0 58454.0 210540.0 206228.0 138884.0 131249.0 153098.0 154291.0 119599.0 117834.0 145914.0 148040.0 187361.0 183628.0 79175.0 74870.0 144455.0 138099.0 164784.0 172644.0 100535.0 97267.0 130780.0 134425.0 168021.0 173744.0 127369.0 121606.0 90104.0 95629.0 145972.0 143640.0 95921.0 88899.0 104309.0 70508.0 104309.0 104309.0 104309.0 104309.0 104309.0 70508.0 70508.0 70508.0 70508.0 70508.0
78140.0 85309.0 0.0 7955.0 15185.0 12531.0 57678.0 49934.0 232675.0 233587.0 308756.0 300534.0 188654.0 182384.0 86626.0 79531.0 121137.0 123625.0 44032.0 36336.0 106286.0 98461.0 250519.0 243967.0 224938.0 217416.0 160950.0 158545.0 70662.0 62997.0 205757.0 210910.0 113402.0 114417.0 17654.0 10743.0 95068.0 88856.0 93314.0 85509.0 72316.0 75912.0 321228.0 319120.0 54132.0 46294.0 56261.0 64592.0 162533.0 161174.0 86775.0 82318.0 94244.0 91339.0 106261.0 110390.0 93135.0 90797.0 142228.0 135748.0 139348.0 131637.0 81942.0 73979.0 112688.0 119828.0 64873.0 69665.0 75176.0 82601.0 244556.0 251196.0 49569.0 41969.0 159205.0 161777.0 119603.0 122397.0 79678.0 72842.0 108311.0 155705.0 108311.0 108311.0 108311.0 108311.0 108311.0 155705.0 155705.0 155705.0 155705.0 155705.0
72217.0 79411.0 7955.0 0.0 22761.0 20384.0 57615.0 50189.0 227650.0 228790.0 304599.0 296389.0 185096.0 179024.0 84231.0 76749.0 115603.0 118462.0 37344.0 29453.0 104356.0 96680.0 246869.0 240456.0 221522.0 214065.0 166327.0 164201.0 69683.0 62458.0 200231.0 205559.0 110249.0 111778.0 22308.0 17211.0 90574.0 84746.0 91301.0 83705.0 67762.0 70668.0 316303.0 314349.0 49307.0 41334.0 56104.0 64185.0 169652.0 168113.0 84025.0 78990.0 92722.0 90486.0 99940.0 103764.0 90630.0 88940.0 149074.0 142731.0 136979.0 129475.0 89449.0 81515.0 110435.0 117779.0 59254.0 63464.0 82118.0 89356.0 240888.0 247394.0 51519.0 44449.0 156124.0 159050.0 114531.0 116929.0 72949.0 65892.0 100915.0 149917.0 100915.0 100915.0 100915.0 100915.0 100915.0 149917.0 149917.0 149917.0 149917.0 149917.0
86363.0 93361.0 15185.0 22761.0 0.0 8408.0 55060.0 47184.0 237819.0 238219.0 311819.0 303584.0 190782.0 184132.0 87467.0 81305.0 127969.0 129610.0 54749.0 47748.0 105849.0 97865.0 252623.0 245798.0 226626.0 218995.0 147533.0 144781.0 79788.0 71678.0 212133.0 216865.0 115285.0 115258.0 22465.0 15036.0 108280.0 101697.0 93267.0 85226.0 77804.0 82729.0 325974.0 323520.0 60772.0 53569.0 53897.0 62300.0 147417.0 146155.0 98033.0 94329.0 103759.0 99912.0 121040.0 125348.0 104011.0 100826.0 127278.0 120711.0 139384.0 131340.0 66764.0 58808.0 123054.0 129856.0 79265.0 84435.0 60214.0 67784.0 246713.0 253616.0 54803.0 46765.0 160515.0 162355.0 133309.0 136473.0 94713.0 87966.0 123494.0 162894.0 123494.0 123494.0 123494.0 123494.0 123494.0 162894.0 162894.0 162894.0 162894.0 162894.0
89383.0 96498.0 12531.0 20384.0 8408.0 0.0 62337.0 54432.0 242629.0 243267.0 317570.0 309338.0 196845.0 190332.0 93833.0 87310.0 131844.0 133922.0 56077.0 48547.0 112690.0 104736.0 258730.0 252004.0 232876.0 225280.0 155114.0 152164.0 71450.0 63316.0 216321.0 221270.0 121348.0 121696.0 14089.0 7169.0 100942.0 94191.0 99951.0 91961.0 82222.0 86506.0 331000.0 328702.0 64528.0 56939.0 61095.0 69533.0 152977.0 152046.0 90004.0 86520.0 95434.0 91522.0 115052.0 119695.0 95887.0 92564.0 133364.0 126584.0 146131.0 138182.0 71617.0 63613.0 114820.0 121571.0 72906.0 78541.0 66464.0 74279.0 252798.0 259602.0 46460.0 38431.0 166853.0 168949.0 126220.0 129658.0 89330.0 82921.0 119091.0 166617.0 119091.0 119091.0 119091.0 119091.0 119091.0 166617.0 166617.0 166617.0 166617.0 166617.0
55995.0 60638.0 57678.0 57615.0 55060.0 62337.0 0.0 7905.0 188726.0 188173.0 259091.0 250867.0 137553.0 130552.0 34751.0 31065.0 86374.0 85395.0 49038.0 49762.0 51169.0 43174.0 199066.0 192013.0 172781.0 165084.0 127715.0 128060.0 127297.0 120025.0 166082.0 169744.0 62906.0 61529.0 74387.0 66369.0 143751.0 139022.0 39115.0 31077.0 39635.0 47914.0 275568.0 272567.0 35046.0 35615.0 1610.0 7250.0 150017.0 145900.0 140591.0 134846.0 150195.0 148101.0 145088.0 146617.0 147409.0 146254.0 126903.0 123018.0 84738.0 76558.0 86414.0 81002.0 167353.0 174854.0 110241.0 111676.0 71699.0 74466.0 193228.0 200371.0 107130.0 99369.0 106687.0 107927.0 165227.0 165928.0 117227.0 109243.0 137159.0 120399.0 137159.0 137159.0 137159.0 137159.0 137159.0 120399.0 120399.0 120399.0 120399.0 120399.0
57574.0 62889.0 49934.0 50189.0 47184.0 54432.0 7905.0 0.0 195255.0 194891.0 266390.0 258162.0 144911.0 137990.0 41699.0 37104.0 90999.0 90579.0 45429.0 45020.0 58864.0 50865.0 206528.0 199525.0 180302.0 172617.0 129911.0 129766.0 119843.0 112487.0 171980.0 175858.0 69923.0 68928.0 66527.0 58497.0 137465.0 132525.0 46594.0 38526.0 42363.0 50183.0 282412.0 279515.0 34155.0 32939.0 6723.0 15120.0 149012.0 145273.0 133602.0 128021.0 142886.0 140638.0 140063.0 141932.0 140365.0 139024.0 126098.0 121774.0 92442.0 84305.0 82147.0 76282.0 160278.0 167728.0 104155.0 105990.0 68010.0 71544.0 200672.0 207764.0 99314.0 91530.0 114171.0 115575.0 159424.0 160405.0 112124.0 104180.0 133236.0 125451.0 133236.0 133236.0 133236.0 133236.0 133236.0 125451.0 125451.0 125451.0 125451.0 125451.0
156371.0 149294.0 232675.0 227650.0 237819.0 242629.0 188726.0 195255.0 0.0 8428.0 84356.0 76973.0 62806.0 70579.0 154057.0 158191.0 112702.0 109203.0 191954.0 199816.0 142055.0 149045.0 52757.0 54678.0 54664.0 57164.0 262412.0 268088.0 283145.0 279170.0 32708.0 24935.0 126328.0 129562.0 249839.0 243398.0 273093.0 273009.0 151139.0 158616.0 160449.0 156985.0 88714.0 87266.0 178550.0 186440.0 189186.0 182305.0 311953.0 305120.0 283683.0 275729.0 298917.0 301081.0 254949.0 252298.0 290481.0 293672.0 290090.0 289963.0 114158.0 121920.0 271506.0 267507.0 308186.0 315914.0 244750.0 239838.0 255761.0 255716.0 49819.0 48298.0 276656.0 270781.0 90576.0 94548.0 282748.0 279252.0 235363.0 229629.0 238728.0 81174.0 238728.0 238728.0 238728.0 238728.0 238728.0 81174.0 81174.0 81174.0 81174.0 81174.0
158088.0 151091.0 233587.0 228790.0 238219.0 243267.0 188173.0 194891.0 8428.0 0.0 79828.0 72147.0 58446.0 66381.0 153428.0 157952.0 114626.0 110605.0 193557.0 201351.0 140489.0 147689.0 44441.0 46250.0 46836.0 49846.0 258025.0 263864.0 285618.0 281435.0 38419.0 30346.0 125432.0 128187.0 250884.0 244282.0 275808.0 275725.0 150093.0 157725.0 161273.0 158223.0 87755.0 85560.0 179545.0 187484.0 188701.0 181606.0 308438.0 301498.0 286361.0 278390.0 301633.0 303757.0 257664.0 255013.0 293131.0 296385.0 286789.0 286881.0 111444.0 119414.0 269978.0 266195.0 310902.0 318630.0 247433.0 242553.0 254189.0 253876.0 41402.0 40091.0 278294.0 272256.0 87564.0 90923.0 285464.0 281967.0 238079.0 232345.0 241444.0 84457.0 241444.0 241444.0 241444.0 241444.0 241444.0 84457.0 84457.0 84457.0 84457.0 84457.0
235661.0 228859.0 308756.0 304599.0 311819.0 317570.0 259091.0 266390.0 84356.0 79828.0 0.0 8235.0 121574.0 128799.0 224784.0 230529.0 192902.0 188087.0 270668.0 278271.0 208657.0 216470.0 61399.0 69235.0 87943.0 95641.0 305284.0 312277.0 364054.0 359523.0 117041.0 109278.0 196658.0 197576.0 326312.0 319298.0 355129.0 354969.0 220012.0 228019.0 236861.0 234821.0 38726.0 30736.0 255367.0 263355.0 259862.0 252097.0 361249.0 353661.0 365664.0 357732.0 380746.0 382597.0 336985.0 334334.0 372490.0 375535.0 341524.0 343091.0 176031.0 184465.0 335401.0 332718.0 390186.0 397890.0 326732.0 321865.0 319626.0 317968.0 66796.0 59138.0 355098.0 348694.0 152736.0 152836.0 364784.0 361288.0 317399.0 311665.0 320764.0 164164.0 320764.0 320764.0 320764.0 320764.0 320764.0 164164.0 164164.0 164164.0 164164.0 164164.0
227529.0 220741.0 300534.0 296389.0 303584.0 309338.0 250867.0 258162.0 76973.0 72147.0 8235.0 0.0 113360.0 120605.0 216553.0 222294.0 184836.0 179969.0 262504.0 270098.0 200455.0 208263.0 53428.0 61327.0 79904.0 87582.0 297994.0 304932.0 355962.0 351403.0 109680.0 101845.0 188425.0 189355.0 318092.0 311072.0 347194.0 347070.0 211791.0 219797.0 228655.0 226645.0 42065.0 34444.0 247163.0 255151.0 251636.0 243877.0 353718.0 346158.0 357688.0 349765.0 372734.0 374547.0 329050.0 326399.0 364525.0 367530.0 333880.0 335377.0 167868.0 176301.0 327316.0 324599.0 382275.0 389988.0 318760.0 313938.0 311534.0 309918.0 58739.0 51018.0 346911.0 340495.0 144539.0 144693.0 356850.0 353353.0 309464.0 303730.0 312829.0 156343.0 312829.0 312829.0 312829.0 312829.0 312829.0 156343.0 156343.0 156343.0 156343.0 156343.0
120192.0 114135.0 188654.0 185096.0 190782.0 196845.0 137553.0 144911.0 62806.0 58446.0 121574.0 113360.0 0.0 7996.0 103429.0 109542.0 82126.0 75235.0 153342.0 160494.0 87137.0 94914.0 61891.0 55362.0 36588.0 29453.0 199675.0 205448.0 248213.0 242883.0 61164.0 57972.0 75511.0 76024.0 206301.0 199013.0 245596.0 244425.0 98453.0 106475.0 118069.0 117489.0 140943.0 136986.0 136488.0 144401.0 138349.0 130535.0 250144.0 243148.0 252990.0 245380.0 266985.0 267782.0 229658.0 227021.0 260032.0 261992.0 228667.0 228982.0 55180.0 63539.0 215193.0 212049.0 278906.0 286763.0 214651.0 211116.0 199364.0 198346.0 55953.0 62869.0 236318.0 229514.0 31341.0 32994.0 257380.0 253956.0 208615.0 202097.0 213451.0 68145.0 213451.0 213451.0 213451.0 213451.0 213451.0 68145.0 68145.0 68145.0 68145.0 68145.0
115438.0 109611.0 182384.0 179024.0 184132.0 190332.0 130552.0 137990.0 70579.0 66381.0 128799.0 120605.0 7996.0 0.0 96681.0 103039.0 78999.0 71755.0 147948.0 154960.0 79868.0 87712.0 68544.0 61675.0 42561.0 35043.0 191841.0 197569.0 242902.0 237417.0 67063.0 64480.0 69021.0 69063.0 200038.0 192666.0 241451.0 240062.0 91438.0 99489.0 112418.0 112272.0 148788.0 144746.0 130730.0 138593.0 131388.0 123484.0 242160.0 235171.0 248251.0 240714.0 262028.0 262632.0 226375.0 223734.0 255314.0 257083.0 220673.0 220989.0 47500.0 55899.0 207496.0 204433.0 274342.0 282208.0 210118.0 206825.0 191670.0 190568.0 62682.0 69855.0 230371.0 223470.0 23940.0 25041.0 253883.0 250677.0 204737.0 198064.0 210164.0 68493.0 210164.0 210164.0 210164.0 210164.0 210164.0 68493.0 68493.0 68493.0 68493.0 68493.0
43495.0 43972.0 86626.0 84231.0 87467.0 93833.0 34751.0 41699.0 154057.0 153428.0 224784.0 216553.0 103429.0 96681.0 0.0 8419.0 56746.0 53912.0 60054.0 65064.0 20724.0 14177.0 165203.0 158336.0 139159.0 131528.0 141837.0 144067.0 151868.0 145429.0 132163.0 135497.0 28224.0 27871.0 104204.0 96580.0 160139.0 156787.0 8190.0 6601.0 28015.0 34707.0 240823.0 237856.0 40777.0 47290.0 35332.0 28258.0 174503.0 169336.0 161469.0 154752.0 173229.0 172420.0 154516.0 154256.0 168533.0 168745.0 151233.0 148656.0 52769.0 45272.0 119067.0 114335.0 188391.0 196167.0 126522.0 125754.0 103696.0 105088.0 159310.0 166297.0 135688.0 128385.0 73055.0 75201.0 178349.0 177482.0 128055.0 120238.0 141771.0 88619.0 141771.0 141771.0 141771.0 141771.0 141771.0 88619.0 88619.0 88619.0 88619.0 88619.0
36729.0 38190.0 79531.0 76749.0 81305.0 87310.0 31065.0 37104.0 158191.0 157952.0 230529.0 222294.0 109542.0 103039.0 8419.0 0.0 56292.0 54624.0 51647.0 56754.0 29042.0 22576.0 171423.0 164704.0 145595.0 138022.0 145856.0 147672.0 143859.0 137521.0 135041.0 138797.0 34038.0 35031.0 97169.0 89686.0 151723.0 148390.0 16588.0 12284.0 20301.0 27703.0 245577.0 242824.0 32372.0 38998.0 31293.0 25634.0 175959.0 171098.0 153176.0 146420.0 165058.0 164356.0 146242.0 146077.0 160246.0 160540.0 152670.0 149672.0 60333.0 53101.0 117102.0 111928.0 180086.0 187870.0 118113.0 117337.0 102056.0 104096.0 165494.0 172337.0 128265.0 121073.0 79695.0 82323.0 169963.0 169141.0 119697.0 111867.0 133739.0 89649.0 133739.0 133739.0 133739.0 133739.0 133739.0 89649.0 89649.0 89649.0 89649.0 89649.0
43716.0 36602.0 121137.0 115603.0 127969.0 131844.0 86374.0 90999.0 112702.0 114626.0 192902.0 184836.0 82126.0 78999.0 56746.0 56292.0 0.0 8000.0 79332.0 87243.0 59318.0 61330.0 139615.0 134584.0 117369.0 110986.0 196200.0 199128.0 171191.0 166848.0 84639.0 90016.0 41911.0 49787.0 137900.0 131874.0 164241.0 163574.0 59143.0 63223.0 50495.0 45338.0 201390.0 199887.0 67330.0 74940.0 86251.0 81746.0 231239.0 226010.0 173276.0 165447.0 188051.0 189721.0 147536.0 144895.0 180204.0 182887.0 207974.0 205377.0 62399.0 61999.0 172779.0 167202.0 198496.0 206302.0 134453.0 130218.0 158018.0 160328.0 133677.0 138937.0 163971.0 158187.0 63979.0 71136.0 175277.0 171836.0 126882.0 120644.0 131325.0 34986.0 131325.0 131325.0 131325.0 131325.0 131325.0 34986.0 34986.0 34986.0 34986.0 34986.0
47612.0 40772.0 123625.0 118462.0 129610.0 133922.0 85395.0 90579.0 109203.0 110605.0 188087.0 179969.0 75235.0 71755.0 53912.0 54624.0 8000.0 0.0 82960.0 90747.0 53959.0 56800.0 133717.0 128441.0 110896.0 104336.0 191302.0 194482.0 176043.0 171436.0 82530.0 87349.0 35838.0 43570.0 140681.0 134365.0 170558.0 169652.0 55279.0 60173.0 51806.0 47794.0 197892.0 196107.0 69511.0 77336.0 85421.0 80259.0 227905.0 222481.0 178929.0 171169.0 193469.0 194885.0 154622.0 151979.0 185903.0 188352.0 204691.0 202370.0 54637.0 54598.0 171699.0 166397.0 204418.0 212247.0 140237.0 136291.0 156680.0 158595.0 127748.0 133255.0 167692.0 161669.0 56086.0 63179.0 182199.0 178924.0 133415.0 126994.0 138409.0 35028.0 138409.0 138409.0 138409.0 138409.0 138409.0 35028.0 35028.0 35028.0 35028.0 35028.0
35617.0 42763.0 44032.0 37344.0 54749.0 56077.0 49038.0 45429.0 191954.0 193557.0 270668.0 262504.0 153342.0 147948.0 60054.0 51647.0 79332.0 82960.0 0.0 7992.0 80640.0 74126.0 214454.0 208470.0 189928.0 182719.0 175212.0 174812.0 94961.0 89546.0 163707.0 169307.0 81307.0 84767.0 59463.0 54410.0 100117.0 96752.0 68162.0 62227.0 35893.0 35985.0 280666.0 279021.0 19278.0 14001.0 47529.0 52355.0 190141.0 187219.0 102081.0 95094.0 114768.0 114862.0 97024.0 98015.0 109179.0 110026.0 167883.0 162701.0 110133.0 103663.0 115257.0 107908.0 128874.0 136702.0 66468.0 65964.0 104144.0 109747.0 208450.0 214557.0 84738.0 78855.0 126276.0 130387.0 119129.0 118924.0 69544.0 61562.0 88120.0 113104.0 88120.0 88120.0 88120.0 88120.0 88120.0 113104.0 113104.0 113104.0 113104.0 113104.0
43541.0 50704.0 36336.0 29453.0 47748.0 48547.0 49762.0 45020.0 199816.0 201351.0 278271.0 270098.0 160494.0 154960.0 65064.0 56754.0 87243.0 90747.0 7992.0 0.0 85779.0 78922.0 221775.0 215709.0 197081.0 189819.0 173768.0 172999.0 88156.0 82464.0 171667.0 177238.0 87677.0 90711.0 51500.0 46587.0 95932.0 92079.0 73028.0 66592.0 42583.0 43459.0 288530.0 286842.0 24796.0 17781.0 48182.0 54030.0 186270.0 183636.0 96424.0 89693.0 108562.0 108301.0 95326.0 96958.0 103497.0 103942.0 164304.0 158857.0 116164.0 109437.0 109985.0 102474.0 123333.0 131117.0 62144.0 62546.0 99553.0 105531.0 215772.0 221954.0 76958.0 70967.0 133001.0 136872.0 116083.0 116406.0 67481.0 59491.0 88461.0 121085.0 88461.0 88461.0 88461.0 88461.0 88461.0 121085.0 121085.0 121085.0 121085.0 121085.0
60221.0 58814.0 106286.0 104356.0 105849.0 112690.0 51169.0 58864.0 142055.0 140489.0 208657.0 200455.0 87137.0 79868.0 20724.0 29042.0 59318.0 53959.0 80640.0 85779.0 0.0 7999.0 148209.0 141041.0 121802.0 114081.0 137397.0 140746.0 172460.0 165933.0 123513.0 125754.0 18774.0 12788.0 123720.0 115936.0 180629.0 177391.0 13067.0 20788.0 47070.0 52282.0 226890.0 223443.0 61382.0 68009.0 52157.0 43970.0 176422.0 170544.0 182191.0 175458.0 193927.0 193050.0 174037.0 173414.0 189256.0 189457.0 153462.0 151948.0 33578.0 25497.0 129502.0 125749.0 209110.0 216888.0 147082.0 146117.0 113730.0 113724.0 142423.0 149706.0 155646.0 148212.0 55928.0 56773.0 198399.0 197283.0 147979.0 140240.0 160498.0 85675.0 160498.0 160498.0 160498.0 160498.0 160498.0 85675.0 85675.0 85675.0 85675.0 85675.0
56387.0 55874.0 98461.0 96680.0 97865.0 104736.0 43174.0 50865.0 149045.0 147689.0 216470.0 208263.0 94914.0 87712.0 14177.0 22576.0 61330.0 56800.0 74126.0 78922.0 7999.0 0.0 156113.0 148973.0 129735.0 122019.0 134884.0 137817.0 165071.0 158453.0 129608.0 132151.0 23723.0 19504.0 115855.0 108045.0 174238.0 170809.0 5989.0 12978.0 41868.0 47949.0 234347.0 230988.0 54854.0 61145.0 44158.0 35983.0 171755.0 166096.0 175230.0 168601.0 186731.0 185710.0 168634.0 168292.0 182278.0 182318.0 148658.0 146813.0 41577.0 33475.0 122472.0 118515.0 202172.0 209926.0 140586.0 139902.0 106753.0 107060.0 150314.0 157564.0 147881.0 140409.0 63779.0 64758.0 192525.0 191644.0 142225.0 134413.0 155671.0 89876.0 155671.0 155671.0 155671.0 155671.0 155671.0 89876.0 89876.0 89876.0 89876.0 89876.0
180439.0 174012.0 250519.0 246869.0 252623.0 258730.0 199066.0 206528.0 52757.0 44441.0 61399.0 53428.0 61891.0 68544.0 165203.0 171423.0 139615.0 133717.0 214454.0 221775.0 148209.0 156113.0 0.0 8065.0 26625.0 34366.0 246101.0 252833.0 309022.0 303947.0 79602.0 71737.0 137386.0 137604.0 268161.0 260896.0 303774.0 303189.0 159960.0 168017.0 179570.0 178479.0 88254.0 82487.0 198055.0 206003.0 199917.0 191976.0 300987.0 293510.0 312643.0 304884.0 327087.0 328269.0 286003.0 283353.0 319619.0 322001.0 280860.0 282204.0 115168.0 123593.0 274087.0 271505.0 338077.0 345893.0 273941.0 269832.0 258328.0 256595.0 6004.0 5370.0 297975.0 291253.0 92381.0 91854.0 313803.0 310306.0 266234.0 260183.0 269783.0 116178.0 269783.0 269783.0 269783.0 269783.0 269783.0 116178.0 116178.0 116178.0 116178.0 116178.0
174773.0 168457.0 243967.0 240456.0 245798.0 252004.0 192013.0 199525.0 54678.0 46250.0 69235.0 61327.0 55362.0 61675.0 158336.0 164704.0 134584.0 128441.0 208470.0 215709.0 141041.0 148973.0 8065.0 0.0 19238.0 26969.0 238045.0 244771.0 303203.0 298009.0 79023.0 71411.0 130673.0 130639.0 261618.0 254291.0 298825.0 298074.0 152933.0 161000.0 173368.0 172533.0 96259.0 90537.0 191814.0 199739.0 192891.0 184893.0 292930.0 285449.0 307258.0 299545.0 321552.0 322588.0 281416.0 278765.0 314258.0 316497.0 272824.0 274191.0 107846.0 116256.0 266424.0 263916.0 332856.0 340687.0 268653.0 264711.0 250680.0 248870.0 5370.0 12310.0 291674.0 284876.0 85358.0 84499.0 309216.0 305719.0 261405.0 255227.0 265195.0 112592.0 265195.0 265195.0 265195.0 265195.0 265195.0 112592.0 112592.0 112592.0 112592.0 112592.0
156612.0 150441.0 224938.0 221522.0 226626.0 232876.0 172781.0 180302.0 54664.0 46836.0 87943.0 79904.0 36588.0 42561.0 139159.0 145595.0 117369.0 110896.0 189928.0 197081.0 121802.0 129735.0 26625.0 19238.0 0.0 7751.0 221755.0 228269.0 284782.0 279470.0 71600.0 64916.0 111581.0 111433.0 242591.0 235227.0 281454.0 280485.0 133708.0 141776.0 154640.0 154059.0 112594.0 107439.0 173038.0 180939.0 173664.0 165658.0 275705.0 268326.0 289324.0 281670.0 303435.0 304308.0 264666.0 262015.0 296350.0 298419.0 255256.0 256394.0 88629.0 97044.0 247481.0 244881.0 315110.0 322958.0 250862.0 247137.0 231716.0 230025.0 21170.0 29054.0 272813.0 265960.0 66146.0 65290.0 292467.0 288969.0 244231.0 237884.0 248445.0 97988.0 248445.0 248445.0 248445.0 248445.0 248445.0 97988.0 97988.0 97988.0 97988.0 97988.0
149642.0 143558.0 217416.0 214065.0 218995.0 225280.0 165084.0 172617.0 57164.0 49846.0 95641.0 87582.0 29453.0 35043.0 131528.0 138022.0 110986.0 104336.0 182719.0 189819.0 114081.0 122019.0 34366.0 26969.0 7751.0 0.0 214976.0 221406.0 277623.0 272244.0 70555.0 64434.0 104029.0 103773.0 235070.0 227680.0 274853.0 273772.0 126023.0 134092.0 147330.0 146906.0 119702.0 114706.0 165693.0 173576.0 165974.0 157953.0 268555.0 261215.0 282428.0 274807.0 296439.0 297223.0 258437.0 255786.0 289467.0 291445.0 247987.0 249042.0 80883.0 89297.0 239767.0 237147.0 308308.0 316162.0 244052.0 240444.0 223998.0 222337.0 28846.0 36644.0 265398.0 258511.0 58488.0 57541.0 286226.0 282740.0 237746.0 231315.0 242216.0 93095.0 242216.0 242216.0 242216.0 242216.0 242216.0 93095.0 93095.0 93095.0 93095.0 93095.0
180850.0 183676.0 160950.0 166327.0 147533.0 155114.0 127715.0 129911.0 262412.0 258025.0 305284.0 297994.0 199675.0 191841.0 141837.0 145856.0 196200.0 191302.0 175212.0 173768.0 137397.0 134884.0 246101.0 238045.0 221755.0 214976.0 0.0 8242.0 224395.0 216073.0 252875.0 252893.0 155956.0 148764.0 168528.0 162253.0 255783.0 249227.0 137575.0 135301.0 163424.0 171894.0 334145.0 328581.0 162753.0 162774.0 129005.0 127087.0 60045.0 51929.0 244705.0 241595.0 248098.0 242796.0 265703.0 268770.0 250212.0 246009.0 48697.0 55110.0 152154.0 146171.0 96924.0 102607.0 268280.0 274414.0 225570.0 229582.0 92305.0 84076.0 241850.0 249890.0 195823.0 188411.0 173423.0 168290.0 280552.0 283232.0 238053.0 230449.0 262112.0 222342.0 262112.0 262112.0 262112.0 262112.0 262112.0 222342.0 222342.0 222342.0 222342.0 222342.0
182069.0 185186.0 158545.0 164201.0 144781.0 152164.0 128060.0 129766.0 268088.0 263864.0 312277.0 304932.0 205448.0 197569.0 144067.0 147672.0 199128.0 194482.0 174812.0 172999.0 140746.0 137817.0 252833.0 244771.0 228269.0 221406.0 8242.0 0.0 220675.0 212359.0 257797.0 258021.0 159424.0 152400.0 165357.0 159327.0 253047.0 246356.0 140201.0 137489.0 164685.0 173195.0 340763.0 335284.0 163086.0 162703.0 129285.0 127898.0 51925.0 43817.0 241347.0 238471.0 244250.0 238762.0 263910.0 267199.0 246714.0 242310.0 40690.0 47339.0 156957.0 150713.0 91613.0 97658.0 264529.0 270528.0 223348.0 227614.0 88110.0 79848.0 248500.0 256548.0 191865.0 184577.0 178654.0 173749.0 278041.0 280939.0 236407.0 228894.0 261115.0 226086.0 261115.0 261115.0 261115.0 261115.0 261115.0 226086.0 226086.0 226086.0 226086.0 226086.0
128672.0 135304.0 70662.0 69683.0 79788.0 71450.0 127297.0 119843.0 283145.0 285618.0 364054.0 355962.0 248213.0 242902.0 151868.0 143859.0 171191.0 176043.0 94961.0 88156.0 172460.0 165071.0 309022.0 303203.0 284782.0 277623.0 224395.0 220675.0 0.0 8322.0 253754.0 259610.0 175789.0 178507.0 57367.0 64886.0 44359.0 36518.0 159428.0 152206.0 130703.0 130725.0 371356.0 370377.0 112837.0 105312.0 125784.0 133815.0 212984.0 213737.0 23386.0 25370.0 23998.0 20805.0 73610.0 81202.0 26864.0 21636.0 196455.0 188882.0 203975.0 196948.0 132606.0 125210.0 43887.0 50258.0 43578.0 51467.0 132698.0 140944.0 303020.0 308924.0 29490.0 36187.0 221145.0 225001.0 69149.0 75633.0 62932.0 63128.0 96105.0 202888.0 96105.0 96105.0 96105.0 96105.0 96105.0 202888.0 202888.0 202888.0 202888.0 202888.0
123894.0 130664.0 62997.0 62458.0 71678.0 63316.0 120025.0 112487.0 279170.0 281435.0 359523.0 351403.0 242883.0 237417.0 145429.0 137521.0 166848.0 171436.0 89546.0 82464.0 165933.0 158453.0 303947.0 298009.0 279470.0 272244.0 216073.0 212359.0 8322.0 0.0 249830.0 255687.0 169855.0 172328.0 49227.0 56843.0 50205.0 42278.0 152877.0 145539.0 125041.0 125481.0 367573.0 366435.0 106950.0 99290.0 118530.0 126642.0 204987.0 205657.0 30795.0 31382.0 32241.0 28383.0 77671.0 84998.0 34900.0 29951.0 188297.0 180751.0 197771.0 190617.0 124435.0 117004.0 52209.0 58542.0 43753.0 51995.0 124395.0 132639.0 297943.0 303966.0 21493.0 27920.0 215400.0 219063.0 75643.0 81739.0 64129.0 63278.0 97414.0 198964.0 97414.0 97414.0 97414.0 97414.0 97414.0 198964.0 198964.0 198964.0 198964.0 198964.0
128155.0 120973.0 205757.0 200231.0 212133.0 216321.0 166082.0 171980.0 32708.0 38419.0 117041.0 109680.0 61164.0 67063.0 132163.0 135041.0 84639.0 82530.0 163707.0 171667.0 123513.0 129608.0 79602.0 79023.0 71600.0 70555.0 252875.0 257797.0 253754.0 249830.0 0.0 8101.0 105975.0 110725.0 222533.0 216497.0 243701.0 243617.0 130631.0 137464.0 134329.0 129874.0 119290.0 118287.0 151806.0 159509.0 166334.0 160182.0 298423.0 292058.0 254292.0 246337.0 269526.0 271689.0 225557.0 222906.0 261089.0 264280.0 275863.0 274900.0 100857.0 107468.0 251154.0 246497.0 278794.0 286523.0 215358.0 210446.0 235658.0 236491.0 75191.0 76170.0 247984.0 242462.0 79946.0 86136.0 253357.0 249860.0 205971.0 200237.0 209336.0 50865.0 209336.0 209336.0 209336.0 209336.0 209336.0 50865.0 50865.0 50865.0 50865.0 50865.0
133698.0 126545.0 210910.0 205559.0 216865.0 221270.0 169744.0 175858.0 24935.0 30346.0 109278.0 101845.0 57972.0 64480.0 135497.0 138797.0 90016.0 87349.0 169307.0 177238.0 125754.0 132151.0 71737.0 71411.0 64916.0 64434.0 252893.0 258021.0 259610.0 255687.0 8101.0 0.0 108701.0 112995.0 227837.0 221653.0 249557.0 249474.0 133515.0 140576.0 139106.0 135002.0 112209.0 111207.0 156837.0 164619.0 170064.0 163664.0 299570.0 293070.0 260148.0 252194.0 275382.0 277545.0 231413.0 228762.0 266945.0 270136.0 277180.0 276450.0 101394.0 108390.0 254219.0 249758.0 284651.0 292379.0 221214.0 216302.0 238631.0 239201.0 67449.0 68209.0 253800.0 248144.0 79499.0 85153.0 259213.0 255716.0 211828.0 206094.0 215192.0 57106.0 215192.0 215192.0 215192.0 215192.0 215192.0 57106.0 57106.0 57106.0 57106.0 57106.0
53755.0 50259.0 113402.0 110249.0 115285.0 121348.0 62906.0 69923.0 126328.0 125432.0 196658.0 188425.0 75511.0 69021.0 28224.0 34038.0 41911.0 35838.0 81307.0 87677.0 18774.0 23723.0 137386.0 130673.0 111581.0 104029.0 155956.0 159424.0 175789.0 169855.0 105975.0 108701.0 0.0 7909.0 131055.0 123651.0 179301.0 176840.0 24870.0 32305.0 45465.0 47737.0 212685.0 209661.0 62953.0 70567.0 63535.0 56208.0 195047.0 189233.0 183247.0 176086.0 196067.0 195976.0 169382.0 167923.0 190350.0 191333.0 172032.0 170360.0 29411.0 24618.0 145574.0 141304.0 209908.0 217762.0 146442.0 144424.0 129947.0 130545.0 131460.0 138331.0 161721.0 154685.0 45875.0 49215.0 195101.0 193219.0 144670.0 137259.0 154464.0 66901.0 154464.0 154464.0 154464.0 154464.0 154464.0 66901.0 66901.0 66901.0 66901.0 66901.0
59442.0 56551.0 114417.0 111778.0 115258.0 121696.0 61529.0 68928.0 129562.0 128187.0 197576.0 189355.0 76024.0 69063.0 27871.0 35031.0 49787.0 43570.0 84767.0 90711.0 12788.0 19504.0 137604.0 130639.0 111433.0 103773.0 148764.0 152400.0 178507.0 172328.0 110725.0 112995.0 7909.0 0.0 132021.0 124431.0 183752.0 181015.0 22438.0 30451.0 49363.0 52714.0 214922.0 211632.0 65920.0 73228.0 62337.0 54523.0 188966.0 183005.0 186847.0 179834.0 199273.0 198878.0 174914.0 173709.0 193944.0 194634.0 166062.0 164641.0 25472.0 19060.0 141944.0 138019.0 213632.0 221465.0 150601.0 148947.0 126207.0 126365.0 131744.0 138850.0 163291.0 156072.0 45288.0 47361.0 200230.0 198592.0 149737.0 142204.0 160365.0 73696.0 160365.0 160365.0 160365.0 160365.0 160365.0 73696.0 73696.0 73696.0 73696.0 73696.0
94520.0 101715.0 17654.0 22308.0 22465.0 14089.0 74387.0 66527.0 249839.0 250884.0 326312.0 318092.0 206301.0 200038.0 104204.0 97169.0 137900.0 140681.0 59463.0 51500.0 123720.0 115855.0 268161.0 261618.0 242591.0 235070.0 168528.0 165357.0 57367.0 49227.0 222533.0 227837.0 131055.0 132021.0 0.0 8087.0 88258.0 81254.0 110790.0 102932.0 89677.0 92891.0 338459.0 336437.0 71339.0 63412.0 73040.0 81452.0 163862.0 163374.0 76261.0 73115.0 81356.0 77448.0 104598.0 109788.0 82012.0 78535.0 144996.0 137963.0 156885.0 149123.0 82094.0 74153.0 100812.0 107517.0 62171.0 68588.0 78639.0 86664.0 262196.0 268820.0 32976.0 25063.0 176851.0 179381.0 113870.0 117745.0 80163.0 74456.0 111434.0 172222.0 111434.0 111434.0 111434.0 111434.0 111434.0 172222.0 172222.0 172222.0 172222.0 172222.0
88819.0 95995.0 10743.0 17211.0 15036.0 7169.0 66369.0 58497.0 243398.0 244282.0 319298.0 311072.0 199013.0 192666.0 96580.0 89686.0 131874.0 134365.0 54410.0 46587.0 115936.0 108045.0 260896.0 254291.0 235227.0 227680.0 162253.0 159327.0 64886.0 56843.0 216497.0 221653.0 123651.0 124431.0 8087.0 0.0 93772.0 87029.0 103046.0 95150.0 83009.0 86655.0 331937.0 329806.0 64866.0 57036.0 65037.0 73459.0 159847.0 159012.0 83015.0 79420.0 88826.0 85161.0 108166.0 112933.0 88975.0 85826.0 140385.0 133554.0 149187.0 141372.0 78330.0 70329.0 108036.0 114871.0 65928.0 71725.0 73552.0 81401.0 254941.0 261628.0 41062.0 33147.0 169379.0 171780.0 119062.0 122537.0 82718.0 76485.0 112936.0 166420.0 112936.0 112936.0 112936.0 112936.0 112936.0 166420.0 166420.0 166420.0 166420.0 166420.0
126688.0 132007.0 95068.0 90574.0 108280.0 100942.0 143751.0 137465.0 273093.0 275808.0 355129.0 347194.0 245596.0 241451.0 160139.0 151723.0 164241.0 170558.0 100117.0 95932.0 180629.0 174238.0 303774.0 298825.0 281454.0 274853.0 255783.0 253047.0 44359.0 50205.0 243701.0 249557.0 179301.0 183752.0 88258.0 93772.0 0.0 7927.0 168268.0 162274.0 134417.0 131612.0 361462.0 360333.0 119385.0 113448.0 142143.0 149035.0 251231.0 251173.0 23189.0 18996.0 37740.0 44860.0 32612.0 40607.0 25791.0 33265.0 233044.0 225861.0 208662.0 202806.0 169593.0 161787.0 36858.0 44010.0 33789.0 34896.0 166896.0 174906.0 297859.0 302907.0 70489.0 74932.0 221997.0 227176.0 26044.0 31558.0 37857.0 43598.0 64505.0 192835.0 64505.0 64505.0 64505.0 64505.0 64505.0 192835.0 192835.0 192835.0 192835.0 192835.0
124857.0 130458.0 88856.0 84746.0 101697.0 94191.0 139022.0 132525.0 273009.0 275725.0 354969.0 347070.0 244425.0 240062.0 156787.0 148390.0 163574.0 169652.0 96752.0 92079.0 177391.0 170809.0 303189.0 298074.0 280485.0 273772.0 249227.0 246356.0 36518.0 42278.0 243617.0 249474.0 176840.0 181015.0 81254.0 87029.0 7927.0 0.0 164865.0 158641.0 131657.0 129316.0 361378.0 360250.0 116018.0 109762.0 137419.0 144523.0 243803.0 243840.0 16390.0 11157.0 32115.0 38598.0 38864.0 46807.0 20478.0 27215.0 225801.0 218566.0 206112.0 200038.0 162243.0 154470.0 35263.0 42921.0 30415.0 33364.0 159860.0 167913.0 297249.0 302461.0 62618.0 67189.0 220150.0 225113.0 33769.0 39479.0 38942.0 43503.0 68264.0 192751.0 68264.0 68264.0 68264.0 68264.0 68264.0 192751.0 192751.0 192751.0 192751.0 192751.0
50910.0 50772.0 93314.0 91301.0 93267.0 99951.0 39115.0 46594.0 151139.0 150093.0 220012.0 211791.0 98453.0 91438.0 8190.0 16588.0 59143.0 55279.0 68162.0 73028.0 13067.0 5989.0 159960.0 152933.0 133708.0 126023.0 137575.0 140201.0 159428.0 152877.0 130631.0 133515.0 24870.0 22438.0 110790.0 103046.0 168268.0 164865.0 0.0 8071.0 36012.0 42326.0 237113.0 233920.0 48887.0 55247.0 39960.0 32086.0 172654.0 167202.0 169379.0 162718.0 180977.0 180037.0 162681.0 162379.0 176433.0 176537.0 149462.0 147302.0 46183.0 38332.0 120720.0 116437.0 196315.0 204077.0 134627.0 133918.0 105116.0 105875.0 154117.0 161259.0 142622.0 135213.0 67587.0 69093.0 186538.0 185668.0 136244.0 128428.0 149818.0 89199.0 149818.0 149818.0 149818.0 149818.0 149818.0 89199.0 89199.0 89199.0 89199.0 89199.0
48880.0 49879.0 85509.0 83705.0 85226.0 91961.0 31077.0 38526.0 158616.0 157725.0 228019.0 219797.0 106475.0 99489.0 6601.0 12284.0 63223.0 60173.0 62227.0 66592.0 20788.0 12978.0 168017.0 161000.0 141776.0 134092.0 135301.0 137489.0 152206.0 145539.0 137464.0 140576.0 32305.0 30451.0 102932.0 95150.0 162274.0 158641.0 8071.0 0.0 32578.0 39909.0 244880.0 241751.0 43079.0 48880.0 31900.0 24108.0 168017.0 162809.0 162689.0 156159.0 173992.0 172872.0 157869.0 157896.0 169719.0 169623.0 144756.0 142255.0 54178.0 46240.0 113696.0 109193.0 189642.0 197372.0 128540.0 128179.0 98203.0 99318.0 162170.0 169297.0 134909.0 127448.0 75649.0 77147.0 181142.0 180547.0 131063.0 123175.0 145762.0 94711.0 145762.0 145762.0 145762.0 145762.0 145762.0 94711.0 94711.0 94711.0 94711.0 94711.0
17433.0 21068.0 72316.0 67762.0 77804.0 82222.0 39635.0 42363.0 160449.0 161273.0 236861.0 228655.0 118069.0 112418.0 28015.0 20301.0 50495.0 51806.0 35893.0 42583.0 47070.0 41868.0 179570.0 173368.0 154640.0 147330.0 163424.0 164685.0 130703.0 125041.0 134329.0 139106.0 45465.0 49363.0 89677.0 83009.0 134417.0 131657.0 36012.0 32578.0 0.0 8532.0 248934.0 246804.0 18521.0 26503.0 39015.0 37433.0 189474.0 185166.0 137787.0 130654.0 150655.0 150721.0 126975.0 126467.0 144889.0 145893.0 166293.0 162578.0 74515.0 68403.0 124400.0 118307.0 164474.0 172323.0 101243.0 99657.0 110373.0 113735.0 173573.0 179916.0 118447.0 111873.0 90444.0 94495.0 151455.0 150229.0 100987.0 93304.0 113808.0 85477.0 113808.0 113808.0 113808.0 113808.0 113808.0 85477.0 85477.0 85477.0 85477.0 85477.0
9094.0 12746.0 75912.0 70668.0 82729.0 86506.0 47914.0 50183.0 156985.0 158223.0 234821.0 226645.0 117489.0 112272.0 34707.0 27703.0 45338.0 47794.0 35985.0 43459.0 52282.0 47949.0 178479.0 172533.0 154059.0 146906.0 171894.0 173195.0 130725.0 125481.0 129874.0 135002.0 47737.0 52714.0 92891.0 86655.0 131612.0 129316.0 42326.0 39909.0 8532.0 0.0 245653.0 243774.0 21998.0 29636.0 47220.0 45938.0 197868.0 193609.0 136379.0 129023.0 149829.0 150361.0 122296.0 121341.0 143471.0 144934.0 174706.0 170923.0 77143.0 71705.0 131918.0 125655.0 162812.0 170680.0 98972.0 96722.0 118128.0 121704.0 172475.0 178573.0 120317.0 114090.0 91179.0 95848.0 147529.0 145893.0 97047.0 89567.0 108260.0 80183.0 108260.0 108260.0 108260.0 108260.0 108260.0 80183.0 80183.0 80183.0 80183.0 80183.0
245077.0 237989.0 321228.0 316303.0 325974.0 331000.0 275568.0 282412.0 88714.0 87755.0 38726.0 42065.0 140943.0 148788.0 240823.0 245577.0 201390.0 197892.0 280666.0 288530.0 226890.0 234347.0 88254.0 96259.0 112594.0 119702.0 334145.0 340763.0 371356.0 367573.0 119290.0 112209.0 212685.0 214922.0 338459.0 331937.0 361462.0 361378.0 237113.0 244880.0 248934.0 245653.0 0.0 8049.0 267134.0 275048.0 276147.0 268889.0 388256.0 380903.0 372053.0 364098.0 387287.0 389450.0 343318.0 340667.0 378850.0 382041.0 367632.0 368548.0 196048.0 204340.0 355932.0 352537.0 396555.0 404284.0 333119.0 328207.0 340102.0 339254.0 92301.0 84272.0 365357.0 359496.0 172044.0 173777.0 371118.0 367621.0 323732.0 317998.0 327097.0 170417.0 327097.0 327097.0 327097.0 327097.0 327097.0 170417.0 170417.0 170417.0 170417.0 170417.0
243490.0 236447.0 319120.0 314349.0 323520.0 328702.0 272567.0 279515.0 87266.0 85560.0 30736.0 34444.0 136986.0 144746.0 237856.0 242824.0 199887.0 196107.0 279021.0 286842.0 223443.0 230988.0 82487.0 90537.0 107439.0 114706.0 328581.0 335284.0 370377.0 366435.0 118287.0 111207.0 209661.0 211632.0 336437.0 329806.0 360333.0 360250.0 233920.0 241751.0 246804.0 243774.0 8049.0 0.0 265099.0 273041.0 273187.0 265813.0 383122.0 375715.0 370924.0 362970.0 386158.0 388321.0 342189.0 339538.0 377721.0 380912.0 362682.0 363738.0 192163.0 200505.0 352164.0 348917.0 395427.0 403155.0 331990.0 327078.0 336334.0 335314.0 86816.0 78762.0 363756.0 357775.0 168231.0 169640.0 369989.0 366492.0 322604.0 316870.0 325969.0 168223.0 325969.0 325969.0 325969.0 325969.0 325969.0 168223.0 168223.0 168223.0 168223.0 168223.0
26233.0 32911.0 54132.0 49307.0 60772.0 64528.0 35046.0 34155.0 178550.0 179545.0 255367.0 247163.0 136488.0 130730.0 40777.0 32372.0 67330.0 69511.0 19278.0 24796.0 61382.0 54854.0 198055.0 191814.0 173038.0 165693.0 162753.0 163086.0 112837.0 106950.0 151806.0 156837.0 62953.0 65920.0 71339.0 64866.0 119385.0 116018.0 48887.0 43079.0 18521.0 21998.0 267134.0 265099.0 0.0 7988.0 33800.0 36415.0 183029.0 179392.0 121056.0 114186.0 133354.0 133065.0 115228.0 115692.0 128143.0 128717.0 160189.0 155722.0 91370.0 84686.0 112961.0 106271.0 147917.0 155725.0 85746.0 85127.0 100042.0 104473.0 192060.0 198427.0 99937.0 93353.0 108461.0 112166.0 138079.0 137607.0 88127.0 80200.0 104539.0 102177.0 104539.0 104539.0 104539.0 104539.0 104539.0 102177.0 102177.0 102177.0 102177.0 102177.0
32820.0 39792.0 46294.0 41334.0 53569.0 56939.0 35615.0 32939.0 186440.0 187484.0 263355.0 255151.0 144401.0 138593.0 47290.0 38998.0 74940.0 77336.0 14001.0 17781.0 68009.0 61145.0 206003.0 199739.0 180939.0 173576.0 162774.0 162703.0 105312.0 99290.0 159509.0 164619.0 70567.0 73228.0 63412.0 57036.0 113448.0 109762.0 55247.0 48880.0 26503.0 29636.0 275048.0 273041.0 7988.0 0.0 34169.0 38485.0 180439.0 177113.0 114183.0 107473.0 126142.0 125650.0 111025.0 111976.0 121251.0 121581.0 157826.0 153038.0 98700.0 91831.0 108345.0 101404.0 141102.0 148879.0 79686.0 79624.0 96044.0 100953.0 200009.0 206393.0 91977.0 85370.0 116207.0 119773.0 132953.0 132864.0 83522.0 75534.0 101763.0 109679.0 101763.0 101763.0 101763.0 101763.0 101763.0 109679.0 109679.0 109679.0 109679.0 109679.0
55182.0 59959.0 56261.0 56104.0 53897.0 61095.0 1610.0 6723.0 189186.0 188701.0 259862.0 251636.0 138349.0 131388.0 35332.0 31293.0 86251.0 85421.0 47529.0 48182.0 52157.0 44158.0 199917.0 192891.0 173664.0 165974.0 129005.0 129285.0 125784.0 118530.0 166334.0 170064.0 63535.0 62337.0 73040.0 65037.0 142143.0 137419.0 39960.0 31900.0 39015.0 47220.0 276147.0 273187.0 33800.0 34169.0 0.0 8440.0 150824.0 146771.0 139015.0 133257.0 148655.0 146588.0 143507.0 145055.0 145837.0 144703.0 127739.0 123775.0 85735.0 77588.0 86533.0 81009.0 165784.0 173290.0 108631.0 110070.0 71940.0 74873.0 194070.0 201187.0 105744.0 98001.0 107547.0 108885.0 163620.0 164328.0 115640.0 107658.0 135648.0 120401.0 135648.0 135648.0 135648.0 135648.0 135648.0 120401.0 120401.0 120401.0 120401.0 120401.0
54517.0 58454.0 64592.0 64185.0 62300.0 69533.0 7250.0 15120.0 182305.0 181606.0 252097.0 243877.0 130535.0 123484.0 28258.0 25634.0 81746.0 80259.0 52355.0 54030.0 43970.0 35983.0 191976.0 184893.0 165658.0 157953.0 127087.0 127898.0 133815.0 126642.0 160182.0 163664.0 56208.0 54523.0 81452.0 73459.0 149035.0 144523.0 32086.0 24108.0 37433.0 45938.0 268889.0 265813.0 36415.0 38485.0 8440.0 0.0 152252.0 147813.0 146594.0 140682.0 156537.0 154618.0 149145.0 150348.0 153464.0 152511.0 129024.0 125532.0 77527.0 69330.0 91490.0 86429.0 173430.0 180983.0 115380.0 116430.0 76423.0 78587.0 186149.0 193323.0 114114.0 106391.0 99596.0 100741.0 170008.0 170436.0 121415.0 113416.0 140215.0 115283.0 140215.0 140215.0 140215.0 140215.0 140215.0 115283.0 115283.0 115283.0 115283.0 115283.0
206003.0 210540.0 162533.0 169652.0 147417.0 152977.0 150017.0 149012.0 311953.0 308438.0 361249.0 353718.0 250144.0 242160.0 174503.0 175959.0 231239.0 227905.0 190141.0 186270.0 176422.0 171755.0 300987.0 292930.0 275705.0 268555.0 60045.0 51925.0 212984.0 204987.0 298423.0 299570.0 195047.0 188966.0 163862.0 159847.0 251231.0 243803.0 172654.0 168017.0 189474.0 197868.0 388256.0 383122.0 183029.0 180439.0 150824.0 152252.0 0.0 8118.0 235586.0 234412.0 234961.0 228282.0 268011.0 272639.0 239841.0 234129.0 23290.0 27441.0 198361.0 191182.0 81782.0 89709.0 255451.0 260350.0 225736.0 231518.0 87626.0 80904.0 296366.0 304417.0 183517.0 177450.0 221448.0 217529.0 277174.0 281459.0 242108.0 235373.0 270462.0 261626.0 270462.0 270462.0 270462.0 270462.0 270462.0 261626.0 261626.0 261626.0 261626.0 261626.0
201881.0 206228.0 161174.0 168113.0 146155.0 152046.0 145900.0 145273.0 305120.0 301498.0 353661.0 346158.0 243148.0 235171.0 169336.0 171098.0 226010.0 222481.0 187219.0 183636.0 170544.0 166096.0 293510.0 285449.0 268326.0 261215.0 51929.0 43817.0 213737.0 205657.0 292058.0 293070.0 189233.0 183005.0 163374.0 159012.0 251173.0 243840.0 167202.0 162809.0 185166.0 193609.0 380903.0 375715.0 179392.0 177113.0 146771.0 147813.0 8118.0 0.0 236108.0 234659.0 236046.0 229539.0 267071.0 271502.0 240553.0 235033.0 19338.0 25463.0 191760.0 184693.0 81600.0 89387.0 256560.0 261649.0 224937.0 230503.0 86009.0 78862.0 288931.0 296984.0 184246.0 177949.0 214690.0 210628.0 277033.0 281110.0 240848.0 233972.0 268692.0 255959.0 268692.0 268692.0 268692.0 268692.0 268692.0 255959.0 255959.0 255959.0 255959.0 255959.0
132829.0 138884.0 86775.0 84025.0 98033.0 90004.0 140591.0 133602.0 283683.0 286361.0 365664.0 357688.0 252990.0 248251.0 161469.0 153176.0 173276.0 178929.0 102081.0 96424.0 182191.0 175230.0 312643.0 307258.0 289324.0 282428.0 244705.0 241347.0 23386.0 30795.0 254292.0 260148.0 183247.0 186847.0 76261.0 83015.0 23189.0 16390.0 169379.0 162689.0 137787.0 136379.0 372053.0 370924.0 121056.0 114183.0 139015.0 146594.0 235586.0 236108.0 0.0 8072.0 16455.0 22272.0 55234.0 63189.0 7103.0 11212.0 218544.0 211082.0 212206.0 205715.0 154690.0 147132.0 26955.0 34698.0 38935.0 44455.0 153796.0 161988.0 306670.0 312146.0 52250.0 58162.0 227557.0 232095.0 46234.0 53171.0 52718.0 55813.0 83749.0 203425.0 83749.0 83749.0 83749.0 83749.0 83749.0 203425.0 203425.0 203425.0 203425.0 203425.0
125276.0 131249.0 82318.0 78990.0 94329.0 86520.0 134846.0 128021.0 275729.0 278390.0 357732.0 349765.0 245380.0 240714.0 154752.0 146420.0 165447.0 171169.0 95094.0 89693.0 175458.0 168601.0 304884.0 299545.0 281670.0 274807.0 241595.0 238471.0 25370.0 31382.0 246337.0 252194.0 176086.0 179834.0 73115.0 79420.0 18996.0 11157.0 162718.0 156159.0 130654.0 129023.0 364098.0 362970.0 114186.0 107473.0 133257.0 140682.0 234412.0 234659.0 8072.0 0.0 24377.0 29482.0 49326.0 57165.0 14764.0 19049.0 216822.0 209482.0 205140.0 198755.0 153084.0 145398.0 33823.0 41680.0 31015.0 36386.0 151386.0 159515.0 298916.0 304349.0 52150.0 57200.0 220181.0 224819.0 44279.0 50408.0 44794.0 47749.0 76242.0 195471.0 76242.0 76242.0 76242.0 76242.0 76242.0 195471.0 195471.0 195471.0 195471.0 195471.0
146824.0 153098.0 94244.0 92722.0 103759.0 95434.0 150195.0 142886.0 298917.0 301633.0 380746.0 372734.0 266985.0 262028.0 173229.0 165058.0 188051.0 193469.0 114768.0 108562.0 193927.0 186731.0 327087.0 321552.0 303435.0 296439.0 248098.0 244250.0 23998.0 32241.0 269526.0 275382.0 196067.0 199273.0 81356.0 88826.0 37740.0 32115.0 180977.0 173992.0 150655.0 149829.0 387287.0 386158.0 133354.0 126142.0 148655.0 156537.0 234961.0 236046.0 16455.0 24377.0 0.0 8242.0 70345.0 78341.0 11955.0 5358.0 219114.0 211435.0 224723.0 217968.0 155397.0 148170.0 20518.0 26335.0 54425.0 60509.0 156177.0 164436.0 321101.0 326720.0 52442.0 59691.0 240891.0 245146.0 56786.0 64557.0 69152.0 72026.0 100102.0 218659.0 100102.0 100102.0 100102.0 100102.0 100102.0 218659.0 218659.0 218659.0 218659.0 218659.0
147834.0 154291.0 91339.0 90486.0 99912.0 91522.0 148101.0 140638.0 301081.0 303757.0 382597.0 374547.0 267782.0 262632.0 172420.0 164356.0 189721.0 194885.0 114862.0 108301.0 193050.0 185710.0 328269.0 322588.0 304308.0 297223.0 242796.0 238762.0 20805.0 28383.0 271689.0 277545.0 195976.0 198878.0 77448.0 85161.0 44860.0 38598.0 180037.0 172872.0 150721.0 150361.0 389450.0 388321.0 133065.0 125650.0 146588.0 154618.0 228282.0 229539.0 22272.0 29482.0 8242.0 0.0 77313.0 85293.0 19443.0 11616.0 212827.0 205087.0 224350.0 217412.0 149271.0 142178.0 27458.0 32119.0 57625.0 64378.0 150652.0 158914.0 322273.0 328035.0 46995.0 54607.0 241138.0 245159.0 64892.0 72585.0 73949.0 76098.0 105724.0 220823.0 105724.0 105724.0 105724.0 105724.0 105724.0 220823.0 220823.0 220823.0 220823.0 220823.0
115629.0 119599.0 106261.0 99940.0 121040.0 115052.0 145088.0 140063.0 254949.0 257664.0 336985.0 329050.0 229658.0 226375.0 154516.0 146242.0 147536.0 154622.0 97024.0 95326.0 174037.0 168634.0 286003.0 281416.0 264666.0 258437.0 265703.0 263910.0 73610.0 77671.0 225557.0 231413.0 169382.0 174914.0 104598.0 108166.0 32612.0 38864.0 162681.0 157869.0 126975.0 122296.0 343318.0 342189.0 115228.0 111025.0 143507.0 149145.0 268011.0 267071.0 55234.0 49326.0 70345.0 77313.0 0.0 7995.0 58400.0 65773.0 248289.0 241609.0 198626.0 193780.0 186435.0 178445.0 67073.0 73172.0 42429.0 36608.0 181242.0 188808.0 280150.0 284922.0 95298.0 97822.0 208913.0 214895.0 28514.0 24303.0 27956.0 35883.0 36893.0 174691.0 36893.0 36893.0 36893.0 36893.0 36893.0 174691.0 174691.0 174691.0 174691.0 174691.0
114275.0 117834.0 110390.0 103764.0 125348.0 119695.0 146617.0 141932.0 252298.0 255013.0 334334.0 326399.0 227021.0 223734.0 154256.0 146077.0 144895.0 151979.0 98015.0 96958.0 173414.0 168292.0 283353.0 278765.0 262015.0 255786.0 268770.0 267199.0 81202.0 84998.0 222906.0 228762.0 167923.0 173709.0 109788.0 112933.0 40607.0 46807.0 162379.0 157896.0 126467.0 121341.0 340667.0 339538.0 115692.0 111976.0 145055.0 150348.0 272639.0 271502.0 63189.0 57165.0 78341.0 85293.0 7995.0 0.0 66395.0 73761.0 252608.0 246053.0 197005.0 192441.0 191261.0 183260.0 74765.0 80696.0 47880.0 41240.0 185544.0 192985.0 277499.0 282271.0 102101.0 104281.0 206530.0 212656.0 34156.0 28492.0 30848.0 38321.0 31861.0 172040.0 31861.0 31861.0 31861.0 31861.0 31861.0 172040.0 172040.0 172040.0 172040.0 172040.0
139885.0 145914.0 93135.0 90630.0 104011.0 95887.0 147409.0 140365.0 290481.0 293131.0 372490.0 364525.0 260032.0 255314.0 168533.0 160246.0 180204.0 185903.0 109179.0 103497.0 189256.0 182278.0 319619.0 314258.0 296350.0 289467.0 250212.0 246714.0 26864.0 34900.0 261089.0 266945.0 190350.0 193944.0 82012.0 88975.0 25791.0 20478.0 176433.0 169719.0 144889.0 143471.0 378850.0 377721.0 128143.0 121251.0 145837.0 153464.0 239841.0 240553.0 7103.0 14764.0 11955.0 19443.0 58400.0 66395.0 0.0 7962.0 223187.0 215649.0 219306.0 212808.0 159321.0 151860.0 19976.0 27654.0 45780.0 50961.0 158947.0 167168.0 313649.0 319098.0 56327.0 62746.0 234649.0 239195.0 45809.0 53323.0 58555.0 62117.0 88720.0 210223.0 88720.0 88720.0 88720.0 88720.0 88720.0 210223.0 210223.0 210223.0 210223.0 210223.0
141809.0 148040.0 90797.0 88940.0 100826.0 92564.0 146254.0 139024.0 293672.0 296385.0 375535.0 367530.0 261992.0 257083.0 168745.0 160540.0 182887.0 188352.0 110026.0 103942.0 189457.0 182318.0 322001.0 316497.0 298419.0 291445.0 246009.0 242310.0 21636.0 29951.0 264280.0 270136.0 191333.0 194634.0 78535.0 85826.0 33265.0 27215.0 176537.0 169623.0 145893.0 144934.0 382041.0 380912.0 128717.0 121581.0 144703.0 152511.0 234129.0 235033.0 11212.0 19049.0 5358.0 11616.0 65773.0 73761.0 7962.0 0.0 217890.0 210275.0 220068.0 213377.0 154074.0 146734.0 22318.0 29070.0 49109.0 55152.0 154332.0 162579.0 316017.0 321607.0 50909.0 57806.0 236044.0 240367.0 53745.0 61284.0 63839.0 66670.0 94953.0 213414.0 94953.0 94953.0 94953.0 94953.0 94953.0 213414.0 213414.0 213414.0 213414.0 213414.0
182898.0 187361.0 142228.0 149074.0 127278.0 133364.0 126903.0 126098.0 290090.0 286789.0 341524.0 333880.0 228667.0 220673.0 151233.0 152670.0 207974.0 204691.0 167883.0 164304.0 153462.0 148658.0 280860.0 272824.0 255256.0 247987.0 48697.0 40690.0 196455.0 188297.0 275863.0 277180.0 172032.0 166062.0 144996.0 140385.0 233044.0 225801.0 149462.0 144756.0 166293.0 174706.0 367632.0 362682.0 160189.0 157826.0 127739.0 129024.0 23290.0 19338.0 218544.0 216822.0 219114.0 212827.0 248289.0 252608.0 223187.0 217890.0 0.0 8092.0 176193.0 168853.0 63868.0 71436.0 239628.0 244941.0 206267.0 211695.0 67066.0 59734.0 276089.0 284124.0 166997.0 160460.0 199517.0 195880.0 258814.0 262724.0 221902.0 214960.0 249526.0 238506.0 249526.0 249526.0 249526.0 249526.0 249526.0 238506.0 238506.0 238506.0 238506.0 238506.0
178949.0 183628.0 135748.0 142731.0 120711.0 126584.0 123018.0 121774.0 289963.0 286881.0 343091.0 335377.0 228982.0 220989.0 148656.0 149672.0 205377.0 202370.0 162701.0 158857.0 151948.0 146813.0 282204.0 274191.0 256394.0 249042.0 55110.0 47339.0 188882.0 180751.0 274900.0 276450.0 170360.0 164641.0 137963.0 133554.0 225861.0 218566.0 147302.0 142255.0 162578.0 170923.0 368548.0 363738.0 155722.0 153038.0 123775.0 125532.0 27441.0 25463.0 211082.0 209482.0 211435.0 205087.0 241609.0 246053.0 215649.0 210275.0 8092.0 0.0 175863.0 168336.0 56409.0 64101.0 231952.0 237205.0 199477.0 205043.0 60613.0 53630.0 277330.0 285347.0 159406.0 152957.0 199418.0 196078.0 251686.0 255707.0 215415.0 208565.0 243402.0 236487.0 243402.0 243402.0 243402.0 243402.0 243402.0 236487.0 236487.0 236487.0 236487.0 236487.0
83051.0 79175.0 139348.0 136979.0 139384.0 146131.0 84738.0 92442.0 114158.0 111444.0 176031.0 167868.0 55180.0 47500.0 52769.0 60333.0 62399.0 54637.0 110133.0 116164.0 33578.0 41577.0 115168.0 107846.0 88629.0 80883.0 152154.0 156957.0 203975.0 197771.0 100857.0 101394.0 29411.0 25472.0 156885.0 149187.0 208662.0 206112.0 46183.0 54178.0 74515.0 77143.0 196048.0 192163.0 91370.0 98700.0 85735.0 77527.0 198361.0 191760.0 212206.0 205140.0 224723.0 224350.0 198626.0 197005.0 219306.0 220068.0 176193.0 175863.0 0.0 8434.0 160015.0 156936.0 238953.0 246794.0 175701.0 173797.0 144187.0 143206.0 109467.0 116923.0 188454.0 181151.0 24044.0 23354.0 224483.0 222529.0 174069.0 166669.0 183483.0 75084.0 183483.0 183483.0 183483.0 183483.0 183483.0 75084.0 75084.0 75084.0 75084.0 75084.0
78186.0 74870.0 131637.0 129475.0 131340.0 138182.0 76558.0 84305.0 121920.0 119414.0 184465.0 176301.0 63539.0 55899.0 45272.0 53101.0 61999.0 54598.0 103663.0 109437.0 25497.0 33475.0 123593.0 116256.0 97044.0 89297.0 146171.0 150713.0 196948.0 190617.0 107468.0 108390.0 24618.0 19060.0 149123.0 141372.0 202806.0 200038.0 38332.0 46240.0 68403.0 71705.0 204340.0 200505.0 84686.0 91831.0 77588.0 69330.0 191182.0 184693.0 205715.0 198755.0 217968.0 217412.0 193780.0 192441.0 212808.0 213377.0 168853.0 168336.0 8434.0 0.0 151660.0 148535.0 232535.0 240359.0 169627.0 168007.0 135830.0 134931.0 117897.0 125357.0 180883.0 173514.0 32296.0 31757.0 219234.0 217525.0 168749.0 161237.0 179018.0 78498.0 179018.0 179018.0 179018.0 179018.0 179018.0 78498.0 78498.0 78498.0 78498.0 78498.0
138567.0 144455.0 81942.0 89449.0 66764.0 71617.0 86414.0 82147.0 271506.0 269978.0 335401.0 327316.0 215193.0 207496.0 119067.0 117102.0 172779.0 171699.0 115257.0 109985.0 129502.0 122472.0 274087.0 266424.0 247481.0 239767.0 96924.0 91613.0 132606.0 124435.0 251154.0 254219.0 145574.0 141944.0 82094.0 78330.0 169593.0 162243.0 120720.0 113696.0 124400.0 131918.0 355932.0 352164.0 112961.0 108345.0 86533.0 91490.0 81782.0 81600.0 154690.0 153084.0 155397.0 149271.0 186435.0 191261.0 159321.0 154074.0 63868.0 56409.0 160015.0 151660.0 0.0 8004.0 175898.0 181351.0 144081.0 150052.0 15831.0 18776.0 268607.0 276303.0 103168.0 96593.0 183936.0 182819.0 195485.0 199689.0 160947.0 154468.0 190251.0 206726.0 190251.0 190251.0 190251.0 190251.0 190251.0 206726.0 206726.0 206726.0 206726.0 206726.0
132072.0 138099.0 73979.0 81515.0 58808.0 63613.0 81002.0 76282.0 267507.0 266195.0 332718.0 324599.0 212049.0 204433.0 114335.0 111928.0 167202.0 166397.0 107908.0 102474.0 125749.0 118515.0 271505.0 263916.0 244881.0 237147.0 102607.0 97658.0 125210.0 117004.0 246497.0 249758.0 141304.0 138019.0 74153.0 70329.0 161787.0 154470.0 116437.0 109193.0 118307.0 125655.0 352537.0 348917.0 106271.0 101404.0 81009.0 86429.0 89709.0 89387.0 147132.0 145398.0 148170.0 142178.0 178445.0 183260.0 151860.0 146734.0 71436.0 64101.0 156936.0 148535.0 8004.0 0.0 168648.0 174214.0 136101.0 142053.0 14420.0 20534.0 265958.0 273584.0 95832.0 89115.0 180729.0 179939.0 187650.0 191799.0 152943.0 146469.0 182282.0 201399.0 182282.0 182282.0 182282.0 182282.0 182282.0 201399.0 201399.0 201399.0 201399.0 201399.0
158922.0 164784.0 112688.0 110435.0 123054.0 114820.0 167353.0 160278.0 308186.0 310902.0 390186.0 382275.0 278906.0 274342.0 188391.0 180086.0 198496.0 204418.0 128874.0 123333.0 209110.0 202172.0 338077.0 332856.0 315110.0 308308.0 268280.0 264529.0 43887.0 52209.0 278794.0 284651.0 209908.0 213632.0 100812.0 108036.0 36858.0 35263.0 196315.0 189642.0 164474.0 162812.0 396555.0 395427.0 147917.0 141102.0 165784.0 173430.0 255451.0 256560.0 26955.0 33823.0 20518.0 27458.0 67073.0 74765.0 19976.0 22318.0 239628.0 231952.0 238953.0 232535.0 175898.0 168648.0 0.0 7871.0 64256.0 68372.0 176502.0 184756.0 332124.0 337429.0 72858.0 79962.0 253949.0 258627.0 46195.0 54476.0 74009.0 78764.0 101167.0 227928.0 101167.0 101167.0 101167.0 101167.0 101167.0 227928.0 227928.0 227928.0 227928.0 227928.0
166790.0 172644.0 119828.0 117779.0 129856.0 121571.0 174854.0 167728.0 315914.0 318630.0 397890.0 389988.0 286763.0 282208.0 196167.0 187870.0 206302.0 212247.0 136702.0 131117.0 216888.0 209926.0 345893.0 340687.0 322958.0 316162.0 274414.0 270528.0 50258.0 58542.0 286523.0 292379.0 217762.0 221465.0 107517.0 114871.0 44010.0 42921.0 204077.0 197372.0 172323.0 170680.0 404284.0 403155.0 155725.0 148879.0 173290.0 180983.0 260350.0 261649.0 34698.0 41680.0 26335.0 32119.0 73172.0 80696.0 27654.0 29070.0 244941.0 237205.0 246794.0 240359.0 181351.0 174214.0 7871.0 0.0 72112.0 76137.0 182435.0 190696.0 339942.0 345230.0 78669.0 86004.0 261820.0 266493.0 50440.0 58687.0 81486.0 86413.0 107939.0 235656.0 107939.0 107939.0 107939.0 107939.0 107939.0 235656.0 235656.0 235656.0 235656.0 235656.0
94742.0 100535.0 64873.0 59254.0 79265.0 72906.0 110241.0 104155.0 244750.0 247433.0 326732.0 318760.0 214651.0 210118.0 126522.0 118113.0 134453.0 140237.0 66468.0 62144.0 147082.0 140586.0 273941.0 268653.0 250862.0 244052.0 225570.0 223348.0 43578.0 43753.0 215358.0 221214.0 146442.0 150601.0 62171.0 65928.0 33789.0 30415.0 134627.0 128540.0 101243.0 98972.0 333119.0 331990.0 85746.0 79686.0 108631.0 115380.0 225736.0 224937.0 38935.0 31015.0 54425.0 57625.0 42429.0 47880.0 45780.0 49109.0 206267.0 199477.0 175701.0 169627.0 144081.0 136101.0 64256.0 72112.0 0.0 8344.0 139306.0 147006.0 267978.0 273373.0 56453.0 57390.0 189936.0 194806.0 55603.0 57676.0 20956.0 19599.0 53939.0 164492.0 53939.0 53939.0 53939.0 53939.0 53939.0 164492.0 164492.0 164492.0 164492.0 164492.0
91838.0 97267.0 69665.0 63464.0 84435.0 78541.0 111676.0 105990.0 239838.0 242553.0 321865.0 313938.0 211116.0 206825.0 125754.0 117337.0 130218.0 136291.0 65964.0 62546.0 146117.0 139902.0 269832.0 264711.0 247137.0 240444.0 229582.0 227614.0 51467.0 51995.0 210446.0 216302.0 144424.0 148947.0 68588.0 71725.0 34896.0 33364.0 133918.0 128179.0 99657.0 96722.0 328207.0 327078.0 85127.0 79624.0 110070.0 116430.0 231518.0 230503.0 44455.0 36386.0 60509.0 64378.0 36608.0 41240.0 50961.0 55152.0 211695.0 205043.0 173797.0 168007.0 150052.0 142053.0 68372.0 76137.0 8344.0 0.0 144641.0 152200.0 263890.0 269121.0 64679.0 65362.0 187163.0 192296.0 53580.0 54486.0 12705.0 11791.0 45598.0 159580.0 45598.0 45598.0 45598.0 45598.0 45598.0 159580.0 159580.0 159580.0 159580.0 159580.0
125155.0 130780.0 75176.0 82118.0 60214.0 66464.0 71699.0 68010.0 255761.0 254189.0 319626.0 311534.0 199364.0 191670.0 103696.0 102056.0 158018.0 156680.0 104144.0 99553.0 113730.0 106753.0 258328.0 250680.0 231716.0 223998.0 92305.0 88110.0 132698.0 124395.0 235658.0 238631.0 129947.0 126207.0 78639.0 73552.0 166896.0 159860.0 105116.0 98203.0 110373.0 118128.0 340102.0 336334.0 100042.0 96044.0 71940.0 76423.0 87626.0 86009.0 153796.0 151386.0 156177.0 150652.0 181242.0 185544.0 158947.0 154332.0 67066.0 60613.0 144187.0 135830.0 15831.0 14420.0 176502.0 182435.0 139306.0 144641.0 0.0 8262.0 252834.0 260519.0 103766.0 96543.0 168106.0 167007.0 192449.0 196077.0 154854.0 147962.0 182844.0 191700.0 182844.0 182844.0 182844.0 182844.0 182844.0 191700.0 191700.0 191700.0 191700.0 191700.0
129063.0 134425.0 82601.0 89356.0 67784.0 74279.0 74466.0 71544.0 255716.0 253876.0 317968.0 309918.0 198346.0 190568.0 105088.0 104096.0 160328.0 158595.0 109747.0 105531.0 113724.0 107060.0 256595.0 248870.0 230025.0 222337.0 84076.0 79848.0 140944.0 132639.0 236491.0 239201.0 130545.0 126365.0 86664.0 81401.0 174906.0 167913.0 105875.0 99318.0 113735.0 121704.0 339254.0 335314.0 104473.0 100953.0 74873.0 78587.0 80904.0 78862.0 161988.0 159515.0 164436.0 158914.0 188808.0 192985.0 167168.0 162579.0 59734.0 53630.0 143206.0 134931.0 18776.0 20534.0 184756.0 190696.0 147006.0 152200.0 8262.0 0.0 251181.0 258938.0 112027.0 104795.0 167221.0 165732.0 200399.0 203936.0 162236.0 155247.0 189830.0 193544.0 189830.0 189830.0 189830.0 189830.0 189830.0 193544.0 193544.0 193544.0 193544.0 193544.0
174442.0 168021.0 244556.0 240888.0 246713.0 252798.0 193228.0 200672.0 49819.0 41402.0 66796.0 58739.0 55953.0 62682.0 159310.0 165494.0 133677.0 127748.0 208450.0 215772.0 142423.0 150314.0 6004.0 5370.0 21170.0 28846.0 241850.0 248500.0 303020.0 297943.0 75191.0 67449.0 131460.0 131744.0 262196.0 254941.0 297859.0 297249.0 154117.0 162170.0 173573.0 172475.0 92301.0 86816.0 192060.0 200009.0 194070.0 186149.0 296366.0 288931.0 306670.0 298916.0 321101.0 322273.0 280150.0 277499.0 313649.0 316017.0 276089.0 277330.0 109467.0 117897.0 268607.0 265958.0 332124.0 339942.0 267978.0 263890.0 252834.0 251181.0 0.0 8055.0 291983.0 285267.0 86555.0 86183.0 307950.0 304453.0 260338.0 254265.0 263929.0 110557.0 263929.0 263929.0 263929.0 263929.0 263929.0 110557.0 110557.0 110557.0 110557.0 110557.0
180266.0 173744.0 251196.0 247394.0 253616.0 259602.0 200371.0 207764.0 48298.0 40091.0 59138.0 51018.0 62869.0 69855.0 166297.0 172337.0 138937.0 133255.0 214557.0 221954.0 149706.0 157564.0 5370.0 12310.0 29054.0 36644.0 249890.0 256548.0 308924.0 303966.0 76170.0 68209.0 138331.0 138850.0 268820.0 261628.0 302907.0 302461.0 161259.0 169297.0 179916.0 178573.0 84272.0 78762.0 198427.0 206393.0 201187.0 193323.0 304417.0 296984.0 312146.0 304349.0 326720.0 328035.0 284922.0 282271.0 319098.0 321607.0 284124.0 285347.0 116923.0 125357.0 276303.0 273584.0 337429.0 345230.0 273373.0 269121.0 260519.0 258938.0 8055.0 0.0 298363.0 291721.0 93785.0 93702.0 312722.0 309225.0 265282.0 259338.0 268701.0 114448.0 268701.0 268701.0 268701.0 268701.0 268701.0 114448.0 114448.0 114448.0 114448.0 114448.0
120285.0 127369.0 49569.0 51519.0 54803.0 46460.0 107130.0 99314.0 276656.0 278294.0 355098.0 346911.0 236318.0 230371.0 135688.0 128265.0 163971.0 167692.0 84738.0 76958.0 155646.0 147881.0 297975.0 291674.0 272813.0 265398.0 195823.0 191865.0 29490.0 21493.0 247984.0 253800.0 161721.0 163291.0 32976.0 41062.0 70489.0 62618.0 142622.0 134909.0 118447.0 120317.0 365357.0 363756.0 99937.0 91977.0 105744.0 114114.0 183517.0 184246.0 52250.0 52150.0 52442.0 46995.0 95298.0 102101.0 56327.0 50909.0 166997.0 159406.0 188454.0 180883.0 103168.0 95832.0 72858.0 78669.0 56453.0 64679.0 103766.0 112027.0 291983.0 298363.0 0.0 8042.0 207592.0 210568.0 96329.0 101994.0 77378.0 74554.0 109849.0 197172.0 109849.0 109849.0 109849.0 109849.0 109849.0 197172.0 197172.0 197172.0 197172.0 197172.0
114472.0 121606.0 41969.0 44449.0 46765.0 38431.0 99369.0 91530.0 270781.0 272256.0 348694.0 340495.0 229514.0 223470.0 128385.0 121073.0 158187.0 161669.0 78855.0 70967.0 148212.0 140409.0 291253.0 284876.0 265960.0 258511.0 188411.0 184577.0 36187.0 27920.0 242462.0 248144.0 154685.0 156072.0 25063.0 33147.0 74932.0 67189.0 135213.0 127448.0 111873.0 114090.0 359496.0 357775.0 93353.0 85370.0 98001.0 106391.0 177450.0 177949.0 58162.0 57200.0 59691.0 54607.0 97822.0 104281.0 62746.0 57806.0 160460.0 152957.0 181151.0 173514.0 96593.0 89115.0 79962.0 86004.0 57390.0 65362.0 96543.0 104795.0 285267.0 291721.0 8042.0 0.0 200559.0 203396.0 100947.0 106200.0 78026.0 74427.0 109735.0 191730.0 109735.0 109735.0 109735.0 109735.0 109735.0 191730.0 191730.0 191730.0 191730.0 191730.0
95327.0 90104.0 159205.0 156124.0 160515.0 166853.0 106687.0 114171.0 90576.0 87564.0 152736.0 144539.0 31341.0 23940.0 73055.0 79695.0 63979.0 56086.0 126276.0 133001.0 55928.0 63779.0 92381.0 85358.0 66146.0 58488.0 173423.0 178654.0 221145.0 215400.0 79946.0 79499.0 45875.0 45288.0 176851.0 169379.0 221997.0 220150.0 67587.0 75649.0 90444.0 91179.0 172044.0 168231.0 108461.0 116207.0 107547.0 99596.0 221448.0 214690.0 227557.0 220181.0 240891.0 241138.0 208913.0 206530.0 234649.0 236044.0 199517.0 199418.0 24044.0 32296.0 183936.0 180729.0 253949.0 261820.0 189936.0 187163.0 168106.0 167221.0 86555.0 93785.0 207592.0 200559.0 0.0 8078.0 235834.0 233136.0 185994.0 179003.0 192960.0 64459.0 192960.0 192960.0 192960.0 192960.0 192960.0 64459.0 64459.0 64459.0 64459.0 64459.0
100528.0 95629.0 161777.0 159050.0 162355.0 168949.0 107927.0 115575.0 94548.0 90923.0 152836.0 144693.0 32994.0 25041.0 75201.0 82323.0 71136.0 63179.0 130387.0 136872.0 56773.0 64758.0 91854.0 84499.0 65290.0 57541.0 168290.0 173749.0 225001.0 219063.0 86136.0 85153.0 49215.0 47361.0 179381.0 171780.0 227176.0 225113.0 69093.0 77147.0 94495.0 95848.0 173777.0 169640.0 112166.0 119773.0 108885.0 100741.0 217529.0 210628.0 232095.0 224819.0 245146.0 245159.0 214895.0 212656.0 239195.0 240367.0 195880.0 196078.0 23354.0 31757.0 182819.0 179939.0 258627.0 266493.0 194806.0 192296.0 167007.0 165732.0 86183.0 93702.0 210568.0 203396.0 8078.0 0.0 241575.0 239063.0 191532.0 184420.0 199086.0 72531.0 199086.0 199086.0 199086.0 199086.0 199086.0 72531.0 72531.0 72531.0 72531.0 72531.0
141490.0 145972.0 119603.0 114531.0 133309.0 126220.0 165227.0 159424.0 282748.0 285464.0 364784.0 356850.0 257380.0 253883.0 178349.0 169963.0 175277.0 182199.0 119129.0 116083.0 198399.0 192525.0 313803.0 309216.0 292467.0 286226.0 280552.0 278041.0 69149.0 75643.0 253357.0 259213.0 195101.0 200230.0 113870.0 119062.0 26044.0 33769.0 186538.0 181142.0 151455.0 147529.0 371118.0 369989.0 138079.0 132953.0 163620.0 170008.0 277174.0 277033.0 46234.0 44279.0 56786.0 64892.0 28514.0 34156.0 45809.0 53745.0 258814.0 251686.0 224483.0 219234.0 195485.0 187650.0 46195.0 50440.0 55603.0 53580.0 192449.0 200399.0 307950.0 312722.0 96329.0 100947.0 235834.0 241575.0 0.0 8285.0 50500.0 58160.0 65346.0 202490.0 65346.0 65346.0 65346.0 65346.0 65346.0 202490.0 202490.0 202490.0 202490.0 202490.0
139481.0 143640.0 122397.0 116929.0 136473.0 129658.0 165928.0 160405.0 279252.0 281967.0 361288.0 353353.0 253956.0 250677.0 177482.0 169141.0 171836.0 178924.0 118924.0 116406.0 197283.0 191644.0 310306.0 305719.0 288969.0 282740.0 283232.0 280939.0 75633.0 81739.0 249860.0 255716.0 193219.0 198592.0 117745.0 122537.0 31558.0 39479.0 185668.0 180547.0 150229.0 145893.0 367621.0 366492.0 137607.0 132864.0 164328.0 170436.0 281459.0 281110.0 53171.0 50408.0 64557.0 72585.0 24303.0 28492.0 53323.0 61284.0 262724.0 255707.0 222529.0 217525.0 199689.0 191799.0 54476.0 58687.0 57676.0 54486.0 196077.0 203936.0 304453.0 309225.0 101994.0 106200.0 233136.0 239063.0 8285.0 0.0 49486.0 57409.0 60282.0 198994.0 60282.0 60282.0 60282.0 60282.0 60282.0 198994.0 198994.0 198994.0 198994.0 198994.0
91176.0 95921.0 79678.0 72949.0 94713.0 89330.0 117227.0 112124.0 235363.0 238079.0 317399.0 309464.0 208615.0 204737.0 128055.0 119697.0 126882.0 133415.0 69544.0 67481.0 147979.0 142225.0 266234.0 261405.0 244231.0 237746.0 238053.0 236407.0 62932.0 64129.0 205971.0 211828.0 144670.0 149737.0 80163.0 82718.0 37857.0 38942.0 136244.0 131063.0 100987.0 97047.0 323732.0 322604.0 88127.0 83522.0 115640.0 121415.0 242108.0 240848.0 52718.0 44794.0 69152.0 73949.0 27956.0 30848.0 58555.0 63839.0 221902.0 215415.0 174069.0 168749.0 160947.0 152943.0 74009.0 81486.0 20956.0 12705.0 154854.0 162236.0 260338.0 265282.0 77378.0 78026.0 185994.0 191532.0 50500.0 49486.0 0.0 8000.0 33292.0 155105.0 33292.0 33292.0 33292.0 33292.0 33292.0 155105.0 155105.0 155105.0 155105.0 155105.0
83940.0 88899.0 72842.0 65892.0 87966.0 82921.0 109243.0 104180.0 229629.0 232345.0 311665.0 303730.0 202097.0 198064.0 120238.0 111867.0 120644.0 126994.0 61562.0 59491.0 140240.0 134413.0 260183.0 255227.0 237884.0 231315.0 230449.0 228894.0 63128.0 63278.0 200237.0 206094.0 137259.0 142204.0 74456.0 76485.0 43598.0 43503.0 128428.0 123175.0 93304.0 89567.0 317998.0 316870.0 80200.0 75534.0 107658.0 113416.0 235373.0 233972.0 55813.0 47749.0 72026.0 76098.0 35883.0 38321.0 62117.0 66670.0 214960.0 208565.0 166669.0 161237.0 154468.0 146469.0 78764.0 86413.0 19599.0 11791.0 147962.0 155247.0 254265.0 259338.0 74554.0 74427.0 179003.0 184420.0 58160.0 57409.0 8000.0 0.0 35337.0 149371.0 35337.0 35337.0 35337.0 35337.0 35337.0 149371.0 149371.0 149371.0 149371.0 149371.0
100929.0 104309.0 108311.0 100915.0 123494.0 119091.0 137159.0 133236.0 238728.0 241444.0 320764.0 312829.0 213451.0 210164.0 141771.0 133739.0 131325.0 138409.0 88120.0 88461.0 160498.0 155671.0 269783.0 265195.0 248445.0 242216.0 262112.0 261115.0 96105.0 97414.0 209336.0 215192.0 154464.0 160365.0 111434.0 112936.0 64505.0 68264.0 149818.0 145762.0 113808.0 108260.0 327097.0 325969.0 104539.0 101763.0 135648.0 140215.0 270462.0 268692.0 83749.0 76242.0 100102.0 105724.0 36893.0 31861.0 88720.0 94953.0 249526.0 243402.0 183483.0 179018.0 190251.0 182282.0 101167.0 107939.0 53939.0 45598.0 182844.0 189830.0 263929.0 268701.0 109849.0 109735.0 192960.0 199086.0 65346.0 60282.0 33292.0 35337.0 0.0 158470.0 0.0 0.0 0.0 0.0 0.0 158470.0 158470.0 158470.0 158470.0 158470.0
77703.0 70508.0 155705.0 149917.0 162894.0 166617.0 120399.0 125451.0 81174.0 84457.0 164164.0 156343.0 68145.0 68493.0 88619.0 89649.0 34986.0 35028.0 113104.0 121085.0 85675.0 89876.0 116178.0 112592.0 97988.0 93095.0 222342.0 226086.0 202888.0 198964.0 50865.0 57106.0 66901.0 73696.0 172222.0 166420.0 192835.0 192751.0 89199.0 94711.0 85477.0 80183.0 170417.0 168223.0 102177.0 109679.0 120401.0 115283.0 261626.0 255959.0 203425.0 195471.0 218659.0 220823.0 174691.0 172040.0 210223.0 213414.0 238506.0 236487.0 75084.0 78498.0 206726.0 201399.0 227928.0 235656.0 164492.0 159580.0 191700.0 193544.0 110557.0 114448.0 197172.0 191730.0 64459.0 72531.0 202490.0 198994.0 155105.0 149371.0 158470.0 0.0 158470.0 158470.0 158470.0 158470.0 158470.0 0.0 0.0 0.0 0.0 0.0
100929.0 104309.0 108311.0 100915.0 123494.0 119091.0 137159.0 133236.0 238728.0 241444.0 320764.0 312829.0 213451.0 210164.0 141771.0 133739.0 131325.0 138409.0 88120.0 88461.0 160498.0 155671.0 269783.0 265195.0 248445.0 242216.0 262112.0 261115.0 96105.0 97414.0 209336.0 215192.0 154464.0 160365.0 111434.0 112936.0 64505.0 68264.0 149818.0 145762.0 113808.0 108260.0 327097.0 325969.0 104539.0 101763.0 135648.0 140215.0 270462.0 268692.0 83749.0 76242.0 100102.0 105724.0 36893.0 31861.0 88720.0 94953.0 249526.0 243402.0 183483.0 179018.0 190251.0 182282.0 101167.0 107939.0 53939.0 45598.0 182844.0 189830.0 263929.0 268701.0 109849.0 109735.0 192960.0 199086.0 65346.0 60282.0 33292.0 35337.0 0.0 158470.0 0.0 0.0 0.0 0.0 0.0 158470.0 158470.0 158470.0 158470.0 158470.0
100929.0 104309.0 108311.0 100915.0 123494.0 119091.0 137159.0 133236.0 238728.0 241444.0 320764.0 312829.0 213451.0 210164.0 141771.0 133739.0 131325.0 138409.0 88120.0 88461.0 160498.0 155671.0 269783.0 265195.0 248445.0 242216.0 262112.0 261115.0 96105.0 97414.0 209336.0 215192.0 154464.0 160365.0 111434.0 112936.0 64505.0 68264.0 149818.0 145762.0 113808.0 108260.0 327097.0 325969.0 104539.0 101763.0 135648.0 140215.0 270462.0 268692.0 83749.0 76242.0 100102.0 105724.0 36893.0 31861.0 88720.0 94953.0 249526.0 243402.0 183483.0 179018.0 190251.0 182282.0 101167.0 107939.0 53939.0 45598.0 182844.0 189830.0 263929.0 268701.0 109849.0 109735.0 192960.0 199086.0 65346.0 60282.0 33292.0 35337.0 0.0 158470.0 0.0 0.0 0.0 0.0 0.0 158470.0 158470.0 158470.0 158470.0 158470.0
100929.0 104309.0 108311.0 100915.0 123494.0 119091.0 137159.0 133236.0 238728.0 241444.0 320764.0 312829.0 213451.0 210164.0 141771.0 133739.0 131325.0 138409.0 88120.0 88461.0 160498.0 155671.0 269783.0 265195.0 248445.0 242216.0 262112.0 261115.0 96105.0 97414.0 209336.0 215192.0 154464.0 160365.0 111434.0 112936.0 64505.0 68264.0 149818.0 145762.0 113808.0 108260.0 327097.0 325969.0 104539.0 101763.0 135648.0 140215.0 270462.0 268692.0 83749.0 76242.0 100102.0 105724.0 36893.0 31861.0 88720.0 94953.0 249526.0 243402.0 183483.0 179018.0 190251.0 182282.0 101167.0 107939.0 53939.0 45598.0 182844.0 189830.0 263929.0 268701.0 109849.0 109735.0 192960.0 199086.0 65346.0 60282.0 33292.0 35337.0 0.0 158470.0 0.0 0.0 0.0 0.0 0.0 158470.0 158470.0 158470.0 158470.0 158470.0
100929.0 104309.0 108311.0 100915.0 123494.0 119091.0 137159.0 133236.0 238728.0 241444.0 320764.0 312829.0 213451.0 210164.0 141771.0 133739.0 131325.0 138409.0 88120.0 88461.0 160498.0 155671.0 269783.0 265195.0 248445.0 242216.0 262112.0 261115.0 96105.0 97414.0 209336.0 215192.0 154464.0 160365.0 111434.0 112936.0 64505.0 68264.0 149818.0 145762.0 113808.0 108260.0 327097.0 325969.0 104539.0 101763.0 135648.0 140215.0 270462.0 268692.0 83749.0 76242.0 100102.0 105724.0 36893.0 31861.0 88720.0 94953.0 249526.0 243402.0 183483.0 179018.0 190251.0 182282.0 101167.0 107939.0 53939.0 45598.0 182844.0 189830.0 263929.0 268701.0 109849.0 109735.0 192960.0 199086.0 65346.0 60282.0 33292.0 35337.0 0.0 158470.0 0.0 0.0 0.0 0.0 0.0 158470.0 158470.0 158470.0 158470.0 158470.0
100929.0 104309.0 108311.0 100915.0 123494.0 119091.0 137159.0 133236.0 238728.0 241444.0 320764.0 312829.0 213451.0 210164.0 141771.0 133739.0 131325.0 138409.0 88120.0 88461.0 160498.0 155671.0 269783.0 265195.0 248445.0 242216.0 262112.0 261115.0 96105.0 97414.0 209336.0 215192.0 154464.0 160365.0 111434.0 112936.0 64505.0 68264.0 149818.0 145762.0 113808.0 108260.0 327097.0 325969.0 104539.0 101763.0 135648.0 140215.0 270462.0 268692.0 83749.0 76242.0 100102.0 105724.0 36893.0 31861.0 88720.0 94953.0 249526.0 243402.0 183483.0 179018.0 190251.0 182282.0 101167.0 107939.0 53939.0 45598.0 182844.0 189830.0 263929.0 268701.0 109849.0 109735.0 192960.0 199086.0 65346.0 60282.0 33292.0 35337.0 0.0 158470.0 0.0 0.0 0.0 0.0 0.0 158470.0 158470.0 158470.0 158470.0 158470.0
77703.0 70508.0 155705.0 149917.0 162894.0 166617.0 120399.0 125451.0 81174.0 84457.0 164164.0 156343.0 68145.0 68493.0 88619.0 89649.0 34986.0 35028.0 113104.0 121085.0 85675.0 89876.0 116178.0 112592.0 97988.0 93095.0 222342.0 226086.0 202888.0 198964.0 50865.0 57106.0 66901.0 73696.0 172222.0 166420.0 192835.0 192751.0 89199.0 94711.0 85477.0 80183.0 170417.0 168223.0 102177.0 109679.0 120401.0 115283.0 261626.0 255959.0 203425.0 195471.0 218659.0 220823.0 174691.0 172040.0 210223.0 213414.0 238506.0 236487.0 75084.0 78498.0 206726.0 201399.0 227928.0 235656.0 164492.0 159580.0 191700.0 193544.0 110557.0 114448.0 197172.0 191730.0 64459.0 72531.0 202490.0 198994.0 155105.0 149371.0 158470.0 0.0 158470.0 158470.0 158470.0 158470.0 158470.0 0.0 0.0 0.0 0.0 0.0
77703.0 70508.0 155705.0 149917.0 162894.0 166617.0 120399.0 125451.0 81174.0 84457.0 164164.0 156343.0 68145.0 68493.0 88619.0 89649.0 34986.0 35028.0 113104.0 121085.0 85675.0 89876.0 116178.0 112592.0 97988.0 93095.0 222342.0 226086.0 202888.0 198964.0 50865.0 57106.0 66901.0 73696.0 172222.0 166420.0 192835.0 192751.0 89199.0 94711.0 85477.0 80183.0 170417.0 168223.0 102177.0 109679.0 120401.0 115283.0 261626.0 255959.0 203425.0 195471.0 218659.0 220823.0 174691.0 172040.0 210223.0 213414.0 238506.0 236487.0 75084.0 78498.0 206726.0 201399.0 227928.0 235656.0 164492.0 159580.0 191700.0 193544.0 110557.0 114448.0 197172.0 191730.0 64459.0 72531.0 202490.0 198994.0 155105.0 149371.0 158470.0 0.0 158470.0 158470.0 158470.0 158470.0 158470.0 0.0 0.0 0.0 0.0 0.0
77703.0 70508.0 155705.0 149917.0 162894.0 166617.0 120399.0 125451.0 81174.0 84457.0 164164.0 156343.0 68145.0 68493.0 88619.0 89649.0 34986.0 35028.0 113104.0 121085.0 85675.0 89876.0 116178.0 112592.0 97988.0 93095.0 222342.0 226086.0 202888.0 198964.0 50865.0 57106.0 66901.0 73696.0 172222.0 166420.0 192835.0 192751.0 89199.0 94711.0 85477.0 80183.0 170417.0 168223.0 102177.0 109679.0 120401.0 115283.0 261626.0 255959.0 203425.0 195471.0 218659.0 220823.0 174691.0 172040.0 210223.0 213414.0 238506.0 236487.0 75084.0 78498.0 206726.0 201399.0 227928.0 235656.0 164492.0 159580.0 191700.0 193544.0 110557.0 114448.0 197172.0 191730.0 64459.0 72531.0 202490.0 198994.0 155105.0 149371.0 158470.0 0.0 158470.0 158470.0 158470.0 158470.0 158470.0 0.0 0.0 0.0 0.0 0.0
77703.0 70508.0 155705.0 149917.0 162894.0 166617.0 120399.0 125451.0 81174.0 84457.0 164164.0 156343.0 68145.0 68493.0 88619.0 89649.0 34986.0 35028.0 113104.0 121085.0 85675.0 89876.0 116178.0 112592.0 97988.0 93095.0 222342.0 226086.0 202888.0 198964.0 50865.0 57106.0 66901.0 73696.0 172222.0 166420.0 192835.0 192751.0 89199.0 94711.0 85477.0 80183.0 170417.0 168223.0 102177.0 109679.0 120401.0 115283.0 261626.0 255959.0 203425.0 195471.0 218659.0 220823.0 174691.0 172040.0 210223.0 213414.0 238506.0 236487.0 75084.0 78498.0 206726.0 201399.0 227928.0 235656.0 164492.0 159580.0 191700.0 193544.0 110557.0 114448.0 197172.0 191730.0 64459.0 72531.0 202490.0 198994.0 155105.0 149371.0 158470.0 0.0 158470.0 158470.0 158470.0 158470.0 158470.0 0.0 0.0 0.0 0.0 0.0
77703.0 70508.0 155705.0 149917.0 162894.0 166617.0 120399.0 125451.0 81174.0 84457.0 164164.0 156343.0 68145.0 68493.0 88619.0 89649.0 34986.0 35028.0 113104.0 121085.0 85675.0 89876.0 116178.0 112592.0 97988.0 93095.0 222342.0 226086.0 202888.0 198964.0 50865.0 57106.0 66901.0 73696.0 172222.0 166420.0 192835.0 192751.0 89199.0 94711.0 85477.0 80183.0 170417.0 168223.0 102177.0 109679.0 120401.0 115283.0 261626.0 255959.0 203425.0 195471.0 218659.0 220823.0 174691.0 172040.0 210223.0 213414.0 238506.0 236487.0 75084.0 78498.0 206726.0 201399.0 227928.0 235656.0 164492.0 159580.0 191700.0 193544.0 110557.0 114448.0 197172.0 191730.0 64459.0 72531.0 202490.0 198994.0 155105.0 149371.0 158470.0 0.0 158470.0 158470.0 158470.0 158470.0 158470.0 0.0 0.0 0.0 0.0 0.0
FIXED_EDGES_SECTION
1 2
3 4
5 6
7 8
9 10
11 12
13 14
15 16
17 18
19 20
21 22
23 24
25 26
27 28
29 30
31 32
33 34
35 36
37 38
39 40
41 42
43 44
45 46
47 48
49 50
51 52
53 54
55 56
57 58
59 60
61 62
63 64
65 66
67 68
69 70
71 72
73 74
75 76
77 78
79 80
-1 
DEMAND_SECTION
1 75
2 75
3 341
4 341
5 349
6 349
7 90
8 90
9 534
10 534
11 421
12 421
13 319
14 319
15 223
16 223
17 100
18 100
19 56
20 56
21 130
22 130
23 268
24 268
25 244
26 244
27 234
28 234
29 375
30 375
31 114
32 114
33 342
34 342
35 583
36 583
37 247
38 247
39 158
40 158
41 358
42 358
43 491
44 491
45 432
46 432
47 279
48 279
49 542
50 542
51 379
52 379
53 500
54 500
55 97
56 97
57 274
58 274
59 380
60 380
61 68
62 68
63 186
64 186
65 316
66 316
67 100
68 100
69 74
70 74
71 350
72 350
73 461
74 461
75 84
76 84
77 369
78 369
79 485
80 485
81 0
82 0
83 0
84 0
85 0
86 0
87 0
88 0
89 0
90 0
91 0
92 0
DEPOT_SECTION
81 
-1 
CAPACITIES_SECTION
5000 
5500 
-1 
EOF