NAME: GFS_20_1
TYPE: GFSP
DIMENSION: 90
VEHICLES: 2
CAPACITY: 5000.0
TRIP_DIST_LIMIT: 750000.0
TOTAL_DIST_LIMIT: 2100000.0
EDGE_WEIGHT_TYPE: EXPLICIT
EDGE_WEIGHT_FORMAT: FULL_MATRIX
EDGE_WEIGHT_SECTION
0.0 8481.0 44401.0 52379.0 151420.0 143750.0 47028.0 39467.0 151086.0 151489.0 67811.0 65753.0 210242.0 202070.0 156501.0 150399.0 65115.0 71359.0 72288.0 67227.0 80165.0 87152.0 246581.0 238654.0 73517.0 80826.0 141828.0 139545.0 29672.0 23523.0 30592.0 22714.0 253804.0 250794.0 81388.0 84094.0 61952.0 57316.0 131217.0 136943.0 167097.0 166450.0 140257.0 144225.0 135182.0 137409.0 120421.0 115499.0 173668.0 173378.0 143437.0 135304.0 141716.0 143289.0 241323.0 240822.0 63615.0 71539.0 134776.0 136386.0 158958.0 152057.0 86229.0 91452.0 54539.0 58256.0 88137.0 81373.0 115959.0 109060.0 96579.0 102370.0 36455.0 44247.0 38330.0 33836.0 100897.0 92965.0 115485.0 112465.0 139943.0 100704.0 139943.0 139943.0 139943.0 139943.0 100704.0 100704.0 100704.0 100704.0
8481.0 0.0 52817.0 60806.0 142940.0 135270.0 55249.0 47769.0 155667.0 155692.0 62381.0 59585.0 202224.0 194044.0 164936.0 158859.0 72807.0 78776.0 79678.0 74235.0 87546.0 94324.0 238146.0 230215.0 66180.0 73293.0 133685.0 131278.0 38080.0 31994.0 22435.0 14785.0 245553.0 242487.0 75469.0 77611.0 55678.0 50943.0 136495.0 142467.0 159071.0 158293.0 147923.0 152058.0 143419.0 145746.0 128531.0 123738.0 178959.0 178353.0 149652.0 141485.0 147009.0 148933.0 233102.0 232675.0 72003.0 79946.0 136792.0 138882.0 166537.0 159737.0 94478.0 99815.0 60071.0 64496.0 95938.0 89005.0 107494.0 100581.0 89830.0 95329.0 38310.0 46347.0 37691.0 31712.0 108867.0 100892.0 118526.0 116004.0 143565.0 94275.0 143565.0 143565.0 143565.0 143565.0 94275.0 94275.0 94275.0 94275.0
44401.0 52817.0 0.0 8006.0 195552.0 187916.0 6654.0 6245.0 127804.0 130367.0 100056.0 100814.0 250911.0 242697.0 112125.0 106125.0 27083.0 34992.0 36035.0 35272.0 43067.0 51072.0 289922.0 282044.0 112460.0 120317.0 183404.0 181853.0 14737.0 21783.0 74900.0 66938.0 295707.0 293087.0 114508.0 119295.0 97659.0 93709.0 104771.0 108720.0 207882.0 207987.0 106281.0 108572.0 91195.0 93105.0 82516.0 76152.0 145513.0 147042.0 110790.0 103154.0 114664.0 114079.0 283052.0 282071.0 19251.0 27139.0 138742.0 137685.0 118067.0 110686.0 47951.0 51009.0 38861.0 35602.0 47232.0 42146.0 159761.0 153070.0 132373.0 139227.0 50194.0 52838.0 60117.0 61922.0 65429.0 58548.0 115320.0 109738.0 123436.0 135005.0 123436.0 123436.0 123436.0 123436.0 135005.0 135005.0 135005.0 135005.0
52379.0 60806.0 8006.0 0.0 203557.0 195921.0 9070.0 13770.0 125520.0 128536.0 107153.0 108173.0 258616.0 250387.0 104131.0 98119.0 23497.0 31434.0 32445.0 33472.0 38699.0 46755.0 297880.0 290006.0 120119.0 128005.0 191219.0 189737.0 22732.0 29528.0 82843.0 74871.0 303523.0 300944.0 121602.0 126579.0 105094.0 101223.0 102024.0 105488.0 215605.0 215787.0 100483.0 102374.0 83476.0 85227.0 75969.0 69288.0 141968.0 143905.0 106418.0 98989.0 111647.0 110544.0 290852.0 289818.0 11428.0 19190.0 140242.0 138722.0 111358.0 103853.0 41818.0 44102.0 41484.0 36812.0 41117.0 36923.0 167757.0 161074.0 139672.0 146618.0 56590.0 58489.0 66878.0 69158.0 59751.0 53324.0 116389.0 110430.0 122800.0 142135.0 122800.0 122800.0 122800.0 122800.0 142135.0 142135.0 142135.0 142135.0
151420.0 142940.0 195552.0 203557.0 0.0 7751.0 197246.0 190153.0 264666.0 262015.0 117369.0 110896.0 84170.0 76892.0 307561.0 301675.0 211928.0 216166.0 216869.0 209730.0 224272.0 229400.0 97606.0 89590.0 94107.0 86936.0 42682.0 35143.0 180854.0 174897.0 121802.0 129735.0 112594.0 107439.0 108925.0 100782.0 111481.0 112791.0 253787.0 261304.0 54664.0 46836.0 283841.0 289312.0 284592.0 287666.0 268473.0 264741.0 292467.0 288969.0 273941.0 266058.0 263359.0 268240.0 102077.0 104720.0 214547.0 222554.0 221755.0 228269.0 301956.0 296174.0 235853.0 241896.0 189928.0 197081.0 234863.0 227140.0 36588.0 42561.0 93181.0 86271.0 159876.0 164715.0 149537.0 142829.0 248119.0 240034.0 217594.0 220014.0 248445.0 97988.0 248445.0 248445.0 248445.0 248445.0 97988.0 97988.0 97988.0 97988.0
143750.0 135270.0 187916.0 195921.0 7751.0 0.0 189658.0 182541.0 258437.0 255786.0 110986.0 104336.0 89529.0 81997.0 299952.0 294041.0 204479.0 208789.0 209501.0 202409.0 216934.0 222134.0 105280.0 97262.0 87502.0 80513.0 41635.0 33554.0 173211.0 167216.0 114081.0 122019.0 119702.0 114706.0 103054.0 94937.0 104773.0 105924.0 247265.0 254747.0 57164.0 49846.0 276118.0 281576.0 277094.0 280117.0 260722.0 256993.0 286226.0 282740.0 267199.0 259285.0 256908.0 261685.0 108962.0 111336.0 206932.0 214936.0 214976.0 221406.0 294772.0 288935.0 228111.0 234166.0 182719.0 189819.0 227449.0 219751.0 29453.0 35043.0 87963.0 81340.0 152673.0 157633.0 142416.0 135613.0 240368.0 232283.0 210437.0 212758.0 242216.0 93095.0 242216.0 242216.0 242216.0 242216.0 93095.0 93095.0 93095.0 93095.0
47028.0 55249.0 6654.0 9070.0 197246.0 189658.0 0.0 7778.0 121168.0 123714.0 98609.0 99887.0 250796.0 242629.0 110354.0 104691.0 20970.0 28749.0 29792.0 28652.0 37059.0 44987.0 290901.0 283059.0 112271.0 120208.0 183687.0 182434.0 17932.0 25871.0 77610.0 69739.0 295959.0 293511.0 113043.0 118193.0 96905.0 93153.0 98186.0 102210.0 207829.0 208203.0 109553.0 111416.0 88171.0 90606.0 84949.0 78161.0 139052.0 140501.0 104591.0 96890.0 108113.0 107630.0 283243.0 282076.0 17672.0 25644.0 145371.0 144271.0 113359.0 106129.0 50883.0 52996.0 33122.0 29285.0 42258.0 36590.0 161202.0 154697.0 131292.0 138338.0 47714.0 49435.0 58157.0 60808.0 68815.0 62334.0 121905.0 116270.0 116844.0 133594.0 116844.0 116844.0 116844.0 116844.0 133594.0 133594.0 133594.0 133594.0
39467.0 47769.0 6245.0 13770.0 190153.0 182541.0 7778.0 0.0 126675.0 128876.0 93813.0 94605.0 244858.0 236634.0 117412.0 111571.0 28256.0 35795.0 36829.0 34663.0 44324.0 52139.0 284216.0 276352.0 106374.0 114251.0 177451.0 175993.0 10156.0 18128.0 70059.0 62154.0 289755.0 287186.0 108265.0 113073.0 91471.0 87548.0 104091.0 108426.0 201843.0 202018.0 112397.0 114762.0 95726.0 97979.0 88751.0 82397.0 145387.0 146566.0 111483.0 103687.0 114170.0 114024.0 277082.0 276051.0 24395.0 32408.0 141091.0 140370.0 121115.0 113900.0 54158.0 57250.0 34839.0 32677.0 50000.0 44166.0 154236.0 147631.0 126154.0 133029.0 44048.0 46939.0 53892.0 55688.0 71546.0 64570.0 118036.0 112731.0 121091.0 128765.0 121091.0 121091.0 121091.0 121091.0 128765.0 128765.0 128765.0 128765.0
151086.0 155667.0 127804.0 125520.0 264666.0 258437.0 121168.0 126675.0 0.0 7995.0 147536.0 154622.0 297062.0 288895.0 136157.0 138081.0 102072.0 94257.0 93287.0 92541.0 88331.0 80874.0 344580.0 337356.0 171398.0 177982.0 235515.0 237714.0 134015.0 141542.0 174037.0 168634.0 343318.0 342189.0 156255.0 164355.0 154874.0 154871.0 24300.0 24466.0 254949.0 257664.0 196426.0 193471.0 109301.0 117454.0 169321.0 160847.0 28514.0 24303.0 38250.0 38749.0 17818.0 24629.0 330391.0 328451.0 120064.0 119339.0 265703.0 263910.0 83978.0 85778.0 150081.0 145385.0 97024.0 95326.0 92975.0 92111.0 229658.0 226375.0 174821.0 182812.0 119100.0 111416.0 125275.0 133454.0 165570.0 163616.0 241660.0 235405.0 36893.0 174691.0 36893.0 36893.0 36893.0 36893.0 174691.0 174691.0 174691.0 174691.0
151489.0 155692.0 130367.0 128536.0 262015.0 255786.0 123714.0 128876.0 7995.0 0.0 144895.0 151979.0 294411.0 286244.0 143559.0 145302.0 105235.0 97560.0 96623.0 95244.0 92154.0 84967.0 341929.0 334705.0 168748.0 175331.0 232864.0 235064.0 135790.0 143121.0 173414.0 168292.0 340667.0 339538.0 153604.0 161704.0 152289.0 152402.0 29503.0 31170.0 252298.0 255013.0 202318.0 199568.0 116384.0 124532.0 175073.0 166568.0 34156.0 28492.0 45942.0 45873.0 24893.0 32199.0 327740.0 325800.0 123676.0 123413.0 268770.0 267199.0 91881.0 93542.0 154767.0 150359.0 98015.0 96958.0 97654.0 96226.0 227021.0 223734.0 172170.0 180161.0 118517.0 110686.0 124074.0 132259.0 170628.0 168379.0 244893.0 238786.0 31861.0 172040.0 31861.0 31861.0 31861.0 31861.0 172040.0 172040.0 172040.0 172040.0
67811.0 62381.0 100056.0 107153.0 117369.0 110986.0 98609.0 93813.0 147536.0 144895.0 0.0 8000.0 155182.0 147014.0 204234.0 199783.0 106297.0 108174.0 108618.0 100639.0 114982.0 118414.0 200905.0 193464.0 23979.0 30473.0 91318.0 92462.0 87949.0 86268.0 59318.0 61330.0 201390.0 199887.0 14452.0 20253.0 10588.0 14329.0 136469.0 144028.0 112702.0 114626.0 204914.0 207944.0 177769.0 182431.0 182408.0 176205.0 175277.0 171836.0 157150.0 149418.0 145992.0 150957.0 188473.0 186570.0 115828.0 123411.0 196200.0 199128.0 188532.0 183563.0 147675.0 151063.0 79332.0 87243.0 127091.0 119017.0 82126.0 78999.0 33140.0 40714.0 51688.0 53248.0 40692.0 38210.0 164360.0 156862.0 179700.0 177731.0 131325.0 34986.0 131325.0 131325.0 131325.0 131325.0 34986.0 34986.0 34986.0 34986.0
65753.0 59585.0 100814.0 108173.0 110896.0 104336.0 99887.0 94605.0 154622.0 151979.0 8000.0 0.0 151909.0 143742.0 207086.0 202386.0 109014.0 111416.0 111922.0 104075.0 118569.0 122428.0 196280.0 188744.0 16851.0 24092.0 86812.0 87365.0 88037.0 85626.0 53959.0 56800.0 197892.0 196107.0 16043.0 18629.0 4016.0 8801.0 142929.0 150421.0 109203.0 110605.0 204542.0 207863.0 181142.0 185530.0 182716.0 176780.0 182199.0 178924.0 163152.0 155331.0 152590.0 157358.0 185021.0 183289.0 117351.0 125088.0 191302.0 194482.0 193368.0 188182.0 147961.0 151741.0 82960.0 90747.0 130416.0 122367.0 75235.0 71755.0 31610.0 38453.0 54165.0 56792.0 43032.0 39083.0 164241.0 156601.0 175461.0 173790.0 138409.0 35028.0 138409.0 138409.0 138409.0 138409.0 35028.0 35028.0 35028.0 35028.0
210242.0 202224.0 250911.0 258616.0 84170.0 89529.0 250796.0 244858.0 297062.0 294411.0 155182.0 151909.0 0.0 8282.0 358991.0 354230.0 260920.0 263225.0 263700.0 255770.0 270155.0 273534.0 63039.0 59066.0 138527.0 130612.0 69044.0 73199.0 237097.0 233024.0 185129.0 192171.0 49264.0 50233.0 141915.0 134956.0 154408.0 157814.0 287197.0 294890.0 43162.0 45141.0 349823.0 354211.0 332903.0 337413.0 330633.0 325527.0 324862.0 321365.0 308911.0 301430.0 296335.0 301765.0 36574.0 32798.0 268437.0 276316.0 302363.0 308365.0 342581.0 337949.0 296285.0 301016.0 234499.0 242386.0 282191.0 274125.0 103285.0 111265.0 122474.0 114611.0 206073.0 208366.0 194940.0 190517.0 311089.0 303115.0 295577.0 297013.0 280842.0 124149.0 280842.0 280842.0 280842.0 280842.0 124149.0 124149.0 124149.0 124149.0
202070.0 194044.0 242697.0 250387.0 76892.0 81997.0 242629.0 236634.0 288895.0 286244.0 147014.0 143742.0 8282.0 0.0 350824.0 346063.0 252753.0 255057.0 255533.0 247602.0 261988.0 265366.0 66179.0 61365.0 130359.0 122445.0 60777.0 64927.0 228911.0 224856.0 176874.0 183932.0 55828.0 55954.0 133747.0 126789.0 146241.0 149646.0 279030.0 286722.0 34974.0 36872.0 341599.0 346009.0 324736.0 329246.0 322483.0 317366.0 316695.0 313198.0 300744.0 293263.0 288167.0 293598.0 42924.0 40042.0 260270.0 268149.0 294295.0 300263.0 334414.0 329782.0 288123.0 292841.0 226332.0 234219.0 274024.0 265957.0 95087.0 103062.0 114307.0 106444.0 197906.0 200199.0 186773.0 182350.0 302911.0 294931.0 287384.0 288791.0 272674.0 115982.0 272674.0 272674.0 272674.0 272674.0 115982.0 115982.0 115982.0 115982.0
156501.0 164936.0 112125.0 104131.0 307561.0 299952.0 110354.0 117412.0 136157.0 143559.0 204234.0 207086.0 358991.0 350824.0 0.0 8126.0 98071.0 96223.0 95864.0 103979.0 90261.0 88942.0 400988.0 393185.0 221032.0 229053.0 292927.0 292162.0 126861.0 133349.0 186878.0 178887.0 404841.0 402768.0 218164.0 224458.0 204623.0 201407.0 116637.0 112701.0 316238.0 317229.0 83725.0 77010.0 29522.0 22637.0 66979.0 62715.0 130889.0 137877.0 98148.0 97782.0 118678.0 111535.0 392011.0 390374.0 93024.0 85031.0 195789.0 190251.0 58112.0 52806.0 81239.0 73221.0 125317.0 117326.0 77634.0 85657.0 271556.0 265027.0 237358.0 244926.0 152921.0 151064.0 164054.0 168700.0 80701.0 86073.0 172450.0 164593.0 154576.0 238386.0 154576.0 154576.0 154576.0 154576.0 238386.0 238386.0 238386.0 238386.0
150399.0 158859.0 106125.0 98119.0 301675.0 294041.0 104691.0 111571.0 138081.0 145302.0 199783.0 202386.0 354230.0 346063.0 8126.0 0.0 93486.0 92205.0 91922.0 100071.0 86774.0 86136.0 395563.0 387733.0 216034.0 224043.0 287853.0 286908.0 120836.0 127108.0 180648.0 172650.0 399922.0 397725.0 213831.0 219960.0 199822.0 196492.0 117688.0 114230.0 311415.0 312234.0 76301.0 69807.0 29260.0 21351.0 58904.0 54590.0 134411.0 141147.0 100446.0 99429.0 120421.0 113547.0 387123.0 385617.0 87189.0 79169.0 187674.0 182153.0 62810.0 56811.0 73595.0 65644.0 121297.0 113311.0 74024.0 81929.0 265807.0 259180.0 232923.0 240415.0 148268.0 146767.0 159391.0 163763.0 72622.0 78084.0 164324.0 156468.0 154719.0 234156.0 154719.0 154719.0 154719.0 154719.0 234156.0 234156.0 234156.0 234156.0
65115.0 72807.0 27083.0 23497.0 211928.0 204479.0 20970.0 28256.0 102072.0 105235.0 106297.0 109014.0 260920.0 252753.0 98071.0 93486.0 0.0 7986.0 9017.0 11518.0 16095.0 24024.0 303622.0 295889.0 123122.0 131147.0 195049.0 194555.0 37997.0 46179.0 95182.0 87580.0 306807.0 304818.0 120371.0 126479.0 106570.0 103431.0 78528.0 82053.0 218176.0 219260.0 113096.0 113457.0 72873.0 76692.0 86403.0 78522.0 118662.0 120459.0 83708.0 76078.0 88170.0 87221.0 293964.0 292303.0 19520.0 22811.0 163637.0 161966.0 93857.0 86950.0 56022.0 54996.0 28952.0 21399.0 23219.0 16283.0 175491.0 169440.0 139437.0 146937.0 54851.0 53399.0 65984.0 70797.0 74135.0 69332.0 139668.0 133561.0 100394.0 140747.0 100394.0 100394.0 100394.0 100394.0 140747.0 140747.0 140747.0 140747.0
71359.0 78776.0 34992.0 31434.0 216166.0 208789.0 28749.0 35795.0 94257.0 97560.0 108174.0 111416.0 263225.0 255057.0 96223.0 92205.0 7986.0 0.0 1044.0 7961.0 8818.0 16358.0 306903.0 299223.0 126086.0 134099.0 197931.0 197750.0 45269.0 53467.0 101003.0 93556.0 309299.0 307503.0 121991.0 128424.0 109200.0 106323.0 70619.0 74076.0 220594.0 221965.0 117336.0 117208.0 69729.0 74262.0 90228.0 82098.0 110677.0 112486.0 75844.0 68167.0 80213.0 79235.0 296418.0 294555.0 26386.0 28049.0 171451.0 169691.0 87811.0 81178.0 61485.0 59600.0 29109.0 21117.0 19016.0 11034.0 179635.0 173790.0 141249.0 148888.0 57471.0 54930.0 68525.0 74017.0 79308.0 75032.0 147417.0 141237.0 93350.0 142168.0 93350.0 93350.0 93350.0 93350.0 142168.0 142168.0 142168.0 142168.0
72288.0 79678.0 36035.0 32445.0 216869.0 209501.0 29792.0 36829.0 93287.0 96623.0 108618.0 111922.0 263700.0 255533.0 95864.0 91922.0 9017.0 1044.0 0.0 8151.0 7877.0 15333.0 307491.0 299818.0 126654.0 134663.0 198479.0 198334.0 46286.0 54484.0 101887.0 94456.0 309793.0 308020.0 122399.0 128871.0 109733.0 106888.0 69625.0 73056.0 221084.0 222489.0 117772.0 117577.0 69221.0 73842.0 90617.0 82458.0 109645.0 111468.0 74800.0 67123.0 79203.0 78204.0 296908.0 295089.0 27245.0 28706.0 172426.0 170647.0 86939.0 80340.0 62114.0 60115.0 29453.0 21464.0 18495.0 10452.0 180330.0 174509.0 141677.0 149331.0 58035.0 55370.0 69069.0 74634.0 79887.0 75685.0 148379.0 142185.0 92538.0 142547.0 92538.0 92538.0 92538.0 92538.0 142547.0 142547.0 142547.0 142547.0
67227.0 74235.0 35272.0 33472.0 209730.0 202409.0 28652.0 34663.0 92541.0 95244.0 100639.0 104075.0 255770.0 247602.0 103979.0 100071.0 11518.0 7961.0 8151.0 0.0 14606.0 20211.0 299859.0 292208.0 118980.0 126976.0 190729.0 190699.0 43232.0 51315.0 96176.0 88943.0 301899.0 300181.0 114360.0 120892.0 101960.0 99212.0 69559.0 73765.0 213185.0 214673.0 124210.0 124338.0 77135.0 81898.0 97305.0 89286.0 110726.0 111953.0 77362.0 69421.0 79555.0 79378.0 289005.0 287158.0 30977.0 34146.0 173565.0 172164.0 93126.0 86818.0 67486.0 66212.0 21366.0 13402.0 26468.0 18392.0 173160.0 167466.0 133664.0 141343.0 50398.0 47405.0 61353.0 67174.0 85549.0 80836.0 149819.0 143900.0 89435.0 134468.0 89435.0 89435.0 89435.0 89435.0 134468.0 134468.0 134468.0 134468.0
80165.0 87546.0 43067.0 38699.0 224272.0 216934.0 37059.0 44324.0 88331.0 92154.0 114982.0 118569.0 270155.0 261988.0 90261.0 86774.0 16095.0 8818.0 7877.0 14606.0 0.0 8061.0 314445.0 306799.0 133561.0 141552.0 205273.0 205286.0 53946.0 62143.0 109738.0 102322.0 316323.0 314659.0 128577.0 135227.0 116503.0 113794.0 64315.0 67169.0 227611.0 229174.0 117715.0 116974.0 62847.0 67940.0 90265.0 81911.0 103363.0 105558.0 67807.0 60303.0 73521.0 71981.0 303420.0 301543.0 31799.0 31379.0 177789.0 175739.0 79115.0 72584.0 63979.0 61003.0 35658.0 27823.0 12777.0 5523.0 187711.0 181971.0 147932.0 155656.0 64998.0 61819.0 75931.0 81777.0 81185.0 77680.0 153563.0 147176.0 89706.0 148561.0 89706.0 89706.0 89706.0 89706.0 148561.0 148561.0 148561.0 148561.0
87152.0 94324.0 51072.0 46755.0 229400.0 222134.0 44987.0 52139.0 80874.0 84967.0 118414.0 122428.0 273534.0 265366.0 88942.0 86136.0 24024.0 16358.0 15333.0 20211.0 8061.0 0.0 318629.0 311038.0 137816.0 145762.0 209238.0 209529.0 61615.0 69813.0 116348.0 109062.0 319779.0 318295.0 131692.0 138593.0 120568.0 118096.0 56728.0 59314.0 231112.0 232934.0 122312.0 121112.0 60525.0 66353.0 94739.0 86274.0 95362.0 97661.0 59757.0 52243.0 65738.0 64010.0 306852.0 304922.0 39577.0 38479.0 185604.0 183459.0 72989.0 66837.0 70246.0 66650.0 39672.0 32319.0 14648.0 11261.0 192813.0 187258.0 151117.0 158931.0 69620.0 65687.0 80314.0 86607.0 86969.0 83945.0 161324.0 154869.0 83699.0 151405.0 83699.0 83699.0 83699.0 83699.0 151405.0 151405.0 151405.0 151405.0
246581.0 238146.0 289922.0 297880.0 97606.0 105280.0 290901.0 284216.0 344580.0 341929.0 200905.0 196280.0 63039.0 66179.0 400988.0 395563.0 303622.0 306903.0 307491.0 299859.0 314445.0 318629.0 0.0 8018.0 180886.0 172904.0 109587.0 109161.0 275423.0 270082.0 217965.0 225751.0 32595.0 24611.0 188862.0 181240.0 198061.0 200651.0 334715.0 342407.0 90958.0 87037.0 381299.0 386655.0 376438.0 380231.0 365307.0 361246.0 372379.0 368883.0 356310.0 348915.0 343852.0 349283.0 34804.0 42765.0 308490.0 316506.0 315202.0 322198.0 389436.0 384409.0 332153.0 337857.0 279026.0 286675.0 325895.0 317931.0 130837.0 138150.0 169769.0 161775.0 249474.0 252942.0 238514.0 232929.0 345053.0 336963.0 313258.0 316187.0 328359.0 171494.0 328359.0 328359.0 328359.0 328359.0 171494.0 171494.0 171494.0 171494.0
238654.0 230215.0 282044.0 290006.0 89590.0 97262.0 283059.0 276352.0 337356.0 334705.0 193464.0 188744.0 59066.0 61365.0 393185.0 387733.0 295889.0 299223.0 299818.0 292208.0 306799.0 311038.0 8018.0 0.0 173255.0 165286.0 102161.0 101520.0 267531.0 262160.0 209991.0 217783.0 35851.0 27857.0 181555.0 173883.0 190475.0 193013.0 327491.0 335183.0 84264.0 79988.0 373283.0 378642.0 368721.0 372473.0 357316.0 353271.0 365156.0 361659.0 349150.0 341719.0 336628.0 342059.0 35142.0 42934.0 300639.0 308656.0 307483.0 314449.0 381984.0 376909.0 324186.0 329907.0 271417.0 279045.0 318207.0 310253.0 122870.0 130163.0 162536.0 154548.0 241815.0 245355.0 230875.0 225230.0 337057.0 328967.0 305391.0 308285.0 321135.0 164411.0 321135.0 321135.0 321135.0 321135.0 164411.0 164411.0 164411.0 164411.0
73517.0 66180.0 112460.0 120119.0 94107.0 87502.0 112271.0 106374.0 171398.0 168748.0 23979.0 16851.0 138527.0 130359.0 221032.0 216034.0 123122.0 126086.0 126654.0 118980.0 133561.0 137816.0 180886.0 173255.0 0.0 8025.0 71927.0 71735.0 98862.0 95339.0 54729.0 59646.0 183896.0 181736.0 21879.0 17139.0 17514.0 19769.0 159766.0 167245.0 95564.0 96206.0 213734.0 217541.0 195742.0 199812.0 193127.0 187639.0 199027.0 195702.0 179862.0 172008.0 169440.0 174184.0 171117.0 169818.0 129916.0 137809.0 190824.0 194655.0 209354.0 203996.0 158509.0 162879.0 98171.0 105791.0 145097.0 137103.0 58385.0 55033.0 25448.0 29526.0 68620.0 72173.0 57630.0 52341.0 174039.0 166204.0 176782.0 175853.0 155178.0 31579.0 155178.0 155178.0 155178.0 155178.0 31579.0 31579.0 31579.0 31579.0
80826.0 73293.0 120317.0 128005.0 86936.0 80513.0 120208.0 114251.0 177982.0 175331.0 30473.0 24092.0 130612.0 122445.0 229053.0 224043.0 131147.0 134099.0 134663.0 126976.0 141552.0 145762.0 172904.0 165286.0 8025.0 0.0 63901.0 63769.0 106625.0 102933.0 60432.0 65891.0 175895.0 173716.0 24862.0 17968.0 25279.0 27776.0 166853.0 174381.0 87623.0 88192.0 221083.0 224992.0 203761.0 207837.0 200735.0 195329.0 205741.0 202285.0 187231.0 179419.0 176430.0 181315.0 163124.0 161868.0 137862.0 145766.0 195173.0 199252.0 217175.0 211865.0 166164.0 170627.0 106131.0 113772.0 153110.0 145113.0 51728.0 49060.0 21799.0 23958.0 76629.0 80095.0 65623.0 60365.0 181542.0 173675.0 181847.0 181185.0 161762.0 28701.0 161762.0 161762.0 161762.0 161762.0 28701.0 28701.0 28701.0 28701.0
141828.0 133685.0 183404.0 191219.0 42682.0 41635.0 183687.0 177451.0 235515.0 232864.0 91318.0 86812.0 69044.0 60777.0 292927.0 287853.0 195049.0 197931.0 198479.0 190729.0 205273.0 209238.0 109587.0 102161.0 71927.0 63901.0 0.0 8300.0 169321.0 164875.0 116115.0 123228.0 112304.0 109874.0 79514.0 71756.0 88771.0 91644.0 225650.0 233342.0 26241.0 24631.0 280941.0 285449.0 267628.0 271738.0 262214.0 257304.0 263314.0 259818.0 247351.0 239827.0 234787.0 240218.0 99663.0 98995.0 201359.0 209312.0 236799.0 242346.0 279849.0 274838.0 228035.0 233004.0 169726.0 177458.0 216947.0 208931.0 37930.0 45342.0 60798.0 52885.0 140467.0 143579.0 129410.0 124262.0 242495.0 234486.0 228349.0 229346.0 219294.0 63526.0 219294.0 219294.0 219294.0 219294.0 63526.0 63526.0 63526.0 63526.0
139545.0 131278.0 181853.0 189737.0 35143.0 33554.0 182434.0 175993.0 237714.0 235064.0 92462.0 87365.0 73199.0 64927.0 292162.0 286908.0 194555.0 197750.0 198334.0 190699.0 205286.0 209529.0 109161.0 101520.0 71735.0 63769.0 8300.0 0.0 167584.0 162809.0 112860.0 120196.0 114280.0 111300.0 81500.0 73522.0 88986.0 91494.0 227847.0 235530.0 31698.0 28060.0 277842.0 282535.0 267324.0 271216.0 259709.0 255016.0 265514.0 262017.0 249277.0 241650.0 236958.0 242412.0 101886.0 101843.0 200089.0 208078.0 230715.0 236408.0 280730.0 275532.0 225754.0 230947.0 169899.0 177525.0 216747.0 208776.0 31140.0 38881.0 63494.0 55805.0 140314.0 143854.0 129358.0 123804.0 239828.0 231784.0 222868.0 224082.0 221494.0 67000.0 221494.0 221494.0 221494.0 221494.0 67000.0 67000.0 67000.0 67000.0
29672.0 38080.0 14737.0 22732.0 180854.0 173211.0 17932.0 10156.0 134015.0 135790.0 87949.0 88037.0 237097.0 228911.0 126861.0 120836.0 37997.0 45269.0 46286.0 43232.0 53946.0 61615.0 275423.0 267531.0 98862.0 106625.0 169321.0 167584.0 0.0 8199.0 60205.0 52259.0 281594.0 278867.0 102338.0 106639.0 84699.0 80552.0 111975.0 116666.0 194027.0 193933.0 117041.0 119996.0 105696.0 107770.0 94680.0 88870.0 153700.0 154548.0 120521.0 112626.0 122206.0 122463.0 268983.0 268134.0 33946.0 41870.0 136224.0 136041.0 131225.0 124034.0 59929.0 64018.0 39105.0 38838.0 60099.0 54093.0 145128.0 138393.0 119645.0 126259.0 40743.0 45225.0 49353.0 49794.0 76413.0 68969.0 113853.0 109046.0 126955.0 122677.0 126955.0 126955.0 126955.0 126955.0 122677.0 122677.0 122677.0 122677.0
23523.0 31994.0 21783.0 29528.0 174897.0 167216.0 25871.0 18128.0 141542.0 143121.0 86268.0 85626.0 233024.0 224856.0 133349.0 127108.0 46179.0 53467.0 54484.0 51315.0 62143.0 69813.0 270082.0 262160.0 95339.0 102933.0 164875.0 162809.0 8199.0 0.0 53543.0 45547.0 277008.0 274098.0 100489.0 104247.0 82098.0 77740.0 119746.0 124563.0 189907.0 189506.0 118919.0 122371.0 112962.0 114744.0 97802.0 92510.0 161604.0 162327.0 128648.0 120732.0 130025.0 130423.0 264475.0 263831.0 40942.0 48685.0 130563.0 130758.0 139230.0 131986.0 63278.0 68148.0 45687.0 46222.0 68124.0 62236.0 139483.0 132571.0 117113.0 123427.0 42364.0 47969.0 49572.0 48655.0 78783.0 71043.0 108746.0 104323.0 133796.0 120562.0 133796.0 133796.0 133796.0 133796.0 120562.0 120562.0 120562.0 120562.0
30592.0 22435.0 74900.0 82843.0 121802.0 114081.0 77610.0 70059.0 174037.0 173414.0 59318.0 53959.0 185129.0 176874.0 186878.0 180648.0 95182.0 101003.0 101887.0 96176.0 109738.0 116348.0 217965.0 209991.0 54729.0 60432.0 116115.0 112860.0 60205.0 53543.0 0.0 7999.0 226890.0 223443.0 69686.0 69463.0 49998.0 45388.0 156070.0 162385.0 142055.0 140489.0 164982.0 169730.0 165772.0 167974.0 147454.0 143281.0 198399.0 197283.0 170512.0 162322.0 166562.0 169002.0 214654.0 214693.0 94143.0 102030.0 137397.0 140746.0 188809.0 182071.0 114216.0 120115.0 80640.0 85779.0 118341.0 111342.0 87137.0 79868.0 80048.0 84094.0 54942.0 62728.0 50224.0 42326.0 127331.0 119254.0 122273.0 121160.0 160498.0 85675.0 160498.0 160498.0 160498.0 160498.0 85675.0 85675.0 85675.0 85675.0
22714.0 14785.0 66938.0 74871.0 129735.0 122019.0 69739.0 62154.0 168634.0 168292.0 61330.0 56800.0 192171.0 183932.0 178887.0 172650.0 87580.0 93556.0 94456.0 88943.0 102322.0 109062.0 225751.0 217783.0 59646.0 65891.0 123228.0 120196.0 52259.0 45547.0 7999.0 0.0 234347.0 230988.0 72790.0 73388.0 52784.0 48027.0 150110.0 156268.0 149045.0 147689.0 157722.0 162340.0 157879.0 160028.0 139799.0 135515.0 192525.0 191644.0 163929.0 155748.0 160619.0 162815.0 222055.0 221979.0 86185.0 94060.0 134884.0 137817.0 181322.0 174517.0 106403.0 112226.0 74126.0 78922.0 110693.0 103786.0 94914.0 87712.0 84613.0 89168.0 49858.0 57822.0 46515.0 39069.0 119748.0 111682.0 118663.0 117096.0 155671.0 89876.0 155671.0 155671.0 155671.0 155671.0 89876.0 89876.0 89876.0 89876.0
253804.0 245553.0 295707.0 303523.0 112594.0 119702.0 295959.0 289755.0 343318.0 340667.0 201390.0 197892.0 49264.0 55828.0 404841.0 399922.0 306807.0 309299.0 309793.0 301899.0 316323.0 319779.0 32595.0 35851.0 183896.0 175895.0 112304.0 114280.0 281594.0 277008.0 226890.0 234347.0 0.0 8049.0 188183.0 181187.0 200238.0 203445.0 333453.0 341145.0 88714.0 87755.0 391770.0 396618.0 379013.0 383409.0 373979.0 369290.0 371118.0 367621.0 355166.0 347686.0 342590.0 348021.0 12954.0 17418.0 313630.0 321570.0 334145.0 340763.0 388646.0 384174.0 340025.0 345157.0 280666.0 288530.0 328289.0 320230.0 140943.0 148788.0 168743.0 160874.0 252006.0 254510.0 240884.0 236169.0 354059.0 346006.0 330138.0 332421.0 327097.0 170417.0 327097.0 327097.0 327097.0 327097.0 170417.0 170417.0 170417.0 170417.0
250794.0 242487.0 293087.0 300944.0 107439.0 114706.0 293511.0 287186.0 342189.0 339538.0 199887.0 196107.0 50233.0 55954.0 402768.0 397725.0 304818.0 307503.0 308020.0 300181.0 314659.0 318295.0 24611.0 27857.0 181736.0 173716.0 109874.0 111300.0 278867.0 274098.0 223443.0 230988.0 8049.0 0.0 186931.0 179762.0 198322.0 201389.0 332324.0 340017.0 87266.0 85560.0 388131.0 393100.0 377232.0 381485.0 370747.0 366201.0 369989.0 366492.0 354038.0 346557.0 341462.0 346892.0 14310.0 21292.0 311181.0 319146.0 328581.0 335284.0 387691.0 383080.0 336955.0 342225.0 279021.0 286842.0 326511.0 318468.0 136986.0 144746.0 167516.0 159588.0 250105.0 252846.0 239004.0 234072.0 350736.0 342668.0 325019.0 327445.0 325969.0 168223.0 325969.0 325969.0 325969.0 325969.0 168223.0 168223.0 168223.0 168223.0
81388.0 75469.0 114508.0 121602.0 108925.0 103054.0 113043.0 108265.0 156255.0 153604.0 14452.0 16043.0 141915.0 133747.0 218164.0 213831.0 120371.0 121991.0 122399.0 114360.0 128577.0 131692.0 188862.0 181555.0 21879.0 24862.0 79514.0 81500.0 102338.0 100489.0 69686.0 72790.0 188183.0 186931.0 0.0 8150.0 20052.0 24843.0 146352.0 154031.0 99665.0 102101.0 219247.0 222333.0 191420.0 196241.0 196844.0 190655.0 184055.0 180558.0 167879.0 160324.0 155523.0 160916.0 175242.0 173303.0 130228.0 137782.0 207083.0 210360.0 200885.0 196164.0 162105.0 165515.0 93001.0 100960.0 140828.0 132752.0 75254.0 73407.0 19441.0 27343.0 65968.0 67101.0 55045.0 52642.0 178737.0 171211.0 191450.0 189820.0 140034.0 20556.0 140034.0 140034.0 140034.0 140034.0 20556.0 20556.0 20556.0 20556.0
84094.0 77611.0 119295.0 126579.0 100782.0 94937.0 118193.0 113073.0 164355.0 161704.0 20253.0 18629.0 134956.0 126789.0 224458.0 219960.0 126479.0 128424.0 128871.0 120892.0 135227.0 138593.0 181240.0 173883.0 17139.0 17968.0 71756.0 73522.0 106639.0 104247.0 69463.0 73388.0 181187.0 179762.0 8150.0 0.0 22208.0 26780.0 154378.0 162043.0 92531.0 94663.0 223166.0 226490.0 198022.0 202678.0 201311.0 195329.0 192155.0 188658.0 175775.0 168181.0 163591.0 168935.0 168264.0 166344.0 135563.0 143230.0 206549.0 210119.0 208307.0 203472.0 166554.0 170262.0 99581.0 107495.0 147344.0 139270.0 67280.0 65669.0 13099.0 20470.0 71752.0 73501.0 60677.0 57422.0 182868.0 175230.0 191710.0 190410.0 148135.0 16669.0 148135.0 148135.0 148135.0 148135.0 16669.0 16669.0 16669.0 16669.0
61952.0 55678.0 97659.0 105094.0 111481.0 104773.0 96905.0 91471.0 154874.0 152289.0 10588.0 4016.0 154408.0 146241.0 204623.0 199822.0 106570.0 109200.0 109733.0 101960.0 116503.0 120568.0 198061.0 190475.0 17514.0 25279.0 88771.0 88986.0 84699.0 82098.0 49998.0 52784.0 200238.0 198322.0 20052.0 22208.0 0.0 4794.0 142610.0 150040.0 111617.0 112771.0 201014.0 204407.0 178922.0 183185.0 179372.0 173515.0 182271.0 179165.0 162460.0 154581.0 152381.0 156979.0 187394.0 185796.0 114433.0 122217.0 187316.0 190480.0 191897.0 186591.0 144626.0 148520.0 80983.0 88690.0 128214.0 120185.0 75497.0 71629.0 35019.0 41585.0 51785.0 54881.0 40683.0 36197.0 160789.0 153116.0 171445.0 169775.0 138719.0 38758.0 138719.0 138719.0 138719.0 138719.0 38758.0 38758.0 38758.0 38758.0
57316.0 50943.0 93709.0 101223.0 112791.0 105924.0 93153.0 87548.0 154871.0 152402.0 14329.0 8801.0 157814.0 149646.0 201407.0 196492.0 103431.0 106323.0 106888.0 99212.0 113794.0 118096.0 200651.0 193013.0 19769.0 27776.0 91644.0 91494.0 80552.0 77740.0 45388.0 48027.0 203445.0 201389.0 24843.0 26780.0 4794.0 0.0 141938.0 149286.0 114942.0 115834.0 196629.0 200097.0 175992.0 180109.0 175184.0 169413.0 182031.0 179130.0 161326.0 153384.0 151828.0 156222.0 190634.0 189179.0 110739.0 118572.0 182637.0 185762.0 189831.0 184386.0 140455.0 144470.0 78436.0 86032.0 125335.0 117337.0 76519.0 72212.0 39419.0 45732.0 48854.0 52510.0 37864.0 32729.0 156488.0 148781.0 166682.0 164992.0 138832.0 43398.0 138832.0 138832.0 138832.0 138832.0 43398.0 43398.0 43398.0 43398.0
131217.0 136495.0 104771.0 102024.0 253787.0 247265.0 98186.0 104091.0 24300.0 29503.0 136469.0 142929.0 287197.0 279030.0 116637.0 117688.0 78528.0 70619.0 69625.0 69559.0 64315.0 56728.0 334715.0 327491.0 159766.0 166853.0 225650.0 227847.0 111975.0 119746.0 156070.0 150110.0 333453.0 332324.0 146352.0 154378.0 142610.0 141938.0 0.0 7799.0 245084.0 247799.0 172827.0 170135.0 88493.0 96581.0 145570.0 137065.0 42468.0 42582.0 24611.0 20220.0 10515.0 14574.0 320526.0 318586.0 96106.0 95145.0 241989.0 240039.0 69757.0 69569.0 125785.0 121139.0 76680.0 73869.0 68676.0 67932.0 218090.0 214127.0 164956.0 172947.0 101654.0 94454.0 109185.0 117222.0 141355.0 139328.0 217837.0 211488.0 40422.0 164826.0 40422.0 40422.0 40422.0 40422.0 164826.0 164826.0 164826.0 164826.0
136943.0 142467.0 108720.0 105488.0 261304.0 254747.0 102210.0 108426.0 24466.0 31170.0 144028.0 150421.0 294890.0 286722.0 112701.0 114230.0 82053.0 74076.0 73056.0 73765.0 67169.0 59314.0 342407.0 335183.0 167245.0 174381.0 233342.0 235530.0 116666.0 124563.0 162385.0 156268.0 341145.0 340017.0 154031.0 162043.0 150040.0 149286.0 7799.0 0.0 252776.0 255492.0 172087.0 169050.0 85241.0 93385.0 145074.0 136626.0 37042.0 38419.0 17546.0 14953.0 6852.0 6940.0 328218.0 326278.0 98891.0 97325.0 244918.0 242729.0 63619.0 64061.0 126965.0 121908.0 82453.0 79120.0 70174.0 70311.0 225534.0 221494.0 172648.0 180639.0 108256.0 101205.0 116077.0 124061.0 141954.0 140362.0 220623.0 214120.0 47048.0 172518.0 47048.0 47048.0 47048.0 47048.0 172518.0 172518.0 172518.0 172518.0
167097.0 159071.0 207882.0 215605.0 54664.0 57164.0 207829.0 201843.0 254949.0 252298.0 112702.0 109203.0 43162.0 34974.0 316238.0 311415.0 218176.0 220594.0 221084.0 213185.0 227611.0 231112.0 90958.0 84264.0 95564.0 87623.0 26241.0 31698.0 194027.0 189907.0 142055.0 149045.0 88714.0 87266.0 99665.0 92531.0 111617.0 114942.0 245084.0 252776.0 0.0 8428.0 306668.0 311049.0 290302.0 294733.0 287512.0 282415.0 282748.0 279252.0 266797.0 259317.0 254221.0 259652.0 75824.0 74256.0 225479.0 233373.0 262412.0 268088.0 300467.0 295820.0 253167.0 257923.0 191954.0 199816.0 239579.0 231519.0 62806.0 70579.0 80254.0 72322.0 163346.0 165796.0 152218.0 147664.0 267938.0 259959.0 254388.0 255475.0 238728.0 81174.0 238728.0 238728.0 238728.0 238728.0 81174.0 81174.0 81174.0 81174.0
166450.0 158293.0 207987.0 215787.0 46836.0 49846.0 208203.0 202018.0 257664.0 255013.0 114626.0 110605.0 45141.0 36872.0 317229.0 312234.0 219260.0 221965.0 222489.0 214673.0 229174.0 232934.0 87037.0 79988.0 96206.0 88192.0 24631.0 28060.0 193933.0 189506.0 140489.0 147689.0 87755.0 85560.0 102101.0 94663.0 112771.0 115834.0 247799.0 255492.0 8428.0 0.0 305411.0 309977.0 291691.0 295925.0 286823.0 281931.0 285464.0 281967.0 269513.0 262032.0 256937.0 262367.0 75065.0 74383.0 225874.0 233815.0 258025.0 263864.0 302956.0 298130.0 252662.0 257634.0 193557.0 201351.0 240976.0 232939.0 58446.0 66381.0 82861.0 74868.0 164550.0 167382.0 153454.0 148529.0 267077.0 259060.0 250676.0 251998.0 241444.0 84457.0 241444.0 241444.0 241444.0 241444.0 84457.0 84457.0 84457.0 84457.0
140257.0 147923.0 106281.0 100483.0 283841.0 276118.0 109553.0 112397.0 196426.0 202318.0 204914.0 204542.0 349823.0 341599.0 83725.0 76301.0 113096.0 117336.0 117772.0 124210.0 117715.0 122312.0 381299.0 373283.0 213734.0 221083.0 280941.0 277842.0 117041.0 118919.0 164982.0 157722.0 391770.0 388131.0 219247.0 223166.0 201014.0 196629.0 172827.0 172087.0 306668.0 305411.0 0.0 8160.0 94859.0 88005.0 27594.0 36112.0 200376.0 205794.0 162887.0 159051.0 178907.0 173787.0 379601.0 379670.0 95494.0 90336.0 120518.0 113709.0 135472.0 128180.0 58698.0 58137.0 140110.0 133652.0 107781.0 112331.0 251233.0 243592.0 236025.0 242249.0 156444.0 158925.0 166051.0 166826.0 40853.0 48073.0 100271.0 92695.0 205338.0 239442.0 205338.0 205338.0 205338.0 205338.0 239442.0 239442.0 239442.0 239442.0
144225.0 152058.0 108572.0 102374.0 289312.0 281576.0 111416.0 114762.0 193471.0 199568.0 207944.0 207863.0 354211.0 346009.0 77010.0 69807.0 113457.0 117208.0 117577.0 124338.0 116974.0 121112.0 386655.0 378642.0 217541.0 224992.0 285449.0 282535.0 119996.0 122371.0 169730.0 162340.0 396618.0 393100.0 222333.0 226490.0 204407.0 200097.0 170135.0 169050.0 311049.0 309977.0 8160.0 0.0 89906.0 82753.0 27054.0 35126.0 196359.0 201997.0 159189.0 155692.0 175835.0 170453.0 384376.0 384306.0 96566.0 90893.0 128678.0 121866.0 130072.0 122960.0 60637.0 58974.0 141086.0 134361.0 106487.0 111517.0 256330.0 248752.0 239423.0 245798.0 158750.0 160848.0 168616.0 169763.0 43622.0 51345.0 108358.0 100758.0 203519.0 242642.0 203519.0 203519.0 203519.0 203519.0 242642.0 242642.0 242642.0 242642.0
135182.0 143419.0 91195.0 83476.0 284592.0 277094.0 88171.0 95726.0 109301.0 116384.0 177769.0 181142.0 332903.0 324736.0 29522.0 29260.0 72873.0 69729.0 69221.0 77135.0 62847.0 60525.0 376438.0 368721.0 195742.0 203761.0 267628.0 267324.0 105696.0 112962.0 165772.0 157879.0 379013.0 377232.0 191420.0 198022.0 178922.0 175992.0 88493.0 85241.0 290302.0 291691.0 94859.0 89906.0 0.0 8154.0 71391.0 64349.0 107640.0 113908.0 72166.0 70561.0 91554.0 84910.0 366126.0 364291.0 72048.0 64525.0 194468.0 189927.0 41161.0 33508.0 71940.0 63920.0 98446.0 90527.0 50726.0 58783.0 248236.0 242054.0 210763.0 218466.0 127164.0 124540.0 138241.0 143519.0 78099.0 80985.0 170158.0 162508.0 125530.0 211398.0 125530.0 125530.0 125530.0 125530.0 211398.0 211398.0 211398.0 211398.0
137409.0 145746.0 93105.0 85227.0 287666.0 280117.0 90606.0 97979.0 117454.0 124532.0 182431.0 185530.0 337413.0 329246.0 22637.0 21351.0 76692.0 74262.0 73842.0 81898.0 67940.0 66353.0 380231.0 372473.0 199812.0 207837.0 271738.0 271216.0 107770.0 114744.0 167974.0 160028.0 383409.0 381485.0 196241.0 202678.0 183185.0 180109.0 96581.0 93385.0 294733.0 295925.0 88005.0 82753.0 8154.0 0.0 65513.0 58936.0 115542.0 121896.0 80285.0 78714.0 99706.0 93060.0 370547.0 368768.0 73855.0 66061.0 190567.0 185773.0 47481.0 40213.0 69521.0 61372.0 103263.0 95289.0 55447.0 63513.0 251439.0 245105.0 215511.0 223144.0 131405.0 129191.0 142525.0 147488.0 73903.0 77476.0 166440.0 158716.0 133371.0 216364.0 133371.0 133371.0 133371.0 133371.0 216364.0 216364.0 216364.0 216364.0
120421.0 128531.0 82516.0 75969.0 268473.0 260722.0 84949.0 88751.0 169321.0 175073.0 182408.0 182716.0 330633.0 322483.0 66979.0 58904.0 86403.0 90228.0 90617.0 97305.0 90265.0 94739.0 365307.0 357316.0 193127.0 200735.0 262214.0 259709.0 94680.0 97802.0 147454.0 139799.0 373979.0 370747.0 196844.0 201311.0 179372.0 175184.0 145570.0 145074.0 287512.0 286823.0 27594.0 27054.0 71391.0 65513.0 0.0 8540.0 174373.0 179494.0 136561.0 132355.0 151913.0 147035.0 361582.0 361205.0 69662.0 63855.0 128959.0 123298.0 112547.0 104866.0 34757.0 32111.0 114101.0 107326.0 80194.0 84851.0 234548.0 227158.0 214325.0 220911.0 132531.0 134310.0 142630.0 144201.0 20468.0 28497.0 105988.0 98117.0 177758.0 217268.0 177758.0 177758.0 177758.0 177758.0 217268.0 217268.0 217268.0 217268.0
115499.0 123738.0 76152.0 69288.0 264741.0 256993.0 78161.0 82397.0 160847.0 166568.0 176205.0 176780.0 325527.0 317366.0 62715.0 54590.0 78522.0 82098.0 82458.0 89286.0 81911.0 86274.0 361246.0 353271.0 187639.0 195329.0 257304.0 255016.0 88870.0 92510.0 143281.0 135515.0 369290.0 366201.0 190655.0 195329.0 173515.0 169413.0 137065.0 136626.0 282415.0 281931.0 36112.0 35126.0 64349.0 58936.0 8540.0 0.0 166194.0 171228.0 128306.0 123994.0 143468.0 138654.0 356821.0 356289.0 62327.0 56175.0 133240.0 127928.0 105475.0 97684.0 29270.0 25187.0 106520.0 99598.0 71708.0 76475.0 230415.0 223128.0 208381.0 215095.0 125862.0 127329.0 136142.0 138041.0 19156.0 26320.0 109749.0 101898.0 169228.0 211139.0 169228.0 169228.0 169228.0 169228.0 211139.0 211139.0 211139.0 211139.0
173668.0 178959.0 145513.0 141968.0 292467.0 286226.0 139052.0 145387.0 28514.0 34156.0 175277.0 182199.0 324862.0 316695.0 130889.0 134411.0 118662.0 110677.0 109645.0 110726.0 103363.0 95362.0 372379.0 365156.0 199027.0 205741.0 263314.0 265514.0 153700.0 161604.0 198399.0 192525.0 371118.0 369989.0 184055.0 192155.0 182271.0 182031.0 42468.0 37042.0 282748.0 285464.0 200376.0 196359.0 107640.0 115542.0 174373.0 166194.0 0.0 8285.0 38165.0 43996.0 31958.0 31442.0 358191.0 356250.0 134772.0 132497.0 280552.0 278041.0 73793.0 78121.0 160259.0 154462.0 119129.0 116083.0 104796.0 106012.0 257380.0 253883.0 202620.0 210612.0 143778.0 136403.0 150850.0 158966.0 173926.0 173249.0 256106.0 249402.0 65346.0 202490.0 65346.0 65346.0 65346.0 65346.0 202490.0 202490.0 202490.0 202490.0
173378.0 178353.0 147042.0 143905.0 288969.0 282740.0 140501.0 146566.0 24303.0 28492.0 171836.0 178924.0 321365.0 313198.0 137877.0 141147.0 120459.0 112486.0 111468.0 111953.0 105558.0 97661.0 368883.0 361659.0 195702.0 202285.0 259818.0 262017.0 154548.0 162327.0 197283.0 191644.0 367621.0 366492.0 180558.0 188658.0 179165.0 179130.0 42582.0 38419.0 279252.0 281967.0 205794.0 201997.0 113908.0 121896.0 179494.0 171228.0 8285.0 0.0 42937.0 47742.0 32399.0 33902.0 354694.0 352754.0 137228.0 135404.0 283232.0 280939.0 81253.0 85237.0 164087.0 158560.0 118924.0 116406.0 107931.0 108563.0 253956.0 250677.0 199124.0 207115.0 142438.0 134887.0 149022.0 157183.0 178260.0 177255.0 258887.0 252313.0 60282.0 198994.0 60282.0 60282.0 60282.0 60282.0 198994.0 198994.0 198994.0 198994.0
143437.0 149652.0 110790.0 106418.0 273941.0 267199.0 104591.0 111483.0 38250.0 45942.0 157150.0 163152.0 308911.0 300744.0 98148.0 100446.0 83708.0 75844.0 74800.0 77362.0 67807.0 59757.0 356310.0 349150.0 179862.0 187231.0 247351.0 249277.0 120521.0 128648.0 170512.0 163929.0 355166.0 354038.0 167879.0 175775.0 162460.0 161326.0 24611.0 17546.0 266797.0 269513.0 162887.0 159189.0 72166.0 80285.0 136561.0 128306.0 38165.0 42937.0 0.0 8193.0 21669.0 13805.0 342239.0 340299.0 98322.0 95374.0 243374.0 240620.0 46455.0 47619.0 122216.0 116325.0 89873.0 85209.0 67548.0 69696.0 237834.0 233417.0 186669.0 194661.0 117756.0 111281.0 126494.0 134220.0 135761.0 135131.0 218835.0 211996.0 64593.0 186539.0 64593.0 64593.0 64593.0 64593.0 186539.0 186539.0 186539.0 186539.0
135304.0 141485.0 103154.0 98989.0 266058.0 259285.0 96890.0 103687.0 38749.0 45873.0 149418.0 155331.0 301430.0 293263.0 97782.0 99429.0 76078.0 68167.0 67123.0 69421.0 60303.0 52243.0 348915.0 341719.0 172008.0 179419.0 239827.0 241650.0 112626.0 120732.0 162322.0 155748.0 347686.0 346557.0 160324.0 168181.0 154581.0 153384.0 20220.0 14953.0 259317.0 262032.0 159051.0 155692.0 70561.0 78714.0 132355.0 123994.0 43996.0 47742.0 8193.0 0.0 20999.0 14763.0 334759.0 332819.0 91207.0 88610.0 236689.0 234094.0 49567.0 49419.0 116414.0 110820.0 81683.0 77062.0 60847.0 62476.0 229901.0 225430.0 179188.0 187173.0 109592.0 103155.0 118384.0 126086.0 130534.0 129530.0 212204.0 205457.0 60608.0 179059.0 60608.0 60608.0 60608.0 60608.0 179059.0 179059.0 179059.0 179059.0
141716.0 147009.0 114664.0 111647.0 263359.0 256908.0 108113.0 114170.0 17818.0 24893.0 145992.0 152590.0 296335.0 288167.0 118678.0 120421.0 88170.0 80213.0 79203.0 79555.0 73521.0 65738.0 343852.0 336628.0 169440.0 176430.0 234787.0 236958.0 122206.0 130025.0 166562.0 160619.0 342590.0 341462.0 155523.0 163591.0 152381.0 151828.0 10515.0 6852.0 254221.0 256937.0 178907.0 175835.0 91554.0 99706.0 151913.0 143468.0 31958.0 32399.0 21669.0 20999.0 0.0 8039.0 329663.0 327723.0 105294.0 103898.0 251309.0 249196.0 68115.0 69153.0 133737.0 128724.0 87178.0 84264.0 76872.0 76810.0 227808.0 223966.0 174093.0 182084.0 112091.0 104840.0 119497.0 127559.0 148786.0 147155.0 227058.0 220601.0 44275.0 173963.0 44275.0 44275.0 44275.0 44275.0 173963.0 173963.0 173963.0 173963.0
143289.0 148933.0 114079.0 110544.0 268240.0 261685.0 107630.0 114024.0 24629.0 32199.0 150957.0 157358.0 301765.0 293598.0 111535.0 113547.0 87221.0 79235.0 78204.0 79378.0 71981.0 64010.0 349283.0 342059.0 174184.0 181315.0 240218.0 242412.0 122463.0 130423.0 169002.0 162815.0 348021.0 346892.0 160916.0 168935.0 156979.0 156222.0 14574.0 6940.0 259652.0 262367.0 173787.0 170453.0 84910.0 93060.0 147035.0 138654.0 31442.0 33902.0 13805.0 14763.0 8039.0 0.0 335094.0 333154.0 103511.0 101527.0 249445.0 247084.0 60166.0 61416.0 130330.0 124966.0 88874.0 85291.0 74030.0 74785.0 232474.0 228431.0 179524.0 187515.0 115006.0 108009.0 122922.0 130887.0 144827.0 143583.0 225063.0 218453.0 52073.0 179394.0 52073.0 52073.0 52073.0 52073.0 179394.0 179394.0 179394.0 179394.0
241323.0 233102.0 283052.0 290852.0 102077.0 108962.0 283243.0 277082.0 330391.0 327740.0 188473.0 185021.0 36574.0 42924.0 392011.0 387123.0 293964.0 296418.0 296908.0 289005.0 303420.0 306852.0 34804.0 35142.0 171117.0 163124.0 99663.0 101886.0 268983.0 264475.0 214654.0 222055.0 12954.0 14310.0 175242.0 168264.0 187394.0 190634.0 320526.0 328218.0 75824.0 75065.0 379601.0 384376.0 366126.0 370547.0 361582.0 356821.0 358191.0 354694.0 342239.0 334759.0 329663.0 335094.0 0.0 7961.0 300912.0 308843.0 323832.0 330333.0 375909.0 371221.0 327552.0 332620.0 267763.0 275633.0 315403.0 307342.0 129139.0 137038.0 155801.0 147938.0 239150.0 241611.0 228025.0 223361.0 341714.0 333670.0 319271.0 321393.0 314170.0 157477.0 314170.0 314170.0 314170.0 314170.0 157477.0 157477.0 157477.0 157477.0
240822.0 232675.0 282071.0 289818.0 104720.0 111336.0 282076.0 276051.0 328451.0 325800.0 186570.0 183289.0 32798.0 40042.0 390374.0 385617.0 292303.0 294555.0 295089.0 287158.0 301543.0 304922.0 42765.0 42934.0 169818.0 161868.0 98995.0 101843.0 268134.0 263831.0 214693.0 221979.0 17418.0 21292.0 173303.0 166344.0 185796.0 189179.0 318586.0 326278.0 74256.0 74383.0 379670.0 384306.0 364291.0 368768.0 361205.0 356289.0 356250.0 352754.0 340299.0 332819.0 327723.0 333154.0 7961.0 0.0 299730.0 307627.0 326304.0 332687.0 373969.0 369337.0 327022.0 331933.0 265887.0 273774.0 313580.0 305513.0 130072.0 138031.0 153863.0 145999.0 237453.0 239754.0 226321.0 221893.0 341454.0 333433.0 321170.0 323109.0 312230.0 155537.0 312230.0 312230.0 312230.0 312230.0 155537.0 155537.0 155537.0 155537.0
63615.0 72003.0 19251.0 11428.0 214547.0 206932.0 17672.0 24395.0 120064.0 123676.0 115828.0 117351.0 268437.0 260270.0 93024.0 87189.0 19520.0 26386.0 27245.0 30977.0 31799.0 39577.0 308490.0 300639.0 129916.0 137862.0 201359.0 200089.0 33946.0 40942.0 94143.0 86185.0 313630.0 311181.0 130228.0 135563.0 114433.0 110739.0 96106.0 98891.0 225479.0 225874.0 95494.0 96566.0 72048.0 73855.0 69662.0 62327.0 134772.0 137228.0 98322.0 91207.0 105294.0 103511.0 300912.0 299730.0 0.0 8022.0 146027.0 143940.0 100564.0 92954.0 37321.0 37593.0 44616.0 38339.0 31447.0 28764.0 178620.0 172026.0 148659.0 155784.0 64470.0 65230.0 75203.0 78272.0 55594.0 50264.0 121769.0 115381.0 119700.0 150783.0 119700.0 119700.0 119700.0 119700.0 150783.0 150783.0 150783.0 150783.0
71539.0 79946.0 27139.0 19190.0 222554.0 214936.0 25644.0 32408.0 119339.0 123413.0 123411.0 125088.0 276316.0 268149.0 85031.0 79169.0 22811.0 28049.0 28706.0 34146.0 31379.0 38479.0 316506.0 308656.0 137809.0 145766.0 209312.0 208078.0 41870.0 48685.0 102030.0 94060.0 321570.0 319146.0 137782.0 143230.0 122217.0 118572.0 95145.0 97325.0 233373.0 233815.0 90336.0 90893.0 64525.0 66061.0 63855.0 56175.0 132497.0 135404.0 95374.0 88610.0 103898.0 101527.0 308843.0 307627.0 8022.0 0.0 148080.0 145569.0 94490.0 86737.0 33455.0 32207.0 50353.0 43471.0 27827.0 27229.0 186639.0 180037.0 156320.0 163497.0 71895.0 72248.0 82737.0 86031.0 51415.0 46983.0 123609.0 116933.0 120848.0 158330.0 120848.0 120848.0 120848.0 120848.0 158330.0 158330.0 158330.0 158330.0
134776.0 136792.0 138742.0 140242.0 221755.0 214976.0 145371.0 141091.0 265703.0 268770.0 196200.0 191302.0 302363.0 294295.0 195789.0 187674.0 163637.0 171451.0 172426.0 173565.0 177789.0 185604.0 315202.0 307483.0 190824.0 195173.0 236799.0 230715.0 136224.0 130563.0 137397.0 134884.0 334145.0 328581.0 207083.0 206549.0 187316.0 182637.0 241989.0 244918.0 262412.0 258025.0 120518.0 128678.0 194468.0 190567.0 128959.0 133240.0 280552.0 283232.0 243374.0 236689.0 251309.0 249445.0 323832.0 326304.0 146027.0 148080.0 0.0 8242.0 234010.0 225906.0 124006.0 131454.0 175212.0 173768.0 175867.0 174672.0 199675.0 191841.0 216227.0 219090.0 169788.0 176781.0 173097.0 168234.0 116675.0 113531.0 24648.0 32023.0 262112.0 222342.0 262112.0 262112.0 262112.0 262112.0 222342.0 222342.0 222342.0 222342.0
136386.0 138882.0 137685.0 138722.0 228269.0 221406.0 144271.0 140370.0 263910.0 267199.0 199128.0 194482.0 308365.0 300263.0 190251.0 182153.0 161966.0 169691.0 170647.0 172164.0 175739.0 183459.0 322198.0 314449.0 194655.0 199252.0 242346.0 236408.0 136041.0 130758.0 140746.0 137817.0 340763.0 335284.0 210360.0 210119.0 190480.0 185762.0 240039.0 242729.0 268088.0 263864.0 113709.0 121866.0 189927.0 185773.0 123298.0 127928.0 278041.0 280939.0 240620.0 234094.0 249196.0 247084.0 330333.0 332687.0 143940.0 145569.0 8242.0 0.0 229826.0 221739.0 120214.0 127455.0 174812.0 172999.0 173251.0 172418.0 205448.0 197569.0 220096.0 223203.0 170805.0 177602.0 174613.0 170065.0 111900.0 109215.0 22365.0 28638.0 261115.0 226086.0 261115.0 261115.0 261115.0 261115.0 226086.0 226086.0 226086.0 226086.0
158958.0 166537.0 118067.0 111358.0 301956.0 294772.0 113359.0 121115.0 83978.0 91881.0 188532.0 193368.0 342581.0 334414.0 58112.0 62810.0 93857.0 87811.0 86939.0 93126.0 79115.0 72989.0 389436.0 381984.0 209354.0 217175.0 279849.0 280730.0 131225.0 139230.0 188809.0 181322.0 388646.0 387691.0 200885.0 208307.0 191897.0 189831.0 69757.0 63619.0 300467.0 302956.0 135472.0 130072.0 41161.0 47481.0 112547.0 105475.0 73793.0 81253.0 46455.0 49567.0 68115.0 60166.0 375909.0 373969.0 100564.0 94490.0 234010.0 229826.0 0.0 8114.0 110214.0 102584.0 112060.0 105123.0 71128.0 77586.0 265378.0 260004.0 220238.0 228202.0 142100.0 137390.0 152456.0 159164.0 118479.0 120612.0 209504.0 201988.0 110171.0 220209.0 110171.0 110171.0 110171.0 110171.0 220209.0 220209.0 220209.0 220209.0
152057.0 159737.0 110686.0 103853.0 296174.0 288935.0 106129.0 113900.0 85778.0 93542.0 183563.0 188182.0 337949.0 329782.0 52806.0 56811.0 86950.0 81178.0 80340.0 86818.0 72584.0 66837.0 384409.0 376909.0 203996.0 211865.0 274838.0 275532.0 124034.0 131986.0 182071.0 174517.0 384174.0 383080.0 196164.0 203472.0 186591.0 184386.0 69569.0 64061.0 295820.0 298130.0 128180.0 122960.0 33508.0 40213.0 104866.0 97684.0 78121.0 85237.0 47619.0 49419.0 69153.0 61416.0 371221.0 369337.0 92954.0 86737.0 225906.0 221739.0 8114.0 0.0 102100.0 94474.0 106263.0 99126.0 64004.0 70733.0 259586.0 254085.0 215565.0 223504.0 136309.0 131880.0 146820.0 153346.0 110459.0 112526.0 201395.0 193883.0 109736.0 215591.0 109736.0 109736.0 109736.0 109736.0 215591.0 215591.0 215591.0 215591.0
86229.0 94478.0 47951.0 41818.0 235853.0 228111.0 50883.0 54158.0 150081.0 154767.0 147675.0 147961.0 296285.0 288123.0 81239.0 73595.0 56022.0 61485.0 62114.0 67486.0 63979.0 70246.0 332153.0 324186.0 158509.0 166164.0 228035.0 225754.0 59929.0 63278.0 114216.0 106403.0 340025.0 336955.0 162105.0 166554.0 144626.0 140455.0 125785.0 126965.0 253167.0 252662.0 58698.0 60637.0 71940.0 69521.0 34757.0 29270.0 160259.0 164087.0 122216.0 116414.0 133737.0 130330.0 327552.0 327022.0 37321.0 33455.0 124006.0 120214.0 110214.0 102100.0 0.0 8174.0 81749.0 75657.0 57130.0 59170.0 201316.0 194084.0 179571.0 186176.0 98115.0 100302.0 108044.0 109466.0 18279.0 13709.0 99416.0 92011.0 153675.0 182518.0 153675.0 153675.0 153675.0 153675.0 182518.0 182518.0 182518.0 182518.0
91452.0 99815.0 51009.0 44102.0 241896.0 234166.0 52996.0 57250.0 145385.0 150359.0 151063.0 151741.0 301016.0 292841.0 73221.0 65644.0 54996.0 59600.0 60115.0 66212.0 61003.0 66650.0 337857.0 329907.0 162879.0 170627.0 233004.0 230947.0 64018.0 68148.0 120115.0 112226.0 345157.0 342225.0 165515.0 170262.0 148520.0 144470.0 121139.0 121908.0 257923.0 257634.0 58137.0 58974.0 63920.0 61372.0 32111.0 25187.0 154462.0 158560.0 116325.0 110820.0 128724.0 124966.0 332620.0 331933.0 37593.0 32207.0 131454.0 127455.0 102584.0 94474.0 8174.0 0.0 82140.0 75544.0 52863.0 55891.0 207061.0 199930.0 183328.0 190104.0 100683.0 102257.0 110956.0 112925.0 20343.0 18863.0 106923.0 99433.0 150345.0 186013.0 150345.0 150345.0 150345.0 150345.0 186013.0 186013.0 186013.0 186013.0
54539.0 60071.0 38861.0 41484.0 189928.0 182719.0 33122.0 34839.0 97024.0 98015.0 79332.0 82960.0 234499.0 226332.0 125317.0 121297.0 28952.0 29109.0 29453.0 21366.0 35658.0 39672.0 279026.0 271417.0 98171.0 106131.0 169726.0 169899.0 39105.0 45687.0 80640.0 74126.0 280666.0 279021.0 93001.0 99581.0 80983.0 78436.0 76680.0 82453.0 191954.0 193557.0 140110.0 141086.0 98446.0 103263.0 114101.0 106520.0 119129.0 118924.0 89873.0 81683.0 87178.0 88874.0 267763.0 265887.0 44616.0 50353.0 175212.0 174812.0 112060.0 106263.0 81749.0 82140.0 0.0 7992.0 47830.0 39756.0 153342.0 147948.0 112321.0 120020.0 30051.0 26176.0 40643.0 47107.0 100016.0 94198.0 152534.0 147412.0 88120.0 113104.0 88120.0 88120.0 88120.0 88120.0 113104.0 113104.0 113104.0 113104.0
58256.0 64496.0 35602.0 36812.0 197081.0 189819.0 29285.0 32677.0 95326.0 96958.0 87243.0 90747.0 242386.0 234219.0 117326.0 113311.0 21399.0 21117.0 21464.0 13402.0 27823.0 32319.0 286675.0 279045.0 105791.0 113772.0 177458.0 177525.0 38838.0 46222.0 85779.0 78922.0 288530.0 286842.0 100960.0 107495.0 88690.0 86032.0 73869.0 79120.0 199816.0 201351.0 133652.0 134361.0 90527.0 95289.0 107326.0 99598.0 116083.0 116406.0 85209.0 77062.0 84264.0 85291.0 275633.0 273774.0 38339.0 43471.0 173768.0 172999.0 105123.0 99126.0 75657.0 75544.0 7992.0 0.0 39869.0 31793.0 160494.0 154960.0 120263.0 127944.0 37350.0 34022.0 48175.0 54297.0 93932.0 88444.0 150652.0 145227.0 88461.0 121085.0 88461.0 88461.0 88461.0 88461.0 121085.0 121085.0 121085.0 121085.0
88137.0 95938.0 47232.0 41117.0 234863.0 227449.0 42258.0 50000.0 92975.0 97654.0 127091.0 130416.0 282191.0 274024.0 77634.0 74024.0 23219.0 19016.0 18495.0 26468.0 12777.0 14648.0 325895.0 318207.0 145097.0 153110.0 216947.0 216747.0 60099.0 68124.0 118341.0 110693.0 328289.0 326511.0 140828.0 147344.0 128214.0 125335.0 68676.0 70174.0 239579.0 240976.0 107781.0 106487.0 50726.0 55447.0 80194.0 71708.0 104796.0 107931.0 67548.0 60847.0 76872.0 74030.0 315403.0 313580.0 31447.0 27827.0 175867.0 173251.0 71128.0 64004.0 57130.0 52863.0 47830.0 39869.0 0.0 8076.0 198370.0 192423.0 160129.0 167800.0 76485.0 73845.0 87541.0 92983.0 73200.0 70725.0 151364.0 144613.0 97835.0 160920.0 97835.0 97835.0 97835.0 97835.0 160920.0 160920.0 160920.0 160920.0
81373.0 89005.0 42146.0 36923.0 227140.0 219751.0 36590.0 44166.0 92111.0 96226.0 119017.0 122367.0 274125.0 265957.0 85657.0 81929.0 16283.0 11034.0 10452.0 18392.0 5523.0 11261.0 317931.0 310253.0 137103.0 145113.0 208931.0 208776.0 54093.0 62236.0 111342.0 103786.0 320230.0 318468.0 132752.0 139270.0 120185.0 117337.0 67932.0 70311.0 231519.0 232939.0 112331.0 111517.0 58783.0 63513.0 84851.0 76475.0 106012.0 108563.0 69696.0 62476.0 76810.0 74785.0 307342.0 305513.0 28764.0 27229.0 174672.0 172418.0 77586.0 70733.0 59170.0 55891.0 39756.0 31793.0 8076.0 0.0 190621.0 184741.0 152054.0 159725.0 68484.0 65773.0 79521.0 85051.0 76144.0 72878.0 150330.0 143809.0 94554.0 152851.0 94554.0 94554.0 94554.0 94554.0 152851.0 152851.0 152851.0 152851.0
115959.0 107494.0 159761.0 167757.0 36588.0 29453.0 161202.0 154236.0 229658.0 227021.0 82126.0 75235.0 103285.0 95087.0 271556.0 265807.0 175491.0 179635.0 180330.0 173160.0 187711.0 192813.0 130837.0 122870.0 58385.0 51728.0 37930.0 31140.0 145128.0 139483.0 87137.0 94914.0 140943.0 136986.0 75254.0 67280.0 75497.0 76519.0 218090.0 225534.0 62806.0 58446.0 251233.0 256330.0 248236.0 251439.0 234548.0 230415.0 257380.0 253956.0 237834.0 229901.0 227808.0 232474.0 129139.0 130072.0 178620.0 186639.0 199675.0 205448.0 265378.0 259586.0 201316.0 207061.0 153342.0 160494.0 198370.0 190621.0 0.0 7996.0 62146.0 56622.0 123291.0 128188.0 112984.0 106241.0 214353.0 206266.0 192297.0 193754.0 213451.0 68145.0 213451.0 213451.0 213451.0 213451.0 68145.0 68145.0 68145.0 68145.0
109060.0 100581.0 153070.0 161074.0 42561.0 35043.0 154697.0 147631.0 226375.0 223734.0 78999.0 71755.0 111265.0 103062.0 265027.0 259180.0 169440.0 173790.0 174509.0 167466.0 181971.0 187258.0 138150.0 130163.0 55033.0 49060.0 45342.0 38881.0 138393.0 132571.0 79868.0 87712.0 148788.0 144746.0 73407.0 65669.0 71629.0 72212.0 214127.0 221494.0 70579.0 66381.0 243592.0 248752.0 242054.0 245105.0 227158.0 223128.0 253883.0 250677.0 233417.0 225430.0 223966.0 228431.0 137038.0 138031.0 172026.0 180037.0 191841.0 197569.0 260004.0 254085.0 194084.0 199930.0 147948.0 154960.0 192423.0 184741.0 7996.0 0.0 62063.0 57363.0 117932.0 123137.0 107858.0 100865.0 206919.0 198830.0 184326.0 185764.0 210164.0 68493.0 210164.0 210164.0 210164.0 210164.0 68493.0 68493.0 68493.0 68493.0
96579.0 89830.0 132373.0 139672.0 93181.0 87963.0 131292.0 126154.0 174821.0 172170.0 33140.0 31610.0 122474.0 114307.0 237358.0 232923.0 139437.0 141249.0 141677.0 133664.0 147932.0 151117.0 169769.0 162536.0 25448.0 21799.0 60798.0 63494.0 119645.0 117113.0 80048.0 84613.0 168743.0 167516.0 19441.0 13099.0 35019.0 39419.0 164956.0 172648.0 80254.0 82861.0 236025.0 239423.0 210763.0 215511.0 214325.0 208381.0 202620.0 199124.0 186669.0 179188.0 174093.0 179524.0 155801.0 153863.0 148659.0 156320.0 216227.0 220096.0 220238.0 215565.0 179571.0 183328.0 112321.0 120263.0 160129.0 152054.0 62146.0 62063.0 0.0 7995.0 84777.0 86323.0 73724.0 70516.0 195803.0 188134.0 202205.0 201207.0 158600.0 7151.0 158600.0 158600.0 158600.0 158600.0 7151.0 7151.0 7151.0 7151.0
102370.0 95329.0 139227.0 146618.0 86271.0 81340.0 138338.0 133029.0 182812.0 180161.0 40714.0 38453.0 114611.0 106444.0 244926.0 240415.0 146937.0 148888.0 149331.0 141343.0 155656.0 158931.0 161775.0 154548.0 29526.0 23958.0 52885.0 55805.0 126259.0 123427.0 84094.0 89168.0 160874.0 159588.0 27343.0 20470.0 41585.0 45732.0 172947.0 180639.0 72322.0 74868.0 242249.0 245798.0 218466.0 223144.0 220911.0 215095.0 210612.0 207115.0 194661.0 187173.0 182084.0 187515.0 147938.0 145999.0 155784.0 163497.0 219090.0 223203.0 228202.0 223504.0 186176.0 190104.0 120020.0 127944.0 167800.0 159725.0 56622.0 57363.0 7995.0 0.0 92178.0 93961.0 81083.0 77531.0 202198.0 194468.0 205781.0 205055.0 166591.0 11757.0 166591.0 166591.0 166591.0 166591.0 11757.0 11757.0 11757.0 11757.0
36455.0 38310.0 50194.0 56590.0 159876.0 152673.0 47714.0 44048.0 119100.0 118517.0 51688.0 54165.0 206073.0 197906.0 152921.0 148268.0 54851.0 57471.0 58035.0 50398.0 64998.0 69620.0 249474.0 241815.0 68620.0 76629.0 140467.0 140314.0 40743.0 42364.0 54942.0 49858.0 252006.0 250105.0 65968.0 71752.0 51785.0 48854.0 101654.0 108256.0 163346.0 164550.0 156444.0 158750.0 127164.0 131405.0 132531.0 125862.0 143778.0 142438.0 117756.0 109592.0 112091.0 115006.0 239150.0 237453.0 64470.0 71895.0 169788.0 170805.0 142100.0 136309.0 98115.0 100683.0 30051.0 37350.0 76485.0 68484.0 123291.0 117932.0 84777.0 92178.0 0.0 8047.0 11133.0 17067.0 115593.0 108563.0 149268.0 145448.0 105814.0 86491.0 105814.0 105814.0 105814.0 105814.0 86491.0 86491.0 86491.0 86491.0
44247.0 46347.0 52838.0 58489.0 164715.0 157633.0 49435.0 46939.0 111416.0 110686.0 53248.0 56792.0 208366.0 200199.0 151064.0 146767.0 53399.0 54930.0 55370.0 47405.0 61819.0 65687.0 252942.0 245355.0 72173.0 80095.0 143579.0 143854.0 45225.0 47969.0 62728.0 57822.0 254510.0 252846.0 67101.0 73501.0 54881.0 52510.0 94454.0 101205.0 165796.0 167382.0 158925.0 160848.0 124540.0 129191.0 134310.0 127329.0 136403.0 134887.0 111281.0 103155.0 104840.0 108009.0 241611.0 239754.0 65230.0 72248.0 176781.0 177602.0 137390.0 131880.0 100302.0 102257.0 26176.0 34022.0 73845.0 65773.0 128188.0 123137.0 86323.0 93961.0 8047.0 0.0 15313.0 22950.0 118118.0 111372.0 155909.0 151877.0 97865.0 87390.0 97865.0 97865.0 97865.0 97865.0 87390.0 87390.0 87390.0 87390.0
38330.0 37691.0 60117.0 66878.0 149537.0 142416.0 58157.0 53892.0 125275.0 124074.0 40692.0 43032.0 194940.0 186773.0 164054.0 159391.0 65984.0 68525.0 69069.0 61353.0 75931.0 80314.0 238514.0 230875.0 57630.0 65623.0 129410.0 129358.0 49353.0 49572.0 50224.0 46515.0 240884.0 239004.0 55045.0 60677.0 40683.0 37864.0 109185.0 116077.0 152218.0 153454.0 166051.0 168616.0 138241.0 142525.0 142630.0 136142.0 150850.0 149022.0 126494.0 118384.0 119497.0 122922.0 228025.0 226321.0 75203.0 82737.0 173097.0 174613.0 152456.0 146820.0 108044.0 110956.0 40643.0 48175.0 87541.0 79521.0 112984.0 107858.0 73724.0 81083.0 11133.0 15313.0 0.0 8186.0 125248.0 118031.0 153507.0 150165.0 110802.0 75595.0 110802.0 110802.0 110802.0 110802.0 75595.0 75595.0 75595.0 75595.0
33836.0 31712.0 61922.0 69158.0 142829.0 135613.0 60808.0 55688.0 133454.0 132259.0 38210.0 39083.0 190517.0 182350.0 168700.0 163763.0 70797.0 74017.0 74634.0 67174.0 81777.0 86607.0 232929.0 225230.0 52341.0 60365.0 124262.0 123804.0 49794.0 48655.0 42326.0 39069.0 236169.0 234072.0 52642.0 57422.0 36197.0 32729.0 117222.0 124061.0 147664.0 148529.0 166826.0 169763.0 143519.0 147488.0 144201.0 138041.0 158966.0 157183.0 134220.0 126086.0 127559.0 130887.0 223361.0 221893.0 78272.0 86031.0 168234.0 170065.0 159164.0 153346.0 109466.0 112925.0 47107.0 54297.0 92983.0 85051.0 106241.0 100865.0 70516.0 77531.0 17067.0 22950.0 8186.0 0.0 126200.0 118756.0 149296.0 146296.0 118974.0 73098.0 118974.0 118974.0 118974.0 118974.0 73098.0 73098.0 73098.0 73098.0
100897.0 108867.0 65429.0 59751.0 248119.0 240368.0 68815.0 71546.0 165570.0 170628.0 164360.0 164241.0 311089.0 302911.0 80701.0 72622.0 74135.0 79308.0 79887.0 85549.0 81185.0 86969.0 345053.0 337057.0 174039.0 181542.0 242495.0 239828.0 76413.0 78783.0 127331.0 119748.0 354059.0 350736.0 178737.0 182868.0 160789.0 156488.0 141355.0 141954.0 267938.0 267077.0 40853.0 43622.0 78099.0 73903.0 20468.0 19156.0 173926.0 178260.0 135761.0 130534.0 148786.0 144827.0 341714.0 341454.0 55594.0 51415.0 116675.0 111900.0 118479.0 110459.0 18279.0 20343.0 100016.0 93932.0 73200.0 76144.0 214353.0 206919.0 195803.0 202198.0 115593.0 118118.0 125248.0 126200.0 0.0 8090.0 92654.0 84886.0 170653.0 199028.0 170653.0 170653.0 170653.0 170653.0 199028.0 199028.0 199028.0 199028.0
92965.0 100892.0 58548.0 53324.0 240034.0 232283.0 62334.0 64570.0 163616.0 168379.0 156862.0 156601.0 303115.0 294931.0 86073.0 78084.0 69332.0 75032.0 75685.0 80836.0 77680.0 83945.0 336963.0 328967.0 166204.0 173675.0 234486.0 231784.0 68969.0 71043.0 119254.0 111682.0 346006.0 342668.0 171211.0 175230.0 153116.0 148781.0 139328.0 140362.0 259959.0 259060.0 48073.0 51345.0 80985.0 77476.0 28497.0 26320.0 173249.0 177255.0 135131.0 129530.0 147155.0 143583.0 333670.0 333433.0 50264.0 46983.0 113531.0 109215.0 120612.0 112526.0 13709.0 18863.0 94198.0 88444.0 70725.0 72878.0 206266.0 198830.0 188134.0 194468.0 108563.0 111372.0 118031.0 118756.0 8090.0 0.0 89174.0 81541.0 167380.0 191448.0 167380.0 167380.0 167380.0 167380.0 191448.0 191448.0 191448.0 191448.0
115485.0 118526.0 115320.0 116389.0 217594.0 210437.0 121905.0 118036.0 241660.0 244893.0 179700.0 175461.0 295577.0 287384.0 172450.0 164324.0 139668.0 147417.0 148379.0 149819.0 153563.0 161324.0 313258.0 305391.0 176782.0 181847.0 228349.0 222868.0 113853.0 108746.0 122273.0 118663.0 330138.0 325019.0 191450.0 191710.0 171445.0 166682.0 217837.0 220623.0 254388.0 250676.0 100271.0 108358.0 170158.0 166440.0 105988.0 109749.0 256106.0 258887.0 218835.0 212204.0 227058.0 225063.0 319271.0 321170.0 121769.0 123609.0 24648.0 22365.0 209504.0 201395.0 99416.0 106923.0 152534.0 150652.0 151364.0 150330.0 192297.0 184326.0 202205.0 205781.0 149268.0 155909.0 153507.0 149296.0 92654.0 89174.0 0.0 7871.0 238750.0 207941.0 238750.0 238750.0 238750.0 238750.0 207941.0 207941.0 207941.0 207941.0
112465.0 116004.0 109738.0 110430.0 220014.0 212758.0 116270.0 112731.0 235405.0 238786.0 177731.0 173790.0 297013.0 288791.0 164593.0 156468.0 133561.0 141237.0 142185.0 143900.0 147176.0 154869.0 316187.0 308285.0 175853.0 181185.0 229346.0 224082.0 109046.0 104323.0 121160.0 117096.0 332421.0 327445.0 189820.0 190410.0 169775.0 164992.0 211488.0 214120.0 255475.0 251998.0 92695.0 100758.0 162508.0 158716.0 98117.0 101898.0 249402.0 252313.0 211996.0 205457.0 220601.0 218453.0 321393.0 323109.0 115381.0 116933.0 32023.0 28638.0 201988.0 193883.0 92011.0 99433.0 147412.0 145227.0 144613.0 143809.0 193754.0 185764.0 201207.0 205055.0 145448.0 151877.0 150165.0 146296.0 84886.0 81541.0 7871.0 0.0 233058.0 206777.0 233058.0 233058.0 233058.0 233058.0 206777.0 206777.0 206777.0 206777.0
139943.0 143565.0 123436.0 122800.0 248445.0 242216.0 116844.0 121091.0 36893.0 31861.0 131325.0 138409.0 280842.0 272674.0 154576.0 154719.0 100394.0 93350.0 92538.0 89435.0 89706.0 83699.0 328359.0 321135.0 155178.0 161762.0 219294.0 221494.0 126955.0 133796.0 160498.0 155671.0 327097.0 325969.0 140034.0 148135.0 138719.0 138832.0 40422.0 47048.0 238728.0 241444.0 205338.0 203519.0 125530.0 133371.0 177758.0 169228.0 65346.0 60282.0 64593.0 60608.0 44275.0 52073.0 314170.0 312230.0 119700.0 120848.0 262112.0 261115.0 110171.0 109736.0 153675.0 150345.0 88120.0 88461.0 97835.0 94554.0 213451.0 210164.0 158600.0 166591.0 105814.0 97865.0 110802.0 118974.0 170653.0 167380.0 238750.0 233058.0 0.0 158470.0 0.0 0.0 0.0 0.0 158470.0 158470.0 158470.0 158470.0
100704.0 94275.0 135005.0 142135.0 97988.0 93095.0 133594.0 128765.0 174691.0 172040.0 34986.0 35028.0 124149.0 115982.0 238386.0 234156.0 140747.0 142168.0 142547.0 134468.0 148561.0 151405.0 171494.0 164411.0 31579.0 28701.0 63526.0 67000.0 122677.0 120562.0 85675.0 89876.0 170417.0 168223.0 20556.0 16669.0 38758.0 43398.0 164826.0 172518.0 81174.0 84457.0 239442.0 242642.0 211398.0 216364.0 217268.0 211139.0 202490.0 198994.0 186539.0 179059.0 173963.0 179394.0 157477.0 155537.0 150783.0 158330.0 222342.0 226086.0 220209.0 215591.0 182518.0 186013.0 113104.0 121085.0 160920.0 152851.0 68145.0 68493.0 7151.0 11757.0 86491.0 87390.0 75595.0 73098.0 199028.0 191448.0 207941.0 206777.0 158470.0 0.0 158470.0 158470.0 158470.0 158470.0 0.0 0.0 0.0 0.0
139943.0 143565.0 123436.0 122800.0 248445.0 242216.0 116844.0 121091.0 36893.0 31861.0 131325.0 138409.0 280842.0 272674.0 154576.0 154719.0 100394.0 93350.0 92538.0 89435.0 89706.0 83699.0 328359.0 321135.0 155178.0 161762.0 219294.0 221494.0 126955.0 133796.0 160498.0 155671.0 327097.0 325969.0 140034.0 148135.0 138719.0 138832.0 40422.0 47048.0 238728.0 241444.0 205338.0 203519.0 125530.0 133371.0 177758.0 169228.0 65346.0 60282.0 64593.0 60608.0 44275.0 52073.0 314170.0 312230.0 119700.0 120848.0 262112.0 261115.0 110171.0 109736.0 153675.0 150345.0 88120.0 88461.0 97835.0 94554.0 213451.0 210164.0 158600.0 166591.0 105814.0 97865.0 110802.0 118974.0 170653.0 167380.0 238750.0 233058.0 0.0 158470.0 0.0 0.0 0.0 0.0 158470.0 158470.0 158470.0 158470.0
139943.0 143565.0 123436.0 122800.0 248445.0 242216.0 116844.0 121091.0 36893.0 31861.0 131325.0 138409.0 280842.0 272674.0 154576.0 154719.0 100394.0 93350.0 92538.0 89435.0 89706.0 83699.0 328359.0 321135.0 155178.0 161762.0 219294.0 221494.0 126955.0 133796.0 160498.0 155671.0 327097.0 325969.0 140034.0 148135.0 138719.0 138832.0 40422.0 47048.0 238728.0 241444.0 205338.0 203519.0 125530.0 133371.0 177758.0 169228.0 65346.0 60282.0 64593.0 60608.0 44275.0 52073.0 314170.0 312230.0 119700.0 120848.0 262112.0 261115.0 110171.0 109736.0 153675.0 150345.0 88120.0 88461.0 97835.0 94554.0 213451.0 210164.0 158600.0 166591.0 105814.0 97865.0 110802.0 118974.0 170653.0 167380.0 238750.0 233058.0 0.0 158470.0 0.0 0.0 0.0 0.0 158470.0 158470.0 158470.0 158470.0
139943.0 143565.0 123436.0 122800.0 248445.0 242216.0 116844.0 121091.0 36893.0 31861.0 131325.0 138409.0 280842.0 272674.0 154576.0 154719.0 100394.0 93350.0 92538.0 89435.0 89706.0 83699.0 328359.0 321135.0 155178.0 161762.0 219294.0 221494.0 126955.0 133796.0 160498.0 155671.0 327097.0 325969.0 140034.0 148135.0 138719.0 138832.0 40422.0 47048.0 238728.0 241444.0 205338.0 203519.0 125530.0 133371.0 177758.0 169228.0 65346.0 60282.0 64593.0 60608.0 44275.0 52073.0 314170.0 312230.0 119700.0 120848.0 262112.0 261115.0 110171.0 109736.0 153675.0 150345.0 88120.0 88461.0 97835.0 94554.0 213451.0 210164.0 158600.0 166591.0 105814.0 97865.0 110802.0 118974.0 170653.0 167380.0 238750.0 233058.0 0.0 158470.0 0.0 0.0 0.0 0.0 158470.0 158470.0 158470.0 158470.0
139943.0 143565.0 123436.0 122800.0 248445.0 242216.0 116844.0 121091.0 36893.0 31861.0 131325.0 138409.0 280842.0 272674.0 154576.0 154719.0 100394.0 93350.0 92538.0 89435.0 89706.0 83699.0 328359.0 321135.0 155178.0 161762.0 219294.0 221494.0 126955.0 133796.0 160498.0 155671.0 327097.0 325969.0 140034.0 148135.0 138719.0 138832.0 40422.0 47048.0 238728.0 241444.0 205338.0 203519.0 125530.0 133371.0 177758.0 169228.0 65346.0 60282.0 64593.0 60608.0 44275.0 52073.0 314170.0 312230.0 119700.0 120848.0 262112.0 261115.0 110171.0 109736.0 153675.0 150345.0 88120.0 88461.0 97835.0 94554.0 213451.0 210164.0 158600.0 166591.0 105814.0 97865.0 110802.0 118974.0 170653.0 167380.0 238750.0 233058.0 0.0 158470.0 0.0 0.0 0.0 0.0 158470.0 158470.0 158470.0 158470.0
100704.0 94275.0 135005.0 142135.0 97988.0 93095.0 133594.0 128765.0 174691.0 172040.0 34986.0 35028.0 124149.0 115982.0 238386.0 234156.0 140747.0 142168.0 142547.0 134468.0 148561.0 151405.0 171494.0 164411.0 31579.0 28701.0 63526.0 67000.0 122677.0 120562.0 85675.0 89876.0 170417.0 168223.0 20556.0 16669.0 38758.0 43398.0 164826.0 172518.0 81174.0 84457.0 239442.0 242642.0 211398.0 216364.0 217268.0 211139.0 202490.0 198994.0 186539.0 179059.0 173963.0 179394.0 157477.0 155537.0 150783.0 158330.0 222342.0 226086.0 220209.0 215591.0 182518.0 186013.0 113104.0 121085.0 160920.0 152851.0 68145.0 68493.0 7151.0 11757.0 86491.0 87390.0 75595.0 73098.0 199028.0 191448.0 207941.0 206777.0 158470.0 0.0 158470.0 158470.0 158470.0 158470.0 0.0 0.0 0.0 0.0
100704.0 94275.0 135005.0 142135.0 97988.0 93095.0 133594.0 128765.0 174691.0 172040.0 34986.0 35028.0 124149.0 115982.0 238386.0 234156.0 140747.0 142168.0 142547.0 134468.0 148561.0 151405.0 171494.0 164411.0 31579.0 28701.0 63526.0 67000.0 122677.0 120562.0 85675.0 89876.0 170417.0 168223.0 20556.0 16669.0 38758.0 43398.0 164826.0 172518.0 81174.0 84457.0 239442.0 242642.0 211398.0 216364.0 217268.0 211139.0 202490.0 198994.0 186539.0 179059.0 173963.0 179394.0 157477.0 155537.0 150783.0 158330.0 222342.0 226086.0 220209.0 215591.0 182518.0 186013.0 113104.0 121085.0 160920.0 152851.0 68145.0 68493.0 7151.0 11757.0 86491.0 87390.0 75595.0 73098.0 199028.0 191448.0 207941.0 206777.0 158470.0 0.0 158470.0 158470.0 158470.0 158470.0 0.0 0.0 0.0 0.0
100704.0 94275.0 135005.0 142135.0 97988.0 93095.0 133594.0 128765.0 174691.0 172040.0 34986.0 35028.0 124149.0 115982.0 238386.0 234156.0 140747.0 142168.0 142547.0 134468.0 148561.0 151405.0 171494.0 164411.0 31579.0 28701.0 63526.0 67000.0 122677.0 120562.0 85675.0 89876.0 170417.0 168223.0 20556.0 16669.0 38758.0 43398.0 164826.0 172518.0 81174.0 84457.0 239442.0 242642.0 211398.0 216364.0 217268.0 211139.0 202490.0 198994.0 186539.0 179059.0 173963.0 179394.0 157477.0 155537.0 150783.0 158330.0 222342.0 226086.0 220209.0 215591.0 182518.0 186013.0 113104.0 121085.0 160920.0 152851.0 68145.0 68493.0 7151.0 11757.0 86491.0 87390.0 75595.0 73098.0 199028.0 191448.0 207941.0 206777.0 158470.0 0.0 158470.0 158470.0 158470.0 158470.0 0.0 0.0 0.0 0.0
100704.0 94275.0 135005.0 142135.0 97988.0 93095.0 133594.0 128765.0 174691.0 172040.0 34986.0 35028.0 124149.0 115982.0 238386.0 234156.0 140747.0 142168.0 142547.0 134468.0 148561.0 151405.0 171494.0 164411.0 31579.0 28701.0 63526.0 67000.0 122677.0 120562.0 85675.0 89876.0 170417.0 168223.0 20556.0 16669.0 38758.0 43398.0 164826.0 172518.0 81174.0 84457.0 239442.0 242642.0 211398.0 216364.0 217268.0 211139.0 202490.0 198994.0 186539.0 179059.0 173963.0 179394.0 157477.0 155537.0 150783.0 158330.0 222342.0 226086.0 220209.0 215591.0 182518.0 186013.0 113104.0 121085.0 160920.0 152851.0 68145.0 68493.0 7151.0 11757.0 86491.0 87390.0 75595.0 73098.0 199028.0 191448.0 207941.0 206777.0 158470.0 0.0 158470.0 158470.0 158470.0 158470.0 0.0 0.0 0.0 0.0
FIXED_EDGES_SECTION
1 2
3 4
5 6
7 8
9 10
11 12
13 14
15 16
17 18
19 20
21 22
23 24
25 26
27 28
29 30
31 32
33 34
35 36
37 38
39 40
41 42
43 44
45 46
47 48
49 50
51 52
53 54
55 56
57 58
59 60
61 62
63 64
65 66
67 68
69 70
71 72
73 74
75 76
77 78
79 80
-1 
DEMAND_SECTION
1 421
2 421
3 256
4 256
5 244
6 244
7 191
8 191
9 97
10 97
11 100
12 100
13 224
14 224
15 497
16 497
17 119
18 119
19 171
20 171
21 207
22 207
23 229
24 229
25 371
26 371
27 563
28 563
29 94
30 94
31 130
32 130
33 491
34 491
35 235
36 235
37 399
38 399
39 618
40 618
41 534
42 534
43 68
44 68
45 55
46 55
47 217
48 217
49 369
50 369
51 396
52 396
53 104
54 104
55 71
56 71
57 96
58 96
59 234
60 234
61 265
62 265
63 211
64 211
65 56
66 56
67 293
68 293
69 319
70 319
71 37
72 37
73 373
74 373
75 324
76 324
77 479
78 479
79 277
80 277
81 0
82 0
83 0
84 0
85 0
86 0
87 0
88 0
89 0
90 0
DEPOT_SECTION
81 
-1 
CAPACITIES_SECTION
5000 
5500 
-1 
EOF