NAME: GFS_20_1
TYPE: GFSP
DIMENSION: 126
VEHICLES: 4
CAPACITY: 15000.0
TRIP_DIST_LIMIT: 900000.0
TOTAL_DIST_LIMIT: 1050000.0
EDGE_WEIGHT_TYPE: EXPLICIT
EDGE_WEIGHT_FORMAT: FULL_MATRIX
EDGE_WEIGHT_SECTION
0.0 8061.0 61349.0 54351.0 303420.0 301543.0 18611.0 11617.0 151011.0 155278.0 181075.0 179621.0 84849.0 83427.0 295271.0 302124.0 101638.0 109162.0 35658.0 27823.0 38659.0 30404.0 227611.0 229174.0 249197.0 243017.0 187711.0 181971.0 64315.0 67169.0 195711.0 189936.0 12777.0 5523.0 177789.0 175739.0 53946.0 62143.0 114982.0 118569.0 31799.0 31379.0 100148.0 107745.0 104256.0 100576.0 306006.0 297825.0 82644.0 74672.0 117715.0 116974.0 24642.0 24257.0 109738.0 102322.0 89197.0 81283.0 153563.0 147176.0 37814.0 40118.0 170883.0 174049.0 93613.0 100913.0 33796.0 29859.0 73521.0 71981.0 64998.0 61819.0 62847.0 67940.0 162720.0 159132.0 141558.0 134378.0 47510.0 39439.0 26525.0 24666.0 49660.0 42888.0 113862.0 116133.0 13366.0 21310.0 47900.0 51886.0 205273.0 205286.0 69649.0 71193.0 65720.0 58746.0 52222.0 59521.0 63979.0 61003.0 74879.0 69305.0 53694.0 49626.0 269643.0 264548.0 160613.0 154219.0 78646.0 81741.0 82648.0 84276.0 7877.0 14606.0 70452.0 66466.0 67807.0 60303.0 61192.0 68970.0 89706.0 148561.0 89706.0 89706.0 148561.0 148561.0
8061.0 0.0 54290.0 47611.0 306852.0 304922.0 25426.0 19277.0 155804.0 160346.0 187832.0 186563.0 77725.0 76720.0 298650.0 305503.0 94068.0 101654.0 39672.0 32319.0 30629.0 22368.0 231112.0 232934.0 254068.0 248023.0 192813.0 187258.0 56728.0 59314.0 201091.0 195486.0 14648.0 11261.0 185604.0 183459.0 61615.0 69813.0 118414.0 122428.0 39577.0 38479.0 108088.0 115722.0 96387.0 92594.0 310306.0 302149.0 89997.0 82153.0 122312.0 121112.0 29407.0 30807.0 116348.0 109062.0 95702.0 87642.0 161324.0 154869.0 44652.0 47611.0 178911.0 182100.0 100582.0 108027.0 40424.0 35411.0 65738.0 64010.0 69620.0 65687.0 60525.0 66353.0 170053.0 166606.0 147733.0 140717.0 41095.0 33341.0 29032.0 29297.0 57591.0 50919.0 119650.0 122267.0 18852.0 26090.0 39985.0 44309.0 209238.0 209529.0 74848.0 75643.0 73412.0 66564.0 54308.0 61030.0 70246.0 66650.0 67220.0 61461.0 46013.0 41667.0 273496.0 268563.0 167643.0 161126.0 82993.0 86683.0 86971.0 87959.0 15333.0 20211.0 77244.0 73641.0 59757.0 52243.0 66624.0 74218.0 83699.0 151405.0 83699.0 83699.0 151405.0 151405.0
61349.0 54290.0 0.0 8000.0 310805.0 308865.0 79678.0 72949.0 170972.0 177344.0 242108.0 240848.0 69152.0 73949.0 302593.0 309446.0 74009.0 81486.0 69544.0 67481.0 34802.0 38536.0 235363.0 238079.0 266234.0 261405.0 208615.0 204737.0 9783.0 17574.0 218801.0 214766.0 67413.0 65533.0 238053.0 236407.0 106094.0 113667.0 126882.0 133415.0 92829.0 92662.0 159889.0 167072.0 68525.0 61116.0 317399.0 309464.0 129597.0 123410.0 173638.0 171387.0 66908.0 73984.0 147979.0 142225.0 128055.0 119697.0 214115.0 207970.0 85830.0 92160.0 229004.0 231411.0 154854.0 162236.0 94713.0 89330.0 19247.0 24339.0 93285.0 85906.0 92809.0 100765.0 224045.0 220348.0 174069.0 168749.0 56691.0 56444.0 80163.0 82718.0 104997.0 100259.0 144670.0 149737.0 63749.0 65320.0 20956.0 12705.0 215929.0 218129.0 100987.0 97047.0 117227.0 112124.0 102051.0 106722.0 124369.0 120269.0 52718.0 44794.0 43029.0 35505.0 278678.0 274516.0 221902.0 215415.0 134385.0 139106.0 138236.0 137800.0 65791.0 64669.0 131534.0 127802.0 33760.0 28234.0 95667.0 100765.0 33292.0 155105.0 33292.0 33292.0 155105.0 155105.0
54351.0 47611.0 8000.0 0.0 305071.0 303131.0 72842.0 65892.0 164385.0 170627.0 235373.0 233972.0 72026.0 76098.0 296859.0 303712.0 78764.0 86413.0 61562.0 59491.0 31912.0 34071.0 229629.0 232345.0 260183.0 255227.0 202097.0 198064.0 16165.0 23438.0 212144.0 207969.0 61228.0 58771.0 230449.0 228894.0 98135.0 105687.0 120644.0 126994.0 85565.0 85729.0 152247.0 159371.0 74285.0 67236.0 311665.0 303730.0 121610.0 115410.0 168266.0 166296.0 58950.0 66105.0 140240.0 134413.0 120238.0 111867.0 206581.0 200503.0 77854.0 84234.0 221158.0 223518.0 147962.0 155247.0 87966.0 82921.0 26463.0 30377.0 85658.0 78379.0 90303.0 98094.0 216867.0 213059.0 166669.0 161237.0 55079.0 53685.0 74456.0 76485.0 97132.0 92514.0 137259.0 142204.0 56062.0 57410.0 19599.0 11791.0 210178.0 212325.0 93304.0 89567.0 109243.0 104180.0 97214.0 102304.0 117852.0 114042.0 55813.0 47749.0 43208.0 35168.0 272944.0 268782.0 214960.0 208565.0 128915.0 133347.0 132811.0 132729.0 58407.0 56945.0 124747.0 120795.0 37602.0 30861.0 87842.0 93063.0 35337.0 149371.0 35337.0 35337.0 149371.0 149371.0
303420.0 306852.0 310805.0 305071.0 0.0 7961.0 308412.0 303452.0 157592.0 156439.0 377384.0 370097.0 374359.0 376523.0 18761.0 13501.0 383628.0 391357.0 267763.0 275633.0 324284.0 319066.0 75824.0 75065.0 78765.0 86631.0 129139.0 137038.0 320526.0 328218.0 128362.0 136374.0 315403.0 307342.0 323832.0 330333.0 268983.0 264475.0 188473.0 185021.0 300912.0 308843.0 295270.0 292696.0 379254.0 371921.0 37772.0 38521.0 246127.0 253423.0 379601.0 384376.0 278861.0 281549.0 214654.0 222055.0 228326.0 232984.0 319271.0 321393.0 271483.0 274826.0 295078.0 288839.0 328029.0 327300.0 313257.0 318234.0 329663.0 335094.0 239150.0 241611.0 366126.0 370547.0 345738.0 337709.0 184121.0 192371.0 344912.0 338563.0 325621.0 319126.0 277444.0 284547.0 200227.0 202601.0 290151.0 282155.0 320192.0 315280.0 99663.0 101886.0 236133.0 232794.0 263076.0 269871.0 347363.0 355526.0 327552.0 332620.0 359125.0 351171.0 341557.0 333733.0 37573.0 45060.0 356563.0 357332.0 354707.0 351350.0 357670.0 364036.0 296908.0 289005.0 322942.0 315249.0 342239.0 334759.0 244871.0 236942.0 314170.0 157477.0 314170.0 314170.0 157477.0 157477.0
301543.0 304922.0 308865.0 303131.0 7961.0 0.0 306863.0 301745.0 157097.0 156348.0 379251.0 372040.0 372419.0 374583.0 11333.0 5638.0 381688.0 389416.0 265887.0 273774.0 322344.0 317126.0 74256.0 74383.0 82508.0 90198.0 130072.0 138031.0 318586.0 326278.0 130024.0 138030.0 313580.0 305513.0 326304.0 332687.0 268134.0 263831.0 186570.0 183289.0 299730.0 307627.0 295917.0 293555.0 377313.0 369981.0 45511.0 45743.0 245868.0 253017.0 379670.0 384306.0 277010.0 279832.0 214693.0 221979.0 227796.0 232211.0 321170.0 323109.0 270041.0 273594.0 297614.0 291498.0 328286.0 327758.0 312071.0 316877.0 327723.0 333154.0 237453.0 239754.0 364291.0 368768.0 347586.0 339561.0 184743.0 192912.0 343013.0 336634.0 323969.0 317593.0 276595.0 283577.0 199815.0 202486.0 288294.0 280295.0 318251.0 313339.0 98995.0 101843.0 234682.0 231082.0 262534.0 269206.0 346025.0 354192.0 327022.0 331933.0 357185.0 349231.0 339617.0 331793.0 39616.0 47469.0 358214.0 358807.0 354119.0 350932.0 357141.0 363401.0 295089.0 287158.0 322639.0 314910.0 340299.0 332819.0 243400.0 235500.0 312230.0 155537.0 312230.0 312230.0 155537.0 155537.0
18611.0 25426.0 79678.0 72842.0 308412.0 306863.0 0.0 7955.0 153157.0 156573.0 162533.0 161174.0 94244.0 91339.0 300591.0 307444.0 112688.0 119828.0 44032.0 36336.0 53816.0 45921.0 232675.0 233587.0 250519.0 243967.0 188654.0 182384.0 82059.0 84266.0 195750.0 189466.0 15479.0 14166.0 160950.0 158545.0 46691.0 54427.0 121137.0 123625.0 15984.0 13089.0 84183.0 92070.0 116996.0 114268.0 308756.0 300534.0 76242.0 67758.0 100233.0 100021.0 33214.0 27684.0 106286.0 98461.0 86626.0 79531.0 136530.0 129917.0 37090.0 35441.0 155628.0 159263.0 75176.0 82601.0 15185.0 12531.0 90823.0 88542.0 69533.0 68435.0 59745.0 62821.0 144671.0 141320.0 139348.0 131637.0 55965.0 47707.0 17654.0 10743.0 40150.0 32112.0 113402.0 114417.0 24225.0 30701.0 64873.0 69665.0 209276.0 208558.0 72316.0 75912.0 57678.0 49934.0 40039.0 48084.0 45399.0 42780.0 86775.0 82318.0 66217.0 63833.0 273670.0 268172.0 142228.0 135748.0 61695.0 64057.0 65687.0 68190.0 17561.0 24605.0 51905.0 48227.0 82730.0 75805.0 63567.0 71521.0 108311.0 155705.0 108311.0 108311.0 155705.0 155705.0
11617.0 19277.0 72949.0 65892.0 303452.0 301745.0 7955.0 0.0 149092.0 152835.0 169652.0 168113.0 92722.0 90486.0 295486.0 302339.0 110435.0 117779.0 37344.0 29453.0 49219.0 41067.0 227650.0 228790.0 246869.0 240456.0 185096.0 179024.0 75894.0 78591.0 192553.0 186463.0 14063.0 8721.0 166327.0 164201.0 46097.0 54165.0 115603.0 118462.0 20301.0 19940.0 88880.0 96572.0 113902.0 110668.0 304599.0 296389.0 75511.0 67217.0 108188.0 107952.0 26231.0 21913.0 104356.0 96680.0 84231.0 76749.0 142053.0 135622.0 33283.0 33340.0 159895.0 163232.0 82118.0 89356.0 22761.0 20384.0 85005.0 83232.0 64304.0 62527.0 63254.0 67137.0 151107.0 147517.0 136979.0 129475.0 54594.0 46290.0 22308.0 17211.0 40648.0 33190.0 110249.0 111778.0 16497.0 23458.0 59254.0 63464.0 204605.0 204149.0 67762.0 70668.0 57615.0 50189.0 46666.0 54538.0 53022.0 50671.0 84025.0 78990.0 63051.0 59801.0 269033.0 263677.0 149074.0 142731.0 69614.0 72009.0 73609.0 75989.0 9627.0 17012.0 59077.0 54903.0 78387.0 71115.0 59040.0 67002.0 100915.0 149917.0 100915.0 100915.0 149917.0 149917.0
151011.0 155804.0 170972.0 164385.0 157592.0 157097.0 153157.0 149092.0 0.0 8049.0 232639.0 226293.0 229342.0 230266.0 151827.0 158349.0 241131.0 248987.0 116188.0 123520.0 178207.0 171816.0 83673.0 82715.0 98267.0 92352.0 37782.0 33908.0 180409.0 187823.0 47890.0 44614.0 162046.0 154178.0 188052.0 192661.0 111612.0 106897.0 45165.0 37848.0 144239.0 152241.0 141696.0 140639.0 238352.0 231577.0 155600.0 147376.0 88864.0 95921.0 222995.0 227406.0 126545.0 127594.0 58657.0 65432.0 70737.0 75568.0 176440.0 176455.0 116101.0 118472.0 161878.0 157971.0 172185.0 172365.0 156547.0 162077.0 190186.0 194762.0 86183.0 90712.0 212347.0 215947.0 201516.0 193757.0 36140.0 41956.0 196215.0 188932.0 170722.0 163701.0 120057.0 127368.0 42728.0 46009.0 137681.0 129897.0 176875.0 173342.0 58108.0 55972.0 81477.0 80218.0 105488.0 112301.0 191004.0 199127.0 169972.0 175045.0 215255.0 207626.0 195931.0 188700.0 121493.0 115534.0 210088.0 209201.0 197116.0 193838.0 200091.0 206445.0 143797.0 136413.0 165562.0 157821.0 200051.0 192120.0 90120.0 82199.0 176257.0 42206.0 176257.0 176257.0 42206.0 42206.0
155278.0 160346.0 177344.0 170627.0 156439.0 156348.0 156573.0 152835.0 8049.0 0.0 229962.0 223452.0 234678.0 235386.0 151608.0 157880.0 246876.0 254740.0 120878.0 128027.0 183519.0 176951.0 83884.0 82120.0 94037.0 87741.0 32468.0 27481.0 186705.0 194051.0 41572.0 37555.0 166022.0 158240.0 183986.0 188847.0 113882.0 108705.0 52424.0 44864.0 147009.0 155029.0 140643.0 139125.0 244391.0 237733.0 152565.0 144331.0 89719.0 97168.0 223325.0 227978.0 130981.0 131579.0 58370.0 65639.0 72439.0 77966.0 173250.0 173600.0 119655.0 121545.0 157355.0 153169.0 172075.0 171868.0 159254.0 165075.0 196581.0 200987.0 90828.0 95814.0 216038.0 219392.0 198652.0 190820.0 31902.0 38783.0 201006.0 193594.0 174199.0 167012.0 122273.0 129804.0 44219.0 46165.0 142008.0 134324.0 182645.0 179346.0 57807.0 54561.0 85629.0 85052.0 107053.0 114136.0 193823.0 201908.0 171379.0 176739.0 220820.0 213265.0 201255.0 194147.0 119799.0 113502.0 207627.0 207038.0 198595.0 195016.0 201462.0 207995.0 147926.0 140716.0 166532.0 158864.0 205937.0 197952.0 94137.0 86309.0 183114.0 49871.0 183114.0 183114.0 49871.0 49871.0
181075.0 187832.0 242108.0 235373.0 377384.0 379251.0 162533.0 169652.0 232639.0 229962.0 0.0 8118.0 234961.0 228282.0 376808.0 381939.0 255451.0 260350.0 190141.0 186270.0 212813.0 206009.0 311953.0 308438.0 300987.0 292930.0 250144.0 242160.0 243715.0 244788.0 249232.0 241231.0 175051.0 176618.0 60045.0 51925.0 154657.0 151746.0 231239.0 227905.0 150900.0 149723.0 97637.0 95322.0 264570.0 264963.0 361249.0 353718.0 155605.0 153377.0 86211.0 93535.0 184744.0 176189.0 176422.0 171755.0 174503.0 175959.0 58119.0 56481.0 171072.0 162996.0 87051.0 94623.0 87626.0 80904.0 147417.0 152977.0 251585.0 247911.0 194080.0 199583.0 177340.0 171420.0 31671.0 39691.0 198361.0 191182.0 203729.0 197721.0 163862.0 159847.0 150003.0 150197.0 195047.0 188966.0 182143.0 184399.0 225736.0 231518.0 285826.0 280542.0 189474.0 197868.0 150017.0 149012.0 149204.0 149223.0 117930.0 122945.0 235586.0 234412.0 219463.0 220426.0 339908.0 332325.0 23290.0 27441.0 115720.0 108494.0 112937.0 117761.0 177939.0 181704.0 110629.0 115021.0 239008.0 233718.0 185057.0 188757.0 270462.0 261626.0 270462.0 270462.0 261626.0 261626.0
179621.0 186563.0 240848.0 233972.0 370097.0 372040.0 161174.0 168113.0 226293.0 223452.0 8118.0 0.0 236046.0 229539.0 369709.0 374777.0 256560.0 261649.0 187219.0 183636.0 212241.0 205260.0 305120.0 301498.0 293510.0 285449.0 243148.0 235171.0 242774.0 244103.0 242043.0 234050.0 174113.0 175315.0 51929.0 43817.0 151049.0 147778.0 226010.0 222481.0 148997.0 148243.0 93143.0 90280.0 265376.0 265508.0 353661.0 346158.0 150666.0 148798.0 89417.0 97009.0 182233.0 173687.0 170544.0 166096.0 169336.0 171098.0 50887.0 49855.0 168003.0 159926.0 79047.0 86590.0 86009.0 78862.0 146155.0 152046.0 250868.0 247428.0 190009.0 195721.0 178732.0 173073.0 24800.0 32697.0 191760.0 184693.0 204019.0 197784.0 163374.0 159012.0 146746.0 147356.0 189233.0 183005.0 180104.0 182029.0 224937.0 230503.0 279033.0 273650.0 185166.0 193609.0 145900.0 145273.0 149831.0 150290.0 117141.0 122580.0 236108.0 234659.0 219503.0 220164.0 332650.0 325041.0 19338.0 25463.0 116820.0 109337.0 114245.0 119491.0 176167.0 179609.0 109341.0 113259.0 238882.0 233380.0 181036.0 184467.0 268692.0 255959.0 268692.0 268692.0 255959.0 255959.0
84849.0 77725.0 69152.0 72026.0 374359.0 372419.0 94244.0 92722.0 229342.0 234678.0 234961.0 236046.0 0.0 8242.0 366147.0 373000.0 20518.0 26335.0 114768.0 108562.0 51159.0 58012.0 298917.0 301633.0 327087.0 321552.0 266985.0 262028.0 60227.0 53103.0 276048.0 270945.0 79159.0 84452.0 248098.0 244250.0 138521.0 146680.0 188051.0 193469.0 110090.0 104854.0 175553.0 183747.0 30724.0 34118.0 380746.0 372734.0 167483.0 159444.0 152801.0 147613.0 106095.0 108521.0 193927.0 186731.0 173229.0 165058.0 223491.0 216111.0 122376.0 124932.0 247045.0 251404.0 156177.0 164436.0 103759.0 95434.0 56256.0 48248.0 144396.0 138891.0 58008.0 64863.0 225380.0 224039.0 224723.0 217968.0 38285.0 46574.0 81356.0 88826.0 133369.0 125777.0 196067.0 199273.0 96426.0 102971.0 54425.0 60509.0 279100.0 280512.0 150655.0 149829.0 150195.0 142886.0 86663.0 85767.0 124099.0 116803.0 16455.0 24377.0 33423.0 40779.0 342213.0 338045.0 219114.0 211435.0 119269.0 126720.0 122033.0 117684.0 92698.0 97788.0 134088.0 134350.0 35632.0 41209.0 142993.0 150127.0 100102.0 218659.0 100102.0 100102.0 218659.0 218659.0
83427.0 76720.0 73949.0 76098.0 376523.0 374583.0 91339.0 90486.0 230266.0 235386.0 228282.0 229539.0 8242.0 0.0 368311.0 375164.0 27458.0 32119.0 114862.0 108301.0 52363.0 58451.0 301081.0 303757.0 328269.0 322588.0 267782.0 262632.0 65458.0 58704.0 276603.0 271316.0 76635.0 82503.0 242796.0 238762.0 136541.0 144642.0 189721.0 194885.0 106980.0 101323.0 171238.0 179465.0 38616.0 42335.0 382597.0 374547.0 165777.0 157601.0 145532.0 140185.0 105676.0 107465.0 193050.0 185710.0 172420.0 164356.0 218235.0 210779.0 121207.0 123251.0 242520.0 247060.0 150652.0 158914.0 99912.0 91522.0 62449.0 54411.0 144750.0 139595.0 50999.0 57527.0 219405.0 218270.0 224350.0 217412.0 35992.0 44242.0 77448.0 85161.0 131003.0 123229.0 195976.0 198878.0 95562.0 102465.0 57625.0 64378.0 280959.0 282136.0 150721.0 150361.0 148101.0 140638.0 80714.0 79292.0 118833.0 111351.0 22272.0 29482.0 34976.0 42940.0 344385.0 340060.0 212827.0 205087.0 112720.0 120308.0 115360.0 110749.0 91304.0 96924.0 128943.0 129597.0 41171.0 45721.0 142834.0 150157.0 105724.0 220823.0 105724.0 105724.0 220823.0 220823.0
295271.0 298650.0 302593.0 296859.0 18761.0 11333.0 300591.0 295486.0 151827.0 151608.0 376808.0 369709.0 366147.0 368311.0 0.0 8022.0 375416.0 383144.0 259615.0 267503.0 316072.0 310854.0 68247.0 69542.0 83884.0 91195.0 126844.0 134839.0 312314.0 320006.0 127821.0 135771.0 307308.0 299241.0 324789.0 330990.0 262182.0 258141.0 180298.0 177025.0 293553.0 301433.0 291860.0 289787.0 371042.0 363709.0 54703.0 53717.0 240689.0 247639.0 374779.0 379233.0 270738.0 273574.0 209956.0 217076.0 222302.0 226402.0 318823.0 320498.0 263782.0 267401.0 296224.0 290298.0 323680.0 323415.0 305889.0 310631.0 321451.0 326882.0 231189.0 233482.0 358019.0 362530.0 345139.0 337129.0 180856.0 188892.0 336741.0 330362.0 317703.0 311321.0 270634.0 277543.0 194528.0 197574.0 282022.0 274024.0 311980.0 307068.0 93851.0 97502.0 228424.0 224819.0 256973.0 263481.0 339782.0 347949.0 321407.0 326120.0 350913.0 342959.0 333345.0 325521.0 39872.0 47798.0 355480.0 355825.0 348413.0 345439.0 351507.0 357631.0 288817.0 280886.0 317315.0 309548.0 334027.0 326547.0 237138.0 229245.0 305958.0 149265.0 305958.0 305958.0 149265.0 149265.0
302124.0 305503.0 309446.0 303712.0 13501.0 5638.0 307444.0 302339.0 158349.0 157880.0 381939.0 374777.0 373000.0 375164.0 8022.0 0.0 382269.0 389997.0 266468.0 274355.0 322925.0 317707.0 75015.0 75764.0 86551.0 94124.0 132327.0 140309.0 319167.0 326859.0 132740.0 140729.0 314161.0 306094.0 329386.0 335693.0 269042.0 264886.0 187151.0 183878.0 300388.0 308258.0 297836.0 295616.0 377894.0 370562.0 51147.0 51322.0 247199.0 254242.0 381173.0 385713.0 277591.0 280427.0 216249.0 223451.0 228952.0 233193.0 323894.0 325715.0 270635.0 274229.0 300743.0 294704.0 329932.0 329538.0 312721.0 317484.0 328304.0 333735.0 238042.0 240335.0 364872.0 369383.0 350269.0 342249.0 186716.0 194823.0 343594.0 337215.0 324556.0 318174.0 277499.0 284393.0 201076.0 203947.0 288875.0 280876.0 318832.0 313920.0 100265.0 103529.0 235277.0 231672.0 263660.0 270242.0 346555.0 354722.0 328127.0 332929.0 357766.0 349812.0 340198.0 332374.0 43059.0 51003.0 360769.0 361249.0 355177.0 352108.0 358239.0 364424.0 295670.0 287739.0 323904.0 316153.0 340880.0 333400.0 243990.0 236097.0 312811.0 156118.0 312811.0 312811.0 156118.0 156118.0
101638.0 94068.0 74009.0 78764.0 383628.0 381688.0 112688.0 110435.0 241131.0 246876.0 255451.0 256560.0 20518.0 27458.0 375416.0 382269.0 0.0 7871.0 128874.0 123333.0 65030.0 72786.0 308186.0 310902.0 338077.0 332856.0 278906.0 274342.0 64297.0 56518.0 288422.0 283685.0 97337.0 101913.0 268280.0 264529.0 155583.0 163780.0 198496.0 204418.0 128651.0 123858.0 195082.0 203238.0 13306.0 20429.0 390186.0 382275.0 184032.0 176220.0 172984.0 167637.0 121150.0 124515.0 209110.0 202172.0 188391.0 180086.0 243654.0 236318.0 138410.0 141673.0 266686.0 270889.0 176502.0 184756.0 123054.0 114820.0 57273.0 50130.0 157750.0 151650.0 78344.0 84980.0 245843.0 244439.0 238953.0 232535.0 57056.0 65128.0 100812.0 108036.0 150957.0 143625.0 209908.0 213632.0 112279.0 118199.0 64256.0 68372.0 288745.0 290670.0 164474.0 162812.0 167353.0 160278.0 107151.0 106276.0 144328.0 137123.0 26955.0 33823.0 48100.0 53744.0 351501.0 347339.0 239628.0 231952.0 139774.0 147237.0 142516.0 138079.0 109345.0 113624.0 154244.0 154267.0 41398.0 49089.0 157259.0 164015.0 101167.0 227928.0 101167.0 101167.0 227928.0 227928.0
109162.0 101654.0 81486.0 86413.0 391357.0 389416.0 119828.0 117779.0 248987.0 254740.0 260350.0 261649.0 26335.0 32119.0 383144.0 389997.0 7871.0 0.0 136702.0 131117.0 72816.0 80519.0 315914.0 318630.0 345893.0 340687.0 286763.0 282208.0 71739.0 63944.0 296288.0 291555.0 104544.0 109306.0 274414.0 270528.0 163098.0 171291.0 206302.0 212247.0 135763.0 130796.0 201772.0 209953.0 16595.0 24950.0 397890.0 389988.0 191645.0 183794.0 177161.0 171577.0 128910.0 132179.0 216888.0 209926.0 196167.0 187870.0 249812.0 242420.0 146077.0 149237.0 273310.0 277613.0 182435.0 190696.0 129856.0 121571.0 64357.0 57431.0 165612.0 159520.0 83016.0 89267.0 251443.0 250213.0 246794.0 240359.0 63989.0 72160.0 107517.0 114871.0 158359.0 150959.0 217762.0 221465.0 119951.0 125942.0 72112.0 76137.0 296479.0 298441.0 172323.0 170680.0 174854.0 167728.0 112713.0 111411.0 150410.0 143073.0 34698.0 41680.0 55760.0 61555.0 359230.0 355067.0 244941.0 237205.0 144832.0 152426.0 147448.0 142727.0 116901.0 121299.0 160415.0 160673.0 49167.0 56916.0 165087.0 171862.0 107939.0 235656.0 107939.0 107939.0 235656.0 235656.0
35658.0 39672.0 69544.0 61562.0 267763.0 265887.0 44032.0 37344.0 116188.0 120878.0 190141.0 187219.0 114768.0 114862.0 259615.0 266468.0 128874.0 136702.0 0.0 7992.0 63998.0 56760.0 191954.0 193557.0 214454.0 208470.0 153342.0 147948.0 76680.0 82453.0 161861.0 156471.0 47830.0 39756.0 175212.0 174812.0 39105.0 45687.0 79332.0 82960.0 44616.0 50353.0 97799.0 103834.0 128667.0 123286.0 270668.0 262504.0 60059.0 54114.0 140110.0 141086.0 11271.0 16993.0 80640.0 74126.0 60054.0 51647.0 152534.0 147412.0 19458.0 27438.0 162729.0 164367.0 104144.0 109747.0 54749.0 56077.0 87178.0 88874.0 30051.0 26176.0 98446.0 103263.0 167011.0 161952.0 110133.0 103663.0 80131.0 72750.0 59463.0 54410.0 40999.0 39955.0 81307.0 84767.0 22444.0 14457.0 66468.0 65964.0 169726.0 169899.0 35893.0 35985.0 49038.0 45429.0 83926.0 91858.0 81749.0 82140.0 102081.0 95094.0 81553.0 75160.0 234058.0 229030.0 167883.0 162701.0 103473.0 104246.0 107353.0 110923.0 29453.0 21366.0 84259.0 77721.0 89873.0 81683.0 28385.0 35359.0 88120.0 113104.0 88120.0 88120.0 113104.0 113104.0
27823.0 32319.0 67481.0 59491.0 275633.0 273774.0 36336.0 29453.0 123520.0 128027.0 186270.0 183636.0 108562.0 108301.0 267503.0 274355.0 123333.0 131117.0 7992.0 0.0 58303.0 50720.0 199816.0 201351.0 221775.0 215709.0 160494.0 154960.0 73869.0 79120.0 168813.0 163276.0 39869.0 31793.0 173768.0 172999.0 38838.0 46222.0 87243.0 90747.0 38339.0 43471.0 95812.0 102268.0 123763.0 118735.0 278271.0 270098.0 62871.0 56170.0 133652.0 134361.0 3279.0 10482.0 85779.0 78922.0 65064.0 56754.0 150652.0 145227.0 18449.0 25504.0 162526.0 164535.0 99553.0 105531.0 47748.0 48547.0 84264.0 85291.0 37350.0 34022.0 90527.0 95289.0 164044.0 159276.0 116164.0 109437.0 73172.0 65604.0 51500.0 46587.0 39049.0 36462.0 87677.0 90711.0 14519.0 6522.0 62144.0 62546.0 177458.0 177525.0 42583.0 43459.0 49762.0 45020.0 76095.0 83990.0 75657.0 75544.0 96424.0 89693.0 75604.0 69608.0 241821.0 236741.0 164304.0 158857.0 96506.0 97619.0 100422.0 103738.0 21464.0 13402.0 78855.0 72671.0 85209.0 77062.0 34536.0 41974.0 88461.0 121085.0 88461.0 88461.0 121085.0 121085.0
38659.0 30629.0 34802.0 31912.0 324284.0 322344.0 53816.0 49219.0 178207.0 183519.0 212813.0 212241.0 51159.0 52363.0 316072.0 322925.0 65030.0 72816.0 63998.0 58303.0 0.0 8263.0 248815.0 251469.0 276053.0 270457.0 215833.0 210872.0 32420.0 32081.0 224896.0 219831.0 38938.0 40545.0 214723.0 212178.0 91860.0 100032.0 137358.0 142558.0 69241.0 66647.0 137884.0 145675.0 66132.0 62019.0 330239.0 322186.0 119565.0 112000.0 140450.0 137715.0 56141.0 59933.0 144080.0 137161.0 123361.0 115056.0 190255.0 183539.0 73758.0 77672.0 209090.0 212449.0 126993.0 134840.0 67471.0 60561.0 38925.0 35239.0 93348.0 87738.0 58403.0 66235.0 197275.0 194375.0 174130.0 167596.0 23734.0 21804.0 48959.0 53444.0 88172.0 81545.0 145249.0 148747.0 47708.0 53237.0 14198.0 22113.0 228606.0 229778.0 99786.0 98705.0 103655.0 97010.0 68309.0 72404.0 95117.0 89888.0 38131.0 31500.0 17736.0 11368.0 292110.0 287732.0 193737.0 186804.0 101596.0 106992.0 105322.0 104215.0 45806.0 49023.0 103472.0 101084.0 29186.0 21990.0 92362.0 99291.0 67138.0 168584.0 67138.0 67138.0 168584.0 168584.0
30404.0 22368.0 38536.0 34071.0 319066.0 317126.0 45921.0 41067.0 171816.0 176951.0 206009.0 205260.0 58012.0 58451.0 310854.0 317707.0 72786.0 80519.0 56760.0 50720.0 8263.0 0.0 243667.0 246115.0 269855.0 264144.0 209335.0 204227.0 37989.0 38857.0 218216.0 213016.0 31374.0 32430.0 206871.0 204427.0 83653.0 91832.0 131703.0 136636.0 61178.0 58858.0 129841.0 137596.0 74288.0 70271.0 324586.0 316503.0 111497.0 103874.0 135231.0 132868.0 48418.0 51869.0 136417.0 129413.0 115693.0 107429.0 182444.0 175792.0 65730.0 69490.0 200961.0 204275.0 119743.0 127507.0 59898.0 53288.0 45608.0 42689.0 86434.0 81148.0 57545.0 65007.0 189897.0 186858.0 166794.0 160144.0 26252.0 21648.0 42441.0 46257.0 79913.0 73286.0 138064.0 141368.0 39627.0 45425.0 19750.0 26378.0 223019.0 223974.0 92643.0 91959.0 95452.0 88770.0 63515.0 68311.0 88133.0 83240.0 45832.0 39516.0 24884.0 19464.0 286769.0 282248.0 186639.0 179804.0 96085.0 101109.0 99895.0 99285.0 37551.0 40954.0 96213.0 93549.0 37413.0 30049.0 85027.0 92118.0 69266.0 163413.0 69266.0 69266.0 163413.0 163413.0
227611.0 231112.0 235363.0 229629.0 75824.0 74256.0 232675.0 227650.0 83673.0 83884.0 311953.0 305120.0 298917.0 301081.0 68247.0 75015.0 308186.0 315914.0 191954.0 199816.0 248815.0 243667.0 0.0 8428.0 52757.0 54678.0 62806.0 70579.0 245084.0 252776.0 67330.0 74557.0 239579.0 231519.0 262412.0 268088.0 194027.0 189907.0 112702.0 109203.0 225479.0 233373.0 224505.0 222812.0 303812.0 296479.0 84356.0 76973.0 172503.0 179403.0 306668.0 311049.0 203042.0 205744.0 142055.0 149045.0 154057.0 158191.0 254388.0 255475.0 195810.0 199340.0 234402.0 229091.0 255761.0 255716.0 237819.0 242629.0 254221.0 259652.0 163346.0 165796.0 290302.0 294733.0 280379.0 272427.0 114158.0 121920.0 269469.0 262998.0 249839.0 243398.0 202484.0 209394.0 126328.0 129562.0 214333.0 206338.0 244750.0 239838.0 26241.0 31698.0 160449.0 156985.0 188726.0 195255.0 271776.0 279942.0 253167.0 257923.0 283683.0 275729.0 266115.0 258291.0 43952.0 41243.0 290090.0 289963.0 280190.0 277192.0 283271.0 289423.0 221084.0 213185.0 249079.0 241308.0 266797.0 259317.0 169174.0 161265.0 238728.0 81174.0 238728.0 238728.0 81174.0 81174.0
229174.0 232934.0 238079.0 232345.0 75065.0 74383.0 233587.0 228790.0 82715.0 82120.0 308438.0 301498.0 301633.0 303757.0 69542.0 75764.0 310902.0 318630.0 193557.0 201351.0 251469.0 246115.0 8428.0 0.0 44441.0 46250.0 58446.0 66381.0 247799.0 255492.0 61739.0 69260.0 240976.0 232939.0 258025.0 263864.0 193933.0 189506.0 114626.0 110605.0 225874.0 233815.0 222338.0 220352.0 306527.0 299194.0 79828.0 72147.0 171499.0 178634.0 305411.0 309977.0 204550.0 206921.0 140489.0 147689.0 153428.0 157952.0 250676.0 251998.0 196591.0 199809.0 229827.0 224343.0 254189.0 253876.0 238219.0 243267.0 256937.0 262367.0 164550.0 167382.0 291691.0 295925.0 276810.0 268830.0 111444.0 119414.0 271751.0 265124.0 250884.0 244282.0 202394.0 209482.0 125432.0 128187.0 215848.0 207869.0 247433.0 242553.0 24631.0 28060.0 161273.0 158223.0 188173.0 194891.0 272380.0 280540.0 252662.0 257634.0 286361.0 278390.0 268802.0 260999.0 40655.0 36623.0 286789.0 286881.0 279779.0 276552.0 282782.0 289080.0 222489.0 214673.0 248258.0 240528.0 269513.0 262032.0 170021.0 162072.0 241444.0 84457.0 241444.0 241444.0 84457.0 84457.0
249197.0 254068.0 266234.0 260183.0 78765.0 82508.0 250519.0 246869.0 98267.0 94037.0 300987.0 293510.0 327087.0 328269.0 83884.0 86551.0 338077.0 345893.0 214454.0 221775.0 276053.0 269855.0 52757.0 44441.0 0.0 8065.0 61891.0 68544.0 275894.0 283514.0 56284.0 63761.0 260046.0 252244.0 246101.0 252833.0 206917.0 201111.0 139615.0 133717.0 240484.0 248501.0 223938.0 220394.0 334467.0 327315.0 61399.0 53428.0 180687.0 188753.0 310458.0 315937.0 224785.0 225596.0 148209.0 156113.0 165203.0 171423.0 242937.0 245607.0 213669.0 215344.0 217274.0 210824.0 258328.0 256595.0 252623.0 258730.0 285208.0 290427.0 184448.0 188882.0 310056.0 313317.0 269474.0 261454.0 115168.0 123593.0 294447.0 287195.0 268161.0 260896.0 215176.0 222957.0 137386.0 137604.0 235889.0 228136.0 273941.0 269832.0 53969.0 49217.0 179570.0 178479.0 199066.0 206528.0 287241.0 295263.0 262346.0 268324.0 312643.0 304884.0 293735.0 286341.0 44034.0 36180.0 280860.0 282204.0 289524.0 285181.0 292091.0 299039.0 241905.0 234611.0 256414.0 249036.0 296755.0 288989.0 188132.0 180267.0 269783.0 116178.0 269783.0 269783.0 116178.0 116178.0
243017.0 248023.0 261405.0 255227.0 86631.0 90198.0 243967.0 240456.0 92352.0 87741.0 292930.0 285449.0 321552.0 322588.0 91195.0 94124.0 332856.0 340687.0 208470.0 215709.0 270457.0 264144.0 54678.0 46250.0 8065.0 0.0 55362.0 61675.0 271026.0 278605.0 48986.0 56284.0 253728.0 245968.0 238045.0 244771.0 200041.0 194118.0 134584.0 128441.0 233700.0 241711.0 216185.0 212570.0 329486.0 322426.0 69235.0 61327.0 173532.0 181657.0 302824.0 308354.0 218687.0 219299.0 141041.0 148973.0 158336.0 164704.0 234884.0 237572.0 207213.0 208712.0 209220.0 202780.0 250680.0 248870.0 245798.0 252004.0 280451.0 285530.0 178430.0 183062.0 303581.0 306727.0 261421.0 253402.0 107846.0 116256.0 288547.0 281219.0 261618.0 254291.0 208262.0 216094.0 130673.0 130639.0 229740.0 222033.0 268653.0 264711.0 51924.0 46193.0 173368.0 172533.0 192013.0 199525.0 280412.0 288411.0 255079.0 261133.0 307258.0 299545.0 288164.0 280845.0 51331.0 43397.0 272824.0 274191.0 282231.0 277807.0 284762.0 291754.0 235664.0 228451.0 249036.0 241693.0 291591.0 283771.0 181875.0 174050.0 265195.0 112592.0 265195.0 265195.0 112592.0 112592.0
187711.0 192813.0 208615.0 202097.0 129139.0 130072.0 188654.0 185096.0 37782.0 32468.0 250144.0 243148.0 266985.0 267782.0 126844.0 132327.0 278906.0 286763.0 153342.0 160494.0 215833.0 209335.0 62806.0 58446.0 61891.0 55362.0 0.0 7996.0 218090.0 225534.0 12001.0 14422.0 198370.0 190621.0 199675.0 205448.0 145128.0 139483.0 82126.0 75235.0 178620.0 186639.0 166172.0 163564.0 276117.0 269310.0 121574.0 113360.0 119459.0 127351.0 251233.0 256330.0 163443.0 163949.0 87137.0 94914.0 103429.0 109542.0 192297.0 193754.0 151859.0 153455.0 171603.0 166291.0 199364.0 198346.0 190782.0 196845.0 227808.0 232474.0 123291.0 128188.0 248236.0 251439.0 218495.0 210502.0 55180.0 63539.0 233467.0 226062.0 206301.0 199013.0 153426.0 161151.0 75511.0 76024.0 174455.0 166785.0 214651.0 211116.0 37930.0 31140.0 118069.0 117489.0 137553.0 144911.0 225396.0 233434.0 201316.0 207061.0 252990.0 245380.0 233565.0 226391.0 91700.0 84728.0 228667.0 228982.0 228547.0 224520.0 231242.0 238025.0 180330.0 173160.0 195820.0 188305.0 237834.0 229901.0 126544.0 118742.0 213451.0 68145.0 213451.0 213451.0 68145.0 68145.0
181971.0 187258.0 204737.0 198064.0 137038.0 138031.0 182384.0 179024.0 33908.0 27481.0 242160.0 235171.0 262028.0 262632.0 134839.0 140309.0 274342.0 282208.0 147948.0 154960.0 210872.0 204227.0 70579.0 66381.0 68544.0 61675.0 7996.0 0.0 214127.0 221494.0 14091.0 11601.0 192423.0 184741.0 191841.0 197569.0 138393.0 132571.0 78999.0 71755.0 172026.0 180037.0 158334.0 155658.0 271869.0 265194.0 128799.0 120605.0 112286.0 120276.0 243592.0 248752.0 157856.0 158065.0 79868.0 87712.0 96681.0 103039.0 184326.0 185764.0 145749.0 147079.0 163834.0 158592.0 191670.0 190568.0 184132.0 190332.0 223966.0 228431.0 117932.0 123137.0 242054.0 245105.0 210513.0 202521.0 47500.0 55899.0 228064.0 220564.0 200038.0 192666.0 146639.0 154440.0 69021.0 69063.0 168775.0 161186.0 210118.0 206825.0 45342.0 38881.0 112418.0 112272.0 130552.0 137990.0 218748.0 226755.0 194084.0 199930.0 248251.0 240714.0 228607.0 221547.0 99564.0 92526.0 220673.0 220989.0 221301.0 217170.0 223953.0 230795.0 174509.0 167466.0 188442.0 180966.0 233417.0 225430.0 120781.0 113063.0 210164.0 68493.0 210164.0 210164.0 68493.0 68493.0
64315.0 56728.0 9783.0 16165.0 320526.0 318586.0 82059.0 75894.0 180409.0 186705.0 243715.0 242774.0 60227.0 65458.0 312314.0 319167.0 64297.0 71739.0 76680.0 73869.0 32420.0 37989.0 245084.0 247799.0 275894.0 271026.0 218090.0 214127.0 0.0 7799.0 228201.0 224077.0 68676.0 67932.0 241989.0 240039.0 111975.0 119746.0 136469.0 142929.0 96106.0 95145.0 164066.0 171454.0 58761.0 51422.0 327120.0 319185.0 136533.0 130032.0 172827.0 170135.0 72953.0 79469.0 156070.0 150110.0 135934.0 127539.0 217837.0 211488.0 91954.0 97835.0 233958.0 236631.0 156964.0 164555.0 96776.0 90753.0 10515.0 14574.0 101654.0 94454.0 88493.0 96581.0 226727.0 223332.0 182787.0 177298.0 51870.0 52973.0 80421.0 83872.0 110259.0 104997.0 153376.0 158254.0 68519.0 71040.0 18377.0 12430.0 225650.0 227847.0 109235.0 105663.0 123346.0 117855.0 100725.0 104752.0 125785.0 121139.0 43775.0 36032.0 36698.0 30063.0 288399.0 284237.0 224004.0 217312.0 133862.0 139049.0 137624.0 136628.0 69625.0 69559.0 133487.0 130267.0 24611.0 20220.0 103548.0 108971.0 40422.0 164826.0 40422.0 40422.0 164826.0 164826.0
67169.0 59314.0 17574.0 23438.0 328218.0 326278.0 84266.0 78591.0 187823.0 194051.0 244788.0 244103.0 53103.0 58704.0 320006.0 326859.0 56518.0 63944.0 82453.0 79120.0 32081.0 38857.0 252776.0 255492.0 283514.0 278605.0 225534.0 221494.0 7799.0 0.0 235575.0 231372.0 70174.0 70311.0 244918.0 242729.0 116666.0 124563.0 144028.0 150421.0 98891.0 97325.0 167297.0 174832.0 51038.0 43823.0 334812.0 326877.0 141969.0 135240.0 172087.0 169050.0 77963.0 84025.0 162385.0 156268.0 142105.0 133693.0 220623.0 214120.0 96909.0 102427.0 237705.0 240587.0 158588.0 166324.0 98619.0 92142.0 6852.0 6940.0 108256.0 101205.0 85241.0 93385.0 228677.0 225526.0 189591.0 183966.0 48634.0 50905.0 80991.0 85112.0 114485.0 108847.0 160185.0 164908.0 72648.0 75833.0 19393.0 16574.0 233342.0 235530.0 115732.0 112449.0 128185.0 122412.0 99853.0 103332.0 126965.0 121908.0 36711.0 29230.0 32446.0 27031.0 296091.0 291929.0 225496.0 218650.0 133469.0 139010.0 137147.0 135705.0 73056.0 73765.0 135060.0 132254.0 17546.0 14953.0 109776.0 115436.0 47048.0 172518.0 47048.0 47048.0 172518.0 172518.0
195711.0 201091.0 218801.0 212144.0 128362.0 130024.0 195750.0 192553.0 47890.0 41572.0 249232.0 242043.0 276048.0 276603.0 127821.0 132740.0 288422.0 296288.0 161861.0 168813.0 224896.0 218216.0 67330.0 61739.0 56284.0 48986.0 12001.0 14091.0 228201.0 235575.0 0.0 8013.0 206034.0 198398.0 197100.0 203205.0 151300.0 145243.0 92857.0 85709.0 185071.0 193067.0 168325.0 165163.0 285960.0 279281.0 117335.0 109217.0 124555.0 132706.0 254417.0 259796.0 171684.0 171733.0 92064.0 100006.0 109651.0 116271.0 191164.0 193099.0 159270.0 160375.0 168664.0 162968.0 202335.0 200841.0 197100.0 203455.0 238027.0 242512.0 131870.0 137159.0 255468.0 258383.0 217565.0 209541.0 58889.0 67311.0 241951.0 234413.0 213401.0 205956.0 159467.0 167360.0 82356.0 81848.0 182552.0 175007.0 224202.0 220916.0 44674.0 36841.0 126243.0 126257.0 143087.0 150639.0 231695.0 239661.0 206103.0 212147.0 262311.0 254784.0 242630.0 235593.0 90801.0 83370.0 228234.0 228973.0 233266.0 228897.0 235817.0 242785.0 188207.0 181238.0 200130.0 192757.0 247507.0 239517.0 134544.0 126875.0 224102.0 80125.0 224102.0 224102.0 80125.0 80125.0
189936.0 195486.0 214766.0 207969.0 136374.0 138030.0 189466.0 186463.0 44614.0 37555.0 241231.0 234050.0 270945.0 271316.0 135771.0 140729.0 283685.0 291555.0 156471.0 163276.0 219831.0 213016.0 74557.0 69260.0 63761.0 56284.0 14422.0 11601.0 224077.0 231372.0 8013.0 0.0 200047.0 192485.0 189233.0 195299.0 144634.0 138414.0 89770.0 82347.0 178487.0 186464.0 160504.0 157270.0 281526.0 274976.0 124984.0 116895.0 117512.0 125741.0 246750.0 252187.0 166091.0 165857.0 85046.0 93021.0 103095.0 109935.0 183168.0 185088.0 153198.0 154043.0 160843.0 155209.0 194642.0 193062.0 190446.0 196926.0 234010.0 238301.0 126585.0 132151.0 249209.0 251976.0 209562.0 201539.0 51645.0 60027.0 236449.0 228827.0 207103.0 199585.0 152733.0 160688.0 76222.0 75230.0 176853.0 169397.0 219543.0 216488.0 51001.0 43507.0 120699.0 121125.0 136174.0 143789.0 225007.0 232937.0 198868.0 205006.0 257425.0 249973.0 237552.0 230629.0 98814.0 91377.0 220221.0 220962.0 225995.0 221528.0 228502.0 235523.0 182364.0 175528.0 192757.0 185429.0 242938.0 234902.0 128867.0 121302.0 220667.0 80081.0 220667.0 220667.0 80081.0 80081.0
12777.0 14648.0 67413.0 61228.0 315403.0 313580.0 15479.0 14063.0 162046.0 166022.0 175051.0 174113.0 79159.0 76635.0 307308.0 314161.0 97337.0 104544.0 47830.0 39869.0 38938.0 31374.0 239579.0 240976.0 260046.0 253728.0 198370.0 192423.0 68676.0 70174.0 206034.0 200047.0 0.0 8076.0 175867.0 173251.0 60099.0 68124.0 127091.0 130416.0 31447.0 27827.0 99509.0 107446.0 101517.0 98821.0 317363.0 309166.0 89555.0 81236.0 107781.0 106487.0 36609.0 34458.0 118341.0 110693.0 98130.0 90543.0 151364.0 144613.0 46900.0 47387.0 171032.0 174718.0 88426.0 96150.0 28546.0 22077.0 76872.0 74030.0 76485.0 73845.0 50726.0 55447.0 158525.0 155498.0 150839.0 143395.0 40899.0 32592.0 14443.0 15306.0 54368.0 46644.0 123829.0 125569.0 25396.0 33373.0 50880.0 56473.0 216947.0 216747.0 80572.0 82776.0 71538.0 64016.0 39985.0 47032.0 57130.0 52863.0 71314.0 66850.0 50743.0 48568.0 281361.0 276150.0 155398.0 148650.0 68426.0 72326.0 72395.0 73310.0 18495.0 26468.0 64906.0 62188.0 67548.0 60847.0 71938.0 79848.0 97835.0 160920.0 97835.0 97835.0 160920.0 160920.0
5523.0 11261.0 65533.0 58771.0 307342.0 305513.0 14166.0 8721.0 154178.0 158240.0 176618.0 175315.0 84452.0 82503.0 299241.0 306094.0 101913.0 109306.0 39756.0 31793.0 40545.0 32430.0 231519.0 232939.0 252244.0 245968.0 190621.0 184741.0 67932.0 70311.0 198398.0 192485.0 8076.0 0.0 174672.0 172418.0 54093.0 62236.0 119017.0 122367.0 28764.0 27229.0 97425.0 105166.0 105220.0 101949.0 309421.0 301228.0 83278.0 75106.0 112331.0 111517.0 28533.0 26678.0 111342.0 103786.0 90974.0 83248.0 150330.0 143809.0 39558.0 40788.0 168547.0 171922.0 89327.0 96767.0 29200.0 24650.0 76810.0 74785.0 68484.0 65773.0 58783.0 63513.0 158814.0 155408.0 143580.0 136240.0 46520.0 38263.0 21121.0 19198.0 49053.0 41770.0 116296.0 118236.0 17331.0 25299.0 50930.0 55526.0 208931.0 208776.0 72705.0 74760.0 65743.0 58466.0 46790.0 54169.0 59170.0 55891.0 75412.0 70294.0 54388.0 51082.0 273340.0 268151.0 156386.0 149882.0 73206.0 76420.0 77206.0 78769.0 10452.0 18392.0 66009.0 62387.0 69696.0 62476.0 64112.0 71993.0 94554.0 152851.0 94554.0 94554.0 152851.0 152851.0
177789.0 185604.0 238053.0 230449.0 323832.0 326304.0 160950.0 166327.0 188052.0 183986.0 60045.0 51929.0 248098.0 242796.0 324789.0 329386.0 268280.0 274414.0 175212.0 173768.0 214723.0 206871.0 262412.0 258025.0 246101.0 238045.0 199675.0 191841.0 241989.0 244918.0 197100.0 189233.0 175867.0 174672.0 0.0 8242.0 136224.0 130563.0 196200.0 191302.0 146027.0 148080.0 78244.0 71500.0 275041.0 273558.0 305284.0 297994.0 125923.0 126943.0 120518.0 128678.0 173264.0 165209.0 137397.0 134884.0 141837.0 145856.0 24648.0 32023.0 155940.0 148326.0 28841.0 35717.0 92305.0 84076.0 147533.0 155114.0 251309.0 249445.0 169788.0 176781.0 194468.0 190567.0 34883.0 30104.0 152154.0 146171.0 212165.0 204757.0 168528.0 162253.0 134722.0 138194.0 155956.0 148764.0 174405.0 174023.0 225570.0 229582.0 236799.0 230715.0 163424.0 171894.0 127715.0 129911.0 162524.0 165527.0 124006.0 131454.0 244705.0 241595.0 225596.0 224349.0 286709.0 278939.0 48697.0 55110.0 134643.0 126457.0 133436.0 140521.0 172426.0 173565.0 114036.0 114500.0 243374.0 236689.0 161564.0 162890.0 262112.0 222342.0 262112.0 262112.0 222342.0 222342.0
175739.0 183459.0 236407.0 228894.0 330333.0 332687.0 158545.0 164201.0 192661.0 188847.0 51925.0 43817.0 244250.0 238762.0 330990.0 335693.0 264529.0 270528.0 174812.0 172999.0 212178.0 204427.0 268088.0 263864.0 252833.0 244771.0 205448.0 197569.0 240039.0 242729.0 203205.0 195299.0 173251.0 172418.0 8242.0 0.0 136041.0 130758.0 199128.0 194482.0 143940.0 145569.0 77190.0 71011.0 271602.0 270352.0 312277.0 304932.0 127493.0 127966.0 113709.0 121866.0 172342.0 164157.0 140746.0 137817.0 144067.0 147672.0 22365.0 28638.0 155431.0 147682.0 35963.0 43197.0 88110.0 79848.0 144781.0 152164.0 249196.0 247084.0 170805.0 177602.0 189927.0 185773.0 27010.0 23025.0 156957.0 150713.0 208765.0 201500.0 165357.0 159327.0 134036.0 137051.0 159424.0 152400.0 172953.0 172946.0 223348.0 227614.0 242346.0 236408.0 164685.0 173195.0 128060.0 129766.0 158238.0 160912.0 120214.0 127455.0 241347.0 238471.0 222547.0 221580.0 293119.0 285382.0 40690.0 47339.0 129473.0 121302.0 128083.0 134995.0 170647.0 172164.0 110436.0 111422.0 240620.0 234094.0 162398.0 164117.0 261115.0 226086.0 261115.0 261115.0 226086.0 226086.0
53946.0 61615.0 106094.0 98135.0 268983.0 268134.0 46691.0 46097.0 111612.0 113882.0 154657.0 151049.0 138521.0 136541.0 262182.0 269042.0 155583.0 163098.0 39105.0 38838.0 91860.0 83653.0 194027.0 193933.0 206917.0 200041.0 145128.0 138393.0 111975.0 116666.0 151300.0 144634.0 60099.0 54093.0 136224.0 136041.0 0.0 8199.0 87949.0 88037.0 33946.0 41870.0 59471.0 65037.0 157924.0 153818.0 266389.0 258155.0 29566.0 21150.0 117041.0 119996.0 39187.0 32657.0 60205.0 52259.0 41714.0 36044.0 113853.0 109046.0 20395.0 14296.0 123814.0 125712.0 72511.0 76475.0 45812.0 52486.0 122206.0 122463.0 40743.0 45225.0 105696.0 107770.0 129700.0 124183.0 93660.0 85696.0 100588.0 92306.0 63801.0 55897.0 8462.0 16060.0 69731.0 69453.0 44464.0 40935.0 98582.0 100196.0 169321.0 167584.0 38317.0 45729.0 11801.0 6326.0 80395.0 88372.0 59929.0 64018.0 128806.0 123045.0 107605.0 103110.0 233104.0 227106.0 131830.0 127354.0 86463.0 84254.0 89734.0 95544.0 46286.0 43232.0 57895.0 50143.0 120521.0 112626.0 31702.0 37469.0 126955.0 122677.0 126955.0 126955.0 122677.0 122677.0
62143.0 69813.0 113667.0 105687.0 264475.0 263831.0 54427.0 54165.0 106897.0 108705.0 151746.0 147778.0 146680.0 144642.0 258141.0 264886.0 163780.0 171291.0 45687.0 46222.0 100032.0 91832.0 189907.0 189506.0 201111.0 194118.0 139483.0 132571.0 119746.0 124563.0 145243.0 138414.0 68124.0 62236.0 130563.0 130758.0 8199.0 0.0 86268.0 85626.0 40942.0 48685.0 55149.0 59996.0 166109.0 161971.0 260956.0 252728.0 21950.0 13389.0 118919.0 122371.0 46820.0 40643.0 53543.0 45547.0 36269.0 31821.0 108746.0 104323.0 27840.0 22393.0 117070.0 118689.0 72166.0 75308.0 52373.0 59471.0 130025.0 130423.0 42364.0 47969.0 112962.0 114744.0 125786.0 119946.0 87115.0 79009.0 108707.0 100418.0 71287.0 63302.0 14649.0 22874.0 64493.0 63508.0 52563.0 48744.0 106605.0 108058.0 164875.0 162809.0 38440.0 46531.0 3638.0 5435.0 86726.0 94582.0 63278.0 68148.0 137004.0 131237.0 115804.0 111291.0 228305.0 222159.0 128704.0 124639.0 90293.0 87421.0 93366.0 99574.0 54484.0 51315.0 59962.0 52118.0 128648.0 120732.0 33315.0 37651.0 133796.0 120562.0 133796.0 133796.0 120562.0 120562.0
114982.0 118414.0 126882.0 120644.0 188473.0 186570.0 121137.0 115603.0 45165.0 52424.0 231239.0 226010.0 188051.0 189721.0 180298.0 187151.0 198496.0 206302.0 79332.0 87243.0 137358.0 131703.0 112702.0 114626.0 139615.0 134584.0 82126.0 78999.0 136469.0 144028.0 92857.0 89770.0 127091.0 119017.0 196200.0 199128.0 87949.0 86268.0 0.0 8000.0 115828.0 123411.0 134308.0 135924.0 194906.0 187851.0 192902.0 184836.0 75984.0 79765.0 204914.0 207944.0 90490.0 93725.0 59318.0 61330.0 56746.0 56292.0 179700.0 177731.0 85079.0 89866.0 173765.0 171739.0 158018.0 160328.0 127969.0 131844.0 145992.0 150957.0 51688.0 53248.0 177769.0 182431.0 202012.0 194925.0 62399.0 61999.0 157177.0 150500.0 137900.0 131874.0 96005.0 101617.0 41911.0 49787.0 101758.0 93759.0 134453.0 130218.0 91318.0 92462.0 50495.0 45338.0 86374.0 90999.0 160889.0 169027.0 147675.0 151063.0 173276.0 165447.0 154887.0 147277.0 155254.0 150577.0 207974.0 205377.0 173608.0 171989.0 177072.0 182341.0 108618.0 100639.0 145769.0 137969.0 157150.0 149418.0 58783.0 51361.0 131325.0 34986.0 131325.0 131325.0 34986.0 34986.0
118569.0 122428.0 133415.0 126994.0 185021.0 183289.0 123625.0 118462.0 37848.0 44864.0 227905.0 222481.0 193469.0 194885.0 177025.0 183878.0 204418.0 212247.0 82960.0 90747.0 142558.0 136636.0 109203.0 110605.0 133717.0 128441.0 75235.0 71755.0 142929.0 150421.0 85709.0 82347.0 130416.0 122367.0 191302.0 194482.0 88037.0 85626.0 8000.0 0.0 117351.0 125088.0 131558.0 132722.0 201162.0 194231.0 188087.0 179969.0 73495.0 78030.0 204542.0 207863.0 93948.0 96551.0 53959.0 56800.0 53912.0 54624.0 175461.0 173790.0 87018.0 91210.0 168274.0 165996.0 156680.0 158595.0 129610.0 133922.0 152590.0 157358.0 54165.0 56792.0 181142.0 185530.0 198286.0 191069.0 54637.0 54598.0 161807.0 154927.0 140681.0 134365.0 96287.0 102367.0 35838.0 43570.0 105246.0 97264.0 140237.0 136291.0 86812.0 87365.0 51806.0 47794.0 85395.0 90579.0 163058.0 171219.0 147961.0 151741.0 178929.0 171169.0 160182.0 152698.0 151100.0 146140.0 204691.0 202370.0 174277.0 172289.0 177646.0 183173.0 111922.0 104075.0 145505.0 137670.0 163152.0 155331.0 60409.0 52652.0 138409.0 35028.0 138409.0 138409.0 35028.0 35028.0
31799.0 39577.0 92829.0 85565.0 300912.0 299730.0 15984.0 20301.0 144239.0 147009.0 150900.0 148997.0 110090.0 106980.0 293553.0 300388.0 128651.0 135763.0 44616.0 38339.0 69241.0 61178.0 225479.0 225874.0 240484.0 233700.0 178620.0 172026.0 96106.0 98891.0 185071.0 178487.0 31447.0 28764.0 146027.0 143940.0 33946.0 40942.0 115828.0 117351.0 0.0 8022.0 68664.0 76435.0 132958.0 130143.0 299566.0 291332.0 62874.0 54301.0 95494.0 96566.0 35949.0 27908.0 94143.0 86185.0 75421.0 69095.0 121769.0 115381.0 31028.0 26175.0 139897.0 143417.0 63304.0 70138.0 12345.0 18555.0 105294.0 103511.0 64470.0 65230.0 72048.0 73855.0 131316.0 127520.0 127604.0 119637.0 71841.0 63613.0 30803.0 22718.0 26295.0 18072.0 103110.0 103263.0 31313.0 34713.0 79554.0 83679.0 201359.0 200089.0 65557.0 70680.0 43868.0 35967.0 46814.0 54908.0 37321.0 37593.0 102756.0 98235.0 82150.0 79535.0 265516.0 259730.0 129826.0 123742.0 59389.0 59687.0 63177.0 67406.0 27245.0 30977.0 41194.0 35901.0 98322.0 91207.0 57068.0 64706.0 119700.0 150783.0 119700.0 119700.0 150783.0 150783.0
31379.0 38479.0 92662.0 85729.0 308843.0 307627.0 13089.0 19940.0 152241.0 155029.0 149723.0 148243.0 104854.0 101323.0 301433.0 308258.0 123858.0 130796.0 50353.0 43471.0 66647.0 58858.0 233373.0 233815.0 248501.0 241711.0 186639.0 180037.0 95145.0 97325.0 193067.0 186464.0 27827.0 27229.0 148080.0 145569.0 41870.0 48685.0 123411.0 125088.0 8022.0 0.0 71807.0 79814.0 128811.0 126435.0 307585.0 299351.0 70564.0 61993.0 90336.0 90893.0 40756.0 33369.0 102030.0 94060.0 83416.0 77116.0 123609.0 116933.0 38386.0 34033.0 143425.0 147287.0 62234.0 69576.0 4579.0 10884.0 103898.0 101527.0 71895.0 72248.0 64525.0 66061.0 131587.0 128236.0 135522.0 127526.0 66820.0 58744.0 24159.0 16199.0 34050.0 25888.0 111129.0 111247.0 34175.0 38991.0 77935.0 82748.0 209312.0 208078.0 73281.0 78161.0 51501.0 43598.0 38794.0 46893.0 33455.0 32207.0 98446.0 94405.0 78285.0 76392.0 273492.0 267722.0 129249.0 122840.0 53119.0 54203.0 57005.0 60705.0 28706.0 34146.0 39137.0 35164.0 95374.0 88610.0 64723.0 72437.0 120848.0 158330.0 120848.0 120848.0 158330.0 158330.0
100148.0 108088.0 159889.0 152247.0 295270.0 295917.0 84183.0 88880.0 141696.0 140643.0 97637.0 93143.0 175553.0 171238.0 291860.0 297836.0 195082.0 201772.0 97799.0 95812.0 137884.0 129841.0 224505.0 222338.0 223938.0 216185.0 166172.0 158334.0 164066.0 167297.0 168325.0 160504.0 99509.0 97425.0 78244.0 77190.0 59471.0 55149.0 134308.0 131558.0 68664.0 71807.0 0.0 8254.0 200528.0 198242.0 285327.0 277297.0 58337.0 55740.0 87509.0 93815.0 95163.0 87022.0 83189.0 77185.0 77684.0 78487.0 54841.0 49634.0 78364.0 70543.0 71667.0 75852.0 35972.0 32794.0 72110.0 80270.0 173569.0 172096.0 97042.0 103055.0 127118.0 125243.0 70666.0 64820.0 111180.0 103016.0 138092.0 130214.0 94273.0 87145.0 56892.0 59962.0 100907.0 95970.0 96188.0 95827.0 148048.0 151696.0 198347.0 194364.0 92033.0 100491.0 52992.0 53334.0 94836.0 100117.0 55882.0 64053.0 170124.0 166211.0 150091.0 148015.0 257872.0 250857.0 74380.0 71185.0 77336.0 70333.0 78260.0 86183.0 94440.0 95333.0 45826.0 42537.0 166900.0 159861.0 88154.0 91340.0 183973.0 166018.0 183973.0 183973.0 166018.0 166018.0
107745.0 115722.0 167072.0 159371.0 292696.0 293555.0 92070.0 96572.0 140639.0 139125.0 95322.0 90280.0 183747.0 179465.0 289787.0 295616.0 203238.0 209953.0 103834.0 102268.0 145675.0 137596.0 222812.0 220352.0 220394.0 212570.0 163564.0 155658.0 171454.0 174832.0 165163.0 157270.0 107446.0 105166.0 71500.0 71011.0 65037.0 59996.0 135924.0 132722.0 76435.0 79814.0 8254.0 0.0 208594.0 206230.0 281789.0 273810.0 60387.0 58907.0 92662.0 99303.0 101784.0 93789.0 82620.0 77192.0 79183.0 80832.0 48827.0 44380.0 84495.0 76834.0 63611.0 67661.0 42191.0 37821.0 80224.0 88418.0 181049.0 179725.0 101134.0 107502.0 135340.0 133406.0 66908.0 60494.0 108932.0 100950.0 146229.0 138323.0 102442.0 95260.0 63223.0 66890.0 100826.0 95387.0 103324.0 102607.0 155635.0 159115.0 196593.0 192314.0 95668.0 104186.0 57502.0 58774.0 103034.0 108240.0 63977.0 72151.0 178200.0 174211.0 158089.0 155896.0 255209.0 248082.0 72051.0 69705.0 84790.0 77591.0 85535.0 93473.0 101856.0 102425.0 53849.0 50760.0 174741.0 167636.0 92418.0 95019.0 190633.0 166783.0 190633.0 190633.0 166783.0 166783.0
104256.0 96387.0 68525.0 74285.0 379254.0 377313.0 116996.0 113902.0 238352.0 244391.0 264570.0 265376.0 30724.0 38616.0 371042.0 377894.0 13306.0 16595.0 128667.0 123763.0 66132.0 74288.0 303812.0 306527.0 334467.0 329486.0 276117.0 271869.0 58761.0 51038.0 285960.0 281526.0 101517.0 105220.0 275041.0 271602.0 157924.0 166109.0 194906.0 201162.0 132958.0 128811.0 200528.0 208594.0 0.0 8543.0 385848.0 377913.0 185665.0 178132.0 183241.0 178191.0 121859.0 126049.0 209293.0 202626.0 188651.0 180268.0 250392.0 243199.0 139838.0 143778.0 272191.0 276095.0 183884.0 192100.0 128449.0 120426.0 50293.0 44189.0 156640.0 150112.0 88382.0 95450.0 253761.0 252015.0 238166.0 232068.0 62876.0 70430.0 106664.0 113434.0 153911.0 146933.0 208898.0 213052.0 113835.0 119102.0 62465.0 65047.0 284377.0 286559.0 163699.0 161363.0 169725.0 162951.0 115563.0 115422.0 151494.0 144607.0 30421.0 34958.0 50867.0 54824.0 347127.0 342964.0 248082.0 240522.0 148881.0 156104.0 151810.0 147804.0 111706.0 115145.0 161167.0 160615.0 38893.0 47075.0 156919.0 163302.0 92852.0 223554.0 92852.0 92852.0 223554.0 223554.0
100576.0 92594.0 61116.0 67236.0 371921.0 369981.0 114268.0 110668.0 231577.0 237733.0 264963.0 265508.0 34118.0 42335.0 363709.0 370562.0 20429.0 24950.0 123286.0 118735.0 62019.0 70271.0 296479.0 299194.0 327315.0 322426.0 269310.0 265194.0 51422.0 43823.0 279281.0 274976.0 98821.0 101949.0 273558.0 270352.0 153818.0 161971.0 187851.0 194231.0 130143.0 126435.0 198242.0 206230.0 8543.0 0.0 378515.0 370580.0 181088.0 173727.0 184793.0 180044.0 116988.0 121610.0 203906.0 197389.0 183339.0 174933.0 248924.0 241844.0 135281.0 139586.0 269833.0 273532.0 183013.0 191182.0 126368.0 118533.0 42494.0 36896.0 150724.0 144011.0 90155.0 97558.0 253178.0 251169.0 232268.0 226329.0 61806.0 68855.0 105034.0 111445.0 150177.0 143436.0 202931.0 207284.0 109475.0 114350.0 56824.0 58606.0 277045.0 279244.0 157926.0 155276.0 165602.0 159022.0 115760.0 116221.0 150560.0 143938.0 29401.0 32042.0 48153.0 50956.0 339794.0 335632.0 247936.0 240481.0 149494.0 156490.0 152572.0 148959.0 107822.0 110757.0 160021.0 159058.0 33534.0 41674.0 151377.0 157560.0 84514.0 216221.0 84514.0 84514.0 216221.0 216221.0
306006.0 310306.0 317399.0 311665.0 37772.0 45511.0 308756.0 304599.0 155600.0 152565.0 361249.0 353661.0 380746.0 382597.0 54703.0 51147.0 390186.0 397890.0 270668.0 278271.0 330239.0 324586.0 84356.0 79828.0 61399.0 69235.0 121574.0 128799.0 327120.0 334812.0 117335.0 124984.0 317363.0 309421.0 305284.0 312277.0 266389.0 260956.0 192902.0 188087.0 299566.0 307585.0 285327.0 281789.0 385848.0 378515.0 0.0 8235.0 241027.0 248920.0 371732.0 377131.0 281392.0 282969.0 208657.0 216470.0 224784.0 230529.0 303349.0 306293.0 271692.0 273987.0 276458.0 269716.0 319626.0 317968.0 311819.0 317570.0 336257.0 341688.0 241011.0 244634.0 367838.0 371536.0 329872.0 321873.0 176031.0 184465.0 349891.0 342996.0 326312.0 319298.0 274748.0 282347.0 196658.0 197576.0 292640.0 284740.0 326732.0 321865.0 101650.0 100780.0 236861.0 234821.0 259091.0 266390.0 346379.0 354469.0 322868.0 328635.0 365664.0 357732.0 347715.0 340018.0 41035.0 43250.0 341524.0 343091.0 350091.0 345957.0 352752.0 359579.0 298991.0 291409.0 317217.0 309759.0 348813.0 341353.0 245564.0 237610.0 320764.0 164164.0 320764.0 320764.0 164164.0 164164.0
297825.0 302149.0 309464.0 303730.0 38521.0 45743.0 300534.0 296389.0 147376.0 144331.0 353718.0 346158.0 372734.0 374547.0 53717.0 51322.0 382275.0 389988.0 262504.0 270098.0 322186.0 316503.0 76973.0 72147.0 53428.0 61327.0 113360.0 120605.0 319185.0 326877.0 109217.0 116895.0 309166.0 301228.0 297994.0 304932.0 258155.0 252728.0 184836.0 179969.0 291332.0 299351.0 277297.0 273810.0 377913.0 370580.0 8235.0 0.0 232817.0 240702.0 363630.0 369006.0 273215.0 274767.0 200455.0 208263.0 216553.0 222294.0 295771.0 298639.0 263472.0 265756.0 269158.0 262473.0 311534.0 309918.0 303584.0 309338.0 328322.0 333753.0 232829.0 236483.0 359630.0 363317.0 322301.0 314296.0 167868.0 176301.0 341776.0 334862.0 318092.0 311072.0 266515.0 274113.0 188425.0 189355.0 284460.0 276564.0 318760.0 313938.0 93637.0 92635.0 228655.0 226645.0 250867.0 258162.0 338145.0 346235.0 314663.0 320419.0 357688.0 349765.0 339678.0 331996.0 34353.0 35737.0 333880.0 335377.0 341888.0 337770.0 344555.0 351373.0 290800.0 283227.0 309034.0 301569.0 340894.0 333412.0 237356.0 229402.0 312829.0 156343.0 312829.0 312829.0 156343.0 156343.0
82644.0 89997.0 129597.0 121610.0 246127.0 245868.0 76242.0 75511.0 88864.0 89719.0 155605.0 150666.0 167483.0 165777.0 240689.0 247199.0 184032.0 191645.0 60059.0 62871.0 119565.0 111497.0 172503.0 171499.0 180687.0 173532.0 119459.0 112286.0 136533.0 141969.0 124555.0 117512.0 89555.0 83278.0 125923.0 127493.0 29566.0 21950.0 75984.0 73495.0 62874.0 70564.0 58337.0 60387.0 185665.0 181088.0 241027.0 232817.0 0.0 8574.0 134240.0 138547.0 64263.0 59634.0 32491.0 24578.0 19666.0 20491.0 106586.0 103599.0 45831.0 42557.0 108221.0 108482.0 84209.0 85445.0 74147.0 81382.0 146988.0 148162.0 44732.0 52341.0 134909.0 136619.0 127135.0 120410.0 65938.0 57677.0 129788.0 121542.0 93219.0 85246.0 36583.0 44816.0 46180.0 43648.0 71871.0 66766.0 124862.0 125398.0 146936.0 144243.0 37761.0 46114.0 19087.0 26973.0 108275.0 116026.0 81874.0 87648.0 157127.0 151012.0 135936.0 130918.0 209498.0 203099.0 132315.0 129474.0 109111.0 105318.0 111870.0 118576.0 74821.0 70548.0 76816.0 69146.0 147582.0 139517.0 37576.0 37306.0 146755.0 108273.0 146755.0 146755.0 108273.0 108273.0
74672.0 82153.0 123410.0 115410.0 253423.0 253017.0 67758.0 67217.0 95921.0 97168.0 153377.0 148798.0 159444.0 157601.0 247639.0 254242.0 176220.0 183794.0 54114.0 56170.0 112000.0 103874.0 179403.0 178634.0 188753.0 181657.0 127351.0 120276.0 130032.0 135240.0 132706.0 125741.0 81236.0 75106.0 126943.0 127966.0 21150.0 13389.0 79765.0 78030.0 54301.0 61993.0 55740.0 58907.0 178132.0 173727.0 248920.0 240702.0 8574.0 0.0 127772.0 131791.0 57301.0 52121.0 40702.0 32721.0 25437.0 23487.0 106532.0 102960.0 38517.0 34560.0 110904.0 111736.0 78702.0 80613.0 65593.0 72808.0 140434.0 141312.0 42858.0 49893.0 126337.0 128050.0 125789.0 119384.0 74249.0 66043.0 121626.0 113359.0 84674.0 76692.0 28010.0 36245.0 53207.0 51358.0 64302.0 59621.0 117787.0 118671.0 154028.0 151579.0 36857.0 45389.0 10548.0 18410.0 99777.0 107557.0 74211.0 79725.0 149358.0 143377.0 128153.0 123327.0 216959.0 210655.0 130117.0 126801.0 101433.0 97931.0 104297.0 110851.0 66896.0 63001.0 69676.0 61912.0 140272.0 132257.0 34698.0 36245.0 141709.0 113029.0 141709.0 141709.0 113029.0 113029.0
117715.0 122312.0 173638.0 168266.0 379601.0 379670.0 100233.0 108188.0 222995.0 223325.0 86211.0 89417.0 152801.0 145532.0 374779.0 381173.0 172984.0 177161.0 140110.0 133652.0 140450.0 135231.0 306668.0 305411.0 310458.0 302824.0 251233.0 243592.0 172827.0 172087.0 254417.0 246750.0 107781.0 112331.0 120518.0 113709.0 117041.0 118919.0 204914.0 204542.0 95494.0 90336.0 87509.0 92662.0 183241.0 184793.0 371732.0 363630.0 134240.0 127772.0 0.0 8160.0 131043.0 123328.0 164982.0 157722.0 153194.0 150382.0 100271.0 92695.0 124828.0 117924.0 134319.0 141498.0 52157.0 54881.0 86313.0 88007.0 178907.0 173787.0 156444.0 158925.0 94859.0 88005.0 88027.0 90684.0 196092.0 187703.0 126134.0 121726.0 93910.0 93191.0 109230.0 104755.0 180401.0 177226.0 124073.0 129324.0 154465.0 161604.0 280941.0 277842.0 155199.0 162074.0 119325.0 113991.0 72234.0 69452.0 58698.0 58137.0 155967.0 156254.0 142862.0 145677.0 342561.0 335840.0 76898.0 68870.0 39388.0 36216.0 35462.0 36484.0 117772.0 124210.0 59153.0 66945.0 162887.0 159051.0 147839.0 154339.0 205338.0 239442.0 205338.0 205338.0 239442.0 239442.0
116974.0 121112.0 171387.0 166296.0 384376.0 384306.0 100021.0 107952.0 227406.0 227978.0 93535.0 97009.0 147613.0 140185.0 379233.0 385713.0 167637.0 171577.0 141086.0 134361.0 137715.0 132868.0 311049.0 309977.0 315937.0 308354.0 256330.0 248752.0 170135.0 169050.0 259796.0 252187.0 106487.0 111517.0 128678.0 121866.0 119996.0 122371.0 207944.0 207863.0 96566.0 90893.0 93815.0 99303.0 178191.0 180044.0 377131.0 369006.0 138547.0 131791.0 8160.0 0.0 131635.0 124171.0 169730.0 162340.0 157226.0 154046.0 108358.0 100758.0 126561.0 119944.0 142309.0 149449.0 58057.0 61489.0 86686.0 87602.0 175835.0 170453.0 158750.0 160848.0 89906.0 82753.0 96140.0 98842.0 201270.0 192857.0 122346.0 118369.0 92337.0 92319.0 111985.0 107026.0 184722.0 181823.0 124112.0 129740.0 151830.0 159174.0 285449.0 282535.0 157898.0 164519.0 122996.0 117309.0 69428.0 65831.0 60637.0 58974.0 151473.0 152123.0 139182.0 142394.0 347456.0 340818.0 84889.0 76884.0 38364.0 36891.0 34362.0 33588.0 117577.0 124338.0 62411.0 70254.0 159189.0 155692.0 150308.0 157033.0 203519.0 242642.0 203519.0 203519.0 242642.0 242642.0
24642.0 29407.0 66908.0 58950.0 278861.0 277010.0 33214.0 26231.0 126545.0 130981.0 184744.0 182233.0 106095.0 105676.0 270738.0 277591.0 121150.0 128910.0 11271.0 3279.0 56141.0 48418.0 203042.0 204550.0 224785.0 218687.0 163443.0 157856.0 72953.0 77963.0 171684.0 166091.0 36609.0 28533.0 173264.0 172342.0 39187.0 46820.0 90490.0 93948.0 35949.0 40756.0 95163.0 101784.0 121859.0 116988.0 281392.0 273215.0 64263.0 57301.0 131043.0 131635.0 0.0 8555.0 88000.0 81023.0 67276.0 59023.0 149981.0 144434.0 19002.0 25389.0 162541.0 164701.0 97782.0 103915.0 44964.0 45498.0 83276.0 84011.0 40415.0 37256.0 87284.0 92020.0 162910.0 158267.0 118696.0 111874.0 70389.0 62739.0 48235.0 43392.0 38685.0 35438.0 90357.0 93228.0 11298.0 3353.0 60599.0 61406.0 180633.0 180658.0 45442.0 46570.0 50408.0 45245.0 72889.0 80767.0 73253.0 72910.0 94212.0 87604.0 73287.0 67484.0 245007.0 239906.0 162911.0 157356.0 93687.0 94952.0 97617.0 100819.0 18189.0 10149.0 76756.0 70743.0 83455.0 75343.0 37253.0 44811.0 88850.0 124359.0 88850.0 88850.0 124359.0 124359.0
24257.0 30807.0 73984.0 66105.0 281549.0 279832.0 27684.0 21913.0 127594.0 131579.0 176189.0 173687.0 108521.0 107465.0 273574.0 280427.0 124515.0 132179.0 16993.0 10482.0 59933.0 51869.0 205744.0 206921.0 225596.0 219299.0 163949.0 158065.0 79469.0 84025.0 171733.0 165857.0 34458.0 26678.0 165209.0 164157.0 32657.0 40643.0 93725.0 96551.0 27908.0 33369.0 87022.0 93789.0 126049.0 121610.0 282969.0 274767.0 59634.0 52121.0 123328.0 124171.0 8555.0 0.0 85589.0 78263.0 64992.0 57035.0 141792.0 136155.0 13899.0 18403.0 155065.0 157428.0 89254.0 95362.0 37756.0 39350.0 89629.0 89807.0 42399.0 40787.0 84905.0 89011.0 154439.0 149854.0 117302.0 110134.0 71658.0 63659.0 44182.0 38330.0 31033.0 27121.0 89707.0 91880.0 12245.0 8819.0 65963.0 67584.0 182774.0 182419.0 46128.0 48759.0 44278.0 38407.0 67722.0 75766.0 65211.0 65269.0 97578.0 91381.0 76422.0 71284.0 247203.0 241897.0 154368.0 148802.0 86487.0 87367.0 90374.0 93938.0 16529.0 10915.0 68389.0 62269.0 88176.0 80196.0 37481.0 45397.0 96959.0 128140.0 96959.0 96959.0 128140.0 128140.0
109738.0 116348.0 147979.0 140240.0 214654.0 214693.0 106286.0 104356.0 58657.0 58370.0 176422.0 170544.0 193927.0 193050.0 209956.0 216249.0 209110.0 216888.0 80640.0 85779.0 144080.0 136417.0 142055.0 140489.0 148209.0 141041.0 87137.0 79868.0 156070.0 162385.0 92064.0 85046.0 118341.0 111342.0 137397.0 140746.0 60205.0 53543.0 59318.0 53959.0 94143.0 102030.0 83189.0 82620.0 209293.0 203906.0 208657.0 200455.0 32491.0 40702.0 164982.0 169730.0 88000.0 85589.0 0.0 7999.0 20724.0 29042.0 122273.0 121160.0 71933.0 71088.0 114453.0 112465.0 113730.0 113724.0 105849.0 112690.0 166562.0 169002.0 54942.0 62728.0 165772.0 167974.0 146002.0 138535.0 33578.0 25497.0 157230.0 149175.0 123720.0 115936.0 68044.0 76144.0 18774.0 12788.0 97539.0 91032.0 147082.0 146117.0 116115.0 112860.0 47070.0 52282.0 51169.0 58864.0 140268.0 148120.0 114216.0 120115.0 182191.0 175458.0 161285.0 155386.0 177750.0 171192.0 153462.0 151948.0 141435.0 137393.0 144108.0 150927.0 101887.0 96176.0 108721.0 101176.0 170512.0 162322.0 52631.0 47244.0 160498.0 85675.0 160498.0 160498.0 85675.0 85675.0
102322.0 109062.0 142225.0 134413.0 222055.0 221979.0 98461.0 96680.0 65432.0 65639.0 171755.0 166096.0 186731.0 185710.0 217076.0 223451.0 202172.0 209926.0 74126.0 78922.0 137161.0 129413.0 149045.0 147689.0 156113.0 148973.0 94914.0 87712.0 150110.0 156268.0 100006.0 93021.0 110693.0 103786.0 134884.0 137817.0 52259.0 45547.0 61330.0 56800.0 86185.0 94060.0 77185.0 77192.0 202626.0 197389.0 216470.0 208263.0 24578.0 32721.0 157722.0 162340.0 81023.0 78263.0 7999.0 0.0 14177.0 22576.0 118663.0 117096.0 64511.0 63366.0 113073.0 111621.0 106753.0 107060.0 97865.0 104736.0 160619.0 162815.0 49858.0 57822.0 157879.0 160028.0 141731.0 134416.0 41577.0 33475.0 149832.0 141738.0 115855.0 108045.0 60060.0 68172.0 23723.0 19504.0 90305.0 83989.0 140586.0 139902.0 123228.0 120196.0 41868.0 47949.0 43174.0 50865.0 132272.0 140122.0 106403.0 112226.0 175230.0 168601.0 154247.0 148496.0 185258.0 178768.0 148658.0 146813.0 133633.0 129695.0 136345.0 143112.0 94456.0 88943.0 101074.0 93483.0 163929.0 155748.0 46574.0 41926.0 155671.0 89876.0 155671.0 155671.0 89876.0 89876.0
89197.0 95702.0 128055.0 120238.0 228326.0 227796.0 86626.0 84231.0 70737.0 72439.0 174503.0 169336.0 173229.0 172420.0 222302.0 228952.0 188391.0 196167.0 60054.0 65064.0 123361.0 115693.0 154057.0 153428.0 165203.0 158336.0 103429.0 96681.0 135934.0 142105.0 109651.0 103095.0 98130.0 90974.0 141837.0 144067.0 41714.0 36269.0 56746.0 53912.0 75421.0 83416.0 77684.0 79183.0 188651.0 183339.0 224784.0 216553.0 19666.0 25437.0 153194.0 157226.0 67276.0 64992.0 20724.0 14177.0 0.0 8419.0 123863.0 121450.0 51451.0 51208.0 121861.0 121126.0 103696.0 105088.0 87467.0 93833.0 146443.0 148664.0 36012.0 44036.0 146330.0 148912.0 145476.0 138517.0 52769.0 45272.0 136650.0 128633.0 104204.0 96580.0 49998.0 57760.0 28224.0 27871.0 76874.0 70312.0 126522.0 125754.0 128804.0 126583.0 28015.0 34707.0 34751.0 41699.0 122078.0 130076.0 99237.0 104369.0 161469.0 154752.0 140561.0 134672.0 192061.0 185893.0 151233.0 148656.0 126382.0 123156.0 129357.0 135724.0 81368.0 75511.0 95054.0 87265.0 149907.0 141721.0 32398.0 28001.0 141771.0 88619.0 141771.0 141771.0 88619.0 88619.0
81283.0 87642.0 119697.0 111867.0 232984.0 232211.0 79531.0 76749.0 75568.0 77966.0 175959.0 171098.0 165058.0 164356.0 226402.0 233193.0 180086.0 187870.0 51647.0 56754.0 115056.0 107429.0 158191.0 157952.0 171423.0 164704.0 109542.0 103039.0 127539.0 133693.0 116271.0 109935.0 90543.0 83248.0 145856.0 147672.0 36044.0 31821.0 56292.0 54624.0 69095.0 77116.0 78487.0 80832.0 180268.0 174933.0 230529.0 222294.0 20491.0 23487.0 150382.0 154046.0 59023.0 57035.0 29042.0 22576.0 8419.0 0.0 126953.0 124067.0 43692.0 44114.0 127005.0 126678.0 102056.0 104096.0 81305.0 87310.0 138050.0 140248.0 28216.0 36262.0 139275.0 142112.0 147620.0 140900.0 60333.0 53101.0 128659.0 120691.0 97169.0 89686.0 44492.0 51860.0 34038.0 35031.0 68795.0 62097.0 118113.0 117337.0 133330.0 131540.0 20301.0 27703.0 31065.0 37104.0 115898.0 123965.0 95076.0 99736.0 153176.0 146420.0 132306.0 126355.0 197059.0 191071.0 152670.0 149672.0 122014.0 119242.0 125138.0 131233.0 73490.0 67434.0 91652.0 83812.0 141510.0 133322.0 24030.0 20170.0 133739.0 89649.0 133739.0 133739.0 89649.0 89649.0
153563.0 161324.0 214115.0 206581.0 319271.0 321170.0 136530.0 142053.0 176440.0 173250.0 58119.0 50887.0 223491.0 218235.0 318823.0 323894.0 243654.0 249812.0 152534.0 150652.0 190255.0 182444.0 254388.0 250676.0 242937.0 234884.0 192297.0 184326.0 217837.0 220623.0 191164.0 183168.0 151364.0 150330.0 24648.0 22365.0 113853.0 108746.0 179700.0 175461.0 121769.0 123609.0 54841.0 48827.0 250392.0 248924.0 303349.0 295771.0 106586.0 106532.0 100271.0 108358.0 149981.0 141792.0 122273.0 118663.0 123863.0 126953.0 0.0 7871.0 133133.0 125359.0 35042.0 42716.0 67926.0 59746.0 122977.0 130510.0 227058.0 225063.0 149268.0 155909.0 170158.0 166440.0 26537.0 18525.0 141428.0 134606.0 187516.0 180115.0 143891.0 137655.0 111710.0 114686.0 141046.0 134371.0 150615.0 150581.0 201255.0 205417.0 228349.0 222868.0 143363.0 151892.0 106137.0 107599.0 138094.0 141291.0 99416.0 106923.0 220059.0 216970.0 200982.0 199803.0 281803.0 274212.0 38714.0 42115.0 110975.0 102797.0 109998.0 117296.0 148379.0 149819.0 89411.0 89866.0 218835.0 212204.0 140737.0 142768.0 238750.0 207941.0 238750.0 238750.0 207941.0 207941.0
147176.0 154869.0 207970.0 200503.0 321393.0 323109.0 129917.0 135622.0 176455.0 173600.0 56481.0 49855.0 216111.0 210779.0 320498.0 325715.0 236318.0 242420.0 147412.0 145227.0 183539.0 175792.0 255475.0 251998.0 245607.0 237572.0 193754.0 185764.0 211488.0 214120.0 193099.0 185088.0 144613.0 143809.0 32023.0 28638.0 109046.0 104323.0 177731.0 173790.0 115381.0 116933.0 49634.0 44380.0 243199.0 241844.0 306293.0 298639.0 103599.0 102960.0 92695.0 100758.0 144434.0 136155.0 121160.0 117096.0 121450.0 124067.0 7871.0 0.0 127966.0 120098.0 41985.0 49488.0 60302.0 52090.0 116149.0 123563.0 220601.0 218453.0 145448.0 151877.0 162508.0 158716.0 25062.0 17383.0 141932.0 134839.0 180335.0 173004.0 136820.0 130722.0 106457.0 109035.0 139911.0 133489.0 144657.0 144910.0 194735.0 199060.0 229346.0 224082.0 139810.0 148341.0 101877.0 102857.0 130514.0 133604.0 92011.0 99433.0 212901.0 209930.0 193981.0 192956.0 283866.0 276343.0 35253.0 37323.0 103143.0 94963.0 102142.0 109430.0 142185.0 143900.0 82091.0 82839.0 211996.0 205457.0 136775.0 139184.0 233058.0 206777.0 233058.0 233058.0 206777.0 206777.0
37814.0 44652.0 85830.0 77854.0 271483.0 270041.0 37090.0 33283.0 116101.0 119655.0 171072.0 168003.0 122376.0 121207.0 263782.0 270635.0 138410.0 146077.0 19458.0 18449.0 73758.0 65730.0 195810.0 196591.0 213669.0 207213.0 151859.0 145749.0 91954.0 96909.0 159270.0 153198.0 46900.0 39558.0 155940.0 155431.0 20395.0 27840.0 85079.0 87018.0 31028.0 38386.0 78364.0 84495.0 139838.0 135281.0 271692.0 263472.0 45831.0 38517.0 124828.0 126561.0 19002.0 13899.0 71933.0 64511.0 51451.0 43692.0 133133.0 127966.0 0.0 8078.0 144157.0 146104.0 85814.0 91035.0 42959.0 46904.0 102270.0 102887.0 33509.0 34374.0 96387.0 99846.0 147605.0 142504.0 104023.0 96700.0 85322.0 77244.0 54620.0 47723.0 21542.0 21314.0 76978.0 78696.0 26131.0 21125.0 79278.0 80366.0 172237.0 171470.0 35361.0 39783.0 31416.0 26609.0 76046.0 84210.0 66134.0 67886.0 111469.0 105231.0 90319.0 85119.0 236611.0 231089.0 148676.0 143635.0 90116.0 89740.0 93817.0 98348.0 29955.0 24789.0 67206.0 60182.0 101796.0 93760.0 26648.0 34546.0 106667.0 119965.0 106667.0 106667.0 119965.0 119965.0
40118.0 47611.0 92160.0 84234.0 274826.0 273594.0 35441.0 33340.0 118472.0 121545.0 162996.0 159926.0 124932.0 123251.0 267401.0 274229.0 141673.0 149237.0 27438.0 25504.0 77672.0 69490.0 199340.0 199809.0 215344.0 208712.0 153455.0 147079.0 97835.0 102427.0 160375.0 154043.0 47387.0 40788.0 148326.0 147682.0 14296.0 22393.0 89866.0 91210.0 26175.0 34033.0 70543.0 76834.0 143778.0 139586.0 273987.0 265756.0 42557.0 34560.0 117924.0 119944.0 25389.0 18403.0 71088.0 63366.0 51208.0 44114.0 125359.0 120098.0 8078.0 0.0 137154.0 139326.0 77901.0 83021.0 38494.0 43606.0 108021.0 108189.0 39000.0 41004.0 95181.0 98027.0 139577.0 134523.0 103961.0 96325.0 87260.0 79032.0 53062.0 45589.0 13650.0 13535.0 78062.0 78977.0 30176.0 26855.0 84289.0 85984.0 175327.0 174202.0 39454.0 45020.0 26028.0 20020.0 72611.0 80760.0 59338.0 61684.0 114830.0 108943.0 93622.0 88954.0 239560.0 233856.0 140599.0 135561.0 84125.0 83266.0 87727.0 92636.0 32337.0 28938.0 59789.0 52598.0 106255.0 98345.0 31099.0 38598.0 113965.0 124850.0 113965.0 113965.0 124850.0 124850.0
170883.0 178911.0 229004.0 221158.0 295078.0 297614.0 155628.0 159895.0 161878.0 157355.0 87051.0 79047.0 247045.0 242520.0 296224.0 300743.0 266686.0 273310.0 162729.0 162526.0 209090.0 200961.0 234402.0 229827.0 217274.0 209220.0 171603.0 163834.0 233958.0 237705.0 168664.0 160843.0 171032.0 168547.0 28841.0 35963.0 123814.0 117070.0 173765.0 168274.0 139897.0 143425.0 71667.0 63611.0 272191.0 269833.0 276458.0 269158.0 108221.0 110904.0 134319.0 142309.0 162541.0 155065.0 114453.0 113073.0 121861.0 127005.0 35042.0 41985.0 144157.0 137154.0 0.0 7817.0 96087.0 88504.0 143775.0 151911.0 243773.0 242806.0 152935.0 160425.0 196765.0 193964.0 57995.0 50890.0 125767.0 120344.0 209735.0 201877.0 165878.0 158809.0 124033.0 128962.0 132499.0 124969.0 165466.0 163810.0 218659.0 221730.0 208977.0 202710.0 145930.0 154164.0 113816.0 117552.0 164309.0 168583.0 124837.0 132849.0 241790.0 237819.0 221697.0 219422.0 258008.0 250221.0 71642.0 76306.0 140674.0 132650.0 140271.0 147925.0 164656.0 164464.0 114505.0 112989.0 238212.0 231010.0 145388.0 145503.0 250760.0 197841.0 250760.0 250760.0 197841.0 197841.0
174049.0 182100.0 231411.0 223518.0 288839.0 291498.0 159263.0 163232.0 157971.0 153169.0 94623.0 86590.0 251404.0 247060.0 290298.0 294704.0 270889.0 277613.0 164367.0 164535.0 212449.0 204275.0 229091.0 224343.0 210824.0 202780.0 166291.0 158592.0 236631.0 240587.0 162968.0 155209.0 174718.0 171922.0 35717.0 43197.0 125712.0 118689.0 171739.0 165996.0 143417.0 147287.0 75852.0 67661.0 276095.0 273532.0 269716.0 262473.0 108482.0 111736.0 141498.0 149449.0 164701.0 157428.0 112465.0 111621.0 121126.0 126678.0 42716.0 49488.0 146104.0 139326.0 7817.0 0.0 102037.0 94635.0 147849.0 156070.0 246557.0 245826.0 153192.0 160819.0 201947.0 199369.0 65788.0 58706.0 121832.0 116784.0 213864.0 205924.0 170101.0 162880.0 126439.0 131740.0 130159.0 122501.0 168115.0 166110.0 221666.0 224480.0 203848.0 197427.0 145994.0 154100.0 115334.0 119518.0 169489.0 173997.0 130019.0 138096.0 245732.0 241565.0 225450.0 222931.0 251882.0 244064.0 79453.0 84115.0 146731.0 138768.0 146462.0 154180.0 167623.0 167073.0 119687.0 117775.0 241617.0 234302.0 145921.0 145608.0 252484.0 194778.0 252484.0 252484.0 194778.0 194778.0
93613.0 100582.0 154854.0 147962.0 328029.0 328286.0 75176.0 82118.0 172185.0 172075.0 87626.0 86009.0 156177.0 150652.0 323680.0 329932.0 176502.0 182435.0 104144.0 99553.0 126993.0 119743.0 255761.0 254189.0 258328.0 250680.0 199364.0 191670.0 156964.0 158588.0 202335.0 194642.0 88426.0 89327.0 92305.0 88110.0 72511.0 72166.0 158018.0 156680.0 63304.0 62234.0 35972.0 42191.0 183884.0 183013.0 319626.0 311534.0 84209.0 78702.0 52157.0 58057.0 97782.0 89254.0 113730.0 106753.0 103696.0 102056.0 67926.0 60302.0 85814.0 77901.0 96087.0 102037.0 0.0 8262.0 60214.0 66464.0 165298.0 162230.0 113255.0 117387.0 102234.0 98647.0 70413.0 68160.0 144187.0 135830.0 121229.0 114274.0 78639.0 73552.0 66125.0 64507.0 129947.0 126207.0 94591.0 97198.0 139306.0 144641.0 229844.0 226452.0 110373.0 118128.0 71699.0 68010.0 70221.0 73408.0 32456.0 39380.0 153796.0 151386.0 135706.0 135540.0 290859.0 284050.0 67066.0 60613.0 44722.0 36865.0 44697.0 52560.0 90315.0 94191.0 23531.0 27405.0 154491.0 148517.0 104206.0 109554.0 182844.0 191700.0 182844.0 182844.0 191700.0 191700.0
100913.0 108027.0 162236.0 155247.0 327300.0 327758.0 82601.0 89356.0 172365.0 171868.0 80904.0 78862.0 164436.0 158914.0 323415.0 329538.0 184756.0 190696.0 109747.0 105531.0 134840.0 127507.0 255716.0 253876.0 256595.0 248870.0 198346.0 190568.0 164555.0 166324.0 200841.0 193062.0 96150.0 96767.0 84076.0 79848.0 76475.0 75308.0 160328.0 158595.0 70138.0 69576.0 32794.0 37821.0 192100.0 191182.0 317968.0 309918.0 85445.0 80613.0 54881.0 61489.0 103915.0 95362.0 113724.0 107060.0 105088.0 104096.0 59746.0 52090.0 91035.0 83021.0 88504.0 94635.0 8262.0 0.0 67784.0 74279.0 173009.0 170065.0 117099.0 121648.0 110421.0 106736.0 62447.0 59992.0 143206.0 134931.0 129412.0 122410.0 86664.0 81401.0 70670.0 69848.0 130545.0 126365.0 101294.0 103510.0 147006.0 152200.0 229674.0 226009.0 113735.0 121704.0 74466.0 71544.0 78462.0 81548.0 40628.0 47635.0 161988.0 159515.0 143795.0 143516.0 289997.0 283073.0 59734.0 53630.0 52174.0 44151.0 51828.0 59574.0 97308.0 100830.0 31411.0 34453.0 162492.0 156438.0 108006.0 112937.0 189830.0 193544.0 189830.0 189830.0 193544.0 193544.0
33796.0 40424.0 94713.0 87966.0 313257.0 312071.0 15185.0 22761.0 156547.0 159254.0 147417.0 146155.0 103759.0 99912.0 305889.0 312721.0 123054.0 129856.0 54749.0 47748.0 67471.0 59898.0 237819.0 238219.0 252623.0 245798.0 190782.0 184132.0 96776.0 98619.0 197100.0 190446.0 28546.0 29200.0 147533.0 144781.0 45812.0 52373.0 127969.0 129610.0 12345.0 4579.0 72110.0 80224.0 128449.0 126368.0 311819.0 303584.0 74147.0 65593.0 86313.0 86686.0 44964.0 37756.0 105849.0 97865.0 87467.0 81305.0 122977.0 116149.0 42959.0 38494.0 143775.0 147849.0 60214.0 67784.0 0.0 8408.0 105269.0 102572.0 76469.0 76820.0 61408.0 62545.0 130064.0 126961.0 139384.0 131340.0 66016.0 58104.0 22465.0 15036.0 37806.0 29760.0 115285.0 115258.0 37861.0 43069.0 79265.0 84435.0 213702.0 212414.0 77804.0 82729.0 55060.0 47184.0 34617.0 42661.0 30266.0 28282.0 98033.0 94329.0 78243.0 76826.0 277849.0 272051.0 127278.0 120711.0 48763.0 50121.0 52674.0 56222.0 31981.0 37933.0 36822.0 33652.0 95860.0 89332.0 69263.0 76958.0 123494.0 162894.0 123494.0 123494.0 162894.0 162894.0
29859.0 35411.0 89330.0 82921.0 318234.0 316877.0 12531.0 20384.0 162077.0 165075.0 152977.0 152046.0 95434.0 91522.0 310631.0 317484.0 114820.0 121571.0 56077.0 48547.0 60561.0 53288.0 242629.0 243267.0 258730.0 252004.0 196845.0 190332.0 90753.0 92142.0 203455.0 196926.0 22077.0 24650.0 155114.0 152164.0 52486.0 59471.0 131844.0 133922.0 18555.0 10884.0 80270.0 88418.0 120426.0 118533.0 317570.0 309338.0 81382.0 72808.0 88007.0 87602.0 45498.0 39350.0 112690.0 104736.0 93833.0 87310.0 130510.0 123563.0 46904.0 43606.0 151911.0 156070.0 66464.0 74279.0 8408.0 0.0 98873.0 95787.0 80159.0 79715.0 53643.0 55300.0 136715.0 133892.0 146131.0 138182.0 57825.0 50010.0 14089.0 7169.0 44823.0 36617.0 121348.0 121696.0 36756.0 43113.0 72906.0 78541.0 218831.0 217792.0 82222.0 86506.0 62337.0 54432.0 29152.0 37319.0 35072.0 31263.0 90004.0 86520.0 70488.0 69476.0 283116.0 277447.0 133364.0 126584.0 49248.0 51928.0 53247.0 55659.0 30008.0 37127.0 42934.0 40755.0 88511.0 82229.0 73539.0 81396.0 119091.0 166617.0 119091.0 119091.0 166617.0 166617.0
73521.0 65738.0 19247.0 26463.0 329663.0 327723.0 90823.0 85005.0 190186.0 196581.0 251585.0 250868.0 56256.0 62449.0 321451.0 328304.0 57273.0 64357.0 87178.0 84264.0 38925.0 45608.0 254221.0 256937.0 285208.0 280451.0 227808.0 223966.0 10515.0 6852.0 238027.0 234010.0 76872.0 76810.0 251309.0 249196.0 122206.0 130025.0 145992.0 152590.0 105294.0 103898.0 173569.0 181049.0 50293.0 42494.0 336257.0 328322.0 146988.0 140434.0 178907.0 175835.0 83276.0 89629.0 166562.0 160619.0 146443.0 138050.0 227058.0 220601.0 102270.0 108021.0 243773.0 246557.0 165298.0 173009.0 105269.0 98873.0 0.0 8039.0 112091.0 104840.0 91554.0 99706.0 235333.0 232127.0 193126.0 187697.0 55050.0 57609.0 87814.0 91862.0 120290.0 114838.0 163717.0 168661.0 78475.0 81287.0 26005.0 22088.0 234787.0 236958.0 119698.0 116031.0 133634.0 128035.0 106673.0 110089.0 133737.0 128724.0 40193.0 33313.0 38585.0 33644.0 297536.0 293374.0 232236.0 225412.0 140314.0 145862.0 143987.0 142513.0 79203.0 79555.0 141774.0 138886.0 21669.0 20999.0 114054.0 119441.0 44275.0 173963.0 44275.0 44275.0 173963.0 173963.0
71981.0 64010.0 24339.0 30377.0 335094.0 333154.0 88542.0 83232.0 194762.0 200987.0 247911.0 247428.0 48248.0 54411.0 326882.0 333735.0 50130.0 57431.0 88874.0 85291.0 35239.0 42689.0 259652.0 262367.0 290427.0 285530.0 232474.0 228431.0 14574.0 6940.0 242512.0 238301.0 74030.0 74785.0 249445.0 247084.0 122463.0 130423.0 150957.0 157358.0 103511.0 101527.0 172096.0 179725.0 44189.0 36896.0 341688.0 333753.0 148162.0 141312.0 173787.0 170453.0 84011.0 89807.0 169002.0 162815.0 148664.0 140248.0 225063.0 218453.0 102887.0 108189.0 242806.0 245826.0 162230.0 170065.0 102572.0 95787.0 8039.0 0.0 115006.0 108009.0 84910.0 93060.0 232492.0 229527.0 196396.0 190723.0 48742.0 52092.0 84068.0 88679.0 120006.0 114144.0 166996.0 171663.0 78220.0 81770.0 24161.0 22919.0 240218.0 242412.0 122440.0 119261.0 134053.0 128123.0 101640.0 104623.0 130330.0 124966.0 32154.0 25339.0 31951.0 28112.0 302967.0 298805.0 228962.0 222002.0 135545.0 141368.0 139141.0 137320.0 78204.0 79378.0 138707.0 136217.0 13805.0 14763.0 116376.0 122131.0 52073.0 179394.0 52073.0 52073.0 179394.0 179394.0
64998.0 69620.0 93285.0 85658.0 239150.0 237453.0 69533.0 64304.0 86183.0 90828.0 194080.0 190009.0 144396.0 144750.0 231189.0 238042.0 157750.0 165612.0 30051.0 37350.0 93348.0 86434.0 163346.0 164550.0 184448.0 178430.0 123291.0 117932.0 101654.0 108256.0 131870.0 126585.0 76485.0 68484.0 169788.0 170805.0 40743.0 42364.0 51688.0 54165.0 64470.0 71895.0 97042.0 101134.0 156640.0 150724.0 241011.0 232829.0 44732.0 42858.0 156444.0 158750.0 40415.0 42399.0 54942.0 49858.0 36012.0 28216.0 149268.0 145448.0 33509.0 39000.0 152935.0 153192.0 113255.0 117099.0 76469.0 80159.0 112091.0 115006.0 0.0 8047.0 127164.0 131405.0 167670.0 161561.0 81548.0 75717.0 110178.0 102791.0 86517.0 80276.0 47626.0 51734.0 52260.0 56657.0 51634.0 43768.0 94182.0 92305.0 140467.0 140314.0 8000.0 6380.0 44110.0 45594.0 109203.0 117345.0 98115.0 100683.0 131189.0 123932.0 111038.0 104291.0 204887.0 199668.0 170996.0 167001.0 123118.0 122191.0 126726.0 131566.0 58035.0 50398.0 97648.0 90093.0 117756.0 109592.0 9100.0 8047.0 105814.0 86491.0 105814.0 105814.0 86491.0 86491.0
61819.0 65687.0 85906.0 78379.0 241611.0 239754.0 68435.0 62527.0 90712.0 95814.0 199583.0 195721.0 138891.0 139595.0 233482.0 240335.0 151650.0 159520.0 26176.0 34022.0 87738.0 81148.0 165796.0 167382.0 188882.0 183062.0 128188.0 123137.0 94454.0 101205.0 137159.0 132151.0 73845.0 65773.0 176781.0 177602.0 45225.0 47969.0 53248.0 56792.0 65230.0 72248.0 103055.0 107502.0 150112.0 144011.0 244634.0 236483.0 52341.0 49893.0 158925.0 160848.0 37256.0 40787.0 62728.0 57822.0 44036.0 36262.0 155909.0 151877.0 34374.0 41004.0 160425.0 160819.0 117387.0 121648.0 76820.0 79715.0 104840.0 108009.0 8047.0 0.0 124540.0 129191.0 173719.0 167774.0 88388.0 82859.0 105586.0 98459.0 84833.0 79113.0 51291.0 54325.0 58988.0 63833.0 48541.0 40544.0 87741.0 85457.0 143579.0 143854.0 16024.0 11266.0 50088.0 50605.0 108437.0 116512.0 100302.0 102257.0 125283.0 117880.0 105472.0 98479.0 207892.0 202895.0 176608.0 172374.0 124477.0 124071.0 128188.0 132633.0 55370.0 47405.0 100629.0 93262.0 111281.0 103155.0 15218.0 16094.0 97865.0 87390.0 97865.0 97865.0 87390.0 87390.0
62847.0 60525.0 92809.0 90303.0 366126.0 364291.0 59745.0 63254.0 212347.0 216038.0 177340.0 178732.0 58008.0 50999.0 358019.0 364872.0 78344.0 83016.0 98446.0 90527.0 58403.0 57545.0 290302.0 291691.0 310056.0 303581.0 248236.0 242054.0 88493.0 85241.0 255468.0 249209.0 50726.0 58783.0 194468.0 189927.0 105696.0 112962.0 177769.0 181142.0 72048.0 64525.0 127118.0 135340.0 88382.0 90155.0 367838.0 359630.0 134909.0 126337.0 94859.0 89906.0 87284.0 84905.0 165772.0 157879.0 146330.0 139275.0 170158.0 162508.0 96387.0 95181.0 196765.0 201947.0 102234.0 110421.0 61408.0 53643.0 91554.0 84910.0 127164.0 124540.0 0.0 8154.0 169446.0 168780.0 198996.0 191203.0 36668.0 36621.0 42128.0 49836.0 98327.0 90092.0 173112.0 174148.0 76012.0 84010.0 71853.0 80150.0 267628.0 267324.0 130978.0 133474.0 115916.0 108013.0 32461.0 29047.0 71940.0 63920.0 61910.0 63503.0 53008.0 58491.0 332051.0 326791.0 162315.0 154493.0 62011.0 69799.0 64488.0 59751.0 69221.0 77135.0 82275.0 84581.0 72166.0 70561.0 122274.0 130228.0 125530.0 211398.0 125530.0 125530.0 211398.0 211398.0
67940.0 66353.0 100765.0 98094.0 370547.0 368768.0 62821.0 67137.0 215947.0 219392.0 171420.0 173073.0 64863.0 57527.0 362530.0 369383.0 84980.0 89267.0 103263.0 95289.0 66235.0 65007.0 294733.0 295925.0 313317.0 306727.0 251439.0 245105.0 96581.0 93385.0 258383.0 251976.0 55447.0 63513.0 190567.0 185773.0 107770.0 114744.0 182431.0 185530.0 73855.0 66061.0 125243.0 133406.0 95450.0 97558.0 371536.0 363317.0 136619.0 128050.0 88005.0 82753.0 92020.0 89011.0 167974.0 160028.0 148912.0 142112.0 166440.0 158716.0 99846.0 98027.0 193964.0 199369.0 98647.0 106736.0 62545.0 55300.0 99706.0 93060.0 131405.0 129191.0 8154.0 0.0 164631.0 164286.0 201375.0 193460.0 44792.0 44431.0 45225.0 52439.0 100103.0 91911.0 176089.0 176780.0 80842.0 88809.0 79812.0 88087.0 271738.0 271216.0 134834.0 137756.0 117544.0 109647.0 30605.0 25382.0 69521.0 61372.0 69646.0 71489.0 61161.0 66604.0 336165.0 330780.0 157036.0 149137.0 56847.0 64850.0 58991.0 53659.0 73842.0 81898.0 79803.0 82814.0 80285.0 78714.0 126094.0 134062.0 133371.0 216364.0 133371.0 133371.0 216364.0 216364.0
162720.0 170053.0 224045.0 216867.0 345738.0 347586.0 144671.0 151107.0 201516.0 198652.0 31671.0 24800.0 225380.0 219405.0 345139.0 350269.0 245843.0 251443.0 167011.0 164044.0 197275.0 189897.0 280379.0 276810.0 269474.0 261421.0 218495.0 210513.0 226727.0 228677.0 217565.0 209562.0 158525.0 158814.0 34883.0 27010.0 129700.0 125786.0 202012.0 198286.0 131316.0 131587.0 70666.0 66908.0 253761.0 253178.0 329872.0 322301.0 127135.0 125789.0 88027.0 96140.0 162910.0 154439.0 146002.0 141731.0 145476.0 147620.0 26537.0 25062.0 147605.0 139577.0 57995.0 65788.0 70413.0 62447.0 130064.0 136715.0 235333.0 232492.0 167670.0 173719.0 169446.0 164631.0 0.0 8030.0 166961.0 159896.0 191373.0 184577.0 149052.0 143844.0 126112.0 127582.0 164726.0 158402.0 161836.0 163013.0 209329.0 214335.0 254276.0 248935.0 162460.0 170960.0 123656.0 123713.0 138735.0 140452.0 102784.0 109242.0 223871.0 221688.0 206078.0 205945.0 308253.0 300679.0 13938.0 20347.0 107800.0 99785.0 105919.0 112287.0 158540.0 161219.0 93853.0 96468.0 224904.0 218885.0 158810.0 161793.0 250648.0 231534.0 250648.0 250648.0 231534.0 231534.0
159132.0 166606.0 220348.0 213059.0 337709.0 339561.0 141320.0 147517.0 193757.0 190820.0 39691.0 32697.0 224039.0 218270.0 337129.0 342249.0 244439.0 250213.0 161952.0 159276.0 194375.0 186858.0 272427.0 268830.0 261454.0 253402.0 210502.0 202521.0 223332.0 225526.0 209541.0 201539.0 155498.0 155408.0 30104.0 23025.0 124183.0 119946.0 194925.0 191069.0 127520.0 128236.0 64820.0 60494.0 252015.0 251169.0 321873.0 314296.0 120410.0 119384.0 90684.0 98842.0 158267.0 149854.0 138535.0 134416.0 138517.0 140900.0 18525.0 17383.0 142504.0 134523.0 50890.0 58706.0 68160.0 59992.0 126961.0 133892.0 232127.0 229527.0 161561.0 167774.0 168780.0 164286.0 8030.0 0.0 159095.0 152081.0 189388.0 182400.0 146575.0 141052.0 120967.0 122848.0 157282.0 150872.0 157664.0 158507.0 206145.0 210915.0 246337.0 240967.0 156162.0 164680.0 117686.0 118108.0 137562.0 139734.0 100609.0 107421.0 221955.0 219502.0 203756.0 203316.0 300225.0 292649.0 20806.0 25733.0 107642.0 99522.0 106032.0 112731.0 154658.0 156996.0 91295.0 93311.0 222325.0 216119.0 152773.0 155512.0 246410.0 224138.0 246410.0 246410.0 224138.0 224138.0
141558.0 147733.0 174069.0 166669.0 184121.0 184743.0 139348.0 136979.0 36140.0 31902.0 198361.0 191760.0 224723.0 224350.0 180856.0 186716.0 238953.0 246794.0 110133.0 116164.0 174130.0 166794.0 114158.0 111444.0 115168.0 107846.0 55180.0 47500.0 182787.0 189591.0 58889.0 51645.0 150839.0 143580.0 152154.0 156957.0 93660.0 87115.0 62399.0 54637.0 127604.0 135522.0 111180.0 108932.0 238166.0 232268.0 176031.0 167868.0 65938.0 74249.0 196092.0 201270.0 118696.0 117302.0 33578.0 41577.0 52769.0 60333.0 141428.0 141932.0 104023.0 103961.0 125767.0 121832.0 144187.0 143206.0 139384.0 146131.0 193126.0 196396.0 81548.0 88388.0 198996.0 201375.0 166961.0 159095.0 0.0 8434.0 188816.0 180915.0 156885.0 149187.0 101585.0 109651.0 29411.0 25472.0 128891.0 121888.0 175701.0 173797.0 87919.0 83393.0 74515.0 77143.0 84738.0 92442.0 173835.0 181696.0 147238.0 153362.0 212206.0 205140.0 191646.0 185279.0 146791.0 139894.0 176193.0 175863.0 174385.0 170017.0 176928.0 183908.0 133792.0 127536.0 141254.0 133868.0 199274.0 191100.0 81777.0 74951.0 183483.0 75084.0 183483.0 183483.0 75084.0 75084.0
134378.0 140717.0 168749.0 161237.0 192371.0 192912.0 131637.0 129475.0 41956.0 38783.0 191182.0 184693.0 217968.0 217412.0 188892.0 194823.0 232535.0 240359.0 103663.0 109437.0 167596.0 160144.0 121920.0 119414.0 123593.0 116256.0 63539.0 55899.0 177298.0 183966.0 67311.0 60027.0 143395.0 136240.0 146171.0 150713.0 85696.0 79009.0 61999.0 54598.0 119637.0 127526.0 103016.0 100950.0 232068.0 226329.0 184465.0 176301.0 57677.0 66043.0 187703.0 192857.0 111874.0 110134.0 25497.0 33475.0 45272.0 53101.0 134606.0 134839.0 96700.0 96325.0 120344.0 116784.0 135830.0 134931.0 131340.0 138182.0 187697.0 190723.0 75717.0 82859.0 191203.0 193460.0 159896.0 152081.0 8434.0 0.0 181755.0 173792.0 149123.0 141372.0 93534.0 101640.0 24618.0 19060.0 121865.0 115020.0 169627.0 168007.0 95684.0 91393.0 68403.0 71705.0 76558.0 84305.0 165732.0 173563.0 138841.0 145000.0 205715.0 198755.0 185023.0 178808.0 155084.0 148226.0 168853.0 168336.0 165978.0 161589.0 168510.0 175503.0 126573.0 120506.0 132825.0 125447.0 193181.0 184994.0 75280.0 68777.0 179018.0 78498.0 179018.0 179018.0 78498.0 78498.0
47510.0 41095.0 56691.0 55079.0 344912.0 343013.0 55965.0 54594.0 196215.0 201006.0 203729.0 204019.0 38285.0 35992.0 336741.0 343594.0 57056.0 63989.0 80131.0 73172.0 23734.0 26252.0 269469.0 271751.0 294447.0 288547.0 233467.0 228064.0 51870.0 48634.0 241951.0 236449.0 40899.0 46520.0 212165.0 208765.0 100588.0 108707.0 157177.0 161807.0 71841.0 66820.0 138092.0 146229.0 62876.0 61806.0 349891.0 341776.0 129788.0 121626.0 126134.0 122346.0 70389.0 71658.0 157230.0 149832.0 136650.0 128659.0 187516.0 180335.0 85322.0 87260.0 209735.0 213864.0 121229.0 129412.0 66016.0 57825.0 55050.0 48742.0 110178.0 105586.0 36668.0 44792.0 191373.0 189388.0 188816.0 181755.0 0.0 8311.0 43899.0 50989.0 95202.0 87539.0 160723.0 163354.0 59926.0 67110.0 35870.0 44211.0 248452.0 249163.0 115752.0 116015.0 112185.0 104781.0 54856.0 56682.0 88784.0 82135.0 32589.0 30688.0 16906.0 21829.0 312399.0 307747.0 186264.0 178880.0 88983.0 95539.0 92330.0 89695.0 55380.0 61281.0 98345.0 97753.0 36852.0 34136.0 107643.0 115147.0 89809.0 189257.0 89809.0 89809.0 189257.0 189257.0
39439.0 33341.0 56444.0 53685.0 338563.0 336634.0 47707.0 46290.0 188932.0 193594.0 197721.0 197784.0 46574.0 44242.0 330362.0 337215.0 65128.0 72160.0 72750.0 65604.0 21804.0 21648.0 262998.0 265124.0 287195.0 281219.0 226062.0 220564.0 52973.0 50905.0 234413.0 228827.0 32592.0 38263.0 204757.0 201500.0 92306.0 100418.0 150500.0 154927.0 63613.0 58744.0 130214.0 138323.0 70430.0 68855.0 342996.0 334862.0 121542.0 113359.0 121726.0 118369.0 62739.0 63659.0 149175.0 141738.0 128633.0 120691.0 180115.0 173004.0 77244.0 79032.0 201877.0 205924.0 114274.0 122410.0 58104.0 50010.0 57609.0 52092.0 102791.0 98459.0 36621.0 44431.0 184577.0 182400.0 180915.0 173792.0 8311.0 0.0 36255.0 43068.0 86892.0 79230.0 152968.0 155466.0 52079.0 59430.0 35541.0 43742.0 241676.0 242229.0 108172.0 108716.0 103890.0 96475.0 49713.0 52549.0 81825.0 75463.0 40015.0 37114.0 21742.0 24033.0 305754.0 300998.0 179821.0 172538.0 83797.0 89990.0 87299.0 85248.0 47290.0 53425.0 91183.0 90267.0 41508.0 37338.0 99965.0 107548.0 88942.0 182886.0 88942.0 88942.0 182886.0 182886.0
26525.0 29032.0 80163.0 74456.0 325621.0 323969.0 17654.0 22308.0 170722.0 174199.0 163862.0 163374.0 81356.0 77448.0 317703.0 324556.0 100812.0 107517.0 59463.0 51500.0 48959.0 42441.0 249839.0 250884.0 268161.0 261618.0 206301.0 200038.0 80421.0 80991.0 213401.0 207103.0 14443.0 21121.0 168528.0 165357.0 63801.0 71287.0 137900.0 140681.0 30803.0 24159.0 94273.0 102442.0 106664.0 105034.0 326312.0 318092.0 93219.0 84674.0 93910.0 92337.0 48235.0 44182.0 123720.0 115855.0 104204.0 97169.0 143891.0 136820.0 54620.0 53062.0 165878.0 170101.0 78639.0 86664.0 22465.0 14089.0 87814.0 84068.0 86517.0 84833.0 42128.0 45225.0 149052.0 146575.0 156885.0 149123.0 43899.0 36255.0 0.0 8087.0 56749.0 48535.0 131055.0 132021.0 37620.0 45250.0 62171.0 68588.0 226634.0 226026.0 89677.0 92891.0 74387.0 66527.0 25702.0 33062.0 46390.0 40928.0 76261.0 73115.0 57224.0 56937.0 291050.0 285613.0 144996.0 137963.0 54524.0 58946.0 58453.0 59015.0 30329.0 38448.0 55283.0 54028.0 75857.0 70039.0 80930.0 88896.0 111434.0 172222.0 111434.0 111434.0 172222.0 172222.0
24666.0 29297.0 82718.0 76485.0 319126.0 317593.0 10743.0 17211.0 163701.0 167012.0 159847.0 159012.0 88826.0 85161.0 311321.0 318174.0 108036.0 114871.0 54410.0 46587.0 53444.0 46257.0 243398.0 244282.0 260896.0 254291.0 199013.0 192666.0 83872.0 85112.0 205956.0 199585.0 15306.0 19198.0 162253.0 159327.0 55897.0 63302.0 131874.0 134365.0 22718.0 16199.0 87145.0 95260.0 113434.0 111445.0 319298.0 311072.0 85246.0 76692.0 93191.0 92319.0 43392.0 38330.0 115936.0 108045.0 96580.0 89686.0 137655.0 130722.0 47723.0 45589.0 158809.0 162880.0 73552.0 81401.0 15036.0 7169.0 91862.0 88679.0 80276.0 79113.0 49836.0 52439.0 143844.0 141052.0 149187.0 141372.0 50989.0 43068.0 8087.0 0.0 48731.0 40507.0 123651.0 124431.0 33572.0 40667.0 65928.0 71725.0 219951.0 219179.0 83009.0 86655.0 66369.0 58497.0 29516.0 37479.0 41919.0 37567.0 83015.0 79420.0 63368.0 62307.0 284333.0 278806.0 140385.0 133554.0 54013.0 57409.0 58012.0 59656.0 26406.0 34177.0 50028.0 47922.0 81341.0 75074.0 74264.0 82209.0 112936.0 166420.0 112936.0 112936.0 166420.0 166420.0
49660.0 57591.0 104997.0 97132.0 277444.0 276595.0 40150.0 40648.0 120057.0 122273.0 150003.0 146746.0 133369.0 131003.0 270634.0 277499.0 150957.0 158359.0 40999.0 39049.0 88172.0 79913.0 202484.0 202394.0 215176.0 208262.0 153426.0 146639.0 110259.0 114485.0 159467.0 152733.0 54368.0 49053.0 134722.0 134036.0 8462.0 14649.0 96005.0 96287.0 26295.0 34050.0 56892.0 63223.0 153911.0 150177.0 274748.0 266515.0 36583.0 28010.0 109230.0 111985.0 38685.0 31033.0 68044.0 60060.0 49998.0 44492.0 111710.0 106457.0 21542.0 13650.0 124033.0 126439.0 66125.0 70670.0 37806.0 44823.0 120290.0 120006.0 47626.0 51291.0 98327.0 100103.0 126112.0 120967.0 101585.0 93534.0 95202.0 86892.0 56749.0 48731.0 0.0 8237.0 78094.0 77631.0 41838.0 39790.0 95919.0 98204.0 177782.0 176030.0 45970.0 52984.0 17639.0 9797.0 72282.0 80205.0 51701.0 55609.0 124373.0 118956.0 103248.0 99257.0 241550.0 235539.0 127441.0 122595.0 78085.0 76030.0 81391.0 87130.0 42375.0 40737.0 50175.0 42529.0 117164.0 109436.0 38777.0 45110.0 127471.0 130820.0 127471.0 127471.0 130820.0 130820.0
42888.0 50919.0 100259.0 92514.0 284547.0 283577.0 32112.0 33190.0 127368.0 129804.0 150197.0 147356.0 125777.0 123229.0 277543.0 284393.0 143625.0 150959.0 39955.0 36462.0 81545.0 73286.0 209394.0 209482.0 222957.0 216094.0 161151.0 154440.0 104997.0 108847.0 167360.0 160688.0 46644.0 41770.0 138194.0 137051.0 16060.0 22874.0 101617.0 102367.0 18072.0 25888.0 59962.0 66890.0 146933.0 143436.0 282347.0 274113.0 44816.0 36245.0 104755.0 107026.0 35438.0 27121.0 76144.0 68172.0 57760.0 51860.0 114686.0 109035.0 21314.0 13535.0 128962.0 131740.0 64507.0 69848.0 29760.0 36617.0 114838.0 114144.0 51734.0 54325.0 90092.0 91911.0 127582.0 122848.0 109651.0 101640.0 87539.0 79230.0 48535.0 40507.0 8237.0 0.0 85708.0 85513.0 36545.0 35896.0 89989.0 92778.0 184895.0 183323.0 51174.0 57507.0 25865.0 17992.0 64336.0 72317.0 46401.0 49448.0 117182.0 111982.0 96142.0 92480.0 248827.0 242898.0 128018.0 122757.0 71995.0 70574.0 75459.0 80812.0 36002.0 35592.0 46323.0 39074.0 110670.0 103077.0 43320.0 50306.0 124066.0 136565.0 124066.0 124066.0 136565.0 136565.0
113862.0 119650.0 144670.0 137259.0 200227.0 199815.0 113402.0 110249.0 42728.0 44219.0 195047.0 189233.0 196067.0 195976.0 194528.0 201076.0 209908.0 217762.0 81307.0 87677.0 145249.0 138064.0 126328.0 125432.0 137386.0 130673.0 75511.0 69021.0 153376.0 160185.0 82356.0 76222.0 123829.0 116296.0 155956.0 159424.0 69731.0 64493.0 41911.0 35838.0 103110.0 111129.0 100907.0 100826.0 208898.0 202931.0 196658.0 188425.0 46180.0 53207.0 180401.0 184722.0 90357.0 89707.0 18774.0 23723.0 28224.0 34038.0 141046.0 139911.0 76978.0 78062.0 132499.0 130159.0 129947.0 130545.0 115285.0 121348.0 163717.0 166996.0 52260.0 58988.0 173112.0 176089.0 164726.0 157282.0 29411.0 24618.0 160723.0 152968.0 131055.0 123651.0 78094.0 85708.0 0.0 7909.0 100899.0 93617.0 146442.0 144424.0 100835.0 98417.0 45465.0 47737.0 62906.0 69923.0 149895.0 157943.0 127340.0 132573.0 183247.0 176086.0 162851.0 156320.0 163865.0 157672.0 172032.0 170360.0 154523.0 151137.0 157451.0 163890.0 106231.0 99560.0 122833.0 115096.0 170015.0 161852.0 53143.0 45961.0 154464.0 66901.0 154464.0 154464.0 66901.0 66901.0
116133.0 122267.0 149737.0 142204.0 202601.0 202486.0 114417.0 111778.0 46009.0 46165.0 188966.0 183005.0 199273.0 198878.0 197574.0 203947.0 213632.0 221465.0 84767.0 90711.0 148747.0 141368.0 129562.0 128187.0 137604.0 130639.0 76024.0 69063.0 158254.0 164908.0 81848.0 75230.0 125569.0 118236.0 148764.0 152400.0 69453.0 63508.0 49787.0 43570.0 103263.0 111247.0 95970.0 95387.0 213052.0 207284.0 197576.0 189355.0 43648.0 51358.0 177226.0 181823.0 93228.0 91880.0 12788.0 19504.0 27871.0 35031.0 134371.0 133489.0 78696.0 78977.0 124969.0 122501.0 126207.0 126365.0 115258.0 121696.0 168661.0 171663.0 56657.0 63833.0 174148.0 176780.0 158402.0 150872.0 25472.0 19060.0 163354.0 155466.0 132021.0 124431.0 77631.0 85513.0 7909.0 0.0 103427.0 96417.0 150601.0 148947.0 103725.0 100726.0 49363.0 52714.0 61529.0 68928.0 149848.0 157815.0 125482.0 131082.0 186847.0 179834.0 166231.0 159926.0 165876.0 159453.0 166062.0 164641.0 152719.0 148962.0 155508.0 162164.0 108386.0 102074.0 120413.0 112775.0 174162.0 165977.0 56386.0 49750.0 160365.0 73696.0 160365.0 160365.0 73696.0 73696.0
13366.0 18852.0 63749.0 56062.0 290151.0 288294.0 24225.0 16497.0 137681.0 142008.0 182143.0 180104.0 96426.0 95562.0 282022.0 288875.0 112279.0 119951.0 22444.0 14519.0 47708.0 39627.0 214333.0 215848.0 235889.0 229740.0 174455.0 168775.0 68519.0 72648.0 182552.0 176853.0 25396.0 17331.0 174405.0 172953.0 44464.0 52563.0 101758.0 105246.0 31313.0 34175.0 96188.0 103324.0 113835.0 109475.0 292640.0 284460.0 71871.0 64302.0 124073.0 124112.0 11298.0 12245.0 97539.0 90305.0 76874.0 68795.0 150615.0 144657.0 26131.0 30176.0 165466.0 168115.0 94591.0 101294.0 37861.0 36756.0 78475.0 78220.0 51634.0 48541.0 76012.0 80842.0 161836.0 157664.0 128891.0 121865.0 59926.0 52079.0 37620.0 33572.0 41838.0 36545.0 100899.0 103427.0 0.0 7999.0 54205.0 56388.0 191924.0 191921.0 56387.0 57827.0 56199.0 49954.0 62794.0 70506.0 67580.0 66141.0 85338.0 79141.0 64192.0 59052.0 256302.0 251191.0 160875.0 154924.0 85842.0 87857.0 89824.0 92414.0 7295.0 1363.0 72405.0 67199.0 76096.0 68170.0 48009.0 55724.0 88814.0 135524.0 88814.0 88814.0 135524.0 135524.0
21310.0 26090.0 65320.0 57410.0 282155.0 280295.0 30701.0 23458.0 129897.0 134324.0 184399.0 182029.0 102971.0 102465.0 274024.0 280876.0 118199.0 125942.0 14457.0 6522.0 53237.0 45425.0 206338.0 207869.0 228136.0 222033.0 166785.0 161186.0 71040.0 75833.0 175007.0 169397.0 33373.0 25299.0 174023.0 172946.0 40935.0 48744.0 93759.0 97264.0 34713.0 38991.0 95827.0 102607.0 119102.0 114350.0 284740.0 276564.0 66766.0 59621.0 129324.0 129740.0 3353.0 8819.0 91032.0 83989.0 70312.0 62097.0 150581.0 144910.0 21125.0 26855.0 163810.0 166110.0 97198.0 103510.0 43069.0 43113.0 81287.0 81770.0 43768.0 40544.0 84010.0 88809.0 163013.0 158507.0 121888.0 115020.0 67110.0 59430.0 45250.0 40667.0 39790.0 35896.0 93617.0 96417.0 7999.0 0.0 58167.0 59316.0 183964.0 184004.0 48769.0 49919.0 52360.0 46857.0 70108.0 77931.0 71876.0 71198.0 91250.0 84728.0 70265.0 64597.0 248333.0 243242.0 162727.0 157050.0 91665.0 93168.0 95615.0 98622.0 15040.0 6914.0 75787.0 70002.0 80829.0 72752.0 40542.0 48132.0 88170.0 127556.0 88170.0 88170.0 127556.0 127556.0
47900.0 39985.0 20956.0 19599.0 320192.0 318251.0 64873.0 59254.0 176875.0 182645.0 225736.0 224937.0 54425.0 57625.0 311980.0 318832.0 64256.0 72112.0 66468.0 62144.0 14198.0 19750.0 244750.0 247433.0 273941.0 268653.0 214651.0 210118.0 18377.0 19393.0 224202.0 219543.0 50880.0 50930.0 225570.0 223348.0 98582.0 106605.0 134453.0 140237.0 79554.0 77935.0 148048.0 155635.0 62465.0 56824.0 326732.0 318760.0 124862.0 117787.0 154465.0 151830.0 60599.0 65963.0 147082.0 140586.0 126522.0 118113.0 201255.0 194735.0 79278.0 84289.0 218659.0 221666.0 139306.0 147006.0 79265.0 72906.0 26005.0 24161.0 94182.0 87741.0 71853.0 79812.0 209329.0 206145.0 175701.0 169627.0 35870.0 35541.0 62171.0 65928.0 95919.0 89989.0 146442.0 150601.0 54205.0 58167.0 0.0 8344.0 225135.0 226804.0 101243.0 98972.0 110241.0 104155.0 82406.0 86596.0 107835.0 102990.0 38935.0 31015.0 23743.0 15610.0 288065.0 283911.0 206267.0 199477.0 115485.0 120694.0 119249.0 118301.0 54043.0 55393.0 115786.0 112887.0 23574.0 15417.0 94569.0 100852.0 53939.0 164492.0 53939.0 53939.0 164492.0 164492.0
51886.0 44309.0 12705.0 11791.0 315280.0 313339.0 69665.0 63464.0 173342.0 179346.0 231518.0 230503.0 60509.0 64378.0 307068.0 313920.0 68372.0 76137.0 65964.0 62546.0 22113.0 26378.0 239838.0 242553.0 269832.0 264711.0 211116.0 206825.0 12430.0 16574.0 220916.0 216488.0 56473.0 55526.0 229582.0 227614.0 100196.0 108058.0 130218.0 136291.0 83679.0 82748.0 151696.0 159115.0 65047.0 58606.0 321865.0 313938.0 125398.0 118671.0 161604.0 159174.0 61406.0 67584.0 146117.0 139902.0 125754.0 117337.0 205417.0 199060.0 80366.0 85984.0 221730.0 224480.0 144641.0 152200.0 84435.0 78541.0 22088.0 22919.0 92305.0 85457.0 80150.0 88087.0 214335.0 210915.0 173797.0 168007.0 44211.0 43742.0 68588.0 71725.0 98204.0 92778.0 144424.0 148947.0 56388.0 59316.0 8344.0 0.0 220384.0 222305.0 99657.0 96722.0 111676.0 105990.0 89768.0 94244.0 113603.0 109120.0 44455.0 36386.0 31510.0 23577.0 283153.0 278990.0 211695.0 205043.0 122461.0 127418.0 126273.0 125602.0 57263.0 57467.0 121185.0 117884.0 26974.0 19598.0 93486.0 99331.0 45598.0 159580.0 45598.0 45598.0 159580.0 159580.0
205273.0 209238.0 215929.0 210178.0 99663.0 98995.0 209276.0 204605.0 58108.0 57807.0 285826.0 279033.0 279100.0 280959.0 93851.0 100265.0 288745.0 296479.0 169726.0 177458.0 228606.0 223019.0 26241.0 24631.0 53969.0 51924.0 37930.0 45342.0 225650.0 233342.0 44674.0 51001.0 216947.0 208931.0 236799.0 242346.0 169321.0 164875.0 91318.0 86812.0 201359.0 209312.0 198347.0 196593.0 284377.0 277045.0 101650.0 93637.0 146936.0 154028.0 280941.0 285449.0 180633.0 182774.0 116115.0 123228.0 128804.0 133330.0 228349.0 229346.0 172237.0 175327.0 208977.0 203848.0 229844.0 229674.0 213702.0 218831.0 234787.0 240218.0 140467.0 143579.0 267628.0 271738.0 254276.0 246337.0 87919.0 95684.0 248452.0 241676.0 226634.0 219951.0 177782.0 184895.0 100835.0 103725.0 191924.0 183964.0 225135.0 220384.0 0.0 8300.0 136968.0 134172.0 163546.0 170260.0 247922.0 256078.0 228035.0 233004.0 264060.0 256144.0 246068.0 238368.0 64430.0 59330.0 263906.0 263740.0 255149.0 251937.0 258155.0 264449.0 198479.0 190729.0 223668.0 215930.0 247351.0 239827.0 145719.0 137759.0 219294.0 63526.0 219294.0 219294.0 63526.0 63526.0
205286.0 209529.0 218129.0 212325.0 101886.0 101843.0 208558.0 204149.0 55972.0 54561.0 280542.0 273650.0 280512.0 282136.0 97502.0 103529.0 290670.0 298441.0 169899.0 177525.0 229778.0 223974.0 31698.0 28060.0 49217.0 46193.0 31140.0 38881.0 227847.0 235530.0 36841.0 43507.0 216747.0 208776.0 230715.0 236408.0 167584.0 162809.0 92462.0 87365.0 200089.0 208078.0 194364.0 192314.0 286559.0 279244.0 100780.0 92635.0 144243.0 151579.0 277842.0 282535.0 180658.0 182419.0 112860.0 120196.0 126583.0 131540.0 222868.0 224082.0 171470.0 174202.0 202710.0 197427.0 226452.0 226009.0 212414.0 217792.0 236958.0 242412.0 140314.0 143854.0 267324.0 271216.0 248935.0 240967.0 83393.0 91393.0 249163.0 242229.0 226026.0 219179.0 176030.0 183323.0 98417.0 100726.0 191921.0 184004.0 226804.0 222305.0 8300.0 0.0 136391.0 134094.0 161315.0 168223.0 246799.0 254937.0 225754.0 230947.0 265679.0 257816.0 247337.0 239739.0 65521.0 59655.0 258815.0 258854.0 252939.0 249492.0 255861.0 262301.0 198334.0 190699.0 221059.0 213372.0 249277.0 241650.0 145126.0 137158.0 221494.0 67000.0 221494.0 221494.0 67000.0 67000.0
69649.0 74848.0 100987.0 93304.0 236133.0 234682.0 72316.0 67762.0 81477.0 85629.0 189474.0 185166.0 150655.0 150721.0 228424.0 235277.0 164474.0 172323.0 35893.0 42583.0 99786.0 92643.0 160449.0 161273.0 179570.0 173368.0 118069.0 112418.0 109235.0 115732.0 126243.0 120699.0 80572.0 72705.0 163424.0 164685.0 38317.0 38440.0 50495.0 51806.0 65557.0 73281.0 92033.0 95668.0 163699.0 157926.0 236861.0 228655.0 37761.0 36857.0 155199.0 157898.0 45442.0 46128.0 47070.0 41868.0 28015.0 20301.0 143363.0 139810.0 35361.0 39454.0 145930.0 145994.0 110373.0 113735.0 77804.0 82222.0 119698.0 122440.0 8000.0 16024.0 130978.0 134834.0 162460.0 156162.0 74515.0 68403.0 115752.0 108172.0 89677.0 83009.0 45970.0 51174.0 45465.0 49363.0 56387.0 48769.0 101243.0 99657.0 136968.0 136391.0 0.0 8532.0 39635.0 42363.0 111374.0 119540.0 97414.0 100598.0 137787.0 130654.0 117400.0 110858.0 201376.0 195946.0 166293.0 162578.0 123137.0 121681.0 126627.0 131847.0 62341.0 55091.0 96108.0 88403.0 124807.0 116625.0 8750.0 867.0 113808.0 85477.0 113808.0 113808.0 85477.0 85477.0
71193.0 75643.0 97047.0 89567.0 232794.0 231082.0 75912.0 70668.0 80218.0 85052.0 197868.0 193609.0 149829.0 150361.0 224819.0 231672.0 162812.0 170680.0 35985.0 43459.0 98705.0 91959.0 156985.0 158223.0 178479.0 172533.0 117489.0 112272.0 105663.0 112449.0 126257.0 121125.0 82776.0 74760.0 171894.0 173195.0 45729.0 46531.0 45338.0 47794.0 70680.0 78161.0 100491.0 104186.0 161363.0 155276.0 234821.0 226645.0 46114.0 45389.0 162074.0 164519.0 46570.0 48759.0 52282.0 47949.0 34707.0 27703.0 151892.0 148341.0 39783.0 45020.0 154164.0 154100.0 118128.0 121704.0 82729.0 86506.0 116031.0 119261.0 6380.0 11266.0 133474.0 137756.0 170960.0 164680.0 77143.0 71705.0 116015.0 108716.0 92891.0 86655.0 52984.0 57507.0 47737.0 52714.0 57827.0 49919.0 98972.0 96722.0 134172.0 134094.0 8532.0 0.0 47914.0 50183.0 115565.0 123709.0 103907.0 106660.0 136379.0 129023.0 116428.0 109534.0 198585.0 193399.0 174706.0 170923.0 129134.0 128057.0 132712.0 137650.0 64308.0 56608.0 103135.0 95512.0 122522.0 114388.0 14235.0 9169.0 108260.0 80183.0 108260.0 108260.0 80183.0 80183.0
65720.0 73412.0 117227.0 109243.0 263076.0 262534.0 57678.0 57615.0 105488.0 107053.0 150017.0 145900.0 150195.0 148101.0 256973.0 263660.0 167353.0 174854.0 49038.0 49762.0 103655.0 95452.0 188726.0 188173.0 199066.0 192013.0 137553.0 130552.0 123346.0 128185.0 143087.0 136174.0 71538.0 65743.0 127715.0 128060.0 11801.0 3638.0 86374.0 85395.0 43868.0 51501.0 52992.0 57502.0 169725.0 165602.0 259091.0 250867.0 19087.0 10548.0 119325.0 122996.0 50408.0 44278.0 51169.0 43174.0 34751.0 31065.0 106137.0 101877.0 31416.0 26028.0 113816.0 115334.0 71699.0 74466.0 55060.0 62337.0 133634.0 134053.0 44110.0 50088.0 115916.0 117544.0 123656.0 117686.0 84738.0 76558.0 112185.0 103890.0 74387.0 66369.0 17639.0 25865.0 62906.0 61529.0 56199.0 52360.0 110241.0 111676.0 163546.0 161315.0 39635.0 47914.0 0.0 7905.0 89231.0 97020.0 64489.0 69687.0 140591.0 134846.0 119393.0 114910.0 226771.0 220551.0 126903.0 123018.0 91633.0 88468.0 94609.0 100986.0 58081.0 54952.0 60624.0 52792.0 132283.0 124369.0 35170.0 38881.0 137159.0 120399.0 137159.0 137159.0 120399.0 120399.0
58746.0 66564.0 112124.0 104180.0 269871.0 269206.0 49934.0 50189.0 112301.0 114136.0 149012.0 145273.0 142886.0 140638.0 263481.0 270242.0 160278.0 167728.0 45429.0 45020.0 97010.0 88770.0 195255.0 194891.0 206528.0 199525.0 144911.0 137990.0 117855.0 122412.0 150639.0 143789.0 64016.0 58466.0 129911.0 129766.0 6326.0 5435.0 90999.0 90579.0 35967.0 43598.0 53334.0 58774.0 162951.0 159022.0 266390.0 258162.0 26973.0 18410.0 113991.0 117309.0 45245.0 38407.0 58864.0 50865.0 41699.0 37104.0 107599.0 102857.0 26609.0 20020.0 117552.0 119518.0 68010.0 71544.0 47184.0 54432.0 128035.0 128123.0 45594.0 50605.0 108013.0 109647.0 123713.0 118108.0 92442.0 84305.0 104781.0 96475.0 66527.0 58497.0 9797.0 17992.0 69923.0 68928.0 49954.0 46857.0 104155.0 105990.0 170260.0 168223.0 42363.0 50183.0 7905.0 0.0 81434.0 89260.0 57973.0 62749.0 133602.0 128021.0 112432.0 108191.0 233723.0 227585.0 126098.0 121774.0 84936.0 82166.0 88037.0 94196.0 51250.0 48763.0 54927.0 47092.0 125837.0 118007.0 36494.0 41544.0 133236.0 125451.0 133236.0 133236.0 125451.0 125451.0
52222.0 54308.0 102051.0 97214.0 347363.0 346025.0 40039.0 46666.0 191004.0 193823.0 149204.0 149831.0 86663.0 80714.0 339782.0 346555.0 107151.0 112713.0 83926.0 76095.0 68309.0 63515.0 271776.0 272380.0 287241.0 280412.0 225396.0 218748.0 100725.0 99853.0 231695.0 225007.0 39985.0 46790.0 162524.0 158238.0 80395.0 86726.0 160889.0 163058.0 46814.0 38794.0 94836.0 103034.0 115563.0 115760.0 346379.0 338145.0 108275.0 99777.0 72234.0 69428.0 72889.0 67722.0 140268.0 132272.0 122078.0 115898.0 138094.0 130514.0 76046.0 72611.0 164309.0 169489.0 70221.0 78462.0 34617.0 29152.0 106673.0 101640.0 109203.0 108437.0 32461.0 30605.0 138735.0 137562.0 173835.0 165732.0 54856.0 49713.0 25702.0 29516.0 72282.0 64336.0 149895.0 149848.0 62794.0 70108.0 82406.0 89768.0 247922.0 246799.0 111374.0 115565.0 89231.0 81434.0 0.0 8167.0 39479.0 31479.0 86385.0 85491.0 71199.0 73531.0 312171.0 306451.0 132565.0 124968.0 34148.0 40765.0 37591.0 35906.0 55523.0 63496.0 49815.0 52325.0 91154.0 86939.0 102687.0 110548.0 134550.0 195588.0 134550.0 134550.0 195588.0 195588.0
59521.0 61030.0 106722.0 102304.0 355526.0 354192.0 48084.0 54538.0 199127.0 201908.0 149223.0 150290.0 85767.0 79292.0 347949.0 354722.0 106276.0 111411.0 91858.0 83990.0 72404.0 68311.0 279942.0 280540.0 295263.0 288411.0 233434.0 226755.0 104752.0 103332.0 239661.0 232937.0 47032.0 54169.0 165527.0 160912.0 88372.0 94582.0 169027.0 171219.0 54908.0 46893.0 100117.0 108240.0 115422.0 116221.0 354469.0 346235.0 116026.0 107557.0 69452.0 65831.0 80767.0 75766.0 148120.0 140122.0 130076.0 123965.0 141291.0 133604.0 84210.0 80760.0 168583.0 173997.0 73408.0 81548.0 42661.0 37319.0 110089.0 104623.0 117345.0 116512.0 29047.0 25382.0 140452.0 139734.0 181696.0 173563.0 56682.0 52549.0 33062.0 37479.0 80205.0 72317.0 157943.0 157815.0 70506.0 77931.0 86596.0 94244.0 256078.0 254937.0 119540.0 123709.0 97020.0 89260.0 8167.0 0.0 44272.0 36102.0 87043.0 86903.0 73436.0 76581.0 320318.0 314588.0 133554.0 125797.0 33507.0 41016.0 36393.0 33041.0 63216.0 71253.0 54506.0 57879.0 93460.0 89862.0 110852.0 118715.0 139846.0 203707.0 139846.0 139846.0 203707.0 203707.0
63979.0 70246.0 124369.0 117852.0 327552.0 327022.0 45399.0 53022.0 169972.0 171379.0 117930.0 117141.0 124099.0 118833.0 321407.0 328127.0 144328.0 150410.0 81749.0 75657.0 95117.0 88133.0 253167.0 252662.0 262346.0 255079.0 201316.0 194084.0 125785.0 126965.0 206103.0 198868.0 57130.0 59170.0 124006.0 120214.0 59929.0 63278.0 147675.0 147961.0 37321.0 33455.0 55882.0 63977.0 151494.0 150560.0 322868.0 314663.0 81874.0 74211.0 58698.0 60637.0 73253.0 65211.0 114216.0 106403.0 99237.0 95076.0 99416.0 92011.0 66134.0 59338.0 124837.0 130019.0 32456.0 40628.0 30266.0 35072.0 133737.0 130330.0 98115.0 100302.0 71940.0 69521.0 102784.0 100609.0 147238.0 138841.0 88784.0 81825.0 46390.0 41919.0 51701.0 46401.0 127340.0 125482.0 67580.0 71876.0 107835.0 113603.0 228035.0 225754.0 97414.0 103907.0 64489.0 57973.0 39479.0 44272.0 0.0 8174.0 121360.0 118938.0 103295.0 103325.0 291165.0 284864.0 98638.0 91694.0 27238.0 24330.0 30121.0 36711.0 62114.0 67486.0 10336.0 14459.0 122216.0 116414.0 89709.0 96547.0 153675.0 182518.0 153675.0 153675.0 182518.0 182518.0
61003.0 66650.0 120269.0 114042.0 332620.0 331933.0 42780.0 50671.0 175045.0 176739.0 122945.0 122580.0 116803.0 111351.0 326120.0 332929.0 137123.0 143073.0 82140.0 75544.0 89888.0 83240.0 257923.0 257634.0 268324.0 261133.0 207061.0 199930.0 121139.0 121908.0 212147.0 205006.0 52863.0 55891.0 131454.0 127455.0 64018.0 68148.0 151063.0 151741.0 37593.0 32207.0 64053.0 72151.0 144607.0 143938.0 328635.0 320419.0 87648.0 79725.0 58137.0 58974.0 72910.0 65269.0 120115.0 112226.0 104369.0 99736.0 106923.0 99433.0 67886.0 61684.0 132849.0 138096.0 39380.0 47635.0 28282.0 31263.0 128724.0 124966.0 100683.0 102257.0 63920.0 61372.0 109242.0 107421.0 153362.0 145000.0 82135.0 75463.0 40928.0 37567.0 55609.0 49448.0 132573.0 131082.0 66141.0 71198.0 102990.0 109120.0 233004.0 230947.0 100598.0 106660.0 69687.0 62749.0 31479.0 36102.0 8174.0 0.0 114634.0 112535.0 97098.0 97585.0 296430.0 290235.0 104407.0 97225.0 22548.0 22106.0 26053.0 31527.0 60115.0 66212.0 18434.0 22276.0 116325.0 110820.0 92587.0 99731.0 150345.0 186013.0 150345.0 150345.0 186013.0 186013.0
74879.0 67220.0 52718.0 55813.0 359125.0 357185.0 86775.0 84025.0 215255.0 220820.0 235586.0 236108.0 16455.0 22272.0 350913.0 357766.0 26955.0 34698.0 102081.0 96424.0 38131.0 45832.0 283683.0 286361.0 312643.0 307258.0 252990.0 248251.0 43775.0 36711.0 262311.0 257425.0 71314.0 75412.0 244705.0 241347.0 128806.0 137004.0 173276.0 178929.0 102756.0 98446.0 170124.0 178200.0 30421.0 29401.0 365664.0 357688.0 157127.0 149358.0 155967.0 151473.0 94212.0 97578.0 182191.0 175230.0 161469.0 153176.0 220059.0 212901.0 111469.0 114830.0 241790.0 245732.0 153796.0 161988.0 98033.0 90004.0 40193.0 32154.0 131189.0 125283.0 61910.0 69646.0 223871.0 221955.0 212206.0 205715.0 32589.0 40015.0 76261.0 83015.0 124373.0 117182.0 183247.0 186847.0 85338.0 91250.0 38935.0 44455.0 264060.0 265679.0 137787.0 136379.0 140591.0 133602.0 86385.0 87043.0 121360.0 114634.0 0.0 8072.0 21207.0 26930.0 326886.0 322844.0 218544.0 211082.0 120200.0 127132.0 123330.0 119919.0 82529.0 86681.0 130932.0 130243.0 19196.0 24953.0 130461.0 137310.0 83749.0 203425.0 83749.0 83749.0 203425.0 203425.0
69305.0 61461.0 44794.0 47749.0 351171.0 349231.0 82318.0 78990.0 207626.0 213265.0 234412.0 234659.0 24377.0 29482.0 342959.0 349812.0 33823.0 41680.0 95094.0 89693.0 31500.0 39516.0 275729.0 278390.0 304884.0 299545.0 245380.0 240714.0 36032.0 29230.0 254784.0 249973.0 66850.0 70294.0 241595.0 238471.0 123045.0 131237.0 165447.0 171169.0 98235.0 94405.0 166211.0 174211.0 34958.0 32042.0 357732.0 349765.0 151012.0 143377.0 156254.0 152123.0 87604.0 91381.0 175458.0 168601.0 154752.0 146420.0 216970.0 209930.0 105231.0 108943.0 237819.0 241565.0 151386.0 159515.0 94329.0 86520.0 33313.0 25339.0 123932.0 117880.0 63503.0 71489.0 221688.0 219502.0 205140.0 198755.0 30688.0 37114.0 73115.0 79420.0 118956.0 111982.0 176086.0 179834.0 79141.0 84728.0 31015.0 36386.0 256144.0 257816.0 130654.0 129023.0 134846.0 128021.0 85491.0 86903.0 118938.0 112535.0 8072.0 0.0 16121.0 20133.0 319044.0 314887.0 216822.0 209482.0 119576.0 126210.0 122865.0 119937.0 76789.0 80466.0 128253.0 127110.0 11738.0 16888.0 123475.0 130198.0 76242.0 195471.0 76242.0 76242.0 195471.0 195471.0
53694.0 46013.0 43029.0 43208.0 341557.0 339617.0 66217.0 63051.0 195931.0 201255.0 219463.0 219503.0 33423.0 34976.0 333345.0 340198.0 48100.0 55760.0 81553.0 75604.0 17736.0 24884.0 266115.0 268802.0 293735.0 288164.0 233565.0 228607.0 36698.0 32446.0 242630.0 237552.0 50743.0 54388.0 225596.0 222547.0 107605.0 115804.0 154887.0 160182.0 82150.0 78285.0 150091.0 158089.0 50867.0 48153.0 347715.0 339678.0 135936.0 128153.0 142862.0 139182.0 73287.0 76422.0 161285.0 154247.0 140561.0 132306.0 200982.0 193981.0 90319.0 93622.0 221697.0 225450.0 135706.0 143795.0 78243.0 70488.0 38585.0 31951.0 111038.0 105472.0 53008.0 61161.0 206078.0 203756.0 191646.0 185023.0 16906.0 21742.0 57224.0 63368.0 103248.0 96142.0 162851.0 166231.0 64192.0 70265.0 23743.0 31510.0 246068.0 247337.0 117400.0 116428.0 119393.0 112432.0 71199.0 73436.0 103295.0 97098.0 21207.0 16121.0 0.0 8219.0 309425.0 305129.0 201492.0 194239.0 105341.0 111661.0 108777.0 106392.0 61324.0 65539.0 112466.0 111144.0 20025.0 17589.0 109870.0 116891.0 76270.0 185857.0 76270.0 76270.0 185857.0 185857.0
49626.0 41667.0 35505.0 35168.0 333733.0 331793.0 63833.0 59801.0 188700.0 194147.0 220426.0 220164.0 40779.0 42940.0 325521.0 332374.0 53744.0 61555.0 75160.0 69608.0 11368.0 19464.0 258291.0 260999.0 286341.0 280845.0 226391.0 221547.0 30063.0 27031.0 235593.0 230629.0 48568.0 51082.0 224349.0 221580.0 103110.0 111291.0 147277.0 152698.0 79535.0 76392.0 148015.0 155896.0 54824.0 50956.0 340018.0 331996.0 130918.0 123327.0 145677.0 142394.0 67484.0 71284.0 155386.0 148496.0 134672.0 126355.0 199803.0 192956.0 85119.0 88954.0 219422.0 222931.0 135540.0 143516.0 76826.0 69476.0 33644.0 28112.0 104291.0 98479.0 58491.0 66604.0 205945.0 203316.0 185279.0 178808.0 21829.0 24033.0 56937.0 62307.0 99257.0 92480.0 156320.0 159926.0 59052.0 64597.0 15610.0 23577.0 238368.0 239739.0 110858.0 109534.0 114910.0 108191.0 73531.0 76581.0 103325.0 97585.0 26930.0 20133.0 8219.0 0.0 301606.0 297368.0 201893.0 194794.0 107474.0 113397.0 111051.0 109215.0 56945.0 60371.0 112106.0 110220.0 19041.0 13428.0 103543.0 110380.0 68795.0 178033.0 68795.0 68795.0 178033.0 178033.0
269643.0 273496.0 278678.0 272944.0 37573.0 39616.0 273670.0 269033.0 121493.0 119799.0 339908.0 332650.0 342213.0 344385.0 39872.0 43059.0 351501.0 359230.0 234058.0 241821.0 292110.0 286769.0 43952.0 40655.0 44034.0 51331.0 91700.0 99564.0 288399.0 296091.0 90801.0 98814.0 281361.0 273340.0 286709.0 293119.0 233104.0 228305.0 155254.0 151100.0 265516.0 273492.0 257872.0 255209.0 347127.0 339794.0 41035.0 34353.0 209498.0 216959.0 342561.0 347456.0 245007.0 247203.0 177750.0 185258.0 192061.0 197059.0 281803.0 283866.0 236611.0 239560.0 258008.0 251882.0 290859.0 289997.0 277849.0 283116.0 297536.0 302967.0 204887.0 207892.0 332051.0 336165.0 308253.0 300225.0 146791.0 155084.0 312399.0 305754.0 291050.0 284333.0 241550.0 248827.0 163865.0 165876.0 256302.0 248333.0 288065.0 283153.0 64430.0 65521.0 201376.0 198585.0 226771.0 233723.0 312171.0 320318.0 291165.0 296430.0 326886.0 319044.0 309425.0 301606.0 0.0 7962.0 319023.0 319765.0 318370.0 314810.0 321256.0 327752.0 262887.0 255115.0 286290.0 278643.0 310112.0 302632.0 210126.0 202163.0 282043.0 124850.0 282043.0 282043.0 124850.0 124850.0
264548.0 268563.0 274516.0 268782.0 45060.0 47469.0 268172.0 263677.0 115534.0 113502.0 332325.0 325041.0 338045.0 340060.0 47798.0 51003.0 347339.0 355067.0 229030.0 236741.0 287732.0 282248.0 41243.0 36623.0 36180.0 43397.0 84728.0 92526.0 284237.0 291929.0 83370.0 91377.0 276150.0 268151.0 278939.0 285382.0 227106.0 222159.0 150577.0 146140.0 259730.0 267722.0 250857.0 248082.0 342964.0 335632.0 43250.0 35737.0 203099.0 210655.0 335840.0 340818.0 239906.0 241897.0 171192.0 178768.0 185893.0 191071.0 274212.0 276343.0 231089.0 233856.0 250221.0 244064.0 284050.0 283073.0 272051.0 277447.0 293374.0 298805.0 199668.0 202895.0 326791.0 330780.0 300679.0 292649.0 139894.0 148226.0 307747.0 300998.0 285613.0 278806.0 235539.0 242898.0 157672.0 159453.0 251191.0 243242.0 283911.0 278990.0 59330.0 59655.0 195946.0 193399.0 220551.0 227585.0 306451.0 314588.0 284864.0 290235.0 322844.0 314887.0 305129.0 297368.0 7962.0 0.0 311521.0 312334.0 312088.0 308415.0 314931.0 321495.0 257701.0 249988.0 279838.0 272221.0 305950.0 298440.0 204689.0 196721.0 277881.0 121060.0 277881.0 277881.0 121060.0 121060.0
160613.0 167643.0 221902.0 214960.0 356563.0 358214.0 142228.0 149074.0 210088.0 207627.0 23290.0 19338.0 219114.0 212827.0 355480.0 360769.0 239628.0 244941.0 167883.0 164304.0 193737.0 186639.0 290090.0 286789.0 280860.0 272824.0 228667.0 220673.0 224004.0 225496.0 228234.0 220221.0 155398.0 156386.0 48697.0 40690.0 131830.0 128704.0 207974.0 204691.0 129826.0 129249.0 74380.0 72051.0 248082.0 247936.0 341524.0 333880.0 132315.0 130117.0 76898.0 84889.0 162911.0 154368.0 153462.0 148658.0 151233.0 152670.0 38714.0 35253.0 148676.0 140599.0 71642.0 79453.0 67066.0 59734.0 127278.0 133364.0 232236.0 228962.0 170996.0 176608.0 162315.0 157036.0 13938.0 20806.0 176193.0 168853.0 186264.0 179821.0 144996.0 140385.0 127441.0 128018.0 172032.0 166062.0 160875.0 162727.0 206267.0 211695.0 263906.0 258815.0 166293.0 174706.0 126903.0 126098.0 132565.0 133554.0 98638.0 104407.0 218544.0 216822.0 201492.0 201893.0 319023.0 311521.0 0.0 8092.0 100314.0 92551.0 98046.0 103867.0 157027.0 160366.0 90517.0 94179.0 220705.0 215035.0 161995.0 165583.0 249526.0 238506.0 249526.0 249526.0 238506.0 238506.0
154219.0 161126.0 215415.0 208565.0 357332.0 358807.0 135748.0 142731.0 209201.0 207038.0 27441.0 25463.0 211435.0 205087.0 355825.0 361249.0 231952.0 237205.0 162701.0 158857.0 186804.0 179804.0 289963.0 286881.0 282204.0 274191.0 228982.0 220989.0 217312.0 218650.0 228973.0 220962.0 148650.0 149882.0 55110.0 47339.0 127354.0 124639.0 205377.0 202370.0 123742.0 122840.0 71185.0 69705.0 240522.0 240481.0 343091.0 335377.0 129474.0 126801.0 68870.0 76884.0 157356.0 148802.0 151948.0 146813.0 148656.0 149672.0 42115.0 37323.0 143635.0 135561.0 76306.0 84115.0 60613.0 53630.0 120711.0 126584.0 225412.0 222002.0 167001.0 172374.0 154493.0 149137.0 20347.0 25733.0 175863.0 168336.0 178880.0 172538.0 137963.0 133554.0 122595.0 122757.0 170360.0 164641.0 154924.0 157050.0 199477.0 205043.0 263740.0 258854.0 162578.0 170923.0 123018.0 121774.0 124968.0 125797.0 91694.0 97225.0 211082.0 209482.0 194239.0 194794.0 319765.0 312334.0 8092.0 0.0 92482.0 84782.0 90149.0 95883.0 150864.0 154459.0 83892.0 87929.0 213549.0 207987.0 157951.0 161847.0 243402.0 236487.0 243402.0 243402.0 236487.0 236487.0
78646.0 82993.0 134385.0 128915.0 354707.0 354119.0 61695.0 69614.0 197116.0 198595.0 115720.0 116820.0 119269.0 112720.0 348413.0 355177.0 139774.0 144832.0 103473.0 96506.0 101596.0 96085.0 280190.0 279779.0 289524.0 282231.0 228547.0 221301.0 133862.0 133469.0 233266.0 225995.0 68426.0 73206.0 134643.0 129473.0 86463.0 90293.0 173608.0 174277.0 59389.0 53119.0 77336.0 84790.0 148881.0 149494.0 350091.0 341888.0 109111.0 101433.0 39388.0 38364.0 93687.0 86487.0 141435.0 133633.0 126382.0 122014.0 110975.0 103143.0 90116.0 84125.0 140674.0 146731.0 44722.0 52174.0 48763.0 49248.0 140314.0 135545.0 123118.0 124477.0 62011.0 56847.0 107800.0 107642.0 174385.0 165978.0 88983.0 83797.0 54524.0 54013.0 78085.0 71995.0 154523.0 152719.0 85842.0 91665.0 115485.0 122461.0 255149.0 252939.0 123137.0 129134.0 91633.0 84936.0 34148.0 33507.0 27238.0 22548.0 120200.0 119576.0 105341.0 107474.0 318370.0 312088.0 100314.0 92482.0 0.0 8186.0 4004.0 9542.0 79240.0 86106.0 33864.0 40703.0 125277.0 120900.0 115093.0 122270.0 165956.0 208560.0 165956.0 165956.0 208560.0 208560.0
81741.0 86683.0 139106.0 133347.0 351350.0 350932.0 64057.0 72009.0 193838.0 195016.0 108494.0 109337.0 126720.0 120308.0 345439.0 352108.0 147237.0 152426.0 104246.0 97619.0 106992.0 101109.0 277192.0 276552.0 285181.0 277807.0 224520.0 217170.0 139049.0 139010.0 228897.0 221528.0 72326.0 76420.0 126457.0 121302.0 84254.0 87421.0 171989.0 172289.0 59687.0 54203.0 70333.0 77591.0 156104.0 156490.0 345957.0 337770.0 105318.0 97931.0 36216.0 36891.0 94952.0 87367.0 137393.0 129695.0 123156.0 119242.0 102797.0 94963.0 89740.0 83266.0 132650.0 138768.0 36865.0 44151.0 50121.0 51928.0 145862.0 141368.0 122191.0 124071.0 69799.0 64850.0 99785.0 99522.0 170017.0 161589.0 95539.0 89990.0 58946.0 57409.0 76030.0 70574.0 151137.0 148962.0 87857.0 93168.0 120694.0 127418.0 251937.0 249492.0 121681.0 128057.0 88468.0 82166.0 40765.0 41016.0 24330.0 22106.0 127132.0 126210.0 111661.0 113397.0 314810.0 308415.0 92551.0 84782.0 8186.0 0.0 7946.0 15885.0 81578.0 87998.0 28771.0 36217.0 131493.0 126818.0 113891.0 120814.0 170149.0 206844.0 170149.0 170149.0 206844.0 206844.0
82648.0 86971.0 138236.0 132811.0 357670.0 357141.0 65687.0 73609.0 200091.0 201462.0 112937.0 114245.0 122033.0 115360.0 351507.0 358239.0 142516.0 147448.0 107353.0 100422.0 105322.0 99895.0 283271.0 282782.0 292091.0 284762.0 231242.0 223953.0 137624.0 137147.0 235817.0 228502.0 72395.0 77206.0 133436.0 128083.0 89734.0 93366.0 177072.0 177646.0 63177.0 57005.0 78260.0 85535.0 151810.0 152572.0 352752.0 344555.0 111870.0 104297.0 35462.0 34362.0 97617.0 90374.0 144108.0 136345.0 129357.0 125138.0 109998.0 102142.0 93817.0 87727.0 140271.0 146462.0 44697.0 51828.0 52674.0 53247.0 143987.0 139141.0 126726.0 128188.0 64488.0 58991.0 105919.0 106032.0 176928.0 168510.0 92330.0 87299.0 58453.0 58012.0 81391.0 75459.0 157451.0 155508.0 89824.0 95615.0 119249.0 126273.0 258155.0 255861.0 126627.0 132712.0 94609.0 88037.0 37591.0 36393.0 30121.0 26053.0 123330.0 122865.0 108777.0 111051.0 321256.0 314931.0 98046.0 90149.0 4004.0 7946.0 0.0 7940.0 83235.0 90081.0 35929.0 43077.0 128743.0 124472.0 118638.0 125759.0 169876.0 212006.0 169876.0 169876.0 212006.0 212006.0
84276.0 87959.0 137800.0 132729.0 364036.0 363401.0 68190.0 75989.0 206445.0 207995.0 117761.0 119491.0 117684.0 110749.0 357631.0 364424.0 138079.0 142727.0 110923.0 103738.0 104215.0 99285.0 289423.0 289080.0 299039.0 291754.0 238025.0 230795.0 136628.0 135705.0 242785.0 235523.0 73310.0 78769.0 140521.0 134995.0 95544.0 99574.0 182341.0 183173.0 67406.0 60705.0 86183.0 93473.0 147804.0 148959.0 359579.0 351373.0 118576.0 110851.0 36484.0 33588.0 100819.0 93938.0 150927.0 143112.0 135724.0 131233.0 117296.0 109430.0 98348.0 92636.0 147925.0 154180.0 52560.0 59574.0 56222.0 55659.0 142513.0 137320.0 131566.0 132633.0 59751.0 53659.0 112287.0 112731.0 183908.0 175503.0 89695.0 85248.0 59015.0 59656.0 87130.0 80812.0 163890.0 162164.0 92414.0 98622.0 118301.0 125602.0 264449.0 262301.0 131847.0 137650.0 100986.0 94196.0 35906.0 33041.0 36711.0 31527.0 119919.0 119937.0 106392.0 109215.0 327752.0 321495.0 103867.0 95883.0 9542.0 15885.0 7940.0 0.0 85580.0 92780.0 43350.0 50243.0 126416.0 122579.0 123695.0 130981.0 169977.0 217317.0 169977.0 169977.0 217317.0 217317.0
7877.0 15333.0 65791.0 58407.0 296908.0 295089.0 17561.0 9627.0 143797.0 147926.0 177939.0 176167.0 92698.0 91304.0 288817.0 295670.0 109345.0 116901.0 29453.0 21464.0 45806.0 37551.0 221084.0 222489.0 241905.0 235664.0 180330.0 174509.0 69625.0 73056.0 188207.0 182364.0 18495.0 10452.0 172426.0 170647.0 46286.0 54484.0 108618.0 111922.0 27245.0 28706.0 94440.0 101856.0 111706.0 107822.0 298991.0 290800.0 74821.0 66896.0 117772.0 117577.0 18189.0 16529.0 101887.0 94456.0 81368.0 73490.0 148379.0 142185.0 29955.0 32337.0 164656.0 167623.0 90315.0 97308.0 31981.0 30008.0 79203.0 78204.0 58035.0 55370.0 69221.0 73842.0 158540.0 154658.0 133792.0 126573.0 55380.0 47290.0 30329.0 26406.0 42375.0 36002.0 106231.0 108386.0 7295.0 15040.0 54043.0 57263.0 198479.0 198334.0 62341.0 64308.0 58081.0 51250.0 55523.0 63216.0 62114.0 60115.0 82529.0 76789.0 61324.0 56945.0 262887.0 257701.0 157027.0 150864.0 79240.0 81578.0 83235.0 85580.0 0.0 8151.0 67628.0 62938.0 74800.0 67123.0 53789.0 61638.0 92538.0 142547.0 92538.0 92538.0 142547.0 142547.0
14606.0 20211.0 64669.0 56945.0 289005.0 287158.0 24605.0 17012.0 136413.0 140716.0 181704.0 179609.0 97788.0 96924.0 280886.0 287739.0 113624.0 121299.0 21366.0 13402.0 49023.0 40954.0 213185.0 214673.0 234611.0 228451.0 173160.0 167466.0 69559.0 73765.0 181238.0 175528.0 26468.0 18392.0 173565.0 172164.0 43232.0 51315.0 100639.0 104075.0 30977.0 34146.0 95333.0 102425.0 115145.0 110757.0 291409.0 283227.0 70548.0 63001.0 124210.0 124338.0 10149.0 10915.0 96176.0 88943.0 75511.0 67434.0 149819.0 143900.0 24789.0 28938.0 164464.0 167073.0 94191.0 100830.0 37933.0 37127.0 79555.0 79378.0 50398.0 47405.0 77135.0 81898.0 161219.0 156996.0 127536.0 120506.0 61281.0 53425.0 38448.0 34177.0 40737.0 35592.0 99560.0 102074.0 1363.0 6914.0 55393.0 57467.0 190729.0 190699.0 55091.0 56608.0 54952.0 48763.0 63496.0 71253.0 67486.0 66212.0 86681.0 80466.0 65539.0 60371.0 255115.0 249988.0 160366.0 154459.0 86106.0 87998.0 90081.0 92780.0 8151.0 0.0 72134.0 66817.0 77362.0 69421.0 46694.0 54423.0 89435.0 134468.0 89435.0 89435.0 134468.0 134468.0
70452.0 77244.0 131534.0 124747.0 322942.0 322639.0 51905.0 59077.0 165562.0 166532.0 110629.0 109341.0 134088.0 128943.0 317315.0 323904.0 154244.0 160415.0 84259.0 78855.0 103472.0 96213.0 249079.0 248258.0 256414.0 249036.0 195820.0 188442.0 133487.0 135060.0 200130.0 192757.0 64906.0 66009.0 114036.0 110436.0 57895.0 59962.0 145769.0 145505.0 41194.0 39137.0 45826.0 53849.0 161167.0 160021.0 317217.0 309034.0 76816.0 69676.0 59153.0 62411.0 76756.0 68389.0 108721.0 101074.0 95054.0 91652.0 89411.0 82091.0 67206.0 59789.0 114505.0 119687.0 23531.0 31411.0 36822.0 42934.0 141774.0 138707.0 97648.0 100629.0 82275.0 79803.0 93853.0 91295.0 141254.0 132825.0 98345.0 91183.0 55283.0 50028.0 50175.0 46323.0 122833.0 120413.0 72405.0 75787.0 115786.0 121185.0 223668.0 221059.0 96108.0 103135.0 60624.0 54927.0 49815.0 54506.0 10336.0 18434.0 130932.0 128253.0 112466.0 112106.0 286290.0 279838.0 90517.0 83892.0 33864.0 28771.0 35929.0 43350.0 67628.0 72134.0 0.0 7844.0 131087.0 125033.0 88909.0 95251.0 159981.0 180349.0 159981.0 159981.0 180349.0 180349.0
66466.0 73641.0 127802.0 120795.0 315249.0 314910.0 48227.0 54903.0 157821.0 158864.0 115021.0 113259.0 134350.0 129597.0 309548.0 316153.0 154267.0 160673.0 77721.0 72671.0 101084.0 93549.0 241308.0 240528.0 249036.0 241693.0 188305.0 180966.0 130267.0 132254.0 192757.0 185429.0 62188.0 62387.0 114500.0 111422.0 50143.0 52118.0 137969.0 137670.0 35901.0 35164.0 42537.0 50760.0 160615.0 159058.0 309759.0 301569.0 69146.0 61912.0 66945.0 70254.0 70743.0 62269.0 101176.0 93483.0 87265.0 83812.0 89866.0 82839.0 60182.0 52598.0 112989.0 117775.0 27405.0 34453.0 33652.0 40755.0 138886.0 136217.0 90093.0 93262.0 84581.0 82814.0 96468.0 93311.0 133868.0 125447.0 97753.0 90267.0 54028.0 47922.0 42529.0 39074.0 115096.0 112775.0 67199.0 70002.0 112887.0 117884.0 215930.0 213372.0 88403.0 95512.0 52792.0 47092.0 52325.0 57879.0 14459.0 22276.0 130243.0 127110.0 111144.0 110220.0 278643.0 272221.0 94179.0 87929.0 40703.0 36217.0 43077.0 50243.0 62938.0 66817.0 7844.0 0.0 129258.0 122886.0 81300.0 87548.0 155476.0 172526.0 155476.0 155476.0 172526.0 172526.0
67807.0 59757.0 33760.0 37602.0 342239.0 340299.0 82730.0 78387.0 200051.0 205937.0 239008.0 238882.0 35632.0 41171.0 334027.0 340880.0 41398.0 49167.0 89873.0 85209.0 29186.0 37413.0 266797.0 269513.0 296755.0 291591.0 237834.0 233417.0 24611.0 17546.0 247507.0 242938.0 67548.0 69696.0 243374.0 240620.0 120521.0 128648.0 157150.0 163152.0 98322.0 95374.0 166900.0 174741.0 38893.0 33534.0 348813.0 340894.0 147582.0 140272.0 162887.0 159189.0 83455.0 88176.0 170512.0 163929.0 149907.0 141510.0 218835.0 211996.0 101796.0 106255.0 238212.0 241617.0 154491.0 162492.0 95860.0 88511.0 21669.0 13805.0 117756.0 111281.0 72166.0 80285.0 224904.0 222325.0 199274.0 193181.0 36852.0 41508.0 75857.0 81341.0 117164.0 110670.0 170015.0 174162.0 76096.0 80829.0 23574.0 26974.0 247351.0 249277.0 124807.0 122522.0 132283.0 125837.0 91154.0 93460.0 122216.0 116325.0 19196.0 11738.0 20025.0 19041.0 310112.0 305950.0 220705.0 213549.0 125277.0 131493.0 128743.0 126416.0 74800.0 77362.0 131087.0 129258.0 0.0 8193.0 118068.0 124412.0 64593.0 186539.0 64593.0 64593.0 186539.0 186539.0
60303.0 52243.0 28234.0 30861.0 334759.0 332819.0 75805.0 71115.0 192120.0 197952.0 233718.0 233380.0 41209.0 45721.0 326547.0 333400.0 49089.0 56916.0 81683.0 77062.0 21990.0 30049.0 259317.0 262032.0 288989.0 283771.0 229901.0 225430.0 20220.0 14953.0 239517.0 234902.0 60847.0 62476.0 236689.0 234094.0 112626.0 120732.0 149418.0 155331.0 91207.0 88610.0 159861.0 167636.0 47075.0 41674.0 341353.0 333412.0 139517.0 132257.0 159051.0 155692.0 75343.0 80196.0 162322.0 155748.0 141721.0 133322.0 212204.0 205457.0 93760.0 98345.0 231010.0 234302.0 148517.0 156438.0 89332.0 82229.0 20999.0 14763.0 109592.0 103155.0 70561.0 78714.0 218885.0 216119.0 191100.0 184994.0 34136.0 37338.0 70039.0 75074.0 109436.0 103077.0 161852.0 165977.0 68170.0 72752.0 15417.0 19598.0 239827.0 241650.0 116625.0 114388.0 124369.0 118007.0 86939.0 89862.0 116414.0 110820.0 24953.0 16888.0 17589.0 13428.0 302632.0 298440.0 215035.0 207987.0 120900.0 126818.0 124472.0 122579.0 67123.0 69421.0 125033.0 122886.0 8193.0 0.0 109874.0 116227.0 60608.0 179059.0 60608.0 60608.0 179059.0 179059.0
61192.0 66624.0 95667.0 87842.0 244871.0 243400.0 63567.0 59040.0 90120.0 94137.0 185057.0 181036.0 142993.0 142834.0 237138.0 243990.0 157259.0 165087.0 28385.0 34536.0 92362.0 85027.0 169174.0 170021.0 188132.0 181875.0 126544.0 120781.0 103548.0 109776.0 134544.0 128867.0 71938.0 64112.0 161564.0 162398.0 31702.0 33315.0 58783.0 60409.0 57068.0 64723.0 88154.0 92418.0 156919.0 151377.0 245564.0 237356.0 37576.0 34698.0 147839.0 150308.0 37253.0 37481.0 52631.0 46574.0 32398.0 24030.0 140737.0 136775.0 26648.0 31099.0 145388.0 145921.0 104206.0 108006.0 69263.0 73539.0 114054.0 116376.0 9100.0 15218.0 122274.0 126094.0 158810.0 152773.0 81777.0 75280.0 107643.0 99965.0 80930.0 74264.0 38777.0 43320.0 53143.0 56386.0 48009.0 40542.0 94569.0 93486.0 145719.0 145126.0 8750.0 14235.0 35170.0 36494.0 102687.0 110852.0 89709.0 92587.0 130461.0 123475.0 109870.0 103543.0 210126.0 204689.0 161995.0 157951.0 115093.0 113891.0 118638.0 123695.0 53789.0 46694.0 88909.0 81300.0 118068.0 109874.0 0.0 7968.0 110237.0 93760.0 110237.0 110237.0 93760.0 93760.0
68970.0 74218.0 100765.0 93063.0 236942.0 235500.0 71521.0 67002.0 82199.0 86309.0 188757.0 184467.0 150127.0 150157.0 229245.0 236097.0 164015.0 171862.0 35359.0 41974.0 99291.0 92118.0 161265.0 162072.0 180267.0 174050.0 118742.0 113063.0 108971.0 115436.0 126875.0 121302.0 79848.0 71993.0 162890.0 164117.0 37469.0 37651.0 51361.0 52652.0 64706.0 72437.0 91340.0 95019.0 163302.0 157560.0 237610.0 229402.0 37306.0 36245.0 154339.0 157033.0 44811.0 45397.0 47244.0 41926.0 28001.0 20170.0 142768.0 139184.0 34546.0 38598.0 145503.0 145608.0 109554.0 112937.0 76958.0 81396.0 119441.0 122131.0 8047.0 16094.0 130228.0 134062.0 161793.0 155512.0 74951.0 68777.0 115147.0 107548.0 88896.0 82209.0 45110.0 50306.0 45961.0 49750.0 55724.0 48132.0 100852.0 99331.0 137759.0 137158.0 867.0 9169.0 38881.0 41544.0 110548.0 118715.0 96547.0 99731.0 137310.0 130198.0 116891.0 110380.0 202163.0 196721.0 165583.0 161847.0 122270.0 120814.0 125759.0 130981.0 61638.0 54423.0 95251.0 87548.0 124412.0 116227.0 7968.0 0.0 113779.0 86341.0 113779.0 113779.0 86341.0 86341.0
89706.0 83699.0 33292.0 35337.0 314170.0 312230.0 108311.0 100915.0 176257.0 183114.0 270462.0 268692.0 100102.0 105724.0 305958.0 312811.0 101167.0 107939.0 88120.0 88461.0 67138.0 69266.0 238728.0 241444.0 269783.0 265195.0 213451.0 210164.0 40422.0 47048.0 224102.0 220667.0 97835.0 94554.0 262112.0 261115.0 126955.0 133796.0 131325.0 138409.0 119700.0 120848.0 183973.0 190633.0 92852.0 84514.0 320764.0 312829.0 146755.0 141709.0 205338.0 203519.0 88850.0 96959.0 160498.0 155671.0 141771.0 133739.0 238750.0 233058.0 106667.0 113965.0 250760.0 252484.0 182844.0 189830.0 123494.0 119091.0 44275.0 52073.0 105814.0 97865.0 125530.0 133371.0 250648.0 246410.0 183483.0 179018.0 89809.0 88942.0 111434.0 112936.0 127471.0 124066.0 154464.0 160365.0 88814.0 88170.0 53939.0 45598.0 219294.0 221494.0 113808.0 108260.0 137159.0 133236.0 134550.0 139846.0 153675.0 150345.0 83749.0 76242.0 76270.0 68795.0 282043.0 277881.0 249526.0 243402.0 165956.0 170149.0 169876.0 169977.0 92538.0 89435.0 159981.0 155476.0 64593.0 60608.0 110237.0 113779.0 0.0 158470.0 0.0 0.0 158470.0 158470.0
148561.0 151405.0 155105.0 149371.0 157477.0 155537.0 155705.0 149917.0 42206.0 49871.0 261626.0 255959.0 218659.0 220823.0 149265.0 156118.0 227928.0 235656.0 113104.0 121085.0 168584.0 163413.0 81174.0 84457.0 116178.0 112592.0 68145.0 68493.0 164826.0 172518.0 80125.0 80081.0 160920.0 152851.0 222342.0 226086.0 122677.0 120562.0 34986.0 35028.0 150783.0 158330.0 166018.0 166783.0 223554.0 216221.0 164164.0 156343.0 108273.0 113029.0 239442.0 242642.0 124359.0 128140.0 85675.0 89876.0 88619.0 89649.0 207941.0 206777.0 119965.0 124850.0 197841.0 194778.0 191700.0 193544.0 162894.0 166617.0 173963.0 179394.0 86491.0 87390.0 211398.0 216364.0 231534.0 224138.0 75084.0 78498.0 189257.0 182886.0 172222.0 166420.0 130820.0 136565.0 66901.0 73696.0 135524.0 127556.0 164492.0 159580.0 63526.0 67000.0 85477.0 80183.0 120399.0 125451.0 195588.0 203707.0 182518.0 186013.0 203425.0 195471.0 185857.0 178033.0 124850.0 121060.0 238506.0 236487.0 208560.0 206844.0 212006.0 217317.0 142547.0 134468.0 180349.0 172526.0 186539.0 179059.0 93760.0 86341.0 158470.0 0.0 158470.0 158470.0 0.0 0.0
89706.0 83699.0 33292.0 35337.0 314170.0 312230.0 108311.0 100915.0 176257.0 183114.0 270462.0 268692.0 100102.0 105724.0 305958.0 312811.0 101167.0 107939.0 88120.0 88461.0 67138.0 69266.0 238728.0 241444.0 269783.0 265195.0 213451.0 210164.0 40422.0 47048.0 224102.0 220667.0 97835.0 94554.0 262112.0 261115.0 126955.0 133796.0 131325.0 138409.0 119700.0 120848.0 183973.0 190633.0 92852.0 84514.0 320764.0 312829.0 146755.0 141709.0 205338.0 203519.0 88850.0 96959.0 160498.0 155671.0 141771.0 133739.0 238750.0 233058.0 106667.0 113965.0 250760.0 252484.0 182844.0 189830.0 123494.0 119091.0 44275.0 52073.0 105814.0 97865.0 125530.0 133371.0 250648.0 246410.0 183483.0 179018.0 89809.0 88942.0 111434.0 112936.0 127471.0 124066.0 154464.0 160365.0 88814.0 88170.0 53939.0 45598.0 219294.0 221494.0 113808.0 108260.0 137159.0 133236.0 134550.0 139846.0 153675.0 150345.0 83749.0 76242.0 76270.0 68795.0 282043.0 277881.0 249526.0 243402.0 165956.0 170149.0 169876.0 169977.0 92538.0 89435.0 159981.0 155476.0 64593.0 60608.0 110237.0 113779.0 0.0 158470.0 0.0 0.0 158470.0 158470.0
89706.0 83699.0 33292.0 35337.0 314170.0 312230.0 108311.0 100915.0 176257.0 183114.0 270462.0 268692.0 100102.0 105724.0 305958.0 312811.0 101167.0 107939.0 88120.0 88461.0 67138.0 69266.0 238728.0 241444.0 269783.0 265195.0 213451.0 210164.0 40422.0 47048.0 224102.0 220667.0 97835.0 94554.0 262112.0 261115.0 126955.0 133796.0 131325.0 138409.0 119700.0 120848.0 183973.0 190633.0 92852.0 84514.0 320764.0 312829.0 146755.0 141709.0 205338.0 203519.0 88850.0 96959.0 160498.0 155671.0 141771.0 133739.0 238750.0 233058.0 106667.0 113965.0 250760.0 252484.0 182844.0 189830.0 123494.0 119091.0 44275.0 52073.0 105814.0 97865.0 125530.0 133371.0 250648.0 246410.0 183483.0 179018.0 89809.0 88942.0 111434.0 112936.0 127471.0 124066.0 154464.0 160365.0 88814.0 88170.0 53939.0 45598.0 219294.0 221494.0 113808.0 108260.0 137159.0 133236.0 134550.0 139846.0 153675.0 150345.0 83749.0 76242.0 76270.0 68795.0 282043.0 277881.0 249526.0 243402.0 165956.0 170149.0 169876.0 169977.0 92538.0 89435.0 159981.0 155476.0 64593.0 60608.0 110237.0 113779.0 0.0 158470.0 0.0 0.0 158470.0 158470.0
148561.0 151405.0 155105.0 149371.0 157477.0 155537.0 155705.0 149917.0 42206.0 49871.0 261626.0 255959.0 218659.0 220823.0 149265.0 156118.0 227928.0 235656.0 113104.0 121085.0 168584.0 163413.0 81174.0 84457.0 116178.0 112592.0 68145.0 68493.0 164826.0 172518.0 80125.0 80081.0 160920.0 152851.0 222342.0 226086.0 122677.0 120562.0 34986.0 35028.0 150783.0 158330.0 166018.0 166783.0 223554.0 216221.0 164164.0 156343.0 108273.0 113029.0 239442.0 242642.0 124359.0 128140.0 85675.0 89876.0 88619.0 89649.0 207941.0 206777.0 119965.0 124850.0 197841.0 194778.0 191700.0 193544.0 162894.0 166617.0 173963.0 179394.0 86491.0 87390.0 211398.0 216364.0 231534.0 224138.0 75084.0 78498.0 189257.0 182886.0 172222.0 166420.0 130820.0 136565.0 66901.0 73696.0 135524.0 127556.0 164492.0 159580.0 63526.0 67000.0 85477.0 80183.0 120399.0 125451.0 195588.0 203707.0 182518.0 186013.0 203425.0 195471.0 185857.0 178033.0 124850.0 121060.0 238506.0 236487.0 208560.0 206844.0 212006.0 217317.0 142547.0 134468.0 180349.0 172526.0 186539.0 179059.0 93760.0 86341.0 158470.0 0.0 158470.0 158470.0 0.0 0.0
148561.0 151405.0 155105.0 149371.0 157477.0 155537.0 155705.0 149917.0 42206.0 49871.0 261626.0 255959.0 218659.0 220823.0 149265.0 156118.0 227928.0 235656.0 113104.0 121085.0 168584.0 163413.0 81174.0 84457.0 116178.0 112592.0 68145.0 68493.0 164826.0 172518.0 80125.0 80081.0 160920.0 152851.0 222342.0 226086.0 122677.0 120562.0 34986.0 35028.0 150783.0 158330.0 166018.0 166783.0 223554.0 216221.0 164164.0 156343.0 108273.0 113029.0 239442.0 242642.0 124359.0 128140.0 85675.0 89876.0 88619.0 89649.0 207941.0 206777.0 119965.0 124850.0 197841.0 194778.0 191700.0 193544.0 162894.0 166617.0 173963.0 179394.0 86491.0 87390.0 211398.0 216364.0 231534.0 224138.0 75084.0 78498.0 189257.0 182886.0 172222.0 166420.0 130820.0 136565.0 66901.0 73696.0 135524.0 127556.0 164492.0 159580.0 63526.0 67000.0 85477.0 80183.0 120399.0 125451.0 195588.0 203707.0 182518.0 186013.0 203425.0 195471.0 185857.0 178033.0 124850.0 121060.0 238506.0 236487.0 208560.0 206844.0 212006.0 217317.0 142547.0 134468.0 180349.0 172526.0 186539.0 179059.0 93760.0 86341.0 158470.0 0.0 158470.0 158470.0 0.0 0.0
FIXED_EDGES_SECTION
1 2
3 4
5 6
7 8
9 10
11 12
13 14
15 16
17 18
19 20
21 22
23 24
25 26
27 28
29 30
31 32
33 34
35 36
37 38
39 40
41 42
43 44
45 46
47 48
49 50
51 52
53 54
55 56
57 58
59 60
61 62
63 64
65 66
67 68
69 70
71 72
73 74
75 76
77 78
79 80
81 82
83 84
85 86
87 88
89 90
91 92
93 94
95 96
97 98
99 100
101 102
103 104
105 106
107 108
109 110
111 112
113 114
115 116
117 118
119 120
-1 
DEMAND_SECTION
1 207
2 207
3 485
4 485
5 71
6 71
7 341
8 341
9 313
10 313
11 542
12 542
13 500
14 500
15 280
16 280
17 316
18 316
19 56
20 56
21 155
22 155
23 534
24 534
25 268
26 268
27 319
28 319
29 618
30 618
31 336
32 336
33 293
34 293
35 234
36 234
37 94
38 94
39 100
40 100
41 96
42 96
43 112
44 112
45 251
46 251
47 421
48 421
49 271
50 271
51 68
52 68
53 94
54 94
55 130
56 130
57 223
58 223
59 277
60 277
61 114
62 114
63 321
64 321
65 74
66 74
67 349
68 349
69 104
70 104
71 373
72 373
73 55
74 55
75 258
76 258
77 68
78 68
79 57
80 57
81 583
82 583
83 89
84 89
85 342
86 342
87 277
88 277
89 100
90 100
91 563
92 563
93 358
94 358
95 90
96 90
97 247
98 247
99 211
100 211
101 379
102 379
103 493
104 493
105 322
106 322
107 380
108 380
109 211
110 211
111 224
112 224
113 171
114 171
115 82
116 82
117 396
118 396
119 80
120 80
121 0
122 0
123 0
124 0
125 0
126 0
DEPOT_SECTION
121 
-1 
CAPACITIES_SECTION
15000 
16500 
18000 
19500 
-1 
EOF