NAME: GFS_20_1
TYPE: GFSP
DIMENSION: 126
VEHICLES: 4
CAPACITY: 15000.0
TRIP_DIST_LIMIT: 900000.0
TOTAL_DIST_LIMIT: 1050000.0
EDGE_WEIGHT_TYPE: EXPLICIT
EDGE_WEIGHT_FORMAT: FULL_MATRIX
EDGE_WEIGHT_SECTION
0.0 8167.0 160889.0 163058.0 80395.0 86726.0 103015.0 95343.0 28607.0 27444.0 55164.0 55556.0 312171.0 306451.0 100037.0 103328.0 72889.0 67722.0 109819.0 114661.0 225396.0 218748.0 280120.0 273142.0 32461.0 30605.0 355295.0 347448.0 72234.0 69428.0 88155.0 96480.0 271776.0 272380.0 347363.0 346025.0 193976.0 201322.0 231695.0 225007.0 62794.0 70108.0 127786.0 119730.0 175118.0 180933.0 86663.0 80714.0 77883.0 71682.0 247922.0 246799.0 72282.0 64336.0 105413.0 107998.0 276932.0 282840.0 176254.0 184240.0 129057.0 134079.0 91154.0 86939.0 115911.0 111778.0 102900.0 98211.0 149204.0 149831.0 71604.0 63533.0 339782.0 346555.0 109203.0 108437.0 82406.0 89768.0 93615.0 85949.0 34438.0 28309.0 124204.0 130183.0 46669.0 40441.0 318623.0 320239.0 89231.0 81434.0 63920.0 55827.0 49815.0 52325.0 47101.0 49028.0 195117.0 196878.0 321078.0 328474.0 34617.0 29152.0 102687.0 110548.0 118672.0 112277.0 106673.0 101640.0 108275.0 99777.0 115563.0 115760.0 178638.0 174711.0 287241.0 280412.0 52222.0 54308.0 164309.0 169489.0 134550.0 195588.0 134550.0 134550.0 195588.0 195588.0
8167.0 0.0 169027.0 171219.0 88372.0 94582.0 104983.0 97178.0 31768.0 28523.0 63185.0 63296.0 320318.0 314588.0 108204.0 111478.0 80767.0 75766.0 113028.0 118242.0 233434.0 226755.0 288200.0 281204.0 29047.0 25382.0 363398.0 355546.0 69452.0 65831.0 95975.0 104262.0 279942.0 280540.0 355526.0 354192.0 202120.0 209475.0 239661.0 232937.0 70506.0 77931.0 135700.0 127637.0 183245.0 189081.0 85767.0 79292.0 79708.0 73022.0 256078.0 254937.0 80205.0 72317.0 105410.0 108581.0 285094.0 291006.0 184419.0 192404.0 130943.0 136349.0 93460.0 89862.0 118267.0 113718.0 106099.0 100936.0 149223.0 150290.0 69756.0 61842.0 347949.0 354722.0 117345.0 116512.0 86596.0 94244.0 101767.0 94087.0 34837.0 30217.0 127786.0 134054.0 39078.0 32528.0 326778.0 328402.0 97020.0 89260.0 64001.0 56248.0 54506.0 57879.0 49054.0 52189.0 203095.0 204780.0 329233.0 336624.0 42661.0 37319.0 110852.0 118715.0 126524.0 120038.0 110089.0 104623.0 116026.0 107557.0 115422.0 116221.0 180731.0 176493.0 295263.0 288411.0 59521.0 61030.0 168583.0 173997.0 139846.0 203707.0 139846.0 139846.0 203707.0 203707.0
160889.0 169027.0 0.0 8000.0 87949.0 86268.0 164241.0 163574.0 158210.0 165900.0 106297.0 108174.0 155254.0 150577.0 61892.0 57607.0 90490.0 93725.0 149603.0 145159.0 82126.0 78999.0 129176.0 123744.0 177769.0 182431.0 200905.0 193464.0 204914.0 207944.0 86251.0 81746.0 112702.0 114626.0 188473.0 186570.0 33140.0 40714.0 92857.0 89770.0 101758.0 93759.0 59143.0 63223.0 14452.0 20253.0 188051.0 189721.0 172441.0 174643.0 91318.0 92462.0 96005.0 101617.0 188147.0 182720.0 118816.0 123867.0 23979.0 30473.0 175277.0 171836.0 157150.0 149418.0 163392.0 167538.0 165291.0 169662.0 231239.0 226010.0 188532.0 183563.0 180298.0 187151.0 51688.0 53248.0 134453.0 130218.0 67330.0 74940.0 163971.0 158187.0 147536.0 144895.0 204234.0 199783.0 160844.0 161520.0 86374.0 90999.0 171191.0 166848.0 145769.0 137969.0 164360.0 156862.0 63979.0 71136.0 163425.0 171192.0 127969.0 131844.0 58783.0 51361.0 66473.0 73564.0 145992.0 150957.0 75984.0 79765.0 194906.0 187851.0 221688.0 224008.0 139615.0 134584.0 114982.0 118414.0 173765.0 171739.0 131325.0 34986.0 131325.0 131325.0 34986.0 34986.0
163058.0 171219.0 8000.0 0.0 88037.0 85626.0 170558.0 169652.0 158985.0 166772.0 109014.0 111416.0 151100.0 146140.0 63244.0 59852.0 93948.0 96551.0 156269.0 152002.0 75235.0 71755.0 123686.0 117987.0 181142.0 185530.0 196280.0 188744.0 204542.0 207863.0 85421.0 80259.0 109203.0 110605.0 185021.0 183289.0 31610.0 38453.0 85709.0 82347.0 105246.0 97264.0 55279.0 60173.0 16043.0 18629.0 193469.0 194885.0 170905.0 173452.0 86812.0 87365.0 96287.0 102367.0 194202.0 188944.0 114938.0 120347.0 16851.0 24092.0 182199.0 178924.0 163152.0 155331.0 170102.0 174081.0 162412.0 167085.0 227905.0 222481.0 193368.0 188182.0 177025.0 183878.0 54165.0 56792.0 140237.0 136291.0 69511.0 77336.0 167692.0 161669.0 154622.0 151979.0 207086.0 202386.0 156959.0 157964.0 85395.0 90579.0 176043.0 171436.0 145505.0 137670.0 164241.0 156601.0 56086.0 63179.0 159506.0 167178.0 129610.0 133922.0 60409.0 52652.0 63333.0 70756.0 152590.0 157358.0 73495.0 78030.0 201162.0 194231.0 216803.0 219348.0 133717.0 128441.0 118569.0 122428.0 168274.0 165996.0 138409.0 35028.0 138409.0 138409.0 35028.0 35028.0
80395.0 88372.0 87949.0 88037.0 0.0 8199.0 132032.0 127251.0 71372.0 79282.0 37997.0 45269.0 233104.0 227106.0 28052.0 35255.0 39187.0 32657.0 126506.0 126604.0 145128.0 138393.0 200069.0 192979.0 105696.0 107770.0 275423.0 267531.0 117041.0 119996.0 10213.0 18087.0 194027.0 193933.0 268983.0 268134.0 119645.0 126259.0 151300.0 144634.0 44464.0 40935.0 47493.0 39482.0 102338.0 106639.0 138521.0 136541.0 87389.0 88354.0 169321.0 167584.0 8462.0 16060.0 148416.0 146476.0 198605.0 204923.0 98862.0 106625.0 153700.0 154548.0 120521.0 112626.0 138909.0 139127.0 88354.0 90298.0 154657.0 151049.0 131225.0 124034.0 262182.0 269042.0 40743.0 45225.0 98582.0 100196.0 28372.0 26692.0 96259.0 88609.0 134015.0 135790.0 126861.0 120836.0 239840.0 241902.0 11801.0 6326.0 115737.0 108555.0 57895.0 50143.0 76413.0 68969.0 114725.0 116559.0 242231.0 249447.0 45812.0 52486.0 31702.0 37469.0 38736.0 33290.0 122206.0 122463.0 29566.0 21150.0 157924.0 153818.0 159759.0 159479.0 206917.0 200041.0 53946.0 61615.0 123814.0 125712.0 126955.0 122677.0 126955.0 126955.0 122677.0 122677.0
86726.0 94582.0 86268.0 85626.0 8199.0 0.0 140113.0 135389.0 75579.0 83558.0 46179.0 53467.0 228305.0 222159.0 29715.0 37514.0 46820.0 40643.0 134329.0 134271.0 139483.0 132571.0 194630.0 187424.0 112962.0 114744.0 270082.0 262160.0 118919.0 122371.0 2030.0 10172.0 189907.0 189506.0 264475.0 263831.0 117113.0 123427.0 145243.0 138414.0 52563.0 48744.0 41196.0 33126.0 100489.0 104247.0 146680.0 144642.0 86858.0 88551.0 164875.0 162809.0 14649.0 22874.0 156610.0 154644.0 194224.0 200708.0 95339.0 102933.0 161604.0 162327.0 128648.0 120732.0 146835.0 147151.0 85046.0 87660.0 151746.0 147778.0 139230.0 131986.0 258141.0 264886.0 42364.0 47969.0 106605.0 108058.0 32365.0 32432.0 103942.0 96219.0 141542.0 143121.0 133349.0 127108.0 235180.0 237445.0 3638.0 5435.0 123837.0 116604.0 59962.0 52118.0 78783.0 71043.0 108762.0 110216.0 237535.0 244651.0 52373.0 59471.0 33315.0 37651.0 31946.0 25832.0 130025.0 130423.0 21950.0 13389.0 166109.0 161971.0 154491.0 154542.0 201111.0 194118.0 62143.0 69813.0 117070.0 118689.0 133796.0 120562.0 133796.0 133796.0 120562.0 120562.0
103015.0 104983.0 164241.0 170558.0 132032.0 140113.0 0.0 7927.0 129129.0 130065.0 95612.0 87696.0 316408.0 312246.0 128371.0 124669.0 94372.0 99517.0 18777.0 26267.0 245596.0 241451.0 292930.0 287816.0 82408.0 90428.0 362724.0 355500.0 174433.0 170525.0 142143.0 149035.0 273093.0 275808.0 348535.0 346595.0 192965.0 200956.0 255539.0 251221.0 87568.0 91891.0 168268.0 162274.0 174340.0 182344.0 37740.0 44860.0 177709.0 172619.0 253659.0 255840.0 128946.0 122612.0 25501.0 18722.0 279730.0 284216.0 187364.0 194553.0 26044.0 31558.0 12431.0 19535.0 14177.0 8764.0 197570.0 194815.0 251231.0 251173.0 52132.0 54954.0 340323.0 347176.0 127140.0 120347.0 33789.0 34896.0 119385.0 113448.0 70489.0 74932.0 32612.0 40607.0 107044.0 109961.0 321550.0 321759.0 143751.0 137465.0 44359.0 50205.0 143503.0 141689.0 147992.0 147468.0 221997.0 227176.0 324172.0 332057.0 108280.0 100942.0 128029.0 134069.0 163427.0 161379.0 20418.0 13538.0 158627.0 151488.0 30719.0 23756.0 275293.0 272504.0 303774.0 298825.0 79829.0 71769.0 250454.0 253793.0 64505.0 192835.0 64505.0 64505.0 192835.0 192835.0
95343.0 97178.0 163574.0 169652.0 127251.0 135389.0 7927.0 0.0 121702.0 122477.0 90286.0 82457.0 316324.0 312162.0 125072.0 121786.0 90310.0 94962.0 23799.0 31391.0 244425.0 240062.0 292584.0 287302.0 74484.0 82510.0 362640.0 355281.0 166617.0 162660.0 137419.0 144523.0 273009.0 275725.0 348451.0 346511.0 192881.0 200872.0 254152.0 249629.0 82855.0 87668.0 164865.0 158641.0 174146.0 182074.0 32115.0 38598.0 170462.0 165263.0 253575.0 255592.0 123789.0 117209.0 24576.0 19874.0 279646.0 284132.0 186388.0 193718.0 33769.0 39479.0 6880.0 15070.0 21991.0 16558.0 190773.0 187864.0 243803.0 243840.0 45155.0 47480.0 340239.0 347092.0 124583.0 118069.0 30415.0 33364.0 116018.0 109762.0 62618.0 67189.0 38864.0 46807.0 99290.0 102108.0 321467.0 321676.0 139022.0 132525.0 36518.0 42278.0 136537.0 134941.0 140595.0 140243.0 220150.0 225113.0 324089.0 331973.0 101697.0 94191.0 124940.0 131265.0 159658.0 157285.0 24167.0 16208.0 154410.0 147071.0 32058.0 26682.0 268468.0 265569.0 303189.0 298074.0 74324.0 66292.0 244446.0 247933.0 68264.0 192751.0 68264.0 68264.0 192751.0 192751.0
28607.0 31768.0 158210.0 158985.0 71372.0 75579.0 129129.0 121702.0 0.0 7991.0 60450.0 64452.0 303867.0 297674.0 96378.0 101567.0 78626.0 71247.0 133875.0 137914.0 214491.0 207352.0 269791.0 262457.0 60473.0 57127.0 345291.0 337340.0 52891.0 53014.0 76476.0 84008.0 265321.0 265054.0 340046.0 339346.0 190558.0 197371.0 219548.0 212392.0 71235.0 76730.0 116082.0 108115.0 172662.0 177484.0 115135.0 109301.0 49476.0 43680.0 240424.0 238381.0 62948.0 56635.0 133427.0 135572.0 269759.0 276176.0 170233.0 177994.0 155090.0 159523.0 116930.0 111831.0 141359.0 137857.0 74480.0 69625.0 122106.0 122232.0 100209.0 92140.0 333512.0 340330.0 107622.0 108974.0 104918.0 111412.0 92144.0 85580.0 62735.0 55964.0 147339.0 152607.0 67325.0 59569.0 310758.0 313005.0 77126.0 70176.0 92070.0 83856.0 23636.0 28748.0 18936.0 20516.0 183423.0 184096.0 313111.0 320211.0 33672.0 35192.0 99634.0 106856.0 106369.0 99073.0 130370.0 126212.0 95067.0 87159.0 143634.0 143404.0 150048.0 146192.0 275735.0 268533.0 65017.0 70073.0 136867.0 142369.0 153652.0 193176.0 153652.0 153652.0 193176.0 193176.0
27444.0 28523.0 165900.0 166772.0 79282.0 83558.0 130065.0 122477.0 7991.0 0.0 66703.0 70131.0 311852.0 305664.0 104030.0 109069.0 85031.0 77920.0 135881.0 140275.0 222474.0 215328.0 277777.0 270439.0 57563.0 53303.0 353277.0 345326.0 47954.0 47125.0 84464.0 91998.0 273265.0 273021.0 348018.0 347304.0 198328.0 205178.0 227504.0 220336.0 77095.0 82972.0 124070.0 116105.0 180350.0 185246.0 113803.0 107574.0 51186.0 44572.0 248392.0 246364.0 70845.0 64405.0 132826.0 135438.0 277722.0 284127.0 178131.0 185906.0 156101.0 160879.0 118044.0 113396.0 142692.0 138824.0 78084.0 72621.0 121761.0 122418.0 98168.0 90195.0 341446.0 348276.0 115126.0 116264.0 107473.0 114310.0 99582.0 92869.0 61829.0 55705.0 149768.0 155331.0 61328.0 53393.0 318738.0 320974.0 85116.0 78152.0 91320.0 83260.0 30310.0 36135.0 20607.0 24825.0 191398.0 192041.0 321093.0 328197.0 40166.0 40485.0 107245.0 114539.0 114354.0 107046.0 132527.0 127964.0 103043.0 95147.0 142958.0 143204.0 152209.0 147989.0 283700.0 276490.0 69913.0 74359.0 141537.0 147283.0 157491.0 200878.0 157491.0 157491.0 200878.0 200878.0
55164.0 63185.0 106297.0 109014.0 37997.0 46179.0 95612.0 90286.0 60450.0 66703.0 0.0 7986.0 259475.0 254097.0 47404.0 49230.0 18400.0 12612.0 92376.0 93722.0 175491.0 169440.0 229123.0 222512.0 72873.0 76692.0 303622.0 295889.0 113096.0 113457.0 48172.0 55988.0 218176.0 219260.0 293964.0 292303.0 139437.0 146937.0 182988.0 176932.0 11794.0 16286.0 82116.0 74625.0 120371.0 126479.0 100549.0 98753.0 96718.0 94482.0 195049.0 194555.0 33574.0 27007.0 110701.0 109125.0 223701.0 229304.0 123122.0 131147.0 118662.0 120459.0 83708.0 76078.0 103803.0 103185.0 108579.0 107834.0 170380.0 168391.0 93857.0 86950.0 286037.0 292889.0 54851.0 53399.0 63060.0 66194.0 39735.0 31778.0 61013.0 54032.0 102072.0 105235.0 98071.0 93486.0 265627.0 266875.0 49731.0 42668.0 77971.0 71035.0 60629.0 55412.0 74135.0 69332.0 146585.0 149583.0 268135.0 275688.0 26800.0 27157.0 49436.0 57401.0 74692.0 70472.0 88170.0 87221.0 67028.0 58906.0 120350.0 116619.0 185163.0 183533.0 237256.0 230852.0 16095.0 24024.0 155653.0 158606.0 100394.0 140747.0 100394.0 100394.0 140747.0 140747.0
55556.0 63296.0 108174.0 111416.0 45269.0 53467.0 87696.0 82457.0 64452.0 70131.0 7986.0 0.0 262346.0 257138.0 51514.0 52221.0 17838.0 15754.0 84412.0 85836.0 179635.0 173790.0 232763.0 226298.0 69729.0 74262.0 306903.0 299223.0 117336.0 117208.0 55480.0 63084.0 220594.0 221965.0 296418.0 294555.0 141249.0 148888.0 187474.0 181610.0 7257.0 14765.0 87952.0 80675.0 121991.0 128424.0 93662.0 92230.0 103150.0 100534.0 197931.0 197750.0 41333.0 34962.0 103169.0 101414.0 226336.0 231746.0 126086.0 134099.0 110677.0 112486.0 75844.0 68167.0 95817.0 95228.0 116018.0 115047.0 177146.0 175344.0 87811.0 81178.0 288341.0 295194.0 57471.0 54930.0 55075.0 58263.0 43179.0 35237.0 56768.0 50341.0 94257.0 97560.0 96223.0 92205.0 268336.0 269376.0 57061.0 50216.0 71534.0 64933.0 66892.0 62134.0 79308.0 75032.0 151249.0 154561.0 270870.0 278495.0 31413.0 29691.0 53105.0 60973.0 80957.0 77156.0 80213.0 79235.0 73842.0 65902.0 112737.0 108861.0 192826.0 191094.0 241234.0 234975.0 8818.0 16358.0 163633.0 166591.0 93350.0 142168.0 93350.0 93350.0 142168.0 142168.0
312171.0 320318.0 155254.0 151100.0 233104.0 228305.0 316408.0 316324.0 303867.0 311852.0 259475.0 262346.0 0.0 7962.0 212462.0 210302.0 245007.0 247203.0 300965.0 296108.0 91700.0 99564.0 39621.0 47570.0 332051.0 336165.0 47053.0 40632.0 342561.0 347456.0 227392.0 220021.0 43952.0 40655.0 37573.0 39616.0 123475.0 115486.0 90801.0 98814.0 256302.0 248333.0 188143.0 195964.0 142747.0 135316.0 342213.0 344385.0 302901.0 307633.0 64430.0 65521.0 241550.0 248827.0 340864.0 335049.0 36701.0 33444.0 136354.0 128328.0 326064.0 322567.0 310112.0 302632.0 314602.0 319140.0 284442.0 291314.0 339908.0 332650.0 343610.0 338780.0 39872.0 43059.0 204887.0 207892.0 288065.0 283153.0 219740.0 227701.0 318778.0 312668.0 298264.0 295613.0 357318.0 352187.0 8332.0 14879.0 226771.0 233723.0 326272.0 322081.0 286290.0 278643.0 305002.0 296940.0 122787.0 124575.0 9862.0 16346.0 277849.0 283116.0 210126.0 202163.0 197974.0 205610.0 297536.0 302967.0 209498.0 216959.0 347127.0 339794.0 309277.0 314951.0 44034.0 51331.0 269643.0 273496.0 258008.0 251882.0 282043.0 124850.0 282043.0 282043.0 124850.0 124850.0
306451.0 314588.0 150577.0 146140.0 227106.0 222159.0 312246.0 312162.0 297674.0 305664.0 254097.0 257138.0 7962.0 0.0 206946.0 205002.0 239906.0 241897.0 296803.0 291945.0 84728.0 92526.0 31803.0 39792.0 326791.0 330780.0 50478.0 43364.0 335840.0 340818.0 221205.0 213743.0 41243.0 36623.0 45060.0 47469.0 119291.0 111298.0 83370.0 91377.0 251191.0 243242.0 181786.0 189656.0 138407.0 130822.0 338045.0 340060.0 295971.0 300786.0 59330.0 59655.0 235539.0 242898.0 336702.0 330886.0 33285.0 31726.0 131055.0 123040.0 321901.0 318405.0 305950.0 298440.0 310440.0 314978.0 277212.0 284133.0 332325.0 325041.0 339089.0 334134.0 47798.0 51003.0 199668.0 202895.0 283911.0 278990.0 214370.0 222346.0 313689.0 307478.0 294102.0 291451.0 351794.0 346561.0 16285.0 22671.0 220551.0 227585.0 321747.0 317411.0 279838.0 272221.0 298508.0 290436.0 115945.0 117480.0 17613.0 23063.0 272051.0 277447.0 204689.0 196721.0 191600.0 199187.0 293374.0 298805.0 203099.0 210655.0 342964.0 335632.0 301443.0 307144.0 36180.0 43397.0 264548.0 268563.0 250221.0 244064.0 277881.0 121060.0 277881.0 277881.0 121060.0 121060.0
100037.0 108204.0 61892.0 63244.0 28052.0 29715.0 128371.0 125072.0 96378.0 104030.0 47404.0 51514.0 212462.0 206946.0 0.0 7938.0 36352.0 35783.0 119095.0 117533.0 128190.0 122282.0 181722.0 175110.0 120275.0 123917.0 256313.0 248558.0 144332.0 146860.0 30708.0 31289.0 171743.0 172458.0 247377.0 245990.0 94573.0 101673.0 135961.0 130141.0 46780.0 39567.0 39914.0 34401.0 76335.0 81475.0 142392.0 142025.0 115415.0 116389.0 148090.0 147336.0 35202.0 39936.0 148339.0 144921.0 176975.0 182815.0 76265.0 84270.0 146787.0 146146.0 118193.0 110003.0 132540.0 134249.0 114751.0 117337.0 181461.0 177470.0 138531.0 132259.0 239746.0 246598.0 12758.0 18511.0 94773.0 94011.0 9096.0 16448.0 108129.0 101361.0 123525.0 123722.0 144860.0 139776.0 218769.0 220256.0 31650.0 32837.0 121732.0 115738.0 85360.0 77731.0 103513.0 96341.0 99787.0 103326.0 221249.0 228724.0 66367.0 70887.0 3661.0 10596.0 36096.0 36379.0 114847.0 116927.0 35100.0 31671.0 156982.0 151596.0 182809.0 183259.0 189892.0 183548.0 59795.0 65544.0 142523.0 143183.0 112043.0 96878.0 112043.0 112043.0 96878.0 96878.0
103328.0 111478.0 57607.0 59852.0 35255.0 37514.0 124669.0 121786.0 101567.0 109069.0 49230.0 52221.0 210302.0 205002.0 7938.0 0.0 35595.0 36902.0 114500.0 112534.0 127848.0 122294.0 180579.0 174174.0 121791.0 125885.0 254696.0 247007.0 150492.0 152749.0 38573.0 39180.0 168958.0 170041.0 244737.0 243113.0 90654.0 98001.0 136155.0 130673.0 46665.0 38938.0 44550.0 40002.0 71927.0 77605.0 140616.0 140703.0 122603.0 123339.0 145873.0 145552.0 41863.0 45753.0 145448.0 141660.0 174474.0 180081.0 73960.0 81982.0 142143.0 141141.0 114928.0 106740.0 128113.0 130191.0 122557.0 125036.0 189225.0 185292.0 137752.0 131792.0 236842.0 243695.0 6057.0 10574.0 91378.0 89989.0 9723.0 17487.0 108960.0 102536.0 118140.0 117962.0 147280.0 142534.0 216412.0 217646.0 39549.0 40378.0 120722.0 115126.0 91768.0 84250.0 109639.0 102655.0 100443.0 104532.0 218925.0 226497.0 70455.0 74248.0 4795.0 9541.0 42083.0 43282.0 110298.0 112829.0 42357.0 39449.0 153813.0 148120.0 190727.0 191194.0 189225.0 183098.0 59989.0 64976.0 150178.0 150716.0 105770.0 92464.0 105770.0 105770.0 92464.0 92464.0
72889.0 80767.0 90490.0 93948.0 39187.0 46820.0 94372.0 90310.0 78626.0 85031.0 18400.0 17838.0 245007.0 239906.0 36352.0 35595.0 0.0 8555.0 87583.0 87455.0 163443.0 157856.0 216001.0 209674.0 87284.0 92020.0 289814.0 282175.0 131043.0 131635.0 48812.0 55025.0 203042.0 204550.0 278861.0 277010.0 123521.0 131195.0 171684.0 166091.0 11298.0 3353.0 75167.0 68559.0 104225.0 110743.0 106095.0 105676.0 112185.0 110648.0 180633.0 180658.0 38685.0 35438.0 112875.0 109992.0 208883.0 214200.0 108928.0 116916.0 114985.0 115532.0 83455.0 75343.0 100286.0 100996.0 120942.0 121123.0 184744.0 182233.0 102329.0 96244.0 270738.0 277591.0 40415.0 37256.0 60599.0 61406.0 27406.0 20049.0 73784.0 67740.0 94831.0 96728.0 114049.0 110035.0 250906.0 251845.0 50408.0 45245.0 85432.0 79617.0 76756.0 70743.0 91510.0 86176.0 135791.0 139568.0 253453.0 261115.0 44964.0 45498.0 37253.0 44811.0 69424.0 67020.0 83276.0 84011.0 64263.0 57301.0 121859.0 116988.0 195880.0 194869.0 224785.0 218687.0 24642.0 29407.0 162541.0 164701.0 88850.0 124359.0 88850.0 88850.0 124359.0 124359.0
67722.0 75766.0 93725.0 96551.0 32657.0 40643.0 99517.0 94962.0 71247.0 77920.0 12612.0 15754.0 247203.0 241897.0 35783.0 36902.0 8555.0 0.0 93923.0 94253.0 163949.0 158065.0 217237.0 210718.0 84905.0 89011.0 291541.0 283835.0 123328.0 124171.0 42669.0 49564.0 205744.0 206921.0 281549.0 279832.0 126864.0 134387.0 171733.0 165857.0 12245.0 8819.0 72572.0 65477.0 107774.0 113923.0 108521.0 107465.0 103689.0 102247.0 182774.0 182419.0 31033.0 27121.0 116770.0 114399.0 211338.0 216880.0 110861.0 118884.0 121052.0 122004.0 88176.0 80196.0 106255.0 106509.0 112474.0 112591.0 176189.0 173687.0 103357.0 96835.0 273574.0 280427.0 42399.0 40787.0 65963.0 67584.0 27609.0 19625.0 72381.0 65745.0 101939.0 104184.0 110563.0 106065.0 253294.0 254472.0 44278.0 38407.0 86879.0 80487.0 68389.0 62269.0 83489.0 77964.0 135495.0 138822.0 255812.0 263393.0 37756.0 39350.0 37481.0 45397.0 65962.0 62711.0 89629.0 89807.0 59634.0 52121.0 126049.0 121610.0 187652.0 186550.0 225596.0 219299.0 24257.0 30807.0 155065.0 157428.0 96959.0 128140.0 96959.0 96959.0 128140.0 128140.0
109819.0 113028.0 149603.0 156269.0 126506.0 134329.0 18777.0 23799.0 133875.0 135881.0 92376.0 84412.0 300965.0 296803.0 119095.0 114500.0 87583.0 93923.0 0.0 7611.0 231501.0 227726.0 277514.0 272641.0 93744.0 101896.0 347281.0 340057.0 182031.0 178831.0 136335.0 142568.0 257650.0 260365.0 333092.0 331152.0 177522.0 185513.0 241777.0 237821.0 82742.0 85590.0 158861.0 153449.0 158956.0 167042.0 55819.0 62391.0 180991.0 176558.0 238216.0 240415.0 124564.0 119078.0 43917.0 36469.0 264287.0 268773.0 173120.0 180059.0 27693.0 28131.0 22537.0 23343.0 13903.0 18404.0 198489.0 196465.0 255271.0 254623.0 68600.0 70131.0 324880.0 331733.0 116238.0 108950.0 29951.0 26362.0 110388.0 105312.0 80004.0 82904.0 15748.0 23411.0 120426.0 122424.0 306107.0 306316.0 137939.0 132329.0 57865.0 61981.0 145614.0 142821.0 152365.0 150856.0 209128.0 214690.0 308729.0 316614.0 109185.0 102691.0 118279.0 123619.0 154920.0 153698.0 4308.0 8891.0 151288.0 144741.0 47583.0 39551.0 276038.0 273774.0 288684.0 283984.0 77639.0 69819.0 247999.0 250805.0 45843.0 177392.0 45843.0 45843.0 177392.0 177392.0
114661.0 118242.0 145159.0 152002.0 126604.0 134271.0 26267.0 31391.0 137914.0 140275.0 93722.0 85836.0 296108.0 291945.0 117533.0 112534.0 87455.0 94253.0 7611.0 0.0 227217.0 223641.0 272694.0 267744.0 99999.0 108150.0 342423.0 335200.0 186885.0 183923.0 136256.0 142169.0 252792.0 255508.0 328235.0 326294.0 172664.0 180656.0 237658.0 233892.0 83541.0 85706.0 157053.0 151934.0 154099.0 162199.0 63430.0 69971.0 184350.0 180166.0 233358.0 235558.0 125163.0 120068.0 51110.0 43460.0 259430.0 263915.0 168842.0 175632.0 30325.0 28618.0 29754.0 29454.0 18831.0 24764.0 200924.0 199182.0 258768.0 257905.0 76046.0 77360.0 320022.0 326875.0 113898.0 106404.0 33059.0 27718.0 109017.0 104386.0 85856.0 88295.0 9548.0 16438.0 127123.0 128879.0 301250.0 301459.0 137849.0 132562.0 64844.0 68560.0 148662.0 145518.0 156200.0 154347.0 205509.0 211256.0 303872.0 311757.0 111993.0 105861.0 116494.0 121462.0 153548.0 152708.0 8458.0 15949.0 150462.0 144207.0 54146.0 45892.0 278273.0 276214.0 283822.0 279260.0 79603.0 72012.0 249007.0 251591.0 38771.0 172534.0 38771.0 38771.0 172534.0 172534.0
225396.0 233434.0 82126.0 75235.0 145128.0 139483.0 245596.0 244425.0 214491.0 222474.0 175491.0 179635.0 91700.0 84728.0 128190.0 127848.0 163443.0 163949.0 231501.0 227217.0 0.0 7996.0 55350.0 47970.0 248236.0 251439.0 130837.0 122870.0 251233.0 256330.0 138349.0 130535.0 62806.0 58446.0 129139.0 130072.0 62146.0 56622.0 12001.0 14422.0 174455.0 166785.0 98453.0 106475.0 75254.0 67280.0 266985.0 267782.0 211245.0 216074.0 37930.0 31140.0 153426.0 161151.0 268911.0 263875.0 63223.0 71069.0 58385.0 51728.0 257380.0 253956.0 237834.0 229901.0 245337.0 249274.0 192957.0 199731.0 250144.0 243148.0 265378.0 259586.0 126844.0 132327.0 123291.0 128188.0 214651.0 211116.0 136488.0 144401.0 236318.0 229514.0 229658.0 227021.0 271556.0 265807.0 99379.0 103180.0 137553.0 144911.0 248213.0 242883.0 195820.0 188305.0 214353.0 206266.0 31341.0 32994.0 101430.0 107758.0 190782.0 196845.0 126544.0 118742.0 108123.0 115476.0 227808.0 232474.0 119459.0 127351.0 276117.0 269310.0 223525.0 228476.0 61891.0 55362.0 187711.0 192813.0 171603.0 166291.0 213451.0 68145.0 213451.0 213451.0 68145.0 68145.0
218748.0 226755.0 78999.0 71755.0 138393.0 132571.0 241451.0 240062.0 207352.0 215328.0 169440.0 173790.0 99564.0 92526.0 122282.0 122294.0 157856.0 158065.0 227726.0 223641.0 7996.0 0.0 62761.0 55209.0 242054.0 245105.0 138150.0 130163.0 243592.0 248752.0 131388.0 123484.0 70579.0 66381.0 137038.0 138031.0 62063.0 57363.0 14091.0 11601.0 168775.0 161186.0 91438.0 99489.0 73407.0 65669.0 262028.0 262632.0 203461.0 208348.0 45342.0 38881.0 146639.0 154440.0 264484.0 259613.0 71170.0 78996.0 55033.0 49060.0 253883.0 250677.0 233417.0 225430.0 241596.0 245351.0 185008.0 191804.0 242160.0 235171.0 260004.0 254085.0 134839.0 140309.0 117932.0 123137.0 210118.0 206825.0 130730.0 138593.0 230371.0 223470.0 226375.0 223734.0 265027.0 259180.0 107286.0 111144.0 130552.0 137990.0 242902.0 237417.0 188442.0 180966.0 206919.0 198830.0 23940.0 25041.0 109315.0 115574.0 184132.0 190332.0 120781.0 113063.0 101031.0 108285.0 223966.0 228431.0 112286.0 120276.0 271869.0 265194.0 215766.0 220664.0 68544.0 61675.0 181971.0 187258.0 163834.0 158592.0 210164.0 68493.0 210164.0 210164.0 68493.0 68493.0
280120.0 288200.0 129176.0 123686.0 200069.0 194630.0 292930.0 292584.0 269791.0 277777.0 229123.0 232763.0 39621.0 31803.0 181722.0 180579.0 216001.0 217237.0 277514.0 272694.0 55350.0 62761.0 0.0 8032.0 301996.0 305534.0 75502.0 67550.0 306275.0 311489.0 193542.0 185802.0 39024.0 30639.0 76763.0 79236.0 100688.0 92968.0 52316.0 60256.0 227193.0 219354.0 153717.0 161714.0 118612.0 110587.0 317129.0 318562.0 265845.0 270891.0 40965.0 37198.0 208423.0 216038.0 317158.0 311527.0 31804.0 37473.0 107528.0 99731.0 302650.0 299153.0 286229.0 278552.0 291188.0 295721.0 246316.0 253354.0 300701.0 293381.0 316882.0 311494.0 78747.0 82585.0 175587.0 179620.0 263627.0 259265.0 189632.0 197612.0 289527.0 282980.0 274850.0 272199.0 326026.0 320461.0 47916.0 53519.0 192779.0 200063.0 299583.0 294739.0 251158.0 243651.0 269666.0 261577.0 86635.0 87282.0 49406.0 54438.0 245542.0 251367.0 179769.0 171840.0 163424.0 170813.0 274116.0 279520.0 174790.0 182634.0 323647.0 316370.0 269657.0 275344.0 14001.0 16149.0 240544.0 245127.0 218418.0 212268.0 258629.0 104040.0 258629.0 258629.0 104040.0 104040.0
273142.0 281204.0 123744.0 117987.0 192979.0 187424.0 287816.0 287302.0 262457.0 270439.0 222512.0 226298.0 47570.0 39792.0 175110.0 174174.0 209674.0 210718.0 272641.0 267744.0 47970.0 55209.0 8032.0 0.0 295371.0 298801.0 82941.0 74954.0 298565.0 303827.0 186305.0 178505.0 41575.0 33199.0 84784.0 87184.0 96261.0 88710.0 44405.0 52316.0 220828.0 213027.0 146422.0 154441.0 113692.0 105600.0 311440.0 312728.0 258030.0 263121.0 38242.0 33112.0 201306.0 208977.0 311877.0 306364.0 35399.0 42028.0 101612.0 93931.0 297740.0 294243.0 280893.0 273157.0 286282.0 290784.0 238364.0 245421.0 292669.0 285350.0 310876.0 305386.0 86463.0 90459.0 169281.0 173516.0 258150.0 253953.0 183131.0 191100.0 283065.0 276441.0 269940.0 267289.0 319159.0 313518.0 55842.0 61291.0 185517.0 192855.0 293601.0 288636.0 243651.0 236173.0 262118.0 254028.0 79135.0 79539.0 57380.0 62470.0 238543.0 244467.0 173238.0 165333.0 156091.0 163424.0 269183.0 274450.0 167413.0 175321.0 318518.0 311330.0 261718.0 267381.0 16149.0 14001.0 234163.0 238882.0 210441.0 204314.0 253719.0 100037.0 253719.0 253719.0 100037.0 100037.0
32461.0 29047.0 177769.0 181142.0 105696.0 112962.0 82408.0 74484.0 60473.0 57563.0 72873.0 69729.0 332051.0 326791.0 120275.0 121791.0 87284.0 84905.0 93744.0 99999.0 248236.0 242054.0 301996.0 295371.0 0.0 8154.0 376438.0 368721.0 94859.0 89906.0 114638.0 123078.0 290302.0 291691.0 366126.0 364291.0 210763.0 218466.0 255468.0 249209.0 76012.0 84010.0 152874.0 144985.0 191420.0 198022.0 58008.0 50999.0 108745.0 101991.0 267628.0 267324.0 98327.0 90092.0 78692.0 82844.0 296064.0 301457.0 195742.0 203761.0 107640.0 113908.0 72166.0 70561.0 96383.0 90860.0 134949.0 129925.0 177340.0 178732.0 41161.0 33508.0 358019.0 364872.0 127164.0 124540.0 71853.0 80150.0 112483.0 104497.0 16000.0 19698.0 109301.0 116384.0 29522.0 29260.0 338063.0 339094.0 115916.0 108013.0 38573.0 32230.0 82275.0 84581.0 78099.0 80985.0 218939.0 221508.0 340596.0 348213.0 61408.0 53643.0 122274.0 130228.0 144416.0 138787.0 91554.0 84910.0 134909.0 126337.0 88382.0 90155.0 209770.0 205488.0 310056.0 303581.0 62847.0 60525.0 196765.0 201947.0 125530.0 211398.0 125530.0 125530.0 211398.0 211398.0
30605.0 25382.0 182431.0 185530.0 107770.0 114744.0 90428.0 82510.0 57127.0 53303.0 76692.0 74262.0 336165.0 330780.0 123917.0 125885.0 92020.0 89011.0 101896.0 108150.0 251439.0 245105.0 305534.0 298801.0 8154.0 0.0 380231.0 372473.0 88005.0 82753.0 116337.0 124765.0 294733.0 295925.0 370547.0 368768.0 215511.0 223144.0 258383.0 251976.0 80842.0 88809.0 155194.0 147226.0 196241.0 202678.0 64863.0 57527.0 104226.0 97218.0 271738.0 271216.0 100103.0 91911.0 85921.0 90360.0 300348.0 305874.0 199812.0 207837.0 115542.0 121896.0 80285.0 78714.0 104437.0 98839.0 131286.0 125924.0 171420.0 173073.0 47481.0 40213.0 362530.0 369383.0 131405.0 129191.0 79812.0 88087.0 116427.0 108464.0 23552.0 25682.0 117454.0 124532.0 22637.0 21351.0 342297.0 343477.0 117544.0 109647.0 46404.0 40303.0 79803.0 82814.0 73903.0 77476.0 221798.0 224101.0 344810.0 352375.0 62545.0 55300.0 126094.0 134062.0 146482.0 140555.0 99706.0 93060.0 136619.0 128050.0 95450.0 97558.0 205151.0 200649.0 313317.0 306727.0 67940.0 66353.0 193964.0 199369.0 133371.0 216364.0 133371.0 133371.0 216364.0 216364.0
355295.0 363398.0 200905.0 196280.0 275423.0 270082.0 362724.0 362640.0 345291.0 353277.0 303622.0 306903.0 47053.0 50478.0 256313.0 254696.0 289814.0 291541.0 347281.0 342423.0 130837.0 138150.0 75502.0 82941.0 376438.0 380231.0 0.0 8018.0 381299.0 386655.0 269013.0 261297.0 90958.0 87037.0 34804.0 42765.0 169769.0 161775.0 126882.0 134580.0 301080.0 293158.0 229214.0 237204.0 188862.0 181240.0 388511.0 390489.0 340431.0 345694.0 109587.0 109161.0 283800.0 291353.0 387180.0 381365.0 83440.0 80486.0 180886.0 172904.0 372379.0 368883.0 356310.0 348915.0 360918.0 365456.0 319759.0 327017.0 371164.0 363578.0 389436.0 384409.0 53086.0 48255.0 249474.0 252942.0 334388.0 329390.0 263955.0 271941.0 363565.0 357232.0 344580.0 341929.0 400988.0 395563.0 44180.0 47731.0 268263.0 275517.0 372095.0 367674.0 326592.0 319110.0 345053.0 336963.0 162071.0 162331.0 41568.0 33796.0 320763.0 326430.0 254187.0 246225.0 238926.0 246311.0 343852.0 349283.0 250290.0 258133.0 393443.0 386110.0 336153.0 342466.0 71127.0 79010.0 314445.0 318629.0 286377.0 279630.0 328359.0 171494.0 328359.0 328359.0 171494.0 171494.0
347448.0 355546.0 193464.0 188744.0 267531.0 262160.0 355500.0 355281.0 337340.0 345326.0 295889.0 299223.0 40632.0 43364.0 248558.0 247007.0 282175.0 283835.0 340057.0 335200.0 122870.0 130163.0 67550.0 74954.0 368721.0 372473.0 8018.0 0.0 373283.0 378642.0 261083.0 253353.0 84264.0 79988.0 35142.0 42934.0 162536.0 154548.0 118866.0 126561.0 293433.0 285522.0 221268.0 229263.0 181555.0 173883.0 381206.0 383117.0 332413.0 337675.0 102161.0 101520.0 275903.0 283472.0 379956.0 374141.0 76554.0 74023.0 173255.0 165286.0 365156.0 361659.0 349150.0 341719.0 353694.0 358232.0 311768.0 319020.0 363320.0 355748.0 381984.0 376909.0 52321.0 48564.0 241815.0 245355.0 327140.0 322214.0 256240.0 264228.0 355908.0 349542.0 337356.0 334705.0 393185.0 387733.0 38769.0 43234.0 260326.0 267595.0 364645.0 360169.0 318604.0 311126.0 337057.0 328967.0 154088.0 154320.0 36274.0 28991.0 312905.0 318604.0 246457.0 238497.0 230972.0 238346.0 336628.0 342059.0 242327.0 250184.0 386219.0 378886.0 328539.0 334815.0 63125.0 71022.0 306799.0 311038.0 278651.0 271936.0 321135.0 164411.0 321135.0 321135.0 164411.0 164411.0
72234.0 69452.0 204914.0 204542.0 117041.0 118919.0 174433.0 166617.0 52891.0 47954.0 113096.0 117336.0 342561.0 335840.0 144332.0 150492.0 131043.0 123328.0 182031.0 186885.0 251233.0 243592.0 306275.0 298565.0 94859.0 88005.0 381299.0 373283.0 0.0 8160.0 119189.0 125095.0 306668.0 305411.0 379601.0 379670.0 236025.0 242249.0 254417.0 246750.0 124073.0 129324.0 155548.0 148208.0 219247.0 223166.0 152801.0 145532.0 42977.0 36315.0 280941.0 277842.0 109230.0 104755.0 173508.0 177318.0 310231.0 317154.0 213734.0 221083.0 200376.0 205794.0 162887.0 159051.0 187695.0 183164.0 71470.0 63517.0 86211.0 89417.0 135472.0 128180.0 374779.0 381173.0 156444.0 158925.0 154465.0 161604.0 141584.0 135826.0 104104.0 99607.0 196426.0 202318.0 83725.0 76301.0 349924.0 352914.0 119325.0 113991.0 132656.0 125259.0 59153.0 66945.0 40853.0 48073.0 219924.0 219028.0 352126.0 358782.0 86313.0 88007.0 147839.0 154339.0 145758.0 137906.0 178907.0 173787.0 134240.0 127772.0 183241.0 184793.0 128083.0 122015.0 310458.0 302824.0 117715.0 122312.0 134319.0 141498.0 205338.0 239442.0 205338.0 205338.0 239442.0 239442.0
69428.0 65831.0 207944.0 207863.0 119996.0 122371.0 170525.0 162660.0 53014.0 47125.0 113457.0 117208.0 347456.0 340818.0 146860.0 152749.0 131635.0 124171.0 178831.0 183923.0 256330.0 248752.0 311489.0 303827.0 89906.0 82753.0 386655.0 378642.0 8160.0 0.0 122763.0 129011.0 311049.0 309977.0 384376.0 384306.0 239423.0 245798.0 259796.0 252187.0 124112.0 129740.0 159928.0 152445.0 222333.0 226490.0 147613.0 140185.0 50055.0 42992.0 285449.0 282535.0 111985.0 107026.0 168584.0 172668.0 314781.0 321616.0 217541.0 224992.0 196359.0 201997.0 159189.0 155692.0 183978.0 179218.0 79108.0 71208.0 93535.0 97009.0 130072.0 122960.0 379233.0 385713.0 158750.0 160848.0 151830.0 159174.0 143646.0 137582.0 100042.0 96038.0 193471.0 199568.0 77010.0 69807.0 354745.0 357605.0 122996.0 117309.0 128099.0 120919.0 62411.0 70254.0 43622.0 51345.0 224994.0 224326.0 356975.0 363711.0 86686.0 87602.0 150308.0 157033.0 150101.0 142293.0 175835.0 170453.0 138547.0 131791.0 178191.0 180044.0 136112.0 129977.0 315937.0 308354.0 116974.0 121112.0 142309.0 149449.0 203519.0 242642.0 203519.0 203519.0 242642.0 242642.0
88155.0 95975.0 86251.0 85421.0 10213.0 2030.0 142143.0 137419.0 76476.0 84464.0 48172.0 55480.0 227392.0 221205.0 30708.0 38573.0 48812.0 42669.0 136335.0 136256.0 138349.0 131388.0 193542.0 186305.0 114638.0 116337.0 269013.0 261083.0 119189.0 122763.0 0.0 8440.0 189186.0 188701.0 263636.0 263049.0 116845.0 123076.0 143987.0 137112.0 54593.0 50755.0 39960.0 31900.0 100412.0 104026.0 148655.0 146588.0 86562.0 88433.0 164071.0 161915.0 16317.0 24553.0 158629.0 156671.0 193431.0 199960.0 94826.0 102367.0 163620.0 164328.0 130678.0 122762.0 148853.0 149178.0 84070.0 86845.0 150824.0 146771.0 141138.0 133875.0 257429.0 264143.0 43259.0 49083.0 108631.0 110070.0 33800.0 34169.0 105744.0 98001.0 143507.0 145055.0 134802.0 128504.0 234303.0 236624.0 1610.0 6723.0 125784.0 118530.0 60362.0 52521.0 79218.0 71419.0 107547.0 108885.0 236648.0 243735.0 53897.0 61095.0 34265.0 38246.0 30572.0 24220.0 132031.0 132444.0 20287.0 11714.0 168132.0 164000.0 153017.0 153143.0 199917.0 192891.0 64148.0 71828.0 115278.0 116838.0 135648.0 120401.0 135648.0 135648.0 120401.0 120401.0
96480.0 104262.0 81746.0 80259.0 18087.0 10172.0 149035.0 144523.0 84008.0 91998.0 55988.0 63084.0 220021.0 213743.0 31289.0 39180.0 55025.0 49564.0 142568.0 142169.0 130535.0 123484.0 185802.0 178505.0 123078.0 124765.0 261297.0 253353.0 125095.0 129011.0 8440.0 0.0 182305.0 181606.0 256435.0 255985.0 111381.0 117334.0 135949.0 129001.0 61692.0 57244.0 32086.0 24108.0 95639.0 98749.0 156537.0 154618.0 90724.0 93203.0 156991.0 154613.0 24753.0 32989.0 166075.0 163913.0 186362.0 193001.0 88641.0 96007.0 170008.0 170436.0 137740.0 129753.0 155308.0 155891.0 85473.0 88956.0 152252.0 147813.0 149306.0 142095.0 250549.0 257179.0 42980.0 49718.0 115380.0 116430.0 36415.0 38485.0 114114.0 106391.0 149145.0 150348.0 143141.0 136788.0 227017.0 229471.0 7250.0 15120.0 133815.0 126642.0 66797.0 59008.0 85672.0 77741.0 99596.0 100741.0 229338.0 236357.0 62300.0 69533.0 34505.0 36770.0 22472.0 15813.0 138261.0 139000.0 11854.0 3298.0 175481.0 171161.0 151565.0 152134.0 191976.0 184893.0 71829.0 79375.0 111712.0 112764.0 140215.0 115283.0 140215.0 140215.0 115283.0 115283.0
271776.0 279942.0 112702.0 109203.0 194027.0 189907.0 273093.0 273009.0 265321.0 273265.0 218176.0 220594.0 43952.0 41243.0 171743.0 168958.0 203042.0 205744.0 257650.0 252792.0 62806.0 70579.0 39024.0 41575.0 290302.0 294733.0 90958.0 84264.0 306668.0 311049.0 189186.0 182305.0 0.0 8428.0 75824.0 74256.0 80254.0 72322.0 67330.0 74557.0 214333.0 206338.0 151139.0 158616.0 99665.0 92531.0 298917.0 301081.0 268597.0 272710.0 26241.0 31698.0 202484.0 209394.0 297549.0 291734.0 8493.0 11165.0 95564.0 87623.0 282748.0 279252.0 266797.0 259317.0 271287.0 275825.0 252758.0 259124.0 311953.0 305120.0 300467.0 295820.0 68247.0 75015.0 163346.0 165796.0 244750.0 239838.0 178550.0 186440.0 276656.0 270781.0 254949.0 252298.0 316238.0 311415.0 48507.0 48819.0 188726.0 195255.0 283145.0 279170.0 249079.0 241308.0 267938.0 259959.0 90576.0 94548.0 51149.0 59099.0 237819.0 242629.0 169174.0 161265.0 160954.0 168782.0 254221.0 259652.0 172503.0 179403.0 303812.0 296479.0 286327.0 291243.0 52757.0 54678.0 227611.0 231112.0 234402.0 229091.0 238728.0 81174.0 238728.0 238728.0 81174.0 81174.0
272380.0 280540.0 114626.0 110605.0 193933.0 189506.0 275808.0 275725.0 265054.0 273021.0 219260.0 221965.0 40655.0 36623.0 172458.0 170041.0 204550.0 206921.0 260365.0 255508.0 58446.0 66381.0 30639.0 33199.0 291691.0 295925.0 87037.0 79988.0 305411.0 309977.0 188701.0 181606.0 8428.0 0.0 75065.0 74383.0 82861.0 74868.0 61739.0 69260.0 215848.0 207869.0 150093.0 157725.0 102101.0 94663.0 301633.0 303757.0 266778.0 271096.0 24631.0 28060.0 202394.0 209482.0 300265.0 294449.0 4870.0 12630.0 96206.0 88192.0 285464.0 281967.0 269513.0 262032.0 274003.0 278541.0 250137.0 256655.0 308438.0 301498.0 302956.0 298130.0 69542.0 75764.0 164550.0 167382.0 247433.0 242553.0 179545.0 187484.0 278294.0 272256.0 257664.0 255013.0 317229.0 312234.0 46375.0 47969.0 188173.0 194891.0 285618.0 281435.0 248258.0 240528.0 267077.0 259060.0 87564.0 90923.0 48906.0 56587.0 238219.0 243267.0 170021.0 162072.0 159937.0 167706.0 256937.0 262367.0 171499.0 178634.0 306527.0 299194.0 281700.0 286774.0 44441.0 46250.0 229174.0 232934.0 229827.0 224343.0 241444.0 84457.0 241444.0 241444.0 84457.0 84457.0
347363.0 355526.0 188473.0 185021.0 268983.0 264475.0 348535.0 348451.0 340046.0 348018.0 293964.0 296418.0 37573.0 45060.0 247377.0 244737.0 278861.0 281549.0 333092.0 328235.0 129139.0 137038.0 76763.0 84784.0 366126.0 370547.0 34804.0 35142.0 379601.0 384376.0 263636.0 256435.0 75824.0 75065.0 0.0 7961.0 155801.0 147938.0 128362.0 136374.0 290151.0 282155.0 224730.0 232460.0 175242.0 168264.0 374359.0 376523.0 340209.0 344845.0 99663.0 101886.0 277444.0 284547.0 372991.0 367176.0 70449.0 64675.0 171117.0 163124.0 358191.0 354694.0 342239.0 334759.0 346729.0 351267.0 321983.0 328830.0 377384.0 370097.0 375909.0 371221.0 18761.0 13501.0 239150.0 241611.0 320192.0 315280.0 254306.0 262212.0 352443.0 346599.0 330391.0 327740.0 392011.0 387123.0 29764.0 27124.0 263076.0 269871.0 358510.0 354622.0 322942.0 315249.0 341714.0 333670.0 160087.0 162068.0 27746.0 22520.0 313257.0 318234.0 244871.0 236942.0 234575.0 242281.0 329663.0 335094.0 246127.0 253423.0 379254.0 371921.0 346150.0 351943.0 78765.0 86631.0 303420.0 306852.0 295078.0 288839.0 314170.0 157477.0 314170.0 314170.0 157477.0 157477.0
346025.0 354192.0 186570.0 183289.0 268134.0 263831.0 346595.0 346511.0 339346.0 347304.0 292303.0 294555.0 39616.0 47469.0 245990.0 243113.0 277010.0 279832.0 331152.0 326294.0 130072.0 138031.0 79236.0 87184.0 364291.0 368768.0 42765.0 42934.0 379670.0 384306.0 263049.0 255985.0 74256.0 74383.0 7961.0 0.0 153863.0 145999.0 130024.0 138030.0 288294.0 280295.0 224461.0 232106.0 173303.0 166344.0 372419.0 374583.0 340668.0 345154.0 98995.0 101843.0 276595.0 283577.0 371051.0 365236.0 69625.0 63242.0 169818.0 161868.0 356250.0 352754.0 340299.0 332819.0 344789.0 349327.0 323027.0 329770.0 379251.0 372040.0 373969.0 369337.0 11333.0 5638.0 237453.0 239754.0 318251.0 313339.0 252731.0 260599.0 350536.0 344738.0 328451.0 325800.0 390374.0 385617.0 31355.0 26905.0 262534.0 269206.0 356570.0 352721.0 322639.0 314910.0 341454.0 333433.0 160702.0 163065.0 29861.0 26510.0 312071.0 316877.0 243400.0 235500.0 234306.0 242063.0 327723.0 333154.0 245868.0 253017.0 377313.0 369981.0 348893.0 354564.0 82508.0 90198.0 301543.0 304922.0 297614.0 291498.0 312230.0 155537.0 312230.0 312230.0 155537.0 155537.0
193976.0 202120.0 33140.0 31610.0 119645.0 117113.0 192965.0 192881.0 190558.0 198328.0 139437.0 141249.0 123475.0 119291.0 94573.0 90654.0 123521.0 126864.0 177522.0 172664.0 62146.0 62063.0 100688.0 96261.0 210763.0 215511.0 169769.0 162536.0 236025.0 239423.0 116845.0 111381.0 80254.0 82861.0 155801.0 153863.0 0.0 7995.0 74070.0 73664.0 134764.0 126769.0 84281.0 90135.0 19441.0 13099.0 218777.0 220912.0 201751.0 204549.0 60798.0 63494.0 127897.0 133928.0 217421.0 211605.0 86809.0 91394.0 25448.0 21799.0 202620.0 199124.0 186669.0 179188.0 191159.0 195697.0 191768.0 196841.0 256317.0 250543.0 220238.0 215565.0 147591.0 154443.0 84777.0 86323.0 164620.0 159709.0 100373.0 108040.0 196802.0 191146.0 174821.0 172170.0 237358.0 232923.0 128674.0 128981.0 116760.0 122118.0 202911.0 198919.0 177042.0 169203.0 195803.0 188134.0 57329.0 65403.0 131290.0 139160.0 160864.0 164901.0 91601.0 83982.0 93134.0 100833.0 174093.0 179524.0 103874.0 109003.0 223683.0 216351.0 241626.0 244800.0 112405.0 108441.0 147932.0 151117.0 191472.0 188292.0 158600.0 7151.0 158600.0 158600.0 7151.0 7151.0
201322.0 209475.0 40714.0 38453.0 126259.0 123427.0 200956.0 200872.0 197371.0 205178.0 146937.0 148888.0 115486.0 111298.0 101673.0 98001.0 131195.0 134387.0 185513.0 180656.0 56622.0 57363.0 92968.0 88710.0 218466.0 223144.0 161775.0 154548.0 242249.0 245798.0 123076.0 117334.0 72322.0 74868.0 147938.0 145999.0 7995.0 0.0 68620.0 68904.0 142455.0 134458.0 89278.0 95495.0 27343.0 20470.0 226771.0 228899.0 207356.0 210353.0 52885.0 55805.0 134571.0 140777.0 225413.0 219597.0 78827.0 83470.0 29526.0 23958.0 210612.0 207115.0 194661.0 187173.0 199150.0 203689.0 196503.0 201775.0 260513.0 254588.0 228202.0 223504.0 139727.0 146580.0 92178.0 93961.0 172613.0 167701.0 107708.0 115436.0 204580.0 198868.0 182812.0 180161.0 244926.0 240415.0 120714.0 121080.0 122924.0 128512.0 210872.0 206850.0 183389.0 175545.0 202198.0 194468.0 55609.0 63584.0 123327.0 131188.0 168028.0 172214.0 98783.0 91078.0 98401.0 106188.0 182084.0 187515.0 109372.0 114849.0 231675.0 224342.0 244402.0 247801.0 104859.0 101088.0 155656.0 158931.0 193807.0 190342.0 166591.0 11757.0 166591.0 166591.0 11757.0 11757.0
231695.0 239661.0 92857.0 85709.0 151300.0 145243.0 255539.0 254152.0 219548.0 227504.0 182988.0 187474.0 90801.0 83370.0 135961.0 136155.0 171684.0 171733.0 241777.0 237658.0 12001.0 14091.0 52316.0 44405.0 255468.0 258383.0 126882.0 118866.0 254417.0 259796.0 143987.0 135949.0 67330.0 61739.0 128362.0 130024.0 74070.0 68620.0 0.0 8013.0 182552.0 175007.0 104047.0 112117.0 86680.0 78792.0 276048.0 276603.0 213687.0 218851.0 44674.0 36841.0 159467.0 167360.0 278572.0 273705.0 66258.0 74243.0 68931.0 62695.0 267886.0 264627.0 247507.0 239517.0 255644.0 259422.0 194015.0 201040.0 249232.0 242043.0 273898.0 267927.0 127821.0 132740.0 131870.0 137159.0 224202.0 220916.0 144488.0 152318.0 243967.0 237000.0 240324.0 237672.0 278095.0 272136.0 98826.0 103361.0 143087.0 150639.0 256822.0 251277.0 200130.0 192757.0 218440.0 210353.0 36602.0 35570.0 100656.0 106373.0 197100.0 203455.0 134544.0 126875.0 113480.0 120531.0 238027.0 242512.0 124555.0 132706.0 285960.0 279281.0 220411.0 225686.0 56284.0 48986.0 195711.0 201091.0 168664.0 162968.0 224102.0 80125.0 224102.0 224102.0 80125.0 80125.0
225007.0 232937.0 89770.0 82347.0 144634.0 138414.0 251221.0 249629.0 212392.0 220336.0 176932.0 181610.0 98814.0 91377.0 130141.0 130673.0 166091.0 165857.0 237821.0 233892.0 14422.0 11601.0 60256.0 52316.0 249209.0 251976.0 134580.0 126561.0 246750.0 252187.0 137112.0 129001.0 74557.0 69260.0 136374.0 138030.0 73664.0 68904.0 8013.0 0.0 176853.0 169397.0 97241.0 105308.0 84739.0 77083.0 270945.0 271316.0 205896.0 211115.0 51001.0 43507.0 152733.0 160688.0 273972.0 269265.0 73847.0 81822.0 65800.0 60195.0 264177.0 261125.0 242938.0 234902.0 251710.0 255313.0 186060.0 193106.0 241231.0 234050.0 268399.0 262311.0 135771.0 140729.0 126585.0 132151.0 219543.0 216488.0 138789.0 146553.0 237943.0 230889.0 236833.0 234236.0 271489.0 265440.0 106838.0 111353.0 136174.0 143789.0 251394.0 245707.0 192757.0 185429.0 210996.0 202913.0 30363.0 28300.0 108669.0 114373.0 190446.0 196926.0 128867.0 121302.0 106556.0 113480.0 234010.0 238301.0 117512.0 125741.0 281526.0 274976.0 212631.0 217856.0 63761.0 56284.0 189936.0 195486.0 160843.0 155209.0 220667.0 80081.0 220667.0 220667.0 80081.0 80081.0
62794.0 70506.0 101758.0 105246.0 44464.0 52563.0 87568.0 82855.0 71235.0 77095.0 11794.0 7257.0 256302.0 251191.0 46780.0 46665.0 11298.0 12245.0 82742.0 83541.0 174455.0 168775.0 227193.0 220828.0 76012.0 80842.0 301080.0 293433.0 124073.0 124112.0 54593.0 61692.0 214333.0 215848.0 290151.0 288294.0 134764.0 142455.0 182552.0 176853.0 0.0 7999.0 84563.0 77582.0 115445.0 122010.0 96426.0 95562.0 108511.0 106234.0 191924.0 191921.0 41838.0 36545.0 104532.0 102223.0 220181.0 225493.0 120197.0 128189.0 109586.0 110871.0 76096.0 68170.0 94745.0 94721.0 120008.0 119440.0 182143.0 180104.0 91778.0 85483.0 282022.0 288875.0 51634.0 48541.0 54205.0 56388.0 38070.0 30333.0 62498.0 56448.0 91591.0 94375.0 102970.0 99130.0 262205.0 263139.0 56199.0 49954.0 75091.0 68963.0 72405.0 67199.0 85590.0 80985.0 146517.0 150102.0 264751.0 272412.0 37861.0 36756.0 48009.0 55724.0 78139.0 74956.0 78475.0 78220.0 71871.0 64302.0 113835.0 109475.0 196260.0 194787.0 235889.0 229740.0 13366.0 18852.0 165466.0 168115.0 88814.0 135524.0 88814.0 88814.0 135524.0 135524.0
70108.0 77931.0 93759.0 97264.0 40935.0 48744.0 91891.0 87668.0 76730.0 82972.0 16286.0 14765.0 248333.0 243242.0 39567.0 38938.0 3353.0 8819.0 85590.0 85706.0 166785.0 161186.0 219354.0 213027.0 84010.0 88809.0 293158.0 285522.0 129324.0 129740.0 50755.0 57244.0 206338.0 207869.0 282155.0 280295.0 126769.0 134458.0 175007.0 169397.0 7999.0 0.0 78158.0 71450.0 107457.0 114011.0 102971.0 102465.0 111472.0 109708.0 183964.0 184004.0 39790.0 35896.0 110040.0 107290.0 212196.0 217498.0 112272.0 120258.0 112875.0 113615.0 80829.0 72752.0 98127.0 98652.0 121058.0 121017.0 184399.0 182029.0 99042.0 92925.0 274024.0 280876.0 43768.0 40544.0 58167.0 59316.0 30666.0 23194.0 70450.0 64445.0 93274.0 95418.0 110891.0 106956.0 254222.0 255145.0 52360.0 46857.0 82177.0 76311.0 75787.0 70002.0 90087.0 84969.0 139090.0 142832.0 256770.0 264437.0 43069.0 43113.0 40542.0 48132.0 72234.0 69617.0 81287.0 81770.0 66766.0 59621.0 119102.0 114350.0 196426.0 195279.0 228136.0 222033.0 21310.0 26090.0 163810.0 166110.0 88170.0 127556.0 88170.0 88170.0 127556.0 127556.0
127786.0 135700.0 59143.0 55279.0 47493.0 41196.0 168268.0 164865.0 116082.0 124070.0 82116.0 87952.0 188143.0 181786.0 39914.0 44550.0 75167.0 72572.0 158861.0 157053.0 98453.0 91438.0 153717.0 146422.0 152874.0 155194.0 229214.0 221268.0 155548.0 159928.0 39960.0 32086.0 151139.0 150093.0 224730.0 224461.0 84281.0 89278.0 104047.0 97241.0 84563.0 78158.0 0.0 8071.0 71321.0 72576.0 180977.0 180037.0 118579.0 122098.0 125535.0 122848.0 55504.0 63512.0 187910.0 184689.0 154884.0 161688.0 59816.0 66512.0 186538.0 185668.0 157985.0 149802.0 172375.0 174158.0 107522.0 112568.0 172654.0 167202.0 175753.0 169006.0 219305.0 225799.0 44011.0 52002.0 134627.0 133918.0 48887.0 55247.0 142622.0 135213.0 162681.0 162379.0 174327.0 168210.0 195225.0 197840.0 39115.0 46594.0 159428.0 152877.0 98213.0 90525.0 117001.0 108973.0 67587.0 69093.0 197519.0 204468.0 93267.0 99951.0 40587.0 36044.0 9847.0 17644.0 154631.0 156830.0 21407.0 28923.0 196699.0 191436.0 163005.0 165074.0 159960.0 152933.0 96695.0 103351.0 116555.0 115424.0 149818.0 89199.0 149818.0 149818.0 89199.0 89199.0
119730.0 127637.0 63223.0 60173.0 39482.0 33126.0 162274.0 158641.0 108115.0 116105.0 74625.0 80675.0 195964.0 189656.0 34401.0 40002.0 68559.0 65477.0 153449.0 151934.0 106475.0 99489.0 161714.0 154441.0 144985.0 147226.0 237204.0 229263.0 148208.0 152445.0 31900.0 24108.0 158616.0 157725.0 232460.0 232106.0 90135.0 95495.0 112117.0 105308.0 77582.0 71450.0 8071.0 0.0 76120.0 78042.0 173992.0 172872.0 111913.0 115166.0 133135.0 130601.0 47449.0 55479.0 181431.0 178414.0 162500.0 169231.0 66227.0 73219.0 181142.0 180547.0 151765.0 143602.0 166835.0 168373.0 102250.0 106941.0 168017.0 162809.0 168402.0 161570.0 226827.0 233380.0 40463.0 48504.0 128540.0 128179.0 43079.0 48880.0 134909.0 127448.0 157869.0 157896.0 166285.0 160150.0 202998.0 205533.0 31077.0 38526.0 152206.0 145539.0 90534.0 82807.0 109362.0 101361.0 75649.0 77147.0 205307.0 212296.0 85226.0 91961.0 35653.0 32426.0 3303.0 10701.0 149191.0 151094.0 14012.0 20999.0 190354.0 185272.0 160598.0 162298.0 168017.0 161000.0 89457.0 96284.0 115563.0 114972.0 145762.0 94711.0 145762.0 145762.0 94711.0 94711.0
175118.0 183245.0 14452.0 16043.0 102338.0 100489.0 174340.0 174146.0 172662.0 180350.0 120371.0 121991.0 142747.0 138407.0 76335.0 71927.0 104225.0 107774.0 158956.0 154099.0 75254.0 73407.0 118612.0 113692.0 191420.0 196241.0 188862.0 181555.0 219247.0 222333.0 100412.0 95639.0 99665.0 102101.0 175242.0 173303.0 19441.0 27343.0 86680.0 84739.0 115445.0 107457.0 71321.0 76120.0 0.0 8150.0 199654.0 201670.0 186362.0 188715.0 79514.0 81500.0 110424.0 116068.0 198704.0 192961.0 106123.0 110812.0 21879.0 24862.0 184055.0 180558.0 167879.0 160324.0 172590.0 177127.0 178369.0 182967.0 243936.0 238523.0 200885.0 196164.0 167031.0 173884.0 65968.0 67101.0 145624.0 140905.0 81644.0 89182.0 177396.0 171786.0 156255.0 153604.0 218164.0 213831.0 148046.0 148413.0 100483.0 105285.0 183552.0 179507.0 160115.0 152305.0 178737.0 171211.0 62433.0 70226.0 150656.0 158504.0 142344.0 146116.0 73205.0 65811.0 79302.0 86657.0 155523.0 160916.0 89304.0 93535.0 205059.0 197759.0 232582.0 235216.0 129756.0 125257.0 128577.0 131692.0 183724.0 181247.0 140034.0 20556.0 140034.0 140034.0 20556.0 20556.0
180933.0 189081.0 20253.0 18629.0 106639.0 104247.0 182344.0 182074.0 177484.0 185246.0 126479.0 128424.0 135316.0 130822.0 81475.0 77605.0 110743.0 113923.0 167042.0 162199.0 67280.0 65669.0 110587.0 105600.0 198022.0 202678.0 181240.0 173883.0 223166.0 226490.0 104026.0 98749.0 92531.0 94663.0 168264.0 166344.0 13099.0 20470.0 78792.0 77083.0 122010.0 114011.0 72576.0 78042.0 8150.0 0.0 207344.0 209249.0 189299.0 191951.0 71756.0 73522.0 114867.0 120850.0 206640.0 200948.0 98776.0 103694.0 17139.0 17968.0 192155.0 188658.0 175775.0 168181.0 180691.0 185194.0 180069.0 184950.0 245095.0 239483.0 208307.0 203472.0 160072.0 166925.0 71752.0 73501.0 153415.0 148801.0 87321.0 95015.0 184193.0 178435.0 164355.0 161704.0 224458.0 219960.0 140773.0 141340.0 103982.0 109207.0 190967.0 186784.0 164133.0 156299.0 182868.0 175230.0 55986.0 63925.0 143367.0 151171.0 147772.0 151845.0 78509.0 70884.0 81119.0 88709.0 163591.0 168935.0 91614.0 96452.0 213061.0 205793.0 232018.0 234917.0 121650.0 117117.0 135227.0 138593.0 182506.0 179704.0 148135.0 16669.0 148135.0 148135.0 16669.0 16669.0
86663.0 85767.0 188051.0 193469.0 138521.0 146680.0 37740.0 32115.0 115135.0 113803.0 100549.0 93662.0 342213.0 338045.0 142392.0 140616.0 106095.0 108521.0 55819.0 63430.0 266985.0 262028.0 317129.0 311440.0 58008.0 64863.0 388511.0 381206.0 152801.0 147613.0 148655.0 156537.0 298917.0 301633.0 374359.0 372419.0 218777.0 226771.0 276048.0 270945.0 96426.0 102971.0 180977.0 173992.0 199654.0 207344.0 0.0 8242.0 164539.0 158300.0 279100.0 280512.0 133369.0 125777.0 21864.0 28184.0 305518.0 310040.0 209869.0 217509.0 56786.0 64557.0 35632.0 41209.0 50673.0 43380.0 188533.0 184395.0 234961.0 236046.0 18091.0 24653.0 366147.0 373000.0 144396.0 138891.0 54425.0 60509.0 133354.0 126142.0 52442.0 59691.0 70345.0 78341.0 76183.0 80878.0 347375.0 347584.0 150195.0 142886.0 23998.0 32241.0 134088.0 134350.0 133764.0 135265.0 240891.0 245146.0 349997.0 357749.0 103759.0 95434.0 142993.0 150127.0 174461.0 170819.0 56256.0 48248.0 167483.0 159444.0 30724.0 34118.0 265113.0 261327.0 327087.0 321552.0 84849.0 77725.0 247045.0 251404.0 100102.0 218659.0 100102.0 100102.0 218659.0 218659.0
80714.0 79292.0 189721.0 194885.0 136541.0 144642.0 44860.0 38598.0 109301.0 107574.0 98753.0 92230.0 344385.0 340060.0 142025.0 140703.0 105676.0 107465.0 62391.0 69971.0 267782.0 262632.0 318562.0 312728.0 50999.0 57527.0 390489.0 383117.0 145532.0 140185.0 146588.0 154618.0 301081.0 303757.0 376523.0 374583.0 220912.0 228899.0 276603.0 271316.0 95562.0 102465.0 180037.0 172872.0 201670.0 209249.0 8242.0 0.0 158546.0 152140.0 280959.0 282136.0 131003.0 123229.0 30056.0 36404.0 307717.0 312204.0 211117.0 218844.0 64892.0 72585.0 41171.0 45721.0 58212.0 51032.0 183164.0 178797.0 228282.0 229539.0 10159.0 17505.0 368311.0 375164.0 144750.0 139595.0 57625.0 64378.0 133065.0 125650.0 46995.0 54607.0 77313.0 85293.0 68065.0 72917.0 349497.0 349747.0 148101.0 140638.0 20805.0 28383.0 128943.0 129597.0 127748.0 129599.0 241138.0 245159.0 352128.0 360033.0 99912.0 91522.0 142834.0 150157.0 173187.0 169218.0 62449.0 54411.0 165777.0 157601.0 38616.0 42335.0 259348.0 255404.0 328269.0 322588.0 83427.0 76720.0 242520.0 247060.0 105724.0 220823.0 105724.0 105724.0 220823.0 220823.0
77883.0 79708.0 172441.0 170905.0 87389.0 86858.0 177709.0 170462.0 49476.0 51186.0 96718.0 103150.0 302901.0 295971.0 115415.0 122603.0 112185.0 103689.0 180991.0 184350.0 211245.0 203461.0 265845.0 258030.0 108745.0 104226.0 340431.0 332413.0 42977.0 50055.0 86562.0 90724.0 268597.0 266778.0 340209.0 340668.0 201751.0 207356.0 213687.0 205896.0 108511.0 111472.0 118579.0 111913.0 186362.0 189299.0 164539.0 158546.0 0.0 7913.0 242565.0 238916.0 81038.0 79322.0 182884.0 184898.0 271633.0 278801.0 178139.0 185051.0 203500.0 207489.0 165378.0 159772.0 189432.0 186373.0 30315.0 23144.0 74488.0 73643.0 149263.0 141250.0 336316.0 342445.0 128130.0 132299.0 151347.0 157044.0 114955.0 110921.0 112189.0 105425.0 193562.0 198152.0 108846.0 100725.0 310455.0 313801.0 86259.0 82805.0 141546.0 133328.0 36298.0 41469.0 30798.0 30251.0 180128.0 178611.0 312576.0 319001.0 72976.0 78511.0 119073.0 124340.0 109108.0 101255.0 177253.0 173787.0 97987.0 92875.0 193099.0 192750.0 101025.0 96864.0 269391.0 261649.0 106707.0 113368.0 95211.0 101857.0 196277.0 205896.0 196277.0 196277.0 205896.0 205896.0
71682.0 73022.0 174643.0 173452.0 88354.0 88551.0 172619.0 165263.0 43680.0 44572.0 94482.0 100534.0 307633.0 300786.0 116389.0 123339.0 110648.0 102247.0 176558.0 180166.0 216074.0 208348.0 270891.0 263121.0 101991.0 97218.0 345694.0 337675.0 36315.0 42992.0 88433.0 93203.0 272710.0 271096.0 344845.0 345154.0 204549.0 210353.0 218851.0 211115.0 106234.0 109708.0 122098.0 115166.0 188715.0 191951.0 158300.0 152140.0 7913.0 0.0 246774.0 243331.0 81510.0 79008.0 176991.0 179241.0 275941.0 283022.0 181318.0 188385.0 198513.0 202724.0 160352.0 154981.0 184606.0 181322.0 38215.0 31042.0 78746.0 78584.0 142736.0 134767.0 340601.0 346829.0 129010.0 132756.0 147112.0 153074.0 115309.0 110802.0 106102.0 99560.0 189463.0 194280.0 101212.0 93098.0 315113.0 318321.0 88270.0 84187.0 135551.0 127389.0 33922.0 40180.0 24747.0 25923.0 184854.0 183610.0 317267.0 323787.0 69720.0 74626.0 120026.0 125665.0 112479.0 104595.0 172902.0 169166.0 101167.0 95548.0 187175.0 187067.0 107936.0 103502.0 274734.0 267044.0 103508.0 109855.0 103125.0 109762.0 193212.0 208479.0 193212.0 193212.0 208479.0 208479.0
247922.0 256078.0 91318.0 86812.0 169321.0 164875.0 253659.0 253575.0 240424.0 248392.0 195049.0 197931.0 64430.0 59330.0 148090.0 145873.0 180633.0 182774.0 238216.0 233358.0 37930.0 45342.0 40965.0 38242.0 267628.0 271738.0 109587.0 102161.0 280941.0 285449.0 164071.0 156991.0 26241.0 24631.0 99663.0 98995.0 60798.0 52885.0 44674.0 51001.0 191924.0 183964.0 125535.0 133135.0 79514.0 71756.0 279100.0 280959.0 242565.0 246774.0 0.0 8300.0 177782.0 184895.0 278113.0 272243.0 29371.0 36247.0 71927.0 63901.0 263314.0 259818.0 247351.0 239827.0 251853.0 256391.0 226524.0 232906.0 285826.0 279033.0 279849.0 274838.0 93851.0 100265.0 140467.0 143579.0 225135.0 220384.0 155315.0 163274.0 254415.0 248262.0 235515.0 232864.0 292927.0 287853.0 70701.0 72587.0 163546.0 170260.0 262508.0 258109.0 223668.0 215930.0 242495.0 234486.0 64393.0 68623.0 73165.0 80647.0 213702.0 218831.0 145719.0 137759.0 135374.0 143160.0 234787.0 240218.0 146936.0 154028.0 284377.0 277045.0 260916.0 265685.0 53969.0 51924.0 205273.0 209238.0 208977.0 203848.0 219294.0 63526.0 219294.0 219294.0 63526.0 63526.0
246799.0 254937.0 92462.0 87365.0 167584.0 162809.0 255840.0 255592.0 238381.0 246364.0 194555.0 197750.0 65521.0 59655.0 147336.0 145552.0 180658.0 182419.0 240415.0 235558.0 31140.0 38881.0 37198.0 33112.0 267324.0 271216.0 109161.0 101520.0 277842.0 282535.0 161915.0 154613.0 31698.0 28060.0 101886.0 101843.0 63494.0 55805.0 36841.0 43507.0 191921.0 184004.0 122848.0 130601.0 81500.0 73522.0 280512.0 282136.0 238916.0 243331.0 8300.0 0.0 176030.0 183323.0 280160.0 274459.0 32927.0 40505.0 71735.0 63769.0 265514.0 262017.0 249277.0 241650.0 254053.0 258562.0 222081.0 228612.0 280542.0 273650.0 280730.0 275532.0 97502.0 103529.0 140314.0 143854.0 226804.0 222305.0 154852.0 162835.0 254404.0 248083.0 237714.0 235064.0 292162.0 286908.0 72404.0 75076.0 161315.0 168223.0 263402.0 258782.0 221059.0 213372.0 239828.0 231784.0 59505.0 63021.0 74735.0 81865.0 212414.0 217792.0 145126.0 137158.0 132693.0 140395.0 236958.0 242412.0 144243.0 151579.0 286559.0 279244.0 254638.0 259545.0 49217.0 46193.0 205286.0 209529.0 202710.0 197427.0 221494.0 67000.0 221494.0 221494.0 67000.0 67000.0
72282.0 80205.0 96005.0 96287.0 8462.0 14649.0 128946.0 123789.0 62948.0 70845.0 33574.0 41333.0 241550.0 235539.0 35202.0 41863.0 38685.0 31033.0 124564.0 125163.0 153426.0 146639.0 208423.0 201306.0 98327.0 100103.0 283800.0 275903.0 109230.0 111985.0 16317.0 24753.0 202484.0 202394.0 277444.0 276595.0 127897.0 134571.0 159467.0 152733.0 41838.0 39790.0 55504.0 47449.0 110424.0 114867.0 133369.0 131003.0 81038.0 81510.0 177782.0 176030.0 0.0 8237.0 144226.0 142697.0 207066.0 213382.0 107288.0 115064.0 151401.0 152689.0 117164.0 109436.0 136552.0 136333.0 84356.0 85642.0 150003.0 146746.0 125282.0 117920.0 270634.0 277499.0 47626.0 51291.0 95919.0 98204.0 33917.0 30448.0 89518.0 81740.0 132948.0 135206.0 118847.0 112708.0 248295.0 250363.0 17639.0 9797.0 110218.0 102805.0 50175.0 42529.0 68479.0 61188.0 122918.0 124596.0 250684.0 257893.0 37806.0 44823.0 38777.0 45110.0 46469.0 40479.0 120290.0 120006.0 36583.0 28010.0 153911.0 150177.0 157666.0 156971.0 215176.0 208262.0 49660.0 57591.0 124033.0 126439.0 127471.0 130820.0 127471.0 127471.0 130820.0 130820.0
64336.0 72317.0 101617.0 102367.0 16060.0 22874.0 122612.0 117209.0 56635.0 64405.0 27007.0 34962.0 248827.0 242898.0 39936.0 45753.0 35438.0 27121.0 119078.0 120068.0 161151.0 154440.0 216038.0 208977.0 90092.0 91911.0 291353.0 283472.0 104755.0 107026.0 24553.0 32989.0 209394.0 209482.0 284547.0 283577.0 133928.0 140777.0 167360.0 160688.0 36545.0 35896.0 63512.0 55479.0 116068.0 120850.0 125777.0 123229.0 79322.0 79008.0 184895.0 183323.0 8237.0 0.0 137152.0 135878.0 214125.0 220341.0 113985.0 121837.0 145585.0 147200.0 110670.0 103077.0 130723.0 130188.0 85625.0 86146.0 150197.0 147356.0 117342.0 109921.0 277543.0 284393.0 51734.0 54325.0 89989.0 92778.0 36889.0 31809.0 81348.0 73547.0 128130.0 130782.0 110818.0 104777.0 255494.0 257445.0 25865.0 17992.0 102472.0 94963.0 46323.0 39074.0 63905.0 57050.0 130783.0 132597.0 257902.0 265164.0 29760.0 36617.0 43320.0 50306.0 54598.0 48705.0 114838.0 114144.0 44816.0 36245.0 146933.0 143436.0 160533.0 159443.0 222957.0 216094.0 42888.0 50919.0 128962.0 131740.0 124066.0 136565.0 124066.0 124066.0 136565.0 136565.0
105413.0 105410.0 188147.0 194202.0 148416.0 156610.0 25501.0 24576.0 133427.0 132826.0 110701.0 103169.0 340864.0 336702.0 148339.0 145448.0 112875.0 116770.0 43917.0 51110.0 268911.0 264484.0 317158.0 311877.0 78692.0 85921.0 387180.0 379956.0 173508.0 168584.0 158629.0 166075.0 297549.0 300265.0 372991.0 371051.0 217421.0 225413.0 278572.0 273972.0 104532.0 110040.0 187910.0 181431.0 198704.0 206640.0 21864.0 30056.0 182884.0 176991.0 278113.0 280160.0 144226.0 137152.0 0.0 8198.0 304186.0 308672.0 210925.0 218274.0 36719.0 44884.0 31077.0 39070.0 34471.0 27135.0 205534.0 201880.0 254489.0 255241.0 39926.0 45991.0 364779.0 371632.0 148489.0 142167.0 54450.0 57930.0 139248.0 132667.0 70998.0 77463.0 55855.0 63619.0 98037.0 102620.0 346007.0 346216.0 160216.0 153350.0 41511.0 49604.0 150909.0 150375.0 152283.0 153107.0 244386.0 249229.0 348629.0 356514.0 118278.0 110230.0 148411.0 154968.0 182273.0 179455.0 45902.0 38869.0 176403.0 168773.0 10258.0 12311.0 282752.0 279304.0 327761.0 322633.0 94609.0 86812.0 262040.0 265984.0 89757.0 217291.0 89757.0 89757.0 217291.0 217291.0
107998.0 108581.0 182720.0 188944.0 146476.0 154644.0 18722.0 19874.0 135572.0 135438.0 109125.0 101414.0 335049.0 330886.0 144921.0 141660.0 109992.0 114399.0 36469.0 43460.0 263875.0 259613.0 311527.0 306364.0 82844.0 90360.0 381365.0 374141.0 177318.0 172668.0 156671.0 163913.0 291734.0 294449.0 367176.0 365236.0 211605.0 219597.0 273705.0 269265.0 102223.0 107290.0 184689.0 178414.0 192961.0 200948.0 28184.0 36404.0 184898.0 179241.0 272243.0 274459.0 142697.0 135878.0 8198.0 0.0 298371.0 302856.0 205725.0 212975.0 28955.0 37008.0 26741.0 34934.0 26360.0 19108.0 206696.0 203329.0 257199.0 257704.0 45825.0 51120.0 358964.0 365816.0 144436.0 137877.0 50285.0 52789.0 135861.0 129544.0 73828.0 79766.0 47817.0 55527.0 103749.0 107929.0 340191.0 340400.0 158269.0 151613.0 44676.0 52346.0 152133.0 151178.0 154495.0 154901.0 239870.0 244893.0 342813.0 350698.0 118523.0 110669.0 144808.0 151137.0 179391.0 176893.0 38795.0 32259.0 173960.0 166517.0 12261.0 7888.0 284169.0 280931.0 322301.0 317293.0 93056.0 85107.0 262039.0 265771.0 82210.0 211476.0 82210.0 82210.0 211476.0 211476.0
276932.0 285094.0 118816.0 114938.0 198605.0 194224.0 279730.0 279646.0 269759.0 277722.0 223701.0 226336.0 36701.0 33285.0 176975.0 174474.0 208883.0 211338.0 264287.0 259430.0 63223.0 71170.0 31804.0 35399.0 296064.0 300348.0 83440.0 76554.0 310231.0 314781.0 193431.0 186362.0 8493.0 4870.0 70449.0 69625.0 86809.0 78827.0 66258.0 73847.0 220181.0 212196.0 154884.0 162500.0 106123.0 98776.0 305518.0 307717.0 271633.0 275941.0 29371.0 32927.0 207066.0 214125.0 304186.0 298371.0 0.0 7987.0 100710.0 92706.0 289386.0 285889.0 273434.0 265954.0 277924.0 282462.0 255006.0 261524.0 313261.0 306312.0 307008.0 302240.0 64683.0 70942.0 168953.0 171687.0 251387.0 246475.0 184000.0 191929.0 282600.0 276606.0 261586.0 258935.0 321701.0 316743.0 42039.0 43330.0 192911.0 199604.0 289674.0 285558.0 253034.0 245298.0 271858.0 263845.0 92430.0 95757.0 44610.0 52395.0 242808.0 247810.0 174508.0 166567.0 164726.0 172502.0 260858.0 266289.0 176289.0 183398.0 310449.0 303116.0 286371.0 291473.0 45194.0 47802.0 233495.0 237185.0 234512.0 228995.0 245365.0 88159.0 245365.0 245365.0 88159.0 88159.0
282840.0 291006.0 123867.0 120347.0 204923.0 200708.0 284216.0 284132.0 276176.0 284127.0 229304.0 231746.0 33444.0 31726.0 182815.0 180081.0 214200.0 216880.0 268773.0 263915.0 71069.0 78996.0 37473.0 42028.0 301457.0 305874.0 80486.0 74023.0 317154.0 321616.0 199960.0 193001.0 11165.0 12630.0 64675.0 63242.0 91394.0 83470.0 74243.0 81822.0 225493.0 217498.0 161688.0 169231.0 110812.0 103694.0 310040.0 312204.0 278801.0 283022.0 36247.0 40505.0 213382.0 220341.0 308672.0 302856.0 7987.0 0.0 106599.0 98638.0 293871.0 290374.0 277920.0 270440.0 282410.0 286948.0 262476.0 268943.0 321004.0 314080.0 311585.0 306957.0 57626.0 64184.0 174481.0 176956.0 255872.0 250960.0 189663.0 197560.0 287819.0 281940.0 266072.0 263421.0 327360.0 322515.0 37500.0 37654.0 199476.0 206069.0 294266.0 290313.0 259741.0 251984.0 278587.0 270592.0 99974.0 103476.0 40158.0 48151.0 248841.0 253697.0 180267.0 172350.0 171519.0 179324.0 265344.0 270775.0 183077.0 190072.0 314934.0 307602.0 294316.0 299400.0 50118.0 53622.0 238772.0 242277.0 242448.0 236950.0 249851.0 92214.0 249851.0 249851.0 92214.0 92214.0
176254.0 184419.0 23979.0 16851.0 98862.0 95339.0 187364.0 186388.0 170233.0 178131.0 123122.0 126086.0 136354.0 131055.0 76265.0 73960.0 108928.0 110861.0 173120.0 168842.0 58385.0 55033.0 107528.0 101612.0 195742.0 199812.0 180886.0 173255.0 213734.0 217541.0 94826.0 88641.0 95564.0 96206.0 171117.0 169818.0 25448.0 29526.0 68931.0 65800.0 120197.0 112272.0 59816.0 66227.0 21879.0 17139.0 209869.0 211117.0 178139.0 181318.0 71927.0 71735.0 107288.0 113985.0 210925.0 205725.0 100710.0 106599.0 0.0 8025.0 199027.0 195702.0 179862.0 172008.0 186953.0 190926.0 166977.0 172259.0 231124.0 225273.0 209354.0 203996.0 163643.0 170489.0 68620.0 72173.0 156864.0 153035.0 83388.0 91348.0 182689.0 176427.0 171398.0 168748.0 221032.0 216034.0 142544.0 143995.0 94550.0 100567.0 192057.0 187240.0 155171.0 147335.0 174039.0 166204.0 41046.0 48655.0 145038.0 152569.0 142255.0 147119.0 73818.0 65867.0 69059.0 76891.0 169440.0 174184.0 80181.0 86018.0 217949.0 211049.0 216239.0 219370.0 117218.0 111794.0 133561.0 137816.0 166267.0 163249.0 155178.0 31579.0 155178.0 155178.0 31579.0 31579.0
184240.0 192404.0 30473.0 24092.0 106625.0 102933.0 194553.0 193718.0 177994.0 185906.0 131147.0 134099.0 128328.0 123040.0 84270.0 81982.0 116916.0 118884.0 180059.0 175632.0 51728.0 49060.0 99731.0 93931.0 203761.0 207837.0 172904.0 165286.0 221083.0 224992.0 102367.0 96007.0 87623.0 88192.0 163124.0 161868.0 21799.0 23958.0 62695.0 60195.0 128189.0 120258.0 66512.0 73219.0 24862.0 17968.0 217509.0 218844.0 185051.0 188385.0 63901.0 63769.0 115064.0 121837.0 218274.0 212975.0 92706.0 98638.0 8025.0 0.0 205741.0 202285.0 187231.0 179419.0 193857.0 197960.0 173152.0 178608.0 236767.0 230777.0 217175.0 211865.0 155729.0 162581.0 76629.0 80095.0 164330.0 160355.0 91414.0 99373.0 190685.0 184439.0 177982.0 175331.0 229053.0 224043.0 134523.0 136001.0 102046.0 108196.0 199867.0 195111.0 162665.0 154837.0 181542.0 173675.0 38028.0 45992.0 137016.0 144544.0 150204.0 155110.0 81838.0 73885.0 75951.0 83821.0 176430.0 181315.0 87220.0 93314.0 225183.0 218201.0 220506.0 223863.0 109630.0 104360.0 141552.0 145762.0 170054.0 166729.0 161762.0 28701.0 161762.0 161762.0 28701.0 28701.0
129057.0 130943.0 175277.0 182199.0 153700.0 161604.0 26044.0 33769.0 155090.0 156101.0 118662.0 110677.0 326064.0 321901.0 146787.0 142143.0 114985.0 121052.0 27693.0 30325.0 257380.0 253883.0 302650.0 297740.0 107640.0 115542.0 372379.0 365156.0 200376.0 196359.0 163620.0 170008.0 282748.0 285464.0 358191.0 356250.0 202620.0 210612.0 267886.0 264177.0 109586.0 112875.0 186538.0 181142.0 184055.0 192155.0 56786.0 64892.0 203500.0 198513.0 263314.0 265514.0 151401.0 145585.0 36719.0 28955.0 289386.0 293871.0 199027.0 205741.0 0.0 8285.0 38165.0 43996.0 14862.0 17281.0 222768.0 220236.0 277174.0 277033.0 73793.0 78121.0 349978.0 356831.0 143778.0 136403.0 55603.0 53580.0 138079.0 132953.0 96329.0 100947.0 28514.0 34156.0 130889.0 134411.0 331206.0 331415.0 165227.0 159424.0 69149.0 75643.0 168988.0 166880.0 173926.0 173249.0 235834.0 241575.0 333828.0 341713.0 133309.0 126220.0 145953.0 151220.0 182608.0 181330.0 31958.0 31442.0 178879.0 172236.0 33853.0 25792.0 300489.0 297866.0 313803.0 309216.0 103363.0 95362.0 274225.0 277267.0 65346.0 202490.0 65346.0 65346.0 202490.0 202490.0
134079.0 136349.0 171836.0 178924.0 154548.0 162327.0 31558.0 39479.0 159523.0 160879.0 120459.0 112486.0 322567.0 318405.0 146146.0 141141.0 115532.0 122004.0 28131.0 28618.0 253956.0 250677.0 299153.0 294243.0 113908.0 121896.0 368883.0 361659.0 205794.0 201997.0 164328.0 170436.0 279252.0 281967.0 354694.0 352754.0 199124.0 207115.0 264627.0 261125.0 110871.0 113615.0 185668.0 180547.0 180558.0 188658.0 64557.0 72585.0 207489.0 202724.0 259818.0 262017.0 152689.0 147200.0 44884.0 37008.0 285889.0 290374.0 195702.0 202285.0 8285.0 0.0 42937.0 47742.0 18187.0 23060.0 225931.0 223661.0 281459.0 281110.0 81253.0 85237.0 346482.0 353335.0 142438.0 134887.0 57676.0 54486.0 137607.0 132864.0 101994.0 106200.0 24303.0 28492.0 137877.0 141147.0 327709.0 327918.0 165928.0 160405.0 75633.0 81739.0 172562.0 170119.0 178260.0 177255.0 233136.0 239063.0 330331.0 338216.0 136473.0 129658.0 145112.0 150039.0 182146.0 181224.0 32399.0 33902.0 178924.0 172543.0 42109.0 34077.0 303585.0 301157.0 310306.0 305719.0 105558.0 97661.0 276102.0 278932.0 60282.0 198994.0 60282.0 60282.0 198994.0 198994.0
91154.0 93460.0 157150.0 163152.0 120521.0 128648.0 12431.0 6880.0 116930.0 118044.0 83708.0 75844.0 310112.0 305950.0 118193.0 114928.0 83455.0 88176.0 22537.0 29754.0 237834.0 233417.0 286229.0 280893.0 72166.0 80285.0 356310.0 349150.0 162887.0 159189.0 130678.0 137740.0 266797.0 269513.0 342239.0 340299.0 186669.0 194661.0 247507.0 242938.0 76096.0 80829.0 157985.0 151765.0 167879.0 175775.0 35632.0 41171.0 165378.0 160352.0 247351.0 249277.0 117164.0 110670.0 31077.0 26741.0 273434.0 277920.0 179862.0 187231.0 38165.0 42937.0 0.0 8193.0 24808.0 20997.0 185139.0 182394.0 239008.0 238882.0 46455.0 47619.0 334027.0 340880.0 117756.0 111281.0 23574.0 26974.0 109139.0 102886.0 59345.0 63281.0 38250.0 45942.0 98148.0 100446.0 315255.0 315464.0 132283.0 125837.0 35402.0 40038.0 131087.0 129258.0 135761.0 135131.0 213413.0 218338.0 317877.0 325762.0 95860.0 88511.0 118068.0 124412.0 152789.0 150443.0 21669.0 13805.0 147582.0 140272.0 38893.0 33534.0 262862.0 260080.0 296755.0 291591.0 67807.0 59757.0 238212.0 241617.0 64593.0 186539.0 64593.0 64593.0 186539.0 186539.0
86939.0 89862.0 149418.0 155331.0 112626.0 120732.0 19535.0 15070.0 111831.0 113396.0 76078.0 68167.0 302632.0 298440.0 110003.0 106740.0 75343.0 80196.0 23343.0 29454.0 229901.0 225430.0 278552.0 273157.0 70561.0 78714.0 348915.0 341719.0 159051.0 155692.0 122762.0 129753.0 259317.0 262032.0 334759.0 332819.0 179188.0 187173.0 239517.0 234902.0 68170.0 72752.0 149802.0 143602.0 160324.0 168181.0 41209.0 45721.0 159772.0 154981.0 239827.0 241650.0 109436.0 103077.0 39070.0 34934.0 265954.0 270440.0 172008.0 179419.0 43996.0 47742.0 8193.0 0.0 29663.0 27424.0 178776.0 176254.0 233718.0 233380.0 49567.0 49419.0 326547.0 333400.0 109592.0 103155.0 15417.0 19598.0 100950.0 94722.0 56662.0 59679.0 38749.0 45873.0 97782.0 99429.0 307774.0 307983.0 124369.0 118007.0 36164.0 39195.0 125033.0 122886.0 130534.0 129530.0 205330.0 210219.0 310397.0 318281.0 89332.0 82229.0 109874.0 116227.0 144641.0 142350.0 20999.0 14763.0 139517.0 132257.0 47075.0 41674.0 256500.0 253872.0 288989.0 283771.0 60303.0 52243.0 231010.0 234302.0 60608.0 179059.0 60608.0 60608.0 179059.0 179059.0
115911.0 118267.0 163392.0 170102.0 138909.0 146835.0 14177.0 21991.0 141359.0 142692.0 103803.0 95817.0 314602.0 310440.0 132540.0 128113.0 100286.0 106255.0 13903.0 18831.0 245337.0 241596.0 291188.0 286282.0 96383.0 104437.0 360918.0 353694.0 187695.0 183978.0 148853.0 155308.0 271287.0 274003.0 346729.0 344789.0 191159.0 199150.0 255644.0 251710.0 94745.0 98127.0 172375.0 166835.0 172590.0 180691.0 50673.0 58212.0 189432.0 184606.0 251853.0 254053.0 136552.0 130723.0 34471.0 26360.0 277924.0 282410.0 186953.0 193857.0 14862.0 18187.0 24808.0 29663.0 0.0 7456.0 208244.0 205834.0 263331.0 263034.0 65974.0 69071.0 338517.0 345370.0 129970.0 122739.0 40743.0 38906.0 123757.0 118459.0 84053.0 88089.0 21521.0 29168.0 121220.0 124098.0 319745.0 319954.0 150461.0 144609.0 58504.0 64153.0 154655.0 152378.0 160114.0 159188.0 223032.0 228589.0 322367.0 330251.0 118764.0 111801.0 131819.0 137290.0 168235.0 166803.0 17902.0 16582.0 164297.0 157570.0 35920.0 27475.0 285945.0 283407.0 302341.0 297696.0 88534.0 80545.0 259380.0 262408.0 57108.0 191029.0 57108.0 57108.0 191029.0 191029.0
111778.0 113718.0 167538.0 174081.0 139127.0 147151.0 8764.0 16558.0 137857.0 138824.0 103185.0 95228.0 319140.0 314978.0 134249.0 130191.0 100996.0 106509.0 18404.0 24764.0 249274.0 245351.0 295721.0 290784.0 90860.0 98839.0 365456.0 358232.0 183164.0 179218.0 149178.0 155891.0 275825.0 278541.0 351267.0 349327.0 195697.0 203689.0 259422.0 255313.0 94721.0 98652.0 174158.0 168373.0 177127.0 185194.0 43380.0 51032.0 186373.0 181322.0 256391.0 258562.0 136333.0 130188.0 27135.0 19108.0 282462.0 286948.0 190926.0 197960.0 17281.0 23060.0 20997.0 27424.0 7456.0 0.0 206012.0 203340.0 259954.0 259864.0 59056.0 62522.0 343055.0 349908.0 132360.0 125335.0 40547.0 40243.0 125347.0 119699.0 79175.0 83686.0 28723.0 36493.0 114982.0 118130.0 324283.0 324492.0 150787.0 144675.0 52582.0 58717.0 152047.0 150119.0 156710.0 156126.0 226370.0 231752.0 326905.0 334790.0 116638.0 109395.0 133725.0 139494.0 169642.0 167873.0 21604.0 17363.0 165228.0 158263.0 29382.0 21190.0 283741.0 281013.0 306805.0 302030.0 87567.0 79515.0 258383.0 261615.0 63495.0 195567.0 63495.0 63495.0 195567.0 195567.0
102900.0 106099.0 165291.0 162412.0 88354.0 85046.0 197570.0 190773.0 74480.0 78084.0 108579.0 116018.0 284442.0 277212.0 114751.0 122557.0 120942.0 112474.0 198489.0 200924.0 192957.0 185008.0 246316.0 238364.0 134949.0 131286.0 319759.0 311768.0 71470.0 79108.0 84070.0 85473.0 252758.0 250137.0 321983.0 323027.0 191768.0 196503.0 194015.0 186060.0 120008.0 121058.0 107522.0 102250.0 178369.0 180069.0 188533.0 183164.0 30315.0 38215.0 226524.0 222081.0 84356.0 85625.0 205534.0 206696.0 255006.0 262476.0 166977.0 173152.0 222768.0 225931.0 185139.0 178776.0 208244.0 206012.0 0.0 8039.0 66812.0 62750.0 174362.0 166258.0 319479.0 325198.0 127327.0 132974.0 168539.0 173218.0 116671.0 114583.0 136206.0 128844.0 209734.0 213455.0 137945.0 129825.0 292257.0 296130.0 83234.0 82535.0 164901.0 156582.0 54625.0 55894.0 57642.0 53964.0 162602.0 159968.0 294240.0 300267.0 89480.0 96628.0 118329.0 121945.0 99079.0 91752.0 194501.0 192032.0 89347.0 86679.0 215791.0 214583.0 77729.0 75296.0 248656.0 240748.0 121408.0 128913.0 64975.0 71548.0 208797.0 196710.0 208797.0 208797.0 196710.0 196710.0
98211.0 100936.0 169662.0 167085.0 90298.0 87660.0 194815.0 187864.0 69625.0 72621.0 107834.0 115047.0 291314.0 284133.0 117337.0 125036.0 121123.0 112591.0 196465.0 199182.0 199731.0 191804.0 253354.0 245421.0 129925.0 125924.0 327017.0 319020.0 63517.0 71208.0 86845.0 88956.0 259124.0 256655.0 328830.0 329770.0 196841.0 201775.0 201040.0 193106.0 119440.0 121017.0 112568.0 106941.0 182967.0 184950.0 184395.0 178797.0 23144.0 31042.0 232906.0 228612.0 85642.0 86146.0 201880.0 203329.0 261524.0 268943.0 172259.0 178608.0 220236.0 223661.0 182394.0 176254.0 205834.0 203340.0 8039.0 0.0 64390.0 61216.0 169810.0 161727.0 326073.0 331870.0 130022.0 135327.0 166542.0 171534.0 118667.0 116065.0 131966.0 124785.0 208127.0 212110.0 131669.0 123543.0 299086.0 302866.0 86133.0 84724.0 160948.0 152648.0 51328.0 53668.0 52028.0 49204.0 169192.0 166766.0 301095.0 307195.0 87280.0 94033.0 120958.0 125006.0 103835.0 96329.0 192544.0 189769.0 93697.0 90408.0 212135.0 211214.0 80873.0 77705.0 255897.0 248012.0 119956.0 127259.0 72160.0 78927.0 208225.0 201614.0 208225.0 208225.0 201614.0 201614.0
149204.0 149223.0 231239.0 227905.0 154657.0 151746.0 251231.0 243803.0 122106.0 121761.0 170380.0 177146.0 339908.0 332325.0 181461.0 189225.0 184744.0 176189.0 255271.0 258768.0 250144.0 242160.0 300701.0 292669.0 177340.0 171420.0 371164.0 363320.0 86211.0 93535.0 150824.0 152252.0 311953.0 308438.0 377384.0 379251.0 256317.0 260513.0 249232.0 241231.0 182143.0 184399.0 172654.0 168017.0 243936.0 245095.0 234961.0 228282.0 74488.0 78746.0 285826.0 280542.0 150003.0 150197.0 254489.0 257199.0 313261.0 321004.0 231124.0 236767.0 277174.0 281459.0 239008.0 233718.0 263331.0 259954.0 66812.0 64390.0 0.0 8118.0 218501.0 210778.0 376808.0 381939.0 194080.0 199583.0 225736.0 231518.0 183029.0 180439.0 183517.0 177450.0 268011.0 272639.0 169728.0 162113.0 348007.0 352576.0 150017.0 149012.0 212984.0 204987.0 110629.0 115021.0 103247.0 104433.0 221448.0 217529.0 349770.0 355138.0 147417.0 152977.0 185057.0 188757.0 164775.0 157743.0 251585.0 247911.0 155605.0 153377.0 264570.0 264963.0 51844.0 43951.0 300987.0 292930.0 181075.0 187832.0 87051.0 94623.0 270462.0 261626.0 270462.0 270462.0 261626.0 261626.0
149831.0 150290.0 226010.0 222481.0 151049.0 147778.0 251173.0 243840.0 122232.0 122418.0 168391.0 175344.0 332650.0 325041.0 177470.0 185292.0 182233.0 173687.0 254623.0 257905.0 243148.0 235171.0 293381.0 285350.0 178732.0 173073.0 363578.0 355748.0 89417.0 97009.0 146771.0 147813.0 305120.0 301498.0 370097.0 372040.0 250543.0 254588.0 242043.0 234050.0 180104.0 182029.0 167202.0 162809.0 238523.0 239483.0 236046.0 229539.0 73643.0 78584.0 279033.0 273650.0 146746.0 147356.0 255241.0 257704.0 306312.0 314080.0 225273.0 230777.0 277033.0 281110.0 238882.0 233380.0 263034.0 259864.0 62750.0 61216.0 8118.0 0.0 219862.0 212051.0 369709.0 374777.0 190009.0 195721.0 224937.0 230503.0 179392.0 177113.0 184246.0 177949.0 267071.0 271502.0 172411.0 164674.0 340770.0 345403.0 145900.0 145273.0 213737.0 205657.0 109341.0 113259.0 103299.0 103856.0 214690.0 210628.0 342511.0 347818.0 146155.0 152046.0 181036.0 184467.0 159545.0 152660.0 250868.0 247428.0 150666.0 148798.0 265376.0 265508.0 44542.0 36825.0 293510.0 285449.0 179621.0 186563.0 79047.0 86590.0 268692.0 255959.0 268692.0 268692.0 255959.0 255959.0
71604.0 69756.0 188532.0 193368.0 131225.0 139230.0 52132.0 45155.0 100209.0 98168.0 93857.0 87811.0 343610.0 339089.0 138531.0 137752.0 102329.0 103357.0 68600.0 76046.0 265378.0 260004.0 316882.0 310876.0 41161.0 47481.0 389436.0 381984.0 135472.0 130072.0 141138.0 149306.0 300467.0 302956.0 375909.0 373969.0 220238.0 228202.0 273898.0 268399.0 91778.0 99042.0 175753.0 168402.0 200885.0 208307.0 18091.0 10159.0 149263.0 142736.0 279849.0 280730.0 125282.0 117342.0 39926.0 45825.0 307008.0 311585.0 209354.0 217175.0 73793.0 81253.0 46455.0 49567.0 65974.0 59056.0 174362.0 169810.0 218501.0 219862.0 0.0 8114.0 367697.0 374550.0 142100.0 137390.0 59467.0 66916.0 129704.0 122087.0 38659.0 46542.0 83978.0 91881.0 58112.0 62810.0 348912.0 349080.0 142616.0 135010.0 17342.0 22878.0 120411.0 121425.0 118479.0 120612.0 238115.0 241853.0 351528.0 359387.0 92752.0 84344.0 139581.0 147097.0 168542.0 164218.0 68115.0 60166.0 160670.0 152364.0 48726.0 52126.0 250186.0 246123.0 326272.0 320418.0 79115.0 72989.0 234414.0 239118.0 110171.0 220209.0 110171.0 110171.0 220209.0 220209.0
63533.0 61842.0 183563.0 188182.0 124034.0 131986.0 54954.0 47480.0 92140.0 90195.0 86950.0 81178.0 338780.0 334134.0 132259.0 131792.0 96244.0 96835.0 70131.0 77360.0 259586.0 254085.0 311494.0 305386.0 33508.0 40213.0 384409.0 376909.0 128180.0 122960.0 133875.0 142095.0 295820.0 298130.0 371221.0 369337.0 215565.0 223504.0 267927.0 262311.0 85483.0 92925.0 169006.0 161570.0 196164.0 203472.0 24653.0 17505.0 141250.0 134767.0 274838.0 275532.0 117920.0 109921.0 45991.0 51120.0 302240.0 306957.0 203996.0 211865.0 78121.0 85237.0 47619.0 49419.0 69071.0 62522.0 166258.0 161727.0 210778.0 212051.0 8114.0 0.0 363065.0 369918.0 136309.0 131880.0 57447.0 65312.0 123526.0 115814.0 30590.0 38513.0 85778.0 93542.0 52806.0 56811.0 344204.0 344515.0 135336.0 127676.0 13869.0 16755.0 112298.0 113335.0 110459.0 112526.0 231987.0 235566.0 346808.0 354635.0 84895.0 76492.0 133443.0 141055.0 161624.0 157135.0 69153.0 61416.0 153540.0 145184.0 55306.0 57924.0 242142.0 238114.0 320687.0 314733.0 72584.0 66837.0 226323.0 231046.0 109736.0 215591.0 109736.0 109736.0 215591.0 215591.0
339782.0 347949.0 180298.0 177025.0 262182.0 258141.0 340323.0 340239.0 333512.0 341446.0 286037.0 288341.0 39872.0 47798.0 239746.0 236842.0 270738.0 273574.0 324880.0 320022.0 126844.0 134839.0 78747.0 86463.0 358019.0 362530.0 53086.0 52321.0 374779.0 379233.0 257429.0 250549.0 68247.0 69542.0 18761.0 11333.0 147591.0 139727.0 127821.0 135771.0 282022.0 274024.0 219305.0 226827.0 167031.0 160072.0 366147.0 368311.0 336316.0 340601.0 93851.0 97502.0 270634.0 277543.0 364779.0 358964.0 64683.0 57626.0 163643.0 155729.0 349978.0 346482.0 334027.0 326547.0 338517.0 343055.0 319479.0 326073.0 376808.0 369709.0 367697.0 363065.0 0.0 8022.0 231189.0 233482.0 311980.0 307068.0 246459.0 254328.0 344264.0 338466.0 322179.0 319528.0 384108.0 379346.0 31693.0 25269.0 256973.0 263481.0 350298.0 346449.0 317315.0 309548.0 336169.0 328183.0 156887.0 159764.0 31096.0 30657.0 305889.0 310631.0 237138.0 229245.0 229133.0 236944.0 321451.0 326882.0 240689.0 247639.0 371042.0 363709.0 347760.0 353243.0 83884.0 91195.0 295271.0 298650.0 296224.0 290298.0 305958.0 149265.0 305958.0 305958.0 149265.0 149265.0
346555.0 354722.0 187151.0 183878.0 269042.0 264886.0 347176.0 347092.0 340330.0 348276.0 292889.0 295194.0 43059.0 51003.0 246598.0 243695.0 277591.0 280427.0 331733.0 326875.0 132327.0 140309.0 82585.0 90459.0 364872.0 369383.0 48255.0 48564.0 381173.0 385713.0 264143.0 257179.0 75015.0 75764.0 13501.0 5638.0 154443.0 146580.0 132740.0 140729.0 288875.0 280876.0 225799.0 233380.0 173884.0 166925.0 373000.0 375164.0 342445.0 346829.0 100265.0 103529.0 277499.0 284393.0 371632.0 365816.0 70942.0 64184.0 170489.0 162581.0 356831.0 353335.0 340880.0 333400.0 345370.0 349908.0 325198.0 331870.0 381939.0 374777.0 374550.0 369918.0 8022.0 0.0 238042.0 240335.0 318832.0 313920.0 253312.0 261181.0 351117.0 345319.0 329032.0 326381.0 390961.0 386199.0 34728.0 29390.0 263660.0 270242.0 357151.0 353302.0 323904.0 316153.0 342742.0 334739.0 162699.0 165308.0 33550.0 31136.0 312721.0 317484.0 243990.0 236097.0 235638.0 243425.0 328304.0 333735.0 247199.0 254242.0 377894.0 370562.0 352135.0 357730.0 86551.0 94124.0 302124.0 305503.0 300743.0 294704.0 312811.0 156118.0 312811.0 312811.0 156118.0 156118.0
109203.0 117345.0 51688.0 54165.0 40743.0 42364.0 127140.0 124583.0 107622.0 115126.0 54851.0 57471.0 204887.0 199668.0 12758.0 6057.0 40415.0 42399.0 116238.0 113898.0 123291.0 117932.0 175587.0 169281.0 127164.0 131405.0 249474.0 241815.0 156444.0 158750.0 43259.0 42980.0 163346.0 164550.0 239150.0 237453.0 84777.0 92178.0 131870.0 126585.0 51634.0 43768.0 44011.0 40463.0 65968.0 71752.0 144396.0 144750.0 128130.0 129010.0 140467.0 140314.0 47626.0 51734.0 148489.0 144436.0 168953.0 174481.0 68620.0 76629.0 143778.0 142438.0 117756.0 109592.0 129970.0 132360.0 127327.0 130022.0 194080.0 190009.0 142100.0 136309.0 231189.0 238042.0 0.0 8047.0 94182.0 92305.0 15698.0 23263.0 114093.0 107810.0 119100.0 118517.0 152921.0 148268.0 210925.0 212074.0 44110.0 45594.0 124973.0 119596.0 97648.0 90093.0 115593.0 108563.0 96495.0 100906.0 213450.0 221053.0 76469.0 80159.0 9100.0 8047.0 42895.0 45143.0 112091.0 115006.0 44732.0 42858.0 156640.0 150724.0 194437.0 195101.0 184448.0 178430.0 64998.0 69620.0 152935.0 153192.0 105814.0 86491.0 105814.0 105814.0 86491.0 86491.0
108437.0 116512.0 53248.0 56792.0 45225.0 47969.0 120347.0 118069.0 108974.0 116264.0 53399.0 54930.0 207892.0 202895.0 18511.0 10574.0 37256.0 40787.0 108950.0 106404.0 128188.0 123137.0 179620.0 173516.0 124540.0 129191.0 252942.0 245355.0 158925.0 160848.0 49083.0 49718.0 165796.0 167382.0 241611.0 239754.0 86323.0 93961.0 137159.0 132151.0 48541.0 40544.0 52002.0 48504.0 67101.0 73501.0 138891.0 139595.0 132299.0 132756.0 143579.0 143854.0 51291.0 54325.0 142167.0 137877.0 171687.0 176956.0 72173.0 80095.0 136403.0 134887.0 111281.0 103155.0 122739.0 125335.0 132974.0 135327.0 199583.0 195721.0 137390.0 131880.0 233482.0 240335.0 8047.0 0.0 87741.0 85457.0 17477.0 23398.0 110914.0 104988.0 111416.0 110686.0 151064.0 146767.0 213720.0 214605.0 50088.0 50605.0 120149.0 115128.0 100629.0 93262.0 118118.0 111372.0 102302.0 107065.0 216275.0 223963.0 76820.0 79715.0 15218.0 16094.0 50909.0 52941.0 104840.0 108009.0 52341.0 49893.0 150112.0 144011.0 201279.0 201765.0 188882.0 183062.0 61819.0 65687.0 160425.0 160819.0 97865.0 87390.0 97865.0 97865.0 87390.0 87390.0
82406.0 86596.0 134453.0 140237.0 98582.0 106605.0 33789.0 30415.0 104918.0 107473.0 63060.0 55075.0 288065.0 283911.0 94773.0 91378.0 60599.0 65963.0 29951.0 33059.0 214651.0 210118.0 263627.0 258150.0 71853.0 79812.0 334388.0 327140.0 154465.0 151830.0 108631.0 115380.0 244750.0 247433.0 320192.0 318251.0 164620.0 172613.0 224202.0 219543.0 54205.0 58167.0 134627.0 128540.0 145624.0 153415.0 54425.0 57625.0 151347.0 147112.0 225135.0 226804.0 95919.0 89989.0 54450.0 50285.0 251387.0 255872.0 156864.0 164330.0 55603.0 57676.0 23574.0 15417.0 40743.0 40547.0 168539.0 166542.0 225736.0 224937.0 59467.0 57447.0 311980.0 318832.0 94182.0 87741.0 0.0 8344.0 85746.0 79686.0 56453.0 57390.0 42429.0 47880.0 100692.0 101108.0 293207.0 293416.0 110241.0 104155.0 43578.0 43753.0 115786.0 112887.0 123150.0 121307.0 189936.0 194806.0 295829.0 303714.0 79265.0 72906.0 94569.0 100852.0 129659.0 127594.0 26005.0 24161.0 124862.0 117787.0 62465.0 56824.0 246096.0 243824.0 273941.0 268653.0 47900.0 39985.0 218659.0 221666.0 53939.0 164492.0 53939.0 53939.0 164492.0 164492.0
89768.0 94244.0 130218.0 136291.0 100196.0 108058.0 34896.0 33364.0 111412.0 114310.0 66194.0 58263.0 283153.0 278990.0 94011.0 89989.0 61406.0 67584.0 26362.0 27718.0 211116.0 206825.0 259265.0 253953.0 80150.0 88087.0 329390.0 322214.0 161604.0 159174.0 110070.0 116430.0 239838.0 242553.0 315280.0 313339.0 159709.0 167701.0 220916.0 216488.0 56388.0 59316.0 133918.0 128179.0 140905.0 148801.0 60509.0 64378.0 157044.0 153074.0 220384.0 222305.0 98204.0 92778.0 57930.0 52789.0 246475.0 250960.0 153035.0 160355.0 53580.0 54486.0 26974.0 19598.0 38906.0 40243.0 173218.0 171534.0 231518.0 230503.0 66916.0 65312.0 307068.0 313920.0 92305.0 85457.0 8344.0 0.0 85127.0 79624.0 64679.0 65362.0 36608.0 41240.0 109030.0 109398.0 288295.0 288504.0 111676.0 105990.0 51467.0 51995.0 121185.0 117884.0 129388.0 127187.0 187163.0 192296.0 290917.0 298802.0 84435.0 78541.0 93486.0 99331.0 129496.0 127929.0 22088.0 22919.0 125398.0 118671.0 65047.0 58606.0 250555.0 248503.0 269832.0 264711.0 51886.0 44309.0 221730.0 224480.0 45598.0 159580.0 45598.0 45598.0 159580.0 159580.0
93615.0 101767.0 67330.0 69511.0 28372.0 32365.0 119385.0 116018.0 92144.0 99582.0 39735.0 43179.0 219740.0 214370.0 9096.0 9723.0 27406.0 27609.0 110388.0 109017.0 136488.0 130730.0 189632.0 183131.0 112483.0 116427.0 263955.0 256240.0 141584.0 143646.0 33800.0 36415.0 178550.0 179545.0 254306.0 252731.0 100373.0 107708.0 144488.0 138789.0 38070.0 30666.0 48887.0 43079.0 81644.0 87321.0 133354.0 133065.0 114955.0 115309.0 155315.0 154852.0 33917.0 36889.0 139248.0 135861.0 184000.0 189663.0 83388.0 91414.0 138079.0 137607.0 109139.0 100950.0 123757.0 125347.0 116671.0 118667.0 183029.0 179392.0 129704.0 123526.0 246459.0 253312.0 15698.0 17477.0 85746.0 85127.0 0.0 7988.0 99937.0 93353.0 115228.0 115692.0 137708.0 132892.0 225907.0 227205.0 35046.0 34155.0 112837.0 106950.0 83168.0 75786.0 100751.0 93938.0 108461.0 112166.0 228411.0 235956.0 60772.0 64528.0 9949.0 17798.0 44550.0 44011.0 106124.0 108046.0 42227.0 37483.0 147910.0 142562.0 186817.0 186907.0 198055.0 191814.0 51243.0 56726.0 148119.0 149153.0 104539.0 102177.0 104539.0 104539.0 102177.0 102177.0
85949.0 94087.0 74940.0 77336.0 26692.0 32432.0 113448.0 109762.0 85580.0 92869.0 31778.0 35237.0 227701.0 222346.0 16448.0 17487.0 20049.0 19625.0 105312.0 104386.0 144401.0 138593.0 197612.0 191100.0 104497.0 108464.0 271941.0 264228.0 135826.0 137582.0 34169.0 38485.0 186440.0 187484.0 262212.0 260599.0 108040.0 115436.0 152318.0 146553.0 30333.0 23194.0 55247.0 48880.0 89182.0 95015.0 126142.0 125650.0 110921.0 110802.0 163274.0 162835.0 30448.0 31809.0 132667.0 129544.0 191929.0 197560.0 91348.0 99373.0 132953.0 132864.0 102886.0 94722.0 118459.0 119699.0 114583.0 116065.0 180439.0 177113.0 122087.0 115814.0 254328.0 261181.0 23263.0 23398.0 79686.0 79624.0 7988.0 0.0 91977.0 85370.0 111025.0 111976.0 129800.0 125051.0 233850.0 235117.0 35615.0 32939.0 105312.0 99290.0 78010.0 70866.0 95100.0 88567.0 116207.0 119773.0 236358.0 243912.0 53569.0 56939.0 17871.0 25772.0 49980.0 48387.0 101020.0 102494.0 46076.0 40153.0 141507.0 136393.0 186426.0 186171.0 206003.0 199739.0 43395.0 49103.0 149430.0 150869.0 101763.0 109679.0 101763.0 101763.0 109679.0 109679.0
34438.0 34837.0 163971.0 167692.0 96259.0 103942.0 70489.0 62618.0 62735.0 61829.0 61013.0 56768.0 318778.0 313689.0 108129.0 108960.0 73784.0 72381.0 80004.0 85856.0 236318.0 230371.0 289527.0 283065.0 16000.0 23552.0 363565.0 355908.0 104104.0 100042.0 105744.0 114114.0 276656.0 278294.0 352443.0 350536.0 196802.0 204580.0 243967.0 237943.0 62498.0 70450.0 142622.0 134909.0 177396.0 184193.0 52442.0 46995.0 112189.0 106102.0 254415.0 254404.0 89518.0 81348.0 70998.0 73828.0 282600.0 287819.0 182689.0 190685.0 96329.0 101994.0 59345.0 56662.0 84053.0 79175.0 136206.0 131966.0 183517.0 184246.0 38659.0 30590.0 344264.0 351117.0 114093.0 110914.0 56453.0 64679.0 99937.0 91977.0 0.0 8042.0 95298.0 102101.0 45521.0 44899.0 324634.0 325473.0 107130.0 99314.0 29490.0 21493.0 81951.0 82777.0 81461.0 82823.0 207592.0 210568.0 327188.0 334870.0 54803.0 46460.0 109847.0 117734.0 134634.0 129549.0 77480.0 71317.0 125800.0 117299.0 81132.0 81523.0 212671.0 208916.0 297975.0 291674.0 49142.0 45805.0 195764.0 200460.0 109849.0 197172.0 109849.0 109849.0 197172.0 197172.0
28309.0 30217.0 158187.0 161669.0 88609.0 96219.0 74932.0 67189.0 55964.0 55705.0 54032.0 50341.0 312668.0 307478.0 101361.0 102536.0 67740.0 65745.0 82904.0 88295.0 229514.0 223470.0 282980.0 276441.0 19698.0 25682.0 357232.0 349542.0 99607.0 96038.0 98001.0 106391.0 270781.0 272256.0 346599.0 344738.0 191146.0 198868.0 237000.0 230889.0 56448.0 64445.0 135213.0 127448.0 171786.0 178435.0 59691.0 54607.0 105425.0 99560.0 248262.0 248083.0 81740.0 73547.0 77463.0 79766.0 276606.0 281940.0 176427.0 184439.0 100947.0 106200.0 63281.0 59679.0 88089.0 83686.0 128844.0 124785.0 177450.0 177949.0 46542.0 38513.0 338466.0 345319.0 107810.0 104988.0 57390.0 65362.0 93353.0 85370.0 8042.0 0.0 97822.0 104281.0 48315.0 46348.0 318621.0 319585.0 99369.0 91530.0 36187.0 27920.0 74423.0 75005.0 74833.0 75767.0 200559.0 203396.0 321162.0 328804.0 46765.0 38431.0 103214.0 111141.0 127100.0 121892.0 80062.0 74442.0 118114.0 109593.0 87674.0 87559.0 205587.0 201968.0 291253.0 284876.0 43214.0 40876.0 187968.0 192604.0 109735.0 191730.0 109735.0 109735.0 191730.0 191730.0
124204.0 127786.0 147536.0 154622.0 134015.0 141542.0 32612.0 38864.0 147339.0 149768.0 102072.0 94257.0 298264.0 294102.0 123525.0 118140.0 94831.0 101939.0 15748.0 9548.0 229658.0 226375.0 274850.0 269940.0 109301.0 117454.0 344580.0 337356.0 196426.0 193471.0 143507.0 149145.0 254949.0 257664.0 330391.0 328451.0 174821.0 182812.0 240324.0 236833.0 91591.0 93274.0 162681.0 157869.0 156255.0 164355.0 70345.0 77313.0 193562.0 189463.0 235515.0 237714.0 132948.0 128130.0 55855.0 47817.0 261586.0 266072.0 171398.0 177982.0 28514.0 24303.0 38250.0 38749.0 21521.0 28723.0 209734.0 208127.0 268011.0 267071.0 83978.0 85778.0 322179.0 329032.0 119100.0 111416.0 42429.0 36608.0 115228.0 111025.0 95298.0 97822.0 0.0 7995.0 136157.0 138081.0 303406.0 303615.0 145088.0 140063.0 73610.0 77671.0 157774.0 154485.0 165570.0 163616.0 208913.0 214895.0 306028.0 313913.0 121040.0 115052.0 122268.0 126829.0 159618.0 159142.0 17818.0 24629.0 157049.0 151065.0 57298.0 48785.0 286951.0 284999.0 286003.0 281416.0 88331.0 80874.0 256941.0 259367.0 36893.0 174691.0 36893.0 36893.0 174691.0 174691.0
130183.0 134054.0 144895.0 151979.0 135790.0 143121.0 40607.0 46807.0 152607.0 155331.0 105235.0 97560.0 295613.0 291451.0 123722.0 117962.0 96728.0 104184.0 23411.0 16438.0 227021.0 223734.0 272199.0 267289.0 116384.0 124532.0 341929.0 334705.0 202318.0 199568.0 145055.0 150348.0 252298.0 255013.0 327740.0 325800.0 172170.0 180161.0 237672.0 234236.0 94375.0 95418.0 162379.0 157896.0 153604.0 161704.0 78341.0 85293.0 198152.0 194280.0 232864.0 235064.0 135206.0 130782.0 63619.0 55527.0 258935.0 263421.0 168748.0 175331.0 34156.0 28492.0 45942.0 45873.0 29168.0 36493.0 213455.0 212110.0 272639.0 271502.0 91881.0 93542.0 319528.0 326381.0 118517.0 110686.0 47880.0 41240.0 115692.0 111976.0 102101.0 104281.0 7995.0 0.0 143559.0 145302.0 300755.0 300964.0 146617.0 141932.0 81202.0 84998.0 162162.0 158571.0 170628.0 168379.0 206530.0 212656.0 303378.0 311262.0 125348.0 119695.0 122243.0 126376.0 159784.0 159702.0 24893.0 32199.0 157785.0 152125.0 64628.0 56088.0 290382.0 288626.0 283353.0 278765.0 92154.0 84967.0 259223.0 261427.0 31861.0 172040.0 31861.0 31861.0 172040.0 172040.0
46669.0 39078.0 204234.0 207086.0 126861.0 133349.0 107044.0 99290.0 67325.0 61328.0 98071.0 96223.0 357318.0 351794.0 144860.0 147280.0 114049.0 110563.0 120426.0 127123.0 271556.0 265027.0 326026.0 319159.0 29522.0 22637.0 400988.0 393185.0 83725.0 77010.0 134802.0 143141.0 316238.0 317229.0 392011.0 390374.0 237358.0 244926.0 278095.0 271489.0 102970.0 110891.0 174327.0 166285.0 218164.0 224458.0 76183.0 68065.0 108846.0 101212.0 292927.0 292162.0 118847.0 110818.0 98037.0 103749.0 321701.0 327360.0 221032.0 229053.0 130889.0 137877.0 98148.0 97782.0 121220.0 114982.0 137945.0 131669.0 169728.0 172411.0 58112.0 52806.0 384108.0 390961.0 152921.0 151064.0 100692.0 109030.0 137708.0 129800.0 45521.0 48315.0 136157.0 143559.0 0.0 8126.0 363575.0 364912.0 135891.0 128079.0 62862.0 58587.0 90959.0 95488.0 80701.0 86073.0 241497.0 243415.0 366068.0 373571.0 81060.0 74711.0 147215.0 155171.0 165288.0 158942.0 118678.0 111535.0 154942.0 146438.0 106609.0 110230.0 207952.0 202738.0 333441.0 326701.0 90261.0 88942.0 202322.0 208285.0 154576.0 238386.0 154576.0 154576.0 238386.0 238386.0
40441.0 32528.0 199783.0 202386.0 120836.0 127108.0 109961.0 102108.0 59569.0 53393.0 93486.0 92205.0 352187.0 346561.0 139776.0 142534.0 110035.0 106065.0 122424.0 128879.0 265807.0 259180.0 320461.0 313518.0 29260.0 21351.0 395563.0 387733.0 76301.0 69807.0 128504.0 136788.0 311415.0 312234.0 387123.0 385617.0 232923.0 240415.0 272136.0 265440.0 99130.0 106956.0 168210.0 160150.0 213831.0 219960.0 80878.0 72917.0 100725.0 93098.0 287853.0 286908.0 112708.0 104777.0 102620.0 107929.0 316743.0 322515.0 216034.0 224043.0 134411.0 141147.0 100446.0 99429.0 124098.0 118130.0 129825.0 123543.0 162113.0 164674.0 62810.0 56811.0 379346.0 386199.0 148268.0 146767.0 101108.0 109398.0 132892.0 125051.0 44899.0 46348.0 138081.0 145302.0 8126.0 0.0 358541.0 360008.0 129546.0 121788.0 65601.0 60462.0 83200.0 87919.0 72622.0 78084.0 235558.0 237296.0 361016.0 368468.0 75050.0 69137.0 142253.0 150182.0 159051.0 152558.0 120421.0 113547.0 148543.0 140082.0 111530.0 114681.0 199936.0 194767.0 327663.0 320848.0 86774.0 86136.0 194231.0 200215.0 154719.0 234156.0 154719.0 154719.0 234156.0 234156.0
318623.0 326778.0 160844.0 156959.0 239840.0 235180.0 321550.0 321467.0 310758.0 318738.0 265627.0 268336.0 8332.0 16285.0 218769.0 216412.0 250906.0 253294.0 306107.0 301250.0 99379.0 107286.0 47916.0 55842.0 338063.0 342297.0 44180.0 38769.0 349924.0 354745.0 234303.0 227017.0 48507.0 46375.0 29764.0 31355.0 128674.0 120714.0 98826.0 106838.0 262205.0 254222.0 195225.0 202998.0 148046.0 140773.0 347375.0 349497.0 310455.0 315113.0 70701.0 72404.0 248295.0 255494.0 346007.0 340191.0 42039.0 37500.0 142544.0 134523.0 331206.0 327709.0 315255.0 307774.0 319745.0 324283.0 292257.0 299086.0 348007.0 340770.0 348912.0 344204.0 31693.0 34728.0 210925.0 213720.0 293207.0 288295.0 225907.0 233850.0 324634.0 318621.0 303406.0 300755.0 363575.0 358541.0 0.0 7469.0 233713.0 240588.0 331585.0 327534.0 293421.0 285749.0 312168.0 304115.0 130329.0 132321.0 2678.0 10717.0 284386.0 289531.0 216361.0 208408.0 205066.0 212741.0 302679.0 308109.0 216607.0 223980.0 352269.0 344936.0 317559.0 323215.0 52203.0 59589.0 275524.0 279223.0 266261.0 260155.0 287186.0 129679.0 287186.0 287186.0 129679.0 129679.0
320239.0 328402.0 161520.0 157964.0 241902.0 237445.0 321759.0 321676.0 313005.0 320974.0 266875.0 269376.0 14879.0 22671.0 220256.0 217646.0 251845.0 254472.0 306316.0 301459.0 103180.0 111144.0 53519.0 61291.0 339094.0 343477.0 47731.0 43234.0 352914.0 357605.0 236624.0 229471.0 48819.0 47969.0 27124.0 26905.0 128981.0 121080.0 103361.0 111353.0 263139.0 255145.0 197840.0 205533.0 148413.0 141340.0 347584.0 349747.0 313801.0 318321.0 72587.0 75076.0 250363.0 257445.0 346216.0 340400.0 43330.0 37654.0 143995.0 136001.0 331415.0 327918.0 315464.0 307983.0 319954.0 324492.0 296130.0 302866.0 352576.0 345403.0 349080.0 344515.0 25269.0 29390.0 212074.0 214605.0 293416.0 288504.0 227205.0 235117.0 325473.0 319585.0 303615.0 300964.0 364912.0 360008.0 7469.0 0.0 236079.0 242835.0 331771.0 327887.0 296047.0 288338.0 314840.0 306807.0 133802.0 136174.0 8434.0 14253.0 286135.0 291110.0 217757.0 209826.0 207687.0 215419.0 302888.0 308318.0 219245.0 226476.0 352478.0 345145.0 322836.0 328395.0 58849.0 66024.0 276422.0 279928.0 271398.0 265391.0 287395.0 129575.0 287395.0 287395.0 129575.0 129575.0
89231.0 97020.0 86374.0 85395.0 11801.0 3638.0 143751.0 139022.0 77126.0 85116.0 49731.0 57061.0 226771.0 220551.0 31650.0 39549.0 50408.0 44278.0 137939.0 137849.0 137553.0 130552.0 192779.0 185517.0 115916.0 117544.0 268263.0 260326.0 119325.0 122996.0 1610.0 7250.0 188726.0 188173.0 263076.0 262534.0 116760.0 122924.0 143087.0 136174.0 56199.0 52360.0 39115.0 31077.0 100483.0 103982.0 150195.0 148101.0 86259.0 88270.0 163546.0 161315.0 17639.0 25865.0 160216.0 158269.0 192911.0 199476.0 94550.0 102046.0 165227.0 165928.0 132283.0 124369.0 150461.0 150787.0 83234.0 86133.0 150017.0 145900.0 142616.0 135336.0 256973.0 263660.0 44110.0 50088.0 110241.0 111676.0 35046.0 35615.0 107130.0 99369.0 145088.0 146617.0 135891.0 129546.0 233713.0 236079.0 0.0 7905.0 127297.0 120025.0 60624.0 52792.0 79498.0 71655.0 106687.0 107927.0 236050.0 243113.0 55060.0 62337.0 35170.0 38881.0 29618.0 23061.0 133634.0 134053.0 19087.0 10548.0 169725.0 165602.0 151788.0 151970.0 199066.0 192013.0 65720.0 73412.0 113816.0 115334.0 137159.0 120399.0 137159.0 137159.0 120399.0 120399.0
81434.0 89260.0 90999.0 90579.0 6326.0 5435.0 137465.0 132525.0 70176.0 78152.0 42668.0 50216.0 233723.0 227585.0 32837.0 40378.0 45245.0 38407.0 132329.0 132562.0 144911.0 137990.0 200063.0 192855.0 108013.0 109647.0 275517.0 267595.0 113991.0 117309.0 6723.0 15120.0 195255.0 194891.0 269871.0 269206.0 122118.0 128512.0 150639.0 143789.0 49954.0 46857.0 46594.0 38526.0 105285.0 109207.0 142886.0 140638.0 82805.0 84187.0 170260.0 168223.0 9797.0 17992.0 153350.0 151613.0 199604.0 206069.0 100567.0 108196.0 159424.0 160405.0 125837.0 118007.0 144609.0 144675.0 82535.0 84724.0 149012.0 145273.0 135010.0 127676.0 263481.0 270242.0 45594.0 50605.0 104155.0 105990.0 34155.0 32939.0 99314.0 91530.0 140063.0 141932.0 128079.0 121788.0 240588.0 242835.0 7905.0 0.0 119843.0 112487.0 54927.0 47092.0 73695.0 66023.0 114171.0 115575.0 242946.0 250069.0 47184.0 54432.0 36494.0 41544.0 37272.0 30926.0 128035.0 128123.0 26973.0 18410.0 162951.0 159022.0 153488.0 153259.0 206528.0 199525.0 58746.0 66564.0 117552.0 119518.0 133236.0 125451.0 133236.0 133236.0 125451.0 125451.0
63920.0 64001.0 171191.0 176043.0 115737.0 123837.0 44359.0 36518.0 92070.0 91320.0 77971.0 71534.0 326272.0 321747.0 121732.0 120722.0 85432.0 86879.0 57865.0 64844.0 248213.0 242902.0 299583.0 293601.0 38573.0 46404.0 372095.0 364645.0 132656.0 128099.0 125784.0 133815.0 283145.0 285618.0 358510.0 356570.0 202911.0 210872.0 256822.0 251394.0 75091.0 82177.0 159428.0 152206.0 183552.0 190967.0 23998.0 20805.0 141546.0 135551.0 262508.0 263402.0 110218.0 102472.0 41511.0 44676.0 289674.0 294266.0 192057.0 199867.0 69149.0 75633.0 35402.0 36164.0 58504.0 52582.0 164901.0 160948.0 212984.0 213737.0 17342.0 13869.0 350298.0 357151.0 124973.0 120149.0 43578.0 51467.0 112837.0 105312.0 29490.0 36187.0 73610.0 81202.0 62862.0 65601.0 331585.0 331771.0 127297.0 119843.0 0.0 8322.0 110358.0 110439.0 110873.0 111953.0 221145.0 225001.0 334199.0 342055.0 79788.0 71450.0 122672.0 130113.0 152476.0 148443.0 56489.0 49012.0 144989.0 136801.0 51643.0 52242.0 241768.0 238151.0 309022.0 303203.0 62750.0 56243.0 223060.0 227406.0 96105.0 202888.0 96105.0 96105.0 202888.0 202888.0
55827.0 56248.0 166848.0 171436.0 108555.0 116604.0 50205.0 42278.0 83856.0 83260.0 71035.0 64933.0 322081.0 317411.0 115738.0 115126.0 79617.0 80487.0 61981.0 68560.0 242883.0 237417.0 294739.0 288636.0 32230.0 40303.0 367674.0 360169.0 125259.0 120919.0 118530.0 126642.0 279170.0 281435.0 354622.0 352721.0 198919.0 206850.0 251277.0 245707.0 68963.0 76311.0 152877.0 145539.0 179507.0 186784.0 32241.0 28383.0 133328.0 127389.0 258109.0 258782.0 102805.0 94963.0 49604.0 52346.0 285558.0 290313.0 187240.0 195111.0 75643.0 81739.0 40038.0 39195.0 64153.0 58717.0 156582.0 152648.0 204987.0 205657.0 22878.0 16755.0 346449.0 353302.0 119596.0 115128.0 43753.0 51995.0 106950.0 99290.0 21493.0 27920.0 77671.0 84998.0 58587.0 60462.0 327534.0 327887.0 120025.0 112487.0 8322.0 0.0 102036.0 102136.0 102689.0 103679.0 215400.0 219063.0 330135.0 337953.0 71678.0 63316.0 116850.0 124421.0 145701.0 141454.0 60108.0 53097.0 137937.0 129673.0 59788.0 60031.0 233477.0 229886.0 303947.0 298009.0 56240.0 50226.0 214805.0 219185.0 97414.0 198964.0 97414.0 97414.0 198964.0 198964.0
49815.0 54506.0 145769.0 145505.0 57895.0 59962.0 143503.0 136537.0 23636.0 30310.0 60629.0 66892.0 286290.0 279838.0 85360.0 91768.0 76756.0 68389.0 145614.0 148662.0 195820.0 188442.0 251158.0 243651.0 82275.0 79803.0 326592.0 318604.0 59153.0 62411.0 60362.0 66797.0 249079.0 248258.0 322942.0 322639.0 177042.0 183389.0 200130.0 192757.0 72405.0 75787.0 98213.0 90534.0 160115.0 164133.0 134088.0 128943.0 36298.0 33922.0 223668.0 221059.0 50175.0 46323.0 150909.0 152133.0 253034.0 259741.0 155171.0 162665.0 168988.0 172562.0 131087.0 125033.0 154655.0 152047.0 54625.0 51328.0 110629.0 109341.0 120411.0 112298.0 317315.0 323904.0 97648.0 100629.0 115786.0 121185.0 83168.0 78010.0 81951.0 74423.0 157774.0 162162.0 90959.0 83200.0 293421.0 296047.0 60624.0 54927.0 110358.0 102036.0 0.0 7844.0 18881.0 11099.0 164528.0 164562.0 295703.0 302599.0 36822.0 42934.0 88909.0 95251.0 88367.0 80683.0 141774.0 138707.0 76816.0 69676.0 161167.0 160021.0 132057.0 129033.0 256414.0 249036.0 70452.0 77244.0 114505.0 119687.0 159981.0 180349.0 159981.0 159981.0 180349.0 180349.0
52325.0 57879.0 137969.0 137670.0 50143.0 52118.0 141689.0 134941.0 28748.0 36135.0 55412.0 62134.0 278643.0 272221.0 77731.0 84250.0 70743.0 62269.0 142821.0 145518.0 188305.0 180966.0 243651.0 236173.0 84581.0 82814.0 319110.0 311126.0 66945.0 70254.0 52521.0 59008.0 241308.0 240528.0 315249.0 314910.0 169203.0 175545.0 192757.0 185429.0 67199.0 70002.0 90525.0 82807.0 152305.0 156299.0 134350.0 129597.0 41469.0 40180.0 215930.0 213372.0 42529.0 39074.0 150375.0 151178.0 245298.0 251984.0 147335.0 154837.0 166880.0 170119.0 129258.0 122886.0 152378.0 150119.0 55894.0 53668.0 115021.0 113259.0 121425.0 113335.0 309548.0 316153.0 90093.0 93262.0 112887.0 117884.0 75786.0 70866.0 82777.0 75005.0 154485.0 158571.0 95488.0 87919.0 285749.0 288338.0 52792.0 47092.0 110439.0 102136.0 7844.0 0.0 26706.0 18932.0 157038.0 157199.0 288039.0 294959.0 33652.0 40755.0 81300.0 87548.0 80683.0 73038.0 138886.0 136217.0 69146.0 61912.0 160615.0 159058.0 133623.0 131040.0 249036.0 241693.0 66466.0 73641.0 112989.0 117775.0 155476.0 172526.0 155476.0 155476.0 172526.0 172526.0
47101.0 49054.0 164360.0 164241.0 76413.0 78783.0 147992.0 140595.0 18936.0 20607.0 74135.0 79308.0 305002.0 298508.0 103513.0 109639.0 91510.0 83489.0 152365.0 156200.0 214353.0 206919.0 269666.0 262118.0 78099.0 73903.0 345053.0 337057.0 40853.0 43622.0 79218.0 85672.0 267938.0 267077.0 341714.0 341454.0 195803.0 202198.0 218440.0 210996.0 85590.0 90087.0 117001.0 109362.0 178737.0 182868.0 133764.0 127748.0 30798.0 24747.0 242495.0 239828.0 68479.0 63905.0 152283.0 154495.0 271858.0 278587.0 174039.0 181542.0 173926.0 178260.0 135761.0 130534.0 160114.0 156710.0 57642.0 52028.0 103247.0 103299.0 118479.0 110459.0 336169.0 342742.0 115593.0 118118.0 123150.0 129388.0 100751.0 95100.0 81461.0 74833.0 165570.0 170628.0 80701.0 72622.0 312168.0 314840.0 79498.0 73695.0 110873.0 102689.0 18881.0 26706.0 0.0 8090.0 183033.0 182873.0 314439.0 321302.0 47905.0 51562.0 107008.0 113580.0 107154.0 99433.0 148786.0 144827.0 95595.0 88537.0 162478.0 162323.0 131737.0 127660.0 274715.0 267278.0 81185.0 86969.0 121630.0 127596.0 170653.0 199028.0 170653.0 170653.0 199028.0 199028.0
49028.0 52189.0 156862.0 156601.0 68969.0 71043.0 147468.0 140243.0 20516.0 24825.0 69332.0 75032.0 296940.0 290436.0 96341.0 102655.0 86176.0 77964.0 150856.0 154347.0 206266.0 198830.0 261577.0 254028.0 80985.0 77476.0 336963.0 328967.0 48073.0 51345.0 71419.0 77741.0 259959.0 259060.0 333670.0 333433.0 188134.0 194468.0 210353.0 202913.0 80985.0 84969.0 108973.0 101361.0 171211.0 175230.0 135265.0 129599.0 30251.0 25923.0 234486.0 231784.0 61188.0 57050.0 153107.0 154901.0 263845.0 270592.0 166204.0 173675.0 173249.0 177255.0 135131.0 129530.0 159188.0 156126.0 53964.0 49204.0 104433.0 103856.0 120612.0 112526.0 328183.0 334739.0 108563.0 111372.0 121307.0 127187.0 93938.0 88567.0 82823.0 75767.0 163616.0 168379.0 86073.0 78084.0 304115.0 306807.0 71655.0 66023.0 111953.0 103679.0 11099.0 18932.0 8090.0 0.0 174945.0 174785.0 306383.0 313237.0 43938.0 48706.0 99874.0 106287.0 99127.0 91391.0 147155.0 143583.0 87566.0 80576.0 163346.0 162768.0 129852.0 126211.0 266629.0 259196.0 77680.0 83945.0 116776.0 122470.0 167380.0 191448.0 167380.0 167380.0 191448.0 191448.0
195117.0 203095.0 63979.0 56086.0 114725.0 108762.0 221997.0 220150.0 183423.0 191398.0 146585.0 151249.0 122787.0 115945.0 99787.0 100443.0 135791.0 135495.0 209128.0 205509.0 31341.0 23940.0 86635.0 79135.0 218939.0 221798.0 162071.0 154088.0 219924.0 224994.0 107547.0 99596.0 90576.0 87564.0 160087.0 160702.0 57329.0 55609.0 36602.0 30363.0 146517.0 139090.0 67587.0 75649.0 62433.0 55986.0 240891.0 241138.0 180128.0 184854.0 64393.0 59505.0 122918.0 130783.0 244386.0 239870.0 92430.0 99974.0 41046.0 38028.0 235834.0 233136.0 213413.0 205330.0 223032.0 226370.0 162602.0 169192.0 221448.0 214690.0 238115.0 231987.0 156887.0 162699.0 96495.0 102302.0 189936.0 187163.0 108461.0 116207.0 207592.0 200559.0 208913.0 206530.0 241497.0 235558.0 130329.0 133802.0 106687.0 114171.0 221145.0 215400.0 164528.0 157038.0 183033.0 174945.0 0.0 8078.0 132449.0 138933.0 160515.0 166853.0 98550.0 91033.0 77131.0 84352.0 205232.0 209236.0 88356.0 96377.0 252128.0 245746.0 197982.0 202382.0 92381.0 85358.0 159583.0 165175.0 146184.0 141601.0 192960.0 64459.0 192960.0 192960.0 64459.0 64459.0
196878.0 204780.0 71136.0 63179.0 116559.0 110216.0 227176.0 225113.0 184096.0 192041.0 149583.0 154561.0 124575.0 117480.0 103326.0 104532.0 139568.0 138822.0 214690.0 211256.0 32994.0 25041.0 87282.0 79539.0 221508.0 224101.0 162331.0 154320.0 219028.0 224326.0 108885.0 100741.0 94548.0 90923.0 162068.0 163065.0 65403.0 63584.0 35570.0 28300.0 150102.0 142832.0 69093.0 77147.0 70226.0 63925.0 245146.0 245159.0 178611.0 183610.0 68623.0 63021.0 124596.0 132597.0 249229.0 244893.0 95757.0 103476.0 48655.0 45992.0 241575.0 239063.0 218338.0 210219.0 228589.0 231752.0 159968.0 166766.0 217529.0 210628.0 241853.0 235566.0 159764.0 165308.0 100906.0 107065.0 194806.0 192296.0 112166.0 119773.0 210568.0 203396.0 214895.0 212656.0 243415.0 237296.0 132321.0 136174.0 107927.0 115575.0 225001.0 219063.0 164562.0 157199.0 182873.0 174785.0 8078.0 0.0 134339.0 140539.0 162355.0 168949.0 102338.0 95033.0 78317.0 85189.0 210744.0 214547.0 89222.0 97475.0 257140.0 250902.0 192604.0 197213.0 91854.0 84499.0 163021.0 168864.0 140702.0 135863.0 199086.0 72531.0 199086.0 199086.0 72531.0 72531.0
321078.0 329233.0 163425.0 159506.0 242231.0 237535.0 324172.0 324089.0 313111.0 321093.0 268135.0 270870.0 9862.0 17613.0 221249.0 218925.0 253453.0 255812.0 308729.0 303872.0 101430.0 109315.0 49406.0 57380.0 340596.0 344810.0 41568.0 36274.0 352126.0 356975.0 236648.0 229338.0 51149.0 48906.0 27746.0 29861.0 131290.0 123327.0 100656.0 108669.0 264751.0 256770.0 197519.0 205307.0 150656.0 143367.0 349997.0 352128.0 312576.0 317267.0 73165.0 74735.0 250684.0 257902.0 348629.0 342813.0 44610.0 40158.0 145038.0 137016.0 333828.0 330331.0 317877.0 310397.0 322367.0 326905.0 294240.0 301095.0 349770.0 342511.0 351528.0 346808.0 31096.0 33550.0 213450.0 216275.0 295829.0 290917.0 228411.0 236358.0 327188.0 321162.0 306028.0 303378.0 366068.0 361016.0 2678.0 8434.0 236050.0 242946.0 334199.0 330135.0 295703.0 288039.0 314439.0 306383.0 132449.0 134339.0 0.0 8039.0 286823.0 291993.0 218854.0 210898.0 207357.0 215021.0 305301.0 310731.0 218894.0 226294.0 354891.0 347559.0 319055.0 324751.0 53055.0 60579.0 278073.0 281792.0 267820.0 261673.0 289808.0 132322.0 289808.0 289808.0 132322.0 132322.0
328474.0 336624.0 171192.0 167178.0 249447.0 244651.0 332057.0 331973.0 320211.0 328197.0 275688.0 278495.0 16346.0 23063.0 228724.0 226497.0 261115.0 263393.0 316614.0 311757.0 107758.0 115574.0 54438.0 62470.0 348213.0 352375.0 33796.0 28991.0 358782.0 363711.0 243735.0 236357.0 59099.0 56587.0 22520.0 26510.0 139160.0 131188.0 106373.0 114373.0 272412.0 264437.0 204468.0 212296.0 158504.0 151171.0 357749.0 360033.0 319001.0 323787.0 80647.0 81865.0 257893.0 265164.0 356514.0 350698.0 52395.0 48151.0 152569.0 144544.0 341713.0 338216.0 325762.0 318281.0 330251.0 334790.0 300267.0 307195.0 355138.0 347818.0 359387.0 354635.0 30657.0 31136.0 221053.0 223963.0 303714.0 298802.0 235956.0 243912.0 334870.0 328804.0 313913.0 311262.0 373571.0 368468.0 10717.0 14253.0 243113.0 250069.0 342055.0 337953.0 302599.0 294959.0 321302.0 313237.0 138933.0 140539.0 8039.0 0.0 294169.0 299411.0 226365.0 218405.0 214296.0 221923.0 313185.0 318616.0 225816.0 233292.0 362776.0 355443.0 323646.0 329457.0 56317.0 64144.0 285744.0 289521.0 272612.0 266350.0 297692.0 140267.0 297692.0 297692.0 140267.0 140267.0
34617.0 42661.0 127969.0 129610.0 45812.0 52373.0 108280.0 101697.0 33672.0 40166.0 26800.0 31413.0 277849.0 272051.0 66367.0 70455.0 44964.0 37756.0 109185.0 111993.0 190782.0 184132.0 245542.0 238543.0 61408.0 62545.0 320763.0 312905.0 86313.0 86686.0 53897.0 62300.0 237819.0 238219.0 313257.0 312071.0 160864.0 168028.0 197100.0 190446.0 37861.0 43069.0 93267.0 85226.0 142344.0 147772.0 103759.0 99912.0 72976.0 69720.0 213702.0 212414.0 37806.0 29760.0 118278.0 118523.0 242808.0 248841.0 142255.0 150204.0 133309.0 136473.0 95860.0 89332.0 118764.0 116638.0 89480.0 87280.0 147417.0 146155.0 92752.0 84895.0 305889.0 312721.0 76469.0 76820.0 79265.0 84435.0 60772.0 53569.0 54803.0 46765.0 121040.0 125348.0 81060.0 75050.0 284386.0 286135.0 55060.0 47184.0 79788.0 71678.0 36822.0 33652.0 47905.0 43938.0 160515.0 162355.0 286823.0 294169.0 0.0 8408.0 69263.0 76958.0 84272.0 78110.0 105269.0 102572.0 74147.0 65593.0 128449.0 126368.0 167185.0 164684.0 252623.0 245798.0 33796.0 40424.0 143775.0 147849.0 123494.0 162894.0 123494.0 123494.0 162894.0 162894.0
29152.0 37319.0 131844.0 133922.0 52486.0 59471.0 100942.0 94191.0 35192.0 40485.0 27157.0 29691.0 283116.0 277447.0 70887.0 74248.0 45498.0 39350.0 102691.0 105861.0 196845.0 190332.0 251367.0 244467.0 53643.0 55300.0 326430.0 318604.0 88007.0 87602.0 61095.0 69533.0 242629.0 243267.0 318234.0 316877.0 164901.0 172214.0 203455.0 196926.0 36756.0 43113.0 99951.0 91961.0 146116.0 151845.0 95434.0 91522.0 78511.0 74626.0 218831.0 217792.0 44823.0 36617.0 110230.0 110669.0 247810.0 253697.0 147119.0 155110.0 126220.0 129658.0 88511.0 82229.0 111801.0 109395.0 96628.0 94033.0 152977.0 152046.0 84344.0 76492.0 310631.0 317484.0 80159.0 79715.0 72906.0 78541.0 64528.0 56939.0 46460.0 38431.0 115052.0 119695.0 74711.0 69137.0 289531.0 291110.0 62337.0 54432.0 71450.0 63316.0 42934.0 40755.0 51562.0 48706.0 166853.0 168949.0 291993.0 299411.0 8408.0 0.0 73539.0 81396.0 91184.0 85297.0 98873.0 95787.0 81382.0 72808.0 120426.0 118533.0 174353.0 171646.0 258730.0 252004.0 29859.0 35411.0 151911.0 156070.0 119091.0 166617.0 119091.0 119091.0 166617.0 166617.0
102687.0 110852.0 58783.0 60409.0 31702.0 33315.0 128029.0 124940.0 99634.0 107245.0 49436.0 53105.0 210126.0 204689.0 3661.0 4795.0 37253.0 37481.0 118279.0 116494.0 126544.0 120781.0 179769.0 173238.0 122274.0 126094.0 254187.0 246457.0 147839.0 150308.0 34265.0 34505.0 169174.0 170021.0 244871.0 243400.0 91601.0 98783.0 134544.0 128867.0 48009.0 40542.0 40587.0 35653.0 73205.0 78509.0 142993.0 142834.0 119073.0 120026.0 145719.0 145126.0 38777.0 43320.0 148411.0 144808.0 174508.0 180267.0 73818.0 81838.0 145953.0 145112.0 118068.0 109874.0 131819.0 133725.0 118329.0 120958.0 185057.0 181036.0 139581.0 133443.0 237138.0 243990.0 9100.0 15218.0 94569.0 93486.0 9949.0 17871.0 109847.0 103214.0 122268.0 122243.0 147215.0 142253.0 216361.0 217757.0 35170.0 36494.0 122672.0 116850.0 88909.0 81300.0 107008.0 99874.0 98550.0 102338.0 218854.0 226365.0 69263.0 73539.0 0.0 7968.0 37608.0 38559.0 114054.0 116376.0 37576.0 34698.0 156919.0 151377.0 186069.0 186590.0 188132.0 181875.0 61192.0 66624.0 145388.0 145921.0 110237.0 93760.0 110237.0 110237.0 93760.0 93760.0
110548.0 118715.0 51361.0 52652.0 37469.0 37651.0 134069.0 131265.0 106856.0 114539.0 57401.0 60973.0 202163.0 196721.0 10596.0 9541.0 44811.0 45397.0 123619.0 121462.0 118742.0 113063.0 171840.0 165333.0 130228.0 134062.0 246225.0 238497.0 154339.0 157033.0 38246.0 36770.0 161265.0 162072.0 236942.0 235500.0 83982.0 91078.0 126875.0 121302.0 55724.0 48132.0 36044.0 32426.0 65811.0 70884.0 150127.0 150157.0 124340.0 125665.0 137759.0 137158.0 45110.0 50306.0 154968.0 151137.0 166567.0 172350.0 65867.0 73885.0 151220.0 150039.0 124412.0 116227.0 137290.0 139494.0 121945.0 125006.0 188757.0 184467.0 147097.0 141055.0 229245.0 236097.0 8047.0 16094.0 100852.0 99331.0 17798.0 25772.0 117734.0 111141.0 126829.0 126376.0 155171.0 150182.0 208408.0 209826.0 38881.0 41544.0 130113.0 124421.0 95251.0 87548.0 113580.0 106287.0 91033.0 95033.0 210898.0 218405.0 76958.0 81396.0 7968.0 0.0 34895.0 37448.0 119441.0 122131.0 37306.0 36245.0 163302.0 157560.0 187688.0 188543.0 180267.0 174050.0 68970.0 74218.0 145503.0 145608.0 113779.0 86341.0 113779.0 113779.0 86341.0 86341.0
118672.0 126524.0 66473.0 63333.0 38736.0 31946.0 163427.0 159658.0 106369.0 114354.0 74692.0 80957.0 197974.0 191600.0 36096.0 42083.0 69424.0 65962.0 154920.0 153548.0 108123.0 101031.0 163424.0 156091.0 144416.0 146482.0 238926.0 230972.0 145758.0 150101.0 30572.0 22472.0 160954.0 159937.0 234575.0 234306.0 93134.0 98401.0 113480.0 106556.0 78139.0 72234.0 9847.0 3303.0 79302.0 81119.0 174461.0 173187.0 109108.0 112479.0 135374.0 132693.0 46469.0 54598.0 182273.0 179391.0 164726.0 171519.0 69059.0 75951.0 182608.0 182146.0 152789.0 144641.0 168235.0 169642.0 99079.0 103835.0 164775.0 159545.0 168542.0 161624.0 229133.0 235638.0 42895.0 50909.0 129659.0 129496.0 44550.0 49980.0 134634.0 127100.0 159618.0 159784.0 165288.0 159051.0 205066.0 207687.0 29618.0 37272.0 152476.0 145701.0 88367.0 80683.0 107154.0 99127.0 77131.0 78317.0 207357.0 214296.0 84272.0 91184.0 37608.0 34895.0 0.0 7886.0 150650.0 152398.0 11562.0 19246.0 191281.0 186315.0 157321.0 159005.0 169509.0 162421.0 89763.0 96737.0 112428.0 111915.0 147836.0 97785.0 147836.0 147836.0 97785.0 97785.0
112277.0 120038.0 73564.0 70756.0 33290.0 25832.0 161379.0 157285.0 99073.0 107046.0 70472.0 77156.0 205610.0 199187.0 36379.0 43282.0 67020.0 62711.0 153698.0 152708.0 115476.0 108285.0 170813.0 163424.0 138787.0 140555.0 246311.0 238346.0 137906.0 142293.0 24220.0 15813.0 168782.0 167706.0 242281.0 242063.0 100833.0 106188.0 120531.0 113480.0 74956.0 69617.0 17644.0 10701.0 86657.0 88709.0 170819.0 169218.0 101255.0 104595.0 143160.0 140395.0 40479.0 48705.0 179455.0 176893.0 172502.0 179324.0 76891.0 83821.0 181330.0 181224.0 150443.0 142350.0 166803.0 167873.0 91752.0 96329.0 157743.0 152660.0 164218.0 157135.0 236944.0 243425.0 45143.0 52941.0 127594.0 127929.0 44011.0 48387.0 129549.0 121892.0 159142.0 159702.0 158942.0 152558.0 212741.0 215419.0 23061.0 30926.0 148443.0 141454.0 80683.0 73038.0 99433.0 91391.0 84352.0 85189.0 215021.0 221923.0 78110.0 85297.0 38559.0 37448.0 7886.0 0.0 149404.0 150747.0 4035.0 12518.0 188652.0 183967.0 151810.0 153213.0 176671.0 169509.0 85970.0 93232.0 108204.0 108174.0 148365.0 105378.0 148365.0 148365.0 105378.0 105378.0
106673.0 110089.0 145992.0 152590.0 122206.0 130025.0 20418.0 24167.0 130370.0 132527.0 88170.0 80213.0 297536.0 293374.0 114847.0 110298.0 83276.0 89629.0 4308.0 8458.0 227808.0 223966.0 274116.0 269183.0 91554.0 99706.0 343852.0 336628.0 178907.0 175835.0 132031.0 138261.0 254221.0 256937.0 329663.0 327723.0 174093.0 182084.0 238027.0 234010.0 78475.0 81287.0 154631.0 149191.0 155523.0 163591.0 56256.0 62449.0 177253.0 172902.0 234787.0 236958.0 120290.0 114838.0 45902.0 38795.0 260858.0 265344.0 169440.0 176430.0 31958.0 32399.0 21669.0 20999.0 17902.0 21604.0 194501.0 192544.0 251585.0 250868.0 68115.0 69153.0 321451.0 328304.0 112091.0 104840.0 26005.0 22088.0 106124.0 101020.0 77480.0 80062.0 17818.0 24893.0 118678.0 120421.0 302679.0 302888.0 133634.0 128035.0 56489.0 60108.0 141774.0 138886.0 148786.0 147155.0 205232.0 210744.0 305301.0 313185.0 105269.0 98873.0 114054.0 119441.0 150650.0 149404.0 0.0 8039.0 146988.0 140434.0 50293.0 42494.0 272011.0 269793.0 285208.0 280451.0 73521.0 65738.0 243773.0 246557.0 44275.0 173963.0 44275.0 44275.0 173963.0 173963.0
101640.0 104623.0 150957.0 157358.0 122463.0 130423.0 13538.0 16208.0 126212.0 127964.0 87221.0 79235.0 302967.0 298805.0 116927.0 112829.0 84011.0 89807.0 8891.0 15949.0 232474.0 228431.0 279520.0 274450.0 84910.0 93060.0 349283.0 342059.0 173787.0 170453.0 132444.0 139000.0 259652.0 262367.0 335094.0 333154.0 179524.0 187515.0 242512.0 238301.0 78220.0 81770.0 156830.0 151094.0 160916.0 168935.0 48248.0 54411.0 173787.0 169166.0 240218.0 242412.0 120006.0 114144.0 38869.0 32259.0 266289.0 270775.0 174184.0 181315.0 31442.0 33902.0 13805.0 14763.0 16582.0 17363.0 192032.0 189769.0 247911.0 247428.0 60166.0 61416.0 326882.0 333735.0 115006.0 108009.0 24161.0 22919.0 108046.0 102494.0 71317.0 74442.0 24629.0 32199.0 111535.0 113547.0 308109.0 308318.0 134053.0 128123.0 49012.0 53097.0 138707.0 136217.0 144827.0 143583.0 209236.0 214547.0 310731.0 318616.0 102572.0 95787.0 116376.0 122131.0 152398.0 150747.0 8039.0 0.0 148162.0 141312.0 44189.0 36896.0 269695.0 267256.0 290427.0 285530.0 71981.0 64010.0 242806.0 245826.0 52073.0 179394.0 52073.0 52073.0 179394.0 179394.0
108275.0 116026.0 75984.0 73495.0 29566.0 21950.0 158627.0 154410.0 95067.0 103043.0 67028.0 73842.0 209498.0 203099.0 35100.0 42357.0 64263.0 59634.0 151288.0 150462.0 119459.0 112286.0 174790.0 167413.0 134909.0 136619.0 250290.0 242327.0 134240.0 138547.0 20287.0 11854.0 172503.0 171499.0 246127.0 245868.0 103874.0 109372.0 124555.0 117512.0 71871.0 66766.0 21407.0 14012.0 89304.0 91614.0 167483.0 165777.0 97987.0 101167.0 146936.0 144243.0 36583.0 44816.0 176403.0 173960.0 176289.0 183077.0 80181.0 87220.0 178879.0 178924.0 147582.0 139517.0 164297.0 165228.0 89347.0 93697.0 155605.0 150666.0 160670.0 153540.0 240689.0 247199.0 44732.0 52341.0 124862.0 125398.0 42227.0 46076.0 125800.0 118114.0 157049.0 157785.0 154942.0 148543.0 216607.0 219245.0 19087.0 26973.0 144989.0 137937.0 76816.0 69146.0 95595.0 87566.0 88356.0 89222.0 218894.0 225816.0 74147.0 81382.0 37576.0 37306.0 11562.0 4035.0 146988.0 148162.0 0.0 8574.0 185665.0 181088.0 150922.0 152119.0 180687.0 173532.0 82644.0 89997.0 108221.0 108482.0 146755.0 108273.0 146755.0 146755.0 108273.0 108273.0
99777.0 107557.0 79765.0 78030.0 21150.0 13389.0 151488.0 147071.0 87159.0 95147.0 58906.0 65902.0 216959.0 210655.0 31671.0 39449.0 57301.0 52121.0 144741.0 144207.0 127351.0 120276.0 182634.0 175321.0 126337.0 128050.0 258133.0 250184.0 127772.0 131791.0 11714.0 3298.0 179403.0 178634.0 253423.0 253017.0 109003.0 114849.0 132706.0 125741.0 64302.0 59621.0 28923.0 20999.0 93535.0 96452.0 159444.0 157601.0 92875.0 95548.0 154028.0 151579.0 28010.0 36245.0 168773.0 166517.0 183398.0 190072.0 86018.0 93314.0 172236.0 172543.0 140272.0 132257.0 157570.0 158263.0 86679.0 90408.0 153377.0 148798.0 152364.0 145184.0 247639.0 254242.0 42858.0 49893.0 117787.0 118671.0 37483.0 40153.0 117299.0 109593.0 151065.0 152125.0 146438.0 140082.0 223980.0 226476.0 10548.0 18410.0 136801.0 129673.0 69676.0 61912.0 88537.0 80576.0 96377.0 97475.0 226294.0 233292.0 65593.0 72808.0 34698.0 36245.0 19246.0 12518.0 140434.0 141312.0 8574.0 0.0 178132.0 173727.0 151584.0 152328.0 188753.0 181657.0 74672.0 82153.0 110904.0 111736.0 141709.0 113029.0 141709.0 141709.0 113029.0 113029.0
115563.0 115422.0 194906.0 201162.0 157924.0 166109.0 30719.0 32058.0 143634.0 142958.0 120350.0 112737.0 347127.0 342964.0 156982.0 153813.0 121859.0 126049.0 47583.0 54146.0 276117.0 271869.0 323647.0 318518.0 88382.0 95450.0 393443.0 386219.0 183241.0 178191.0 168132.0 175481.0 303812.0 306527.0 379254.0 377313.0 223683.0 231675.0 285960.0 281526.0 113835.0 119102.0 196699.0 190354.0 205059.0 213061.0 30724.0 38616.0 193099.0 187175.0 284377.0 286559.0 153911.0 146933.0 10258.0 12261.0 310449.0 314934.0 217949.0 225183.0 33853.0 42109.0 38893.0 47075.0 35920.0 29382.0 215791.0 212135.0 264570.0 265376.0 48726.0 55306.0 371042.0 377894.0 156640.0 150112.0 62465.0 65047.0 147910.0 141507.0 81132.0 87674.0 57298.0 64628.0 106609.0 111530.0 352269.0 352478.0 169725.0 162951.0 51643.0 59788.0 161167.0 160615.0 162478.0 163346.0 252128.0 257140.0 354891.0 362776.0 128449.0 120426.0 156919.0 163302.0 191281.0 188652.0 50293.0 44189.0 185665.0 178132.0 0.0 8543.0 293006.0 289548.0 334467.0 329486.0 104256.0 96387.0 272191.0 276095.0 92852.0 223554.0 92852.0 92852.0 223554.0 223554.0
115760.0 116221.0 187851.0 194231.0 153818.0 161971.0 23756.0 26682.0 143404.0 143204.0 116619.0 108861.0 339794.0 335632.0 151596.0 148120.0 116988.0 121610.0 39551.0 45892.0 269310.0 265194.0 316370.0 311330.0 90155.0 97558.0 386110.0 378886.0 184793.0 180044.0 164000.0 171161.0 296479.0 299194.0 371921.0 369981.0 216351.0 224342.0 279281.0 274976.0 109475.0 114350.0 191436.0 185272.0 197759.0 205793.0 34118.0 42335.0 192750.0 187067.0 277045.0 279244.0 150177.0 143436.0 12311.0 7888.0 303116.0 307602.0 211049.0 218201.0 25792.0 34077.0 33534.0 41674.0 27475.0 21190.0 214583.0 211214.0 264963.0 265508.0 52126.0 57924.0 363709.0 370562.0 150724.0 144011.0 56824.0 58606.0 142562.0 136393.0 81523.0 87559.0 48785.0 56088.0 110230.0 114681.0 344936.0 345145.0 165602.0 159022.0 52242.0 60031.0 160021.0 159058.0 162323.0 162768.0 245746.0 250902.0 347559.0 355443.0 126368.0 118533.0 151377.0 157560.0 186315.0 183967.0 42494.0 36896.0 181088.0 173727.0 8543.0 0.0 292056.0 288812.0 327315.0 322426.0 100576.0 92594.0 269833.0 273532.0 84514.0 216221.0 84514.0 84514.0 216221.0 216221.0
178638.0 180731.0 221688.0 216803.0 159759.0 154491.0 275293.0 268468.0 150048.0 152209.0 185163.0 192826.0 309277.0 301443.0 182809.0 190727.0 195880.0 187652.0 276038.0 278273.0 223525.0 215766.0 269657.0 261718.0 209770.0 205151.0 336153.0 328539.0 128083.0 136112.0 153017.0 151565.0 286327.0 281700.0 346150.0 348893.0 241626.0 244402.0 220411.0 212631.0 196260.0 196426.0 163005.0 160598.0 232582.0 232018.0 265113.0 259348.0 101025.0 107936.0 260916.0 254638.0 157666.0 160533.0 282752.0 284169.0 286371.0 294316.0 216239.0 220506.0 300489.0 303585.0 262862.0 256500.0 285945.0 283741.0 77729.0 80873.0 51844.0 44542.0 250186.0 242142.0 347760.0 352135.0 194437.0 201279.0 246096.0 250555.0 186817.0 186426.0 212671.0 205587.0 286951.0 290382.0 207952.0 199936.0 317559.0 322836.0 151788.0 153488.0 241768.0 233477.0 132057.0 133623.0 131737.0 129852.0 197982.0 192604.0 319055.0 323646.0 167185.0 174353.0 186069.0 187688.0 157321.0 151810.0 272011.0 269695.0 150922.0 151584.0 293006.0 292056.0 0.0 8088.0 267939.0 259915.0 198671.0 206312.0 51939.0 57469.0 284593.0 247775.0 284593.0 284593.0 247775.0 247775.0
174711.0 176493.0 224008.0 219348.0 159479.0 154542.0 272504.0 265569.0 146192.0 147989.0 183533.0 191094.0 314951.0 307144.0 183259.0 191194.0 194869.0 186550.0 273774.0 276214.0 228476.0 220664.0 275344.0 267381.0 205488.0 200649.0 342466.0 334815.0 122015.0 129977.0 153143.0 152134.0 291243.0 286774.0 351943.0 354564.0 244800.0 247801.0 225686.0 217856.0 194787.0 195279.0 165074.0 162298.0 235216.0 234917.0 261327.0 255404.0 96864.0 103502.0 265685.0 259545.0 156971.0 159443.0 279304.0 280931.0 291473.0 299400.0 219370.0 223863.0 297866.0 301157.0 260080.0 253872.0 283407.0 281013.0 75296.0 77705.0 43951.0 36825.0 246123.0 238114.0 353243.0 357730.0 195101.0 201765.0 243824.0 248503.0 186907.0 186171.0 208916.0 201968.0 284999.0 288626.0 202738.0 194767.0 323215.0 328395.0 151970.0 153259.0 238151.0 229886.0 129033.0 131040.0 127660.0 126211.0 202382.0 197213.0 324751.0 329457.0 164684.0 171646.0 186590.0 188543.0 159005.0 153213.0 269793.0 267256.0 152119.0 152328.0 289548.0 288812.0 8088.0 0.0 273914.0 265874.0 196668.0 204203.0 57028.0 63110.0 283373.0 250835.0 283373.0 283373.0 250835.0 250835.0
287241.0 295263.0 139615.0 133717.0 206917.0 201111.0 303774.0 303189.0 275735.0 283700.0 237256.0 241234.0 44034.0 36180.0 189892.0 189225.0 224785.0 225596.0 288684.0 283822.0 61891.0 68544.0 14001.0 16149.0 310056.0 313317.0 71127.0 63125.0 310458.0 315937.0 199917.0 191976.0 52757.0 44441.0 78765.0 82508.0 112405.0 104859.0 56284.0 63761.0 235889.0 228136.0 159960.0 168017.0 129756.0 121650.0 327087.0 328269.0 269391.0 274734.0 53969.0 49217.0 215176.0 222957.0 327761.0 322301.0 45194.0 50118.0 117218.0 109630.0 313803.0 310306.0 296755.0 288989.0 302341.0 306805.0 248656.0 255897.0 300987.0 293510.0 326272.0 320687.0 83884.0 86551.0 184448.0 188882.0 273941.0 269832.0 198055.0 206003.0 297975.0 291253.0 286003.0 283353.0 333441.0 327663.0 52203.0 58849.0 199066.0 206528.0 309022.0 303947.0 256414.0 249036.0 274715.0 266629.0 92381.0 91854.0 53055.0 56317.0 252623.0 258730.0 188132.0 180267.0 169509.0 176671.0 285208.0 290427.0 180687.0 188753.0 334467.0 327315.0 267939.0 273914.0 0.0 8065.0 249197.0 254068.0 217274.0 210824.0 269783.0 116178.0 269783.0 269783.0 116178.0 116178.0
280412.0 288411.0 134584.0 128441.0 200041.0 194118.0 298825.0 298074.0 268533.0 276490.0 230852.0 234975.0 51331.0 43397.0 183548.0 183098.0 218687.0 219299.0 283984.0 279260.0 55362.0 61675.0 16149.0 14001.0 303581.0 306727.0 79010.0 71022.0 302824.0 308354.0 192891.0 184893.0 54678.0 46250.0 86631.0 90198.0 108441.0 101088.0 48986.0 56284.0 229740.0 222033.0 152933.0 161000.0 125257.0 117117.0 321552.0 322588.0 261649.0 267044.0 51924.0 46193.0 208262.0 216094.0 322633.0 317293.0 47802.0 53622.0 111794.0 104360.0 309216.0 305719.0 291591.0 283771.0 297696.0 302030.0 240748.0 248012.0 292930.0 285449.0 320418.0 314733.0 91195.0 94124.0 178430.0 183062.0 268653.0 264711.0 191814.0 199739.0 291674.0 284876.0 281416.0 278765.0 326701.0 320848.0 59589.0 66024.0 192013.0 199525.0 303203.0 298009.0 249036.0 241693.0 267278.0 259196.0 85358.0 84499.0 60579.0 64144.0 245798.0 252004.0 181875.0 174050.0 162421.0 169509.0 280451.0 285530.0 173532.0 181657.0 329486.0 322426.0 259915.0 265874.0 8065.0 0.0 243017.0 248023.0 209220.0 202780.0 265195.0 112592.0 265195.0 265195.0 112592.0 112592.0
52222.0 59521.0 114982.0 118569.0 53946.0 62143.0 79829.0 74324.0 65017.0 69913.0 16095.0 8818.0 269643.0 264548.0 59795.0 59989.0 24642.0 24257.0 77639.0 79603.0 187711.0 181971.0 240544.0 234163.0 62847.0 67940.0 314445.0 306799.0 117715.0 116974.0 64148.0 71829.0 227611.0 229174.0 303420.0 301543.0 147932.0 155656.0 195711.0 189936.0 13366.0 21310.0 96695.0 89457.0 128577.0 135227.0 84849.0 83427.0 106707.0 103508.0 205273.0 205286.0 49660.0 42888.0 94609.0 93056.0 233495.0 238772.0 133561.0 141552.0 103363.0 105558.0 67807.0 60303.0 88534.0 87567.0 121408.0 119956.0 181075.0 179621.0 79115.0 72584.0 295271.0 302124.0 64998.0 61819.0 47900.0 51886.0 51243.0 43395.0 49142.0 43214.0 88331.0 92154.0 90261.0 86774.0 275524.0 276422.0 65720.0 58746.0 62750.0 56240.0 70452.0 66466.0 81185.0 77680.0 159583.0 163021.0 278073.0 285744.0 33796.0 29859.0 61192.0 68970.0 89763.0 85970.0 73521.0 71981.0 82644.0 74672.0 104256.0 100576.0 198671.0 196668.0 249197.0 243017.0 0.0 8061.0 170883.0 174049.0 89706.0 148561.0 89706.0 89706.0 148561.0 148561.0
54308.0 61030.0 118414.0 122428.0 61615.0 69813.0 71769.0 66292.0 70073.0 74359.0 24024.0 16358.0 273496.0 268563.0 65544.0 64976.0 29407.0 30807.0 69819.0 72012.0 192813.0 187258.0 245127.0 238882.0 60525.0 66353.0 318629.0 311038.0 122312.0 121112.0 71828.0 79375.0 231112.0 232934.0 306852.0 304922.0 151117.0 158931.0 201091.0 195486.0 18852.0 26090.0 103351.0 96284.0 131692.0 138593.0 77725.0 76720.0 113368.0 109855.0 209238.0 209529.0 57591.0 50919.0 86812.0 85107.0 237185.0 242277.0 137816.0 145762.0 95362.0 97661.0 59757.0 52243.0 80545.0 79515.0 128913.0 127259.0 187832.0 186563.0 72989.0 66837.0 298650.0 305503.0 69620.0 65687.0 39985.0 44309.0 56726.0 49103.0 45805.0 40876.0 80874.0 84967.0 88942.0 86136.0 279223.0 279928.0 73412.0 66564.0 56243.0 50226.0 77244.0 73641.0 86969.0 83945.0 165175.0 168864.0 281792.0 289521.0 40424.0 35411.0 66624.0 74218.0 96737.0 93232.0 65738.0 64010.0 89997.0 82153.0 96387.0 92594.0 206312.0 204203.0 254068.0 248023.0 8061.0 0.0 178911.0 182100.0 83699.0 151405.0 83699.0 83699.0 151405.0 151405.0
164309.0 168583.0 173765.0 168274.0 123814.0 117070.0 250454.0 244446.0 136867.0 141537.0 155653.0 163633.0 258008.0 250221.0 142523.0 150178.0 162541.0 155065.0 247999.0 249007.0 171603.0 163834.0 218418.0 210441.0 196765.0 193964.0 286377.0 278651.0 134319.0 142309.0 115278.0 111712.0 234402.0 229827.0 295078.0 297614.0 191472.0 193807.0 168664.0 160843.0 165466.0 163810.0 116555.0 115563.0 183724.0 182506.0 247045.0 242520.0 95211.0 103125.0 208977.0 202710.0 124033.0 128962.0 262040.0 262039.0 234512.0 242448.0 166267.0 170054.0 274225.0 276102.0 238212.0 231010.0 259380.0 258383.0 64975.0 72160.0 87051.0 79047.0 234414.0 226323.0 296224.0 300743.0 152935.0 160425.0 218659.0 221730.0 148119.0 149430.0 195764.0 187968.0 256941.0 259223.0 202322.0 194231.0 266261.0 271398.0 113816.0 117552.0 223060.0 214805.0 114505.0 112989.0 121630.0 116776.0 146184.0 140702.0 267820.0 272612.0 143775.0 151911.0 145388.0 145503.0 112428.0 108204.0 243773.0 242806.0 108221.0 110904.0 272191.0 269833.0 51939.0 57028.0 217274.0 209220.0 170883.0 178911.0 0.0 7817.0 250760.0 197841.0 250760.0 250760.0 197841.0 197841.0
169489.0 173997.0 171739.0 165996.0 125712.0 118689.0 253793.0 247933.0 142369.0 147283.0 158606.0 166591.0 251882.0 244064.0 143183.0 150716.0 164701.0 157428.0 250805.0 251591.0 166291.0 158592.0 212268.0 204314.0 201947.0 199369.0 279630.0 271936.0 141498.0 149449.0 116838.0 112764.0 229091.0 224343.0 288839.0 291498.0 188292.0 190342.0 162968.0 155209.0 168115.0 166110.0 115424.0 114972.0 181247.0 179704.0 251404.0 247060.0 101857.0 109762.0 203848.0 197427.0 126439.0 131740.0 265984.0 265771.0 228995.0 236950.0 163249.0 166729.0 277267.0 278932.0 241617.0 234302.0 262408.0 261615.0 71548.0 78927.0 94623.0 86590.0 239118.0 231046.0 290298.0 294704.0 153192.0 160819.0 221666.0 224480.0 149153.0 150869.0 200460.0 192604.0 259367.0 261427.0 208285.0 200215.0 260155.0 265391.0 115334.0 119518.0 227406.0 219185.0 119687.0 117775.0 127596.0 122470.0 141601.0 135863.0 261673.0 266350.0 147849.0 156070.0 145921.0 145608.0 111915.0 108174.0 246557.0 245826.0 108482.0 111736.0 276095.0 273532.0 57469.0 63110.0 210824.0 202780.0 174049.0 182100.0 7817.0 0.0 252484.0 194778.0 252484.0 252484.0 194778.0 194778.0
134550.0 139846.0 131325.0 138409.0 126955.0 133796.0 64505.0 68264.0 153652.0 157491.0 100394.0 93350.0 282043.0 277881.0 112043.0 105770.0 88850.0 96959.0 45843.0 38771.0 213451.0 210164.0 258629.0 253719.0 125530.0 133371.0 328359.0 321135.0 205338.0 203519.0 135648.0 140215.0 238728.0 241444.0 314170.0 312230.0 158600.0 166591.0 224102.0 220667.0 88814.0 88170.0 149818.0 145762.0 140034.0 148135.0 100102.0 105724.0 196277.0 193212.0 219294.0 221494.0 127471.0 124066.0 89757.0 82210.0 245365.0 249851.0 155178.0 161762.0 65346.0 60282.0 64593.0 60608.0 57108.0 63495.0 208797.0 208225.0 270462.0 268692.0 110171.0 109736.0 305958.0 312811.0 105814.0 97865.0 53939.0 45598.0 104539.0 101763.0 109849.0 109735.0 36893.0 31861.0 154576.0 154719.0 287186.0 287395.0 137159.0 133236.0 96105.0 97414.0 159981.0 155476.0 170653.0 167380.0 192960.0 199086.0 289808.0 297692.0 123494.0 119091.0 110237.0 113779.0 147836.0 148365.0 44275.0 52073.0 146755.0 141709.0 92852.0 84514.0 284593.0 283373.0 269783.0 265195.0 89706.0 83699.0 250760.0 252484.0 0.0 158470.0 0.0 0.0 158470.0 158470.0
195588.0 203707.0 34986.0 35028.0 122677.0 120562.0 192835.0 192751.0 193176.0 200878.0 140747.0 142168.0 124850.0 121060.0 96878.0 92464.0 124359.0 128140.0 177392.0 172534.0 68145.0 68493.0 104040.0 100037.0 211398.0 216364.0 171494.0 164411.0 239442.0 242642.0 120401.0 115283.0 81174.0 84457.0 157477.0 155537.0 7151.0 11757.0 80125.0 80081.0 135524.0 127556.0 89199.0 94711.0 20556.0 16669.0 218659.0 220823.0 205896.0 208479.0 63526.0 67000.0 130820.0 136565.0 217291.0 211476.0 88159.0 92214.0 31579.0 28701.0 202490.0 198994.0 186539.0 179059.0 191029.0 195567.0 196710.0 201614.0 261626.0 255959.0 220209.0 215591.0 149265.0 156118.0 86491.0 87390.0 164492.0 159580.0 102177.0 109679.0 197172.0 191730.0 174691.0 172040.0 238386.0 234156.0 129679.0 129575.0 120399.0 125451.0 202888.0 198964.0 180349.0 172526.0 199028.0 191448.0 64459.0 72531.0 132322.0 140267.0 162894.0 166617.0 93760.0 86341.0 97785.0 105378.0 173963.0 179394.0 108273.0 113029.0 223554.0 216221.0 247775.0 250835.0 116178.0 112592.0 148561.0 151405.0 197841.0 194778.0 158470.0 0.0 158470.0 158470.0 0.0 0.0
134550.0 139846.0 131325.0 138409.0 126955.0 133796.0 64505.0 68264.0 153652.0 157491.0 100394.0 93350.0 282043.0 277881.0 112043.0 105770.0 88850.0 96959.0 45843.0 38771.0 213451.0 210164.0 258629.0 253719.0 125530.0 133371.0 328359.0 321135.0 205338.0 203519.0 135648.0 140215.0 238728.0 241444.0 314170.0 312230.0 158600.0 166591.0 224102.0 220667.0 88814.0 88170.0 149818.0 145762.0 140034.0 148135.0 100102.0 105724.0 196277.0 193212.0 219294.0 221494.0 127471.0 124066.0 89757.0 82210.0 245365.0 249851.0 155178.0 161762.0 65346.0 60282.0 64593.0 60608.0 57108.0 63495.0 208797.0 208225.0 270462.0 268692.0 110171.0 109736.0 305958.0 312811.0 105814.0 97865.0 53939.0 45598.0 104539.0 101763.0 109849.0 109735.0 36893.0 31861.0 154576.0 154719.0 287186.0 287395.0 137159.0 133236.0 96105.0 97414.0 159981.0 155476.0 170653.0 167380.0 192960.0 199086.0 289808.0 297692.0 123494.0 119091.0 110237.0 113779.0 147836.0 148365.0 44275.0 52073.0 146755.0 141709.0 92852.0 84514.0 284593.0 283373.0 269783.0 265195.0 89706.0 83699.0 250760.0 252484.0 0.0 158470.0 0.0 0.0 158470.0 158470.0
134550.0 139846.0 131325.0 138409.0 126955.0 133796.0 64505.0 68264.0 153652.0 157491.0 100394.0 93350.0 282043.0 277881.0 112043.0 105770.0 88850.0 96959.0 45843.0 38771.0 213451.0 210164.0 258629.0 253719.0 125530.0 133371.0 328359.0 321135.0 205338.0 203519.0 135648.0 140215.0 238728.0 241444.0 314170.0 312230.0 158600.0 166591.0 224102.0 220667.0 88814.0 88170.0 149818.0 145762.0 140034.0 148135.0 100102.0 105724.0 196277.0 193212.0 219294.0 221494.0 127471.0 124066.0 89757.0 82210.0 245365.0 249851.0 155178.0 161762.0 65346.0 60282.0 64593.0 60608.0 57108.0 63495.0 208797.0 208225.0 270462.0 268692.0 110171.0 109736.0 305958.0 312811.0 105814.0 97865.0 53939.0 45598.0 104539.0 101763.0 109849.0 109735.0 36893.0 31861.0 154576.0 154719.0 287186.0 287395.0 137159.0 133236.0 96105.0 97414.0 159981.0 155476.0 170653.0 167380.0 192960.0 199086.0 289808.0 297692.0 123494.0 119091.0 110237.0 113779.0 147836.0 148365.0 44275.0 52073.0 146755.0 141709.0 92852.0 84514.0 284593.0 283373.0 269783.0 265195.0 89706.0 83699.0 250760.0 252484.0 0.0 158470.0 0.0 0.0 158470.0 158470.0
195588.0 203707.0 34986.0 35028.0 122677.0 120562.0 192835.0 192751.0 193176.0 200878.0 140747.0 142168.0 124850.0 121060.0 96878.0 92464.0 124359.0 128140.0 177392.0 172534.0 68145.0 68493.0 104040.0 100037.0 211398.0 216364.0 171494.0 164411.0 239442.0 242642.0 120401.0 115283.0 81174.0 84457.0 157477.0 155537.0 7151.0 11757.0 80125.0 80081.0 135524.0 127556.0 89199.0 94711.0 20556.0 16669.0 218659.0 220823.0 205896.0 208479.0 63526.0 67000.0 130820.0 136565.0 217291.0 211476.0 88159.0 92214.0 31579.0 28701.0 202490.0 198994.0 186539.0 179059.0 191029.0 195567.0 196710.0 201614.0 261626.0 255959.0 220209.0 215591.0 149265.0 156118.0 86491.0 87390.0 164492.0 159580.0 102177.0 109679.0 197172.0 191730.0 174691.0 172040.0 238386.0 234156.0 129679.0 129575.0 120399.0 125451.0 202888.0 198964.0 180349.0 172526.0 199028.0 191448.0 64459.0 72531.0 132322.0 140267.0 162894.0 166617.0 93760.0 86341.0 97785.0 105378.0 173963.0 179394.0 108273.0 113029.0 223554.0 216221.0 247775.0 250835.0 116178.0 112592.0 148561.0 151405.0 197841.0 194778.0 158470.0 0.0 158470.0 158470.0 0.0 0.0
195588.0 203707.0 34986.0 35028.0 122677.0 120562.0 192835.0 192751.0 193176.0 200878.0 140747.0 142168.0 124850.0 121060.0 96878.0 92464.0 124359.0 128140.0 177392.0 172534.0 68145.0 68493.0 104040.0 100037.0 211398.0 216364.0 171494.0 164411.0 239442.0 242642.0 120401.0 115283.0 81174.0 84457.0 157477.0 155537.0 7151.0 11757.0 80125.0 80081.0 135524.0 127556.0 89199.0 94711.0 20556.0 16669.0 218659.0 220823.0 205896.0 208479.0 63526.0 67000.0 130820.0 136565.0 217291.0 211476.0 88159.0 92214.0 31579.0 28701.0 202490.0 198994.0 186539.0 179059.0 191029.0 195567.0 196710.0 201614.0 261626.0 255959.0 220209.0 215591.0 149265.0 156118.0 86491.0 87390.0 164492.0 159580.0 102177.0 109679.0 197172.0 191730.0 174691.0 172040.0 238386.0 234156.0 129679.0 129575.0 120399.0 125451.0 202888.0 198964.0 180349.0 172526.0 199028.0 191448.0 64459.0 72531.0 132322.0 140267.0 162894.0 166617.0 93760.0 86341.0 97785.0 105378.0 173963.0 179394.0 108273.0 113029.0 223554.0 216221.0 247775.0 250835.0 116178.0 112592.0 148561.0 151405.0 197841.0 194778.0 158470.0 0.0 158470.0 158470.0 0.0 0.0
FIXED_EDGES_SECTION
1 2
3 4
5 6
7 8
9 10
11 12
13 14
15 16
17 18
19 20
21 22
23 24
25 26
27 28
29 30
31 32
33 34
35 36
37 38
39 40
41 42
43 44
45 46
47 48
49 50
51 52
53 54
55 56
57 58
59 60
61 62
63 64
65 66
67 68
69 70
71 72
73 74
75 76
77 78
79 80
81 82
83 84
85 86
87 88
89 90
91 92
93 94
95 96
97 98
99 100
101 102
103 104
105 106
107 108
109 110
111 112
113 114
115 116
117 118
119 120
-1 
DEMAND_SECTION
1 247
2 247
3 100
4 100
5 94
6 94
7 247
8 247
9 90
10 90
11 119
12 119
13 322
14 322
15 214
16 214
17 94
18 94
19 341
20 341
21 319
22 319
23 341
24 341
25 55
26 55
27 229
28 229
29 68
30 68
31 279
32 279
33 534
34 534
35 71
36 71
37 37
38 37
39 336
40 336
41 277
42 277
43 158
44 158
45 235
46 235
47 500
48 500
49 72
50 72
51 563
52 563
53 89
54 89
55 216
56 216
57 184
58 184
59 371
60 371
61 369
62 369
63 396
64 396
65 219
66 219
67 157
68 157
69 542
70 542
71 265
72 265
73 280
74 280
75 373
76 373
77 100
78 100
79 432
80 432
81 461
82 461
83 97
84 97
85 497
86 497
87 60
88 60
89 90
90 90
91 375
92 375
93 82
94 82
95 479
96 479
97 84
98 84
99 99
100 99
101 349
102 349
103 80
104 80
105 291
106 291
107 104
108 104
109 271
110 271
111 251
112 251
113 120
114 120
115 268
116 268
117 207
118 207
119 321
120 321
121 0
122 0
123 0
124 0
125 0
126 0
DEPOT_SECTION
121 
-1 
CAPACITIES_SECTION
15000 
16500 
18000 
19500 
-1 
EOF