NAME: GFS_20_1
TYPE: GFSP
DIMENSION: 166
VEHICLES: 2
CAPACITY: 20000.0
TRIP_DIST_LIMIT: 1050000.0
TOTAL_DIST_LIMIT: 2100000.0
EDGE_WEIGHT_TYPE: EXPLICIT
EDGE_WEIGHT_FORMAT: FULL_MATRIX
EDGE_WEIGHT_SECTION
0.0 7971.0 65852.0 65403.0 76659.0 73072.0 119700.0 116899.0 96505.0 98749.0 71431.0 77992.0 127569.0 119369.0 70060.0 77587.0 62672.0 58248.0 214541.0 210660.0 147366.0 139052.0 91044.0 84728.0 64274.0 65032.0 64030.0 62607.0 189539.0 193110.0 157629.0 156782.0 134791.0 127294.0 72108.0 69772.0 148205.0 145917.0 119845.0 124664.0 82959.0 75283.0 274305.0 267309.0 194985.0 191779.0 100238.0 91771.0 311682.0 312281.0 65220.0 57626.0 98816.0 102910.0 157865.0 149754.0 119321.0 111684.0 35191.0 35575.0 165532.0 168045.0 87257.0 91519.0 174554.0 172336.0 85210.0 77146.0 308141.0 314161.0 72422.0 68639.0 178340.0 171725.0 52931.0 46124.0 162266.0 154909.0 281920.0 285391.0 68238.0 65520.0 126212.0 118208.0 47826.0 55781.0 151612.0 149867.0 222307.0 224740.0 88060.0 95582.0 67177.0 72369.0 101226.0 108849.0 99417.0 100364.0 78242.0 74677.0 191228.0 197558.0 284012.0 290356.0 148656.0 153103.0 64720.0 67050.0 161700.0 163985.0 50320.0 53651.0 165920.0 159341.0 98495.0 97745.0 240665.0 238605.0 96609.0 94201.0 95195.0 102898.0 171224.0 166278.0 103660.0 111932.0 91924.0 93633.0 192192.0 189791.0 240429.0 232672.0 148069.0 146885.0 167280.0 164075.0 104535.0 101388.0 301820.0 293792.0 178590.0 180821.0 235054.0 242843.0 283560.0 275283.0 142036.0 137316.0 111784.0 117489.0 137417.0 129669.0 213889.0 206218.0 99004.0 92699.0 83809.0 89639.0 80395.0 86380.0 188170.0 180652.0 188170.0 188170.0 180652.0 180652.0
7971.0 0.0 60338.0 59203.0 73144.0 70294.0 111766.0 109034.0 89692.0 92301.0 67510.0 73588.0 129439.0 121132.0 62503.0 69901.0 68927.0 64998.0 215709.0 212101.0 139446.0 131131.0 83255.0 77056.0 57928.0 58077.0 61182.0 58856.0 182480.0 186197.0 158346.0 157902.0 126944.0 119490.0 66378.0 64686.0 146632.0 144759.0 116413.0 121545.0 82463.0 74644.0 276216.0 269331.0 197135.0 194197.0 94310.0 85787.0 313479.0 313880.0 58067.0 50687.0 95330.0 99914.0 149896.0 141784.0 111358.0 103730.0 30990.0 29860.0 158400.0 160759.0 79316.0 83659.0 167308.0 164947.0 80055.0 71978.0 309475.0 315627.0 71493.0 66869.0 170758.0 164083.0 60640.0 53669.0 155351.0 148079.0 283734.0 287023.0 64138.0 62276.0 118693.0 110723.0 39868.0 47847.0 153429.0 152087.0 222456.0 225163.0 81409.0 88793.0 60820.0 65586.0 94151.0 101677.0 92910.0 94257.0 76383.0 73582.0 183316.0 189625.0 285871.0 292346.0 141367.0 145976.0 61697.0 64957.0 160373.0 163036.0 49677.0 51785.0 158332.0 151832.0 91005.0 90515.0 241732.0 239941.0 92422.0 89480.0 91679.0 99221.0 163290.0 158320.0 100694.0 108801.0 97651.0 98877.0 184951.0 182416.0 243186.0 235502.0 140351.0 139291.0 159457.0 156330.0 99189.0 95628.0 304526.0 296454.0 171315.0 173686.0 237730.0 245451.0 284753.0 276486.0 140941.0 136275.0 104900.0 110398.0 129943.0 122261.0 216590.0 208885.0 99716.0 93025.0 76494.0 82540.0 79010.0 85541.0 181724.0 179673.0 181724.0 181724.0 179673.0 179673.0
65852.0 60338.0 0.0 8006.0 24118.0 28553.0 91195.0 93105.0 36035.0 35272.0 106281.0 108572.0 108383.0 100396.0 31084.0 37806.0 128476.0 123674.0 183404.0 181853.0 103083.0 95627.0 49524.0 41524.0 82516.0 76152.0 24872.0 17052.0 127804.0 130367.0 125904.0 128375.0 88106.0 79795.0 6654.0 6245.0 100056.0 100814.0 61508.0 67906.0 53379.0 47594.0 247353.0 241436.0 172762.0 172017.0 34696.0 26479.0 283052.0 282071.0 73555.0 72131.0 41766.0 48745.0 118067.0 110686.0 82267.0 74497.0 77931.0 71043.0 104771.0 108720.0 65685.0 73686.0 114664.0 114079.0 20035.0 12156.0 276028.0 282879.0 43732.0 35171.0 122685.0 117358.0 115320.0 109738.0 99906.0 92130.0 254011.0 255949.0 14737.0 21783.0 112125.0 106125.0 47951.0 51009.0 129433.0 131296.0 183176.0 187545.0 27083.0 34992.0 10152.0 17698.0 43067.0 51072.0 36265.0 35285.0 39141.0 43530.0 144048.0 151411.0 256420.0 263690.0 89936.0 92590.0 23517.0 31935.0 114508.0 119295.0 103066.0 101529.0 110790.0 103154.0 47232.0 42146.0 207882.0 207987.0 35391.0 30418.0 38378.0 44218.0 126313.0 123856.0 49612.0 55956.0 157750.0 159197.0 131944.0 130978.0 221579.0 214730.0 96470.0 92689.0 117547.0 112264.0 38861.0 35602.0 280926.0 272691.0 118913.0 119806.0 215676.0 222614.0 250911.0 242697.0 97659.0 93709.0 50752.0 58085.0 81700.0 73438.0 195552.0 187916.0 74900.0 66938.0 32901.0 33636.0 44401.0 52817.0 123436.0 135005.0 123436.0 123436.0 135005.0 135005.0
65403.0 59203.0 8006.0 0.0 32016.0 36545.0 83476.0 85227.0 32445.0 33472.0 100483.0 102374.0 116349.0 108340.0 23081.0 29943.0 128004.0 123621.0 191219.0 189737.0 96768.0 89136.0 42090.0 34027.0 75969.0 69288.0 32440.0 24540.0 125520.0 128536.0 133804.0 136337.0 81968.0 73675.0 9070.0 13770.0 107153.0 108173.0 67521.0 74151.0 61296.0 55357.0 255225.0 249337.0 180758.0 180022.0 35229.0 26675.0 290852.0 289818.0 66582.0 65663.0 48517.0 55794.0 111358.0 103853.0 74993.0 67141.0 73830.0 66591.0 102024.0 105488.0 57679.0 65683.0 111647.0 110544.0 24384.0 17608.0 283732.0 290585.0 51451.0 42877.0 118506.0 112852.0 116389.0 110430.0 97813.0 90216.0 261852.0 263742.0 22732.0 29528.0 104131.0 98119.0 41818.0 44102.0 137439.0 139286.0 190630.0 195099.0 23497.0 31434.0 2646.0 10644.0 38699.0 46755.0 34234.0 35054.0 47132.0 51355.0 138396.0 145645.0 264269.0 271558.0 86397.0 89688.0 31168.0 39608.0 121602.0 126579.0 99252.0 97150.0 106418.0 98989.0 41117.0 36923.0 215605.0 215787.0 41291.0 35352.0 45279.0 50547.0 120249.0 117470.0 56658.0 62560.0 156848.0 157892.0 129113.0 127682.0 229580.0 222735.0 91239.0 87964.0 112145.0 107200.0 41484.0 36812.0 288895.0 280661.0 115843.0 117213.0 223676.0 230607.0 258616.0 250387.0 105094.0 101223.0 47701.0 54460.0 77233.0 69012.0 203557.0 195921.0 82843.0 74871.0 26141.0 28213.0 52379.0 60806.0 122800.0 142135.0 122800.0 122800.0 142135.0 142135.0
76659.0 73144.0 24118.0 32016.0 0.0 8048.0 113427.0 115986.0 50209.0 45596.0 127520.0 130514.0 85579.0 77865.0 54903.0 60985.0 137106.0 131258.0 159302.0 157737.0 120721.0 113897.0 71309.0 63652.0 105187.0 99317.0 13809.0 14367.0 133093.0 134255.0 101793.0 104357.0 105483.0 97303.0 25388.0 18337.0 77436.0 77530.0 43273.0 48522.0 31813.0 28032.0 223236.0 217327.0 148907.0 148353.0 39368.0 34683.0 258956.0 258015.0 96878.0 94760.0 22194.0 27253.0 136733.0 129815.0 103076.0 95657.0 96319.0 90279.0 112013.0 117256.0 89497.0 97563.0 122420.0 123365.0 20841.0 18535.0 252020.0 258865.0 24996.0 18022.0 133683.0 129418.0 119918.0 115583.0 105405.0 97405.0 229897.0 231858.0 10523.0 11320.0 135672.0 129889.0 70432.0 74394.0 105876.0 108132.0 159567.0 163759.0 42879.0 49260.0 33806.0 40218.0 58077.0 65237.0 46928.0 41797.0 16967.0 23667.0 159173.0 166817.0 232304.0 239572.0 99938.0 100684.0 12599.0 16095.0 91819.0 96126.0 120352.0 120035.0 122594.0 114537.0 65898.0 59148.0 183856.0 183892.0 21239.0 22424.0 18553.0 26255.0 142893.0 141458.0 28084.0 35819.0 167083.0 169589.0 138771.0 139206.0 197790.0 191029.0 111074.0 105953.0 132246.0 126059.0 36260.0 38159.0 256922.0 248687.0 126727.0 126192.0 191867.0 198732.0 226904.0 218705.0 74212.0 70097.0 61835.0 69979.0 94595.0 86550.0 171893.0 164295.0 52570.0 44831.0 53778.0 51865.0 22244.0 30135.0 124185.0 112154.0 124185.0 124185.0 112154.0 112154.0
73072.0 70294.0 28553.0 36545.0 8048.0 0.0 119357.0 121541.0 57733.0 53431.0 127800.0 131260.0 79856.0 71921.0 59622.0 66276.0 132252.0 126146.0 156257.0 154311.0 128044.0 121087.0 77359.0 69524.0 106635.0 101255.0 9113.0 14083.0 141067.0 142153.0 98359.0 100378.0 112825.0 104601.0 31259.0 23631.0 77491.0 76753.0 47201.0 51644.0 25090.0 20407.0 219827.0 213744.0 144453.0 143563.0 47404.0 42520.0 255890.0 255180.0 98996.0 96244.0 26663.0 29863.0 143873.0 136839.0 109576.0 102019.0 95302.0 89738.0 120055.0 125303.0 94190.0 102149.0 130465.0 131407.0 28763.0 25570.0 249417.0 256192.0 17130.0 10000.0 141689.0 137374.0 114115.0 110113.0 113410.0 105410.0 226647.0 228840.0 13816.0 8890.0 140676.0 134629.0 72056.0 76754.0 100949.0 102743.0 157931.0 161780.0 50079.0 56761.0 38665.0 45745.0 65572.0 72880.0 54752.0 49798.0 10588.0 16056.0 166904.0 174522.0 229016.0 236173.0 107955.0 108732.0 8775.0 8418.0 91673.0 95371.0 118625.0 118867.0 130557.0 122514.0 72839.0 66357.0 181197.0 180886.0 28011.0 30201.0 23289.0 31225.0 150421.0 148816.0 30600.0 38949.0 162300.0 165111.0 146796.0 147252.0 193191.0 186284.0 118808.0 113802.0 139998.0 133890.0 44138.0 46205.0 252797.0 244565.0 134771.0 134210.0 187306.0 194313.0 224304.0 216134.0 73214.0 68851.0 69726.0 77848.0 102453.0 94375.0 167089.0 159437.0 46443.0 38526.0 60050.0 58776.0 15869.0 24263.0 131866.0 111706.0 131866.0 131866.0 111706.0 111706.0
119700.0 111766.0 91195.0 83476.0 113427.0 119357.0 0.0 8154.0 69221.0 77135.0 94859.0 89906.0 198996.0 191203.0 61408.0 53643.0 169446.0 168780.0 267628.0 267324.0 38573.0 32230.0 42128.0 49836.0 71391.0 64349.0 115916.0 108013.0 109301.0 116384.0 212347.0 216038.0 36668.0 36621.0 88171.0 95726.0 177769.0 181142.0 134060.0 141209.0 144416.0 138787.0 332051.0 326791.0 261108.0 261103.0 87284.0 84905.0 366126.0 364291.0 62011.0 69799.0 122274.0 130228.0 41161.0 33508.0 16000.0 19698.0 99207.0 92475.0 88493.0 85241.0 32461.0 29047.0 91554.0 84910.0 96387.0 95181.0 358019.0 364872.0 134909.0 126337.0 82408.0 74484.0 170158.0 162508.0 92809.0 90303.0 338063.0 339094.0 105696.0 112962.0 29522.0 29260.0 71940.0 63920.0 218939.0 221508.0 262108.0 267753.0 72873.0 69729.0 81084.0 73642.0 62847.0 60525.0 76012.0 84010.0 129846.0 134715.0 78344.0 83016.0 340596.0 348213.0 71853.0 80150.0 114638.0 123078.0 191420.0 198022.0 117683.0 110385.0 72166.0 70561.0 50726.0 58783.0 290302.0 291691.0 112483.0 104497.0 120275.0 121791.0 58008.0 50999.0 130978.0 133474.0 191327.0 188784.0 105932.0 99561.0 310056.0 303581.0 53008.0 58491.0 61910.0 63503.0 98446.0 90527.0 367838.0 359630.0 93744.0 99999.0 304081.0 310626.0 332903.0 324736.0 178922.0 175992.0 69095.0 64579.0 58403.0 57545.0 284592.0 277094.0 165772.0 157879.0 59745.0 63254.0 135182.0 143419.0 125530.0 211398.0 125530.0 125530.0 211398.0 211398.0
116899.0 109034.0 93105.0 85227.0 115986.0 121541.0 8154.0 0.0 73842.0 81898.0 88005.0 82753.0 201375.0 193460.0 62545.0 55300.0 164631.0 164286.0 271738.0 271216.0 46404.0 40303.0 45225.0 52439.0 65513.0 58936.0 117544.0 109647.0 117454.0 124532.0 215947.0 219392.0 44792.0 44431.0 90606.0 97979.0 182431.0 185530.0 138795.0 145974.0 146482.0 140555.0 336165.0 330780.0 264361.0 264142.0 92020.0 89011.0 370547.0 368768.0 56847.0 64850.0 126094.0 134062.0 47481.0 40213.0 23552.0 25682.0 94522.0 88122.0 96581.0 93385.0 30605.0 25382.0 99706.0 93060.0 99846.0 98027.0 362530.0 369383.0 136619.0 128050.0 90428.0 82510.0 166440.0 158716.0 100765.0 98094.0 342297.0 343477.0 107770.0 114744.0 22637.0 21351.0 69521.0 61372.0 221798.0 224101.0 266947.0 272446.0 76692.0 74262.0 82953.0 75846.0 67940.0 66353.0 80842.0 88809.0 132100.0 136581.0 84980.0 89267.0 344810.0 352375.0 79812.0 88087.0 116337.0 124765.0 196241.0 202678.0 111920.0 104417.0 80285.0 78714.0 55447.0 63513.0 294733.0 295925.0 116427.0 108464.0 123917.0 125885.0 64863.0 57527.0 134834.0 137756.0 185767.0 182986.0 114059.0 107647.0 313317.0 306727.0 61161.0 66604.0 69646.0 71489.0 103263.0 95289.0 371536.0 363317.0 101896.0 108150.0 307358.0 314014.0 337413.0 329246.0 183185.0 180109.0 75039.0 71051.0 66235.0 65007.0 287666.0 280117.0 167974.0 160028.0 62821.0 67137.0 137409.0 145746.0 133371.0 216364.0 133371.0 133371.0 216364.0 216364.0
96505.0 89692.0 36035.0 32445.0 50209.0 57733.0 69221.0 73842.0 0.0 8151.0 117772.0 117577.0 133792.0 126573.0 31981.0 30008.0 158540.0 154658.0 198479.0 198334.0 70622.0 64061.0 30329.0 26406.0 90617.0 82458.0 58081.0 51250.0 93287.0 96623.0 143797.0 147926.0 55380.0 47290.0 29792.0 36829.0 108618.0 111922.0 64955.0 72132.0 81887.0 78123.0 262887.0 257701.0 193065.0 193520.0 18189.0 16529.0 296908.0 295089.0 79240.0 81578.0 53789.0 61638.0 86939.0 80340.0 56131.0 49782.0 98324.0 90441.0 69625.0 73056.0 55523.0 63216.0 79203.0 78204.0 29955.0 32337.0 288817.0 295670.0 74821.0 66896.0 86653.0 81414.0 148379.0 142185.0 65791.0 58407.0 268858.0 269873.0 46286.0 54484.0 95864.0 91922.0 62114.0 60115.0 152004.0 155351.0 193105.0 198632.0 9017.0 1044.0 30147.0 24136.0 7877.0 15333.0 7295.0 15040.0 67109.0 73761.0 109345.0 116901.0 271395.0 279029.0 54043.0 57263.0 56498.0 64086.0 122399.0 128871.0 123703.0 119998.0 74800.0 67123.0 18495.0 10452.0 221084.0 222489.0 43853.0 35930.0 52246.0 52832.0 92698.0 91304.0 62341.0 64308.0 186654.0 187061.0 96681.0 95269.0 241905.0 235664.0 61324.0 56945.0 82529.0 76789.0 29453.0 21464.0 298991.0 290800.0 83398.0 84849.0 235910.0 242252.0 263700.0 255533.0 109733.0 106888.0 15349.0 22107.0 45806.0 37551.0 216869.0 209501.0 101887.0 94456.0 17561.0 9627.0 72288.0 79678.0 92538.0 142547.0 92538.0 92538.0 142547.0 142547.0
98749.0 92301.0 35272.0 33472.0 45596.0 53431.0 77135.0 81898.0 8151.0 0.0 124210.0 124338.0 127536.0 120506.0 37933.0 37127.0 161219.0 156996.0 190729.0 190699.0 76449.0 70307.0 38448.0 34177.0 97305.0 89286.0 54952.0 48763.0 92541.0 95244.0 136413.0 140716.0 61281.0 53425.0 28652.0 34663.0 100639.0 104075.0 56942.0 64106.0 76784.0 73622.0 255115.0 249988.0 185836.0 186445.0 10149.0 10915.0 289005.0 287158.0 86106.0 87998.0 46694.0 54423.0 93126.0 86818.0 63709.0 57599.0 103155.0 95383.0 69559.0 73765.0 63496.0 71253.0 79555.0 79378.0 24789.0 28938.0 280886.0 287739.0 70548.0 63001.0 88803.0 84128.0 149819.0 143900.0 64669.0 56945.0 261033.0 261987.0 43232.0 51315.0 103979.0 100071.0 67486.0 66212.0 145189.0 148761.0 185067.0 190639.0 11518.0 7961.0 31576.0 27254.0 14606.0 20211.0 1363.0 6914.0 62198.0 69261.0 113624.0 121299.0 263577.0 271232.0 55393.0 57467.0 53345.0 60404.0 114360.0 120892.0 128664.0 125348.0 77362.0 69421.0 26468.0 18392.0 213185.0 214673.0 36752.0 28996.0 45442.0 45391.0 97788.0 96924.0 55091.0 56608.0 189773.0 190501.0 96734.0 96016.0 234611.0 228451.0 65539.0 60371.0 86681.0 80466.0 21366.0 13402.0 291409.0 283227.0 83827.0 84547.0 228611.0 234877.0 255770.0 247602.0 101960.0 99212.0 16374.0 24429.0 49023.0 40954.0 209730.0 202409.0 96176.0 88943.0 24605.0 17012.0 67227.0 74235.0 89435.0 134468.0 89435.0 89435.0 134468.0 134468.0
71431.0 67510.0 106281.0 100483.0 127520.0 127800.0 94859.0 88005.0 117772.0 124210.0 0.0 8160.0 196092.0 187703.0 86313.0 88007.0 88027.0 90684.0 280941.0 277842.0 132656.0 125259.0 93910.0 93191.0 27594.0 36112.0 119325.0 113991.0 196426.0 202318.0 222995.0 223325.0 126134.0 121726.0 109553.0 112397.0 204914.0 204542.0 167773.0 174177.0 145758.0 137906.0 342561.0 335840.0 263911.0 261246.0 131043.0 123328.0 379601.0 379670.0 39388.0 36216.0 147839.0 154339.0 135472.0 128180.0 104104.0 99607.0 36526.0 39237.0 172827.0 172087.0 72234.0 69452.0 178907.0 173787.0 124828.0 117924.0 374779.0 381173.0 134240.0 127772.0 174433.0 166617.0 100271.0 92695.0 173638.0 168266.0 349924.0 352914.0 117041.0 118919.0 83725.0 76301.0 58698.0 58137.0 219924.0 219028.0 285277.0 288688.0 113096.0 117336.0 100339.0 99617.0 117715.0 122312.0 124073.0 129324.0 136421.0 135839.0 172984.0 177161.0 352126.0 358782.0 154465.0 161604.0 119189.0 125095.0 219247.0 223166.0 31984.0 23725.0 162887.0 159051.0 107781.0 112331.0 306668.0 305411.0 141584.0 135826.0 144332.0 150492.0 152801.0 145532.0 155199.0 162074.0 102427.0 98245.0 195389.0 190263.0 310458.0 302824.0 142862.0 145677.0 155967.0 156254.0 140110.0 133652.0 371732.0 363630.0 182031.0 186885.0 304948.0 312612.0 349823.0 341599.0 201014.0 196629.0 129391.0 130952.0 140450.0 135231.0 283841.0 276118.0 164982.0 157722.0 100233.0 108188.0 140257.0 147923.0 205338.0 239442.0 205338.0 205338.0 239442.0 239442.0
77992.0 73588.0 108572.0 102374.0 130514.0 131260.0 89906.0 82753.0 117577.0 124338.0 8160.0 0.0 201270.0 192857.0 86686.0 87602.0 96140.0 98842.0 285449.0 282535.0 128099.0 120919.0 92337.0 92319.0 27054.0 35126.0 122996.0 117309.0 193471.0 199568.0 227406.0 227978.0 122346.0 118369.0 111416.0 114762.0 207944.0 207863.0 169878.0 176425.0 150101.0 142293.0 347456.0 340818.0 269076.0 266575.0 131635.0 124171.0 384376.0 384306.0 38364.0 36891.0 150308.0 157033.0 130072.0 122960.0 100042.0 96038.0 42823.0 44441.0 170135.0 169050.0 69428.0 65831.0 175835.0 170453.0 126561.0 119944.0 379233.0 385713.0 138547.0 131791.0 170525.0 162660.0 108358.0 100758.0 171387.0 166296.0 354745.0 357605.0 119996.0 122371.0 77010.0 69807.0 60637.0 58974.0 224994.0 224326.0 289077.0 292670.0 113457.0 117208.0 102023.0 100666.0 116974.0 121112.0 124112.0 129740.0 140203.0 140037.0 167637.0 171577.0 356975.0 363711.0 151830.0 159174.0 122763.0 129011.0 222333.0 226490.0 40144.0 31873.0 159189.0 155692.0 106487.0 111517.0 311049.0 309977.0 143646.0 137582.0 146860.0 152749.0 147613.0 140185.0 157898.0 164519.0 110016.0 105619.0 192048.0 186676.0 315937.0 308354.0 139182.0 142394.0 151473.0 152123.0 141086.0 134361.0 377131.0 369006.0 178831.0 183923.0 310381.0 317995.0 354211.0 346009.0 204407.0 200097.0 128508.0 129565.0 137715.0 132868.0 289312.0 281576.0 169730.0 162340.0 100021.0 107952.0 144225.0 152058.0 203519.0 242642.0 203519.0 203519.0 242642.0 242642.0
127569.0 129439.0 108383.0 116349.0 85579.0 79856.0 198996.0 201375.0 133792.0 127536.0 196092.0 201270.0 0.0 8434.0 139384.0 146131.0 166961.0 159095.0 87919.0 83393.0 203975.0 197771.0 156885.0 149187.0 179921.0 176114.0 84738.0 92442.0 198626.0 197005.0 36140.0 31902.0 188816.0 180915.0 110848.0 103398.0 62399.0 54637.0 83051.0 79175.0 55172.0 61903.0 146791.0 139894.0 67821.0 65473.0 118696.0 117302.0 184121.0 184743.0 174385.0 170017.0 81777.0 74951.0 220627.0 214131.0 188454.0 181151.0 160015.0 156936.0 182787.0 189591.0 173835.0 181696.0 193126.0 196396.0 104023.0 103961.0 180856.0 186716.0 65938.0 74249.0 208662.0 206112.0 141428.0 141932.0 174069.0 166669.0 154361.0 157845.0 93660.0 87115.0 220431.0 214223.0 147238.0 153362.0 24044.0 23354.0 100857.0 101394.0 127620.0 132962.0 118514.0 125536.0 141558.0 147733.0 128891.0 121888.0 69282.0 65444.0 238953.0 246794.0 156469.0 162907.0 175701.0 173797.0 85735.0 77527.0 66278.0 62168.0 177850.0 181021.0 199274.0 191100.0 150839.0 143580.0 114158.0 111444.0 91370.0 98700.0 82350.0 84484.0 224723.0 224350.0 74515.0 77143.0 194461.0 200049.0 206650.0 209489.0 115168.0 107846.0 191646.0 185279.0 212206.0 205140.0 110133.0 116164.0 176031.0 167868.0 197191.0 194292.0 109467.0 116923.0 156563.0 148284.0 51883.0 49188.0 142294.0 150328.0 174130.0 166794.0 88629.0 80883.0 33578.0 41577.0 139348.0 136979.0 63989.0 55630.0 183483.0 75084.0 183483.0 183483.0 75084.0 75084.0
119369.0 121132.0 100396.0 108340.0 77865.0 71921.0 191203.0 193460.0 126573.0 120506.0 187703.0 192857.0 8434.0 0.0 131340.0 138182.0 159896.0 152081.0 95684.0 91393.0 196948.0 190617.0 149123.0 141372.0 171488.0 167697.0 76558.0 84305.0 193780.0 192441.0 41956.0 38783.0 181755.0 173792.0 103032.0 95518.0 61999.0 54598.0 78186.0 74870.0 47070.0 53643.0 155084.0 148226.0 76222.0 73906.0 111874.0 110134.0 192371.0 192912.0 165978.0 161589.0 75280.0 68777.0 213490.0 206895.0 180883.0 173514.0 151660.0 148535.0 177298.0 183966.0 165732.0 173563.0 187697.0 190723.0 96700.0 96325.0 188892.0 194823.0 57677.0 66043.0 202806.0 200038.0 134606.0 134839.0 168749.0 161237.0 162617.0 166022.0 85696.0 79009.0 212357.0 206091.0 138841.0 145000.0 32296.0 31757.0 107468.0 108390.0 120188.0 125722.0 110540.0 117654.0 134378.0 140717.0 121865.0 115020.0 61377.0 57263.0 232535.0 240359.0 164743.0 171224.0 169627.0 168007.0 77588.0 69330.0 67658.0 64468.0 169673.0 172760.0 193181.0 184994.0 143395.0 136240.0 121920.0 119414.0 84686.0 91831.0 75611.0 78254.0 217968.0 217412.0 68403.0 71705.0 187719.0 193154.0 201594.0 204179.0 123593.0 116256.0 185023.0 178808.0 205715.0 198755.0 103663.0 109437.0 184465.0 176301.0 191808.0 189150.0 117897.0 125357.0 164495.0 156213.0 51416.0 48097.0 135516.0 143600.0 167596.0 160144.0 97044.0 89297.0 25497.0 33475.0 131637.0 129475.0 56056.0 47786.0 179018.0 78498.0 179018.0 179018.0 78498.0 78498.0
70060.0 62503.0 31084.0 23081.0 54903.0 59622.0 61408.0 62545.0 31981.0 37933.0 86313.0 86686.0 139384.0 131340.0 0.0 8408.0 130064.0 126961.0 213702.0 212414.0 79788.0 71678.0 22465.0 15036.0 59633.0 51850.0 55060.0 47184.0 121040.0 125348.0 156547.0 159254.0 66016.0 58104.0 30016.0 36566.0 127969.0 129610.0 86363.0 93361.0 84272.0 78110.0 277849.0 272051.0 203777.0 203090.0 44964.0 37756.0 313257.0 312071.0 48763.0 50121.0 69263.0 76958.0 92752.0 84895.0 54803.0 46765.0 66764.0 58808.0 96776.0 98619.0 34617.0 42661.0 105269.0 102572.0 42959.0 38494.0 305889.0 312721.0 74147.0 65593.0 108280.0 101697.0 122977.0 116149.0 94713.0 87966.0 284386.0 286135.0 45812.0 52373.0 81060.0 75050.0 30266.0 28282.0 160515.0 162355.0 212133.0 216865.0 26800.0 31413.0 21103.0 15697.0 33796.0 40424.0 37861.0 43069.0 70206.0 74212.0 123054.0 129856.0 286823.0 294169.0 79265.0 84435.0 53897.0 62300.0 142344.0 147772.0 91965.0 88059.0 95860.0 89332.0 28546.0 29200.0 237819.0 238219.0 60772.0 53569.0 66367.0 70455.0 103759.0 99912.0 77804.0 82729.0 157159.0 157015.0 122891.0 120053.0 252623.0 245798.0 78243.0 76826.0 98033.0 94329.0 54749.0 47748.0 311819.0 303584.0 109185.0 111993.0 246713.0 253616.0 280773.0 272605.0 126722.0 123054.0 45489.0 49436.0 67471.0 59898.0 226626.0 218995.0 105849.0 97865.0 15185.0 22761.0 75441.0 83878.0 123494.0 162894.0 123494.0 123494.0 162894.0 162894.0
77587.0 69901.0 37806.0 29943.0 60985.0 66276.0 53643.0 55300.0 30008.0 37127.0 88007.0 87602.0 146131.0 138182.0 8408.0 0.0 136715.0 133892.0 218831.0 217792.0 71450.0 63316.0 14089.0 7169.0 60697.0 52477.0 62337.0 54432.0 115052.0 119695.0 162077.0 165075.0 57825.0 50010.0 35644.0 42796.0 131844.0 133922.0 89383.0 96498.0 91184.0 85297.0 283116.0 277447.0 209816.0 209336.0 45498.0 39350.0 318234.0 316877.0 49248.0 51928.0 73539.0 81396.0 84344.0 76492.0 46460.0 38431.0 71617.0 63613.0 90753.0 92142.0 29152.0 37319.0 98873.0 95787.0 46904.0 43606.0 310631.0 317484.0 81382.0 72808.0 100942.0 94191.0 130510.0 123563.0 89330.0 82921.0 289531.0 291110.0 52486.0 59471.0 74711.0 69137.0 35072.0 31263.0 166853.0 168949.0 216321.0 221270.0 27157.0 29691.0 27654.0 20785.0 29859.0 35411.0 36756.0 43113.0 76850.0 81295.0 114820.0 121571.0 291993.0 299411.0 72906.0 78541.0 61095.0 69533.0 146116.0 151845.0 96354.0 91865.0 88511.0 82229.0 22077.0 24650.0 242629.0 243267.0 64528.0 56939.0 70887.0 74248.0 95434.0 91522.0 82222.0 86506.0 163306.0 162863.0 116432.0 113257.0 258730.0 252004.0 70488.0 69476.0 90004.0 86520.0 56077.0 48547.0 317570.0 309338.0 102691.0 105861.0 252798.0 259602.0 285515.0 277347.0 131192.0 127701.0 41647.0 44415.0 60561.0 53288.0 232876.0 225280.0 112690.0 104736.0 12531.0 20384.0 82145.0 90514.0 119091.0 166617.0 119091.0 119091.0 166617.0 166617.0
62672.0 68927.0 128476.0 128004.0 137106.0 132252.0 169446.0 164631.0 158540.0 161219.0 88027.0 96140.0 166961.0 159896.0 130064.0 136715.0 0.0 8030.0 254276.0 248935.0 202290.0 194042.0 149052.0 143844.0 100349.0 105878.0 123656.0 123713.0 250925.0 254870.0 201516.0 198652.0 191373.0 184577.0 134772.0 132179.0 202012.0 198286.0 179428.0 183465.0 135629.0 128936.0 308253.0 300679.0 229470.0 224679.0 162910.0 154439.0 345738.0 347586.0 107800.0 99785.0 158810.0 161793.0 210098.0 202096.0 172996.0 166123.0 70242.0 77229.0 226727.0 228677.0 138735.0 140452.0 235333.0 232492.0 147605.0 139577.0 345139.0 350269.0 127135.0 125789.0 237309.0 230262.0 26537.0 25062.0 224045.0 216867.0 316347.0 320907.0 129700.0 125786.0 167153.0 159137.0 102784.0 109242.0 189920.0 185915.0 267273.0 268271.0 150327.0 157655.0 129699.0 134474.0 162720.0 170053.0 161836.0 163013.0 135138.0 129713.0 245843.0 251443.0 318115.0 323506.0 209329.0 214335.0 124636.0 125027.0 214328.0 215108.0 56380.0 64804.0 224904.0 218885.0 158525.0 158814.0 280379.0 276810.0 157846.0 156158.0 155306.0 163200.0 225380.0 219405.0 162460.0 170960.0 30066.0 33796.0 252954.0 249968.0 269474.0 261421.0 206078.0 205945.0 223871.0 221688.0 167011.0 164044.0 329872.0 322301.0 239243.0 241984.0 264813.0 272862.0 321777.0 313569.0 194276.0 189485.0 173676.0 178901.0 197275.0 189897.0 244111.0 236938.0 146002.0 141731.0 144671.0 151107.0 135919.0 139949.0 250648.0 231534.0 250648.0 250648.0 231534.0 231534.0
58248.0 64998.0 123674.0 123621.0 131258.0 126146.0 168780.0 164286.0 154658.0 156996.0 90684.0 98842.0 159095.0 152081.0 126961.0 133892.0 8030.0 0.0 246337.0 240967.0 200722.0 192436.0 146575.0 141052.0 100918.0 105925.0 117686.0 118108.0 247450.0 251195.0 193757.0 190820.0 189388.0 182400.0 130070.0 127123.0 194925.0 191069.0 173243.0 177111.0 128644.0 122087.0 300225.0 292649.0 221457.0 216655.0 158267.0 149854.0 337709.0 339561.0 107642.0 99522.0 152773.0 155512.0 209122.0 201074.0 171598.0 164537.0 69786.0 76306.0 223332.0 225526.0 137562.0 139734.0 232127.0 229527.0 142504.0 134523.0 337129.0 342249.0 120410.0 119384.0 234750.0 227826.0 18525.0 17383.0 220348.0 213059.0 308320.0 312886.0 124183.0 119946.0 167893.0 159822.0 100609.0 107421.0 181994.0 177946.0 259495.0 260436.0 146283.0 153749.0 125422.0 130531.0 159132.0 166606.0 157664.0 158507.0 128642.0 123010.0 244439.0 250213.0 310087.0 315476.0 206145.0 210915.0 118722.0 118751.0 207104.0 207755.0 58724.0 67094.0 222325.0 216119.0 155498.0 155408.0 272427.0 268830.0 152160.0 150767.0 149308.0 157226.0 224039.0 218270.0 156162.0 164680.0 36784.0 41251.0 249766.0 247009.0 261454.0 253402.0 203756.0 203316.0 221955.0 219502.0 161952.0 159276.0 321873.0 314296.0 236091.0 238613.0 256788.0 264837.0 313786.0 305581.0 187055.0 182269.0 169890.0 175369.0 194375.0 186858.0 236082.0 228908.0 138535.0 134416.0 141320.0 147517.0 129239.0 133030.0 246410.0 224138.0 246410.0 246410.0 224138.0 224138.0
214541.0 215709.0 183404.0 191219.0 159302.0 156257.0 267628.0 271738.0 198479.0 190729.0 280941.0 285449.0 87919.0 95684.0 213702.0 218831.0 254276.0 246337.0 0.0 8300.0 262508.0 258109.0 226634.0 219951.0 262214.0 257304.0 163546.0 170260.0 235515.0 232864.0 58108.0 57807.0 248452.0 241676.0 183687.0 177451.0 91318.0 86812.0 134416.0 127508.0 135374.0 143160.0 64430.0 59330.0 32136.0 39554.0 180633.0 182774.0 99663.0 98995.0 255149.0 251937.0 145719.0 137759.0 279849.0 274838.0 254415.0 248262.0 245615.0 241742.0 225650.0 233342.0 247922.0 256078.0 234787.0 240218.0 172237.0 175327.0 93851.0 100265.0 146936.0 154028.0 253659.0 253575.0 228349.0 229346.0 215929.0 210178.0 70701.0 72587.0 169321.0 164875.0 292927.0 287853.0 228035.0 233004.0 64393.0 68623.0 28991.0 22901.0 195049.0 197931.0 192815.0 198310.0 205273.0 209238.0 191924.0 183964.0 146337.0 145551.0 288745.0 296479.0 73165.0 80647.0 225135.0 220384.0 164071.0 156991.0 79514.0 71756.0 264841.0 267494.0 247351.0 239827.0 216947.0 208931.0 26241.0 24631.0 155315.0 163274.0 148090.0 145873.0 279100.0 280959.0 136968.0 134172.0 281018.0 286952.0 244634.0 249283.0 53969.0 51924.0 246068.0 238368.0 264060.0 256144.0 169726.0 177458.0 101650.0 93637.0 238216.0 233358.0 48826.0 51548.0 69044.0 60777.0 88771.0 91644.0 201682.0 208554.0 228606.0 223019.0 42682.0 41635.0 116115.0 123228.0 209276.0 204605.0 141828.0 133685.0 219294.0 63526.0 219294.0 219294.0 63526.0 63526.0
210660.0 212101.0 181853.0 189737.0 157737.0 154311.0 267324.0 271216.0 198334.0 190699.0 277842.0 282535.0 83393.0 91393.0 212414.0 217792.0 248935.0 240967.0 8300.0 0.0 263402.0 258782.0 226026.0 219179.0 259709.0 255016.0 161315.0 168223.0 237714.0 235064.0 55972.0 54561.0 249163.0 242229.0 182434.0 175993.0 92462.0 87365.0 134898.0 128131.0 132693.0 140395.0 65521.0 59655.0 24084.0 31437.0 180658.0 182419.0 101886.0 101843.0 252939.0 249492.0 145126.0 137158.0 280730.0 275532.0 254404.0 248083.0 242258.0 238608.0 227847.0 235530.0 246799.0 254937.0 236958.0 242412.0 171470.0 174202.0 97502.0 103529.0 144243.0 151579.0 255840.0 255592.0 222868.0 224082.0 218129.0 212325.0 72404.0 75076.0 167584.0 162809.0 292162.0 286908.0 225754.0 230947.0 59505.0 63021.0 37007.0 31176.0 194555.0 197750.0 191421.0 197157.0 205286.0 209529.0 191921.0 184004.0 144208.0 142983.0 290670.0 298441.0 74735.0 81865.0 226804.0 222305.0 161915.0 154613.0 81500.0 73522.0 260979.0 263856.0 249277.0 241650.0 216747.0 208776.0 31698.0 28060.0 154852.0 162835.0 147336.0 145552.0 280512.0 282136.0 136391.0 134094.0 275346.0 281399.0 246834.0 251483.0 49217.0 46193.0 247337.0 239739.0 265679.0 257816.0 169899.0 177525.0 100780.0 92635.0 240415.0 235558.0 43700.0 47485.0 73199.0 64927.0 88986.0 91494.0 202156.0 209203.0 229778.0 223974.0 35143.0 33554.0 112860.0 120196.0 208558.0 204149.0 139545.0 131278.0 221494.0 67000.0 221494.0 221494.0 67000.0 67000.0
147366.0 139446.0 103083.0 96768.0 120721.0 128044.0 38573.0 46404.0 70622.0 76449.0 132656.0 128099.0 203975.0 196948.0 79788.0 71450.0 202290.0 200722.0 262508.0 263402.0 0.0 8322.0 57367.0 64886.0 107819.0 100089.0 127297.0 119843.0 73610.0 81202.0 210852.0 215768.0 15243.0 23447.0 98023.0 105716.0 171191.0 176043.0 128672.0 135304.0 152476.0 148443.0 326272.0 321747.0 260650.0 261746.0 85432.0 86879.0 358510.0 356570.0 97359.0 104496.0 122672.0 130113.0 17342.0 13869.0 29490.0 36187.0 132606.0 125210.0 56137.0 51019.0 63920.0 64001.0 56489.0 49012.0 100560.0 102476.0 350298.0 357151.0 144989.0 136801.0 44359.0 36518.0 199767.0 192438.0 62932.0 63128.0 331585.0 331771.0 115737.0 123837.0 62862.0 65601.0 100463.0 93329.0 221145.0 225001.0 253754.0 259610.0 77971.0 71534.0 94123.0 86133.0 62750.0 56243.0 75091.0 82177.0 137667.0 144100.0 43887.0 50258.0 334199.0 342055.0 43578.0 51467.0 125784.0 133815.0 183552.0 190967.0 153327.0 146526.0 35402.0 36164.0 55853.0 61711.0 283145.0 285618.0 112837.0 105312.0 121732.0 120722.0 23998.0 20805.0 130703.0 130725.0 226022.0 224090.0 68903.0 61955.0 309022.0 303203.0 19971.0 27970.0 23386.0 25370.0 94961.0 88156.0 364054.0 355962.0 57865.0 64844.0 303020.0 308924.0 325182.0 317014.0 174592.0 172557.0 62156.0 54532.0 34771.0 39504.0 284782.0 277623.0 172460.0 165071.0 70662.0 69683.0 142879.0 150296.0 96105.0 202888.0 96105.0 96105.0 202888.0 202888.0
139052.0 131131.0 95627.0 89136.0 113897.0 121087.0 32230.0 40303.0 64061.0 70307.0 125259.0 120919.0 197771.0 190617.0 71678.0 63316.0 194042.0 192436.0 258109.0 258782.0 8322.0 0.0 49227.0 56843.0 100077.0 92243.0 120025.0 112487.0 77671.0 84998.0 205697.0 210416.0 9712.0 16888.0 90743.0 98477.0 166848.0 171436.0 123894.0 130664.0 145701.0 141454.0 322081.0 317411.0 255413.0 256326.0 79617.0 80487.0 354622.0 352721.0 89463.0 96495.0 116850.0 124421.0 22878.0 16755.0 21493.0 27920.0 124435.0 117004.0 58344.0 54123.0 55827.0 56248.0 60108.0 53097.0 94003.0 95528.0 346449.0 353302.0 137937.0 129673.0 50205.0 42278.0 191445.0 184116.0 64129.0 63278.0 327534.0 327887.0 108555.0 116604.0 58587.0 60462.0 92146.0 85032.0 215400.0 219063.0 249830.0 255687.0 71035.0 64933.0 86496.0 78492.0 56240.0 50226.0 68963.0 76311.0 130863.0 137128.0 52209.0 58542.0 330135.0 337953.0 43753.0 51995.0 118530.0 126642.0 179507.0 186784.0 145372.0 138660.0 40038.0 39195.0 48486.0 54754.0 279170.0 281435.0 106950.0 99290.0 115738.0 115126.0 32241.0 28383.0 125041.0 125481.0 217903.0 216042.0 73830.0 67344.0 303947.0 298009.0 21723.0 28631.0 30795.0 31382.0 89546.0 82464.0 359523.0 351403.0 61981.0 68560.0 297943.0 303966.0 321333.0 313166.0 169837.0 167632.0 56800.0 49580.0 32765.0 35905.0 279470.0 272244.0 165933.0 158453.0 62997.0 62458.0 136113.0 143668.0 97414.0 198964.0 97414.0 97414.0 198964.0 198964.0
91044.0 83255.0 49524.0 42090.0 71309.0 77359.0 42128.0 45225.0 30329.0 38448.0 93910.0 92337.0 156885.0 149123.0 22465.0 14089.0 149052.0 146575.0 226634.0 226026.0 57367.0 49227.0 0.0 8087.0 66326.0 57798.0 74387.0 66527.0 104598.0 109788.0 170722.0 174199.0 43899.0 36255.0 46116.0 53745.0 137900.0 140681.0 94520.0 101715.0 102445.0 97035.0 291050.0 285613.0 219204.0 219084.0 48235.0 44182.0 325621.0 323969.0 54524.0 58946.0 80930.0 88896.0 70384.0 62594.0 32976.0 25063.0 82094.0 74153.0 80421.0 80991.0 25702.0 33062.0 87814.0 84068.0 54620.0 53062.0 317703.0 324556.0 93219.0 84674.0 88258.0 81254.0 143891.0 136820.0 80163.0 74456.0 297244.0 298528.0 63801.0 71287.0 66405.0 61935.0 46390.0 40928.0 176851.0 179381.0 222533.0 227837.0 31667.0 30499.0 39571.0 31833.0 26525.0 29032.0 37620.0 45250.0 87802.0 92894.0 100812.0 107517.0 299747.0 307280.0 62171.0 68588.0 73040.0 81452.0 151910.0 158104.0 105957.0 100726.0 75857.0 70039.0 14443.0 21121.0 249839.0 250884.0 71339.0 63412.0 78704.0 80884.0 81356.0 77448.0 89677.0 92891.0 174946.0 174109.0 105164.0 101434.0 268161.0 261618.0 57224.0 56937.0 76261.0 73115.0 59463.0 51500.0 326312.0 318092.0 91436.0 95213.0 262196.0 268820.0 292587.0 284419.0 138228.0 135051.0 37055.0 37247.0 48959.0 42441.0 242591.0 235070.0 123720.0 115855.0 17654.0 22308.0 93143.0 101338.0 111434.0 172222.0 111434.0 111434.0 172222.0 172222.0
84728.0 77056.0 41524.0 34027.0 63652.0 69524.0 49836.0 52439.0 26406.0 34177.0 93191.0 92319.0 149187.0 141372.0 15036.0 7169.0 143844.0 141052.0 219951.0 219179.0 64886.0 56843.0 8087.0 0.0 65678.0 57284.0 66369.0 58497.0 108166.0 112933.0 163701.0 167012.0 50989.0 43068.0 38342.0 45894.0 131874.0 134365.0 88819.0 95995.0 94594.0 89082.0 284333.0 278806.0 211943.0 211704.0 43392.0 38330.0 319126.0 317593.0 54013.0 57409.0 74264.0 82209.0 78293.0 70555.0 41062.0 33147.0 78330.0 70329.0 83872.0 85112.0 29516.0 37479.0 91862.0 88679.0 47723.0 45589.0 311321.0 318174.0 85246.0 76692.0 93772.0 87029.0 137655.0 130722.0 82718.0 76485.0 290614.0 292015.0 55897.0 63302.0 72989.0 68026.0 41919.0 37567.0 169379.0 171780.0 216497.0 221653.0 25727.0 26318.0 31524.0 23863.0 24666.0 29297.0 33572.0 40667.0 80010.0 84965.0 108036.0 114871.0 293102.0 300591.0 65928.0 71725.0 65037.0 73459.0 146010.0 152011.0 102847.0 98121.0 81341.0 75074.0 15306.0 19198.0 243398.0 244282.0 64866.0 57036.0 71872.0 74513.0 88826.0 85161.0 83009.0 86655.0 170335.0 169815.0 109395.0 106143.0 260896.0 254291.0 63368.0 62307.0 83015.0 79420.0 54410.0 46587.0 319298.0 311072.0 95650.0 98929.0 254941.0 261628.0 286205.0 278038.0 131797.0 128493.0 36220.0 38178.0 53444.0 46257.0 235227.0 227680.0 115936.0 108045.0 10743.0 17211.0 85346.0 93591.0 112936.0 166420.0 112936.0 112936.0 166420.0 166420.0
64274.0 57928.0 82516.0 75969.0 105187.0 106635.0 71391.0 65513.0 90617.0 97305.0 27594.0 27054.0 179921.0 171488.0 59633.0 60697.0 100349.0 100918.0 262214.0 259709.0 107819.0 100077.0 66326.0 65678.0 0.0 8540.0 98805.0 92561.0 169321.0 175073.0 204109.0 205207.0 100071.0 95147.0 84949.0 88751.0 182408.0 182716.0 143464.0 150120.0 127025.0 119379.0 324986.0 318556.0 247436.0 245393.0 104587.0 97164.0 361582.0 361205.0 11804.0 10427.0 124268.0 131218.0 112547.0 104866.0 78635.0 73432.0 32474.0 28944.0 145570.0 145074.0 45435.0 43832.0 151913.0 147035.0 99953.0 93577.0 355759.0 362408.0 115490.0 108189.0 148345.0 140620.0 105988.0 98117.0 146169.0 140718.0 332090.0 334657.0 94680.0 97802.0 66979.0 58904.0 34757.0 32111.0 203250.0 203206.0 264519.0 268413.0 86403.0 90228.0 75455.0 73746.0 90265.0 94739.0 97095.0 102686.0 116077.0 116729.0 149628.0 154407.0 334382.0 341301.0 127194.0 134216.0 98401.0 105230.0 196844.0 201311.0 46408.0 38994.0 136561.0 132355.0 80194.0 84851.0 287512.0 286823.0 117246.0 110967.0 120894.0 126498.0 129183.0 122370.0 132086.0 138421.0 120296.0 117481.0 168610.0 163747.0 295058.0 287645.0 116577.0 118938.0 130869.0 130548.0 114101.0 107326.0 355918.0 347740.0 155142.0 159796.0 289382.0 296837.0 330633.0 322483.0 179372.0 175184.0 101896.0 103361.0 113264.0 107839.0 268473.0 260722.0 147454.0 139799.0 73056.0 81000.0 120421.0 128531.0 177758.0 217268.0 177758.0 177758.0 217268.0 217268.0
65032.0 58077.0 76152.0 69288.0 99317.0 101255.0 64349.0 58936.0 82458.0 89286.0 36112.0 35126.0 176114.0 167697.0 51850.0 52477.0 105878.0 105925.0 257304.0 255016.0 100089.0 92243.0 57798.0 57284.0 8540.0 0.0 93759.0 87179.0 160847.0 166568.0 199242.0 200620.0 91934.0 86847.0 78161.0 82397.0 176205.0 176780.0 136597.0 143346.0 122500.0 114984.0 320413.0 314091.0 243351.0 241532.0 96798.0 89542.0 356821.0 356289.0 3281.0 7406.0 117772.0 124892.0 105475.0 97684.0 70760.0 65308.0 36330.0 31137.0 137065.0 136626.0 37153.0 36129.0 143468.0 138654.0 92958.0 86862.0 350650.0 357385.0 111035.0 103454.0 140155.0 132462.0 109749.0 101898.0 137631.0 132179.0 327419.0 329835.0 88870.0 92510.0 62715.0 54590.0 29270.0 25187.0 199192.0 199452.0 258865.0 262932.0 78522.0 82098.0 68588.0 66366.0 81911.0 86274.0 89034.0 94804.0 110977.0 112122.0 142311.0 147279.0 329741.0 336746.0 118688.0 125689.0 93245.0 100403.0 190655.0 195329.0 53423.0 46438.0 128306.0 123994.0 71708.0 76475.0 282415.0 281931.0 110437.0 103940.0 114468.0 119811.0 121821.0 115182.0 125759.0 131847.0 126982.0 124486.0 160216.0 155425.0 291276.0 283950.0 108350.0 110571.0 123007.0 122490.0 106520.0 99598.0 351927.0 343730.0 146722.0 151327.0 285550.0 292922.0 325527.0 317366.0 173515.0 169413.0 93502.0 94867.0 104779.0 99312.0 264741.0 256993.0 143281.0 135515.0 64907.0 72833.0 115499.0 123738.0 169228.0 211139.0 169228.0 169228.0 211139.0 211139.0
64030.0 61182.0 24872.0 32440.0 13809.0 9113.0 115916.0 117544.0 58081.0 54952.0 119325.0 122996.0 84738.0 76558.0 55060.0 62337.0 123656.0 117686.0 163546.0 161315.0 127297.0 120025.0 74387.0 66369.0 98805.0 93759.0 0.0 7905.0 145088.0 146617.0 105488.0 107053.0 112185.0 103890.0 29283.0 21588.0 86374.0 85395.0 55995.0 60638.0 29618.0 23061.0 226771.0 220551.0 150555.0 149317.0 50408.0 44278.0 263076.0 262534.0 91633.0 88468.0 35170.0 38881.0 142616.0 135336.0 107130.0 99369.0 86414.0 81002.0 123346.0 128185.0 89231.0 97020.0 133634.0 134053.0 31416.0 26028.0 256973.0 263660.0 19087.0 10548.0 143751.0 139022.0 106137.0 101877.0 117227.0 109243.0 233713.0 236079.0 11801.0 3638.0 135891.0 129546.0 64489.0 69687.0 106687.0 107927.0 166082.0 169744.0 49731.0 57061.0 34867.0 42569.0 65720.0 73412.0 56199.0 52360.0 17275.0 19296.0 167353.0 174854.0 236050.0 243113.0 110241.0 111676.0 1610.0 7250.0 100483.0 103982.0 109576.0 109921.0 132283.0 124369.0 71538.0 65743.0 188726.0 188173.0 35046.0 35615.0 31650.0 39549.0 150195.0 148101.0 39635.0 47914.0 153677.0 156356.0 150338.0 150323.0 199066.0 192013.0 119393.0 114910.0 140591.0 134846.0 49038.0 49762.0 259091.0 250867.0 137939.0 137849.0 193228.0 200371.0 231858.0 223693.0 81787.0 77343.0 71308.0 79244.0 103655.0 95452.0 172781.0 165084.0 51169.0 43174.0 57678.0 57615.0 21773.0 30134.0 137159.0 120399.0 137159.0 137159.0 120399.0 120399.0
62607.0 58856.0 17052.0 24540.0 14367.0 14083.0 108013.0 109647.0 51250.0 48763.0 113991.0 117309.0 92442.0 84305.0 47184.0 54432.0 123713.0 118108.0 170260.0 168223.0 119843.0 112487.0 66527.0 58497.0 92561.0 87179.0 7905.0 0.0 140063.0 141932.0 112301.0 114136.0 104781.0 96475.0 21878.0 14426.0 90999.0 90579.0 57574.0 62889.0 37272.0 30926.0 233723.0 227585.0 157920.0 156812.0 45245.0 38407.0 269871.0 269206.0 84936.0 82166.0 36494.0 41544.0 135010.0 127676.0 99314.0 91530.0 82147.0 76282.0 117855.0 122412.0 81434.0 89260.0 128035.0 128123.0 26609.0 20020.0 263481.0 270242.0 26973.0 18410.0 137465.0 132525.0 107599.0 102857.0 112124.0 104180.0 240588.0 242835.0 6326.0 5435.0 128079.0 121788.0 57973.0 62749.0 114171.0 115575.0 171980.0 175858.0 42668.0 50216.0 26981.0 34731.0 58746.0 66564.0 49954.0 46857.0 24044.0 27064.0 160278.0 167728.0 242946.0 250069.0 104155.0 105990.0 6723.0 15120.0 105285.0 109207.0 106027.0 105831.0 125837.0 118007.0 64016.0 58466.0 195255.0 194891.0 34155.0 32939.0 32837.0 40378.0 142886.0 140638.0 42363.0 50183.0 153590.0 155875.0 144958.0 144627.0 206528.0 199525.0 112432.0 108191.0 133602.0 128021.0 45429.0 45020.0 266390.0 258162.0 132329.0 132562.0 200672.0 207764.0 238366.0 230197.0 87100.0 82794.0 65002.0 72791.0 97010.0 88770.0 180302.0 172617.0 58864.0 50865.0 49934.0 50189.0 28953.0 37419.0 133236.0 125451.0 133236.0 133236.0 125451.0 125451.0
189539.0 182480.0 127804.0 125520.0 133093.0 141067.0 109301.0 117454.0 93287.0 92541.0 196426.0 193471.0 198626.0 193780.0 121040.0 115052.0 250925.0 247450.0 235515.0 237714.0 73610.0 77671.0 104598.0 108166.0 169321.0 160847.0 145088.0 140063.0 0.0 7995.0 192467.0 199278.0 72853.0 75370.0 121168.0 126675.0 147536.0 154622.0 115629.0 119599.0 159618.0 159142.0 298264.0 294102.0 240577.0 243592.0 94831.0 101939.0 330391.0 328451.0 157670.0 163041.0 122268.0 126829.0 83978.0 85778.0 95298.0 97822.0 186435.0 178445.0 24300.0 24466.0 124204.0 127786.0 17818.0 24629.0 113718.0 120110.0 322179.0 329032.0 157049.0 151065.0 32612.0 38864.0 241660.0 235405.0 27956.0 35883.0 303406.0 303615.0 134015.0 141542.0 136157.0 138081.0 150081.0 145385.0 208913.0 214895.0 225557.0 231413.0 102072.0 94257.0 123340.0 117317.0 88331.0 80874.0 91591.0 93274.0 147117.0 155087.0 67073.0 73172.0 306028.0 313913.0 42429.0 36608.0 143507.0 149145.0 156255.0 164355.0 210553.0 205243.0 38250.0 38749.0 92975.0 92111.0 254949.0 257664.0 115228.0 111025.0 123525.0 118140.0 70345.0 77313.0 126975.0 122296.0 278191.0 277901.0 10047.0 17479.0 286003.0 281416.0 56298.0 51447.0 55234.0 49326.0 97024.0 95326.0 336985.0 329050.0 15748.0 9548.0 280150.0 284922.0 297062.0 288895.0 154874.0 154871.0 77938.0 72083.0 56080.0 62164.0 264666.0 258437.0 174037.0 168634.0 106261.0 99940.0 151086.0 155667.0 36893.0 174691.0 36893.0 36893.0 174691.0 174691.0
193110.0 186197.0 130367.0 128536.0 134255.0 142153.0 116384.0 124532.0 96623.0 95244.0 202318.0 199568.0 197005.0 192441.0 125348.0 119695.0 254870.0 251195.0 232864.0 235064.0 81202.0 84998.0 109788.0 112933.0 175073.0 166568.0 146617.0 141932.0 7995.0 0.0 189826.0 196684.0 79801.0 81873.0 123714.0 128876.0 144895.0 151979.0 114275.0 117834.0 159784.0 159702.0 295613.0 291451.0 237927.0 240959.0 96728.0 104184.0 327740.0 325800.0 163364.0 168516.0 122243.0 126376.0 91881.0 93542.0 102101.0 104281.0 191261.0 183260.0 29503.0 31170.0 130183.0 134054.0 24893.0 32199.0 115407.0 122112.0 319528.0 326381.0 157785.0 152125.0 40607.0 46807.0 244893.0 238786.0 30848.0 38321.0 300755.0 300964.0 135790.0 143121.0 143559.0 145302.0 154767.0 150359.0 206530.0 212656.0 222906.0 228762.0 105235.0 97560.0 126448.0 120751.0 92154.0 84967.0 94375.0 95418.0 147717.0 155735.0 74765.0 80696.0 303378.0 311262.0 47880.0 41240.0 145055.0 150348.0 153604.0 161704.0 215632.0 210514.0 45942.0 45873.0 97654.0 96226.0 252298.0 255013.0 115692.0 111976.0 123722.0 117962.0 78341.0 85293.0 126467.0 121341.0 282454.0 282358.0 17005.0 25009.0 283353.0 278765.0 63462.0 58165.0 63189.0 57165.0 98015.0 96958.0 334334.0 326399.0 23411.0 16438.0 277499.0 282271.0 294411.0 286244.0 152289.0 152402.0 81327.0 76025.0 61878.0 67413.0 262015.0 255786.0 173414.0 168292.0 110390.0 103764.0 151489.0 155692.0 31861.0 172040.0 31861.0 31861.0 172040.0 172040.0
157629.0 158346.0 125904.0 133804.0 101793.0 98359.0 212347.0 215947.0 143797.0 136413.0 222995.0 227406.0 36140.0 41956.0 156547.0 162077.0 201516.0 193757.0 58108.0 55972.0 210852.0 205697.0 170722.0 163701.0 204109.0 199242.0 105488.0 112301.0 192467.0 189826.0 0.0 8049.0 196215.0 188932.0 126607.0 120073.0 45165.0 37848.0 82518.0 76377.0 77306.0 85119.0 121493.0 115534.0 49849.0 51665.0 126545.0 127594.0 157592.0 157097.0 197116.0 193838.0 90120.0 82199.0 228072.0 222431.0 199919.0 193334.0 187900.0 183837.0 180409.0 187823.0 191004.0 199127.0 190186.0 194762.0 116101.0 118472.0 151827.0 158349.0 88864.0 95921.0 207853.0 206645.0 176440.0 176455.0 170972.0 164385.0 128290.0 130593.0 111612.0 106897.0 236615.0 231214.0 169972.0 175045.0 22372.0 30444.0 65785.0 67343.0 139474.0 143151.0 135518.0 141379.0 151011.0 155804.0 137681.0 129897.0 88318.0 87450.0 241131.0 248987.0 130657.0 137837.0 176875.0 173342.0 106045.0 98892.0 41056.0 34066.0 207776.0 210089.0 200051.0 192120.0 162046.0 154178.0 83673.0 82715.0 99995.0 107971.0 92079.0 91022.0 229342.0 230266.0 81477.0 80218.0 229574.0 234909.0 201439.0 205581.0 98267.0 92352.0 195931.0 188700.0 215255.0 207626.0 116188.0 123520.0 155600.0 147376.0 193918.0 189769.0 92263.0 98465.0 126830.0 118613.0 37806.0 38742.0 148900.0 156329.0 178207.0 171816.0 74095.0 67183.0 58657.0 65432.0 153157.0 149092.0 83746.0 75578.0 176257.0 42206.0 176257.0 176257.0 42206.0 42206.0
156782.0 157902.0 128375.0 136337.0 104357.0 100378.0 216038.0 219392.0 147926.0 140716.0 223325.0 227978.0 31902.0 38783.0 159254.0 165075.0 198652.0 190820.0 57807.0 54561.0 215768.0 210416.0 174199.0 167012.0 205207.0 200620.0 107053.0 114136.0 199278.0 196684.0 8049.0 0.0 201006.0 193594.0 129471.0 122693.0 52424.0 44864.0 87993.0 82130.0 78183.0 85853.0 119799.0 113502.0 45140.0 46017.0 130981.0 131579.0 156439.0 156348.0 198595.0 195016.0 94137.0 86309.0 232922.0 227118.0 203959.0 197216.0 187859.0 184099.0 186705.0 194051.0 193823.0 201908.0 196581.0 200987.0 119655.0 121545.0 151608.0 157880.0 89719.0 97168.0 213987.0 212580.0 173250.0 173600.0 177344.0 170627.0 126889.0 129627.0 113882.0 108705.0 239751.0 234161.0 171379.0 176739.0 14598.0 22661.0 68955.0 69619.0 143221.0 147241.0 138162.0 144309.0 155278.0 160346.0 142008.0 134324.0 90093.0 88513.0 246876.0 254740.0 129175.0 136128.0 182645.0 179346.0 107720.0 100245.0 49018.0 42107.0 207065.0 209687.0 205937.0 197952.0 166022.0 158240.0 83884.0 82120.0 104074.0 112004.0 95857.0 95386.0 234678.0 235386.0 85629.0 85052.0 226317.0 231845.0 208149.0 212133.0 94037.0 87741.0 201255.0 194147.0 220820.0 213265.0 120878.0 128027.0 152565.0 144331.0 200365.0 196371.0 88054.0 94622.0 126851.0 118584.0 44405.0 44768.0 153676.0 161242.0 183519.0 176951.0 69056.0 61855.0 58370.0 65639.0 156573.0 152835.0 85289.0 76936.0 183114.0 49871.0 183114.0 183114.0 49871.0 49871.0
134791.0 126944.0 88106.0 81968.0 105483.0 112825.0 36668.0 44792.0 55380.0 61281.0 126134.0 122346.0 188816.0 181755.0 66016.0 57825.0 191373.0 189388.0 248452.0 249163.0 15243.0 9712.0 43899.0 50989.0 100071.0 91934.0 112185.0 104781.0 72853.0 79801.0 196215.0 201006.0 0.0 8311.0 82931.0 90597.0 157177.0 161807.0 114292.0 121035.0 137235.0 133227.0 312399.0 307747.0 245964.0 246947.0 70389.0 71658.0 344912.0 343013.0 88983.0 95539.0 107643.0 115147.0 31951.0 26387.0 22592.0 26639.0 122472.0 114829.0 51870.0 48634.0 54856.0 56682.0 55050.0 48742.0 85322.0 87260.0 336741.0 343594.0 129788.0 121626.0 48315.0 40552.0 187516.0 180335.0 56691.0 55079.0 317839.0 318181.0 100588.0 108707.0 64939.0 65821.0 88784.0 82135.0 206168.0 209938.0 240124.0 245980.0 62762.0 56291.0 79322.0 71362.0 47510.0 41095.0 59926.0 67110.0 122427.0 128881.0 57056.0 63989.0 320441.0 328262.0 35870.0 44211.0 110663.0 118656.0 169806.0 177095.0 144407.0 138058.0 36852.0 34136.0 40899.0 46520.0 269469.0 271751.0 97776.0 90196.0 106632.0 105802.0 38285.0 35992.0 115752.0 116015.0 216053.0 214544.0 70138.0 64386.0 294447.0 288547.0 16906.0 21829.0 32589.0 30688.0 80131.0 73172.0 349891.0 341776.0 57462.0 63468.0 288443.0 294430.0 311625.0 303458.0 160239.0 158075.0 47332.0 39973.0 23734.0 26252.0 270050.0 262850.0 157230.0 149832.0 55965.0 54594.0 127637.0 135056.0 89809.0 189257.0 89809.0 89809.0 189257.0 189257.0
127294.0 119490.0 79795.0 73675.0 97303.0 104601.0 36621.0 44431.0 47290.0 53425.0 121726.0 118369.0 180915.0 173792.0 58104.0 50010.0 184577.0 182400.0 241676.0 242229.0 23447.0 16888.0 36255.0 43068.0 95147.0 86847.0 103890.0 96475.0 75370.0 81873.0 188932.0 193594.0 8311.0 0.0 74630.0 82303.0 150500.0 154927.0 107335.0 114174.0 129077.0 124998.0 305754.0 300998.0 238616.0 239483.0 62739.0 63659.0 338563.0 336634.0 83797.0 89990.0 99965.0 107548.0 39712.0 33525.0 20944.0 22454.0 116183.0 108437.0 52973.0 50905.0 49713.0 52549.0 57609.0 52092.0 77244.0 79032.0 330362.0 337215.0 121542.0 113359.0 53560.0 46082.0 180115.0 173004.0 56444.0 53685.0 311295.0 311760.0 92306.0 100418.0 65921.0 65777.0 81825.0 75463.0 198516.0 202177.0 233752.0 239580.0 54526.0 48182.0 71030.0 63078.0 39439.0 33341.0 52079.0 59430.0 114257.0 120656.0 65128.0 72160.0 313887.0 321678.0 35541.0 43742.0 102370.0 110379.0 163347.0 170522.0 138675.0 132578.0 41508.0 37338.0 32592.0 38263.0 262998.0 265124.0 90063.0 82403.0 98851.0 98270.0 46574.0 44242.0 108172.0 108716.0 209685.0 208380.0 73694.0 68604.0 287195.0 281219.0 21742.0 24033.0 40015.0 37114.0 72750.0 65604.0 342996.0 334862.0 60482.0 65845.0 281191.0 287255.0 305245.0 297078.0 153252.0 150968.0 40095.0 33181.0 21804.0 21648.0 262650.0 255410.0 149175.0 141738.0 47707.0 46290.0 119482.0 126956.0 88942.0 182886.0 88942.0 88942.0 182886.0 182886.0
72108.0 66378.0 6654.0 9070.0 25388.0 31259.0 88171.0 90606.0 29792.0 28652.0 109553.0 111416.0 110848.0 103032.0 30016.0 35644.0 134772.0 130070.0 183687.0 182434.0 98023.0 90743.0 46116.0 38342.0 84949.0 78161.0 29283.0 21878.0 121168.0 123714.0 126607.0 129471.0 82931.0 74630.0 0.0 7778.0 98609.0 99887.0 58515.0 65197.0 56349.0 51194.0 247850.0 242080.0 174174.0 173707.0 28204.0 19890.0 283243.0 282076.0 75405.0 74669.0 39850.0 47313.0 113359.0 106129.0 78375.0 70774.0 82567.0 75433.0 98186.0 102210.0 64400.0 72520.0 108113.0 107630.0 15340.0 8753.0 275913.0 282753.0 47496.0 39072.0 116410.0 111203.0 121905.0 116270.0 93263.0 85480.0 254373.0 256122.0 17932.0 25871.0 110354.0 104691.0 50883.0 52996.0 131257.0 133497.0 182407.0 187017.0 20970.0 28749.0 9609.0 14858.0 37059.0 44987.0 29667.0 28676.0 41687.0 46969.0 138442.0 145873.0 256812.0 264166.0 83506.0 86032.0 27787.0 35967.0 113043.0 118193.0 107904.0 105992.0 104591.0 96890.0 42258.0 36590.0 207829.0 208203.0 32300.0 26285.0 36734.0 41660.0 121011.0 118825.0 48172.0 53763.0 163934.0 165252.0 125360.0 124471.0 223087.0 216367.0 90674.0 86654.0 111816.0 106360.0 33122.0 29285.0 282003.0 273770.0 112370.0 113198.0 217154.0 223968.0 250796.0 242629.0 96905.0 93153.0 44279.0 51732.0 75577.0 67316.0 197246.0 189658.0 77610.0 69739.0 28814.0 28342.0 47028.0 55249.0 116844.0 133594.0 116844.0 116844.0 133594.0 133594.0
69772.0 64686.0 6245.0 13770.0 18337.0 23631.0 95726.0 97979.0 36829.0 34663.0 112397.0 114762.0 103398.0 95518.0 36566.0 42796.0 132179.0 127123.0 177451.0 175993.0 105716.0 98477.0 53745.0 45894.0 88751.0 82397.0 21588.0 14426.0 126675.0 128876.0 120073.0 122693.0 90597.0 82303.0 7778.0 0.0 93813.0 94605.0 55458.0 61781.0 48705.0 43434.0 241473.0 235604.0 167226.0 166613.0 32309.0 24737.0 277082.0 276051.0 79796.0 78361.0 35552.0 42500.0 121115.0 113900.0 86119.0 78490.0 83565.0 76815.0 104091.0 108426.0 71167.0 79227.0 114170.0 114024.0 15440.0 7401.0 269975.0 276828.0 39722.0 31295.0 123169.0 118152.0 118036.0 112731.0 98720.0 90839.0 248089.0 249972.0 10156.0 18128.0 117412.0 111571.0 54158.0 57250.0 124087.0 126159.0 176998.0 181405.0 28256.0 35795.0 15469.0 22139.0 44324.0 52139.0 35804.0 33460.0 34141.0 39224.0 145889.0 153358.0 250507.0 257804.0 89984.0 92090.0 20068.0 28197.0 108265.0 113073.0 108545.0 107228.0 111483.0 103687.0 50000.0 44166.0 201843.0 202018.0 29463.0 25050.0 32145.0 38101.0 128618.0 126520.0 43368.0 49757.0 161671.0 163354.0 131247.0 130672.0 216094.0 209306.0 98014.0 93774.0 119190.0 113595.0 34839.0 32677.0 275258.0 267023.0 118451.0 118949.0 210177.0 217059.0 244858.0 236634.0 91471.0 87548.0 50762.0 58464.0 82607.0 74362.0 190153.0 182541.0 70059.0 62154.0 36551.0 36038.0 39467.0 47769.0 121091.0 128765.0 121091.0 121091.0 128765.0 128765.0
148205.0 146632.0 100056.0 107153.0 77436.0 77491.0 177769.0 182431.0 108618.0 100639.0 204914.0 207944.0 62399.0 61999.0 127969.0 131844.0 202012.0 194925.0 91318.0 92462.0 171191.0 166848.0 137900.0 131874.0 182408.0 176205.0 86374.0 90999.0 147536.0 144895.0 45165.0 52424.0 157177.0 150500.0 98609.0 93813.0 0.0 8000.0 43716.0 36602.0 66473.0 73564.0 155254.0 150577.0 93172.0 96065.0 90490.0 93725.0 188473.0 186570.0 173608.0 171989.0 58783.0 51361.0 188532.0 183563.0 163971.0 158187.0 172779.0 167202.0 136469.0 144028.0 160889.0 169027.0 145992.0 150957.0 85079.0 89866.0 180298.0 187151.0 75984.0 79765.0 164241.0 163574.0 179700.0 177731.0 126882.0 120644.0 160844.0 161520.0 87949.0 86268.0 204234.0 199783.0 147675.0 151063.0 63979.0 71136.0 84639.0 90016.0 106297.0 108174.0 108191.0 112272.0 114982.0 118414.0 101758.0 93759.0 70263.0 73616.0 198496.0 206302.0 163425.0 171192.0 134453.0 130218.0 86251.0 81746.0 14452.0 20253.0 195754.0 196291.0 157150.0 149418.0 127091.0 119017.0 112702.0 114626.0 67330.0 74940.0 61892.0 57607.0 188051.0 189721.0 50495.0 45338.0 231704.0 235760.0 156639.0 161042.0 139615.0 134584.0 154887.0 147277.0 173276.0 165447.0 79332.0 87243.0 192902.0 184836.0 149603.0 145159.0 133677.0 138937.0 155182.0 147014.0 10588.0 14329.0 110632.0 117336.0 137358.0 131703.0 117369.0 110986.0 59318.0 61330.0 121137.0 115603.0 67811.0 62381.0 131325.0 34986.0 131325.0 131325.0 34986.0 34986.0
145917.0 144759.0 100814.0 108173.0 77530.0 76753.0 181142.0 185530.0 111922.0 104075.0 204542.0 207863.0 54637.0 54598.0 129610.0 133922.0 198286.0 191069.0 86812.0 87365.0 176043.0 171436.0 140681.0 134365.0 182716.0 176780.0 85395.0 90579.0 154622.0 151979.0 37848.0 44864.0 161807.0 154927.0 99887.0 94605.0 8000.0 0.0 47612.0 40772.0 63333.0 70756.0 151100.0 146140.0 86621.0 89183.0 93948.0 96551.0 185021.0 183289.0 174277.0 172289.0 60409.0 52652.0 193368.0 188182.0 167692.0 161669.0 171699.0 166397.0 142929.0 150421.0 163058.0 171219.0 152590.0 157358.0 87018.0 91210.0 177025.0 183878.0 73495.0 78030.0 170558.0 169652.0 175461.0 173790.0 133415.0 126994.0 156959.0 157964.0 88037.0 85626.0 207086.0 202386.0 147961.0 151741.0 56086.0 63179.0 82530.0 87349.0 109014.0 111416.0 109386.0 113945.0 118569.0 122428.0 105246.0 97264.0 68731.0 71265.0 204418.0 212247.0 159506.0 167178.0 140237.0 136291.0 85421.0 80259.0 16043.0 18629.0 194171.0 195046.0 163152.0 155331.0 130416.0 122367.0 109203.0 110605.0 69511.0 77336.0 63244.0 59852.0 193469.0 194885.0 51806.0 47794.0 227808.0 232075.0 163618.0 167844.0 133717.0 128441.0 160182.0 152698.0 178929.0 171169.0 82960.0 90747.0 188087.0 179969.0 156269.0 152002.0 127748.0 133255.0 151909.0 143742.0 4016.0 8801.0 114893.0 121857.0 142558.0 136636.0 110896.0 104336.0 53959.0 56800.0 123625.0 118462.0 65753.0 59585.0 138409.0 35028.0 138409.0 138409.0 35028.0 35028.0
119845.0 116413.0 61508.0 67521.0 43273.0 47201.0 134060.0 138795.0 64955.0 56942.0 167773.0 169878.0 83051.0 78186.0 86363.0 89383.0 179428.0 173243.0 134416.0 134898.0 128672.0 123894.0 94520.0 88819.0 143464.0 136597.0 55995.0 57574.0 115629.0 114275.0 82518.0 87993.0 114292.0 107335.0 58515.0 55458.0 43716.0 47612.0 0.0 7195.0 51677.0 55059.0 198647.0 193746.0 132361.0 133946.0 46797.0 50493.0 232167.0 230279.0 133780.0 133180.0 21083.0 17962.0 145967.0 140647.0 120285.0 114472.0 138567.0 132072.0 100102.0 107135.0 118136.0 126214.0 110330.0 114019.0 43686.0 49935.0 224007.0 230860.0 55161.0 54148.0 126688.0 124857.0 160679.0 157013.0 91176.0 83940.0 204393.0 205189.0 52658.0 54325.0 160716.0 156455.0 109263.0 111472.0 95327.0 100528.0 128155.0 133698.0 63105.0 64538.0 68031.0 70823.0 71267.0 74850.0 58050.0 50053.0 45479.0 52530.0 158922.0 166790.0 206958.0 214676.0 94742.0 91838.0 55182.0 54517.0 57455.0 63964.0 163101.0 162303.0 118147.0 110100.0 83405.0 75329.0 156371.0 158088.0 26233.0 32820.0 24737.0 17487.0 146824.0 147834.0 17433.0 9094.0 209484.0 212307.0 123600.0 126547.0 180439.0 174773.0 113414.0 106198.0 132829.0 125276.0 35617.0 43541.0 235661.0 227529.0 114334.0 111259.0 174442.0 180266.0 198891.0 190723.0 45947.0 43938.0 67283.0 74321.0 95695.0 89417.0 156612.0 149642.0 60221.0 56387.0 78140.0 72217.0 46513.0 46859.0 100929.0 77703.0 100929.0 100929.0 77703.0 77703.0
124664.0 121545.0 67906.0 74151.0 48522.0 51644.0 141209.0 145974.0 72132.0 64106.0 174177.0 176425.0 79175.0 74870.0 93361.0 96498.0 183465.0 177111.0 127508.0 128131.0 135304.0 130664.0 101715.0 95995.0 150120.0 143346.0 60638.0 62889.0 119599.0 117834.0 76377.0 82130.0 121035.0 114174.0 65197.0 61781.0 36602.0 40772.0 7195.0 0.0 52894.0 57166.0 191675.0 186836.0 126157.0 127956.0 53965.0 57675.0 225074.0 223172.0 140560.0 139804.0 26627.0 21785.0 152621.0 147410.0 127369.0 121606.0 144455.0 138099.0 105052.0 112240.0 125291.0 133376.0 115148.0 119156.0 50558.0 56543.0 216900.0 223753.0 57754.0 57730.0 132007.0 130458.0 164054.0 160663.0 95921.0 88899.0 197370.0 198112.0 58309.0 59276.0 167908.0 163650.0 115789.0 118192.0 90104.0 95629.0 120973.0 126545.0 70287.0 71722.0 74758.0 77777.0 78395.0 81853.0 65205.0 57210.0 48615.0 55096.0 164784.0 172644.0 199940.0 207676.0 100535.0 97267.0 59959.0 58454.0 50269.0 56836.0 168779.0 168198.0 123807.0 115825.0 90572.0 82496.0 149294.0 151091.0 32911.0 39792.0 30262.0 23688.0 153098.0 154291.0 21068.0 12746.0 213531.0 216563.0 127858.0 131146.0 174012.0 168457.0 119727.0 112390.0 138884.0 131249.0 42763.0 50704.0 228859.0 220741.0 119072.0 115665.0 168021.0 173744.0 191783.0 183616.0 39322.0 37650.0 74179.0 81086.0 102041.0 95946.0 150441.0 143558.0 58814.0 55874.0 85309.0 79411.0 48905.0 48009.0 104309.0 70508.0 104309.0 104309.0 70508.0 70508.0
82959.0 82463.0 53379.0 61296.0 31813.0 25090.0 144416.0 146482.0 81887.0 76784.0 145758.0 150101.0 55172.0 47070.0 84272.0 91184.0 135629.0 128644.0 135374.0 132693.0 152476.0 145701.0 102445.0 94594.0 127025.0 122500.0 29618.0 37272.0 159618.0 159784.0 77306.0 78183.0 137235.0 129077.0 56349.0 48705.0 66473.0 63333.0 51677.0 52894.0 0.0 7886.0 197974.0 191600.0 121110.0 119742.0 69424.0 65962.0 234575.0 234306.0 120539.0 116836.0 37608.0 34895.0 168542.0 161624.0 134634.0 127100.0 111055.0 106677.0 140140.0 145993.0 118672.0 126524.0 150650.0 152398.0 52086.0 50294.0 229133.0 235638.0 11562.0 19246.0 163427.0 159658.0 113959.0 111560.0 132661.0 124745.0 205066.0 207687.0 38736.0 31946.0 165288.0 159051.0 93302.0 98939.0 77131.0 78317.0 140161.0 143167.0 74692.0 80957.0 63531.0 70779.0 89763.0 96737.0 78139.0 72234.0 14850.0 10431.0 190346.0 198050.0 207357.0 214296.0 129659.0 129496.0 30572.0 22472.0 79302.0 81119.0 132136.0 133756.0 152789.0 144641.0 97681.0 90957.0 160954.0 159937.0 44550.0 49980.0 36096.0 42083.0 174461.0 173187.0 35101.0 42654.0 165425.0 169342.0 166198.0 167462.0 169509.0 162421.0 142298.0 136825.0 163391.0 156958.0 63540.0 67580.0 229697.0 221480.0 154920.0 153548.0 163687.0 170879.0 204117.0 195910.0 59382.0 54612.0 92717.0 100906.0 125461.0 117570.0 143187.0 135482.0 21597.0 13601.0 85132.0 83632.0 9599.0 4886.0 147836.0 97785.0 147836.0 147836.0 97785.0 97785.0
75283.0 74644.0 47594.0 55357.0 28032.0 20407.0 138787.0 140555.0 78123.0 73622.0 137906.0 142293.0 61903.0 53643.0 78110.0 85297.0 128936.0 122087.0 143160.0 140395.0 148443.0 141454.0 97035.0 89082.0 119379.0 114984.0 23061.0 30926.0 159142.0 159702.0 85119.0 85853.0 133227.0 124998.0 51194.0 43434.0 73564.0 70756.0 55059.0 57166.0 7886.0 0.0 205610.0 199187.0 128439.0 126887.0 67020.0 62711.0 242281.0 242063.0 113078.0 109229.0 38559.0 37448.0 164218.0 157135.0 129549.0 121892.0 103169.0 98807.0 138926.0 144489.0 112277.0 120038.0 149404.0 150747.0 48845.0 45967.0 236944.0 243425.0 4035.0 12518.0 161379.0 157285.0 107864.0 105139.0 131823.0 123851.0 212741.0 215419.0 33290.0 25832.0 158942.0 152558.0 85844.0 91657.0 84352.0 85189.0 148040.0 151053.0 70472.0 77156.0 57709.0 65220.0 85970.0 93232.0 74956.0 69617.0 12032.0 4367.0 187203.0 194842.0 215021.0 221923.0 127594.0 127929.0 24220.0 15813.0 86657.0 88709.0 124309.0 125882.0 150443.0 142350.0 93134.0 86745.0 168782.0 167706.0 44011.0 48387.0 36379.0 43282.0 170819.0 169218.0 37822.0 45967.0 158837.0 162571.0 165346.0 166225.0 176671.0 169509.0 139103.0 133962.0 160277.0 154075.0 62300.0 65492.0 237039.0 228830.0 153698.0 152708.0 170879.0 178137.0 211943.0 203731.0 66838.0 62091.0 89825.0 97983.0 122599.0 114573.0 150270.0 142548.0 28468.0 20573.0 79981.0 79077.0 8694.0 11195.0 148365.0 105378.0 148365.0 148365.0 105378.0 105378.0
274305.0 276216.0 247353.0 255225.0 223236.0 219827.0 332051.0 336165.0 262887.0 255115.0 342561.0 347456.0 146791.0 155084.0 277849.0 283116.0 308253.0 300225.0 64430.0 65521.0 326272.0 322081.0 291050.0 284333.0 324986.0 320413.0 226771.0 233723.0 298264.0 295613.0 121493.0 119799.0 312399.0 305754.0 247850.0 241473.0 155254.0 151100.0 198647.0 191675.0 197974.0 205610.0 0.0 7962.0 79539.0 83679.0 245007.0 247203.0 37573.0 39616.0 318370.0 314810.0 210126.0 202163.0 343610.0 338780.0 318778.0 312668.0 306689.0 303333.0 288399.0 296091.0 312171.0 320318.0 297536.0 302967.0 236611.0 239560.0 39872.0 43059.0 209498.0 216959.0 316408.0 316324.0 281803.0 283866.0 278678.0 272944.0 8332.0 14879.0 233104.0 228305.0 357318.0 352187.0 291165.0 296430.0 122787.0 124575.0 76416.0 68834.0 259475.0 262346.0 256887.0 262534.0 269643.0 273496.0 256302.0 248333.0 209698.0 208313.0 351501.0 359230.0 9862.0 16346.0 288065.0 283153.0 227392.0 220021.0 142747.0 135316.0 324527.0 327808.0 310112.0 302632.0 281361.0 273340.0 43952.0 40655.0 219740.0 227701.0 212462.0 210302.0 342213.0 344385.0 201376.0 198585.0 333070.0 339631.0 307383.0 312033.0 44034.0 51331.0 309425.0 301606.0 326886.0 319044.0 234058.0 241821.0 41035.0 34353.0 300965.0 296108.0 46516.0 39065.0 27211.0 24960.0 153158.0 156073.0 265843.0 272590.0 292110.0 286769.0 65112.0 71733.0 177750.0 185258.0 273670.0 269033.0 204998.0 196694.0 282043.0 124850.0 282043.0 282043.0 124850.0 124850.0
267309.0 269331.0 241436.0 249337.0 217327.0 213744.0 326791.0 330780.0 257701.0 249988.0 335840.0 340818.0 139894.0 148226.0 272051.0 277447.0 300679.0 292649.0 59330.0 59655.0 321747.0 317411.0 285613.0 278806.0 318556.0 314091.0 220551.0 227585.0 294102.0 291451.0 115534.0 113502.0 307747.0 300998.0 242080.0 235604.0 150577.0 146140.0 193746.0 186836.0 191600.0 199187.0 7962.0 0.0 72372.0 76255.0 239906.0 241897.0 45060.0 47469.0 312088.0 308415.0 204689.0 196721.0 339089.0 334134.0 313689.0 307478.0 299881.0 296627.0 284237.0 291929.0 306451.0 314588.0 293374.0 298805.0 231089.0 233856.0 47798.0 51003.0 203099.0 210655.0 312246.0 312162.0 274212.0 276343.0 274516.0 268782.0 16285.0 22671.0 227106.0 222159.0 351794.0 346561.0 284864.0 290235.0 115945.0 117480.0 73948.0 66108.0 254097.0 257138.0 251043.0 256809.0 264548.0 268563.0 251191.0 243242.0 203544.0 201969.0 347339.0 355067.0 17613.0 23063.0 283911.0 278990.0 221205.0 213743.0 138407.0 130822.0 317487.0 320860.0 305950.0 298440.0 276150.0 268151.0 41243.0 36623.0 214370.0 222346.0 206946.0 205002.0 338045.0 340060.0 195946.0 193399.0 325374.0 331965.0 303221.0 307870.0 36180.0 43397.0 305129.0 297368.0 322844.0 314887.0 229030.0 236741.0 43250.0 35737.0 296803.0 291945.0 38558.0 31153.0 33350.0 29523.0 148054.0 150815.0 261011.0 267867.0 287732.0 282248.0 57260.0 63976.0 171192.0 178768.0 268172.0 263677.0 198783.0 190438.0 277881.0 121060.0 277881.0 277881.0 121060.0 121060.0
194985.0 197135.0 172762.0 180758.0 148907.0 144453.0 261108.0 264361.0 193065.0 185836.0 263911.0 269076.0 67821.0 76222.0 203777.0 209816.0 229470.0 221457.0 32136.0 24084.0 260650.0 255413.0 219204.0 211943.0 247436.0 243351.0 150555.0 157920.0 240577.0 237927.0 49849.0 45140.0 245964.0 238616.0 174174.0 167226.0 93172.0 86621.0 132361.0 126157.0 121110.0 128439.0 79539.0 72372.0 0.0 7469.0 176070.0 176717.0 117085.0 118355.0 241499.0 237428.0 139277.0 131442.0 277849.0 272132.0 249097.0 242335.0 227798.0 224756.0 229535.0 237039.0 238390.0 246431.0 239138.0 243976.0 164722.0 166399.0 115679.0 120850.0 132428.0 140342.0 257176.0 256185.0 203145.0 204872.0 219994.0 213615.0 87382.0 91543.0 158134.0 152492.0 284526.0 278796.0 214272.0 220045.0 44185.0 45121.0 59167.0 54433.0 188325.0 192381.0 182675.0 189031.0 200405.0 205409.0 187124.0 179416.0 133986.0 131540.0 290809.0 298656.0 89340.0 95434.0 226561.0 222840.0 151355.0 143531.0 85164.0 77051.0 245130.0 248570.0 249639.0 241756.0 211156.0 203380.0 54303.0 48806.0 149212.0 157144.0 140984.0 140481.0 279183.0 280109.0 130757.0 129949.0 255067.0 261379.0 249695.0 254203.0 48957.0 42617.0 245775.0 238524.0 265036.0 257375.0 165870.0 173094.0 108600.0 100391.0 242769.0 238309.0 42998.0 49860.0 92764.0 84692.0 87180.0 88508.0 198634.0 206120.0 228054.0 221658.0 24302.0 17897.0 100071.0 107872.0 201562.0 197935.0 128969.0 120502.0 224357.0 75676.0 224357.0 224357.0 75676.0 75676.0
191779.0 194197.0 172017.0 180022.0 148353.0 143563.0 261103.0 264142.0 193520.0 186445.0 261246.0 266575.0 65473.0 73906.0 203090.0 209336.0 224679.0 216655.0 39554.0 31437.0 261746.0 256326.0 219084.0 211704.0 245393.0 241532.0 149317.0 156812.0 243592.0 240959.0 51665.0 46017.0 246947.0 239483.0 173707.0 166613.0 96065.0 89183.0 133946.0 127956.0 119742.0 126887.0 83679.0 76255.0 7469.0 0.0 176801.0 177087.0 121241.0 122907.0 239761.0 235477.0 139772.0 132028.0 278877.0 273008.0 249406.0 242516.0 224991.0 222179.0 232024.0 239461.0 237701.0 245695.0 241751.0 246401.0 164797.0 166115.0 120759.0 125641.0 130903.0 138984.0 259511.0 258303.0 198274.0 200220.0 222555.0 216023.0 91704.0 96258.0 157323.0 151402.0 284020.0 278139.0 212574.0 218539.0 42641.0 42254.0 66595.0 61902.0 188485.0 192806.0 182013.0 188560.0 200963.0 206195.0 187750.0 180135.0 133026.0 130157.0 292739.0 300598.0 93533.0 99264.0 228487.0 225005.0 150185.0 142212.0 88963.0 80935.0 241771.0 245421.0 251700.0 243754.0 211458.0 203764.0 61064.0 55163.0 149721.0 157598.0 141305.0 141220.0 280687.0 281398.0 131375.0 131050.0 249903.0 256321.0 252702.0 257020.0 49785.0 42722.0 247263.0 240132.0 266770.0 259182.0 166817.0 173885.0 110584.0 102439.0 245447.0 241166.0 44020.0 51456.0 98389.0 90427.0 89421.0 90373.0 199627.0 207229.0 229529.0 222966.0 23540.0 15995.0 98424.0 106330.0 201430.0 198070.0 127913.0 119432.0 227389.0 80817.0 227389.0 227389.0 80817.0 80817.0
100238.0 94310.0 34696.0 35229.0 39368.0 47404.0 87284.0 92020.0 18189.0 10149.0 131043.0 131635.0 118696.0 111874.0 44964.0 45498.0 162910.0 158267.0 180633.0 180658.0 85432.0 79617.0 48235.0 43392.0 104587.0 96798.0 50408.0 45245.0 94831.0 96728.0 126545.0 130981.0 70389.0 62739.0 28204.0 32309.0 90490.0 93948.0 46797.0 53965.0 69424.0 67020.0 245007.0 239906.0 176070.0 176801.0 0.0 8555.0 278861.0 277010.0 93687.0 94952.0 37253.0 44811.0 102329.0 96244.0 73784.0 67740.0 107907.0 100332.0 72953.0 77963.0 72889.0 80767.0 83276.0 84011.0 19002.0 25389.0 270738.0 277591.0 64263.0 57301.0 94372.0 90310.0 149981.0 144434.0 66908.0 58950.0 250906.0 251845.0 39187.0 46820.0 114049.0 110035.0 73253.0 72910.0 135791.0 139568.0 174932.0 180492.0 18400.0 17838.0 33957.0 31877.0 24642.0 29407.0 11298.0 3353.0 55231.0 62710.0 121150.0 128910.0 253453.0 261115.0 60599.0 61406.0 48812.0 55025.0 104225.0 110743.0 133458.0 130675.0 83455.0 75343.0 36609.0 28533.0 203042.0 204550.0 27406.0 20049.0 36352.0 35595.0 106095.0 105676.0 45442.0 46570.0 191952.0 193095.0 99931.0 100011.0 224785.0 218687.0 73287.0 67484.0 94212.0 87604.0 11271.0 3279.0 281392.0 273215.0 87583.0 87455.0 218783.0 224995.0 245622.0 237455.0 91862.0 89164.0 23651.0 31780.0 56141.0 48418.0 200027.0 192745.0 88000.0 81023.0 33214.0 26231.0 60010.0 66492.0 88850.0 124359.0 88850.0 88850.0 124359.0 124359.0
91771.0 85787.0 26479.0 26675.0 34683.0 42520.0 84905.0 89011.0 16529.0 10915.0 123328.0 124171.0 117302.0 110134.0 37756.0 39350.0 154439.0 149854.0 182774.0 182419.0 86879.0 80487.0 44182.0 38330.0 97164.0 89542.0 44278.0 38407.0 101939.0 104184.0 127594.0 131579.0 71658.0 63659.0 19890.0 24737.0 93725.0 96551.0 50493.0 57675.0 65962.0 62711.0 247203.0 241897.0 176717.0 177087.0 8555.0 0.0 281549.0 279832.0 86487.0 87367.0 37481.0 45397.0 103357.0 96835.0 72381.0 65745.0 99527.0 92001.0 79469.0 84025.0 67722.0 75766.0 89629.0 89807.0 13899.0 18403.0 273574.0 280427.0 59634.0 52121.0 99517.0 94962.0 141792.0 136155.0 73984.0 66105.0 253294.0 254472.0 32657.0 40643.0 110563.0 106065.0 65211.0 65269.0 135495.0 138822.0 178362.0 183657.0 12612.0 15754.0 25416.0 23792.0 24257.0 30807.0 12245.0 8819.0 51326.0 58349.0 124515.0 132179.0 255812.0 263393.0 65963.0 67584.0 42669.0 49564.0 107774.0 113923.0 125069.0 122407.0 88176.0 80196.0 34458.0 26678.0 205744.0 206921.0 27609.0 19625.0 35783.0 36902.0 108521.0 107465.0 46128.0 48759.0 183435.0 184552.0 106597.0 106226.0 225596.0 219299.0 76422.0 71284.0 97578.0 91381.0 16993.0 10482.0 282969.0 274767.0 93923.0 94253.0 219604.0 226007.0 248458.0 240291.0 94175.0 91130.0 27229.0 35329.0 59933.0 51869.0 200464.0 193073.0 85589.0 78263.0 27684.0 21913.0 56388.0 63518.0 96959.0 128140.0 96959.0 96959.0 128140.0 128140.0
311682.0 313479.0 283052.0 290852.0 258956.0 255890.0 366126.0 370547.0 296908.0 289005.0 379601.0 384376.0 184121.0 192371.0 313257.0 318234.0 345738.0 337709.0 99663.0 101886.0 358510.0 354622.0 325621.0 319126.0 361582.0 356821.0 263076.0 269871.0 330391.0 327740.0 157592.0 156439.0 344912.0 338563.0 283243.0 277082.0 188473.0 185021.0 232167.0 225074.0 234575.0 242281.0 37573.0 45060.0 117085.0 121241.0 278861.0 281549.0 0.0 7961.0 354707.0 351350.0 244871.0 236942.0 375909.0 371221.0 352443.0 346599.0 343854.0 340364.0 320526.0 328218.0 347363.0 355526.0 329663.0 335094.0 271483.0 274826.0 18761.0 13501.0 246127.0 253423.0 348535.0 348451.0 319271.0 321393.0 310805.0 305071.0 29764.0 27124.0 268983.0 264475.0 392011.0 387123.0 327552.0 332620.0 160087.0 162068.0 106350.0 99269.0 293964.0 296418.0 292421.0 297804.0 303420.0 306852.0 290151.0 282155.0 245908.0 244852.0 383628.0 391357.0 27746.0 22520.0 320192.0 315280.0 263636.0 256435.0 175242.0 168264.0 361937.0 365130.0 342239.0 334759.0 315403.0 307342.0 75824.0 75065.0 254306.0 262212.0 247377.0 244737.0 374359.0 376523.0 236133.0 232794.0 370377.0 376995.0 339510.0 344160.0 78765.0 86631.0 341557.0 333733.0 359125.0 351171.0 267763.0 275633.0 37772.0 38521.0 333092.0 328235.0 82346.0 74423.0 36574.0 42924.0 187394.0 190634.0 298954.0 305394.0 324284.0 319066.0 102077.0 108962.0 214654.0 222055.0 308412.0 303452.0 241323.0 233102.0 314170.0 157477.0 314170.0 314170.0 157477.0 157477.0
312281.0 313880.0 282071.0 289818.0 258015.0 255180.0 364291.0 368768.0 295089.0 287158.0 379670.0 384306.0 184743.0 192912.0 312071.0 316877.0 347586.0 339561.0 98995.0 101843.0 356570.0 352721.0 323969.0 317593.0 361205.0 356289.0 262534.0 269206.0 328451.0 325800.0 157097.0 156348.0 343013.0 336634.0 282076.0 276051.0 186570.0 183289.0 230279.0 223172.0 234306.0 242063.0 39616.0 47469.0 118355.0 122907.0 277010.0 279832.0 7961.0 0.0 354119.0 350932.0 243400.0 235500.0 373969.0 369337.0 350536.0 344738.0 344096.0 340440.0 318586.0 326278.0 346025.0 354192.0 327723.0 333154.0 270041.0 273594.0 11333.0 5638.0 245868.0 253017.0 346595.0 346511.0 321170.0 323109.0 308865.0 303131.0 31355.0 26905.0 268134.0 263831.0 390374.0 385617.0 327022.0 331933.0 160702.0 163065.0 104410.0 97329.0 292303.0 294555.0 291329.0 296552.0 301543.0 304922.0 288294.0 280295.0 245315.0 244518.0 381688.0 389416.0 29861.0 26510.0 318251.0 313339.0 263049.0 255985.0 173303.0 166344.0 362582.0 365604.0 340299.0 332819.0 313580.0 305513.0 74256.0 74383.0 252731.0 260599.0 245990.0 243113.0 372419.0 374583.0 234682.0 231082.0 372589.0 379109.0 337570.0 342220.0 82508.0 90198.0 339617.0 331793.0 357185.0 349231.0 265887.0 273774.0 45511.0 45743.0 331152.0 326294.0 85659.0 77899.0 32798.0 40042.0 185796.0 189179.0 297014.0 303461.0 322344.0 317126.0 104720.0 111336.0 214693.0 221979.0 306863.0 301745.0 240822.0 232675.0 312230.0 155537.0 312230.0 312230.0 155537.0 155537.0
65220.0 58067.0 73555.0 66582.0 96878.0 98996.0 62011.0 56847.0 79240.0 86106.0 39388.0 38364.0 174385.0 165978.0 48763.0 49248.0 107800.0 107642.0 255149.0 252939.0 97359.0 89463.0 54524.0 54013.0 11804.0 3281.0 91633.0 84936.0 157670.0 163364.0 197116.0 198595.0 88983.0 83797.0 75405.0 79796.0 173608.0 174277.0 133780.0 140560.0 120539.0 113078.0 318370.0 312088.0 241499.0 239761.0 93687.0 86487.0 354707.0 354119.0 0.0 8186.0 115093.0 122270.0 103074.0 95236.0 67971.0 62378.0 37885.0 32177.0 133862.0 133469.0 34148.0 33507.0 140314.0 135545.0 90116.0 84125.0 348413.0 355177.0 109111.0 101433.0 137163.0 129490.0 110975.0 103143.0 134385.0 128915.0 325340.0 327702.0 86463.0 90293.0 61690.0 53581.0 27238.0 22548.0 197361.0 197734.0 256445.0 260573.0 75387.0 78888.0 65814.0 63407.0 78646.0 82993.0 85842.0 91665.0 108812.0 110140.0 139774.0 144832.0 327672.0 334708.0 115485.0 122461.0 91078.0 98351.0 188060.0 192805.0 56009.0 49203.0 125277.0 120900.0 68426.0 73206.0 280190.0 279779.0 107650.0 101081.0 111816.0 117064.0 119269.0 112720.0 123137.0 129134.0 129351.0 126990.0 157097.0 152353.0 289524.0 282231.0 105341.0 107474.0 120200.0 119576.0 103473.0 96506.0 350091.0 341888.0 143586.0 148153.0 283781.0 291122.0 323299.0 315129.0 171041.0 166971.0 90229.0 91586.0 101596.0 96085.0 263012.0 255267.0 141435.0 133633.0 61695.0 69614.0 113396.0 121676.0 165956.0 208560.0 165956.0 165956.0 208560.0 208560.0
57626.0 50687.0 72131.0 65663.0 94760.0 96244.0 69799.0 64850.0 81578.0 87998.0 36216.0 36891.0 170017.0 161589.0 50121.0 51928.0 99785.0 99522.0 251937.0 249492.0 104496.0 96495.0 58946.0 57409.0 10427.0 7406.0 88468.0 82166.0 163041.0 168516.0 193838.0 195016.0 95539.0 89990.0 74669.0 78361.0 171989.0 172289.0 133180.0 139804.0 116836.0 109229.0 314810.0 308415.0 237428.0 235477.0 94952.0 87367.0 351350.0 350932.0 8186.0 0.0 113891.0 120814.0 110750.0 102856.0 75023.0 69068.0 29741.0 24017.0 139049.0 139010.0 40765.0 41016.0 145862.0 141368.0 89740.0 83266.0 345439.0 352108.0 105318.0 97931.0 143512.0 135919.0 102797.0 94963.0 139106.0 133347.0 321884.0 324407.0 84254.0 87421.0 69797.0 61679.0 24330.0 22106.0 193247.0 193330.0 254109.0 258024.0 76917.0 81132.0 65214.0 63793.0 81741.0 86683.0 87857.0 93168.0 105736.0 106511.0 147237.0 152426.0 324185.0 331131.0 120694.0 127418.0 88043.0 94946.0 186422.0 190884.0 48914.0 42588.0 131493.0 126818.0 72326.0 76420.0 277192.0 276552.0 106953.0 100760.0 110506.0 116164.0 126720.0 120308.0 121681.0 128057.0 121770.0 119617.0 162845.0 158349.0 285181.0 277807.0 111661.0 113397.0 127132.0 126210.0 104246.0 97619.0 345957.0 337770.0 149247.0 153563.0 279483.0 286903.0 320304.0 312160.0 168947.0 164762.0 93482.0 95475.0 106992.0 101109.0 258616.0 250865.0 137393.0 129695.0 64057.0 72009.0 110120.0 118265.0 170149.0 206844.0 170149.0 170149.0 206844.0 206844.0
98816.0 95330.0 41766.0 48517.0 22194.0 26663.0 122274.0 126094.0 53789.0 46694.0 147839.0 150308.0 81777.0 75280.0 69263.0 73539.0 158810.0 152773.0 145719.0 145126.0 122672.0 116850.0 80930.0 74264.0 124268.0 117772.0 35170.0 36494.0 122268.0 122243.0 90120.0 94137.0 107643.0 99965.0 39850.0 35552.0 58783.0 60409.0 21083.0 26627.0 37608.0 38559.0 210126.0 204689.0 139277.0 139772.0 37253.0 37481.0 244871.0 243400.0 115093.0 113891.0 0.0 7968.0 139581.0 133443.0 109847.0 103214.0 117828.0 111494.0 103548.0 109776.0 102687.0 110852.0 114054.0 116376.0 26648.0 31099.0 237138.0 243990.0 37576.0 34698.0 128029.0 124940.0 140737.0 136775.0 95667.0 87842.0 216361.0 217757.0 31702.0 33315.0 147215.0 142253.0 89709.0 92587.0 98550.0 102338.0 142895.0 147745.0 49436.0 53105.0 49449.0 53576.0 61192.0 66624.0 48009.0 40542.0 27270.0 35138.0 157259.0 165087.0 218854.0 226365.0 94569.0 93486.0 34265.0 34505.0 73205.0 78509.0 142189.0 141571.0 118068.0 109874.0 71938.0 64112.0 169174.0 170021.0 9949.0 17871.0 3661.0 4795.0 142993.0 142834.0 8750.0 14235.0 188840.0 191515.0 129127.0 130798.0 188132.0 181875.0 109870.0 103543.0 130461.0 123475.0 28385.0 34536.0 245564.0 237356.0 118279.0 116494.0 182138.0 188527.0 212021.0 203854.0 57655.0 54240.0 60659.0 68619.0 92362.0 85027.0 163092.0 155744.0 52631.0 46574.0 63567.0 59040.0 29941.0 33449.0 110237.0 93760.0 110237.0 110237.0 93760.0 93760.0
102910.0 99914.0 48745.0 55794.0 27253.0 29863.0 130228.0 134062.0 61638.0 54423.0 154339.0 157033.0 74951.0 68777.0 76958.0 81396.0 161793.0 155512.0 137759.0 137158.0 130113.0 124421.0 88896.0 82209.0 131218.0 124892.0 38881.0 41544.0 126829.0 126376.0 82199.0 86309.0 115147.0 107548.0 47313.0 42500.0 51361.0 52652.0 17962.0 21785.0 34895.0 37448.0 202163.0 196721.0 131442.0 132028.0 44811.0 45397.0 236942.0 235500.0 122270.0 120814.0 7968.0 0.0 147097.0 141055.0 117734.0 111141.0 123565.0 117463.0 108971.0 115436.0 110548.0 118715.0 119441.0 122131.0 34546.0 38598.0 229245.0 236097.0 37306.0 36245.0 134069.0 131265.0 142768.0 139184.0 100765.0 93063.0 208408.0 209826.0 37469.0 37651.0 155171.0 150182.0 96547.0 99731.0 91033.0 95033.0 135177.0 139944.0 57401.0 60973.0 56868.0 61296.0 68970.0 74218.0 55724.0 48132.0 27521.0 34695.0 164015.0 171862.0 210898.0 218405.0 100852.0 99331.0 38246.0 36770.0 65811.0 70884.0 147570.0 147285.0 124412.0 116227.0 79848.0 71993.0 161265.0 162072.0 17798.0 25772.0 10596.0 9541.0 150127.0 150157.0 867.0 9169.0 191858.0 194823.0 134047.0 136090.0 180267.0 174050.0 116891.0 110380.0 137310.0 130198.0 35359.0 41974.0 237610.0 229402.0 123619.0 121462.0 174272.0 180629.0 204128.0 195961.0 49813.0 46323.0 67994.0 75854.0 99291.0 92118.0 155307.0 147988.0 47244.0 41926.0 71521.0 67002.0 28802.0 30279.0 113779.0 86341.0 113779.0 113779.0 86341.0 86341.0
157865.0 149896.0 118067.0 111358.0 136733.0 143873.0 41161.0 47481.0 86939.0 93126.0 135472.0 130072.0 220627.0 213490.0 92752.0 84344.0 210098.0 209122.0 279849.0 280730.0 17342.0 22878.0 70384.0 78293.0 112547.0 105475.0 142616.0 135010.0 83978.0 91881.0 228072.0 232922.0 31951.0 39712.0 113359.0 121115.0 188532.0 193368.0 145967.0 152621.0 168542.0 164218.0 343610.0 339089.0 277849.0 278877.0 102329.0 103357.0 375909.0 373969.0 103074.0 110750.0 139581.0 147097.0 0.0 8114.0 38659.0 46542.0 139894.0 132911.0 69757.0 63619.0 71604.0 69756.0 68115.0 60166.0 116880.0 118330.0 367697.0 374550.0 160670.0 152364.0 52132.0 45155.0 209504.0 201988.0 77541.0 78702.0 348912.0 349080.0 131225.0 139230.0 58112.0 62810.0 110214.0 102584.0 238115.0 241853.0 271075.0 276932.0 93857.0 87811.0 108732.0 100731.0 79115.0 72989.0 91778.0 99042.0 153699.0 159901.0 37569.0 41865.0 351528.0 359387.0 59467.0 66916.0 141138.0 149306.0 200885.0 208307.0 158839.0 151539.0 46455.0 49567.0 71128.0 77586.0 300467.0 302956.0 129704.0 122087.0 138531.0 137752.0 18091.0 10159.0 147703.0 147903.0 232425.0 229938.0 77672.0 69918.0 326272.0 320418.0 35806.0 44024.0 28947.0 34833.0 112060.0 105123.0 381390.0 373296.0 68600.0 76046.0 320269.0 326201.0 342581.0 334414.0 191897.0 189831.0 79250.0 71745.0 51885.0 56844.0 301956.0 294772.0 188809.0 181322.0 85254.0 85159.0 158958.0 166537.0 110171.0 220209.0 110171.0 110171.0 220209.0 220209.0
149754.0 141784.0 110686.0 103853.0 129815.0 136839.0 33508.0 40213.0 80340.0 86818.0 128180.0 122960.0 214131.0 206895.0 84895.0 76492.0 202096.0 201074.0 274838.0 275532.0 13869.0 16755.0 62594.0 70555.0 104866.0 97684.0 135336.0 127676.0 85778.0 93542.0 222431.0 227118.0 26387.0 33525.0 106129.0 113900.0 183563.0 188182.0 140647.0 147410.0 161624.0 157135.0 338780.0 334134.0 272132.0 273008.0 96244.0 96835.0 371221.0 369337.0 95236.0 102856.0 133443.0 141055.0 8114.0 0.0 30590.0 38513.0 131914.0 124891.0 69569.0 64061.0 63533.0 61842.0 69153.0 61416.0 110203.0 111347.0 363065.0 369918.0 153540.0 145184.0 54954.0 47480.0 201395.0 193883.0 76652.0 76989.0 344204.0 344515.0 124034.0 131986.0 52806.0 56811.0 102100.0 94474.0 231987.0 235566.0 266457.0 272313.0 86950.0 81178.0 101237.0 93248.0 72584.0 66837.0 85483.0 92925.0 146774.0 152836.0 44850.0 49598.0 346808.0 354635.0 57447.0 65312.0 133875.0 142095.0 196164.0 203472.0 151086.0 143857.0 47619.0 49419.0 64004.0 70733.0 295820.0 298130.0 123526.0 115814.0 132259.0 131792.0 24653.0 17505.0 141684.0 142214.0 224581.0 222170.0 80247.0 72822.0 320687.0 314733.0 33803.0 41838.0 32100.0 36536.0 106263.0 99126.0 376268.0 368150.0 70131.0 77360.0 314683.0 320715.0 337949.0 329782.0 186591.0 184386.0 73542.0 66329.0 48256.0 52287.0 296174.0 288935.0 182071.0 174517.0 77810.0 78065.0 152057.0 159737.0 109736.0 215591.0 109736.0 109736.0 215591.0 215591.0
119321.0 111358.0 82267.0 74993.0 103076.0 109576.0 16000.0 23552.0 56131.0 63709.0 104104.0 100042.0 188454.0 180883.0 54803.0 46460.0 172996.0 171598.0 254415.0 254404.0 29490.0 21493.0 32976.0 41062.0 78635.0 70760.0 107130.0 99314.0 95298.0 102101.0 199919.0 203959.0 22592.0 20944.0 78375.0 86119.0 163971.0 167692.0 120285.0 127369.0 134634.0 129549.0 318778.0 313689.0 249097.0 249406.0 73784.0 72381.0 352443.0 350536.0 67971.0 75023.0 109847.0 117734.0 38659.0 30590.0 0.0 8042.0 103168.0 95832.0 73606.0 70951.0 34438.0 34837.0 77480.0 71317.0 84747.0 84568.0 344264.0 351117.0 125800.0 117299.0 70489.0 62618.0 171251.0 163812.0 77378.0 74554.0 324634.0 325473.0 96259.0 103942.0 45521.0 44899.0 71841.0 64413.0 207592.0 210568.0 247984.0 253800.0 61013.0 56768.0 72441.0 64586.0 49142.0 45805.0 62498.0 70450.0 119857.0 125341.0 72858.0 78669.0 327188.0 334870.0 56453.0 64679.0 105744.0 114114.0 177396.0 184193.0 123886.0 117169.0 59345.0 56662.0 37951.0 45742.0 276656.0 278294.0 99937.0 91977.0 108129.0 108960.0 52442.0 46995.0 118447.0 120317.0 196538.0 194603.0 92730.0 86906.0 297975.0 291674.0 39487.0 43936.0 52250.0 52150.0 84738.0 76958.0 355098.0 346911.0 80004.0 85856.0 291983.0 298363.0 319148.0 310981.0 165645.0 162921.0 54144.0 49080.0 42730.0 41556.0 272813.0 265398.0 155646.0 147881.0 49569.0 51519.0 125195.0 133211.0 109849.0 197172.0 109849.0 109849.0 197172.0 197172.0
111684.0 103730.0 74497.0 67141.0 95657.0 102019.0 19698.0 25682.0 49782.0 57599.0 99607.0 96038.0 181151.0 173514.0 46765.0 38431.0 166123.0 164537.0 248262.0 248083.0 36187.0 27920.0 25063.0 33147.0 73432.0 65308.0 99369.0 91530.0 97822.0 104281.0 193334.0 197216.0 26639.0 22454.0 70774.0 78490.0 158187.0 161669.0 114472.0 121606.0 127100.0 121892.0 312668.0 307478.0 242335.0 242516.0 67740.0 65745.0 346599.0 344738.0 62378.0 69068.0 103214.0 111141.0 46542.0 38513.0 8042.0 0.0 96593.0 89115.0 75219.0 73356.0 28309.0 30217.0 80062.0 74442.0 77732.0 77196.0 338466.0 345319.0 118114.0 109593.0 74932.0 67189.0 163809.0 156420.0 78026.0 74427.0 318621.0 319585.0 88609.0 96219.0 48315.0 46348.0 64409.0 57164.0 200559.0 203396.0 242462.0 248144.0 54032.0 50341.0 64608.0 56802.0 43214.0 40876.0 56448.0 64445.0 112361.0 117709.0 79962.0 86004.0 321162.0 328804.0 57390.0 65362.0 98001.0 106391.0 171786.0 178435.0 117978.0 111510.0 63281.0 59679.0 31337.0 39330.0 270781.0 272256.0 93353.0 85370.0 101361.0 102536.0 59691.0 54607.0 111873.0 114090.0 190125.0 188394.0 96025.0 90681.0 291253.0 284876.0 43257.0 46462.0 58162.0 57200.0 78855.0 70967.0 348694.0 340495.0 82904.0 88295.0 285267.0 291721.0 313350.0 305182.0 159512.0 156663.0 49496.0 45373.0 43259.0 40549.0 265960.0 258511.0 148212.0 140409.0 41969.0 44449.0 117703.0 125783.0 109735.0 191730.0 109735.0 109735.0 191730.0 191730.0
35191.0 30990.0 77931.0 73830.0 96319.0 95302.0 99207.0 94522.0 98324.0 103155.0 36526.0 42823.0 160015.0 151660.0 66764.0 71617.0 70242.0 69786.0 245615.0 242258.0 132606.0 124435.0 82094.0 78330.0 32474.0 36330.0 86414.0 82147.0 186435.0 191261.0 187900.0 187859.0 122472.0 116183.0 82567.0 83565.0 172779.0 171699.0 138567.0 144455.0 111055.0 103169.0 306689.0 299881.0 227798.0 224991.0 107907.0 99527.0 343854.0 344096.0 37885.0 29741.0 117828.0 123565.0 139894.0 131914.0 103168.0 96593.0 0.0 8004.0 162159.0 163058.0 68760.0 70211.0 169868.0 166130.0 97740.0 90072.0 339457.0 345727.0 99686.0 93897.0 169593.0 162243.0 73616.0 65748.0 160947.0 154468.0 314135.0 317281.0 86190.0 86597.0 98901.0 90780.0 36620.0 41168.0 183936.0 182819.0 251154.0 254219.0 91638.0 97637.0 74461.0 76219.0 100546.0 106865.0 103379.0 106929.0 102999.0 101498.0 175898.0 181351.0 316303.0 322865.0 144081.0 150052.0 86533.0 91490.0 186893.0 190226.0 25555.0 23743.0 157324.0 151947.0 93611.0 95783.0 271506.0 269978.0 112961.0 108345.0 114198.0 121080.0 155397.0 149271.0 124400.0 131918.0 93584.0 92219.0 187256.0 183443.0 274087.0 266424.0 137904.0 138674.0 154690.0 153084.0 115257.0 109985.0 335401.0 327316.0 173523.0 177136.0 268607.0 276303.0 314613.0 306364.0 168020.0 163486.0 112253.0 115901.0 131052.0 124336.0 247481.0 239767.0 129502.0 122472.0 81942.0 89449.0 106371.0 113618.0 190251.0 206726.0 190251.0 190251.0 206726.0 206726.0
35575.0 29860.0 71043.0 66591.0 90279.0 89738.0 92475.0 88122.0 90441.0 95383.0 39237.0 44441.0 156936.0 148535.0 58808.0 63613.0 77229.0 76306.0 241742.0 238608.0 125210.0 117004.0 74153.0 70329.0 28944.0 31137.0 81002.0 76282.0 178445.0 183260.0 183837.0 184099.0 114829.0 108437.0 75433.0 76815.0 167202.0 166397.0 132072.0 138099.0 106677.0 98807.0 303333.0 296627.0 224756.0 222179.0 100332.0 92001.0 340364.0 340440.0 32177.0 24017.0 111494.0 117463.0 132911.0 124891.0 95832.0 89115.0 8004.0 0.0 154167.0 155097.0 61512.0 63428.0 161903.0 158207.0 90690.0 83138.0 335587.0 341959.0 95196.0 88986.0 161787.0 154470.0 78812.0 70991.0 152943.0 146469.0 310689.0 313679.0 80001.0 80934.0 93802.0 85681.0 28627.0 33244.0 180729.0 179939.0 246497.0 249758.0 83865.0 89765.0 67101.0 68559.0 92577.0 98868.0 95581.0 99278.0 97868.0 96873.0 168648.0 174214.0 312893.0 319559.0 136101.0 142053.0 81009.0 86429.0 181410.0 184980.0 33288.0 30561.0 149496.0 144058.0 85608.0 87796.0 267507.0 266195.0 106271.0 101404.0 107888.0 114598.0 148170.0 142178.0 118307.0 125655.0 101253.0 100052.0 179306.0 175536.0 271505.0 263916.0 130140.0 130806.0 147132.0 145398.0 107908.0 102474.0 332718.0 324599.0 165570.0 169153.0 265958.0 273584.0 310654.0 302424.0 162779.0 158306.0 104296.0 107904.0 123106.0 116358.0 244881.0 237147.0 125749.0 118515.0 73979.0 81515.0 101488.0 108986.0 182282.0 201399.0 182282.0 182282.0 201399.0 201399.0
165532.0 158400.0 104771.0 102024.0 112013.0 120055.0 88493.0 96581.0 69625.0 69559.0 172827.0 170135.0 182787.0 177298.0 96776.0 90753.0 226727.0 223332.0 225650.0 227847.0 56137.0 58344.0 80421.0 83872.0 145570.0 137065.0 123346.0 117855.0 24300.0 29503.0 180409.0 186705.0 51870.0 52973.0 98186.0 104091.0 136469.0 142929.0 100102.0 105052.0 140140.0 138926.0 288399.0 284237.0 229535.0 232024.0 72953.0 79469.0 320526.0 318586.0 133862.0 139049.0 103548.0 108971.0 69757.0 69569.0 73606.0 75219.0 162159.0 154167.0 0.0 7799.0 100725.0 104752.0 10515.0 14574.0 91954.0 97835.0 312314.0 319167.0 136533.0 130032.0 28077.0 29373.0 217837.0 211488.0 9783.0 16165.0 293541.0 293750.0 111975.0 119746.0 116637.0 117688.0 125785.0 121139.0 195156.0 200584.0 215692.0 221548.0 78528.0 70619.0 99767.0 93490.0 64315.0 56728.0 68519.0 71040.0 126914.0 134741.0 64297.0 71739.0 296163.0 304048.0 18377.0 12430.0 121746.0 127889.0 146352.0 154378.0 186351.0 181128.0 24611.0 20220.0 68676.0 67932.0 245084.0 247799.0 95611.0 90540.0 104332.0 99807.0 60227.0 65458.0 109235.0 105663.0 253912.0 253603.0 27175.0 27323.0 275894.0 271026.0 36698.0 30063.0 43775.0 36032.0 76680.0 73869.0 327120.0 319185.0 14782.0 15289.0 269992.0 274971.0 287197.0 279030.0 142610.0 141938.0 54323.0 48052.0 32420.0 37989.0 253787.0 247265.0 156070.0 150110.0 82059.0 75894.0 131217.0 136495.0 40422.0 164826.0 40422.0 40422.0 164826.0 164826.0
168045.0 160759.0 108720.0 105488.0 117256.0 125303.0 85241.0 93385.0 73056.0 73765.0 172087.0 169050.0 189591.0 183966.0 98619.0 92142.0 228677.0 225526.0 233342.0 235530.0 51019.0 54123.0 80991.0 85112.0 145074.0 136626.0 128185.0 122412.0 24466.0 31170.0 187823.0 194051.0 48634.0 50905.0 102210.0 108426.0 144028.0 150421.0 107135.0 112240.0 145993.0 144489.0 296091.0 291929.0 237039.0 239461.0 77963.0 84025.0 328218.0 326278.0 133469.0 139010.0 109776.0 115436.0 63619.0 64061.0 70951.0 73356.0 163058.0 155097.0 7799.0 0.0 99853.0 103332.0 6852.0 6940.0 96909.0 102427.0 320006.0 326859.0 141969.0 135240.0 20325.0 21744.0 220623.0 214120.0 17574.0 23438.0 301234.0 301443.0 116666.0 124563.0 112701.0 114230.0 126965.0 121908.0 202327.0 207660.0 223384.0 229241.0 82053.0 74076.0 103142.0 96522.0 67169.0 59314.0 72648.0 75833.0 132514.0 140258.0 56518.0 63944.0 303856.0 311740.0 19393.0 16574.0 126578.0 132988.0 154031.0 162043.0 186859.0 181360.0 17546.0 14953.0 70174.0 70311.0 252776.0 255492.0 101564.0 96163.0 110399.0 106171.0 53103.0 58704.0 115732.0 112449.0 255443.0 254889.0 24291.0 22261.0 283514.0 278605.0 32446.0 27031.0 36711.0 29230.0 82453.0 79120.0 334812.0 326877.0 10567.0 14943.0 277605.0 282621.0 294890.0 286722.0 150040.0 149286.0 57979.0 51062.0 32081.0 38857.0 261304.0 254747.0 162385.0 156268.0 84266.0 78591.0 136943.0 142467.0 47048.0 172518.0 47048.0 47048.0 172518.0 172518.0
87257.0 79316.0 65685.0 57679.0 89497.0 94190.0 32461.0 30605.0 55523.0 63496.0 72234.0 69428.0 173835.0 165732.0 34617.0 29152.0 138735.0 137562.0 247922.0 246799.0 63920.0 55827.0 25702.0 29516.0 45435.0 37153.0 89231.0 81434.0 124204.0 130183.0 191004.0 193823.0 54856.0 49713.0 64400.0 71167.0 160889.0 163058.0 118136.0 125291.0 118672.0 112277.0 312171.0 306451.0 238390.0 237701.0 72889.0 67722.0 347363.0 346025.0 34148.0 40765.0 102687.0 110548.0 71604.0 63533.0 34438.0 28309.0 68760.0 61512.0 100725.0 99853.0 0.0 8167.0 106673.0 101640.0 76046.0 72611.0 339782.0 346555.0 108275.0 99777.0 103015.0 95343.0 138094.0 130514.0 102051.0 97214.0 318623.0 320239.0 80395.0 86726.0 46669.0 40441.0 39479.0 31479.0 195117.0 196878.0 245421.0 250407.0 55164.0 55556.0 55716.0 49642.0 52222.0 54308.0 62794.0 70108.0 104764.0 108496.0 107151.0 112713.0 321078.0 328474.0 82406.0 89768.0 88155.0 96480.0 175118.0 180933.0 89679.0 83211.0 91154.0 86939.0 39985.0 46790.0 271776.0 272380.0 93615.0 85949.0 100037.0 103328.0 86663.0 80714.0 111374.0 115565.0 162102.0 160219.0 123230.0 118312.0 287241.0 280412.0 71199.0 73531.0 86385.0 85491.0 83926.0 76095.0 346379.0 338145.0 109819.0 114661.0 281330.0 288225.0 314666.0 306498.0 160341.0 156852.0 62600.0 61940.0 68309.0 63515.0 261237.0 253601.0 140268.0 132272.0 40039.0 46666.0 109970.0 118426.0 134550.0 195588.0 134550.0 134550.0 195588.0 195588.0
91519.0 83659.0 73686.0 65683.0 97563.0 102149.0 29047.0 25382.0 63216.0 71253.0 69452.0 65831.0 181696.0 173563.0 42661.0 37319.0 140452.0 139734.0 256078.0 254937.0 64001.0 56248.0 33062.0 37479.0 43832.0 36129.0 97020.0 89260.0 127786.0 134054.0 199127.0 201908.0 56682.0 52549.0 72520.0 79227.0 169027.0 171219.0 126214.0 133376.0 126524.0 120038.0 320318.0 314588.0 246431.0 245695.0 80767.0 75766.0 355526.0 354192.0 33507.0 41016.0 110852.0 118715.0 69756.0 61842.0 34837.0 30217.0 70211.0 63428.0 104752.0 103332.0 8167.0 0.0 110089.0 104623.0 84210.0 80760.0 347949.0 354722.0 116026.0 107557.0 104983.0 97178.0 141291.0 133604.0 106722.0 102304.0 326778.0 328402.0 88372.0 94582.0 39078.0 32528.0 44272.0 36102.0 203095.0 204780.0 253571.0 258568.0 63185.0 63296.0 63764.0 57785.0 59521.0 61030.0 70506.0 77931.0 112712.0 116305.0 106276.0 111411.0 329233.0 336624.0 86596.0 94244.0 95975.0 104262.0 183245.0 189081.0 89506.0 82558.0 93460.0 89862.0 47032.0 54169.0 279942.0 280540.0 101767.0 94087.0 108204.0 111478.0 85767.0 79292.0 119540.0 123709.0 162771.0 160491.0 126218.0 120893.0 295263.0 288411.0 73436.0 76581.0 87043.0 86903.0 91858.0 83990.0 354469.0 346235.0 113028.0 118242.0 289358.0 296274.0 322833.0 314665.0 168507.0 165019.0 69503.0 68249.0 72404.0 68311.0 269226.0 261582.0 148120.0 140122.0 48084.0 54538.0 117896.0 126362.0 139846.0 203707.0 139846.0 139846.0 203707.0 203707.0
174554.0 167308.0 114664.0 111647.0 122420.0 130465.0 91554.0 99706.0 79203.0 79555.0 178907.0 175835.0 193126.0 187697.0 105269.0 98873.0 235333.0 232127.0 234787.0 236958.0 56489.0 60108.0 87814.0 91862.0 151913.0 143468.0 133634.0 128035.0 17818.0 24893.0 190186.0 196581.0 55050.0 57609.0 108113.0 114170.0 145992.0 152590.0 110330.0 115148.0 150650.0 149404.0 297536.0 293374.0 239138.0 241751.0 83276.0 89629.0 329663.0 327723.0 140314.0 145862.0 114054.0 119441.0 68115.0 69153.0 77480.0 80062.0 169868.0 161903.0 10515.0 6852.0 106673.0 110089.0 0.0 8039.0 102270.0 108021.0 321451.0 328304.0 146988.0 140434.0 20418.0 24167.0 227058.0 220601.0 19247.0 26463.0 302679.0 302888.0 122206.0 130025.0 118678.0 120421.0 133737.0 128724.0 205232.0 210744.0 224829.0 230685.0 88170.0 80213.0 109335.0 102840.0 73521.0 65738.0 78475.0 81287.0 137396.0 145211.0 57273.0 64357.0 305301.0 313185.0 26005.0 22088.0 132031.0 138261.0 155523.0 163591.0 193699.0 188210.0 21669.0 20999.0 76872.0 76810.0 254221.0 256937.0 106124.0 101020.0 114847.0 110298.0 56256.0 62449.0 119698.0 116031.0 262179.0 261661.0 17643.0 16822.0 285208.0 280451.0 38585.0 33644.0 40193.0 33313.0 87178.0 84264.0 336257.0 328322.0 4308.0 8458.0 279326.0 284191.0 296335.0 288167.0 152381.0 151828.0 64009.0 57331.0 38925.0 45608.0 263359.0 256908.0 166562.0 160619.0 90823.0 85005.0 141716.0 147009.0 44275.0 173963.0 44275.0 44275.0 173963.0 173963.0
172336.0 164947.0 114079.0 110544.0 123365.0 131407.0 84910.0 93060.0 78204.0 79378.0 173787.0 170453.0 196396.0 190723.0 102572.0 95787.0 232492.0 229527.0 240218.0 242412.0 49012.0 53097.0 84068.0 88679.0 147035.0 138654.0 134053.0 128123.0 24629.0 32199.0 194762.0 200987.0 48742.0 52092.0 107630.0 114024.0 150957.0 157358.0 114019.0 119156.0 152398.0 150747.0 302967.0 298805.0 243976.0 246401.0 84011.0 89807.0 335094.0 333154.0 135545.0 141368.0 116376.0 122131.0 60166.0 61416.0 71317.0 74442.0 166130.0 158207.0 14574.0 6940.0 101640.0 104623.0 8039.0 0.0 102887.0 108189.0 326882.0 333735.0 148162.0 141312.0 13538.0 16208.0 225063.0 218453.0 24339.0 30377.0 308109.0 308318.0 122463.0 130423.0 111535.0 113547.0 130330.0 124966.0 209236.0 214547.0 230260.0 236116.0 87221.0 79235.0 108145.0 101316.0 71981.0 64010.0 78220.0 81770.0 138799.0 146494.0 50130.0 57431.0 310731.0 318616.0 24161.0 22919.0 132444.0 139000.0 160916.0 168935.0 189582.0 183866.0 13805.0 14763.0 74030.0 74785.0 259652.0 262367.0 108046.0 102494.0 116927.0 112829.0 48248.0 54411.0 122440.0 119261.0 258918.0 258174.0 21604.0 17482.0 290427.0 285530.0 31951.0 28112.0 32154.0 25339.0 88874.0 85291.0 341688.0 333753.0 8891.0 15949.0 284520.0 289522.0 301765.0 293598.0 156979.0 156222.0 63352.0 56105.0 35239.0 42689.0 268240.0 261685.0 169002.0 162815.0 88542.0 83232.0 143289.0 148933.0 52073.0 179394.0 52073.0 52073.0 179394.0 179394.0
85210.0 80055.0 20035.0 24384.0 20841.0 28763.0 96387.0 99846.0 29955.0 24789.0 124828.0 126561.0 104023.0 96700.0 42959.0 46904.0 147605.0 142504.0 172237.0 171470.0 100560.0 94003.0 54620.0 47723.0 99953.0 92958.0 31416.0 26609.0 113718.0 115407.0 116101.0 119655.0 85322.0 77244.0 15340.0 15440.0 85079.0 87018.0 43686.0 50558.0 52086.0 48845.0 236611.0 231089.0 164722.0 164797.0 19002.0 13899.0 271483.0 270041.0 90116.0 89740.0 26648.0 34546.0 116880.0 110203.0 84747.0 77732.0 97740.0 90690.0 91954.0 96909.0 76046.0 84210.0 102270.0 102887.0 0.0 8078.0 263782.0 270635.0 45831.0 38517.0 112971.0 108610.0 133133.0 127966.0 85830.0 77854.0 242910.0 244366.0 20395.0 27840.0 120712.0 115646.0 66134.0 67886.0 122852.0 125871.0 169446.0 174366.0 23735.0 29071.0 24539.0 27289.0 37814.0 44652.0 26131.0 21125.0 37427.0 44487.0 138410.0 146077.0 245393.0 252872.0 79278.0 80366.0 29823.0 36119.0 99423.0 104993.0 122986.0 121237.0 101796.0 93760.0 46900.0 39558.0 195810.0 196591.0 17813.0 11022.0 24149.0 27504.0 122376.0 121207.0 35361.0 39783.0 177111.0 178780.0 118925.0 118992.0 213669.0 207213.0 90319.0 85119.0 111469.0 105231.0 19458.0 18449.0 271692.0 263472.0 106577.0 106434.0 207694.0 214258.0 238665.0 230498.0 84300.0 80869.0 40995.0 49142.0 73758.0 65730.0 188258.0 180791.0 71933.0 64511.0 37090.0 33283.0 42504.0 49740.0 106667.0 119965.0 106667.0 106667.0 119965.0 119965.0
77146.0 71978.0 12156.0 17608.0 18535.0 25570.0 95181.0 98027.0 32337.0 28938.0 117924.0 119944.0 103961.0 96325.0 38494.0 43606.0 139577.0 134523.0 175327.0 174202.0 102476.0 95528.0 53062.0 45589.0 93577.0 86862.0 26028.0 20020.0 120110.0 122112.0 118472.0 121545.0 87260.0 79032.0 8753.0 7401.0 89866.0 91210.0 49935.0 56543.0 50294.0 45967.0 239560.0 233856.0 166399.0 166115.0 25389.0 18403.0 274826.0 273594.0 84125.0 83266.0 31099.0 38598.0 118330.0 111347.0 84568.0 77196.0 90072.0 83138.0 97835.0 102427.0 72611.0 80760.0 108021.0 108189.0 8078.0 0.0 267401.0 274229.0 42557.0 34560.0 117740.0 112997.0 125359.0 120098.0 92160.0 84234.0 246025.0 247702.0 14296.0 22393.0 118212.0 112743.0 59338.0 61684.0 123807.0 126336.0 173738.0 178399.0 24509.0 31342.0 18360.0 22983.0 40118.0 47611.0 30176.0 26855.0 35448.0 41624.0 141673.0 149237.0 248476.0 255865.0 84289.0 85984.0 24423.0 31765.0 104298.0 109482.0 115222.0 113647.0 106255.0 98345.0 47387.0 40788.0 199340.0 199809.0 23702.0 18274.0 28009.0 32950.0 124932.0 123251.0 39454.0 45020.0 169055.0 170705.0 124940.0 124628.0 215344.0 208712.0 93622.0 88954.0 114830.0 108943.0 27438.0 25504.0 273987.0 265756.0 112317.0 112555.0 209396.0 216129.0 242285.0 234117.0 88265.0 84564.0 45283.0 53221.0 77672.0 69490.0 189640.0 182091.0 71088.0 63366.0 35441.0 33340.0 40756.0 48654.0 113965.0 124850.0 113965.0 113965.0 124850.0 124850.0
308141.0 309475.0 276028.0 283732.0 252020.0 249417.0 358019.0 362530.0 288817.0 280886.0 374779.0 379233.0 180856.0 188892.0 305889.0 310631.0 345139.0 337129.0 93851.0 97502.0 350298.0 346449.0 317703.0 311321.0 355759.0 350650.0 256973.0 263481.0 322179.0 319528.0 151827.0 151608.0 336741.0 330362.0 275913.0 269975.0 180298.0 177025.0 224007.0 216900.0 229133.0 236944.0 39872.0 47798.0 115679.0 120759.0 270738.0 273574.0 18761.0 11333.0 348413.0 345439.0 237138.0 229245.0 367697.0 363065.0 344264.0 338466.0 339457.0 335587.0 312314.0 320006.0 339782.0 347949.0 321451.0 326882.0 263782.0 267401.0 0.0 8022.0 240689.0 247639.0 340323.0 340239.0 318823.0 320498.0 302593.0 296859.0 31693.0 25269.0 262182.0 258141.0 384108.0 379346.0 321407.0 326120.0 156887.0 159764.0 98138.0 91057.0 286037.0 288341.0 285205.0 290344.0 295271.0 298650.0 282022.0 274024.0 239712.0 239245.0 375416.0 383144.0 31096.0 30657.0 311980.0 307068.0 257429.0 250549.0 167031.0 160072.0 358460.0 361253.0 334027.0 326547.0 307308.0 299241.0 68247.0 69542.0 246459.0 254328.0 239746.0 236842.0 366147.0 368311.0 228424.0 224819.0 370649.0 377022.0 331298.0 335948.0 83884.0 91195.0 333345.0 325521.0 350913.0 342959.0 259615.0 267503.0 54703.0 53717.0 324880.0 320022.0 86327.0 78936.0 25228.0 33284.0 179525.0 182930.0 290742.0 297189.0 316072.0 310854.0 104152.0 110307.0 209956.0 217076.0 300591.0 295486.0 235343.0 227303.0 305958.0 149265.0 305958.0 305958.0 149265.0 149265.0
314161.0 315627.0 282879.0 290585.0 258865.0 256192.0 364872.0 369383.0 295670.0 287739.0 381173.0 385713.0 186716.0 194823.0 312721.0 317484.0 350269.0 342249.0 100265.0 103529.0 357151.0 353302.0 324556.0 318174.0 362408.0 357385.0 263660.0 270242.0 329032.0 326381.0 158349.0 157880.0 343594.0 337215.0 282753.0 276828.0 187151.0 183878.0 230860.0 223753.0 235638.0 243425.0 43059.0 51003.0 120850.0 125641.0 277591.0 280427.0 13501.0 5638.0 355177.0 352108.0 243990.0 236097.0 374550.0 369918.0 351117.0 345319.0 345727.0 341959.0 319167.0 326859.0 346555.0 354722.0 328304.0 333735.0 270635.0 274229.0 8022.0 0.0 247199.0 254242.0 347176.0 347092.0 323894.0 325715.0 309446.0 303712.0 34728.0 29390.0 269042.0 264886.0 390961.0 386199.0 328127.0 332929.0 162699.0 165308.0 104990.0 97910.0 292889.0 295194.0 292054.0 297161.0 302124.0 305503.0 288875.0 280876.0 246415.0 245799.0 382269.0 389997.0 33550.0 31136.0 318832.0 313920.0 264143.0 257179.0 173884.0 166925.0 364478.0 367384.0 340880.0 333400.0 314161.0 306094.0 75015.0 75764.0 253312.0 261181.0 246598.0 243695.0 373000.0 375164.0 235277.0 231672.0 375496.0 381954.0 338151.0 342800.0 86551.0 94124.0 340198.0 332374.0 357766.0 349812.0 266468.0 274355.0 51147.0 51322.0 331733.0 326875.0 89458.0 81813.0 32458.0 40238.0 186377.0 189783.0 297595.0 304042.0 322925.0 317707.0 108085.0 114526.0 216249.0 223451.0 307444.0 302339.0 241989.0 233899.0 312811.0 156118.0 312811.0 312811.0 156118.0 156118.0
72422.0 71493.0 43732.0 51451.0 24996.0 17130.0 134909.0 136619.0 74821.0 70548.0 134240.0 138547.0 65938.0 57677.0 74147.0 81382.0 127135.0 120410.0 146936.0 144243.0 144989.0 137937.0 93219.0 85246.0 115490.0 111035.0 19087.0 26973.0 157049.0 157785.0 88864.0 89719.0 129788.0 121542.0 47496.0 39722.0 75984.0 73495.0 55161.0 57754.0 11562.0 4035.0 209498.0 203099.0 132428.0 130903.0 64263.0 59634.0 246127.0 245868.0 109111.0 105318.0 37576.0 37306.0 160670.0 153540.0 125800.0 118114.0 99686.0 95196.0 136533.0 141969.0 108275.0 116026.0 146988.0 148162.0 45831.0 42557.0 240689.0 247199.0 0.0 8574.0 158627.0 154410.0 106586.0 103599.0 129597.0 121610.0 216607.0 219245.0 29566.0 21950.0 154942.0 148543.0 81874.0 87648.0 88356.0 89222.0 151470.0 154584.0 67028.0 73842.0 53825.0 61390.0 82644.0 89997.0 71871.0 66766.0 10339.0 2658.0 184032.0 191645.0 218894.0 225816.0 124862.0 125398.0 20287.0 11854.0 89304.0 91614.0 121112.0 122528.0 147582.0 139517.0 89555.0 83278.0 172503.0 171499.0 42227.0 46076.0 35100.0 42357.0 167483.0 165777.0 37761.0 46114.0 157106.0 160676.0 163085.0 163800.0 180687.0 173532.0 135936.0 130918.0 157127.0 151012.0 60059.0 62871.0 241027.0 232817.0 151288.0 150462.0 174891.0 182139.0 215666.0 207462.0 69617.0 64904.0 86820.0 94954.0 119565.0 111497.0 154293.0 146572.0 32491.0 24578.0 76242.0 75511.0 8902.0 14049.0 146755.0 108273.0 146755.0 146755.0 108273.0 108273.0
68639.0 66869.0 35171.0 42877.0 18022.0 10000.0 126337.0 128050.0 66896.0 63001.0 127772.0 131791.0 74249.0 66043.0 65593.0 72808.0 125789.0 119384.0 154028.0 151579.0 136801.0 129673.0 84674.0 76692.0 108189.0 103454.0 10548.0 18410.0 151065.0 152125.0 95921.0 97168.0 121626.0 113359.0 39072.0 31295.0 79765.0 78030.0 54148.0 57730.0 19246.0 12518.0 216959.0 210655.0 140342.0 138984.0 57301.0 52121.0 253423.0 253017.0 101433.0 97931.0 34698.0 36245.0 152364.0 145184.0 117299.0 109593.0 93897.0 88986.0 130032.0 135240.0 99777.0 107557.0 140434.0 141312.0 38517.0 34560.0 247639.0 254242.0 8574.0 0.0 151488.0 147071.0 106532.0 102960.0 123410.0 115410.0 223980.0 226476.0 21150.0 13389.0 146438.0 140082.0 74211.0 79725.0 96377.0 97475.0 157533.0 160928.0 58906.0 65902.0 45255.0 52842.0 74672.0 82153.0 64302.0 59621.0 9609.0 8830.0 176220.0 183794.0 226294.0 233292.0 117787.0 118671.0 11714.0 3298.0 93535.0 96452.0 116148.0 117087.0 140272.0 132257.0 81236.0 75106.0 179403.0 178634.0 37483.0 40153.0 31671.0 39449.0 159444.0 157601.0 36857.0 45389.0 155850.0 159027.0 156791.0 157215.0 188753.0 181657.0 128153.0 123327.0 149358.0 143377.0 54114.0 56170.0 248920.0 240702.0 144741.0 144207.0 182932.0 190121.0 222552.0 214377.0 74272.0 69676.0 79349.0 87428.0 112000.0 103874.0 162421.0 154713.0 40702.0 32721.0 67758.0 67217.0 12502.0 20344.0 141709.0 113029.0 141709.0 141709.0 113029.0 113029.0
178340.0 170758.0 122685.0 118506.0 133683.0 141689.0 82408.0 90428.0 86653.0 88803.0 174433.0 170525.0 208662.0 202806.0 108280.0 100942.0 237309.0 234750.0 253659.0 255840.0 44359.0 50205.0 88258.0 93772.0 148345.0 140155.0 143751.0 137465.0 32612.0 40607.0 207853.0 213987.0 48315.0 53560.0 116410.0 123169.0 164241.0 170558.0 126688.0 132007.0 163427.0 161379.0 316408.0 312246.0 257176.0 259511.0 94372.0 99517.0 348535.0 346595.0 137163.0 143512.0 128029.0 134069.0 52132.0 54954.0 70489.0 74932.0 169593.0 161787.0 28077.0 20325.0 103015.0 104983.0 20418.0 13538.0 112971.0 117740.0 340323.0 347176.0 158627.0 151488.0 0.0 7927.0 231251.0 224421.0 37857.0 43598.0 321550.0 321759.0 132032.0 140113.0 107044.0 109961.0 134599.0 128646.0 221997.0 227176.0 243701.0 249557.0 95612.0 87696.0 116010.0 108788.0 79829.0 71769.0 87568.0 91891.0 149529.0 157078.0 36858.0 44010.0 324172.0 332057.0 33789.0 34896.0 142143.0 149035.0 174340.0 182344.0 192234.0 186094.0 12431.0 19535.0 79936.0 81908.0 273093.0 275808.0 119385.0 113448.0 128371.0 124669.0 37740.0 44860.0 134417.0 131612.0 262959.0 261813.0 25547.0 17873.0 303774.0 298825.0 31851.0 31470.0 23189.0 18996.0 100117.0 95932.0 355129.0 347194.0 18777.0 26267.0 297859.0 302907.0 315206.0 307039.0 170102.0 169242.0 72475.0 64713.0 41364.0 49518.0 281454.0 274853.0 180629.0 174238.0 95068.0 90574.0 154173.0 160136.0 64505.0 192835.0 64505.0 64505.0 192835.0 192835.0
171725.0 164083.0 117358.0 112852.0 129418.0 137374.0 74484.0 82510.0 81414.0 84128.0 166617.0 162660.0 206112.0 200038.0 101697.0 94191.0 230262.0 227826.0 253575.0 255592.0 36518.0 42278.0 81254.0 87029.0 140620.0 132462.0 139022.0 132525.0 38864.0 46807.0 206645.0 212580.0 40552.0 46082.0 111203.0 118152.0 163574.0 169652.0 124857.0 130458.0 159658.0 157285.0 316324.0 312162.0 256185.0 258303.0 90310.0 94962.0 348451.0 346511.0 129490.0 135919.0 124940.0 131265.0 45155.0 47480.0 62618.0 67189.0 162243.0 154470.0 29373.0 21744.0 95343.0 97178.0 24167.0 16208.0 108610.0 112997.0 340239.0 347092.0 154410.0 147071.0 7927.0 0.0 224655.0 217750.0 38942.0 43503.0 321467.0 321676.0 127251.0 135389.0 99290.0 102108.0 127494.0 121396.0 220150.0 225113.0 243617.0 249474.0 90286.0 82457.0 110317.0 102933.0 74324.0 66292.0 82855.0 87668.0 145540.0 152956.0 35263.0 42921.0 324089.0 331973.0 30415.0 33364.0 137419.0 144523.0 174146.0 182074.0 184699.0 178486.0 6880.0 15070.0 73562.0 76036.0 273009.0 275725.0 116018.0 109762.0 125072.0 121786.0 32115.0 38598.0 131657.0 129316.0 255693.0 254451.0 32767.0 25480.0 303189.0 298074.0 24343.0 25025.0 16390.0 11157.0 96752.0 92079.0 354969.0 347070.0 23799.0 31391.0 297249.0 302461.0 315123.0 306955.0 169011.0 167935.0 67755.0 59779.0 35664.0 43924.0 280485.0 273772.0 177391.0 170809.0 88856.0 84746.0 150300.0 156529.0 68264.0 192751.0 68264.0 68264.0 192751.0 192751.0
52931.0 60640.0 115320.0 116389.0 119918.0 114115.0 170158.0 166440.0 148379.0 149819.0 100271.0 108358.0 141428.0 134606.0 122977.0 130510.0 26537.0 18525.0 228349.0 222868.0 199767.0 191445.0 143891.0 137655.0 105988.0 109749.0 106137.0 107599.0 241660.0 244893.0 176440.0 173250.0 187516.0 180115.0 121905.0 118036.0 179700.0 175461.0 160679.0 164054.0 113959.0 107864.0 281803.0 274212.0 203145.0 198274.0 149981.0 141792.0 319271.0 321170.0 110975.0 102797.0 140737.0 142768.0 209504.0 201395.0 171251.0 163809.0 73616.0 78812.0 217837.0 220623.0 138094.0 141291.0 227058.0 225063.0 133133.0 125359.0 318823.0 323894.0 106586.0 106532.0 231251.0 224655.0 0.0 7871.0 214115.0 206581.0 289912.0 294522.0 113853.0 108746.0 172450.0 164324.0 99416.0 106923.0 164080.0 159855.0 242074.0 242821.0 139668.0 147417.0 118446.0 124360.0 153563.0 161324.0 150615.0 150581.0 115443.0 109230.0 243654.0 249812.0 291665.0 297019.0 201255.0 205417.0 107323.0 106292.0 191450.0 191710.0 68714.0 76632.0 218835.0 212204.0 151364.0 150330.0 254388.0 250676.0 141106.0 140536.0 137403.0 145338.0 223491.0 218235.0 143363.0 151892.0 53141.0 58642.0 244673.0 242490.0 242937.0 234884.0 200982.0 199803.0 220059.0 216970.0 152534.0 150652.0 303349.0 295771.0 231141.0 233112.0 238281.0 246331.0 295577.0 287384.0 171445.0 166682.0 163727.0 169806.0 190255.0 182444.0 217594.0 210437.0 122273.0 118663.0 136530.0 142053.0 115485.0 118526.0 238750.0 207941.0 238750.0 238750.0 207941.0 207941.0
46124.0 53669.0 109738.0 110430.0 115583.0 110113.0 162508.0 158716.0 142185.0 143900.0 92695.0 100758.0 141932.0 134839.0 116149.0 123563.0 25062.0 17383.0 229346.0 224082.0 192438.0 184116.0 136820.0 130722.0 98117.0 101898.0 101877.0 102857.0 235405.0 238786.0 176455.0 173600.0 180335.0 173004.0 116270.0 112731.0 177731.0 173790.0 157013.0 160663.0 111560.0 105139.0 283866.0 276343.0 204872.0 200220.0 144434.0 136155.0 321393.0 323109.0 103143.0 94963.0 136775.0 139184.0 201988.0 193883.0 163812.0 156420.0 65748.0 70991.0 211488.0 214120.0 130514.0 133604.0 220601.0 218453.0 127966.0 120098.0 320498.0 325715.0 103599.0 102960.0 224421.0 217750.0 7871.0 0.0 207970.0 200503.0 291922.0 296377.0 109046.0 104323.0 164593.0 156468.0 92011.0 99433.0 164968.0 161079.0 242211.0 243219.0 133561.0 141237.0 112410.0 118095.0 147176.0 154869.0 144657.0 144910.0 112086.0 106218.0 236318.0 242420.0 293727.0 299233.0 194735.0 199060.0 102992.0 102502.0 189820.0 190410.0 61312.0 69120.0 211996.0 205457.0 144613.0 143809.0 255475.0 251998.0 136667.0 135731.0 133371.0 141306.0 216111.0 210779.0 139810.0 148341.0 54019.0 58633.0 238232.0 235903.0 245607.0 237572.0 193981.0 192956.0 212901.0 209930.0 147412.0 145227.0 306293.0 298639.0 224656.0 226773.0 240837.0 248874.0 297013.0 288791.0 169775.0 164992.0 157518.0 163436.0 183539.0 175792.0 220014.0 212758.0 121160.0 117096.0 129917.0 135622.0 112465.0 116004.0 233058.0 206777.0 233058.0 233058.0 206777.0 206777.0
162266.0 155351.0 99906.0 97813.0 105405.0 113410.0 92809.0 100765.0 65791.0 64669.0 173638.0 171387.0 174069.0 168749.0 94713.0 89330.0 224045.0 220348.0 215929.0 218129.0 62932.0 64129.0 80163.0 82718.0 146169.0 137631.0 117227.0 112124.0 27956.0 30848.0 170972.0 177344.0 56691.0 56444.0 93263.0 98720.0 126882.0 133415.0 91176.0 95921.0 132661.0 131823.0 278678.0 274516.0 219994.0 222555.0 66908.0 73984.0 310805.0 308865.0 134385.0 139106.0 95667.0 100765.0 77541.0 76652.0 77378.0 78026.0 160947.0 152943.0 9783.0 17574.0 102051.0 106722.0 19247.0 24339.0 85830.0 92160.0 302593.0 309446.0 129597.0 123410.0 37857.0 38942.0 214115.0 207970.0 0.0 8000.0 283821.0 284030.0 106094.0 113667.0 121595.0 122064.0 124369.0 120269.0 185994.0 191532.0 205971.0 211828.0 74447.0 66734.0 95688.0 89912.0 61349.0 54290.0 63749.0 65320.0 119791.0 127706.0 74009.0 81486.0 286443.0 294328.0 20956.0 12705.0 115640.0 121415.0 136643.0 144680.0 185563.0 180699.0 33760.0 28234.0 67413.0 65533.0 235363.0 238079.0 88127.0 83522.0 96663.0 91759.0 69152.0 73949.0 100987.0 97047.0 251718.0 251715.0 33542.0 35431.0 266234.0 261405.0 43029.0 35505.0 52718.0 44794.0 69544.0 67481.0 317399.0 309464.0 23163.0 20893.0 260338.0 265282.0 277477.0 269310.0 133166.0 132588.0 50482.0 45297.0 34802.0 38536.0 244231.0 237746.0 147979.0 142225.0 79678.0 72949.0 123921.0 128870.0 33292.0 155105.0 33292.0 33292.0 155105.0 155105.0
154909.0 148079.0 92130.0 90216.0 97405.0 105410.0 90303.0 98094.0 58407.0 56945.0 168266.0 166296.0 166669.0 161237.0 87966.0 82921.0 216867.0 213059.0 210178.0 212325.0 63128.0 63278.0 74456.0 76485.0 140718.0 132179.0 109243.0 104180.0 35883.0 38321.0 164385.0 170627.0 55079.0 53685.0 85480.0 90839.0 120644.0 126994.0 83940.0 88899.0 124745.0 123851.0 272944.0 268782.0 213615.0 216023.0 58950.0 66105.0 305071.0 303131.0 128915.0 133347.0 87842.0 93063.0 78702.0 76989.0 74554.0 74427.0 154468.0 146469.0 16165.0 23438.0 97214.0 102304.0 26463.0 30377.0 77854.0 84234.0 296859.0 303712.0 121610.0 115410.0 43598.0 43503.0 206581.0 200503.0 8000.0 0.0 278087.0 278296.0 98135.0 105687.0 119490.0 119445.0 117852.0 114042.0 179003.0 184420.0 200237.0 206094.0 66942.0 59327.0 88136.0 82542.0 54351.0 47611.0 56062.0 57410.0 111819.0 119727.0 78764.0 86413.0 280709.0 288594.0 19599.0 11791.0 107658.0 113416.0 130833.0 138810.0 179269.0 174600.0 37602.0 30861.0 61228.0 58771.0 229629.0 232345.0 80200.0 75534.0 88779.0 83989.0 72026.0 76098.0 93304.0 89567.0 244723.0 244851.0 41497.0 43027.0 260183.0 255227.0 43208.0 35168.0 55813.0 47749.0 61562.0 59491.0 311665.0 303730.0 30581.0 28857.0 254265.0 259338.0 271743.0 263576.0 126602.0 125860.0 43191.0 38573.0 31912.0 34071.0 237884.0 231315.0 140240.0 134413.0 72842.0 65892.0 115972.0 120984.0 35337.0 149371.0 35337.0 35337.0 149371.0 149371.0
281920.0 283734.0 254011.0 261852.0 229897.0 226647.0 338063.0 342297.0 268858.0 261033.0 349924.0 354745.0 154361.0 162617.0 284386.0 289531.0 316347.0 308320.0 70701.0 72404.0 331585.0 327534.0 297244.0 290614.0 332090.0 327419.0 233713.0 240588.0 303406.0 300755.0 128290.0 126889.0 317839.0 311295.0 254373.0 248089.0 160844.0 156959.0 204393.0 197370.0 205066.0 212741.0 8332.0 16285.0 87382.0 91704.0 250906.0 253294.0 29764.0 31355.0 325340.0 321884.0 216361.0 208408.0 348912.0 344204.0 324634.0 318621.0 314135.0 310689.0 293541.0 301234.0 318623.0 326778.0 302679.0 308109.0 242910.0 246025.0 31693.0 34728.0 216607.0 223980.0 321550.0 321467.0 289912.0 291922.0 283821.0 278087.0 0.0 7469.0 239840.0 235180.0 363575.0 358541.0 298157.0 303326.0 130329.0 132321.0 80262.0 72997.0 265627.0 268336.0 263473.0 269008.0 275524.0 279223.0 262205.0 254222.0 216588.0 215373.0 356644.0 364372.0 2678.0 10717.0 293207.0 288295.0 234303.0 227017.0 148046.0 140773.0 332173.0 335375.0 315255.0 307774.0 287347.0 279308.0 48507.0 46375.0 225907.0 233850.0 218769.0 216412.0 347375.0 349497.0 207612.0 204597.0 341256.0 347795.0 312526.0 317175.0 52203.0 59589.0 314523.0 306749.0 332141.0 324187.0 239896.0 247703.0 39744.0 34295.0 306107.0 301250.0 54816.0 47301.0 22567.0 22884.0 159146.0 162197.0 271476.0 278116.0 297295.0 292095.0 73415.0 79983.0 185014.0 192459.0 279928.0 275161.0 211945.0 203681.0 287186.0 129679.0 287186.0 287186.0 129679.0 129679.0
285391.0 287023.0 255949.0 263742.0 231858.0 228840.0 339094.0 343477.0 269873.0 261987.0 352914.0 357605.0 157845.0 166022.0 286135.0 291110.0 320907.0 312886.0 72587.0 75076.0 331771.0 327887.0 298528.0 292015.0 334657.0 329835.0 236079.0 242835.0 303615.0 300964.0 130593.0 129627.0 318181.0 311760.0 256122.0 249972.0 161520.0 157964.0 205189.0 198112.0 207687.0 215419.0 14879.0 22671.0 91543.0 96258.0 251845.0 254472.0 27124.0 26905.0 327702.0 324407.0 217757.0 209826.0 349080.0 344515.0 325473.0 319585.0 317281.0 313679.0 293750.0 301443.0 320239.0 328402.0 302888.0 308318.0 244366.0 247702.0 25269.0 29390.0 219245.0 226476.0 321759.0 321676.0 294522.0 296377.0 284030.0 278296.0 7469.0 0.0 241902.0 237445.0 364912.0 360008.0 300565.0 305582.0 133802.0 136174.0 79626.0 72546.0 266875.0 269376.0 265305.0 270680.0 276422.0 279928.0 263139.0 255145.0 218892.0 217936.0 356853.0 364581.0 8434.0 14253.0 293416.0 288504.0 236624.0 229471.0 148413.0 141340.0 335689.0 338735.0 315464.0 307983.0 288368.0 280312.0 48819.0 47969.0 227205.0 235117.0 220256.0 217646.0 347584.0 349747.0 209018.0 205721.0 346107.0 352566.0 312734.0 317384.0 58849.0 66024.0 314782.0 306958.0 332350.0 324396.0 240767.0 248622.0 44580.0 40002.0 306316.0 301459.0 61101.0 53812.0 16121.0 18508.0 160306.0 163523.0 272075.0 278582.0 297509.0 292319.0 78967.0 85255.0 187932.0 195266.0 281304.0 276370.0 214338.0 206144.0 287395.0 129575.0 287395.0 287395.0 129575.0 129575.0
68238.0 64138.0 14737.0 22732.0 10523.0 13816.0 105696.0 107770.0 46286.0 43232.0 117041.0 119996.0 93660.0 85696.0 45812.0 52486.0 129700.0 124183.0 169321.0 167584.0 115737.0 108555.0 63801.0 55897.0 94680.0 88870.0 11801.0 6326.0 134015.0 135790.0 111612.0 113882.0 100588.0 92306.0 17932.0 10156.0 87949.0 88037.0 52658.0 58309.0 38736.0 33290.0 233104.0 227106.0 158134.0 157323.0 39187.0 32657.0 268983.0 268134.0 86463.0 84254.0 31702.0 37469.0 131225.0 124034.0 96259.0 88609.0 86190.0 80001.0 111975.0 116666.0 80395.0 88372.0 122206.0 122463.0 20395.0 14296.0 262182.0 269042.0 29566.0 21150.0 132032.0 127251.0 113853.0 109046.0 106094.0 98135.0 239840.0 241902.0 0.0 8199.0 126861.0 120836.0 59929.0 64018.0 114725.0 116559.0 169995.0 174119.0 37997.0 45269.0 24855.0 32055.0 53946.0 61615.0 44464.0 40935.0 24404.0 29103.0 155583.0 163098.0 242231.0 249447.0 98582.0 100196.0 10213.0 18087.0 102338.0 106639.0 110487.0 109929.0 120521.0 112626.0 60099.0 54093.0 194027.0 193933.0 28372.0 26692.0 28052.0 35255.0 138521.0 136541.0 38317.0 45729.0 159522.0 161691.0 139038.0 138847.0 206917.0 200041.0 107605.0 103110.0 128806.0 123045.0 39105.0 38838.0 266389.0 258155.0 126506.0 126604.0 201022.0 207992.0 237097.0 228911.0 84699.0 80552.0 59566.0 67472.0 91860.0 83653.0 180854.0 173211.0 60205.0 52259.0 46691.0 46097.0 29672.0 38080.0 126955.0 122677.0 126955.0 126955.0 122677.0 122677.0
65520.0 62276.0 21783.0 29528.0 11320.0 8890.0 112962.0 114744.0 54484.0 51315.0 118919.0 122371.0 87115.0 79009.0 52373.0 59471.0 125786.0 119946.0 164875.0 162809.0 123837.0 116604.0 71287.0 63302.0 97802.0 92510.0 3638.0 5435.0 141542.0 143121.0 106897.0 108705.0 108707.0 100418.0 25871.0 18128.0 86268.0 85626.0 54325.0 59276.0 31946.0 25832.0 228305.0 222159.0 152492.0 151402.0 46820.0 40643.0 264475.0 263831.0 90293.0 87421.0 33315.0 37651.0 139230.0 131986.0 103942.0 96219.0 86597.0 80934.0 119746.0 124563.0 86726.0 94582.0 130025.0 130423.0 27840.0 22393.0 258141.0 264886.0 21950.0 13389.0 140113.0 135389.0 108746.0 104323.0 113667.0 105687.0 235180.0 237445.0 8199.0 0.0 133349.0 127108.0 63278.0 68148.0 108762.0 110216.0 166800.0 170614.0 46179.0 53467.0 31880.0 39454.0 62143.0 69813.0 52563.0 48744.0 18615.0 21845.0 163780.0 171291.0 237535.0 244651.0 106605.0 108058.0 2030.0 10172.0 100489.0 104247.0 110144.0 110212.0 128648.0 120732.0 68124.0 62236.0 189907.0 189506.0 32365.0 32432.0 29715.0 37514.0 146680.0 144642.0 38440.0 46531.0 155765.0 158295.0 146751.0 146707.0 201111.0 194118.0 115804.0 111291.0 137004.0 131237.0 45687.0 46222.0 260956.0 252728.0 134329.0 134271.0 195252.0 202337.0 233024.0 224856.0 82098.0 77740.0 67671.0 75611.0 100032.0 91832.0 174897.0 167216.0 53543.0 45547.0 54427.0 54165.0 23523.0 31994.0 133796.0 120562.0 133796.0 133796.0 120562.0 120562.0
126212.0 118693.0 112125.0 104131.0 135672.0 140676.0 29522.0 22637.0 95864.0 103979.0 83725.0 77010.0 220431.0 212357.0 81060.0 74711.0 167153.0 167893.0 292927.0 292162.0 62862.0 58587.0 66405.0 72989.0 66979.0 62715.0 135891.0 128079.0 136157.0 143559.0 236615.0 239751.0 64939.0 65921.0 110354.0 117412.0 204234.0 207086.0 160716.0 167908.0 165288.0 158942.0 357318.0 351794.0 284526.0 284020.0 114049.0 110563.0 392011.0 390374.0 61690.0 69797.0 147215.0 155171.0 58112.0 52806.0 45521.0 48315.0 98901.0 93802.0 116637.0 112701.0 46669.0 39078.0 118678.0 111535.0 120712.0 118212.0 384108.0 390961.0 154942.0 146438.0 107044.0 99290.0 172450.0 164593.0 121595.0 119490.0 363575.0 364912.0 126861.0 133349.0 0.0 8126.0 81239.0 73221.0 241497.0 243415.0 288839.0 294210.0 98071.0 96223.0 102055.0 95496.0 90261.0 88942.0 102970.0 110891.0 151262.0 155144.0 94648.0 97329.0 366068.0 373571.0 100692.0 109030.0 134802.0 143141.0 218164.0 224458.0 111859.0 103722.0 98148.0 97782.0 77634.0 85657.0 316238.0 317229.0 137708.0 129800.0 144860.0 147280.0 76183.0 68065.0 155965.0 159295.0 185364.0 181668.0 131762.0 124766.0 333441.0 326701.0 80265.0 86600.0 84717.0 88136.0 125317.0 117326.0 392183.0 383953.0 120426.0 127123.0 327508.0 334305.0 358991.0 350824.0 204623.0 201407.0 97643.0 93676.0 87588.0 87049.0 307561.0 299952.0 186878.0 178887.0 83651.0 88653.0 156501.0 164936.0 154576.0 238386.0 154576.0 154576.0 238386.0 238386.0
118208.0 110723.0 106125.0 98119.0 129889.0 134629.0 29260.0 21351.0 91922.0 100071.0 76301.0 69807.0 214223.0 206091.0 75050.0 69137.0 159137.0 159822.0 287853.0 286908.0 65601.0 60462.0 61935.0 68026.0 58904.0 54590.0 129546.0 121788.0 138081.0 145302.0 231214.0 234161.0 65821.0 65777.0 104691.0 111571.0 199783.0 202386.0 156455.0 163650.0 159051.0 152558.0 352187.0 346561.0 278796.0 278139.0 110035.0 106065.0 387123.0 385617.0 53581.0 61679.0 142253.0 150182.0 62810.0 56811.0 44899.0 46348.0 90780.0 85681.0 117688.0 114230.0 40441.0 32528.0 120421.0 113547.0 115646.0 112743.0 379346.0 386199.0 148543.0 140082.0 109961.0 102108.0 164324.0 156468.0 122064.0 119445.0 358541.0 360008.0 120836.0 127108.0 8126.0 0.0 73595.0 65644.0 235558.0 237296.0 284421.0 289649.0 93486.0 92205.0 96137.0 89864.0 86774.0 86136.0 99130.0 106956.0 145201.0 148833.0 99948.0 103071.0 361016.0 368468.0 101108.0 109398.0 128504.0 136788.0 213831.0 219960.0 103987.0 95895.0 100446.0 99429.0 74024.0 81929.0 311415.0 312234.0 132892.0 125051.0 139776.0 142534.0 80878.0 72917.0 150990.0 154648.0 177608.0 174016.0 134217.0 127495.0 327663.0 320848.0 81840.0 87647.0 88184.0 90968.0 121297.0 113311.0 386689.0 378456.0 122424.0 128879.0 321748.0 328620.0 354230.0 346063.0 199822.0 196492.0 94881.0 91514.0 87581.0 86277.0 301675.0 294041.0 180648.0 172650.0 78762.0 84239.0 150399.0 158859.0 154719.0 234156.0 154719.0 154719.0 234156.0 234156.0
47826.0 39868.0 47951.0 41818.0 70432.0 72056.0 71940.0 69521.0 62114.0 67486.0 58698.0 60637.0 147238.0 138841.0 30266.0 35072.0 102784.0 100609.0 228035.0 225754.0 100463.0 92146.0 46390.0 41919.0 34757.0 29270.0 64489.0 57973.0 150081.0 154767.0 169972.0 171379.0 88784.0 81825.0 50883.0 54158.0 147675.0 147961.0 109263.0 115789.0 93302.0 85844.0 291165.0 284864.0 214272.0 212574.0 73253.0 65211.0 327552.0 327022.0 27238.0 24330.0 89709.0 96547.0 110214.0 102100.0 71841.0 64409.0 36620.0 28627.0 125785.0 126965.0 39479.0 44272.0 133737.0 130330.0 66134.0 59338.0 321407.0 328127.0 81874.0 74211.0 134599.0 127494.0 99416.0 92011.0 124369.0 117852.0 298157.0 300565.0 59929.0 63278.0 81239.0 73595.0 0.0 8174.0 170144.0 170590.0 229835.0 233807.0 56022.0 61485.0 41642.0 41425.0 63979.0 70246.0 67580.0 71876.0 81714.0 82906.0 144328.0 150410.0 300482.0 307500.0 107835.0 113603.0 63985.0 71145.0 162105.0 166554.0 61702.0 57908.0 122216.0 116414.0 57130.0 59170.0 253167.0 252662.0 83036.0 77139.0 86290.0 92112.0 124099.0 118833.0 97414.0 103907.0 128593.0 127925.0 151229.0 147744.0 262346.0 255079.0 103295.0 103325.0 121360.0 118938.0 81749.0 75657.0 322868.0 314663.0 137482.0 140848.0 256592.0 263915.0 296285.0 288123.0 144626.0 140455.0 75722.0 79283.0 95117.0 88133.0 235853.0 228111.0 114216.0 106403.0 45399.0 53022.0 86229.0 94478.0 153675.0 182518.0 153675.0 153675.0 182518.0 182518.0
55781.0 47847.0 51009.0 44102.0 74394.0 76754.0 63920.0 61372.0 60115.0 66212.0 58137.0 58974.0 153362.0 145000.0 28282.0 31263.0 109242.0 107421.0 233004.0 230947.0 93329.0 85032.0 40928.0 37567.0 32111.0 25187.0 69687.0 62749.0 145385.0 150359.0 175045.0 176739.0 82135.0 75463.0 52996.0 57250.0 151063.0 151741.0 111472.0 118192.0 98939.0 91657.0 296430.0 290235.0 220045.0 218539.0 72910.0 65269.0 332620.0 331933.0 22548.0 22106.0 92587.0 99731.0 102584.0 94474.0 64413.0 57164.0 41168.0 33244.0 121139.0 121908.0 31479.0 36102.0 128724.0 124966.0 67886.0 61684.0 326120.0 332929.0 87648.0 79725.0 128646.0 121396.0 106923.0 99433.0 120269.0 114042.0 303326.0 305582.0 64018.0 68148.0 73221.0 65644.0 8174.0 0.0 176003.0 176708.0 233953.0 238135.0 54996.0 59600.0 43443.0 41693.0 61003.0 66650.0 66141.0 71198.0 86739.0 88509.0 137123.0 143073.0 305677.0 312774.0 102990.0 109120.0 69039.0 76570.0 165515.0 170262.0 65300.0 60611.0 116325.0 110820.0 52863.0 55891.0 257923.0 257634.0 85287.0 78891.0 89291.0 94635.0 116803.0 111351.0 100598.0 106660.0 134313.0 133274.0 146093.0 142293.0 268324.0 261133.0 97098.0 97585.0 114634.0 112535.0 82140.0 75544.0 328635.0 320419.0 132363.0 136049.0 262536.0 269785.0 301016.0 292841.0 148520.0 144470.0 72812.0 75628.0 89888.0 83240.0 241896.0 234166.0 120115.0 112226.0 42780.0 50671.0 91452.0 99815.0 150345.0 186013.0 150345.0 150345.0 186013.0 186013.0
151612.0 153429.0 129433.0 137439.0 105876.0 100949.0 218939.0 221798.0 152004.0 145189.0 219924.0 224994.0 24044.0 32296.0 160515.0 166853.0 189920.0 181994.0 64393.0 59505.0 221145.0 215400.0 176851.0 169379.0 203250.0 199192.0 106687.0 114171.0 208913.0 206530.0 22372.0 14598.0 206168.0 198516.0 131257.0 124087.0 63979.0 56086.0 95327.0 90104.0 77131.0 84352.0 122787.0 115945.0 44185.0 42641.0 135791.0 135495.0 160087.0 160702.0 197361.0 193247.0 98550.0 91033.0 238115.0 231987.0 207592.0 200559.0 183936.0 180729.0 195156.0 202327.0 195117.0 203095.0 205232.0 209236.0 122852.0 123807.0 156887.0 162699.0 88356.0 96377.0 221997.0 220150.0 164080.0 164968.0 185994.0 179003.0 130329.0 133802.0 114725.0 108762.0 241497.0 235558.0 170144.0 176003.0 0.0 8078.0 79946.0 79499.0 146585.0 151249.0 139456.0 146094.0 159583.0 165175.0 146517.0 139090.0 90401.0 87555.0 253949.0 261820.0 132449.0 138933.0 189936.0 187163.0 107547.0 99596.0 62433.0 55986.0 201894.0 205045.0 213413.0 205330.0 169690.0 162123.0 90576.0 87564.0 108461.0 116207.0 99787.0 100443.0 240891.0 241138.0 90444.0 91179.0 216894.0 222713.0 217522.0 221117.0 92381.0 85358.0 207529.0 200706.0 227557.0 220181.0 126276.0 133001.0 152736.0 144539.0 209128.0 205509.0 86555.0 93785.0 132704.0 124431.0 54855.0 54180.0 159014.0 166818.0 189828.0 182914.0 66146.0 58488.0 55928.0 63779.0 159205.0 156124.0 85276.0 76795.0 192960.0 64459.0 192960.0 192960.0 64459.0 64459.0
149867.0 152087.0 131296.0 139286.0 108132.0 102743.0 221508.0 224101.0 155351.0 148761.0 219028.0 224326.0 23354.0 31757.0 162355.0 168949.0 185915.0 177946.0 68623.0 63021.0 225001.0 219063.0 179381.0 171780.0 203206.0 199452.0 107927.0 115575.0 214895.0 212656.0 30444.0 22661.0 209938.0 202177.0 133497.0 126159.0 71136.0 63179.0 100528.0 95629.0 78317.0 85189.0 124575.0 117480.0 45121.0 42254.0 139568.0 138822.0 162068.0 163065.0 197734.0 193330.0 102338.0 95033.0 241853.0 235566.0 210568.0 203396.0 182819.0 179939.0 200584.0 207660.0 196878.0 204780.0 210744.0 214547.0 125871.0 126336.0 159764.0 165308.0 89222.0 97475.0 227176.0 225113.0 159855.0 161079.0 191532.0 184420.0 132321.0 136174.0 116559.0 110216.0 243415.0 237296.0 170590.0 176708.0 8078.0 0.0 86136.0 85153.0 149583.0 154561.0 141396.0 148268.0 163021.0 168864.0 150102.0 142832.0 92155.0 88653.0 258627.0 266493.0 134339.0 140539.0 194806.0 192296.0 108885.0 100741.0 70226.0 63925.0 200010.0 203463.0 218338.0 210219.0 172770.0 165336.0 94548.0 90923.0 112166.0 119773.0 103326.0 104532.0 245146.0 245159.0 94495.0 95848.0 212419.0 218412.0 223369.0 226773.0 91854.0 84499.0 211862.0 205193.0 232095.0 224819.0 130387.0 136872.0 152836.0 144693.0 214690.0 211256.0 86183.0 93702.0 135981.0 127743.0 61685.0 60636.0 162978.0 170880.0 194208.0 187135.0 65290.0 57541.0 56773.0 64758.0 161777.0 159050.0 86916.0 78480.0 199086.0 72531.0 199086.0 199086.0 72531.0 72531.0
222307.0 222456.0 183176.0 190630.0 159567.0 157931.0 262108.0 266947.0 193105.0 185067.0 285277.0 289077.0 100857.0 107468.0 212133.0 216321.0 267273.0 259495.0 28991.0 37007.0 253754.0 249830.0 222533.0 216497.0 264519.0 258865.0 166082.0 171980.0 225557.0 222906.0 65785.0 68955.0 240124.0 233752.0 182407.0 176998.0 84639.0 82530.0 128155.0 120973.0 140161.0 148040.0 76416.0 73948.0 59167.0 66595.0 174932.0 178362.0 106350.0 104410.0 256445.0 254109.0 142895.0 135177.0 271075.0 266457.0 247984.0 242462.0 251154.0 246497.0 215692.0 223384.0 245421.0 253571.0 224829.0 230260.0 169446.0 173738.0 98138.0 104990.0 151470.0 157533.0 243701.0 243617.0 242074.0 242211.0 205971.0 200237.0 80262.0 79626.0 169995.0 166800.0 288839.0 284421.0 229835.0 233953.0 79946.0 86136.0 0.0 8101.0 190936.0 192692.0 191889.0 196460.0 199262.0 202271.0 186149.0 178163.0 148891.0 149675.0 278794.0 286523.0 82938.0 90970.0 215358.0 210446.0 166334.0 160182.0 70707.0 64494.0 272107.0 273911.0 237406.0 229925.0 211534.0 203459.0 32708.0 38419.0 151806.0 159509.0 145771.0 142094.0 269526.0 271689.0 134329.0 129874.0 295181.0 300610.0 234676.0 239326.0 79602.0 79023.0 236724.0 228899.0 254292.0 246337.0 163707.0 171667.0 117041.0 109680.0 228258.0 223401.0 75191.0 76170.0 73021.0 64854.0 85536.0 89488.0 194242.0 200588.0 219450.0 214279.0 71600.0 70555.0 123513.0 129608.0 205757.0 200231.0 145035.0 137552.0 209336.0 50865.0 209336.0 209336.0 50865.0 50865.0
224740.0 225163.0 187545.0 195099.0 163759.0 161780.0 267753.0 272446.0 198632.0 190639.0 288688.0 292670.0 101394.0 108390.0 216865.0 221270.0 268271.0 260436.0 22901.0 31176.0 259610.0 255687.0 227837.0 221653.0 268413.0 262932.0 169744.0 175858.0 231413.0 228762.0 67343.0 69619.0 245980.0 239580.0 187017.0 181405.0 90016.0 87349.0 133698.0 126545.0 143167.0 151053.0 68834.0 66108.0 54433.0 61902.0 180492.0 183657.0 99269.0 97329.0 260573.0 258024.0 147745.0 139944.0 276932.0 272313.0 253800.0 248144.0 254219.0 249758.0 221548.0 229241.0 250407.0 258568.0 230685.0 236116.0 174366.0 178399.0 91057.0 97910.0 154584.0 160928.0 249557.0 249474.0 242821.0 243219.0 211828.0 206094.0 72997.0 72546.0 174119.0 170614.0 294210.0 289649.0 233807.0 238135.0 79499.0 85153.0 8101.0 0.0 196192.0 198190.0 196438.0 201228.0 204930.0 208096.0 191747.0 183750.0 152493.0 152887.0 284651.0 292379.0 75664.0 83676.0 221214.0 216302.0 170064.0 163664.0 76406.0 69769.0 274741.0 276773.0 243262.0 235781.0 217098.0 209023.0 24935.0 30346.0 156837.0 164619.0 150517.0 147153.0 275382.0 277545.0 139106.0 135002.0 295847.0 301436.0 240532.0 245182.0 71737.0 71411.0 242580.0 234756.0 260148.0 252194.0 169307.0 177238.0 109278.0 101845.0 234114.0 229257.0 67449.0 68209.0 65941.0 57773.0 90144.0 93881.0 200095.0 206428.0 225307.0 220135.0 64916.0 64434.0 125754.0 132151.0 210910.0 205559.0 148461.0 140782.0 215192.0 57106.0 215192.0 215192.0 57106.0 57106.0
88060.0 81409.0 27083.0 23497.0 42879.0 50079.0 72873.0 76692.0 9017.0 11518.0 113096.0 113457.0 127620.0 120188.0 26800.0 27157.0 150327.0 146283.0 195049.0 194555.0 77971.0 71035.0 31667.0 25727.0 86403.0 78522.0 49731.0 42668.0 102072.0 105235.0 139474.0 143221.0 62762.0 54526.0 20970.0 28256.0 106297.0 109014.0 63105.0 70287.0 74692.0 70472.0 259475.0 254097.0 188325.0 188485.0 18400.0 12612.0 293964.0 292303.0 75387.0 76917.0 49436.0 57401.0 93857.0 86950.0 61013.0 54032.0 91638.0 83865.0 78528.0 82053.0 55164.0 63185.0 88170.0 87221.0 23735.0 24509.0 286037.0 292889.0 67028.0 58906.0 95612.0 90286.0 139668.0 133561.0 74447.0 66942.0 265627.0 266875.0 37997.0 46179.0 98071.0 93486.0 56022.0 54996.0 146585.0 149583.0 190936.0 196192.0 0.0 7986.0 21268.0 15938.0 16095.0 24024.0 11794.0 16286.0 59845.0 66132.0 117641.0 125126.0 268135.0 275688.0 63060.0 66194.0 48172.0 55988.0 120371.0 126479.0 117147.0 113855.0 83708.0 76078.0 23219.0 16283.0 218176.0 219260.0 39735.0 31778.0 47404.0 49230.0 100549.0 98753.0 58164.0 61226.0 178685.0 179287.0 105620.0 104275.0 237256.0 230852.0 69765.0 65686.0 90935.0 85400.0 28952.0 21399.0 294987.0 286776.0 92376.0 93722.0 231274.0 237776.0 260920.0 252753.0 106570.0 103431.0 24205.0 31124.0 54637.0 46374.0 211928.0 204479.0 95182.0 87580.0 15137.0 9620.0 65115.0 72807.0 100394.0 140747.0 100394.0 100394.0 140747.0 140747.0
95582.0 88793.0 34992.0 31434.0 49260.0 56761.0 69729.0 74262.0 1044.0 7961.0 117336.0 117208.0 132962.0 125722.0 31413.0 29691.0 157655.0 153749.0 197931.0 197750.0 71534.0 64933.0 30499.0 26318.0 90228.0 82098.0 57061.0 50216.0 94257.0 97560.0 143151.0 147241.0 56291.0 48182.0 28749.0 35795.0 108174.0 111416.0 64538.0 71722.0 80957.0 77156.0 262346.0 257138.0 192381.0 192806.0 17838.0 15754.0 296418.0 294555.0 78888.0 81132.0 53105.0 60973.0 87811.0 81178.0 56768.0 50341.0 97637.0 89765.0 70619.0 74076.0 55556.0 63296.0 80213.0 79235.0 29071.0 31342.0 288341.0 295194.0 73842.0 65902.0 87696.0 82457.0 147417.0 141237.0 66734.0 59327.0 268336.0 269376.0 45269.0 53467.0 96223.0 92205.0 61485.0 59600.0 151249.0 154561.0 192692.0 198190.0 7986.0 0.0 29148.0 23219.0 8818.0 16358.0 7257.0 14765.0 66171.0 72795.0 110349.0 117900.0 270870.0 278495.0 55075.0 58263.0 55480.0 63084.0 121991.0 128424.0 123036.0 119382.0 75844.0 68167.0 19016.0 11034.0 220594.0 221965.0 43179.0 35237.0 51514.0 52221.0 93662.0 92230.0 61681.0 63761.0 185805.0 186240.0 97684.0 96293.0 241234.0 234975.0 62338.0 57981.0 83541.0 77817.0 29109.0 21117.0 298389.0 290195.0 84412.0 85836.0 235239.0 241598.0 263225.0 255057.0 109200.0 106323.0 16322.0 23142.0 46846.0 38590.0 216166.0 208789.0 101003.0 93556.0 17193.0 9326.0 71359.0 78776.0 93350.0 142168.0 93350.0 93350.0 142168.0 142168.0
67177.0 60820.0 10152.0 2646.0 33806.0 38665.0 81084.0 82953.0 30147.0 31576.0 100339.0 102023.0 118514.0 110540.0 21103.0 27654.0 129699.0 125422.0 192815.0 191421.0 94123.0 86496.0 39571.0 31524.0 75455.0 68588.0 34867.0 26981.0 123340.0 126448.0 135518.0 138162.0 79322.0 71030.0 9609.0 15469.0 108191.0 109386.0 68031.0 74758.0 63531.0 57709.0 256887.0 251043.0 182675.0 182013.0 33957.0 25416.0 292421.0 291329.0 65814.0 65214.0 49449.0 56868.0 108732.0 101237.0 72441.0 64608.0 74461.0 67101.0 99767.0 103142.0 55716.0 63764.0 109335.0 108145.0 24539.0 18360.0 285205.0 292054.0 53825.0 45255.0 116010.0 110317.0 118446.0 112410.0 95688.0 88136.0 263473.0 265305.0 24855.0 31880.0 102055.0 96137.0 41642.0 43443.0 139456.0 141396.0 191889.0 196438.0 21268.0 29148.0 0.0 8006.0 36237.0 44285.0 32274.0 33564.0 49250.0 53668.0 135761.0 143006.0 265899.0 273214.0 84009.0 87410.0 33563.0 41999.0 122630.0 127731.0 99949.0 97635.0 103900.0 96501.0 38475.0 34349.0 217097.0 217363.0 41849.0 35560.0 46303.0 51257.0 117604.0 114827.0 57729.0 63372.0 158416.0 159350.0 126827.0 125316.0 231527.0 224716.0 88636.0 85410.0 109526.0 104608.0 40809.0 35729.0 290727.0 282493.0 113519.0 114977.0 225615.0 232513.0 260088.0 251921.0 106364.0 102557.0 45453.0 52090.0 74714.0 66504.0 205551.0 197927.0 85046.0 77087.0 23503.0 25632.0 54526.0 62924.0 120994.0 143177.0 120994.0 120994.0 143177.0 143177.0
72369.0 65586.0 17698.0 10644.0 40218.0 45745.0 73642.0 75846.0 24136.0 27254.0 99617.0 100666.0 125536.0 117654.0 15697.0 20785.0 134474.0 130531.0 198310.0 197157.0 86133.0 78492.0 31833.0 23863.0 73746.0 66366.0 42569.0 34731.0 117317.0 120751.0 141379.0 144309.0 71362.0 63078.0 14858.0 22139.0 112272.0 113945.0 70823.0 77777.0 70779.0 65220.0 262534.0 256809.0 189031.0 188560.0 31877.0 23792.0 297804.0 296552.0 63407.0 63793.0 53576.0 61296.0 100731.0 93248.0 64586.0 56802.0 76219.0 68559.0 93490.0 96522.0 49642.0 57785.0 102840.0 101316.0 27289.0 22983.0 290344.0 297161.0 61390.0 52842.0 108788.0 102933.0 124360.0 118095.0 89912.0 82542.0 269008.0 270680.0 32055.0 39454.0 95496.0 89864.0 41425.0 41693.0 146094.0 148268.0 196460.0 201228.0 15938.0 23219.0 8006.0 0.0 29358.0 37308.0 27674.0 30720.0 56277.0 61104.0 127897.0 135109.0 271457.0 278841.0 77257.0 81078.0 41211.0 49619.0 126648.0 132083.0 101770.0 98823.0 96595.0 89325.0 30566.0 26901.0 222296.0 222792.0 45100.0 38004.0 50713.0 54771.0 109647.0 106828.0 62139.0 67041.0 162759.0 163350.0 120412.0 118599.0 237945.0 231223.0 80949.0 77960.0 101754.0 96971.0 40494.0 34232.0 296825.0 288592.0 106976.0 108757.0 232012.0 238821.0 265228.0 257060.0 111085.0 107460.0 39434.0 45512.0 67432.0 59278.0 212099.0 204508.0 92186.0 84268.0 15497.0 18214.0 61599.0 69907.0 116316.0 147199.0 116316.0 116316.0 147199.0 147199.0
101226.0 94151.0 43067.0 38699.0 58077.0 65572.0 62847.0 67940.0 7877.0 14606.0 117715.0 116974.0 141558.0 134378.0 33796.0 29859.0 162720.0 159132.0 205273.0 205286.0 62750.0 56240.0 26525.0 24666.0 90265.0 81911.0 65720.0 58746.0 88331.0 92154.0 151011.0 155278.0 47510.0 39439.0 37059.0 44324.0 114982.0 118569.0 71267.0 78395.0 89763.0 85970.0 269643.0 264548.0 200405.0 200963.0 24642.0 24257.0 303420.0 301543.0 78646.0 81741.0 61192.0 68970.0 79115.0 72584.0 49142.0 43214.0 100546.0 92577.0 64315.0 67169.0 52222.0 59521.0 73521.0 71981.0 37814.0 40118.0 295271.0 302124.0 82644.0 74672.0 79829.0 74324.0 153563.0 147176.0 61349.0 54351.0 275524.0 276422.0 53946.0 62143.0 90261.0 86774.0 63979.0 61003.0 159583.0 163021.0 199262.0 204930.0 16095.0 8818.0 36237.0 29358.0 0.0 8061.0 13366.0 21310.0 74984.0 81609.0 101638.0 109162.0 278073.0 285744.0 47900.0 51886.0 64148.0 71829.0 128577.0 135227.0 125661.0 121489.0 67807.0 60303.0 12777.0 5523.0 227611.0 229174.0 51243.0 43395.0 59795.0 59989.0 84849.0 83427.0 69649.0 71193.0 190395.0 190501.0 91118.0 89242.0 249197.0 243017.0 53694.0 49626.0 74879.0 69305.0 35658.0 27823.0 306006.0 297825.0 77639.0 79603.0 243198.0 249476.0 270155.0 261988.0 116503.0 113794.0 11809.0 16264.0 38659.0 30404.0 224272.0 216934.0 109738.0 102322.0 18611.0 11617.0 80165.0 87546.0 89706.0 148561.0 89706.0 89706.0 148561.0 148561.0
108849.0 101677.0 51072.0 46755.0 65237.0 72880.0 60525.0 66353.0 15333.0 20211.0 122312.0 121112.0 147733.0 140717.0 40424.0 35411.0 170053.0 166606.0 209238.0 209529.0 56243.0 50226.0 29032.0 29297.0 94739.0 86274.0 73412.0 66564.0 80874.0 84967.0 155804.0 160346.0 41095.0 33341.0 44987.0 52139.0 118414.0 122428.0 74850.0 81853.0 96737.0 93232.0 273496.0 268563.0 205409.0 206195.0 29407.0 30807.0 306852.0 304922.0 82993.0 86683.0 66624.0 74218.0 72989.0 66837.0 45805.0 40876.0 106865.0 98868.0 56728.0 59314.0 54308.0 61030.0 65738.0 64010.0 44652.0 47611.0 298650.0 305503.0 89997.0 82153.0 71769.0 66292.0 161324.0 154869.0 54290.0 47611.0 279223.0 279928.0 61615.0 69813.0 88942.0 86136.0 70246.0 66650.0 165175.0 168864.0 202271.0 208096.0 24024.0 16358.0 44285.0 37308.0 8061.0 0.0 18852.0 26090.0 82040.0 88866.0 94068.0 101654.0 281792.0 289521.0 39985.0 44309.0 71828.0 79375.0 131692.0 138593.0 131744.0 127261.0 59757.0 52243.0 14648.0 11261.0 231112.0 232934.0 56726.0 49103.0 65544.0 64976.0 77725.0 76720.0 74848.0 75643.0 197488.0 197428.0 83364.0 81317.0 254068.0 248023.0 46013.0 41667.0 67220.0 61461.0 39672.0 32319.0 310306.0 302149.0 69819.0 72012.0 248064.0 254209.0 273534.0 265366.0 120568.0 118096.0 8746.0 9037.0 30629.0 22368.0 229400.0 222134.0 116348.0 109062.0 25426.0 19277.0 87152.0 94324.0 83699.0 151405.0 83699.0 83699.0 151405.0 151405.0
99417.0 92910.0 36265.0 34234.0 46928.0 54752.0 76012.0 80842.0 7295.0 1363.0 124073.0 124112.0 128891.0 121865.0 37861.0 36756.0 161836.0 157664.0 191924.0 191921.0 75091.0 68963.0 37620.0 33572.0 97095.0 89034.0 56199.0 49954.0 91591.0 94375.0 137681.0 142008.0 59926.0 52079.0 29667.0 35804.0 101758.0 105246.0 58050.0 65205.0 78139.0 74956.0 256302.0 251191.0 187124.0 187750.0 11298.0 12245.0 290151.0 288294.0 85842.0 87857.0 48009.0 55724.0 91778.0 85483.0 62498.0 56448.0 103379.0 95581.0 68519.0 72648.0 62794.0 70506.0 78475.0 78220.0 26131.0 30176.0 282022.0 288875.0 71871.0 64302.0 87568.0 82855.0 150615.0 144657.0 63749.0 56062.0 262205.0 263139.0 44464.0 52563.0 102970.0 99130.0 67580.0 66141.0 146517.0 150102.0 186149.0 191747.0 11794.0 7257.0 32274.0 27674.0 13366.0 18852.0 0.0 7999.0 63545.0 70594.0 112279.0 119951.0 264751.0 272412.0 54205.0 56388.0 54593.0 61692.0 115445.0 122010.0 128868.0 125469.0 76096.0 68170.0 25396.0 17331.0 214333.0 215848.0 38070.0 30333.0 46780.0 46665.0 96426.0 95562.0 56387.0 57827.0 190323.0 190998.0 95694.0 94904.0 235889.0 229740.0 64192.0 59052.0 85338.0 79141.0 22444.0 14519.0 292640.0 284460.0 82742.0 83541.0 229889.0 236144.0 256905.0 248738.0 103153.0 100430.0 15109.0 23127.0 47708.0 39627.0 211027.0 203711.0 97539.0 90305.0 24225.0 16497.0 68579.0 75596.0 88814.0 135524.0 88814.0 88814.0 135524.0 135524.0
100364.0 94257.0 35285.0 35054.0 41797.0 49798.0 84010.0 88809.0 15040.0 6914.0 129324.0 129740.0 121888.0 115020.0 43069.0 43113.0 163013.0 158507.0 183964.0 184004.0 82177.0 76311.0 45250.0 40667.0 102686.0 94804.0 52360.0 46857.0 93274.0 95418.0 129897.0 134324.0 67110.0 59430.0 28676.0 33460.0 93759.0 97264.0 50053.0 57210.0 72234.0 69617.0 248333.0 243242.0 179416.0 180135.0 3353.0 8819.0 282155.0 280295.0 91665.0 93168.0 40542.0 48132.0 99042.0 92925.0 70450.0 64445.0 106929.0 99278.0 71040.0 75833.0 70108.0 77931.0 81287.0 81770.0 21125.0 26855.0 274024.0 280876.0 66766.0 59621.0 91891.0 87668.0 150581.0 144910.0 65320.0 57410.0 254222.0 255145.0 40935.0 48744.0 110891.0 106956.0 71876.0 71198.0 139090.0 142832.0 178163.0 183750.0 16286.0 14765.0 33564.0 30720.0 21310.0 26090.0 7999.0 0.0 57915.0 65288.0 118199.0 125942.0 256770.0 264437.0 58167.0 59316.0 50755.0 57244.0 107457.0 114011.0 132483.0 129508.0 80829.0 72752.0 33373.0 25299.0 206338.0 207869.0 30666.0 23194.0 39567.0 38938.0 102971.0 102465.0 48769.0 49919.0 191902.0 192905.0 98112.0 97963.0 228136.0 222033.0 70265.0 64597.0 91250.0 84728.0 14457.0 6522.0 284740.0 276564.0 85590.0 85706.0 222134.0 228348.0 248907.0 240740.0 95194.0 92510.0 20587.0 28758.0 53237.0 45425.0 203368.0 196082.0 91032.0 83989.0 30701.0 23458.0 62771.0 69402.0 88170.0 127556.0 88170.0 88170.0 127556.0 127556.0
78242.0 76383.0 39141.0 47132.0 16967.0 10588.0 129846.0 132100.0 67109.0 62198.0 136421.0 140203.0 69282.0 61377.0 70206.0 76850.0 135138.0 128642.0 146337.0 144208.0 137667.0 130863.0 87802.0 80010.0 116077.0 110977.0 17275.0 24044.0 147117.0 147717.0 88318.0 90093.0 122427.0 114257.0 41687.0 34141.0 70263.0 68731.0 45479.0 48615.0 14850.0 12032.0 209698.0 203544.0 133986.0 133026.0 55231.0 51326.0 245908.0 245315.0 108812.0 105736.0 27270.0 27521.0 153699.0 146774.0 119857.0 112361.0 102999.0 97868.0 126914.0 132514.0 104764.0 112712.0 137396.0 138799.0 37427.0 35448.0 239712.0 246415.0 10339.0 9609.0 149529.0 145540.0 115443.0 112086.0 119791.0 111819.0 216588.0 218892.0 24404.0 18615.0 151262.0 145201.0 81714.0 86739.0 90401.0 92155.0 148891.0 152493.0 59845.0 66171.0 49250.0 56277.0 74984.0 82040.0 63545.0 57915.0 0.0 8048.0 175819.0 183496.0 218938.0 226043.0 115739.0 115961.0 17734.0 11529.0 84120.0 87231.0 125539.0 126315.0 138686.0 130572.0 82834.0 76114.0 171467.0 170967.0 32049.0 36377.0 24762.0 32059.0 159747.0 158392.0 28053.0 36540.0 165186.0 168457.0 153315.0 154218.0 182681.0 175749.0 127737.0 122417.0 148871.0 142547.0 50272.0 53601.0 242397.0 234167.0 141688.0 140676.0 176805.0 183843.0 214598.0 206431.0 65026.0 60489.0 78271.0 86450.0 111049.0 103088.0 156546.0 148887.0 35926.0 28058.0 70406.0 68787.0 5344.0 13675.0 136518.0 103757.0 136518.0 136518.0 103757.0 103757.0
74677.0 73582.0 43530.0 51355.0 23667.0 16056.0 134715.0 136581.0 73761.0 69261.0 135839.0 140037.0 65444.0 57263.0 74212.0 81295.0 129713.0 123010.0 145551.0 142983.0 144100.0 137128.0 92894.0 84965.0 116729.0 112122.0 19296.0 27064.0 155087.0 155735.0 87450.0 88513.0 128881.0 120656.0 46969.0 39224.0 73616.0 71265.0 52530.0 55096.0 10431.0 4367.0 208313.0 201969.0 131540.0 130157.0 62710.0 58349.0 244852.0 244518.0 110140.0 106511.0 35138.0 34695.0 159901.0 152836.0 125341.0 117709.0 101498.0 96873.0 134741.0 140258.0 108496.0 116305.0 145211.0 146494.0 44487.0 41624.0 239245.0 245799.0 2658.0 8830.0 157078.0 152956.0 109230.0 106218.0 127706.0 119727.0 215373.0 217936.0 29103.0 21845.0 155144.0 148833.0 82906.0 88509.0 87555.0 88653.0 149675.0 152887.0 66132.0 72795.0 53668.0 61104.0 81609.0 88866.0 70594.0 65288.0 8048.0 0.0 182837.0 190475.0 217675.0 224640.0 123297.0 123693.0 20341.0 12088.0 87024.0 89462.0 123150.0 124446.0 146116.0 138029.0 88832.0 82408.0 171032.0 170138.0 40087.0 44216.0 32751.0 39907.0 166457.0 164872.0 35141.0 43476.0 159694.0 163235.0 161216.0 162030.0 179928.0 172827.0 134737.0 129605.0 155912.0 149717.0 58165.0 61219.0 240126.0 231910.0 149507.0 148584.0 174110.0 181308.0 214192.0 206001.0 67409.0 62718.0 85472.0 93627.0 118243.0 110213.0 153591.0 145883.0 31883.0 23896.0 75774.0 74772.0 6256.0 12123.0 144566.0 106109.0 144566.0 144566.0 106109.0 106109.0
191228.0 183316.0 144048.0 138396.0 159173.0 166904.0 78344.0 84980.0 109345.0 113624.0 172984.0 167637.0 238953.0 232535.0 123054.0 114820.0 245843.0 244439.0 288745.0 290670.0 43887.0 52209.0 100812.0 108036.0 149628.0 142311.0 167353.0 160278.0 67073.0 74765.0 241131.0 246876.0 57056.0 65128.0 138442.0 145889.0 198496.0 204418.0 158922.0 164784.0 190346.0 187203.0 351501.0 347339.0 290809.0 292739.0 121150.0 124515.0 383628.0 381688.0 139774.0 147237.0 157259.0 164015.0 37569.0 44850.0 72858.0 79962.0 175898.0 168648.0 64297.0 56518.0 107151.0 106276.0 57273.0 50130.0 138410.0 141673.0 375416.0 382269.0 184032.0 176220.0 36858.0 35263.0 243654.0 236318.0 74009.0 78764.0 356644.0 356853.0 155583.0 163780.0 94648.0 99948.0 144328.0 137123.0 253949.0 258627.0 278794.0 284651.0 117641.0 110349.0 135761.0 127897.0 101638.0 94068.0 112279.0 118199.0 175819.0 182837.0 0.0 7871.0 359266.0 367151.0 64256.0 68372.0 165784.0 173430.0 209277.0 217172.0 195734.0 188601.0 41398.0 49089.0 97337.0 101913.0 308186.0 310902.0 147917.0 141102.0 157012.0 154477.0 20518.0 27458.0 164474.0 162812.0 269001.0 266764.0 57925.0 49766.0 338077.0 332856.0 48100.0 53744.0 26955.0 33823.0 128874.0 123333.0 390186.0 382275.0 55327.0 62510.0 332124.0 337429.0 350300.0 342133.0 203644.0 202389.0 97645.0 89457.0 65030.0 72786.0 315110.0 308308.0 209110.0 202172.0 112688.0 110435.0 180817.0 187601.0 101167.0 227928.0 101167.0 101167.0 227928.0 227928.0
197558.0 189625.0 151411.0 145645.0 166817.0 174522.0 83016.0 89267.0 116901.0 121299.0 177161.0 171577.0 246794.0 240359.0 129856.0 121571.0 251443.0 250213.0 296479.0 298441.0 50258.0 58542.0 107517.0 114871.0 154407.0 147279.0 174854.0 167728.0 73172.0 80696.0 248987.0 254740.0 63989.0 72160.0 145873.0 153358.0 206302.0 212247.0 166790.0 172644.0 198050.0 194842.0 359230.0 355067.0 298656.0 300598.0 128910.0 132179.0 391357.0 389416.0 144832.0 152426.0 165087.0 171862.0 41865.0 49598.0 78669.0 86004.0 181351.0 174214.0 71739.0 63944.0 112713.0 111411.0 64357.0 57431.0 146077.0 149237.0 383144.0 389997.0 191645.0 183794.0 44010.0 42921.0 249812.0 242420.0 81486.0 86413.0 364372.0 364581.0 163098.0 171291.0 97329.0 103071.0 150410.0 143073.0 261820.0 266493.0 286523.0 292379.0 125126.0 117900.0 143006.0 135109.0 109162.0 101654.0 119951.0 125942.0 183496.0 190475.0 7871.0 0.0 366994.0 374879.0 72112.0 76137.0 173290.0 180983.0 217027.0 224935.0 200672.0 193400.0 49167.0 56916.0 104544.0 109306.0 315914.0 318630.0 155725.0 148879.0 164820.0 162323.0 26335.0 32119.0 172323.0 170680.0 274172.0 271762.0 63724.0 55721.0 345893.0 340687.0 55760.0 61555.0 34698.0 41680.0 136702.0 131117.0 397890.0 389988.0 62179.0 69185.0 339942.0 345230.0 358028.0 349861.0 211487.0 210245.0 105375.0 97190.0 72816.0 80519.0 322958.0 316162.0 216888.0 209926.0 119828.0 117779.0 188512.0 195337.0 107939.0 235656.0 107939.0 107939.0 235656.0 235656.0
284012.0 285871.0 256420.0 264269.0 232304.0 229016.0 340596.0 344810.0 271395.0 263577.0 352126.0 356975.0 156469.0 164743.0 286823.0 291993.0 318115.0 310087.0 73165.0 74735.0 334199.0 330135.0 299747.0 293102.0 334382.0 329741.0 236050.0 242946.0 306028.0 303378.0 130657.0 129175.0 320441.0 313887.0 256812.0 250507.0 163425.0 159506.0 206958.0 199940.0 207357.0 215021.0 9862.0 17613.0 89340.0 93533.0 253453.0 255812.0 27746.0 29861.0 327672.0 324185.0 218854.0 210898.0 351528.0 346808.0 327188.0 321162.0 316303.0 312893.0 296163.0 303856.0 321078.0 329233.0 305301.0 310731.0 245393.0 248476.0 31096.0 33550.0 218894.0 226294.0 324172.0 324089.0 291665.0 293727.0 286443.0 280709.0 2678.0 8434.0 242231.0 237535.0 366068.0 361016.0 300482.0 305677.0 132449.0 134339.0 82938.0 75664.0 268135.0 270870.0 265899.0 271457.0 278073.0 281792.0 264751.0 256770.0 218938.0 217675.0 359266.0 366994.0 0.0 8039.0 295829.0 290917.0 236648.0 229338.0 150656.0 143367.0 334250.0 337490.0 317877.0 310397.0 289882.0 281845.0 51149.0 48906.0 228411.0 236358.0 221249.0 218925.0 349997.0 352128.0 210104.0 207125.0 342918.0 349486.0 315148.0 319797.0 53055.0 60579.0 317155.0 309287.0 334763.0 326809.0 242450.0 250252.0 37325.0 32114.0 308729.0 303872.0 55915.0 48270.0 24271.0 25194.0 161674.0 164705.0 274057.0 280708.0 299920.0 294708.0 74872.0 81556.0 187248.0 194715.0 282419.0 277673.0 214280.0 206004.0 289808.0 132322.0 289808.0 289808.0 132322.0 132322.0
290356.0 292346.0 263690.0 271558.0 239572.0 236173.0 348213.0 352375.0 279029.0 271232.0 358782.0 363711.0 162907.0 171224.0 294169.0 299411.0 323506.0 315476.0 80647.0 81865.0 342055.0 337953.0 307280.0 300591.0 341301.0 336746.0 243113.0 250069.0 313913.0 311262.0 137837.0 136128.0 328262.0 321678.0 264166.0 257804.0 171192.0 167178.0 214676.0 207676.0 214296.0 221923.0 16346.0 23063.0 95434.0 99264.0 261115.0 263393.0 22520.0 26510.0 334708.0 331131.0 226365.0 218405.0 359387.0 354635.0 334870.0 328804.0 322865.0 319559.0 304048.0 311740.0 328474.0 336624.0 313185.0 318616.0 252872.0 255865.0 30657.0 31136.0 225816.0 233292.0 332057.0 331973.0 297019.0 299233.0 294328.0 288594.0 10717.0 14253.0 249447.0 244651.0 373571.0 368468.0 307500.0 312774.0 138933.0 140539.0 90970.0 83676.0 275688.0 278495.0 273214.0 278841.0 285744.0 289521.0 272412.0 264437.0 226043.0 224640.0 367151.0 374879.0 8039.0 0.0 303714.0 298802.0 243735.0 236357.0 158504.0 151171.0 340543.0 343896.0 325762.0 318281.0 297510.0 289480.0 59099.0 56587.0 235956.0 243912.0 228724.0 226497.0 357749.0 360033.0 217615.0 214739.0 347994.0 354645.0 323032.0 327682.0 56317.0 64144.0 325061.0 317204.0 342648.0 334694.0 250136.0 257921.0 30334.0 26140.0 316614.0 311757.0 59828.0 51915.0 30237.0 32462.0 169296.0 172267.0 281817.0 288503.0 307806.0 302559.0 79640.0 86612.0 194026.0 201554.0 289920.0 285238.0 221340.0 213032.0 297692.0 140267.0 297692.0 297692.0 140267.0 140267.0
148656.0 141367.0 89936.0 86397.0 99938.0 107955.0 71853.0 79812.0 54043.0 55393.0 154465.0 151830.0 175701.0 169627.0 79265.0 72906.0 209329.0 206145.0 225135.0 226804.0 43578.0 43753.0 62171.0 65928.0 127194.0 118688.0 110241.0 104155.0 42429.0 47880.0 176875.0 182645.0 35870.0 35541.0 83506.0 89984.0 134453.0 140237.0 94742.0 100535.0 129659.0 127594.0 288065.0 283911.0 226561.0 228487.0 60599.0 65963.0 320192.0 318251.0 115485.0 120694.0 94569.0 100852.0 59467.0 57447.0 56453.0 57390.0 144081.0 136101.0 18377.0 19393.0 82406.0 86596.0 26005.0 24161.0 79278.0 84289.0 311980.0 318832.0 124862.0 117787.0 33789.0 30415.0 201255.0 194735.0 20956.0 19599.0 293207.0 293416.0 98582.0 106605.0 100692.0 101108.0 107835.0 102990.0 189936.0 194806.0 215358.0 221214.0 63060.0 55075.0 84009.0 77257.0 47900.0 39985.0 54205.0 58167.0 115739.0 123297.0 64256.0 72112.0 295829.0 303714.0 0.0 8344.0 108631.0 115380.0 145624.0 153415.0 168127.0 162828.0 23574.0 15417.0 50880.0 50930.0 244750.0 247433.0 85746.0 79686.0 94773.0 91378.0 54425.0 57625.0 101243.0 98972.0 236205.0 235742.0 43629.0 41342.0 273941.0 268653.0 23743.0 15610.0 38935.0 31015.0 66468.0 62144.0 326732.0 318760.0 29951.0 33059.0 267978.0 273373.0 286863.0 278696.0 139408.0 138133.0 39247.0 31946.0 14198.0 19750.0 250862.0 244052.0 147082.0 140586.0 64873.0 59254.0 120389.0 126410.0 53939.0 164492.0 53939.0 53939.0 164492.0 164492.0
153103.0 145976.0 92590.0 89688.0 100684.0 108732.0 80150.0 88087.0 57263.0 57467.0 161604.0 159174.0 173797.0 168007.0 84435.0 78541.0 214335.0 210915.0 220384.0 222305.0 51467.0 51995.0 68588.0 71725.0 134216.0 125689.0 111676.0 105990.0 36608.0 41240.0 173342.0 179346.0 44211.0 43742.0 86032.0 92090.0 130218.0 136291.0 91838.0 97267.0 129496.0 127929.0 283153.0 278990.0 222840.0 225005.0 61406.0 67584.0 315280.0 313339.0 122461.0 127418.0 93486.0 99331.0 66916.0 65312.0 64679.0 65362.0 150052.0 142053.0 12430.0 16574.0 89768.0 94244.0 22088.0 22919.0 80366.0 85984.0 307068.0 313920.0 125398.0 118671.0 34896.0 33364.0 205417.0 199060.0 12705.0 11791.0 288295.0 288504.0 100196.0 108058.0 109030.0 109398.0 113603.0 109120.0 187163.0 192296.0 210446.0 216302.0 66194.0 58263.0 87410.0 81078.0 51886.0 44309.0 56388.0 59316.0 115961.0 123693.0 68372.0 76137.0 290917.0 298802.0 8344.0 0.0 110070.0 116430.0 140905.0 148801.0 174392.0 169304.0 26974.0 19598.0 56473.0 55526.0 239838.0 242553.0 85127.0 79624.0 94011.0 89989.0 60509.0 64378.0 99657.0 96722.0 241591.0 241341.0 39426.0 38652.0 269832.0 264711.0 31510.0 23577.0 44455.0 36386.0 65964.0 62546.0 321865.0 313938.0 26362.0 27718.0 263890.0 269121.0 281951.0 273784.0 135674.0 134655.0 41999.0 35624.0 22113.0 26378.0 247137.0 240444.0 146117.0 139902.0 69665.0 63464.0 120413.0 126016.0 45598.0 159580.0 45598.0 45598.0 159580.0 159580.0
64720.0 61697.0 23517.0 31168.0 12599.0 8775.0 114638.0 116337.0 56498.0 53345.0 119189.0 122763.0 85735.0 77588.0 53897.0 61095.0 124636.0 118722.0 164071.0 161915.0 125784.0 118530.0 73040.0 65037.0 98401.0 93245.0 1610.0 6723.0 143507.0 145055.0 106045.0 107720.0 110663.0 102370.0 27787.0 20068.0 86251.0 85421.0 55182.0 59959.0 30572.0 24220.0 227392.0 221205.0 151355.0 150185.0 48812.0 42669.0 263636.0 263049.0 91078.0 88043.0 34265.0 38246.0 141138.0 133875.0 105744.0 98001.0 86533.0 81009.0 121746.0 126578.0 88155.0 95975.0 132031.0 132444.0 29823.0 24423.0 257429.0 264143.0 20287.0 11714.0 142143.0 137419.0 107323.0 102992.0 115640.0 107658.0 234303.0 236624.0 10213.0 2030.0 134802.0 128504.0 63985.0 69039.0 107547.0 108885.0 166334.0 170064.0 48172.0 55480.0 33563.0 41211.0 64148.0 71828.0 54593.0 50755.0 17734.0 20341.0 165784.0 173290.0 236648.0 243735.0 108631.0 110070.0 0.0 8440.0 100412.0 104026.0 109869.0 110092.0 130678.0 122762.0 70046.0 64206.0 189186.0 188701.0 33800.0 34169.0 30708.0 38573.0 148655.0 146588.0 39015.0 47220.0 154640.0 157255.0 148742.0 148718.0 199917.0 192891.0 117815.0 113316.0 139015.0 133257.0 47529.0 48182.0 259862.0 251636.0 136335.0 136256.0 194070.0 201187.0 232314.0 224146.0 81847.0 77441.0 69702.0 77641.0 102058.0 93857.0 173664.0 165974.0 52157.0 44158.0 56261.0 56104.0 22441.0 30868.0 135648.0 120401.0 135648.0 135648.0 120401.0 120401.0
67050.0 64957.0 31935.0 39608.0 16095.0 8418.0 123078.0 124765.0 64086.0 60404.0 125095.0 129011.0 77527.0 69330.0 62300.0 69533.0 125027.0 118751.0 156991.0 154613.0 133815.0 126642.0 81452.0 73459.0 105230.0 100403.0 7250.0 15120.0 149145.0 150348.0 98892.0 100245.0 118656.0 110379.0 35967.0 28197.0 81746.0 80259.0 54517.0 58454.0 22472.0 15813.0 220021.0 213743.0 143531.0 142212.0 55025.0 49564.0 256435.0 255985.0 98351.0 94946.0 34505.0 36770.0 149306.0 142095.0 114114.0 106391.0 91490.0 86429.0 127889.0 132988.0 96480.0 104262.0 138261.0 139000.0 36119.0 31765.0 250549.0 257179.0 11854.0 3298.0 149035.0 144523.0 106292.0 102502.0 121415.0 113416.0 227017.0 229471.0 18087.0 10172.0 143141.0 136788.0 71145.0 76570.0 99596.0 100741.0 160182.0 163664.0 55988.0 63084.0 41999.0 49619.0 71829.0 79375.0 61692.0 57244.0 11529.0 12088.0 173430.0 180983.0 229338.0 236357.0 115380.0 116430.0 8440.0 0.0 95639.0 98749.0 114026.0 114788.0 137740.0 129753.0 78182.0 72146.0 182305.0 181606.0 36415.0 38485.0 31289.0 39180.0 156537.0 154618.0 37433.0 45938.0 155093.0 158117.0 154728.0 155019.0 191976.0 184893.0 125387.0 120662.0 146594.0 140682.0 52355.0 54030.0 252097.0 243877.0 142568.0 142169.0 186149.0 193323.0 225444.0 217279.0 76547.0 71997.0 76773.0 84816.0 109353.0 101200.0 165658.0 157953.0 43970.0 35983.0 64592.0 64185.0 15225.0 23336.0 140215.0 115283.0 140215.0 140215.0 115283.0 115283.0
161700.0 160373.0 114508.0 121602.0 91819.0 91673.0 191420.0 196241.0 122399.0 114360.0 219247.0 222333.0 66278.0 67658.0 142344.0 146116.0 214328.0 207104.0 79514.0 81500.0 183552.0 179507.0 151910.0 146010.0 196844.0 190655.0 100483.0 105285.0 156255.0 153604.0 41056.0 49018.0 169806.0 163347.0 113043.0 108265.0 14452.0 16043.0 57455.0 50269.0 79302.0 86657.0 142747.0 138407.0 85164.0 88963.0 104225.0 107774.0 175242.0 173303.0 188060.0 186422.0 73205.0 65811.0 200885.0 196164.0 177396.0 171786.0 186893.0 181410.0 146352.0 154031.0 175118.0 183245.0 155523.0 160916.0 99423.0 104298.0 167031.0 173884.0 89304.0 93535.0 174340.0 174146.0 191450.0 189820.0 136643.0 130833.0 148046.0 148413.0 102338.0 100489.0 218164.0 213831.0 162105.0 165515.0 62433.0 70226.0 70707.0 76406.0 120371.0 121991.0 122630.0 126648.0 128577.0 131692.0 115445.0 107457.0 84120.0 87024.0 209277.0 217027.0 150656.0 158504.0 145624.0 140905.0 100412.0 95639.0 0.0 8150.0 209658.0 210346.0 167879.0 160324.0 140828.0 132752.0 99665.0 102101.0 81644.0 89182.0 76335.0 71927.0 199654.0 201670.0 64946.0 59647.0 243839.0 248117.0 165374.0 170024.0 129756.0 125257.0 166728.0 158962.0 184552.0 176631.0 93001.0 100960.0 181118.0 173136.0 158956.0 154099.0 123909.0 128669.0 141915.0 133747.0 20052.0 24843.0 123724.0 130169.0 149369.0 144055.0 108925.0 103054.0 69686.0 72790.0 135284.0 129602.0 81388.0 75469.0 140034.0 20556.0 140034.0 140034.0 20556.0 20556.0
163985.0 163036.0 119295.0 126579.0 96126.0 95371.0 198022.0 202678.0 128871.0 120892.0 223166.0 226490.0 62168.0 64468.0 147772.0 151845.0 215108.0 207755.0 71756.0 73522.0 190967.0 186784.0 158104.0 152011.0 201311.0 195329.0 103982.0 109207.0 164355.0 161704.0 34066.0 42107.0 177095.0 170522.0 118193.0 113073.0 20253.0 18629.0 63964.0 56836.0 81119.0 88709.0 135316.0 130822.0 77051.0 80935.0 110743.0 113923.0 168264.0 166344.0 192805.0 190884.0 78509.0 70884.0 208307.0 203472.0 184193.0 178435.0 190226.0 184980.0 154378.0 162043.0 180933.0 189081.0 163591.0 168935.0 104993.0 109482.0 160072.0 166925.0 91614.0 96452.0 182344.0 182074.0 191710.0 190410.0 144680.0 138810.0 140773.0 141340.0 106639.0 104247.0 224458.0 219960.0 166554.0 170262.0 55986.0 63925.0 64494.0 69769.0 126479.0 128424.0 127731.0 132083.0 135227.0 138593.0 122010.0 114011.0 87231.0 89462.0 217172.0 224935.0 143367.0 151171.0 153415.0 148801.0 104026.0 98749.0 8150.0 0.0 212536.0 213524.0 175775.0 168181.0 147344.0 139270.0 92531.0 94663.0 87321.0 95015.0 81475.0 77605.0 207344.0 209249.0 70028.0 65379.0 244397.0 248900.0 173475.0 178124.0 121650.0 117117.0 174335.0 166617.0 192329.0 184429.0 99581.0 107495.0 173403.0 165392.0 167042.0 162199.0 115795.0 120606.0 134956.0 126789.0 22208.0 26780.0 130745.0 137342.0 156912.0 151463.0 100782.0 94937.0 69463.0 73388.0 141269.0 135814.0 84094.0 77611.0 148135.0 16669.0 148135.0 148135.0 16669.0 16669.0
50320.0 49677.0 103066.0 99252.0 120352.0 118625.0 117683.0 111920.0 123703.0 128664.0 31984.0 40144.0 177850.0 169673.0 91965.0 96354.0 56380.0 58724.0 264841.0 260979.0 153327.0 145372.0 105957.0 102847.0 46408.0 53423.0 109576.0 106027.0 210553.0 215632.0 207776.0 207065.0 144407.0 138675.0 107904.0 108545.0 195754.0 194171.0 163101.0 168779.0 132136.0 124309.0 324527.0 317487.0 245130.0 241771.0 133458.0 125069.0 361937.0 362582.0 56009.0 48914.0 142189.0 147570.0 158839.0 151086.0 123886.0 117978.0 25555.0 33288.0 186351.0 186859.0 89679.0 89506.0 193699.0 189582.0 122986.0 115222.0 358460.0 364478.0 121112.0 116148.0 192234.0 184699.0 68714.0 61312.0 185563.0 179269.0 332173.0 335689.0 110487.0 110144.0 111859.0 103987.0 61702.0 65300.0 201894.0 200010.0 272107.0 274741.0 117147.0 123036.0 99949.0 101770.0 125661.0 131744.0 128868.0 132483.0 125539.0 123150.0 195734.0 200672.0 334250.0 340543.0 168127.0 174392.0 109869.0 114026.0 209658.0 212536.0 0.0 8425.0 180126.0 175176.0 118151.0 120776.0 290948.0 288924.0 137798.0 133471.0 138537.0 145635.0 175242.0 168588.0 148388.0 156137.0 73937.0 71104.0 210917.0 206733.0 290094.0 282270.0 160395.0 161794.0 176040.0 175090.0 140717.0 135522.0 351489.0 343509.0 197233.0 201168.0 284801.0 292645.0 333868.0 325592.0 190391.0 185759.0 137419.0 140763.0 154779.0 148391.0 263632.0 256001.0 149120.0 142591.0 107098.0 114711.0 128444.0 135160.0 215326.0 229147.0 215326.0 215326.0 229147.0 229147.0
53651.0 51785.0 101529.0 97150.0 120035.0 118867.0 110385.0 104417.0 119998.0 125348.0 23725.0 31873.0 181021.0 172760.0 88059.0 91865.0 64804.0 67094.0 267494.0 263856.0 146526.0 138660.0 100726.0 98121.0 38994.0 46438.0 109921.0 105831.0 205243.0 210514.0 210089.0 209687.0 138058.0 132578.0 105992.0 107228.0 196291.0 195046.0 162303.0 168198.0 133756.0 125882.0 327808.0 320860.0 248570.0 245421.0 130675.0 122407.0 365130.0 365604.0 49203.0 42588.0 141571.0 147285.0 151539.0 143857.0 117169.0 111510.0 23743.0 30561.0 181128.0 181360.0 83211.0 82558.0 188210.0 183866.0 121237.0 113647.0 361253.0 367384.0 122528.0 117087.0 186094.0 178486.0 76632.0 69120.0 180699.0 174600.0 335375.0 338735.0 109929.0 110212.0 103722.0 95895.0 57908.0 60611.0 205045.0 203463.0 273911.0 276773.0 113855.0 119382.0 97635.0 98823.0 121489.0 127261.0 125469.0 129508.0 126315.0 124446.0 188601.0 193400.0 337490.0 343896.0 162828.0 169304.0 110092.0 114788.0 210346.0 213524.0 8425.0 0.0 174081.0 169357.0 113376.0 116458.0 293515.0 291716.0 136652.0 131920.0 137941.0 144817.0 168141.0 161362.0 148118.0 155658.0 81787.0 78614.0 205297.0 200901.0 294062.0 286291.0 154243.0 155944.0 169403.0 168702.0 138432.0 132888.0 355457.0 347435.0 191660.0 195806.0 288698.0 296492.0 336538.0 328271.0 191329.0 186756.0 133291.0 136235.0 149293.0 143139.0 267531.0 259865.0 151483.0 144709.0 103052.0 110804.0 129508.0 136537.0 210954.0 230070.0 210954.0 210954.0 230070.0 230070.0
165920.0 158332.0 110790.0 106418.0 122594.0 130557.0 72166.0 80285.0 74800.0 77362.0 162887.0 159189.0 199274.0 193181.0 95860.0 88511.0 224904.0 222325.0 247351.0 249277.0 35402.0 40038.0 75857.0 81341.0 136561.0 128306.0 132283.0 125837.0 38250.0 45942.0 200051.0 205937.0 36852.0 41508.0 104591.0 111483.0 157150.0 163152.0 118147.0 123807.0 152789.0 150443.0 310112.0 305950.0 249639.0 251700.0 83455.0 88176.0 342239.0 340299.0 125277.0 131493.0 118068.0 124412.0 46455.0 47619.0 59345.0 63281.0 157324.0 149496.0 24611.0 17546.0 91154.0 93460.0 21669.0 13805.0 101796.0 106255.0 334027.0 340880.0 147582.0 140272.0 12431.0 6880.0 218835.0 211996.0 33760.0 37602.0 315255.0 315464.0 120521.0 128648.0 98148.0 100446.0 122216.0 116325.0 213413.0 218338.0 237406.0 243262.0 83708.0 75844.0 103900.0 96595.0 67807.0 59757.0 76096.0 80829.0 138686.0 146116.0 41398.0 49167.0 317877.0 325762.0 23574.0 26974.0 130678.0 137740.0 167879.0 175775.0 180126.0 174081.0 0.0 8193.0 67548.0 69696.0 266797.0 269513.0 109139.0 102886.0 118193.0 114928.0 35632.0 41171.0 124807.0 122522.0 250630.0 249539.0 33792.0 27564.0 296755.0 291591.0 20025.0 19041.0 19196.0 11738.0 89873.0 85209.0 348813.0 340894.0 22537.0 29754.0 290808.0 296071.0 308911.0 300744.0 162460.0 161326.0 60989.0 53057.0 29186.0 37413.0 273941.0 267199.0 170512.0 163929.0 82730.0 78387.0 143437.0 149652.0 64593.0 186539.0 64593.0 64593.0 186539.0 186539.0
159341.0 151832.0 103154.0 98989.0 114537.0 122514.0 70561.0 78714.0 67123.0 69421.0 159051.0 155692.0 191100.0 184994.0 89332.0 82229.0 218885.0 216119.0 239827.0 241650.0 36164.0 39195.0 70039.0 75074.0 132355.0 123994.0 124369.0 118007.0 38749.0 45873.0 192120.0 197952.0 34136.0 37338.0 96890.0 103687.0 149418.0 155331.0 110100.0 115825.0 144641.0 142350.0 302632.0 298440.0 241756.0 243754.0 75343.0 80196.0 334759.0 332819.0 120900.0 126818.0 109874.0 116227.0 49567.0 49419.0 56662.0 59679.0 151947.0 144058.0 20220.0 14953.0 86939.0 89862.0 20999.0 14763.0 93760.0 98345.0 326547.0 333400.0 139517.0 132257.0 19535.0 15070.0 212204.0 205457.0 28234.0 30861.0 307774.0 307983.0 112626.0 120732.0 97782.0 99429.0 116414.0 110820.0 205330.0 210219.0 229925.0 235781.0 76078.0 68167.0 96501.0 89325.0 60303.0 52243.0 68170.0 72752.0 130572.0 138029.0 49089.0 56916.0 310397.0 318281.0 15417.0 19598.0 122762.0 129753.0 160324.0 168181.0 175176.0 169357.0 8193.0 0.0 60847.0 62476.0 259317.0 262032.0 100950.0 94722.0 110003.0 106740.0 41209.0 45721.0 116625.0 114388.0 244985.0 244091.0 36358.0 31558.0 288989.0 283771.0 17589.0 13428.0 24953.0 16888.0 81683.0 77062.0 341353.0 333412.0 23343.0 29454.0 283035.0 288354.0 301430.0 293263.0 154581.0 153384.0 53062.0 45223.0 21990.0 30049.0 266058.0 259285.0 162322.0 155748.0 75805.0 71115.0 135304.0 141485.0 60608.0 179059.0 60608.0 60608.0 179059.0 179059.0
98495.0 91005.0 47232.0 41117.0 65898.0 72839.0 50726.0 55447.0 18495.0 26468.0 107781.0 106487.0 150839.0 143395.0 28546.0 22077.0 158525.0 155498.0 216947.0 216747.0 55853.0 48486.0 14443.0 15306.0 80194.0 71708.0 71538.0 64016.0 92975.0 97654.0 162046.0 166022.0 40899.0 32592.0 42258.0 50000.0 127091.0 130416.0 83405.0 90572.0 97681.0 93134.0 281361.0 276150.0 211156.0 211458.0 36609.0 34458.0 315403.0 313580.0 68426.0 72326.0 71938.0 79848.0 71128.0 64004.0 37951.0 31337.0 93611.0 85608.0 68676.0 70174.0 39985.0 47032.0 76872.0 74030.0 46900.0 47387.0 307308.0 314161.0 89555.0 81236.0 79936.0 73562.0 151364.0 144613.0 67413.0 61228.0 287347.0 288368.0 60099.0 68124.0 77634.0 74024.0 57130.0 52863.0 169690.0 172770.0 211534.0 217098.0 23219.0 19016.0 38475.0 30566.0 12777.0 14648.0 25396.0 33373.0 82834.0 88832.0 97337.0 104544.0 289882.0 297510.0 50880.0 56473.0 70046.0 78182.0 140828.0 147344.0 118151.0 113376.0 67548.0 60847.0 0.0 8076.0 239579.0 240976.0 62052.0 54076.0 70180.0 71201.0 79159.0 76635.0 80572.0 82776.0 185330.0 184935.0 94463.0 91512.0 260046.0 253728.0 50743.0 48568.0 71314.0 66850.0 47830.0 39869.0 317363.0 309166.0 80736.0 83793.0 254056.0 260465.0 282191.0 274024.0 128214.0 125335.0 22633.0 23178.0 38938.0 31374.0 234863.0 227449.0 118341.0 110693.0 15479.0 14063.0 88137.0 95938.0 97835.0 160920.0 97835.0 97835.0 160920.0 160920.0
97745.0 90515.0 42146.0 36923.0 59148.0 66357.0 58783.0 63513.0 10452.0 18392.0 112331.0 111517.0 143580.0 136240.0 29200.0 24650.0 158814.0 155408.0 208931.0 208776.0 61711.0 54754.0 21121.0 19198.0 84851.0 76475.0 65743.0 58466.0 92111.0 96226.0 154178.0 158240.0 46520.0 38263.0 36590.0 44166.0 119017.0 122367.0 75329.0 82496.0 90957.0 86745.0 273340.0 268151.0 203380.0 203764.0 28533.0 26678.0 307342.0 305513.0 73206.0 76420.0 64112.0 71993.0 77586.0 70733.0 45742.0 39330.0 95783.0 87796.0 67932.0 70311.0 46790.0 54169.0 76810.0 74785.0 39558.0 40788.0 299241.0 306094.0 83278.0 75106.0 81908.0 76036.0 150330.0 143809.0 65533.0 58771.0 279308.0 280312.0 54093.0 62236.0 85657.0 81929.0 59170.0 55891.0 162123.0 165336.0 203459.0 209023.0 16283.0 11034.0 34349.0 26901.0 5523.0 11261.0 17331.0 25299.0 76114.0 82408.0 101913.0 109306.0 281845.0 289480.0 50930.0 55526.0 64206.0 72146.0 132752.0 139270.0 120776.0 116458.0 69696.0 62476.0 8076.0 0.0 231519.0 232939.0 54196.0 46241.0 62459.0 63254.0 84452.0 82503.0 72705.0 74760.0 186228.0 186182.0 94450.0 92178.0 252244.0 245968.0 54388.0 51082.0 75412.0 70294.0 39756.0 31793.0 309421.0 301228.0 80848.0 83207.0 246250.0 252621.0 274125.0 265957.0 120185.0 117337.0 17065.0 20240.0 40545.0 32430.0 227140.0 219751.0 111342.0 103786.0 14166.0 8721.0 81373.0 89005.0 94554.0 152851.0 94554.0 94554.0 152851.0 152851.0
240665.0 241732.0 207882.0 215605.0 183856.0 181197.0 290302.0 294733.0 221084.0 213185.0 306668.0 311049.0 114158.0 121920.0 237819.0 242629.0 280379.0 272427.0 26241.0 31698.0 283145.0 279170.0 249839.0 243398.0 287512.0 282415.0 188726.0 195255.0 254949.0 252298.0 83673.0 83884.0 269469.0 262998.0 207829.0 201843.0 112702.0 109203.0 156371.0 149294.0 160954.0 168782.0 43952.0 41243.0 54303.0 61064.0 203042.0 205744.0 75824.0 74256.0 280190.0 277192.0 169174.0 161265.0 300467.0 295820.0 276656.0 270781.0 271506.0 267507.0 245084.0 252776.0 271776.0 279942.0 254221.0 259652.0 195810.0 199340.0 68247.0 75015.0 172503.0 179403.0 273093.0 273009.0 254388.0 255475.0 235363.0 229629.0 48507.0 48819.0 194027.0 189907.0 316238.0 311415.0 253167.0 257923.0 90576.0 94548.0 32708.0 24935.0 218176.0 220594.0 217097.0 222296.0 227611.0 231112.0 214333.0 206338.0 171467.0 171032.0 308186.0 315914.0 51149.0 59099.0 244750.0 239838.0 189186.0 182305.0 99665.0 92531.0 290948.0 293515.0 266797.0 259317.0 239579.0 231519.0 0.0 8428.0 178550.0 186440.0 171743.0 168958.0 298917.0 301081.0 160449.0 156985.0 306955.0 312958.0 264068.0 268718.0 52757.0 54678.0 266115.0 258291.0 283683.0 275729.0 191954.0 199816.0 84356.0 76973.0 257650.0 252792.0 49819.0 48298.0 43162.0 34974.0 111617.0 114942.0 223274.0 229817.0 248815.0 243667.0 54664.0 57164.0 142055.0 149045.0 232675.0 227650.0 167097.0 159071.0 238728.0 81174.0 238728.0 238728.0 81174.0 81174.0
238605.0 239941.0 207987.0 215787.0 183892.0 180886.0 291691.0 295925.0 222489.0 214673.0 305411.0 309977.0 111444.0 119414.0 238219.0 243267.0 276810.0 268830.0 24631.0 28060.0 285618.0 281435.0 250884.0 244282.0 286823.0 281931.0 188173.0 194891.0 257664.0 255013.0 82715.0 82120.0 271751.0 265124.0 208203.0 202018.0 114626.0 110605.0 158088.0 151091.0 159937.0 167706.0 40655.0 36623.0 48806.0 55163.0 204550.0 206921.0 75065.0 74383.0 279779.0 276552.0 170021.0 162072.0 302956.0 298130.0 278294.0 272256.0 269978.0 266195.0 247799.0 255492.0 272380.0 280540.0 256937.0 262367.0 196591.0 199809.0 69542.0 75764.0 171499.0 178634.0 275808.0 275725.0 250676.0 251998.0 238079.0 232345.0 46375.0 47969.0 193933.0 189506.0 317229.0 312234.0 252662.0 257634.0 87564.0 90923.0 38419.0 30346.0 219260.0 221965.0 217363.0 222792.0 229174.0 232934.0 215848.0 207869.0 170967.0 170138.0 310902.0 318630.0 48906.0 56587.0 247433.0 242553.0 188701.0 181606.0 102101.0 94663.0 288924.0 291716.0 269513.0 262032.0 240976.0 232939.0 8428.0 0.0 179545.0 187484.0 172458.0 170041.0 301633.0 303757.0 161273.0 158223.0 303013.0 309147.0 266783.0 271433.0 44441.0 46250.0 268802.0 260999.0 286361.0 278390.0 193557.0 201351.0 79828.0 72147.0 260365.0 255508.0 41402.0 40091.0 45141.0 36872.0 112771.0 115834.0 225240.0 231956.0 251469.0 246115.0 46836.0 49846.0 140489.0 147689.0 233587.0 228790.0 166450.0 158293.0 241444.0 84457.0 241444.0 241444.0 84457.0 84457.0
96609.0 92422.0 35391.0 41291.0 21239.0 28011.0 112483.0 116427.0 43853.0 36752.0 141584.0 143646.0 91370.0 84686.0 60772.0 64528.0 157846.0 152160.0 155315.0 154852.0 112837.0 106950.0 71339.0 64866.0 117246.0 110437.0 35046.0 34155.0 115228.0 115692.0 99995.0 104074.0 97776.0 90063.0 32300.0 29463.0 67330.0 69511.0 26233.0 32911.0 44550.0 44011.0 219740.0 214370.0 149212.0 149721.0 27406.0 27609.0 254306.0 252731.0 107650.0 106953.0 9949.0 17798.0 129704.0 123526.0 99937.0 93353.0 112961.0 106271.0 95611.0 101564.0 93615.0 101767.0 106124.0 108046.0 17813.0 23702.0 246459.0 253312.0 42227.0 37483.0 119385.0 116018.0 141106.0 136667.0 88127.0 80200.0 225907.0 227205.0 28372.0 32365.0 137708.0 132892.0 83036.0 85287.0 108461.0 112166.0 151806.0 156837.0 39735.0 43179.0 41849.0 45100.0 51243.0 56726.0 38070.0 30666.0 32049.0 40087.0 147917.0 155725.0 228411.0 235956.0 85746.0 85127.0 33800.0 36415.0 81644.0 87321.0 137798.0 136652.0 109139.0 100950.0 62052.0 54196.0 178550.0 179545.0 0.0 7988.0 9096.0 9723.0 133354.0 133065.0 18521.0 21998.0 187741.0 190014.0 121667.0 122929.0 198055.0 191814.0 100338.0 94173.0 121056.0 114186.0 19278.0 24796.0 255367.0 247163.0 110388.0 109017.0 192060.0 198427.0 221342.0 213175.0 66937.0 63712.0 50932.0 58959.0 82928.0 75463.0 173038.0 165693.0 61382.0 54854.0 54132.0 49307.0 35857.0 40906.0 104539.0 102177.0 104539.0 104539.0 102177.0 102177.0
94201.0 89480.0 30418.0 35352.0 22424.0 30201.0 104497.0 108464.0 35930.0 28996.0 135826.0 137582.0 98700.0 91831.0 53569.0 56939.0 156158.0 150767.0 163274.0 162835.0 105312.0 99290.0 63412.0 57036.0 110967.0 103940.0 35615.0 32939.0 111025.0 111976.0 107971.0 112004.0 90196.0 82403.0 26285.0 25050.0 74940.0 77336.0 32820.0 39792.0 49980.0 48387.0 227701.0 222346.0 157144.0 157598.0 20049.0 19625.0 262212.0 260599.0 101081.0 100760.0 17871.0 25772.0 122087.0 115814.0 91977.0 85370.0 108345.0 101404.0 90540.0 96163.0 85949.0 94087.0 101020.0 102494.0 11022.0 18274.0 254328.0 261181.0 46076.0 40153.0 113448.0 109762.0 140536.0 135731.0 83522.0 75534.0 233850.0 235117.0 26692.0 32432.0 129800.0 125051.0 77139.0 78891.0 116207.0 119773.0 159509.0 164619.0 31778.0 35237.0 35560.0 38004.0 43395.0 49103.0 30333.0 23194.0 36377.0 44216.0 141102.0 148879.0 236358.0 243912.0 79686.0 79624.0 34169.0 38485.0 89182.0 95015.0 133471.0 131920.0 102886.0 94722.0 54076.0 46241.0 186440.0 187484.0 7988.0 0.0 16448.0 17487.0 126142.0 125650.0 26503.0 29636.0 185876.0 187827.0 117013.0 117842.0 206003.0 199739.0 93312.0 87385.0 114183.0 107473.0 14001.0 17781.0 263355.0 255151.0 105312.0 104386.0 200009.0 206393.0 229212.0 221044.0 74824.0 71653.0 43700.0 51818.0 76071.0 68432.0 180939.0 173576.0 68009.0 61145.0 46294.0 41334.0 40796.0 46767.0 101763.0 109679.0 101763.0 101763.0 109679.0 109679.0
95195.0 91679.0 38378.0 45279.0 18553.0 23289.0 120275.0 123917.0 52246.0 45442.0 144332.0 146860.0 82350.0 75611.0 66367.0 70887.0 155306.0 149308.0 148090.0 147336.0 121732.0 115738.0 78704.0 71872.0 120894.0 114468.0 31650.0 32837.0 123525.0 123722.0 92079.0 95857.0 106632.0 98851.0 36734.0 32145.0 61892.0 63244.0 24737.0 30262.0 36096.0 36379.0 212462.0 206946.0 140984.0 141305.0 36352.0 35783.0 247377.0 245990.0 111816.0 110506.0 3661.0 10596.0 138531.0 132259.0 108129.0 101361.0 114198.0 107888.0 104332.0 110399.0 100037.0 108204.0 114847.0 116927.0 24149.0 28009.0 239746.0 246598.0 35100.0 31671.0 128371.0 125072.0 137403.0 133371.0 96663.0 88779.0 218769.0 220256.0 28052.0 29715.0 144860.0 139776.0 86290.0 89291.0 99787.0 103326.0 145771.0 150517.0 47404.0 51514.0 46303.0 50713.0 59795.0 65544.0 46780.0 39567.0 24762.0 32751.0 157012.0 164820.0 221249.0 228724.0 94773.0 94011.0 30708.0 31289.0 76335.0 81475.0 138537.0 137941.0 118193.0 110003.0 70180.0 62459.0 171743.0 172458.0 9096.0 16448.0 0.0 7938.0 142392.0 142025.0 11448.0 17782.0 185326.0 187962.0 130180.0 131631.0 189892.0 183548.0 109413.0 103268.0 130149.0 123282.0 28320.0 33833.0 247633.0 239417.0 119095.0 117533.0 183906.0 190378.0 214629.0 206462.0 60376.0 56816.0 59948.0 68003.0 92019.0 84533.0 164689.0 157292.0 52319.0 45894.0 61226.0 57024.0 27900.0 32207.0 112043.0 96878.0 112043.0 112043.0 96878.0 96878.0
102898.0 99221.0 44218.0 50547.0 26255.0 31225.0 121791.0 125885.0 52832.0 45391.0 150492.0 152749.0 84484.0 78254.0 70455.0 74248.0 163200.0 157226.0 145873.0 145552.0 120722.0 115126.0 80884.0 74513.0 126498.0 119811.0 39549.0 40378.0 118140.0 117962.0 91022.0 95386.0 105802.0 98270.0 41660.0 38101.0 57607.0 59852.0 17487.0 23688.0 42083.0 43282.0 210302.0 205002.0 140481.0 141220.0 35595.0 36902.0 244737.0 243113.0 117064.0 116164.0 4795.0 9541.0 137752.0 131792.0 108960.0 102536.0 121080.0 114598.0 99807.0 106171.0 103328.0 111478.0 110298.0 112829.0 27504.0 32950.0 236842.0 243695.0 42357.0 39449.0 124669.0 121786.0 145338.0 141306.0 91759.0 83989.0 216412.0 217646.0 35255.0 37514.0 147280.0 142534.0 92112.0 94635.0 100443.0 104532.0 142094.0 147153.0 49230.0 52221.0 51257.0 54771.0 59989.0 64976.0 46665.0 38938.0 32059.0 39907.0 154477.0 162323.0 218925.0 226497.0 91378.0 89989.0 38573.0 39180.0 71927.0 77605.0 145635.0 144817.0 114928.0 106740.0 71201.0 63254.0 168958.0 170041.0 9723.0 17487.0 7938.0 0.0 140616.0 140703.0 10039.0 12281.0 193211.0 195804.0 125150.0 126997.0 189225.0 183098.0 107363.0 100840.0 127769.0 120660.0 25859.0 32666.0 246168.0 237974.0 114500.0 112534.0 183224.0 189487.0 211725.0 203558.0 57344.0 54230.0 58575.0 66386.0 89754.0 82605.0 164432.0 157158.0 56264.0 50515.0 63774.0 58749.0 34638.0 37802.0 105770.0 92464.0 105770.0 105770.0 92464.0 92464.0
171224.0 163290.0 126313.0 120249.0 142893.0 150421.0 58008.0 64863.0 92698.0 97788.0 152801.0 147613.0 224723.0 217968.0 103759.0 95434.0 225380.0 224039.0 279100.0 280512.0 23998.0 32241.0 81356.0 88826.0 129183.0 121821.0 150195.0 142886.0 70345.0 78341.0 229342.0 234678.0 38285.0 46574.0 121011.0 128618.0 188051.0 193469.0 146824.0 153098.0 174461.0 170819.0 342213.0 338045.0 279183.0 280687.0 106095.0 108521.0 374359.0 372419.0 119269.0 126720.0 142993.0 150127.0 18091.0 24653.0 52442.0 59691.0 155397.0 148170.0 60227.0 53103.0 86663.0 85767.0 56256.0 48248.0 122376.0 124932.0 366147.0 373000.0 167483.0 159444.0 37740.0 32115.0 223491.0 216111.0 69152.0 72026.0 347375.0 347584.0 138521.0 146680.0 76183.0 80878.0 124099.0 116803.0 240891.0 245146.0 269526.0 275382.0 100549.0 93662.0 117604.0 109647.0 84849.0 77725.0 96426.0 102971.0 159747.0 166457.0 20518.0 26335.0 349997.0 357749.0 54425.0 60509.0 148655.0 156537.0 199654.0 207344.0 175242.0 168141.0 35632.0 41209.0 79159.0 84452.0 298917.0 301633.0 133354.0 126142.0 142392.0 140616.0 0.0 8242.0 150655.0 149829.0 248483.0 246258.0 62922.0 54819.0 327087.0 321552.0 33423.0 40779.0 16455.0 24377.0 114768.0 108562.0 380746.0 372734.0 55819.0 63430.0 321101.0 326720.0 341031.0 332864.0 192356.0 190707.0 82453.0 74395.0 51159.0 58012.0 303435.0 296439.0 193927.0 186731.0 94244.0 92722.0 164874.0 172017.0 100102.0 218659.0 100102.0 100102.0 218659.0 218659.0
166278.0 158320.0 123856.0 117470.0 141458.0 148816.0 50999.0 57527.0 91304.0 96924.0 145532.0 140185.0 224350.0 217412.0 99912.0 91522.0 219405.0 218270.0 280959.0 282136.0 20805.0 28383.0 77448.0 85161.0 122370.0 115182.0 148101.0 140638.0 77313.0 85293.0 230266.0 235386.0 35992.0 44242.0 118825.0 126520.0 189721.0 194885.0 147834.0 154291.0 173187.0 169218.0 344385.0 340060.0 280109.0 281398.0 105676.0 107465.0 376523.0 374583.0 112720.0 120308.0 142834.0 150157.0 10159.0 17505.0 46995.0 54607.0 149271.0 142178.0 65458.0 58704.0 80714.0 79292.0 62449.0 54411.0 121207.0 123251.0 368311.0 375164.0 165777.0 157601.0 44860.0 38598.0 218235.0 210779.0 73949.0 76098.0 349497.0 349747.0 136541.0 144642.0 68065.0 72917.0 118833.0 111351.0 241138.0 245159.0 271689.0 277545.0 98753.0 92230.0 114827.0 106828.0 83427.0 76720.0 95562.0 102465.0 158392.0 164872.0 27458.0 32119.0 352128.0 360033.0 57625.0 64378.0 146588.0 154618.0 201670.0 209249.0 168588.0 161362.0 41171.0 45721.0 76635.0 82503.0 301081.0 303757.0 133065.0 125650.0 142025.0 140703.0 8242.0 0.0 150721.0 150361.0 242055.0 239669.0 70293.0 62296.0 328269.0 322588.0 34976.0 42940.0 22272.0 29482.0 114862.0 108301.0 382597.0 374547.0 62391.0 69971.0 322273.0 328035.0 343194.0 335027.0 193611.0 191773.0 82180.0 74320.0 52363.0 58451.0 304308.0 297223.0 193050.0 185710.0 91339.0 90486.0 163588.0 170946.0 105724.0 220823.0 105724.0 105724.0 220823.0 220823.0
103660.0 100694.0 49612.0 56658.0 28084.0 30600.0 130978.0 134834.0 62341.0 55091.0 155199.0 157898.0 74515.0 68403.0 77804.0 82222.0 162460.0 156162.0 136968.0 136391.0 130703.0 125041.0 89677.0 83009.0 132086.0 125759.0 39635.0 42363.0 126975.0 126467.0 81477.0 85629.0 115752.0 108172.0 48172.0 43368.0 50495.0 51806.0 17433.0 21068.0 35101.0 37822.0 201376.0 195946.0 130757.0 131375.0 45442.0 46128.0 236133.0 234682.0 123137.0 121681.0 8750.0 867.0 147703.0 141684.0 118447.0 111873.0 124400.0 118307.0 109235.0 115732.0 111374.0 119540.0 119698.0 122440.0 35361.0 39454.0 228424.0 235277.0 37761.0 36857.0 134417.0 131657.0 143363.0 139810.0 100987.0 93304.0 207612.0 209018.0 38317.0 38440.0 155965.0 150990.0 97414.0 100598.0 90444.0 94495.0 134329.0 139106.0 58164.0 61681.0 57729.0 62139.0 69649.0 74848.0 56387.0 48769.0 28053.0 35141.0 164474.0 172323.0 210104.0 217615.0 101243.0 99657.0 39015.0 37433.0 64946.0 70028.0 148388.0 148118.0 124807.0 116625.0 80572.0 72705.0 160449.0 161273.0 18521.0 26503.0 11448.0 10039.0 150655.0 150721.0 0.0 8532.0 192526.0 195512.0 134238.0 136331.0 179570.0 173368.0 117400.0 110858.0 137787.0 130654.0 35893.0 42583.0 236861.0 228655.0 123869.0 121662.0 173573.0 179916.0 203308.0 195140.0 48980.0 45509.0 68571.0 76410.0 99786.0 92643.0 154640.0 147330.0 47070.0 41868.0 72316.0 67762.0 29199.0 30445.0 113808.0 85477.0 113808.0 113808.0 85477.0 85477.0
111932.0 108801.0 55956.0 62560.0 35819.0 38949.0 133474.0 137756.0 64308.0 56608.0 162074.0 164519.0 77143.0 71705.0 82729.0 86506.0 170960.0 164680.0 134172.0 134094.0 130725.0 125481.0 92891.0 86655.0 138421.0 131847.0 47914.0 50183.0 122296.0 121341.0 80218.0 85052.0 116015.0 108716.0 53763.0 49757.0 45338.0 47794.0 9094.0 12746.0 42654.0 45967.0 198585.0 193399.0 129949.0 131050.0 46570.0 48759.0 232794.0 231082.0 129134.0 128057.0 14235.0 9169.0 147903.0 142214.0 120317.0 114090.0 131918.0 125655.0 105663.0 112449.0 115565.0 123709.0 116031.0 119261.0 39783.0 45020.0 224819.0 231672.0 46114.0 45389.0 131612.0 129316.0 151892.0 148341.0 97047.0 89567.0 204597.0 205721.0 45729.0 46531.0 159295.0 154648.0 103907.0 106660.0 91179.0 95848.0 129874.0 135002.0 61226.0 63761.0 63372.0 67041.0 71193.0 75643.0 57827.0 49919.0 36540.0 43476.0 162812.0 170680.0 207125.0 214739.0 98972.0 96722.0 47220.0 45938.0 59647.0 65379.0 156137.0 155658.0 122522.0 114388.0 82776.0 74760.0 156985.0 158223.0 21998.0 29636.0 17782.0 12281.0 149829.0 150361.0 8532.0 0.0 201025.0 203976.0 129940.0 132478.0 178479.0 172533.0 116428.0 109534.0 136379.0 129023.0 35985.0 43459.0 234821.0 226645.0 120124.0 117466.0 172475.0 178573.0 199703.0 191536.0 45452.0 42604.0 68689.0 76194.0 98705.0 91959.0 154059.0 146906.0 52282.0 47949.0 75912.0 70668.0 37434.0 37861.0 108260.0 80183.0 108260.0 108260.0 80183.0 80183.0
91924.0 97651.0 157750.0 156848.0 167083.0 162300.0 191327.0 185767.0 186654.0 189773.0 102427.0 110016.0 194461.0 187719.0 157159.0 163306.0 30066.0 36784.0 281018.0 275346.0 226022.0 217903.0 174946.0 170335.0 120296.0 126982.0 153677.0 153590.0 278191.0 282454.0 229574.0 226317.0 216053.0 209685.0 163934.0 161671.0 231704.0 227808.0 209484.0 213531.0 165425.0 158837.0 333070.0 325374.0 255067.0 249903.0 191952.0 183435.0 370377.0 372589.0 129351.0 121770.0 188840.0 191858.0 232425.0 224581.0 196538.0 190125.0 93584.0 101253.0 253912.0 255443.0 162102.0 162771.0 262179.0 258918.0 177111.0 169055.0 370649.0 375496.0 157106.0 155850.0 262959.0 255693.0 53141.0 54019.0 251718.0 244723.0 341256.0 346107.0 159522.0 155765.0 185364.0 177608.0 128593.0 134313.0 216894.0 212419.0 295181.0 295847.0 178685.0 185805.0 158416.0 162759.0 190395.0 197488.0 190323.0 191902.0 165186.0 159694.0 269001.0 274172.0 342918.0 347994.0 236205.0 241591.0 154640.0 155093.0 243839.0 244397.0 73937.0 81787.0 250630.0 244985.0 185330.0 186228.0 306955.0 303013.0 187741.0 185876.0 185326.0 193211.0 248483.0 242055.0 192526.0 201025.0 0.0 8111.0 279729.0 276337.0 293124.0 285059.0 231373.0 231833.0 248256.0 246648.0 196457.0 193216.0 352728.0 345356.0 265985.0 269096.0 288722.0 296775.0 347738.0 339589.0 223793.0 219009.0 201607.0 206437.0 223693.0 216586.0 268367.0 261416.0 175075.0 171109.0 172065.0 178832.0 165912.0 169801.0 279075.0 260732.0 279075.0 279075.0 260732.0 260732.0
93633.0 98877.0 159197.0 157892.0 169589.0 165111.0 188784.0 182986.0 187061.0 190501.0 98245.0 105619.0 200049.0 193154.0 157015.0 162863.0 33796.0 41251.0 286952.0 281399.0 224090.0 216042.0 174109.0 169815.0 117481.0 124486.0 156356.0 155875.0 277901.0 282358.0 234909.0 231845.0 214544.0 208380.0 165252.0 163354.0 235760.0 232075.0 212307.0 216563.0 169342.0 162571.0 339631.0 331965.0 261379.0 256321.0 193095.0 184552.0 376995.0 379109.0 126990.0 119617.0 191515.0 194823.0 229938.0 222170.0 194603.0 188394.0 92219.0 100052.0 253603.0 254889.0 160219.0 160491.0 261661.0 258174.0 178780.0 170705.0 377022.0 381954.0 160676.0 159027.0 261813.0 254451.0 58642.0 58633.0 251715.0 244851.0 347795.0 352566.0 161691.0 158295.0 181668.0 174016.0 127925.0 133274.0 222713.0 218412.0 300610.0 301436.0 179287.0 186240.0 159350.0 163350.0 190501.0 197428.0 190998.0 192905.0 168457.0 163235.0 266764.0 271762.0 349486.0 354645.0 235742.0 241341.0 157255.0 158117.0 248117.0 248900.0 71104.0 78614.0 249539.0 244091.0 184935.0 186182.0 312958.0 309147.0 190014.0 187827.0 187962.0 195804.0 246258.0 239669.0 195512.0 203976.0 8111.0 0.0 279150.0 275540.0 299957.0 291892.0 230110.0 230855.0 246555.0 245202.0 198020.0 194484.0 359748.0 352334.0 265403.0 268723.0 295495.0 303550.0 353965.0 345794.0 228065.0 223274.0 201857.0 206420.0 223002.0 216055.0 275049.0 268040.0 179754.0 175526.0 172045.0 178998.0 169415.0 173622.0 279587.0 265317.0 279587.0 279587.0 265317.0 265317.0
192192.0 184951.0 131944.0 129113.0 138771.0 146796.0 105932.0 114059.0 96681.0 96734.0 195389.0 192048.0 206650.0 201594.0 122891.0 116432.0 252954.0 249766.0 244634.0 246834.0 68903.0 73830.0 105164.0 109395.0 168610.0 160216.0 150338.0 144958.0 10047.0 17005.0 201439.0 208149.0 70138.0 73694.0 125360.0 131247.0 156639.0 163618.0 123600.0 127858.0 166198.0 165346.0 307383.0 303221.0 249695.0 252702.0 99931.0 106597.0 339510.0 337570.0 157097.0 162845.0 129127.0 134047.0 77672.0 80247.0 92730.0 96025.0 187256.0 179306.0 27175.0 24291.0 123230.0 126218.0 17643.0 21604.0 118925.0 124940.0 331298.0 338151.0 163085.0 156791.0 25547.0 32767.0 244673.0 238232.0 33542.0 41497.0 312526.0 312734.0 139038.0 146751.0 131762.0 134217.0 151229.0 146093.0 217522.0 223369.0 234676.0 240532.0 105620.0 97684.0 126827.0 120412.0 91118.0 83364.0 95694.0 98112.0 153315.0 161216.0 57925.0 63724.0 315148.0 323032.0 43629.0 39426.0 148742.0 154728.0 165374.0 173475.0 210917.0 205297.0 33792.0 36358.0 94463.0 94450.0 264068.0 266783.0 121667.0 117013.0 130180.0 125150.0 62922.0 70293.0 134238.0 129940.0 279729.0 279150.0 0.0 8263.0 295123.0 290535.0 53254.0 49712.0 48726.0 43794.0 103052.0 100708.0 346104.0 338169.0 13747.0 12650.0 289269.0 294041.0 306182.0 298014.0 163755.0 163606.0 81424.0 74901.0 56205.0 63145.0 273769.0 267556.0 181291.0 175654.0 108466.0 102624.0 157462.0 162385.0 46895.0 183810.0 46895.0 46895.0 183810.0 183810.0
189791.0 182416.0 130978.0 127682.0 139206.0 147252.0 99561.0 107647.0 95269.0 96016.0 190263.0 186676.0 209489.0 204179.0 120053.0 113257.0 249968.0 247009.0 249283.0 251483.0 61955.0 67344.0 101434.0 106143.0 163747.0 155425.0 150323.0 144627.0 17479.0 25009.0 205581.0 212133.0 64386.0 68604.0 124471.0 130672.0 161042.0 167844.0 126547.0 131146.0 167462.0 166225.0 312033.0 307870.0 254203.0 257020.0 100011.0 106226.0 344160.0 342220.0 152353.0 158349.0 130798.0 136090.0 69918.0 72822.0 86906.0 90681.0 183443.0 175536.0 27323.0 22261.0 118312.0 120893.0 16822.0 17482.0 118992.0 124628.0 335948.0 342800.0 163800.0 157215.0 17873.0 25480.0 242490.0 235903.0 35431.0 43027.0 317175.0 317384.0 138847.0 146707.0 124766.0 127495.0 147744.0 142293.0 221117.0 226773.0 239326.0 245182.0 104275.0 96293.0 125316.0 118599.0 89242.0 81317.0 94904.0 97963.0 154218.0 162030.0 49766.0 55721.0 319797.0 327682.0 41342.0 38652.0 148718.0 155019.0 170024.0 178124.0 206733.0 200901.0 27564.0 31558.0 91512.0 92178.0 268718.0 271433.0 122929.0 117842.0 131631.0 126997.0 54819.0 62296.0 136331.0 132478.0 276337.0 275540.0 8263.0 0.0 299761.0 295192.0 47503.0 44958.0 41009.0 36630.0 103999.0 101047.0 350754.0 342819.0 12542.0 15940.0 293916.0 298691.0 310831.0 302664.0 167807.0 167449.0 80232.0 73226.0 52699.0 60166.0 278356.0 272027.0 183256.0 177370.0 105987.0 100573.0 158537.0 163805.0 53539.0 188460.0 53539.0 53539.0 188460.0 188460.0
240429.0 243186.0 221579.0 229580.0 197790.0 193191.0 310056.0 313317.0 241905.0 234611.0 310458.0 315937.0 115168.0 123593.0 252623.0 258730.0 269474.0 261454.0 53969.0 49217.0 309022.0 303947.0 268161.0 260896.0 295058.0 291276.0 199066.0 206528.0 286003.0 283353.0 98267.0 94037.0 294447.0 287195.0 223087.0 216094.0 139615.0 133717.0 180439.0 174012.0 169509.0 176671.0 44034.0 36180.0 48957.0 49785.0 224785.0 225596.0 78765.0 82508.0 289524.0 285181.0 188132.0 180267.0 326272.0 320687.0 297975.0 291253.0 274087.0 271505.0 275894.0 283514.0 287241.0 295263.0 285208.0 290427.0 213669.0 215344.0 83884.0 86551.0 180687.0 188753.0 303774.0 303189.0 242937.0 245607.0 266234.0 260183.0 52203.0 58849.0 206917.0 201111.0 333441.0 327663.0 262346.0 268324.0 92381.0 91854.0 79602.0 71737.0 237256.0 241234.0 231527.0 237945.0 249197.0 254068.0 235889.0 228136.0 182681.0 179928.0 338077.0 345893.0 53055.0 56317.0 273941.0 269832.0 199917.0 191976.0 129756.0 121650.0 290094.0 294062.0 296755.0 288989.0 260046.0 252244.0 52757.0 44441.0 198055.0 206003.0 189892.0 189225.0 327087.0 328269.0 179570.0 178479.0 293124.0 299957.0 295123.0 299761.0 0.0 8065.0 293735.0 286341.0 312643.0 304884.0 214454.0 221775.0 61399.0 53428.0 288684.0 283822.0 6004.0 5370.0 67941.0 62160.0 134732.0 136503.0 247148.0 254528.0 276053.0 269855.0 26625.0 34366.0 148209.0 156113.0 250519.0 246869.0 177603.0 169124.0 269783.0 116178.0 269783.0 269783.0 116178.0 116178.0
232672.0 235502.0 214730.0 222735.0 191029.0 186284.0 303581.0 306727.0 235664.0 228451.0 302824.0 308354.0 107846.0 116256.0 245798.0 252004.0 261421.0 253402.0 51924.0 46193.0 303203.0 298009.0 261618.0 254291.0 287645.0 283950.0 192013.0 199525.0 281416.0 278765.0 92352.0 87741.0 288547.0 281219.0 216367.0 209306.0 134584.0 128441.0 174773.0 168457.0 162421.0 169509.0 51331.0 43397.0 42617.0 42722.0 218687.0 219299.0 86631.0 90198.0 282231.0 277807.0 181875.0 174050.0 320418.0 314733.0 291674.0 284876.0 266424.0 263916.0 271026.0 278605.0 280412.0 288411.0 280451.0 285530.0 207213.0 208712.0 91195.0 94124.0 173532.0 181657.0 298825.0 298074.0 234884.0 237572.0 261405.0 255227.0 59589.0 66024.0 200041.0 194118.0 326701.0 320848.0 255079.0 261133.0 85358.0 84499.0 79023.0 71411.0 230852.0 234975.0 224716.0 231223.0 243017.0 248023.0 229740.0 222033.0 175749.0 172827.0 332856.0 340687.0 60579.0 64144.0 268653.0 264711.0 192891.0 184893.0 125257.0 117117.0 282270.0 286291.0 291591.0 283771.0 253728.0 245968.0 54678.0 46250.0 191814.0 199739.0 183548.0 183098.0 321552.0 322588.0 173368.0 172533.0 285059.0 291892.0 290535.0 295192.0 8065.0 0.0 288164.0 280845.0 307258.0 299545.0 208470.0 215709.0 69235.0 61327.0 283984.0 279260.0 5370.0 12310.0 74217.0 67989.0 129278.0 130851.0 241222.0 248678.0 270457.0 264144.0 19238.0 26969.0 141041.0 148973.0 243967.0 240456.0 170633.0 162152.0 265195.0 112592.0 265195.0 265195.0 112592.0 112592.0
148069.0 140351.0 96470.0 91239.0 111074.0 118808.0 53008.0 61161.0 61324.0 65539.0 142862.0 139182.0 191646.0 185023.0 78243.0 70488.0 206078.0 203756.0 246068.0 247337.0 19971.0 21723.0 57224.0 63368.0 116577.0 108350.0 119393.0 112432.0 56298.0 63462.0 195931.0 201255.0 16906.0 21742.0 90674.0 98014.0 154887.0 160182.0 113414.0 119727.0 142298.0 139103.0 309425.0 305129.0 245775.0 247263.0 73287.0 76422.0 341557.0 339617.0 105341.0 111661.0 109870.0 116891.0 35806.0 33803.0 39487.0 43257.0 137904.0 130140.0 36698.0 32446.0 71199.0 73436.0 38585.0 31951.0 90319.0 93622.0 333345.0 340198.0 135936.0 128153.0 31851.0 24343.0 200982.0 193981.0 43029.0 43208.0 314523.0 314782.0 107605.0 115804.0 80265.0 81840.0 103295.0 97098.0 207529.0 211862.0 236724.0 242580.0 69765.0 62338.0 88636.0 80949.0 53694.0 46013.0 64192.0 70265.0 127737.0 134737.0 48100.0 55760.0 317155.0 325061.0 23743.0 31510.0 117815.0 125387.0 166728.0 174335.0 160395.0 154243.0 20025.0 17589.0 50743.0 54388.0 266115.0 268802.0 100338.0 93312.0 109413.0 107363.0 33423.0 34976.0 117400.0 116428.0 231373.0 230110.0 53254.0 47503.0 293735.0 288164.0 0.0 8219.0 21207.0 16121.0 81553.0 75604.0 347715.0 339678.0 40750.0 47041.0 287746.0 293411.0 308229.0 300062.0 159011.0 157314.0 49678.0 41512.0 17736.0 24884.0 270021.0 263018.0 161285.0 154247.0 66217.0 63051.0 132755.0 139623.0 76270.0 185857.0 76270.0 76270.0 185857.0 185857.0
146885.0 139291.0 92689.0 87964.0 105953.0 113802.0 58491.0 66604.0 56945.0 60371.0 145677.0 142394.0 185279.0 178808.0 76826.0 69476.0 205945.0 203316.0 238368.0 239739.0 27970.0 28631.0 56937.0 62307.0 118938.0 110571.0 114910.0 108191.0 51447.0 58165.0 188700.0 194147.0 21829.0 24033.0 86654.0 93774.0 147277.0 152698.0 106198.0 112390.0 136825.0 133962.0 301606.0 297368.0 238524.0 240132.0 67484.0 71284.0 333733.0 331793.0 107474.0 113397.0 103543.0 110380.0 44024.0 41838.0 43936.0 46462.0 138674.0 130806.0 30063.0 27031.0 73531.0 76581.0 33644.0 28112.0 85119.0 88954.0 325521.0 332374.0 130918.0 123327.0 31470.0 25025.0 199803.0 192956.0 35505.0 35168.0 306749.0 306958.0 103110.0 111291.0 86600.0 87647.0 103325.0 97585.0 200706.0 205193.0 228899.0 234756.0 65686.0 57981.0 85410.0 77960.0 49626.0 41667.0 59052.0 64597.0 122417.0 129605.0 53744.0 61555.0 309287.0 317204.0 15610.0 23577.0 113316.0 120662.0 158962.0 166617.0 161794.0 155944.0 19041.0 13428.0 48568.0 51082.0 258291.0 260999.0 94173.0 87385.0 103268.0 100840.0 40779.0 42940.0 110858.0 109534.0 231833.0 230855.0 49712.0 44958.0 286341.0 280845.0 8219.0 0.0 26930.0 20133.0 75160.0 69608.0 340018.0 331996.0 36449.0 41961.0 280357.0 285951.0 300405.0 292238.0 151612.0 150023.0 44148.0 35979.0 11368.0 19464.0 262793.0 255840.0 155386.0 148496.0 63833.0 59801.0 127340.0 133974.0 68795.0 178033.0 68795.0 68795.0 178033.0 178033.0
167280.0 159457.0 117547.0 112145.0 132246.0 139998.0 61910.0 69646.0 82529.0 86681.0 155967.0 151473.0 212206.0 205715.0 98033.0 90004.0 223871.0 221955.0 264060.0 265679.0 23386.0 30795.0 76261.0 83015.0 130869.0 123007.0 140591.0 133602.0 55234.0 63189.0 215255.0 220820.0 32589.0 40015.0 111816.0 119190.0 173276.0 178929.0 132829.0 138884.0 163391.0 160277.0 326886.0 322844.0 265036.0 266770.0 94212.0 97578.0 359125.0 357185.0 120200.0 127132.0 130461.0 137310.0 28947.0 32100.0 52250.0 58162.0 154690.0 147132.0 43775.0 36711.0 86385.0 87043.0 40193.0 32154.0 111469.0 114830.0 350913.0 357766.0 157127.0 149358.0 23189.0 16390.0 220059.0 212901.0 52718.0 55813.0 332141.0 332350.0 128806.0 137004.0 84717.0 88184.0 121360.0 114634.0 227557.0 232095.0 254292.0 260148.0 90935.0 83541.0 109526.0 101754.0 74879.0 67220.0 85338.0 91250.0 148871.0 155912.0 26955.0 34698.0 334763.0 342648.0 38935.0 44455.0 139015.0 146594.0 184552.0 192329.0 176040.0 169403.0 19196.0 24953.0 71314.0 75412.0 283683.0 286361.0 121056.0 114183.0 130149.0 127769.0 16455.0 22272.0 137787.0 136379.0 248256.0 246555.0 48726.0 41009.0 312643.0 307258.0 21207.0 26930.0 0.0 8072.0 102081.0 96424.0 365664.0 357688.0 40146.0 47712.0 306670.0 312146.0 325797.0 317630.0 177981.0 176533.0 70691.0 62504.0 38131.0 45832.0 289324.0 282428.0 182191.0 175230.0 86775.0 84025.0 153864.0 160650.0 83749.0 203425.0 83749.0 83749.0 203425.0 203425.0
164075.0 156330.0 112264.0 107200.0 126059.0 133890.0 63503.0 71489.0 76789.0 80466.0 156254.0 152123.0 205140.0 198755.0 94329.0 86520.0 221688.0 219502.0 256144.0 257816.0 25370.0 31382.0 73115.0 79420.0 130548.0 122490.0 134846.0 128021.0 49326.0 57165.0 207626.0 213265.0 30688.0 37114.0 106360.0 113595.0 165447.0 171169.0 125276.0 131249.0 156958.0 154075.0 319044.0 314887.0 257375.0 259182.0 87604.0 91381.0 351171.0 349231.0 119576.0 126210.0 123475.0 130198.0 34833.0 36536.0 52150.0 57200.0 153084.0 145398.0 36032.0 29230.0 85491.0 86903.0 33313.0 25339.0 105231.0 108943.0 342959.0 349812.0 151012.0 143377.0 18996.0 11157.0 216970.0 209930.0 44794.0 47749.0 324187.0 324396.0 123045.0 131237.0 88136.0 90968.0 118938.0 112535.0 220181.0 224819.0 246337.0 252194.0 85400.0 77817.0 104608.0 96971.0 69305.0 61461.0 79141.0 84728.0 142547.0 149717.0 33823.0 41680.0 326809.0 334694.0 31015.0 36386.0 133257.0 140682.0 176631.0 184429.0 175090.0 168702.0 11738.0 16888.0 66850.0 70294.0 275729.0 278390.0 114186.0 107473.0 123282.0 120660.0 24377.0 29482.0 130654.0 129023.0 246648.0 245202.0 43794.0 36630.0 304884.0 299545.0 16121.0 20133.0 8072.0 0.0 95094.0 89693.0 357732.0 349765.0 33806.0 41218.0 298916.0 304349.0 317843.0 309676.0 170272.0 168890.0 64276.0 56101.0 31500.0 39516.0 281670.0 274807.0 175458.0 168601.0 82318.0 78990.0 147473.0 154096.0 76242.0 195471.0 76242.0 76242.0 195471.0 195471.0
104535.0 99189.0 38861.0 41484.0 36260.0 44138.0 98446.0 103263.0 29453.0 21366.0 140110.0 141086.0 110133.0 103663.0 54749.0 56077.0 167011.0 161952.0 169726.0 169899.0 94961.0 89546.0 59463.0 54410.0 114101.0 106520.0 49038.0 45429.0 97024.0 98015.0 116188.0 120878.0 80131.0 72750.0 33122.0 34839.0 79332.0 82960.0 35617.0 42763.0 63540.0 62300.0 234058.0 229030.0 165870.0 166817.0 11271.0 16993.0 267763.0 265887.0 103473.0 104246.0 28385.0 35359.0 112060.0 106263.0 84738.0 78855.0 115257.0 107908.0 76680.0 82453.0 83926.0 91858.0 87178.0 88874.0 19458.0 27438.0 259615.0 266468.0 60059.0 54114.0 100117.0 96752.0 152534.0 147412.0 69544.0 61562.0 239896.0 240767.0 39105.0 45687.0 125317.0 121297.0 81749.0 82140.0 126276.0 130387.0 163707.0 169307.0 28952.0 29109.0 40809.0 40494.0 35658.0 39672.0 22444.0 14457.0 50272.0 58165.0 128874.0 136702.0 242450.0 250136.0 66468.0 65964.0 47529.0 52355.0 93001.0 99581.0 140717.0 138432.0 89873.0 81683.0 47830.0 39756.0 191954.0 193557.0 19278.0 14001.0 28320.0 25859.0 114768.0 114862.0 35893.0 35985.0 196457.0 198020.0 103052.0 103999.0 214454.0 208470.0 81553.0 75160.0 102081.0 95094.0 0.0 7992.0 270668.0 262504.0 91461.0 90419.0 208450.0 214557.0 234499.0 226332.0 80983.0 78436.0 32813.0 40542.0 63998.0 56760.0 189928.0 182719.0 80640.0 74126.0 44032.0 37344.0 54539.0 60071.0 88120.0 113104.0 88120.0 88120.0 113104.0 113104.0
101388.0 95628.0 35602.0 36812.0 38159.0 46205.0 90527.0 95289.0 21464.0 13402.0 133652.0 134361.0 116164.0 109437.0 47748.0 48547.0 164044.0 159276.0 177458.0 177525.0 88156.0 82464.0 51500.0 46587.0 107326.0 99598.0 49762.0 45020.0 95326.0 96958.0 123520.0 128027.0 73172.0 65604.0 29285.0 32677.0 87243.0 90747.0 43541.0 50704.0 67580.0 65492.0 241821.0 236741.0 173094.0 173885.0 3279.0 10482.0 275633.0 273774.0 96506.0 97619.0 34536.0 41974.0 105123.0 99126.0 76958.0 70967.0 109985.0 102474.0 73869.0 79120.0 76095.0 83990.0 84264.0 85291.0 18449.0 25504.0 267503.0 274355.0 62871.0 56170.0 95932.0 92079.0 150652.0 145227.0 67481.0 59491.0 247703.0 248622.0 38838.0 46222.0 117326.0 113311.0 75657.0 75544.0 133001.0 136872.0 171667.0 177238.0 21399.0 21117.0 35729.0 34232.0 27823.0 32319.0 14519.0 6522.0 53601.0 61219.0 123333.0 131117.0 250252.0 257921.0 62144.0 62546.0 48182.0 54030.0 100960.0 107495.0 135522.0 132888.0 85209.0 77062.0 39869.0 31793.0 199816.0 201351.0 24796.0 17781.0 33833.0 32666.0 108562.0 108301.0 42583.0 43459.0 193216.0 194484.0 100708.0 101047.0 221775.0 215709.0 75604.0 69608.0 96424.0 89693.0 7992.0 0.0 278271.0 270098.0 88571.0 88168.0 215772.0 221954.0 242386.0 234219.0 88690.0 86032.0 26140.0 34170.0 58303.0 50720.0 197081.0 189819.0 85779.0 78922.0 36336.0 29453.0 58256.0 64496.0 88461.0 121085.0 88461.0 88461.0 121085.0 121085.0
301820.0 304526.0 280926.0 288895.0 256922.0 252797.0 367838.0 371536.0 298991.0 291409.0 371732.0 377131.0 176031.0 184465.0 311819.0 317570.0 329872.0 321873.0 101650.0 100780.0 364054.0 359523.0 326312.0 319298.0 355918.0 351927.0 259091.0 266390.0 336985.0 334334.0 155600.0 152565.0 349891.0 342996.0 282003.0 275258.0 192902.0 188087.0 235661.0 228859.0 229697.0 237039.0 41035.0 43250.0 108600.0 110584.0 281392.0 282969.0 37772.0 45511.0 350091.0 345957.0 245564.0 237610.0 381390.0 376268.0 355098.0 348694.0 335401.0 332718.0 327120.0 334812.0 346379.0 354469.0 336257.0 341688.0 271692.0 273987.0 54703.0 51147.0 241027.0 248920.0 355129.0 354969.0 303349.0 306293.0 317399.0 311665.0 39744.0 44580.0 266389.0 260956.0 392183.0 386689.0 322868.0 328635.0 152736.0 152836.0 117041.0 109278.0 294987.0 298389.0 290727.0 296825.0 306006.0 310306.0 292640.0 284740.0 242397.0 240126.0 390186.0 397890.0 37325.0 30334.0 326732.0 321865.0 259862.0 252097.0 181118.0 173403.0 351489.0 355457.0 348813.0 341353.0 317363.0 309421.0 84356.0 79828.0 255367.0 263355.0 247633.0 246168.0 380746.0 382597.0 236861.0 234821.0 352728.0 359748.0 346104.0 350754.0 61399.0 69235.0 347715.0 340018.0 365664.0 357732.0 270668.0 278271.0 0.0 8235.0 339686.0 334828.0 66796.0 59138.0 60542.0 62504.0 189764.0 192242.0 302930.0 309944.0 330239.0 324586.0 87943.0 95641.0 208657.0 216470.0 308756.0 304599.0 237442.0 228994.0 320764.0 164164.0 320764.0 320764.0 164164.0 164164.0
293792.0 296454.0 272691.0 280661.0 248687.0 244565.0 359630.0 363317.0 290800.0 283227.0 363630.0 369006.0 167868.0 176301.0 303584.0 309338.0 322301.0 314296.0 93637.0 92635.0 355962.0 351403.0 318092.0 311072.0 347740.0 343730.0 250867.0 258162.0 329050.0 326399.0 147376.0 144331.0 341776.0 334862.0 273770.0 267023.0 184836.0 179969.0 227529.0 220741.0 221480.0 228830.0 34353.0 35737.0 100391.0 102439.0 273215.0 274767.0 38521.0 45743.0 341888.0 337770.0 237356.0 229402.0 373296.0 368150.0 346911.0 340495.0 327316.0 324599.0 319185.0 326877.0 338145.0 346235.0 328322.0 333753.0 263472.0 265756.0 53717.0 51322.0 232817.0 240702.0 347194.0 347070.0 295771.0 298639.0 309464.0 303730.0 34295.0 40002.0 258155.0 252728.0 383953.0 378456.0 314663.0 320419.0 144539.0 144693.0 109680.0 101845.0 286776.0 290195.0 282493.0 288592.0 297825.0 302149.0 284460.0 276564.0 234167.0 231910.0 382275.0 389988.0 32114.0 26140.0 318760.0 313938.0 251636.0 243877.0 173136.0 165392.0 343509.0 347435.0 340894.0 333412.0 309166.0 301228.0 76973.0 72147.0 247163.0 255151.0 239417.0 237974.0 372734.0 374547.0 228655.0 226645.0 345356.0 352334.0 338169.0 342819.0 53428.0 61327.0 339678.0 331996.0 357688.0 349765.0 262504.0 270098.0 8235.0 0.0 331751.0 326894.0 58739.0 51018.0 56123.0 57170.0 181620.0 184074.0 294791.0 301823.0 322186.0 316503.0 79904.0 87582.0 200455.0 208263.0 300534.0 296389.0 229215.0 220768.0 312829.0 156343.0 312829.0 312829.0 156343.0 156343.0
178590.0 171315.0 118913.0 115843.0 126727.0 134771.0 93744.0 101896.0 83398.0 83827.0 182031.0 178831.0 197191.0 191808.0 109185.0 102691.0 239243.0 236091.0 238216.0 240415.0 57865.0 61981.0 91436.0 95650.0 155142.0 146722.0 137939.0 132329.0 15748.0 23411.0 193918.0 200365.0 57462.0 60482.0 112370.0 118451.0 149603.0 156269.0 114334.0 119072.0 154920.0 153698.0 300965.0 296803.0 242769.0 245447.0 87583.0 93923.0 333092.0 331152.0 143586.0 149247.0 118279.0 123619.0 68600.0 70131.0 80004.0 82904.0 173523.0 165570.0 14782.0 10567.0 109819.0 113028.0 4308.0 8891.0 106577.0 112317.0 324880.0 331733.0 151288.0 144741.0 18777.0 23799.0 231141.0 224656.0 23163.0 30581.0 306107.0 306316.0 126506.0 134329.0 120426.0 122424.0 137482.0 132363.0 209128.0 214690.0 228258.0 234114.0 92376.0 84412.0 113519.0 106976.0 77639.0 69819.0 82742.0 85590.0 141688.0 149507.0 55327.0 62179.0 308729.0 316614.0 29951.0 26362.0 136335.0 142568.0 158956.0 167042.0 197233.0 191660.0 22537.0 23343.0 80736.0 80848.0 257650.0 260365.0 110388.0 105312.0 119095.0 114500.0 55819.0 62391.0 123869.0 120124.0 265985.0 265403.0 13747.0 12542.0 288684.0 283984.0 40750.0 36449.0 40146.0 33806.0 91461.0 88571.0 339686.0 331751.0 0.0 7611.0 282812.0 287619.0 299763.0 291596.0 156116.0 155629.0 68233.0 61479.0 42481.0 49403.0 266971.0 260558.0 170763.0 164849.0 94821.0 89094.0 145998.0 151266.0 45843.0 177392.0 45843.0 45843.0 177392.0 177392.0
180821.0 173686.0 119806.0 117213.0 126192.0 134210.0 99999.0 108150.0 84849.0 84547.0 186885.0 183923.0 194292.0 189150.0 111993.0 105861.0 241984.0 238613.0 233358.0 235558.0 64844.0 68560.0 95213.0 98929.0 159796.0 151327.0 137849.0 132562.0 9548.0 16438.0 189769.0 196371.0 63468.0 65845.0 113198.0 118949.0 145159.0 152002.0 111259.0 115665.0 153548.0 152708.0 296108.0 291945.0 238309.0 241166.0 87455.0 94253.0 328235.0 326294.0 148153.0 153563.0 116494.0 121462.0 76046.0 77360.0 85856.0 88295.0 177136.0 169153.0 15289.0 14943.0 114661.0 118242.0 8458.0 15949.0 106434.0 112555.0 320022.0 326875.0 150462.0 144207.0 26267.0 31391.0 233112.0 226773.0 20893.0 28857.0 301250.0 301459.0 126604.0 134271.0 127123.0 128879.0 140848.0 136049.0 205509.0 211256.0 223401.0 229257.0 93722.0 85836.0 114977.0 108757.0 79603.0 72012.0 83541.0 85706.0 140676.0 148584.0 62510.0 69185.0 303872.0 311757.0 33059.0 27718.0 136256.0 142169.0 154099.0 162199.0 201168.0 195806.0 29754.0 29454.0 83793.0 83207.0 252792.0 255508.0 109017.0 104386.0 117533.0 112534.0 63430.0 69971.0 121662.0 117466.0 269096.0 268723.0 12650.0 15940.0 283822.0 279260.0 47041.0 41961.0 47712.0 41218.0 90419.0 88168.0 334828.0 326894.0 7611.0 0.0 277978.0 282766.0 294906.0 286739.0 152016.0 151729.0 69524.0 63339.0 46580.0 52809.0 262450.0 256141.0 168701.0 163030.0 97323.0 91183.0 144814.0 149739.0 38771.0 172534.0 38771.0 38771.0 172534.0 172534.0
235054.0 237730.0 215676.0 223676.0 191867.0 187306.0 304081.0 307358.0 235910.0 228611.0 304948.0 310381.0 109467.0 117897.0 246713.0 252798.0 264813.0 256788.0 48826.0 43700.0 303020.0 297943.0 262196.0 254941.0 289382.0 285550.0 193228.0 200672.0 280150.0 277499.0 92263.0 88054.0 288443.0 281191.0 217154.0 210177.0 133677.0 127748.0 174442.0 168021.0 163687.0 170879.0 46516.0 38558.0 42998.0 44020.0 218783.0 219604.0 82346.0 85659.0 283781.0 279483.0 182138.0 174272.0 320269.0 314683.0 291983.0 285267.0 268607.0 265958.0 269992.0 277605.0 281330.0 289358.0 279326.0 284520.0 207694.0 209396.0 86327.0 89458.0 174891.0 182932.0 297859.0 297249.0 238281.0 240837.0 260338.0 254265.0 54816.0 61101.0 201022.0 195252.0 327508.0 321748.0 256592.0 262536.0 86555.0 86183.0 75191.0 67449.0 231274.0 235239.0 225615.0 232012.0 243198.0 248064.0 229889.0 222134.0 176805.0 174110.0 332124.0 339942.0 55915.0 59828.0 267978.0 263890.0 194070.0 186149.0 123909.0 115795.0 284801.0 288698.0 290808.0 283035.0 254056.0 246250.0 49819.0 41402.0 192060.0 200009.0 183906.0 183224.0 321101.0 322273.0 173573.0 172475.0 288722.0 295495.0 289269.0 293916.0 6004.0 5370.0 287746.0 280357.0 306670.0 298916.0 208450.0 215772.0 66796.0 58739.0 282812.0 277978.0 0.0 8055.0 68957.0 62661.0 128746.0 130505.0 241144.0 248524.0 270062.0 263856.0 21170.0 28846.0 142423.0 150314.0 244556.0 240888.0 171739.0 163261.0 263929.0 110557.0 263929.0 263929.0 110557.0 110557.0
242843.0 245451.0 222614.0 230607.0 198732.0 194313.0 310626.0 314014.0 242252.0 234877.0 312612.0 317995.0 116923.0 125357.0 253616.0 259602.0 272862.0 264837.0 51548.0 47485.0 308924.0 303966.0 268820.0 261628.0 296837.0 292922.0 200371.0 207764.0 284922.0 282271.0 98465.0 94622.0 294430.0 287255.0 223968.0 217059.0 138937.0 133255.0 180266.0 173744.0 170879.0 178137.0 39065.0 31153.0 49860.0 51456.0 224995.0 226007.0 74423.0 77899.0 291122.0 286903.0 188527.0 180629.0 326201.0 320715.0 298363.0 291721.0 276303.0 273584.0 274971.0 282621.0 288225.0 296274.0 284191.0 289522.0 214258.0 216129.0 78936.0 81813.0 182139.0 190121.0 302907.0 302461.0 246331.0 248874.0 265282.0 259338.0 47301.0 53812.0 207992.0 202337.0 334305.0 328620.0 263915.0 269785.0 93785.0 93702.0 76170.0 68209.0 237776.0 241598.0 232513.0 238821.0 249476.0 254209.0 236144.0 228348.0 183843.0 181308.0 337429.0 345230.0 48270.0 51915.0 273373.0 269121.0 201187.0 193323.0 128669.0 120606.0 292645.0 296492.0 296071.0 288354.0 260465.0 252621.0 48298.0 40091.0 198427.0 206393.0 190378.0 189487.0 326720.0 328035.0 179916.0 178573.0 296775.0 303550.0 294041.0 298691.0 5370.0 12310.0 293411.0 285951.0 312146.0 304349.0 214557.0 221954.0 59138.0 51018.0 287619.0 282766.0 8055.0 0.0 62618.0 56794.0 134424.0 136370.0 247176.0 254478.0 275757.0 269668.0 29054.0 36644.0 149706.0 157564.0 251196.0 247394.0 178815.0 170344.0 268701.0 114448.0 268701.0 268701.0 114448.0 114448.0
283560.0 284753.0 250911.0 258616.0 226904.0 224304.0 332903.0 337413.0 263700.0 255770.0 349823.0 354211.0 156563.0 164495.0 280773.0 285515.0 321777.0 313786.0 69044.0 73199.0 325182.0 321333.0 292587.0 286205.0 330633.0 325527.0 231858.0 238366.0 297062.0 294411.0 126830.0 126851.0 311625.0 305245.0 250796.0 244858.0 155182.0 151909.0 198891.0 191783.0 204117.0 211943.0 27211.0 33350.0 92764.0 98389.0 245622.0 248458.0 36574.0 32798.0 323299.0 320304.0 212021.0 204128.0 342581.0 337949.0 319148.0 313350.0 314613.0 310654.0 287197.0 294890.0 314666.0 322833.0 296335.0 301765.0 238665.0 242285.0 25228.0 32458.0 215666.0 222552.0 315206.0 315123.0 295577.0 297013.0 277477.0 271743.0 22567.0 16121.0 237097.0 233024.0 358991.0 354230.0 296285.0 301016.0 132704.0 135981.0 73021.0 65941.0 260920.0 263225.0 260088.0 265228.0 270155.0 273534.0 256905.0 248907.0 214598.0 214192.0 350300.0 358028.0 24271.0 30237.0 286863.0 281951.0 232314.0 225444.0 141915.0 134956.0 333868.0 336538.0 308911.0 301430.0 282191.0 274125.0 43162.0 45141.0 221342.0 229212.0 214629.0 211725.0 341031.0 343194.0 203308.0 199703.0 347738.0 353965.0 306182.0 310831.0 67941.0 74217.0 308229.0 300405.0 325797.0 317843.0 234499.0 242386.0 60542.0 56123.0 299763.0 294906.0 68957.0 62618.0 0.0 8282.0 154408.0 157814.0 265625.0 272073.0 290956.0 285737.0 84170.0 89529.0 185129.0 192171.0 275475.0 270370.0 210242.0 202224.0 280842.0 124149.0 280842.0 280842.0 124149.0 124149.0
275283.0 276486.0 242697.0 250387.0 218705.0 216134.0 324736.0 329246.0 255533.0 247602.0 341599.0 346009.0 148284.0 156213.0 272605.0 277347.0 313569.0 305581.0 60777.0 64927.0 317014.0 313166.0 284419.0 278038.0 322483.0 317366.0 223693.0 230197.0 288895.0 286244.0 118613.0 118584.0 303458.0 297078.0 242629.0 236634.0 147014.0 143742.0 190723.0 183616.0 195910.0 203731.0 24960.0 29523.0 84692.0 90427.0 237455.0 240291.0 42924.0 40042.0 315129.0 312160.0 203854.0 195961.0 334414.0 329782.0 310981.0 305182.0 306364.0 302424.0 279030.0 286722.0 306498.0 314665.0 288167.0 293598.0 230498.0 234117.0 33284.0 40238.0 207462.0 214377.0 307039.0 306955.0 287384.0 288791.0 269310.0 263576.0 22884.0 18508.0 228911.0 224856.0 350824.0 346063.0 288123.0 292841.0 124431.0 127743.0 64854.0 57773.0 252753.0 255057.0 251921.0 257060.0 261988.0 265366.0 248738.0 240740.0 206431.0 206001.0 342133.0 349861.0 25194.0 32462.0 278696.0 273784.0 224146.0 217279.0 133747.0 126789.0 325592.0 328271.0 300744.0 293263.0 274024.0 265957.0 34974.0 36872.0 213175.0 221044.0 206462.0 203558.0 332864.0 335027.0 195140.0 191536.0 339589.0 345794.0 298014.0 302664.0 62160.0 67989.0 300062.0 292238.0 317630.0 309676.0 226332.0 234219.0 62504.0 57170.0 291596.0 286739.0 62661.0 56794.0 8282.0 0.0 146241.0 149646.0 257458.0 263906.0 282789.0 277570.0 76892.0 81997.0 176874.0 183932.0 267307.0 262203.0 202070.0 194044.0 272674.0 115982.0 272674.0 272674.0 115982.0 115982.0
142036.0 140941.0 97659.0 105094.0 74212.0 73214.0 178922.0 183185.0 109733.0 101960.0 201014.0 204407.0 51883.0 51416.0 126722.0 131192.0 194276.0 187055.0 88771.0 88986.0 174592.0 169837.0 138228.0 131797.0 179372.0 173515.0 81787.0 87100.0 154874.0 152289.0 37806.0 44405.0 160239.0 153252.0 96905.0 91471.0 10588.0 4016.0 45947.0 39322.0 59382.0 66838.0 153158.0 148054.0 87180.0 89421.0 91862.0 94175.0 187394.0 185796.0 171041.0 168947.0 57655.0 49813.0 191897.0 186591.0 165645.0 159512.0 168020.0 162779.0 142610.0 150040.0 160341.0 168507.0 152381.0 156979.0 84300.0 88265.0 179525.0 186377.0 69617.0 74272.0 170102.0 169011.0 171445.0 169775.0 133166.0 126602.0 159146.0 160306.0 84699.0 82098.0 204623.0 199822.0 144626.0 148520.0 54855.0 61685.0 85536.0 90144.0 106570.0 109200.0 106364.0 111085.0 116503.0 120568.0 103153.0 95194.0 65026.0 67409.0 203644.0 211487.0 161674.0 169296.0 139408.0 135674.0 81847.0 76547.0 20052.0 22208.0 190391.0 191329.0 162460.0 154581.0 128214.0 120185.0 111617.0 112771.0 66937.0 74824.0 60376.0 57344.0 192356.0 193611.0 48980.0 45452.0 223793.0 228065.0 163755.0 167807.0 134732.0 129278.0 159011.0 151612.0 177981.0 170272.0 80983.0 88690.0 189764.0 181620.0 156116.0 152016.0 128746.0 134424.0 154408.0 146241.0 0.0 4794.0 113173.0 120267.0 141342.0 135264.0 111481.0 104773.0 49998.0 52784.0 121068.0 116066.0 61952.0 55678.0 138719.0 38758.0 138719.0 138719.0 38758.0 38758.0
137316.0 136275.0 93709.0 101223.0 70097.0 68851.0 175992.0 180109.0 106888.0 99212.0 196629.0 200097.0 49188.0 48097.0 123054.0 127701.0 189485.0 182269.0 91644.0 91494.0 172557.0 167632.0 135051.0 128493.0 175184.0 169413.0 77343.0 82794.0 154871.0 152402.0 38742.0 44768.0 158075.0 150968.0 93153.0 87548.0 14329.0 8801.0 43938.0 37650.0 54612.0 62091.0 156073.0 150815.0 88508.0 90373.0 89164.0 91130.0 190634.0 189179.0 166971.0 164762.0 54240.0 46323.0 189831.0 184386.0 162921.0 156663.0 163486.0 158306.0 141938.0 149286.0 156852.0 165019.0 151828.0 156222.0 80869.0 84564.0 182930.0 189783.0 64904.0 69676.0 169242.0 167935.0 166682.0 164992.0 132588.0 125860.0 162197.0 163523.0 80552.0 77740.0 201407.0 196492.0 140455.0 144470.0 54180.0 60636.0 89488.0 93881.0 103431.0 106323.0 102557.0 107460.0 113794.0 118096.0 100430.0 92510.0 60489.0 62718.0 202389.0 210245.0 164705.0 172267.0 138133.0 134655.0 77441.0 71997.0 24843.0 26780.0 185759.0 186756.0 161326.0 153384.0 125335.0 117337.0 114942.0 115834.0 63712.0 71653.0 56816.0 54230.0 190707.0 191773.0 45509.0 42604.0 219009.0 223274.0 163606.0 167449.0 136503.0 130851.0 157314.0 150023.0 176533.0 168890.0 78436.0 86032.0 192242.0 184074.0 155629.0 151729.0 130505.0 136370.0 157814.0 149646.0 4794.0 0.0 110874.0 118114.0 139607.0 133352.0 112791.0 105924.0 45388.0 48027.0 117783.0 112972.0 57316.0 50943.0 138832.0 43398.0 138832.0 138832.0 43398.0 43398.0
111784.0 104900.0 50752.0 47701.0 61835.0 69726.0 69095.0 75039.0 15349.0 16374.0 129391.0 128508.0 142294.0 135516.0 45489.0 41647.0 173676.0 169890.0 201682.0 202156.0 62156.0 56800.0 37055.0 36220.0 101896.0 93502.0 71308.0 65002.0 77938.0 81327.0 148900.0 153676.0 47332.0 40095.0 44279.0 50762.0 110632.0 114893.0 67283.0 74179.0 92717.0 89825.0 265843.0 261011.0 198634.0 199627.0 23651.0 27229.0 298954.0 297014.0 90229.0 93482.0 60659.0 67994.0 79250.0 73542.0 54144.0 49496.0 112253.0 104296.0 54323.0 57979.0 62600.0 69503.0 64009.0 63352.0 40995.0 45283.0 290742.0 297595.0 86820.0 79349.0 72475.0 67755.0 163727.0 157518.0 50482.0 43191.0 271476.0 272075.0 59566.0 67671.0 97643.0 94881.0 75722.0 72812.0 159014.0 162978.0 194242.0 200095.0 24205.0 16322.0 45453.0 39434.0 11809.0 8746.0 15109.0 20587.0 78271.0 85472.0 97645.0 105375.0 274057.0 281817.0 39247.0 41999.0 69702.0 76773.0 123724.0 130745.0 137419.0 133291.0 60989.0 53062.0 22633.0 17065.0 223274.0 225240.0 50932.0 43700.0 59948.0 58575.0 82453.0 82180.0 68571.0 68689.0 201607.0 201857.0 81424.0 80232.0 247148.0 241222.0 49678.0 44148.0 70691.0 64276.0 32813.0 26140.0 302930.0 294791.0 68233.0 69524.0 241144.0 247176.0 265625.0 257458.0 113173.0 110874.0 0.0 8189.0 32781.0 24859.0 222718.0 215523.0 111617.0 104570.0 30323.0 22906.0 83211.0 89963.0 78028.0 143376.0 78028.0 78028.0 143376.0 143376.0
117489.0 110398.0 58085.0 54460.0 69979.0 77848.0 64579.0 71051.0 22107.0 24429.0 130952.0 129565.0 150328.0 143600.0 49436.0 44415.0 178901.0 175369.0 208554.0 209203.0 54532.0 49580.0 37247.0 38178.0 103361.0 94867.0 79244.0 72791.0 72083.0 76025.0 156329.0 161242.0 39973.0 33181.0 51732.0 58464.0 117336.0 121857.0 74321.0 81086.0 100906.0 97983.0 272590.0 267867.0 206120.0 207229.0 31780.0 35329.0 305394.0 303461.0 91586.0 95475.0 68619.0 75854.0 71745.0 66329.0 49080.0 45373.0 115901.0 107904.0 48052.0 51062.0 61940.0 68249.0 57331.0 56105.0 49142.0 53221.0 297189.0 304042.0 94954.0 87428.0 64713.0 59779.0 169806.0 163436.0 45297.0 38573.0 278116.0 278582.0 67472.0 75611.0 93676.0 91514.0 79283.0 75628.0 166818.0 170880.0 200588.0 206428.0 31124.0 23142.0 52090.0 45512.0 16264.0 9037.0 23127.0 28758.0 86450.0 93627.0 89457.0 97190.0 280708.0 288503.0 31946.0 35624.0 77641.0 84816.0 130169.0 137342.0 140763.0 136235.0 53057.0 45223.0 23178.0 20240.0 229817.0 231956.0 58959.0 51818.0 68003.0 66386.0 74395.0 74320.0 76410.0 76194.0 206437.0 206420.0 74901.0 73226.0 254528.0 248678.0 41512.0 35979.0 62504.0 56101.0 40542.0 34170.0 309944.0 301823.0 61479.0 63339.0 248524.0 254478.0 272073.0 263906.0 120267.0 118114.0 8189.0 0.0 24616.0 16672.0 230250.0 223097.0 119773.0 112747.0 34382.0 27860.0 91398.0 98148.0 74759.0 149722.0 74759.0 74759.0 149722.0 149722.0
137417.0 129943.0 81700.0 77233.0 94595.0 102453.0 58403.0 66235.0 45806.0 49023.0 140450.0 137715.0 174130.0 167596.0 67471.0 60561.0 197275.0 194375.0 228606.0 229778.0 34771.0 32765.0 48959.0 53444.0 113264.0 104779.0 103655.0 97010.0 56080.0 61878.0 178207.0 183519.0 23734.0 21804.0 75577.0 82607.0 137358.0 142558.0 95695.0 102041.0 125461.0 122599.0 292110.0 287732.0 228054.0 229529.0 56141.0 59933.0 324284.0 322344.0 101596.0 106992.0 92362.0 99291.0 51885.0 48256.0 42730.0 43259.0 131052.0 123106.0 32420.0 32081.0 68309.0 72404.0 38925.0 35239.0 73758.0 77672.0 316072.0 322925.0 119565.0 112000.0 41364.0 35664.0 190255.0 183539.0 34802.0 31912.0 297295.0 297509.0 91860.0 100032.0 87588.0 87581.0 95117.0 89888.0 189828.0 194208.0 219450.0 225307.0 54637.0 46846.0 74714.0 67432.0 38659.0 30629.0 47708.0 53237.0 111049.0 118243.0 65030.0 72816.0 299920.0 307806.0 14198.0 22113.0 102058.0 109353.0 149369.0 156912.0 154779.0 149293.0 29186.0 21990.0 38938.0 40545.0 248815.0 251469.0 82928.0 76071.0 92019.0 89754.0 51159.0 52363.0 99786.0 98705.0 223693.0 223002.0 56205.0 52699.0 276053.0 270457.0 17736.0 11368.0 38131.0 31500.0 63998.0 58303.0 330239.0 322186.0 42481.0 46580.0 270062.0 275757.0 290956.0 282789.0 141342.0 139607.0 32781.0 24616.0 0.0 8263.0 252296.0 245286.0 144080.0 137161.0 53816.0 49219.0 115973.0 122624.0 67138.0 168584.0 67138.0 67138.0 168584.0 168584.0
129669.0 122261.0 73438.0 69012.0 86550.0 94375.0 57545.0 65007.0 37551.0 40954.0 135231.0 132868.0 166794.0 160144.0 59898.0 53288.0 189897.0 186858.0 223019.0 223974.0 39504.0 35905.0 42441.0 46257.0 107839.0 99312.0 95452.0 88770.0 62164.0 67413.0 171816.0 176951.0 26252.0 21648.0 67316.0 74362.0 131703.0 136636.0 89417.0 95946.0 117570.0 114573.0 286769.0 282248.0 221658.0 222966.0 48418.0 51869.0 319066.0 317126.0 96085.0 101109.0 85027.0 92118.0 56844.0 52287.0 41556.0 40549.0 124336.0 116358.0 37989.0 38857.0 63515.0 68311.0 45608.0 42689.0 65730.0 69490.0 310854.0 317707.0 111497.0 103874.0 49518.0 43924.0 182444.0 175792.0 38536.0 34071.0 292095.0 292319.0 83653.0 91832.0 87049.0 86277.0 88133.0 83240.0 182914.0 187135.0 214279.0 220135.0 46374.0 38590.0 66504.0 59278.0 30404.0 22368.0 39627.0 45425.0 103088.0 110213.0 72786.0 80519.0 294708.0 302559.0 19750.0 26378.0 93857.0 101200.0 144055.0 151463.0 148391.0 143139.0 37413.0 30049.0 31374.0 32430.0 243667.0 246115.0 75463.0 68432.0 84533.0 82605.0 58012.0 58451.0 92643.0 91959.0 216586.0 216055.0 63145.0 60166.0 269855.0 264144.0 24884.0 19464.0 45832.0 39516.0 56760.0 50720.0 324586.0 316503.0 49403.0 52809.0 263856.0 269668.0 285737.0 277570.0 135264.0 133352.0 24859.0 16672.0 8263.0 0.0 245857.0 238780.0 136417.0 129413.0 45921.0 41067.0 108054.0 114819.0 69266.0 163413.0 69266.0 69266.0 163413.0 163413.0
213889.0 216590.0 195552.0 203557.0 171893.0 167089.0 284592.0 287666.0 216869.0 209730.0 283841.0 289312.0 88629.0 97044.0 226626.0 232876.0 244111.0 236082.0 42682.0 35143.0 284782.0 279470.0 242591.0 235227.0 268473.0 264741.0 172781.0 180302.0 264666.0 262015.0 74095.0 69056.0 270050.0 262650.0 197246.0 190153.0 117369.0 110896.0 156612.0 150441.0 143187.0 150270.0 65112.0 57260.0 24302.0 23540.0 200027.0 200464.0 102077.0 104720.0 263012.0 258616.0 163092.0 155307.0 301956.0 296174.0 272813.0 265960.0 247481.0 244881.0 253787.0 261304.0 261237.0 269226.0 263359.0 268240.0 188258.0 189640.0 104152.0 108085.0 154293.0 162421.0 281454.0 280485.0 217594.0 220014.0 244231.0 237884.0 73415.0 78967.0 180854.0 174897.0 307561.0 301675.0 235853.0 241896.0 66146.0 65290.0 71600.0 64916.0 211928.0 216166.0 205551.0 212099.0 224272.0 229400.0 211027.0 203368.0 156546.0 153591.0 315110.0 322958.0 74872.0 79640.0 250862.0 247137.0 173664.0 165658.0 108925.0 100782.0 263632.0 267531.0 273941.0 266058.0 234863.0 227140.0 54664.0 46836.0 173038.0 180939.0 164689.0 164432.0 303435.0 304308.0 154640.0 154059.0 268367.0 275049.0 273769.0 278356.0 26625.0 19238.0 270021.0 262793.0 289324.0 281670.0 189928.0 197081.0 87943.0 79904.0 266971.0 262450.0 21170.0 29054.0 84170.0 76892.0 111481.0 112791.0 222718.0 230250.0 252296.0 245857.0 0.0 7751.0 121802.0 129735.0 224938.0 221522.0 151420.0 142940.0 248445.0 97988.0 248445.0 248445.0 97988.0 97988.0
206218.0 208885.0 187916.0 195921.0 164295.0 159437.0 277094.0 280117.0 209501.0 202409.0 276118.0 281576.0 80883.0 89297.0 218995.0 225280.0 236938.0 228908.0 41635.0 33554.0 277623.0 272244.0 235070.0 227680.0 260722.0 256993.0 165084.0 172617.0 258437.0 255786.0 67183.0 61855.0 262850.0 255410.0 189658.0 182541.0 110986.0 104336.0 149642.0 143558.0 135482.0 142548.0 71733.0 63976.0 17897.0 15995.0 192745.0 193073.0 108962.0 111336.0 255267.0 250865.0 155744.0 147988.0 294772.0 288935.0 265398.0 258511.0 239767.0 237147.0 247265.0 254747.0 253601.0 261582.0 256908.0 261685.0 180791.0 182091.0 110307.0 114526.0 146572.0 154713.0 274853.0 273772.0 210437.0 212758.0 237746.0 231315.0 79983.0 85255.0 173211.0 167216.0 299952.0 294041.0 228111.0 234166.0 58488.0 57541.0 70555.0 64434.0 204479.0 208789.0 197927.0 204508.0 216934.0 222134.0 203711.0 196082.0 148887.0 145883.0 308308.0 316162.0 81556.0 86612.0 244052.0 240444.0 165974.0 157953.0 103054.0 94937.0 256001.0 259865.0 267199.0 259285.0 227449.0 219751.0 57164.0 49846.0 165693.0 173576.0 157292.0 157158.0 296439.0 297223.0 147330.0 146906.0 261416.0 268040.0 267556.0 272027.0 34366.0 26969.0 263018.0 255840.0 282428.0 274807.0 182719.0 189819.0 95641.0 87582.0 260558.0 256141.0 28846.0 36644.0 89529.0 81997.0 104773.0 105924.0 215523.0 223097.0 245286.0 238780.0 7751.0 0.0 114081.0 122019.0 217416.0 214065.0 143750.0 135270.0 242216.0 93095.0 242216.0 242216.0 93095.0 93095.0
99004.0 99716.0 74900.0 82843.0 52570.0 46443.0 165772.0 167974.0 101887.0 96176.0 164982.0 169730.0 33578.0 25497.0 105849.0 112690.0 146002.0 138535.0 116115.0 112860.0 172460.0 165933.0 123720.0 115936.0 147454.0 143281.0 51169.0 58864.0 174037.0 173414.0 58657.0 58370.0 157230.0 149175.0 77610.0 70059.0 59318.0 53959.0 60221.0 58814.0 21597.0 28468.0 177750.0 171192.0 100071.0 98424.0 88000.0 85589.0 214654.0 214693.0 141435.0 137393.0 52631.0 47244.0 188809.0 182071.0 155646.0 148212.0 129502.0 125749.0 156070.0 162385.0 140268.0 148120.0 166562.0 169002.0 71933.0 71088.0 209956.0 216249.0 32491.0 40702.0 180629.0 177391.0 122273.0 121160.0 147979.0 140240.0 185014.0 187932.0 60205.0 53543.0 186878.0 180648.0 114216.0 120115.0 55928.0 56773.0 123513.0 125754.0 95182.0 101003.0 85046.0 92186.0 109738.0 116348.0 97539.0 91032.0 35926.0 31883.0 209110.0 216888.0 187248.0 194026.0 147082.0 146117.0 52157.0 43970.0 69686.0 69463.0 149120.0 151483.0 170512.0 162322.0 118341.0 111342.0 142055.0 140489.0 61382.0 68009.0 52319.0 56264.0 193927.0 193050.0 47070.0 52282.0 175075.0 179754.0 181291.0 183256.0 148209.0 141041.0 161285.0 155386.0 182191.0 175458.0 80640.0 85779.0 208657.0 200455.0 170763.0 168701.0 142423.0 149706.0 185129.0 176874.0 49998.0 45388.0 111617.0 119773.0 144080.0 136417.0 121802.0 114081.0 0.0 7999.0 106286.0 104356.0 30592.0 22435.0 160498.0 85675.0 160498.0 160498.0 85675.0 85675.0
92699.0 93025.0 66938.0 74871.0 44831.0 38526.0 157879.0 160028.0 94456.0 88943.0 157722.0 162340.0 41577.0 33475.0 97865.0 104736.0 141731.0 134416.0 123228.0 120196.0 165071.0 158453.0 115855.0 108045.0 139799.0 135515.0 43174.0 50865.0 168634.0 168292.0 65432.0 65639.0 149832.0 141738.0 69739.0 62154.0 61330.0 56800.0 56387.0 55874.0 13601.0 20573.0 185258.0 178768.0 107872.0 106330.0 81023.0 78263.0 222055.0 221979.0 133633.0 129695.0 46574.0 41926.0 181322.0 174517.0 147881.0 140409.0 122472.0 118515.0 150110.0 156268.0 132272.0 140122.0 160619.0 162815.0 64511.0 63366.0 217076.0 223451.0 24578.0 32721.0 174238.0 170809.0 118663.0 117096.0 142225.0 134413.0 192459.0 195266.0 52259.0 45547.0 178887.0 172650.0 106403.0 112226.0 63779.0 64758.0 129608.0 132151.0 87580.0 93556.0 77087.0 84268.0 102322.0 109062.0 90305.0 83989.0 28058.0 23896.0 202172.0 209926.0 194715.0 201554.0 140586.0 139902.0 44158.0 35983.0 72790.0 73388.0 142591.0 144709.0 163929.0 155748.0 110693.0 103786.0 149045.0 147689.0 54854.0 61145.0 45894.0 50515.0 186731.0 185710.0 41868.0 47949.0 171109.0 175526.0 175654.0 177370.0 156113.0 148973.0 154247.0 148496.0 175230.0 168601.0 74126.0 78922.0 216470.0 208263.0 164849.0 163030.0 150314.0 157564.0 192171.0 183932.0 52784.0 48027.0 104570.0 112747.0 137161.0 129413.0 129735.0 122019.0 7999.0 0.0 98461.0 96680.0 22714.0 14785.0 155671.0 89876.0 155671.0 155671.0 89876.0 89876.0
83809.0 76494.0 32901.0 26141.0 53778.0 60050.0 59745.0 62821.0 17561.0 24605.0 100233.0 100021.0 139348.0 131637.0 15185.0 12531.0 144671.0 141320.0 209276.0 208558.0 70662.0 62997.0 17654.0 10743.0 73056.0 64907.0 57678.0 49934.0 106261.0 110390.0 153157.0 156573.0 55965.0 47707.0 28814.0 36551.0 121137.0 123625.0 78140.0 85309.0 85132.0 79981.0 273670.0 268172.0 201562.0 201430.0 33214.0 27684.0 308412.0 306863.0 61695.0 64057.0 63567.0 71521.0 85254.0 77810.0 49569.0 41969.0 81942.0 73979.0 82059.0 84266.0 40039.0 48084.0 90823.0 88542.0 37090.0 35441.0 300591.0 307444.0 76242.0 67758.0 95068.0 88856.0 136530.0 129917.0 79678.0 72842.0 279928.0 281304.0 46691.0 54427.0 83651.0 78762.0 45399.0 42780.0 159205.0 161777.0 205757.0 210910.0 15137.0 17193.0 23503.0 15497.0 18611.0 25426.0 24225.0 30701.0 70406.0 75774.0 112688.0 119828.0 282419.0 289920.0 64873.0 69665.0 56261.0 64592.0 135284.0 141269.0 107098.0 103052.0 82730.0 75805.0 15479.0 14166.0 232675.0 233587.0 54132.0 46294.0 61226.0 63774.0 94244.0 91339.0 72316.0 75912.0 172065.0 172045.0 108466.0 105987.0 250519.0 243967.0 66217.0 63833.0 86775.0 82318.0 44032.0 36336.0 308756.0 300534.0 94821.0 97323.0 244556.0 251196.0 275475.0 267307.0 121068.0 117783.0 30323.0 34382.0 53816.0 45921.0 224938.0 217416.0 106286.0 98461.0 0.0 7955.0 75749.0 83871.0 108311.0 155705.0 108311.0 108311.0 155705.0 155705.0
89639.0 82540.0 33636.0 28213.0 51865.0 58776.0 63254.0 67137.0 9627.0 17012.0 108188.0 107952.0 136979.0 129475.0 22761.0 20384.0 151107.0 147517.0 204605.0 204149.0 69683.0 62458.0 22308.0 17211.0 81000.0 72833.0 57615.0 50189.0 99940.0 103764.0 149092.0 152835.0 54594.0 46290.0 28342.0 36038.0 115603.0 118462.0 72217.0 79411.0 83632.0 79077.0 269033.0 263677.0 197935.0 198070.0 26231.0 21913.0 303452.0 301745.0 69614.0 72009.0 59040.0 67002.0 85159.0 78065.0 51519.0 44449.0 89449.0 81515.0 75894.0 78591.0 46666.0 54538.0 85005.0 83232.0 33283.0 33340.0 295486.0 302339.0 75511.0 67217.0 90574.0 84746.0 142053.0 135622.0 72949.0 65892.0 275161.0 276370.0 46097.0 54165.0 88653.0 84239.0 53022.0 50671.0 156124.0 159050.0 200231.0 205559.0 9620.0 9326.0 25632.0 18214.0 11617.0 19277.0 16497.0 23458.0 68787.0 74772.0 110435.0 117779.0 277673.0 285238.0 59254.0 63464.0 56104.0 64185.0 129602.0 135814.0 114711.0 110804.0 78387.0 71115.0 14063.0 8721.0 227650.0 228790.0 49307.0 41334.0 57024.0 58749.0 92722.0 90486.0 67762.0 70668.0 178832.0 178998.0 102624.0 100573.0 246869.0 240456.0 63051.0 59801.0 84025.0 78990.0 37344.0 29453.0 304599.0 296389.0 89094.0 91183.0 240888.0 247394.0 270370.0 262203.0 116066.0 112972.0 22906.0 27860.0 49219.0 41067.0 221522.0 214065.0 104356.0 96680.0 7955.0 0.0 74096.0 81938.0 100915.0 149917.0 100915.0 100915.0 149917.0 149917.0
80395.0 79010.0 44401.0 52379.0 22244.0 15869.0 135182.0 137409.0 72288.0 67227.0 140257.0 144225.0 63989.0 56056.0 75441.0 82145.0 135919.0 129239.0 141828.0 139545.0 142879.0 136113.0 93143.0 85346.0 120421.0 115499.0 21773.0 28953.0 151086.0 151489.0 83746.0 85289.0 127637.0 119482.0 47028.0 39467.0 67811.0 65753.0 46513.0 48905.0 9599.0 8694.0 204998.0 198783.0 128969.0 127913.0 60010.0 56388.0 241323.0 240822.0 113396.0 110120.0 29941.0 28802.0 158958.0 152057.0 125195.0 117703.0 106371.0 101488.0 131217.0 136943.0 109970.0 117896.0 141716.0 143289.0 42504.0 40756.0 235343.0 241989.0 8902.0 12502.0 154173.0 150300.0 115485.0 112465.0 123921.0 115972.0 211945.0 214338.0 29672.0 23523.0 156501.0 150399.0 86229.0 91452.0 85276.0 86916.0 145035.0 148461.0 65115.0 71359.0 54526.0 61599.0 80165.0 87152.0 68579.0 62771.0 5344.0 6256.0 180817.0 188512.0 214280.0 221340.0 120389.0 120413.0 22441.0 15225.0 81388.0 84094.0 128444.0 129508.0 143437.0 135304.0 88137.0 81373.0 167097.0 166450.0 35857.0 40796.0 27900.0 34638.0 164874.0 163588.0 29199.0 37434.0 165912.0 169415.0 157462.0 158537.0 177603.0 170633.0 132755.0 127340.0 153864.0 147473.0 54539.0 58256.0 237442.0 229215.0 145998.0 144814.0 171739.0 178815.0 210242.0 202070.0 61952.0 57316.0 83211.0 91398.0 115973.0 108054.0 151420.0 143750.0 30592.0 22714.0 75749.0 74096.0 0.0 8481.0 139943.0 100704.0 139943.0 139943.0 100704.0 100704.0
86380.0 85541.0 52817.0 60806.0 30135.0 24263.0 143419.0 145746.0 79678.0 74235.0 147923.0 152058.0 55630.0 47786.0 83878.0 90514.0 139949.0 133030.0 133685.0 131278.0 150296.0 143668.0 101338.0 93591.0 128531.0 123738.0 30134.0 37419.0 155667.0 155692.0 75578.0 76936.0 135056.0 126956.0 55249.0 47769.0 62381.0 59585.0 46859.0 48009.0 4886.0 11195.0 196694.0 190438.0 120502.0 119432.0 66492.0 63518.0 233102.0 232675.0 121676.0 118265.0 33449.0 30279.0 166537.0 159737.0 133211.0 125783.0 113618.0 108986.0 136495.0 142467.0 118426.0 126362.0 147009.0 148933.0 49740.0 48654.0 227303.0 233899.0 14049.0 20344.0 160136.0 156529.0 118526.0 116004.0 128870.0 120984.0 203681.0 206144.0 38080.0 31994.0 164936.0 158859.0 94478.0 99815.0 76795.0 78480.0 137552.0 140782.0 72807.0 78776.0 62924.0 69907.0 87546.0 94324.0 75596.0 69402.0 13675.0 12123.0 187601.0 195337.0 206004.0 213032.0 126410.0 126016.0 30868.0 23336.0 75469.0 77611.0 135160.0 136537.0 149652.0 141485.0 95938.0 89005.0 159071.0 158293.0 40906.0 46767.0 32207.0 37802.0 172017.0 170946.0 30445.0 37861.0 169801.0 173622.0 162385.0 163805.0 169124.0 162152.0 139623.0 133974.0 160650.0 154096.0 60071.0 64496.0 228994.0 220768.0 151266.0 149739.0 163261.0 170344.0 202224.0 194044.0 55678.0 50943.0 89963.0 98148.0 122624.0 114819.0 142940.0 135270.0 22435.0 14785.0 83871.0 81938.0 8481.0 0.0 143565.0 94275.0 143565.0 143565.0 94275.0 94275.0
188170.0 181724.0 123436.0 122800.0 124185.0 131866.0 125530.0 133371.0 92538.0 89435.0 205338.0 203519.0 183483.0 179018.0 123494.0 119091.0 250648.0 246410.0 219294.0 221494.0 96105.0 97414.0 111434.0 112936.0 177758.0 169228.0 137159.0 133236.0 36893.0 31861.0 176257.0 183114.0 89809.0 88942.0 116844.0 121091.0 131325.0 138409.0 100929.0 104309.0 147836.0 148365.0 282043.0 277881.0 224357.0 227389.0 88850.0 96959.0 314170.0 312230.0 165956.0 170149.0 110237.0 113779.0 110171.0 109736.0 109849.0 109735.0 190251.0 182282.0 40422.0 47048.0 134550.0 139846.0 44275.0 52073.0 106667.0 113965.0 305958.0 312811.0 146755.0 141709.0 64505.0 68264.0 238750.0 233058.0 33292.0 35337.0 287186.0 287395.0 126955.0 133796.0 154576.0 154719.0 153675.0 150345.0 192960.0 199086.0 209336.0 215192.0 100394.0 93350.0 120994.0 116316.0 89706.0 83699.0 88814.0 88170.0 136518.0 144566.0 101167.0 107939.0 289808.0 297692.0 53939.0 45598.0 135648.0 140215.0 140034.0 148135.0 215326.0 210954.0 64593.0 60608.0 97835.0 94554.0 238728.0 241444.0 104539.0 101763.0 112043.0 105770.0 100102.0 105724.0 113808.0 108260.0 279075.0 279587.0 46895.0 53539.0 269783.0 265195.0 76270.0 68795.0 83749.0 76242.0 88120.0 88461.0 320764.0 312829.0 45843.0 38771.0 263929.0 268701.0 280842.0 272674.0 138719.0 138832.0 78028.0 74759.0 67138.0 69266.0 248445.0 242216.0 160498.0 155671.0 108311.0 100915.0 139943.0 143565.0 0.0 158470.0 0.0 0.0 158470.0 158470.0
180652.0 179673.0 135005.0 142135.0 112154.0 111706.0 211398.0 216364.0 142547.0 134468.0 239442.0 242642.0 75084.0 78498.0 162894.0 166617.0 231534.0 224138.0 63526.0 67000.0 202888.0 198964.0 172222.0 166420.0 217268.0 211139.0 120399.0 125451.0 174691.0 172040.0 42206.0 49871.0 189257.0 182886.0 133594.0 128765.0 34986.0 35028.0 77703.0 70508.0 97785.0 105378.0 124850.0 121060.0 75676.0 80817.0 124359.0 128140.0 157477.0 155537.0 208560.0 206844.0 93760.0 86341.0 220209.0 215591.0 197172.0 191730.0 206726.0 201399.0 164826.0 172518.0 195588.0 203707.0 173963.0 179394.0 119965.0 124850.0 149265.0 156118.0 108273.0 113029.0 192835.0 192751.0 207941.0 206777.0 155105.0 149371.0 129679.0 129575.0 122677.0 120562.0 238386.0 234156.0 182518.0 186013.0 64459.0 72531.0 50865.0 57106.0 140747.0 142168.0 143177.0 147199.0 148561.0 151405.0 135524.0 127556.0 103757.0 106109.0 227928.0 235656.0 132322.0 140267.0 164492.0 159580.0 120401.0 115283.0 20556.0 16669.0 229147.0 230070.0 186539.0 179059.0 160920.0 152851.0 81174.0 84457.0 102177.0 109679.0 96878.0 92464.0 218659.0 220823.0 85477.0 80183.0 260732.0 265317.0 183810.0 188460.0 116178.0 112592.0 185857.0 178033.0 203425.0 195471.0 113104.0 121085.0 164164.0 156343.0 177392.0 172534.0 110557.0 114448.0 124149.0 115982.0 38758.0 43398.0 143376.0 149722.0 168584.0 163413.0 97988.0 93095.0 85675.0 89876.0 155705.0 149917.0 100704.0 94275.0 158470.0 0.0 158470.0 158470.0 0.0 0.0
188170.0 181724.0 123436.0 122800.0 124185.0 131866.0 125530.0 133371.0 92538.0 89435.0 205338.0 203519.0 183483.0 179018.0 123494.0 119091.0 250648.0 246410.0 219294.0 221494.0 96105.0 97414.0 111434.0 112936.0 177758.0 169228.0 137159.0 133236.0 36893.0 31861.0 176257.0 183114.0 89809.0 88942.0 116844.0 121091.0 131325.0 138409.0 100929.0 104309.0 147836.0 148365.0 282043.0 277881.0 224357.0 227389.0 88850.0 96959.0 314170.0 312230.0 165956.0 170149.0 110237.0 113779.0 110171.0 109736.0 109849.0 109735.0 190251.0 182282.0 40422.0 47048.0 134550.0 139846.0 44275.0 52073.0 106667.0 113965.0 305958.0 312811.0 146755.0 141709.0 64505.0 68264.0 238750.0 233058.0 33292.0 35337.0 287186.0 287395.0 126955.0 133796.0 154576.0 154719.0 153675.0 150345.0 192960.0 199086.0 209336.0 215192.0 100394.0 93350.0 120994.0 116316.0 89706.0 83699.0 88814.0 88170.0 136518.0 144566.0 101167.0 107939.0 289808.0 297692.0 53939.0 45598.0 135648.0 140215.0 140034.0 148135.0 215326.0 210954.0 64593.0 60608.0 97835.0 94554.0 238728.0 241444.0 104539.0 101763.0 112043.0 105770.0 100102.0 105724.0 113808.0 108260.0 279075.0 279587.0 46895.0 53539.0 269783.0 265195.0 76270.0 68795.0 83749.0 76242.0 88120.0 88461.0 320764.0 312829.0 45843.0 38771.0 263929.0 268701.0 280842.0 272674.0 138719.0 138832.0 78028.0 74759.0 67138.0 69266.0 248445.0 242216.0 160498.0 155671.0 108311.0 100915.0 139943.0 143565.0 0.0 158470.0 0.0 0.0 158470.0 158470.0
188170.0 181724.0 123436.0 122800.0 124185.0 131866.0 125530.0 133371.0 92538.0 89435.0 205338.0 203519.0 183483.0 179018.0 123494.0 119091.0 250648.0 246410.0 219294.0 221494.0 96105.0 97414.0 111434.0 112936.0 177758.0 169228.0 137159.0 133236.0 36893.0 31861.0 176257.0 183114.0 89809.0 88942.0 116844.0 121091.0 131325.0 138409.0 100929.0 104309.0 147836.0 148365.0 282043.0 277881.0 224357.0 227389.0 88850.0 96959.0 314170.0 312230.0 165956.0 170149.0 110237.0 113779.0 110171.0 109736.0 109849.0 109735.0 190251.0 182282.0 40422.0 47048.0 134550.0 139846.0 44275.0 52073.0 106667.0 113965.0 305958.0 312811.0 146755.0 141709.0 64505.0 68264.0 238750.0 233058.0 33292.0 35337.0 287186.0 287395.0 126955.0 133796.0 154576.0 154719.0 153675.0 150345.0 192960.0 199086.0 209336.0 215192.0 100394.0 93350.0 120994.0 116316.0 89706.0 83699.0 88814.0 88170.0 136518.0 144566.0 101167.0 107939.0 289808.0 297692.0 53939.0 45598.0 135648.0 140215.0 140034.0 148135.0 215326.0 210954.0 64593.0 60608.0 97835.0 94554.0 238728.0 241444.0 104539.0 101763.0 112043.0 105770.0 100102.0 105724.0 113808.0 108260.0 279075.0 279587.0 46895.0 53539.0 269783.0 265195.0 76270.0 68795.0 83749.0 76242.0 88120.0 88461.0 320764.0 312829.0 45843.0 38771.0 263929.0 268701.0 280842.0 272674.0 138719.0 138832.0 78028.0 74759.0 67138.0 69266.0 248445.0 242216.0 160498.0 155671.0 108311.0 100915.0 139943.0 143565.0 0.0 158470.0 0.0 0.0 158470.0 158470.0
180652.0 179673.0 135005.0 142135.0 112154.0 111706.0 211398.0 216364.0 142547.0 134468.0 239442.0 242642.0 75084.0 78498.0 162894.0 166617.0 231534.0 224138.0 63526.0 67000.0 202888.0 198964.0 172222.0 166420.0 217268.0 211139.0 120399.0 125451.0 174691.0 172040.0 42206.0 49871.0 189257.0 182886.0 133594.0 128765.0 34986.0 35028.0 77703.0 70508.0 97785.0 105378.0 124850.0 121060.0 75676.0 80817.0 124359.0 128140.0 157477.0 155537.0 208560.0 206844.0 93760.0 86341.0 220209.0 215591.0 197172.0 191730.0 206726.0 201399.0 164826.0 172518.0 195588.0 203707.0 173963.0 179394.0 119965.0 124850.0 149265.0 156118.0 108273.0 113029.0 192835.0 192751.0 207941.0 206777.0 155105.0 149371.0 129679.0 129575.0 122677.0 120562.0 238386.0 234156.0 182518.0 186013.0 64459.0 72531.0 50865.0 57106.0 140747.0 142168.0 143177.0 147199.0 148561.0 151405.0 135524.0 127556.0 103757.0 106109.0 227928.0 235656.0 132322.0 140267.0 164492.0 159580.0 120401.0 115283.0 20556.0 16669.0 229147.0 230070.0 186539.0 179059.0 160920.0 152851.0 81174.0 84457.0 102177.0 109679.0 96878.0 92464.0 218659.0 220823.0 85477.0 80183.0 260732.0 265317.0 183810.0 188460.0 116178.0 112592.0 185857.0 178033.0 203425.0 195471.0 113104.0 121085.0 164164.0 156343.0 177392.0 172534.0 110557.0 114448.0 124149.0 115982.0 38758.0 43398.0 143376.0 149722.0 168584.0 163413.0 97988.0 93095.0 85675.0 89876.0 155705.0 149917.0 100704.0 94275.0 158470.0 0.0 158470.0 158470.0 0.0 0.0
180652.0 179673.0 135005.0 142135.0 112154.0 111706.0 211398.0 216364.0 142547.0 134468.0 239442.0 242642.0 75084.0 78498.0 162894.0 166617.0 231534.0 224138.0 63526.0 67000.0 202888.0 198964.0 172222.0 166420.0 217268.0 211139.0 120399.0 125451.0 174691.0 172040.0 42206.0 49871.0 189257.0 182886.0 133594.0 128765.0 34986.0 35028.0 77703.0 70508.0 97785.0 105378.0 124850.0 121060.0 75676.0 80817.0 124359.0 128140.0 157477.0 155537.0 208560.0 206844.0 93760.0 86341.0 220209.0 215591.0 197172.0 191730.0 206726.0 201399.0 164826.0 172518.0 195588.0 203707.0 173963.0 179394.0 119965.0 124850.0 149265.0 156118.0 108273.0 113029.0 192835.0 192751.0 207941.0 206777.0 155105.0 149371.0 129679.0 129575.0 122677.0 120562.0 238386.0 234156.0 182518.0 186013.0 64459.0 72531.0 50865.0 57106.0 140747.0 142168.0 143177.0 147199.0 148561.0 151405.0 135524.0 127556.0 103757.0 106109.0 227928.0 235656.0 132322.0 140267.0 164492.0 159580.0 120401.0 115283.0 20556.0 16669.0 229147.0 230070.0 186539.0 179059.0 160920.0 152851.0 81174.0 84457.0 102177.0 109679.0 96878.0 92464.0 218659.0 220823.0 85477.0 80183.0 260732.0 265317.0 183810.0 188460.0 116178.0 112592.0 185857.0 178033.0 203425.0 195471.0 113104.0 121085.0 164164.0 156343.0 177392.0 172534.0 110557.0 114448.0 124149.0 115982.0 38758.0 43398.0 143376.0 149722.0 168584.0 163413.0 97988.0 93095.0 85675.0 89876.0 155705.0 149917.0 100704.0 94275.0 158470.0 0.0 158470.0 158470.0 0.0 0.0
FIXED_EDGES_SECTION
1 2
3 4
5 6
7 8
9 10
11 12
13 14
15 16
17 18
19 20
21 22
23 24
25 26
27 28
29 30
31 32
33 34
35 36
37 38
39 40
41 42
43 44
45 46
47 48
49 50
51 52
53 54
55 56
57 58
59 60
61 62
63 64
65 66
67 68
69 70
71 72
73 74
75 76
77 78
79 80
81 82
83 84
85 86
87 88
89 90
91 92
93 94
95 96
97 98
99 100
101 102
103 104
105 106
107 108
109 110
111 112
113 114
115 116
117 118
119 120
121 122
123 124
125 126
127 128
129 130
131 132
133 134
135 136
137 138
139 140
141 142
143 144
145 146
147 148
149 150
151 152
153 154
155 156
157 158
159 160
-1 
DEMAND_SECTION
1 180
2 180
3 256
4 256
5 380
6 380
7 55
8 55
9 171
10 171
11 68
12 68
13 68
14 68
15 349
16 349
17 258
18 258
19 563
20 563
21 375
22 375
23 583
24 583
25 217
26 217
27 90
28 90
29 97
30 97
31 313
32 313
33 57
34 57
35 191
36 191
37 100
38 100
39 75
40 75
41 291
42 291
43 322
44 322
45 620
46 620
47 94
48 94
49 71
50 71
51 211
52 211
53 80
54 80
55 265
56 265
57 461
58 461
59 186
60 186
61 618
62 618
63 247
64 247
65 104
66 104
67 114
68 114
69 280
70 280
71 271
72 271
73 247
74 247
75 277
76 277
77 485
78 485
79 60
80 60
81 94
82 94
83 497
84 497
85 211
86 211
87 84
88 84
89 114
90 114
91 119
92 119
93 541
94 541
95 207
96 207
97 277
98 277
99 177
100 177
101 316
102 316
103 99
104 99
105 100
106 100
107 279
108 279
109 235
110 235
111 76
112 76
113 396
114 396
115 293
116 293
117 534
118 534
119 432
120 432
121 214
122 214
123 500
124 500
125 358
126 358
127 138
128 138
129 292
130 292
131 268
132 268
133 493
134 493
135 379
136 379
137 56
138 56
139 421
140 421
141 341
142 341
143 350
144 350
145 224
146 224
147 399
148 399
149 394
150 394
151 155
152 155
153 244
154 244
155 130
156 130
157 341
158 341
159 421
160 421
161 0
162 0
163 0
164 0
165 0
166 0
DEPOT_SECTION
161 
-1 
CAPACITIES_SECTION
20000 
22000 
-1 
EOF