NAME: GFS_20_1
TYPE: GFSP
DIMENSION: 50
VEHICLES: 2
CAPACITY: 2500.0
TRIP_DIST_LIMIT: 600000.0
TOTAL_DIST_LIMIT: 2100000.0
EDGE_WEIGHT_TYPE: EXPLICIT
EDGE_WEIGHT_FORMAT: FULL_MATRIX
EDGE_WEIGHT_SECTION
0.0 8039.0 296163.0 303856.0 236050.0 242946.0 324172.0 324089.0 330586.0 337036.0 267588.0 264972.0 271395.0 263577.0 308729.0 303872.0 321078.0 329233.0 305301.0 310731.0 74872.0 81556.0 173149.0 175301.0 242450.0 250252.0 82938.0 75664.0 295703.0 288039.0 150656.0 143367.0 2678.0 8434.0 161674.0 164705.0 24271.0 25194.0 197519.0 205307.0 289808.0 132322.0 289808.0 289808.0 289808.0 289808.0 132322.0 132322.0 132322.0 132322.0
8039.0 0.0 304048.0 311740.0 243113.0 250069.0 332057.0 331973.0 337589.0 344092.0 273908.0 271145.0 279029.0 271232.0 316614.0 311757.0 328474.0 336624.0 313185.0 318616.0 79640.0 86612.0 180208.0 182187.0 250136.0 257921.0 90970.0 83676.0 302599.0 294959.0 158504.0 151171.0 10717.0 14253.0 169296.0 172267.0 30237.0 32462.0 204468.0 212296.0 297692.0 140267.0 297692.0 297692.0 297692.0 297692.0 140267.0 140267.0 140267.0 140267.0
296163.0 304048.0 0.0 7799.0 123346.0 117855.0 28077.0 29373.0 137624.0 136628.0 164066.0 171454.0 69625.0 69559.0 14782.0 15289.0 100725.0 104752.0 10515.0 14574.0 253787.0 247265.0 153376.0 158254.0 76680.0 73869.0 215692.0 221548.0 133487.0 130267.0 146352.0 154378.0 293541.0 293750.0 142610.0 141938.0 287197.0 279030.0 144121.0 138676.0 40422.0 164826.0 40422.0 40422.0 40422.0 40422.0 164826.0 164826.0 164826.0 164826.0
303856.0 311740.0 7799.0 0.0 128185.0 122412.0 20325.0 21744.0 137147.0 135705.0 167297.0 174832.0 73056.0 73765.0 10567.0 14943.0 99853.0 103332.0 6852.0 6940.0 261304.0 254747.0 160185.0 164908.0 82453.0 79120.0 223384.0 229241.0 135060.0 132254.0 154031.0 162043.0 301234.0 301443.0 150040.0 149286.0 294890.0 286722.0 150280.0 144636.0 47048.0 172518.0 47048.0 47048.0 47048.0 47048.0 172518.0 172518.0 172518.0 172518.0
236050.0 243113.0 123346.0 128185.0 0.0 7905.0 143751.0 139022.0 94609.0 100986.0 52992.0 57502.0 58081.0 54952.0 137939.0 137849.0 89231.0 97020.0 133634.0 134053.0 172781.0 165084.0 62906.0 61529.0 49038.0 49762.0 166082.0 169744.0 60624.0 52792.0 100483.0 103982.0 233713.0 236079.0 81787.0 77343.0 231858.0 223693.0 39115.0 31077.0 137159.0 120399.0 137159.0 137159.0 137159.0 137159.0 120399.0 120399.0 120399.0 120399.0
242946.0 250069.0 117855.0 122412.0 7905.0 0.0 137465.0 132525.0 88037.0 94196.0 53334.0 58774.0 51250.0 48763.0 132329.0 132562.0 81434.0 89260.0 128035.0 128123.0 180302.0 172617.0 69923.0 68928.0 45429.0 45020.0 171980.0 175858.0 54927.0 47092.0 105285.0 109207.0 240588.0 242835.0 87100.0 82794.0 238366.0 230197.0 46594.0 38526.0 133236.0 125451.0 133236.0 133236.0 133236.0 133236.0 125451.0 125451.0 125451.0 125451.0
324172.0 332057.0 28077.0 20325.0 143751.0 137465.0 0.0 7927.0 140571.0 138008.0 179213.0 187027.0 86653.0 88803.0 18777.0 26267.0 103015.0 104983.0 20418.0 13538.0 281454.0 274853.0 179301.0 183752.0 100117.0 95932.0 243701.0 249557.0 143503.0 141689.0 174340.0 182344.0 321550.0 321759.0 170102.0 169242.0 315206.0 307039.0 168268.0 162274.0 64505.0 192835.0 64505.0 64505.0 64505.0 64505.0 192835.0 192835.0 192835.0 192835.0
324089.0 331973.0 29373.0 21744.0 139022.0 132525.0 7927.0 0.0 132867.0 130212.0 173036.0 180921.0 81414.0 84128.0 23799.0 31391.0 95343.0 97178.0 24167.0 16208.0 280485.0 273772.0 176840.0 181015.0 96752.0 92079.0 243617.0 249474.0 136537.0 134941.0 174146.0 182074.0 321467.0 321676.0 169011.0 167935.0 315123.0 306955.0 164865.0 158641.0 68264.0 192751.0 68264.0 68264.0 68264.0 68264.0 192751.0 192751.0 192751.0 192751.0
330586.0 337589.0 137624.0 137147.0 94609.0 88037.0 140571.0 132867.0 0.0 7940.0 78260.0 85535.0 83235.0 90081.0 147227.0 151860.0 37591.0 36393.0 143987.0 139141.0 265554.0 257806.0 157451.0 155508.0 107353.0 100422.0 259729.0 263794.0 35929.0 43077.0 191522.0 196195.0 328265.0 330684.0 174381.0 170278.0 326384.0 318223.0 133145.0 125293.0 169876.0 212006.0 169876.0 169876.0 169876.0 169876.0 212006.0 212006.0 212006.0 212006.0
337036.0 344092.0 136628.0 135705.0 100986.0 94196.0 138008.0 130212.0 7940.0 0.0 86183.0 93473.0 85580.0 92780.0 145596.0 150539.0 35906.0 33041.0 142513.0 137320.0 272533.0 264789.0 163890.0 162164.0 110923.0 103738.0 265450.0 269658.0 43350.0 50243.0 196792.0 201662.0 334697.0 337016.0 179984.0 175962.0 332523.0 324349.0 139756.0 131846.0 169977.0 217317.0 169977.0 169977.0 169977.0 169977.0 217317.0 217317.0 217317.0 217317.0
267588.0 273908.0 164066.0 167297.0 52992.0 53334.0 179213.0 173036.0 78260.0 86183.0 0.0 8254.0 94440.0 95333.0 177728.0 179282.0 94836.0 100117.0 173569.0 172096.0 197394.0 189722.0 100907.0 95970.0 97799.0 95812.0 206671.0 208925.0 45826.0 42537.0 147478.0 149357.0 265506.0 269022.0 127622.0 122860.0 267337.0 259057.0 76952.0 71388.0 183973.0 166018.0 183973.0 183973.0 183973.0 183973.0 166018.0 166018.0 166018.0 166018.0
264972.0 271145.0 171454.0 174832.0 57502.0 58774.0 187027.0 180921.0 85535.0 93473.0 8254.0 0.0 101856.0 102425.0 185229.0 186635.0 103034.0 108240.0 181049.0 179725.0 193941.0 186319.0 100826.0 95387.0 103834.0 102268.0 206034.0 207978.0 53849.0 50760.0 148731.0 150172.0 262940.0 266650.0 128744.0 123956.0 265445.0 257163.0 77598.0 72709.0 190633.0 166783.0 190633.0 190633.0 190633.0 190633.0 166783.0 166783.0 166783.0 166783.0
271395.0 279029.0 69625.0 73056.0 58081.0 51250.0 86653.0 81414.0 83235.0 85580.0 94440.0 101856.0 0.0 8151.0 83398.0 84849.0 55523.0 63216.0 79203.0 78204.0 216869.0 209501.0 106231.0 108386.0 29453.0 21464.0 193105.0 198632.0 67628.0 62938.0 122399.0 128871.0 268858.0 269873.0 109733.0 106888.0 263700.0 255533.0 88839.0 81584.0 92538.0 142547.0 92538.0 92538.0 92538.0 92538.0 142547.0 142547.0 142547.0 142547.0
263577.0 271232.0 69559.0 73765.0 54952.0 48763.0 88803.0 84128.0 90081.0 92780.0 95333.0 102425.0 8151.0 0.0 83827.0 84547.0 63496.0 71253.0 79555.0 79378.0 209730.0 202409.0 99560.0 102074.0 21366.0 13402.0 185067.0 190639.0 72134.0 66817.0 114360.0 120892.0 261033.0 261987.0 101960.0 99212.0 255770.0 247602.0 83200.0 76223.0 89435.0 134468.0 89435.0 89435.0 89435.0 89435.0 134468.0 134468.0 134468.0 134468.0
308729.0 316614.0 14782.0 10567.0 137939.0 132329.0 18777.0 23799.0 147227.0 145596.0 177728.0 185229.0 83398.0 83827.0 0.0 7611.0 109819.0 113028.0 4308.0 8891.0 266971.0 260558.0 167786.0 172779.0 91461.0 88571.0 228258.0 234114.0 145614.0 142821.0 158956.0 167042.0 306107.0 306316.0 156116.0 155629.0 299763.0 291596.0 158861.0 153449.0 45843.0 177392.0 45843.0 45843.0 45843.0 45843.0 177392.0 177392.0 177392.0 177392.0
303872.0 311757.0 15289.0 14943.0 137849.0 132562.0 26267.0 31391.0 151860.0 150539.0 179282.0 186635.0 84849.0 84547.0 7611.0 0.0 114661.0 118242.0 8458.0 15949.0 262450.0 256141.0 164933.0 170180.0 90419.0 88168.0 223401.0 229257.0 148662.0 145518.0 154099.0 162199.0 301250.0 301459.0 152016.0 151729.0 294906.0 286739.0 157053.0 151934.0 38771.0 172534.0 38771.0 38771.0 38771.0 38771.0 172534.0 172534.0 172534.0 172534.0
321078.0 328474.0 100725.0 99853.0 89231.0 81434.0 103015.0 95343.0 37591.0 35906.0 94836.0 103034.0 55523.0 63496.0 109819.0 114661.0 0.0 8167.0 106673.0 101640.0 261237.0 253601.0 149895.0 149848.0 83926.0 76095.0 245421.0 250407.0 49815.0 52325.0 175118.0 180933.0 318623.0 320239.0 160341.0 156852.0 314666.0 306498.0 127786.0 119730.0 134550.0 195588.0 134550.0 134550.0 134550.0 134550.0 195588.0 195588.0 195588.0 195588.0
329233.0 336624.0 104752.0 103332.0 97020.0 89260.0 104983.0 97178.0 36393.0 33041.0 100117.0 108240.0 63216.0 71253.0 113028.0 118242.0 8167.0 0.0 110089.0 104623.0 269226.0 261582.0 157943.0 157815.0 91858.0 83990.0 253571.0 258568.0 54506.0 57879.0 183245.0 189081.0 326778.0 328402.0 168507.0 165019.0 322833.0 314665.0 135700.0 127637.0 139846.0 203707.0 139846.0 139846.0 139846.0 139846.0 203707.0 203707.0 203707.0 203707.0
305301.0 313185.0 10515.0 6852.0 133634.0 128035.0 20418.0 24167.0 143987.0 142513.0 173569.0 181049.0 79203.0 79555.0 4308.0 8458.0 106673.0 110089.0 0.0 8039.0 263359.0 256908.0 163717.0 168661.0 87178.0 84264.0 224829.0 230685.0 141774.0 138886.0 155523.0 163591.0 302679.0 302888.0 152381.0 151828.0 296335.0 288167.0 154631.0 149191.0 44275.0 173963.0 44275.0 44275.0 44275.0 44275.0 173963.0 173963.0 173963.0 173963.0
310731.0 318616.0 14574.0 6940.0 134053.0 128123.0 13538.0 16208.0 139141.0 137320.0 172096.0 179725.0 78204.0 79378.0 8891.0 15949.0 101640.0 104623.0 8039.0 0.0 268240.0 261685.0 166996.0 171663.0 88874.0 85291.0 230260.0 236116.0 138707.0 136217.0 160916.0 168935.0 308109.0 308318.0 156979.0 156222.0 301765.0 293598.0 156830.0 151094.0 52073.0 179394.0 52073.0 52073.0 52073.0 52073.0 179394.0 179394.0 179394.0 179394.0
74872.0 79640.0 253787.0 261304.0 172781.0 180302.0 281454.0 280485.0 265554.0 272533.0 197394.0 193941.0 216869.0 209730.0 266971.0 262450.0 261237.0 269226.0 263359.0 268240.0 0.0 7751.0 111581.0 111433.0 189928.0 197081.0 71600.0 64916.0 229846.0 222489.0 108925.0 100782.0 73415.0 78967.0 111481.0 112791.0 84170.0 76892.0 133708.0 141776.0 248445.0 97988.0 248445.0 248445.0 248445.0 248445.0 97988.0 97988.0 97988.0 97988.0
81556.0 86612.0 247265.0 254747.0 165084.0 172617.0 274853.0 273772.0 257806.0 264789.0 189722.0 186319.0 209501.0 202409.0 260558.0 256141.0 253601.0 261582.0 256908.0 261685.0 7751.0 0.0 104029.0 103773.0 182719.0 189819.0 70555.0 64434.0 222096.0 214740.0 103054.0 94937.0 79983.0 85255.0 104773.0 105924.0 89529.0 81997.0 126023.0 134092.0 242216.0 93095.0 242216.0 242216.0 242216.0 242216.0 93095.0 93095.0 93095.0 93095.0
173149.0 180208.0 153376.0 160185.0 62906.0 69923.0 179301.0 176840.0 157451.0 163890.0 100907.0 100826.0 106231.0 99560.0 167786.0 164933.0 149895.0 157943.0 163717.0 166996.0 111581.0 104029.0 0.0 7909.0 81307.0 87677.0 105975.0 108701.0 122833.0 115096.0 51250.0 50715.0 170819.0 173270.0 31987.0 27628.0 169490.0 161291.0 24870.0 32305.0 154464.0 66901.0 154464.0 154464.0 154464.0 154464.0 66901.0 66901.0 66901.0 66901.0
175301.0 182187.0 158254.0 164908.0 61529.0 68928.0 183752.0 181015.0 155508.0 162164.0 95970.0 95387.0 108386.0 102074.0 172779.0 170180.0 149848.0 157815.0 168661.0 171663.0 111433.0 103773.0 7909.0 0.0 84767.0 90711.0 110725.0 112995.0 120413.0 112775.0 58768.0 57786.0 173031.0 175787.0 39768.0 35482.0 172679.0 164437.0 22438.0 30451.0 160365.0 73696.0 160365.0 160365.0 160365.0 160365.0 73696.0 73696.0 73696.0 73696.0
242450.0 250136.0 76680.0 82453.0 49038.0 45429.0 100117.0 96752.0 107353.0 110923.0 97799.0 103834.0 29453.0 21366.0 91461.0 90419.0 83926.0 91858.0 87178.0 88874.0 189928.0 182719.0 81307.0 84767.0 0.0 7992.0 163707.0 169307.0 84259.0 77721.0 93001.0 99581.0 239896.0 240767.0 80983.0 78436.0 234499.0 226332.0 68162.0 62227.0 88120.0 113104.0 88120.0 88120.0 88120.0 88120.0 113104.0 113104.0 113104.0 113104.0
250252.0 257921.0 73869.0 79120.0 49762.0 45020.0 95932.0 92079.0 100422.0 103738.0 95812.0 102268.0 21464.0 13402.0 88571.0 88168.0 76095.0 83990.0 84264.0 85291.0 197081.0 189819.0 87677.0 90711.0 7992.0 0.0 171667.0 177238.0 78855.0 72671.0 100960.0 107495.0 247703.0 248622.0 88690.0 86032.0 242386.0 234219.0 73028.0 66592.0 88461.0 121085.0 88461.0 88461.0 88461.0 88461.0 121085.0 121085.0 121085.0 121085.0
82938.0 90970.0 215692.0 223384.0 166082.0 171980.0 243701.0 243617.0 259729.0 265450.0 206671.0 206034.0 193105.0 185067.0 228258.0 223401.0 245421.0 253571.0 224829.0 230260.0 71600.0 70555.0 105975.0 110725.0 163707.0 171667.0 0.0 8101.0 226693.0 218853.0 70707.0 64494.0 80262.0 79626.0 85536.0 89488.0 73021.0 64854.0 130631.0 137464.0 209336.0 50865.0 209336.0 209336.0 209336.0 209336.0 50865.0 50865.0 50865.0 50865.0
75664.0 83676.0 221548.0 229241.0 169744.0 175858.0 249557.0 249474.0 263794.0 269658.0 208925.0 207978.0 198632.0 190639.0 234114.0 229257.0 250407.0 258568.0 230685.0 236116.0 64916.0 64434.0 108701.0 112995.0 169307.0 177238.0 8101.0 0.0 230361.0 222534.0 76406.0 69769.0 72997.0 72546.0 90144.0 93881.0 65941.0 57773.0 133515.0 140576.0 215192.0 57106.0 215192.0 215192.0 215192.0 215192.0 57106.0 57106.0 57106.0 57106.0
295703.0 302599.0 133487.0 135060.0 60624.0 54927.0 143503.0 136537.0 35929.0 43350.0 45826.0 53849.0 67628.0 72134.0 145614.0 148662.0 49815.0 54506.0 141774.0 138707.0 229846.0 222096.0 122833.0 120413.0 84259.0 78855.0 226693.0 230361.0 0.0 7844.0 160115.0 164133.0 293421.0 296047.0 142023.0 137695.0 292227.0 284053.0 98213.0 90534.0 159981.0 180349.0 159981.0 159981.0 159981.0 159981.0 180349.0 180349.0 180349.0 180349.0
288039.0 294959.0 130267.0 132254.0 52792.0 47092.0 141689.0 134941.0 43077.0 50243.0 42537.0 50760.0 62938.0 66817.0 142821.0 145518.0 52325.0 57879.0 138886.0 136217.0 222489.0 214740.0 115096.0 112775.0 77721.0 72671.0 218853.0 222534.0 7844.0 0.0 152305.0 156299.0 285749.0 288338.0 134184.0 129853.0 284450.0 276282.0 90525.0 82807.0 155476.0 172526.0 155476.0 155476.0 155476.0 155476.0 172526.0 172526.0 172526.0 172526.0
150656.0 158504.0 146352.0 154031.0 100483.0 105285.0 174340.0 174146.0 191522.0 196792.0 147478.0 148731.0 122399.0 114360.0 158956.0 154099.0 175118.0 183245.0 155523.0 160916.0 108925.0 103054.0 51250.0 58768.0 93001.0 100960.0 70707.0 76406.0 160115.0 152305.0 0.0 8150.0 148046.0 148413.0 20052.0 24843.0 141915.0 133747.0 71321.0 76120.0 140034.0 20556.0 140034.0 140034.0 140034.0 140034.0 20556.0 20556.0 20556.0 20556.0
143367.0 151171.0 154378.0 162043.0 103982.0 109207.0 182344.0 182074.0 196195.0 201662.0 149357.0 150172.0 128871.0 120892.0 167042.0 162199.0 180933.0 189081.0 163591.0 168935.0 100782.0 94937.0 50715.0 57786.0 99581.0 107495.0 64494.0 69769.0 164133.0 156299.0 8150.0 0.0 140773.0 141340.0 22208.0 26780.0 134956.0 126789.0 72576.0 78042.0 148135.0 16669.0 148135.0 148135.0 148135.0 148135.0 16669.0 16669.0 16669.0 16669.0
2678.0 10717.0 293541.0 301234.0 233713.0 240588.0 321550.0 321467.0 328265.0 334697.0 265506.0 262940.0 268858.0 261033.0 306107.0 301250.0 318623.0 326778.0 302679.0 308109.0 73415.0 79983.0 170819.0 173031.0 239896.0 247703.0 80262.0 72997.0 293421.0 285749.0 148046.0 140773.0 0.0 7469.0 159146.0 162197.0 22567.0 22884.0 195225.0 202998.0 287186.0 129679.0 287186.0 287186.0 287186.0 287186.0 129679.0 129679.0 129679.0 129679.0
8434.0 14253.0 293750.0 301443.0 236079.0 242835.0 321759.0 321676.0 330684.0 337016.0 269022.0 266650.0 269873.0 261987.0 306316.0 301459.0 320239.0 328402.0 302888.0 308318.0 78967.0 85255.0 173270.0 175787.0 240767.0 248622.0 79626.0 72546.0 296047.0 288338.0 148413.0 141340.0 7469.0 0.0 160306.0 163523.0 16121.0 18508.0 197840.0 205533.0 287395.0 129575.0 287395.0 287395.0 287395.0 287395.0 129575.0 129575.0 129575.0 129575.0
161674.0 169296.0 142610.0 150040.0 81787.0 87100.0 170102.0 169011.0 174381.0 179984.0 127622.0 128744.0 109733.0 101960.0 156116.0 152016.0 160341.0 168507.0 152381.0 156979.0 111481.0 104773.0 31987.0 39768.0 80983.0 88690.0 85536.0 90144.0 142023.0 134184.0 20052.0 22208.0 159146.0 160306.0 0.0 4794.0 154408.0 146241.0 51276.0 56234.0 138719.0 38758.0 138719.0 138719.0 138719.0 138719.0 38758.0 38758.0 38758.0 38758.0
164705.0 172267.0 141938.0 149286.0 77343.0 82794.0 169242.0 167935.0 170278.0 175962.0 122860.0 123956.0 106888.0 99212.0 155629.0 151729.0 156852.0 165019.0 151828.0 156222.0 112791.0 105924.0 27628.0 35482.0 78436.0 86032.0 89488.0 93881.0 137695.0 129853.0 24843.0 26780.0 162197.0 163523.0 4794.0 0.0 157814.0 149646.0 46483.0 51474.0 138832.0 43398.0 138832.0 138832.0 138832.0 138832.0 43398.0 43398.0 43398.0 43398.0
24271.0 30237.0 287197.0 294890.0 231858.0 238366.0 315206.0 315123.0 326384.0 332523.0 267337.0 265445.0 263700.0 255770.0 299763.0 294906.0 314666.0 322833.0 296335.0 301765.0 84170.0 89529.0 169490.0 172679.0 234499.0 242386.0 73021.0 65941.0 292227.0 284450.0 141915.0 134956.0 22567.0 16121.0 154408.0 157814.0 0.0 8282.0 194300.0 201777.0 280842.0 124149.0 280842.0 280842.0 280842.0 280842.0 124149.0 124149.0 124149.0 124149.0
25194.0 32462.0 279030.0 286722.0 223693.0 230197.0 307039.0 306955.0 318223.0 324349.0 259057.0 257163.0 255533.0 247602.0 291596.0 286739.0 306498.0 314665.0 288167.0 293598.0 76892.0 81997.0 161291.0 164437.0 226332.0 234219.0 64854.0 57773.0 284053.0 276282.0 133747.0 126789.0 22884.0 18508.0 146241.0 149646.0 8282.0 0.0 186089.0 193584.0 272674.0 115982.0 272674.0 272674.0 272674.0 272674.0 115982.0 115982.0 115982.0 115982.0
197519.0 204468.0 144121.0 150280.0 39115.0 46594.0 168268.0 164865.0 133145.0 139756.0 76952.0 77598.0 88839.0 83200.0 158861.0 157053.0 127786.0 135700.0 154631.0 156830.0 133708.0 126023.0 24870.0 22438.0 68162.0 73028.0 130631.0 133515.0 98213.0 90525.0 71321.0 72576.0 195225.0 197840.0 51276.0 46483.0 194300.0 186089.0 0.0 8071.0 149818.0 89199.0 149818.0 149818.0 149818.0 149818.0 89199.0 89199.0 89199.0 89199.0
205307.0 212296.0 138676.0 144636.0 31077.0 38526.0 162274.0 158641.0 125293.0 131846.0 71388.0 72709.0 81584.0 76223.0 153449.0 151934.0 119730.0 127637.0 149191.0 151094.0 141776.0 134092.0 32305.0 30451.0 62227.0 66592.0 137464.0 140576.0 90534.0 82807.0 76120.0 78042.0 202998.0 205533.0 56234.0 51474.0 201777.0 193584.0 8071.0 0.0 145762.0 94711.0 145762.0 145762.0 145762.0 145762.0 94711.0 94711.0 94711.0 94711.0
289808.0 297692.0 40422.0 47048.0 137159.0 133236.0 64505.0 68264.0 169876.0 169977.0 183973.0 190633.0 92538.0 89435.0 45843.0 38771.0 134550.0 139846.0 44275.0 52073.0 248445.0 242216.0 154464.0 160365.0 88120.0 88461.0 209336.0 215192.0 159981.0 155476.0 140034.0 148135.0 287186.0 287395.0 138719.0 138832.0 280842.0 272674.0 149818.0 145762.0 0.0 158470.0 0.0 0.0 0.0 0.0 158470.0 158470.0 158470.0 158470.0
132322.0 140267.0 164826.0 172518.0 120399.0 125451.0 192835.0 192751.0 212006.0 217317.0 166018.0 166783.0 142547.0 134468.0 177392.0 172534.0 195588.0 203707.0 173963.0 179394.0 97988.0 93095.0 66901.0 73696.0 113104.0 121085.0 50865.0 57106.0 180349.0 172526.0 20556.0 16669.0 129679.0 129575.0 38758.0 43398.0 124149.0 115982.0 89199.0 94711.0 158470.0 0.0 158470.0 158470.0 158470.0 158470.0 0.0 0.0 0.0 0.0
289808.0 297692.0 40422.0 47048.0 137159.0 133236.0 64505.0 68264.0 169876.0 169977.0 183973.0 190633.0 92538.0 89435.0 45843.0 38771.0 134550.0 139846.0 44275.0 52073.0 248445.0 242216.0 154464.0 160365.0 88120.0 88461.0 209336.0 215192.0 159981.0 155476.0 140034.0 148135.0 287186.0 287395.0 138719.0 138832.0 280842.0 272674.0 149818.0 145762.0 0.0 158470.0 0.0 0.0 0.0 0.0 158470.0 158470.0 158470.0 158470.0
289808.0 297692.0 40422.0 47048.0 137159.0 133236.0 64505.0 68264.0 169876.0 169977.0 183973.0 190633.0 92538.0 89435.0 45843.0 38771.0 134550.0 139846.0 44275.0 52073.0 248445.0 242216.0 154464.0 160365.0 88120.0 88461.0 209336.0 215192.0 159981.0 155476.0 140034.0 148135.0 287186.0 287395.0 138719.0 138832.0 280842.0 272674.0 149818.0 145762.0 0.0 158470.0 0.0 0.0 0.0 0.0 158470.0 158470.0 158470.0 158470.0
289808.0 297692.0 40422.0 47048.0 137159.0 133236.0 64505.0 68264.0 169876.0 169977.0 183973.0 190633.0 92538.0 89435.0 45843.0 38771.0 134550.0 139846.0 44275.0 52073.0 248445.0 242216.0 154464.0 160365.0 88120.0 88461.0 209336.0 215192.0 159981.0 155476.0 140034.0 148135.0 287186.0 287395.0 138719.0 138832.0 280842.0 272674.0 149818.0 145762.0 0.0 158470.0 0.0 0.0 0.0 0.0 158470.0 158470.0 158470.0 158470.0
289808.0 297692.0 40422.0 47048.0 137159.0 133236.0 64505.0 68264.0 169876.0 169977.0 183973.0 190633.0 92538.0 89435.0 45843.0 38771.0 134550.0 139846.0 44275.0 52073.0 248445.0 242216.0 154464.0 160365.0 88120.0 88461.0 209336.0 215192.0 159981.0 155476.0 140034.0 148135.0 287186.0 287395.0 138719.0 138832.0 280842.0 272674.0 149818.0 145762.0 0.0 158470.0 0.0 0.0 0.0 0.0 158470.0 158470.0 158470.0 158470.0
132322.0 140267.0 164826.0 172518.0 120399.0 125451.0 192835.0 192751.0 212006.0 217317.0 166018.0 166783.0 142547.0 134468.0 177392.0 172534.0 195588.0 203707.0 173963.0 179394.0 97988.0 93095.0 66901.0 73696.0 113104.0 121085.0 50865.0 57106.0 180349.0 172526.0 20556.0 16669.0 129679.0 129575.0 38758.0 43398.0 124149.0 115982.0 89199.0 94711.0 158470.0 0.0 158470.0 158470.0 158470.0 158470.0 0.0 0.0 0.0 0.0
132322.0 140267.0 164826.0 172518.0 120399.0 125451.0 192835.0 192751.0 212006.0 217317.0 166018.0 166783.0 142547.0 134468.0 177392.0 172534.0 195588.0 203707.0 173963.0 179394.0 97988.0 93095.0 66901.0 73696.0 113104.0 121085.0 50865.0 57106.0 180349.0 172526.0 20556.0 16669.0 129679.0 129575.0 38758.0 43398.0 124149.0 115982.0 89199.0 94711.0 158470.0 0.0 158470.0 158470.0 158470.0 158470.0 0.0 0.0 0.0 0.0
132322.0 140267.0 164826.0 172518.0 120399.0 125451.0 192835.0 192751.0 212006.0 217317.0 166018.0 166783.0 142547.0 134468.0 177392.0 172534.0 195588.0 203707.0 173963.0 179394.0 97988.0 93095.0 66901.0 73696.0 113104.0 121085.0 50865.0 57106.0 180349.0 172526.0 20556.0 16669.0 129679.0 129575.0 38758.0 43398.0 124149.0 115982.0 89199.0 94711.0 158470.0 0.0 158470.0 158470.0 158470.0 158470.0 0.0 0.0 0.0 0.0
132322.0 140267.0 164826.0 172518.0 120399.0 125451.0 192835.0 192751.0 212006.0 217317.0 166018.0 166783.0 142547.0 134468.0 177392.0 172534.0 195588.0 203707.0 173963.0 179394.0 97988.0 93095.0 66901.0 73696.0 113104.0 121085.0 50865.0 57106.0 180349.0 172526.0 20556.0 16669.0 129679.0 129575.0 38758.0 43398.0 124149.0 115982.0 89199.0 94711.0 158470.0 0.0 158470.0 158470.0 158470.0 158470.0 0.0 0.0 0.0 0.0
FIXED_EDGES_SECTION
1 2
3 4
5 6
7 8
9 10
11 12
13 14
15 16
17 18
19 20
21 22
23 24
25 26
27 28
29 30
31 32
33 34
35 36
37 38
39 40
-1 
DEMAND_SECTION
1 99
2 99
3 618
4 618
5 90
6 90
7 247
8 247
9 224
10 224
11 112
12 112
13 171
14 171
15 341
16 341
17 247
18 247
19 104
20 104
21 244
22 244
23 342
24 342
25 56
26 56
27 114
28 114
29 82
30 82
31 235
32 235
33 60
34 60
35 399
36 399
37 224
38 224
39 158
40 158
41 0
42 0
43 0
44 0
45 0
46 0
47 0
48 0
49 0
50 0
DEPOT_SECTION
41 
-1 
CAPACITIES_SECTION
2500 
2750 
-1 
EOF