NAME: GFS_20_1
TYPE: GFSP
DIMENSION: 50
VEHICLES: 2
CAPACITY: 2500.0
TRIP_DIST_LIMIT: 600000.0
TOTAL_DIST_LIMIT: 2100000.0
EDGE_WEIGHT_TYPE: EXPLICIT
EDGE_WEIGHT_FORMAT: FULL_MATRIX
EDGE_WEIGHT_SECTION
0.0 8022.0 214547.0 206932.0 74663.0 81577.0 72048.0 73855.0 148659.0 155784.0 54111.0 58432.0 114433.0 110739.0 27245.0 30977.0 33946.0 40942.0 37321.0 37593.0 41194.0 35901.0 201359.0 200089.0 63177.0 67406.0 313630.0 311181.0 31447.0 28764.0 72630.0 66773.0 225479.0 225874.0 115828.0 117351.0 77206.0 75098.0 122905.0 120867.0 119700.0 150783.0 119700.0 119700.0 119700.0 119700.0 150783.0 150783.0 150783.0 150783.0
8022.0 0.0 222554.0 214936.0 81786.0 88782.0 64525.0 66061.0 156320.0 163497.0 61851.0 65885.0 122217.0 118572.0 28706.0 34146.0 41870.0 48685.0 33455.0 32207.0 39137.0 35164.0 209312.0 208078.0 57005.0 60705.0 321570.0 319146.0 27827.0 27229.0 80486.0 74495.0 233373.0 233815.0 123411.0 125088.0 75431.0 72550.0 121540.0 118988.0 120848.0 158330.0 120848.0 120848.0 120848.0 120848.0 158330.0 158330.0 158330.0 158330.0
214547.0 222554.0 0.0 7751.0 156612.0 150441.0 284592.0 287666.0 93181.0 86271.0 164689.0 164432.0 111481.0 112791.0 216869.0 209730.0 180854.0 174897.0 235853.0 241896.0 229846.0 222489.0 42682.0 35143.0 265554.0 272533.0 112594.0 107439.0 234863.0 227140.0 143187.0 150270.0 54664.0 46836.0 117369.0 110896.0 242833.0 248141.0 273769.0 278356.0 248445.0 97988.0 248445.0 248445.0 248445.0 248445.0 97988.0 97988.0 97988.0 97988.0
206932.0 214936.0 7751.0 0.0 149642.0 143558.0 277094.0 280117.0 87963.0 81340.0 157292.0 157158.0 104773.0 105924.0 209501.0 202409.0 173211.0 167216.0 228111.0 234166.0 222096.0 214740.0 41635.0 33554.0 257806.0 264789.0 119702.0 114706.0 227449.0 219751.0 135482.0 142548.0 57164.0 49846.0 110986.0 104336.0 235151.0 240436.0 267556.0 272027.0 242216.0 93095.0 242216.0 242216.0 242216.0 242216.0 93095.0 93095.0 93095.0 93095.0
74663.0 81786.0 156612.0 149642.0 0.0 7195.0 134060.0 138795.0 76725.0 84406.0 24737.0 17487.0 45947.0 43938.0 64955.0 56942.0 52658.0 54325.0 109263.0 111472.0 109179.0 101695.0 134416.0 134898.0 137457.0 142031.0 245077.0 243490.0 83405.0 75329.0 51677.0 55059.0 156371.0 158088.0 43716.0 47612.0 140041.0 140824.0 123600.0 126547.0 100929.0 77703.0 100929.0 100929.0 100929.0 100929.0 77703.0 77703.0 77703.0 77703.0
81577.0 88782.0 150441.0 143558.0 7195.0 0.0 141209.0 145974.0 69560.0 77262.0 30262.0 23688.0 39322.0 37650.0 72132.0 64106.0 58309.0 59276.0 115789.0 118192.0 115399.0 107839.0 127508.0 128131.0 144209.0 148888.0 237989.0 236447.0 90572.0 82496.0 52894.0 57166.0 149294.0 151091.0 36602.0 40772.0 145628.0 146651.0 127858.0 131146.0 104309.0 70508.0 104309.0 104309.0 104309.0 104309.0 70508.0 70508.0 70508.0 70508.0
72048.0 64525.0 284592.0 277094.0 134060.0 141209.0 0.0 8154.0 210763.0 218466.0 120275.0 121791.0 178922.0 175992.0 69221.0 77135.0 105696.0 112962.0 71940.0 63920.0 82275.0 84581.0 267628.0 267324.0 64488.0 59751.0 379013.0 377232.0 50726.0 58783.0 144416.0 138787.0 290302.0 291691.0 177769.0 181142.0 108745.0 101991.0 105932.0 99561.0 125530.0 211398.0 125530.0 125530.0 125530.0 125530.0 211398.0 211398.0 211398.0 211398.0
73855.0 66061.0 287666.0 280117.0 138795.0 145974.0 8154.0 0.0 215511.0 223144.0 123917.0 125885.0 183185.0 180109.0 73842.0 81898.0 107770.0 114744.0 69521.0 61372.0 79803.0 82814.0 271738.0 271216.0 58991.0 53659.0 383409.0 381485.0 55447.0 63513.0 146482.0 140555.0 294733.0 295925.0 182431.0 185530.0 104226.0 97218.0 114059.0 107647.0 133371.0 216364.0 133371.0 133371.0 133371.0 133371.0 216364.0 216364.0 216364.0 216364.0
148659.0 156320.0 93181.0 87963.0 76725.0 69560.0 210763.0 215511.0 0.0 7995.0 94573.0 90654.0 35019.0 39419.0 141677.0 133664.0 119645.0 117113.0 179571.0 183328.0 177042.0 169203.0 60798.0 63494.0 209248.0 214740.0 168743.0 167516.0 160129.0 152054.0 93134.0 100833.0 80254.0 82861.0 33140.0 31610.0 201751.0 204549.0 183940.0 188589.0 158600.0 7151.0 158600.0 158600.0 158600.0 158600.0 7151.0 7151.0 7151.0 7151.0
155784.0 163497.0 86271.0 81340.0 84406.0 77262.0 218466.0 223144.0 7995.0 0.0 101673.0 98001.0 41585.0 45732.0 149331.0 141343.0 126259.0 123427.0 186176.0 190104.0 183389.0 175545.0 52885.0 55805.0 215961.0 221565.0 160874.0 159588.0 167800.0 159725.0 98401.0 106188.0 72322.0 74868.0 40714.0 38453.0 207356.0 210353.0 191931.0 196581.0 166591.0 11757.0 166591.0 166591.0 166591.0 166591.0 11757.0 11757.0 11757.0 11757.0
54111.0 61851.0 164689.0 157292.0 24737.0 30262.0 120275.0 123917.0 94573.0 101673.0 0.0 7938.0 60376.0 56816.0 52246.0 45442.0 28052.0 29715.0 86290.0 89291.0 85360.0 77731.0 148090.0 147336.0 115335.0 120477.0 260160.0 257956.0 70180.0 62459.0 36096.0 36379.0 171743.0 172458.0 61892.0 63244.0 115415.0 116389.0 130180.0 131631.0 112043.0 96878.0 112043.0 112043.0 112043.0 112043.0 96878.0 96878.0 96878.0 96878.0
58432.0 65885.0 164432.0 157158.0 17487.0 23688.0 121791.0 125885.0 90654.0 98001.0 7938.0 0.0 57344.0 54230.0 52832.0 45391.0 35255.0 37514.0 92112.0 94635.0 91768.0 84250.0 145873.0 145552.0 120676.0 125509.0 257577.0 255601.0 71201.0 63254.0 42083.0 43282.0 168958.0 170041.0 57607.0 59852.0 122603.0 123339.0 125150.0 126997.0 105770.0 92464.0 105770.0 105770.0 105770.0 105770.0 92464.0 92464.0 92464.0 92464.0
114433.0 122217.0 111481.0 104773.0 45947.0 39322.0 178922.0 183185.0 35019.0 41585.0 60376.0 57344.0 0.0 4794.0 109733.0 101960.0 84699.0 82098.0 144626.0 148520.0 142023.0 134184.0 88771.0 88986.0 174381.0 179984.0 200238.0 198322.0 128214.0 120185.0 59382.0 66838.0 111617.0 112771.0 10588.0 4016.0 167138.0 169750.0 163755.0 167807.0 138719.0 38758.0 138719.0 138719.0 138719.0 138719.0 38758.0 38758.0 38758.0 38758.0
110739.0 118572.0 112791.0 105924.0 43938.0 37650.0 175992.0 180109.0 39419.0 45732.0 56816.0 54230.0 4794.0 0.0 106888.0 99212.0 80552.0 77740.0 140455.0 144470.0 137695.0 129853.0 91644.0 91494.0 170278.0 175962.0 203445.0 201389.0 125335.0 117337.0 54612.0 62091.0 114942.0 115834.0 14329.0 8801.0 162519.0 165193.0 163606.0 167449.0 138832.0 43398.0 138832.0 138832.0 138832.0 138832.0 43398.0 43398.0 43398.0 43398.0
27245.0 28706.0 216869.0 209501.0 64955.0 72132.0 69221.0 73842.0 141677.0 149331.0 52246.0 52832.0 109733.0 106888.0 0.0 8151.0 46286.0 54484.0 62114.0 60115.0 67628.0 62938.0 198479.0 198334.0 83235.0 85580.0 309793.0 308020.0 18495.0 10452.0 81887.0 78123.0 221084.0 222489.0 108618.0 111922.0 103899.0 101229.0 96681.0 95269.0 92538.0 142547.0 92538.0 92538.0 92538.0 92538.0 142547.0 142547.0 142547.0 142547.0
30977.0 34146.0 209730.0 202409.0 56942.0 64106.0 77135.0 81898.0 133664.0 141343.0 45442.0 45391.0 101960.0 99212.0 8151.0 0.0 43232.0 51315.0 67486.0 66212.0 72134.0 66817.0 190729.0 190699.0 90081.0 92780.0 301899.0 300181.0 26468.0 18392.0 76784.0 73622.0 213185.0 214673.0 100639.0 104075.0 108180.0 105997.0 96734.0 96016.0 89435.0 134468.0 89435.0 89435.0 89435.0 89435.0 134468.0 134468.0 134468.0 134468.0
33946.0 41870.0 180854.0 173211.0 52658.0 58309.0 105696.0 107770.0 119645.0 126259.0 28052.0 35255.0 84699.0 80552.0 46286.0 43232.0 0.0 8199.0 59929.0 64018.0 57895.0 50143.0 169321.0 167584.0 89734.0 95544.0 281594.0 278867.0 60099.0 54093.0 38736.0 33290.0 194027.0 193933.0 87949.0 88037.0 87389.0 88354.0 139038.0 138847.0 126955.0 122677.0 126955.0 126955.0 126955.0 126955.0 122677.0 122677.0 122677.0 122677.0
40942.0 48685.0 174897.0 167216.0 54325.0 59276.0 112962.0 114744.0 117113.0 123427.0 29715.0 37514.0 82098.0 77740.0 54484.0 51315.0 8199.0 0.0 63278.0 68148.0 59962.0 52118.0 164875.0 162809.0 93366.0 99574.0 277008.0 274098.0 68124.0 62236.0 31946.0 25832.0 189907.0 189506.0 86268.0 85626.0 86858.0 88551.0 146751.0 146707.0 133796.0 120562.0 133796.0 133796.0 133796.0 133796.0 120562.0 120562.0 120562.0 120562.0
37321.0 33455.0 235853.0 228111.0 109263.0 115789.0 71940.0 69521.0 179571.0 186176.0 86290.0 92112.0 144626.0 140455.0 62114.0 67486.0 59929.0 63278.0 0.0 8174.0 10336.0 14459.0 228035.0 225754.0 30121.0 36711.0 340025.0 336955.0 57130.0 59170.0 93302.0 85844.0 253167.0 252662.0 147675.0 147961.0 43516.0 39609.0 151229.0 147744.0 153675.0 182518.0 153675.0 153675.0 153675.0 153675.0 182518.0 182518.0 182518.0 182518.0
37593.0 32207.0 241896.0 234166.0 111472.0 118192.0 63920.0 61372.0 183328.0 190104.0 89291.0 94635.0 148520.0 144470.0 60115.0 66212.0 64018.0 68148.0 8174.0 0.0 18434.0 22276.0 233004.0 230947.0 26053.0 31527.0 345157.0 342225.0 52863.0 55891.0 98939.0 91657.0 257923.0 257634.0 151063.0 151741.0 49068.0 44204.0 146093.0 142293.0 150345.0 186013.0 150345.0 150345.0 150345.0 150345.0 186013.0 186013.0 186013.0 186013.0
41194.0 39137.0 229846.0 222096.0 109179.0 115399.0 82275.0 79803.0 177042.0 183389.0 85360.0 91768.0 142023.0 137695.0 67628.0 72134.0 57895.0 59962.0 10336.0 18434.0 0.0 7844.0 223668.0 221059.0 35929.0 43350.0 335312.0 332041.0 64906.0 66009.0 88367.0 80683.0 249079.0 248258.0 145769.0 145505.0 36298.0 33922.0 159351.0 156170.0 159981.0 180349.0 159981.0 159981.0 159981.0 159981.0 180349.0 180349.0 180349.0 180349.0
35901.0 35164.0 222489.0 214740.0 101695.0 107839.0 84581.0 82814.0 169203.0 175545.0 77731.0 84250.0 134184.0 129853.0 62938.0 66817.0 50143.0 52118.0 14459.0 22276.0 7844.0 0.0 215930.0 213372.0 43077.0 50243.0 327638.0 324405.0 62188.0 62387.0 80683.0 73038.0 241308.0 240528.0 137969.0 137670.0 41469.0 40180.0 156517.0 153699.0 155476.0 172526.0 155476.0 155476.0 155476.0 155476.0 172526.0 172526.0 172526.0 172526.0
201359.0 209312.0 42682.0 41635.0 134416.0 127508.0 267628.0 271738.0 60798.0 52885.0 148090.0 145873.0 88771.0 91644.0 198479.0 190729.0 169321.0 164875.0 228035.0 233004.0 223668.0 215930.0 0.0 8300.0 258155.0 264449.0 112304.0 109874.0 216947.0 208931.0 135374.0 143160.0 26241.0 24631.0 91318.0 86812.0 242565.0 246774.0 244634.0 249283.0 219294.0 63526.0 219294.0 219294.0 219294.0 219294.0 63526.0 63526.0 63526.0 63526.0
200089.0 208078.0 35143.0 33554.0 134898.0 128131.0 267324.0 271216.0 63494.0 55805.0 147336.0 145552.0 88986.0 91494.0 198334.0 190699.0 167584.0 162809.0 225754.0 230947.0 221059.0 213372.0 8300.0 0.0 255861.0 262301.0 114280.0 111300.0 216747.0 208776.0 132693.0 140395.0 31698.0 28060.0 92462.0 87365.0 238916.0 243331.0 246834.0 251483.0 221494.0 67000.0 221494.0 221494.0 221494.0 221494.0 67000.0 67000.0 67000.0 67000.0
63177.0 57005.0 265554.0 257806.0 137457.0 144209.0 64488.0 58991.0 209248.0 215961.0 115335.0 120676.0 174381.0 170278.0 83235.0 90081.0 89734.0 93366.0 30121.0 26053.0 35929.0 43077.0 258155.0 255861.0 0.0 7940.0 370136.0 367044.0 72395.0 77206.0 123338.0 115817.0 283271.0 282782.0 177072.0 177646.0 46449.0 38942.0 160709.0 155888.0 169876.0 212006.0 169876.0 169876.0 169876.0 169876.0 212006.0 212006.0 212006.0 212006.0
67406.0 60705.0 272533.0 264789.0 142031.0 148888.0 59751.0 53659.0 214740.0 221565.0 120477.0 125509.0 179984.0 175962.0 85580.0 92780.0 95544.0 99574.0 36711.0 31527.0 43350.0 50243.0 264449.0 262301.0 7940.0 0.0 376546.0 373547.0 73310.0 78769.0 129984.0 122551.0 289423.0 289080.0 182341.0 183173.0 53625.0 45947.0 158924.0 153780.0 169977.0 217317.0 169977.0 169977.0 169977.0 169977.0 217317.0 217317.0 217317.0 217317.0
313630.0 321570.0 112594.0 119702.0 245077.0 237989.0 379013.0 383409.0 168743.0 160874.0 260160.0 257577.0 200238.0 203445.0 309793.0 301899.0 281594.0 277008.0 340025.0 345157.0 335312.0 327638.0 112304.0 114280.0 370136.0 376546.0 0.0 8049.0 328289.0 320230.0 246955.0 254633.0 88714.0 87755.0 201390.0 197892.0 352158.0 356884.0 352437.0 357087.0 327097.0 170417.0 327097.0 327097.0 327097.0 327097.0 170417.0 170417.0 170417.0 170417.0
311181.0 319146.0 107439.0 114706.0 243490.0 236447.0 377232.0 381485.0 167516.0 159588.0 257956.0 255601.0 198322.0 201389.0 308020.0 300181.0 278867.0 274098.0 336955.0 342225.0 332041.0 324405.0 109874.0 111300.0 367044.0 373547.0 8049.0 0.0 326511.0 318468.0 243747.0 251368.0 87266.0 85560.0 199887.0 196107.0 348207.0 353059.0 351308.0 355958.0 325969.0 168223.0 325969.0 325969.0 325969.0 325969.0 168223.0 168223.0 168223.0 168223.0
31447.0 27827.0 234863.0 227449.0 83405.0 90572.0 50726.0 55447.0 160129.0 167800.0 70180.0 71201.0 128214.0 125335.0 18495.0 26468.0 60099.0 68124.0 57130.0 52863.0 64906.0 62188.0 216947.0 216747.0 72395.0 73310.0 328289.0 326511.0 0.0 8076.0 97681.0 93134.0 239579.0 240976.0 127091.0 130416.0 100589.0 96628.0 94463.0 91512.0 97835.0 160920.0 97835.0 97835.0 97835.0 97835.0 160920.0 160920.0 160920.0 160920.0
28764.0 27229.0 227140.0 219751.0 75329.0 82496.0 58783.0 63513.0 152054.0 159725.0 62459.0 63254.0 120185.0 117337.0 10452.0 18392.0 54093.0 62236.0 59170.0 55891.0 66009.0 62387.0 208931.0 208776.0 77206.0 78769.0 320230.0 318468.0 8076.0 0.0 90957.0 86745.0 231519.0 232939.0 119017.0 122367.0 102171.0 98763.0 94450.0 92178.0 94554.0 152851.0 94554.0 94554.0 94554.0 94554.0 152851.0 152851.0 152851.0 152851.0
72630.0 80486.0 143187.0 135482.0 51677.0 52894.0 144416.0 146482.0 93134.0 98401.0 36096.0 42083.0 59382.0 54612.0 81887.0 76784.0 38736.0 31946.0 93302.0 98939.0 88367.0 80683.0 135374.0 132693.0 123338.0 129984.0 246955.0 243747.0 97681.0 90957.0 0.0 7886.0 160954.0 159937.0 66473.0 63333.0 109108.0 112479.0 166198.0 167462.0 147836.0 97785.0 147836.0 147836.0 147836.0 147836.0 97785.0 97785.0 97785.0 97785.0
66773.0 74495.0 150270.0 142548.0 55059.0 57166.0 138787.0 140555.0 100833.0 106188.0 36379.0 43282.0 66838.0 62091.0 78123.0 73622.0 33290.0 25832.0 85844.0 91657.0 80683.0 73038.0 143160.0 140395.0 115817.0 122551.0 254633.0 251368.0 93134.0 86745.0 7886.0 0.0 168782.0 167706.0 73564.0 70756.0 101255.0 104595.0 165346.0 166225.0 148365.0 105378.0 148365.0 148365.0 148365.0 148365.0 105378.0 105378.0 105378.0 105378.0
225479.0 233373.0 54664.0 57164.0 156371.0 149294.0 290302.0 294733.0 80254.0 72322.0 171743.0 168958.0 111617.0 114942.0 221084.0 213185.0 194027.0 189907.0 253167.0 257923.0 249079.0 241308.0 26241.0 31698.0 283271.0 289423.0 88714.0 87266.0 239579.0 231519.0 160954.0 168782.0 0.0 8428.0 112702.0 109203.0 268597.0 272710.0 264068.0 268718.0 238728.0 81174.0 238728.0 238728.0 238728.0 238728.0 81174.0 81174.0 81174.0 81174.0
225874.0 233815.0 46836.0 49846.0 158088.0 151091.0 291691.0 295925.0 82861.0 74868.0 172458.0 170041.0 112771.0 115834.0 222489.0 214673.0 193933.0 189506.0 252662.0 257634.0 248258.0 240528.0 24631.0 28060.0 282782.0 289080.0 87755.0 85560.0 240976.0 232939.0 159937.0 167706.0 8428.0 0.0 114626.0 110605.0 266778.0 271096.0 266783.0 271433.0 241444.0 84457.0 241444.0 241444.0 241444.0 241444.0 84457.0 84457.0 84457.0 84457.0
115828.0 123411.0 117369.0 110986.0 43716.0 36602.0 177769.0 182431.0 33140.0 40714.0 61892.0 57607.0 10588.0 14329.0 108618.0 100639.0 87949.0 86268.0 147675.0 151063.0 145769.0 137969.0 91318.0 92462.0 177072.0 182341.0 201390.0 199887.0 127091.0 119017.0 66473.0 73564.0 112702.0 114626.0 0.0 8000.0 172441.0 174643.0 156639.0 161042.0 131325.0 34986.0 131325.0 131325.0 131325.0 131325.0 34986.0 34986.0 34986.0 34986.0
117351.0 125088.0 110896.0 104336.0 47612.0 40772.0 181142.0 185530.0 31610.0 38453.0 63244.0 59852.0 4016.0 8801.0 111922.0 104075.0 88037.0 85626.0 147961.0 151741.0 145505.0 137670.0 86812.0 87365.0 177646.0 183173.0 197892.0 196107.0 130416.0 122367.0 63333.0 70756.0 109203.0 110605.0 8000.0 0.0 170905.0 173452.0 163618.0 167844.0 138409.0 35028.0 138409.0 138409.0 138409.0 138409.0 35028.0 35028.0 35028.0 35028.0
77206.0 75431.0 242833.0 235151.0 140041.0 145628.0 108745.0 104226.0 201751.0 207356.0 115415.0 122603.0 167138.0 162519.0 103899.0 108180.0 87389.0 86858.0 43516.0 49068.0 36298.0 41469.0 242565.0 238916.0 46449.0 53625.0 352158.0 348207.0 100589.0 102171.0 109108.0 101255.0 268597.0 266778.0 172441.0 170905.0 0.0 7913.0 194738.0 191175.0 196277.0 205896.0 196277.0 196277.0 196277.0 196277.0 205896.0 205896.0 205896.0 205896.0
75098.0 72550.0 248141.0 240436.0 140824.0 146651.0 101991.0 97218.0 204549.0 210353.0 116389.0 123339.0 169750.0 165193.0 101229.0 105997.0 88354.0 88551.0 39609.0 44204.0 33922.0 40180.0 246774.0 243331.0 38942.0 45947.0 356884.0 353059.0 96628.0 98763.0 112479.0 104595.0 272710.0 271096.0 174643.0 173452.0 7913.0 0.0 190291.0 186478.0 193212.0 208479.0 193212.0 193212.0 193212.0 193212.0 208479.0 208479.0 208479.0 208479.0
122905.0 121540.0 273769.0 267556.0 123600.0 127858.0 105932.0 114059.0 183940.0 191931.0 130180.0 125150.0 163755.0 163606.0 96681.0 96734.0 139038.0 146751.0 151229.0 146093.0 159351.0 156517.0 244634.0 246834.0 160709.0 158924.0 352437.0 351308.0 94463.0 94450.0 166198.0 165346.0 264068.0 266783.0 156639.0 163618.0 194738.0 190291.0 0.0 8263.0 46895.0 183810.0 46895.0 46895.0 46895.0 46895.0 183810.0 183810.0 183810.0 183810.0
120867.0 118988.0 278356.0 272027.0 126547.0 131146.0 99561.0 107647.0 188589.0 196581.0 131631.0 126997.0 167807.0 167449.0 95269.0 96016.0 138847.0 146707.0 147744.0 142293.0 156170.0 153699.0 249283.0 251483.0 155888.0 153780.0 357087.0 355958.0 91512.0 92178.0 167462.0 166225.0 268718.0 271433.0 161042.0 167844.0 191175.0 186478.0 8263.0 0.0 53539.0 188460.0 53539.0 53539.0 53539.0 53539.0 188460.0 188460.0 188460.0 188460.0
119700.0 120848.0 248445.0 242216.0 100929.0 104309.0 125530.0 133371.0 158600.0 166591.0 112043.0 105770.0 138719.0 138832.0 92538.0 89435.0 126955.0 133796.0 153675.0 150345.0 159981.0 155476.0 219294.0 221494.0 169876.0 169977.0 327097.0 325969.0 97835.0 94554.0 147836.0 148365.0 238728.0 241444.0 131325.0 138409.0 196277.0 193212.0 46895.0 53539.0 0.0 158470.0 0.0 0.0 0.0 0.0 158470.0 158470.0 158470.0 158470.0
150783.0 158330.0 97988.0 93095.0 77703.0 70508.0 211398.0 216364.0 7151.0 11757.0 96878.0 92464.0 38758.0 43398.0 142547.0 134468.0 122677.0 120562.0 182518.0 186013.0 180349.0 172526.0 63526.0 67000.0 212006.0 217317.0 170417.0 168223.0 160920.0 152851.0 97785.0 105378.0 81174.0 84457.0 34986.0 35028.0 205896.0 208479.0 183810.0 188460.0 158470.0 0.0 158470.0 158470.0 158470.0 158470.0 0.0 0.0 0.0 0.0
119700.0 120848.0 248445.0 242216.0 100929.0 104309.0 125530.0 133371.0 158600.0 166591.0 112043.0 105770.0 138719.0 138832.0 92538.0 89435.0 126955.0 133796.0 153675.0 150345.0 159981.0 155476.0 219294.0 221494.0 169876.0 169977.0 327097.0 325969.0 97835.0 94554.0 147836.0 148365.0 238728.0 241444.0 131325.0 138409.0 196277.0 193212.0 46895.0 53539.0 0.0 158470.0 0.0 0.0 0.0 0.0 158470.0 158470.0 158470.0 158470.0
119700.0 120848.0 248445.0 242216.0 100929.0 104309.0 125530.0 133371.0 158600.0 166591.0 112043.0 105770.0 138719.0 138832.0 92538.0 89435.0 126955.0 133796.0 153675.0 150345.0 159981.0 155476.0 219294.0 221494.0 169876.0 169977.0 327097.0 325969.0 97835.0 94554.0 147836.0 148365.0 238728.0 241444.0 131325.0 138409.0 196277.0 193212.0 46895.0 53539.0 0.0 158470.0 0.0 0.0 0.0 0.0 158470.0 158470.0 158470.0 158470.0
119700.0 120848.0 248445.0 242216.0 100929.0 104309.0 125530.0 133371.0 158600.0 166591.0 112043.0 105770.0 138719.0 138832.0 92538.0 89435.0 126955.0 133796.0 153675.0 150345.0 159981.0 155476.0 219294.0 221494.0 169876.0 169977.0 327097.0 325969.0 97835.0 94554.0 147836.0 148365.0 238728.0 241444.0 131325.0 138409.0 196277.0 193212.0 46895.0 53539.0 0.0 158470.0 0.0 0.0 0.0 0.0 158470.0 158470.0 158470.0 158470.0
119700.0 120848.0 248445.0 242216.0 100929.0 104309.0 125530.0 133371.0 158600.0 166591.0 112043.0 105770.0 138719.0 138832.0 92538.0 89435.0 126955.0 133796.0 153675.0 150345.0 159981.0 155476.0 219294.0 221494.0 169876.0 169977.0 327097.0 325969.0 97835.0 94554.0 147836.0 148365.0 238728.0 241444.0 131325.0 138409.0 196277.0 193212.0 46895.0 53539.0 0.0 158470.0 0.0 0.0 0.0 0.0 158470.0 158470.0 158470.0 158470.0
150783.0 158330.0 97988.0 93095.0 77703.0 70508.0 211398.0 216364.0 7151.0 11757.0 96878.0 92464.0 38758.0 43398.0 142547.0 134468.0 122677.0 120562.0 182518.0 186013.0 180349.0 172526.0 63526.0 67000.0 212006.0 217317.0 170417.0 168223.0 160920.0 152851.0 97785.0 105378.0 81174.0 84457.0 34986.0 35028.0 205896.0 208479.0 183810.0 188460.0 158470.0 0.0 158470.0 158470.0 158470.0 158470.0 0.0 0.0 0.0 0.0
150783.0 158330.0 97988.0 93095.0 77703.0 70508.0 211398.0 216364.0 7151.0 11757.0 96878.0 92464.0 38758.0 43398.0 142547.0 134468.0 122677.0 120562.0 182518.0 186013.0 180349.0 172526.0 63526.0 67000.0 212006.0 217317.0 170417.0 168223.0 160920.0 152851.0 97785.0 105378.0 81174.0 84457.0 34986.0 35028.0 205896.0 208479.0 183810.0 188460.0 158470.0 0.0 158470.0 158470.0 158470.0 158470.0 0.0 0.0 0.0 0.0
150783.0 158330.0 97988.0 93095.0 77703.0 70508.0 211398.0 216364.0 7151.0 11757.0 96878.0 92464.0 38758.0 43398.0 142547.0 134468.0 122677.0 120562.0 182518.0 186013.0 180349.0 172526.0 63526.0 67000.0 212006.0 217317.0 170417.0 168223.0 160920.0 152851.0 97785.0 105378.0 81174.0 84457.0 34986.0 35028.0 205896.0 208479.0 183810.0 188460.0 158470.0 0.0 158470.0 158470.0 158470.0 158470.0 0.0 0.0 0.0 0.0
150783.0 158330.0 97988.0 93095.0 77703.0 70508.0 211398.0 216364.0 7151.0 11757.0 96878.0 92464.0 38758.0 43398.0 142547.0 134468.0 122677.0 120562.0 182518.0 186013.0 180349.0 172526.0 63526.0 67000.0 212006.0 217317.0 170417.0 168223.0 160920.0 152851.0 97785.0 105378.0 81174.0 84457.0 34986.0 35028.0 205896.0 208479.0 183810.0 188460.0 158470.0 0.0 158470.0 158470.0 158470.0 158470.0 0.0 0.0 0.0 0.0
FIXED_EDGES_SECTION
1 2
3 4
5 6
7 8
9 10
11 12
13 14
15 16
17 18
19 20
21 22
23 24
25 26
27 28
29 30
31 32
33 34
35 36
37 38
39 40
-1 
DEMAND_SECTION
1 96
2 96
3 244
4 244
5 75
6 75
7 55
8 55
9 37
10 37
11 214
12 214
13 399
14 399
15 171
16 171
17 94
18 94
19 211
20 211
21 82
22 82
23 563
24 563
25 224
26 224
27 491
28 491
29 293
30 293
31 291
32 291
33 534
34 534
35 100
36 100
37 72
38 72
39 292
40 292
41 0
42 0
43 0
44 0
45 0
46 0
47 0
48 0
49 0
50 0
DEPOT_SECTION
41 
-1 
CAPACITIES_SECTION
2500 
2750 
-1 
EOF