NAME: GFS_20_1
TYPE: GFSP
DIMENSION: 50
VEHICLES: 4
CAPACITY: 2500.0
TRIP_DIST_LIMIT: 600000.0
TOTAL_DIST_LIMIT: 1050000.0
EDGE_WEIGHT_TYPE: EXPLICIT
EDGE_WEIGHT_FORMAT: FULL_MATRIX
EDGE_WEIGHT_SECTION
0.0 7927.0 170102.0 169242.0 20418.0 13538.0 362724.0 355500.0 245596.0 241451.0 279730.0 284216.0 151947.0 145227.0 207853.0 213987.0 14177.0 8764.0 25501.0 18722.0 178340.0 170758.0 250454.0 253793.0 231251.0 224421.0 25791.0 33265.0 95068.0 90574.0 12431.0 19535.0 154173.0 160136.0 273093.0 275808.0 140571.0 138008.0 208662.0 202806.0 64505.0 192835.0 64505.0 64505.0 64505.0 64505.0 192835.0 192835.0 192835.0 192835.0
7927.0 0.0 169011.0 167935.0 24167.0 16208.0 362640.0 355281.0 244425.0 240062.0 279646.0 284132.0 148350.0 141887.0 206645.0 212580.0 21991.0 16558.0 24576.0 19874.0 171725.0 164083.0 244446.0 247933.0 224655.0 217750.0 20478.0 27215.0 88856.0 84746.0 6880.0 15070.0 150300.0 156529.0 273009.0 275725.0 132867.0 130212.0 206112.0 200038.0 68264.0 192751.0 68264.0 68264.0 68264.0 68264.0 192751.0 192751.0 192751.0 192751.0
170102.0 169011.0 0.0 4794.0 152381.0 156979.0 198061.0 190475.0 75497.0 71629.0 117168.0 122737.0 56319.0 52975.0 37806.0 44405.0 169980.0 173811.0 193531.0 188405.0 142036.0 140941.0 164356.0 162122.0 171445.0 169775.0 184981.0 187272.0 121068.0 116066.0 162460.0 154581.0 61952.0 55678.0 111617.0 112771.0 174381.0 179984.0 51883.0 51416.0 138719.0 38758.0 138719.0 138719.0 138719.0 138719.0 38758.0 38758.0 38758.0 38758.0
169242.0 167935.0 4794.0 0.0 151828.0 156222.0 200651.0 193013.0 76519.0 72212.0 120294.0 126028.0 51753.0 48677.0 38742.0 44768.0 169517.0 173169.0 192403.0 187436.0 137316.0 136275.0 159806.0 157647.0 166682.0 164992.0 183562.0 185665.0 117783.0 112972.0 161326.0 153384.0 57316.0 50943.0 114942.0 115834.0 170278.0 175962.0 49188.0 48097.0 138832.0 43398.0 138832.0 138832.0 138832.0 138832.0 43398.0 43398.0 43398.0 43398.0
20418.0 24167.0 152381.0 151828.0 0.0 8039.0 343852.0 336628.0 227808.0 223966.0 260858.0 265344.0 138860.0 131623.0 190186.0 196581.0 17902.0 21604.0 45902.0 38795.0 174554.0 167308.0 243773.0 246557.0 227058.0 220601.0 44634.0 51266.0 90823.0 85005.0 21669.0 20999.0 141716.0 147009.0 254221.0 256937.0 143987.0 142513.0 193126.0 187697.0 44275.0 173963.0 44275.0 44275.0 44275.0 44275.0 173963.0 173963.0 173963.0 173963.0
13538.0 16208.0 156979.0 156222.0 8039.0 0.0 349283.0 342059.0 232474.0 228431.0 266289.0 270775.0 140752.0 133775.0 194762.0 200987.0 16582.0 17363.0 38869.0 32259.0 172336.0 164947.0 242806.0 245826.0 225063.0 218453.0 36686.0 43236.0 88542.0 83232.0 13805.0 14763.0 143289.0 148933.0 259652.0 262367.0 139141.0 137320.0 196396.0 190723.0 52073.0 179394.0 52073.0 52073.0 52073.0 52073.0 179394.0 179394.0 179394.0 179394.0
362724.0 362640.0 198061.0 200651.0 343852.0 349283.0 0.0 8018.0 130837.0 138150.0 83440.0 80486.0 243424.0 244288.0 164374.0 161549.0 360918.0 365456.0 387180.0 381365.0 311493.0 314142.0 286377.0 279630.0 313258.0 316187.0 380114.0 383280.0 317488.0 313227.0 356310.0 348915.0 246581.0 238146.0 90958.0 87037.0 362073.0 368861.0 185475.0 193906.0 328359.0 171494.0 328359.0 328359.0 328359.0 328359.0 171494.0 171494.0 171494.0 171494.0
355500.0 355281.0 190475.0 193013.0 336628.0 342059.0 8018.0 0.0 122870.0 130163.0 76554.0 74023.0 235527.0 236445.0 156574.0 153670.0 353694.0 358232.0 379956.0 374141.0 303477.0 306124.0 278651.0 271936.0 305391.0 308285.0 372885.0 375985.0 309714.0 305497.0 349150.0 341719.0 238654.0 230215.0 84264.0 79988.0 354097.0 360895.0 177472.0 185904.0 321135.0 164411.0 321135.0 321135.0 321135.0 321135.0 164411.0 164411.0 164411.0 164411.0
245596.0 244425.0 75497.0 76519.0 227808.0 232474.0 130837.0 122870.0 0.0 7996.0 63223.0 71069.0 113124.0 114746.0 37782.0 32468.0 245337.0 249274.0 268911.0 263875.0 182610.0 184607.0 171603.0 166291.0 192297.0 193754.0 260032.0 261992.0 188654.0 185096.0 237834.0 229901.0 115959.0 107494.0 62806.0 58446.0 231242.0 238025.0 55180.0 63539.0 213451.0 68145.0 213451.0 213451.0 213451.0 213451.0 68145.0 68145.0 68145.0 68145.0
241451.0 240062.0 71629.0 72212.0 223966.0 228431.0 138150.0 130163.0 7996.0 0.0 71170.0 78996.0 106441.0 108408.0 33908.0 27481.0 241596.0 245351.0 264484.0 259613.0 174784.0 176859.0 163834.0 158592.0 184326.0 185764.0 255314.0 257083.0 182384.0 179024.0 233417.0 225430.0 109060.0 100581.0 70579.0 66381.0 223953.0 230795.0 47500.0 55899.0 210164.0 68493.0 210164.0 210164.0 210164.0 210164.0 68493.0 68493.0 68493.0 68493.0
279730.0 279646.0 117168.0 120294.0 260858.0 266289.0 83440.0 76554.0 63223.0 71170.0 0.0 7987.0 167153.0 166667.0 87478.0 86958.0 277924.0 282462.0 304186.0 298371.0 243469.0 244795.0 234512.0 228995.0 255483.0 256827.0 297118.0 300260.0 238070.0 233219.0 273434.0 265954.0 171197.0 163055.0 8493.0 4870.0 287519.0 293797.0 116313.0 124283.0 245365.0 88159.0 245365.0 245365.0 245365.0 245365.0 88159.0 88159.0 88159.0 88159.0
284216.0 284132.0 122737.0 126028.0 265344.0 270775.0 80486.0 74023.0 71069.0 78996.0 7987.0 0.0 173636.0 172911.0 94213.0 94047.0 282410.0 286948.0 308672.0 302856.0 250731.0 251948.0 242448.0 236950.0 263268.0 264555.0 301604.0 304794.0 243783.0 238784.0 277920.0 270440.0 177808.0 169730.0 11165.0 12630.0 294057.0 300257.0 123779.0 131682.0 249851.0 92214.0 249851.0 249851.0 249851.0 249851.0 92214.0 92214.0 92214.0 92214.0
151947.0 148350.0 56319.0 51753.0 138860.0 140752.0 243424.0 235527.0 113124.0 106441.0 167153.0 173636.0 0.0 8448.0 79869.0 81903.0 156497.0 158032.0 171214.0 168137.0 86430.0 84839.0 122591.0 122483.0 121781.0 118786.0 159600.0 159620.0 76786.0 74489.0 141473.0 133305.0 6325.0 8189.0 162842.0 162439.0 120429.0 126645.0 62577.0 54987.0 135822.0 95068.0 135822.0 135822.0 135822.0 135822.0 95068.0 95068.0 95068.0 95068.0
145227.0 141887.0 52975.0 48677.0 131623.0 133775.0 244288.0 236445.0 114746.0 108408.0 166667.0 172911.0 8448.0 0.0 80042.0 82873.0 149346.0 151102.0 165059.0 161727.0 91985.0 89815.0 130857.0 130841.0 129247.0 126009.0 153785.0 154124.0 73979.0 70892.0 135007.0 126819.0 14134.0 15823.0 161988.0 162022.0 121772.0 127640.0 66473.0 59384.0 127741.0 91411.0 127741.0 127741.0 127741.0 127741.0 91411.0 91411.0 91411.0 91411.0
207853.0 206645.0 37806.0 38742.0 190186.0 194762.0 164374.0 156574.0 37782.0 33908.0 87478.0 94213.0 79869.0 80042.0 0.0 8049.0 207777.0 211614.0 231129.0 226107.0 157629.0 158346.0 161878.0 157971.0 176440.0 176455.0 222290.0 224324.0 153157.0 149092.0 200051.0 192120.0 83746.0 75578.0 83673.0 82715.0 200091.0 206445.0 36140.0 41956.0 176257.0 42206.0 176257.0 176257.0 176257.0 176257.0 42206.0 42206.0 42206.0 42206.0
213987.0 212580.0 44405.0 44768.0 196581.0 200987.0 161549.0 153670.0 32468.0 27481.0 86958.0 94047.0 81903.0 82873.0 8049.0 0.0 214246.0 217936.0 237004.0 232135.0 156782.0 157902.0 157355.0 153169.0 173250.0 173600.0 227878.0 229712.0 156573.0 152835.0 205937.0 197952.0 85289.0 76936.0 83884.0 82120.0 201462.0 207995.0 31902.0 38783.0 183114.0 49871.0 183114.0 183114.0 183114.0 183114.0 49871.0 49871.0 49871.0 49871.0
14177.0 21991.0 169980.0 169517.0 17902.0 16582.0 360918.0 353694.0 245337.0 241596.0 277924.0 282410.0 156497.0 149346.0 207777.0 214246.0 0.0 7456.0 34471.0 26360.0 188658.0 181219.0 259380.0 262408.0 241443.0 234782.0 38813.0 46609.0 104915.0 99740.0 24808.0 29663.0 159223.0 164661.0 271287.0 274003.0 153502.0 151223.0 211028.0 205594.0 57108.0 191029.0 57108.0 57108.0 57108.0 57108.0 191029.0 191029.0 191029.0 191029.0
8764.0 16558.0 173811.0 173169.0 21604.0 17363.0 365456.0 358232.0 249274.0 245351.0 282462.0 286948.0 158032.0 151102.0 211614.0 217936.0 7456.0 0.0 27135.0 19108.0 186683.0 179138.0 258383.0 261615.0 239571.0 232786.0 31594.0 39463.0 103224.0 98497.0 20997.0 27424.0 160491.0 166216.0 275825.0 278541.0 149332.0 146748.0 213721.0 208075.0 63495.0 195567.0 63495.0 63495.0 63495.0 63495.0 195567.0 195567.0 195567.0 195567.0
25501.0 24576.0 193531.0 192403.0 45902.0 38869.0 387180.0 379956.0 268911.0 264484.0 304186.0 308672.0 171214.0 165059.0 231129.0 237004.0 34471.0 27135.0 0.0 8198.0 187414.0 179572.0 262040.0 265984.0 240141.0 232944.0 14718.0 20811.0 106977.0 104053.0 31077.0 39070.0 172806.0 179356.0 297549.0 300265.0 141802.0 137915.0 229908.0 223661.0 89757.0 217291.0 89757.0 89757.0 89757.0 89757.0 217291.0 217291.0 217291.0 217291.0
18722.0 19874.0 188405.0 187436.0 38795.0 32259.0 381365.0 374141.0 263875.0 259613.0 298371.0 302856.0 168137.0 161727.0 226107.0 232135.0 26360.0 19108.0 8198.0 0.0 188177.0 180406.0 262039.0 265771.0 241043.0 233960.0 18392.0 25889.0 106513.0 103023.0 26741.0 34934.0 170002.0 176310.0 291734.0 294449.0 144903.0 141388.0 225972.0 219911.0 82210.0 211476.0 82210.0 82210.0 82210.0 82210.0 211476.0 211476.0 211476.0 211476.0
178340.0 171725.0 142036.0 137316.0 174554.0 172336.0 311493.0 303477.0 182610.0 174784.0 243469.0 250731.0 86430.0 91985.0 157629.0 156782.0 188658.0 186683.0 187414.0 188177.0 0.0 7971.0 77090.0 82506.0 52931.0 46124.0 172890.0 168917.0 83809.0 89639.0 165920.0 159341.0 80395.0 86380.0 240665.0 238605.0 65542.0 73460.0 127569.0 119369.0 188170.0 180652.0 188170.0 188170.0 188170.0 188170.0 180652.0 180652.0 180652.0 180652.0
170758.0 164083.0 140941.0 136275.0 167308.0 164947.0 314142.0 306124.0 184607.0 176859.0 244795.0 251948.0 84839.0 89815.0 158346.0 157902.0 181219.0 179138.0 179572.0 180406.0 7971.0 0.0 85004.0 90338.0 60640.0 53669.0 165030.0 161009.0 76494.0 82540.0 158332.0 151832.0 79010.0 85541.0 241732.0 239941.0 58631.0 66570.0 129439.0 121132.0 181724.0 179673.0 181724.0 181724.0 181724.0 181724.0 179673.0 179673.0 179673.0 179673.0
250454.0 244446.0 164356.0 159806.0 243773.0 242806.0 286377.0 278651.0 171603.0 163834.0 234512.0 242448.0 122591.0 130857.0 161878.0 157355.0 259380.0 258383.0 262040.0 262039.0 77090.0 85004.0 0.0 7817.0 35042.0 41985.0 247781.0 244394.0 155628.0 159895.0 238212.0 231010.0 116745.0 117305.0 234402.0 229827.0 140271.0 147925.0 125767.0 120344.0 250760.0 197841.0 250760.0 250760.0 250760.0 250760.0 197841.0 197841.0 197841.0 197841.0
253793.0 247933.0 162122.0 157647.0 246557.0 245826.0 279630.0 271936.0 166291.0 158592.0 228995.0 236950.0 122483.0 130841.0 157971.0 153169.0 262408.0 261615.0 265984.0 265771.0 82506.0 90338.0 7817.0 0.0 42716.0 49488.0 251825.0 248631.0 159263.0 163232.0 241617.0 234302.0 116807.0 116800.0 229091.0 224343.0 146462.0 154180.0 121832.0 116784.0 252484.0 194778.0 252484.0 252484.0 252484.0 252484.0 194778.0 194778.0 194778.0 194778.0
231251.0 224655.0 171445.0 166682.0 227058.0 225063.0 313258.0 305391.0 192297.0 184326.0 255483.0 263268.0 121781.0 129247.0 176440.0 173250.0 241443.0 239571.0 240141.0 241043.0 52931.0 60640.0 35042.0 42716.0 0.0 7871.0 225564.0 221377.0 136530.0 142053.0 218835.0 212204.0 115485.0 118526.0 254388.0 250676.0 109998.0 117296.0 141428.0 134606.0 238750.0 207941.0 238750.0 238750.0 238750.0 238750.0 207941.0 207941.0 207941.0 207941.0
224421.0 217750.0 169775.0 164992.0 220601.0 218453.0 316187.0 308285.0 193754.0 185764.0 256827.0 264555.0 118786.0 126009.0 176455.0 173600.0 234782.0 232786.0 232944.0 233960.0 46124.0 53669.0 41985.0 49488.0 7871.0 0.0 218340.0 214061.0 129917.0 135622.0 211996.0 205457.0 112465.0 116004.0 255475.0 251998.0 102142.0 109430.0 141932.0 134839.0 233058.0 206777.0 233058.0 233058.0 233058.0 233058.0 206777.0 206777.0 206777.0 206777.0
25791.0 20478.0 184981.0 183562.0 44634.0 36686.0 380114.0 372885.0 260032.0 255314.0 297118.0 301604.0 159600.0 153785.0 222290.0 227878.0 38813.0 31594.0 14718.0 18392.0 172890.0 165030.0 247781.0 251825.0 225564.0 218340.0 0.0 7962.0 93135.0 90630.0 24795.0 31366.0 160864.0 167684.0 290481.0 293131.0 127231.0 123472.0 219306.0 212808.0 88720.0 210223.0 88720.0 88720.0 88720.0 88720.0 210223.0 210223.0 210223.0 210223.0
33265.0 27215.0 187272.0 185665.0 51266.0 43236.0 383280.0 375985.0 261992.0 257083.0 300260.0 304794.0 159620.0 154124.0 224324.0 229712.0 46609.0 39463.0 20811.0 25889.0 168917.0 161009.0 244394.0 248631.0 221377.0 214061.0 7962.0 0.0 90797.0 88940.0 30407.0 35859.0 160575.0 167631.0 293672.0 296385.0 121303.0 117254.0 220068.0 213377.0 94953.0 213414.0 94953.0 94953.0 94953.0 94953.0 213414.0 213414.0 213414.0 213414.0
95068.0 88856.0 121068.0 117783.0 90823.0 88542.0 317488.0 309714.0 188654.0 182384.0 238070.0 243783.0 76786.0 73979.0 153157.0 156573.0 104915.0 103224.0 106977.0 106513.0 83809.0 76494.0 155628.0 159263.0 136530.0 129917.0 93135.0 90797.0 0.0 7955.0 82730.0 75805.0 75749.0 83871.0 232675.0 233587.0 65687.0 68190.0 139348.0 131637.0 108311.0 155705.0 108311.0 108311.0 108311.0 108311.0 155705.0 155705.0 155705.0 155705.0
90574.0 84746.0 116066.0 112972.0 85005.0 83232.0 313227.0 305497.0 185096.0 179024.0 233219.0 238784.0 74489.0 70892.0 149092.0 152835.0 99740.0 98497.0 104053.0 103023.0 89639.0 82540.0 159895.0 163232.0 142053.0 135622.0 90630.0 88940.0 7955.0 0.0 78387.0 71115.0 74096.0 81938.0 227650.0 228790.0 73609.0 75989.0 136979.0 129475.0 100915.0 149917.0 100915.0 100915.0 100915.0 100915.0 149917.0 149917.0 149917.0 149917.0
12431.0 6880.0 162460.0 161326.0 21669.0 13805.0 356310.0 349150.0 237834.0 233417.0 273434.0 277920.0 141473.0 135007.0 200051.0 205937.0 24808.0 20997.0 31077.0 26741.0 165920.0 158332.0 238212.0 241617.0 218835.0 211996.0 24795.0 30407.0 82730.0 78387.0 0.0 8193.0 143437.0 149652.0 266797.0 269513.0 128743.0 126416.0 199274.0 193181.0 64593.0 186539.0 64593.0 64593.0 64593.0 64593.0 186539.0 186539.0 186539.0 186539.0
19535.0 15070.0 154581.0 153384.0 20999.0 14763.0 348915.0 341719.0 229901.0 225430.0 265954.0 270440.0 133305.0 126819.0 192120.0 197952.0 29663.0 27424.0 39070.0 34934.0 159341.0 151832.0 231010.0 234302.0 212204.0 205457.0 31366.0 35859.0 75805.0 71115.0 8193.0 0.0 135304.0 141485.0 259317.0 262032.0 124472.0 122579.0 191100.0 184994.0 60608.0 179059.0 60608.0 60608.0 60608.0 60608.0 179059.0 179059.0 179059.0 179059.0
154173.0 150300.0 61952.0 57316.0 141716.0 143289.0 246581.0 238654.0 115959.0 109060.0 171197.0 177808.0 6325.0 14134.0 83746.0 85289.0 159223.0 160491.0 172806.0 170002.0 80395.0 79010.0 116745.0 116807.0 115485.0 112465.0 160864.0 160575.0 75749.0 74096.0 143437.0 135304.0 0.0 8481.0 167097.0 166450.0 116348.0 122757.0 63989.0 56056.0 139943.0 100704.0 139943.0 139943.0 139943.0 139943.0 100704.0 100704.0 100704.0 100704.0
160136.0 156529.0 55678.0 50943.0 147009.0 148933.0 238146.0 230215.0 107494.0 100581.0 163055.0 169730.0 8189.0 15823.0 75578.0 76936.0 164661.0 166216.0 179356.0 176310.0 86380.0 85541.0 117305.0 116800.0 118526.0 116004.0 167684.0 167631.0 83871.0 81938.0 149652.0 141485.0 8481.0 0.0 159071.0 158293.0 124584.0 131064.0 55630.0 47786.0 143565.0 94275.0 143565.0 143565.0 143565.0 143565.0 94275.0 94275.0 94275.0 94275.0
273093.0 273009.0 111617.0 114942.0 254221.0 259652.0 90958.0 84264.0 62806.0 70579.0 8493.0 11165.0 162842.0 161988.0 83673.0 83884.0 271287.0 275825.0 297549.0 291734.0 240665.0 241732.0 234402.0 229091.0 254388.0 255475.0 290481.0 293672.0 232675.0 227650.0 266797.0 259317.0 167097.0 159071.0 0.0 8428.0 283271.0 289423.0 114158.0 121920.0 238728.0 81174.0 238728.0 238728.0 238728.0 238728.0 81174.0 81174.0 81174.0 81174.0
275808.0 275725.0 112771.0 115834.0 256937.0 262367.0 87037.0 79988.0 58446.0 66381.0 4870.0 12630.0 162439.0 162022.0 82715.0 82120.0 274003.0 278541.0 300265.0 294449.0 238605.0 239941.0 229827.0 224343.0 250676.0 251998.0 293131.0 296385.0 233587.0 228790.0 269513.0 262032.0 166450.0 158293.0 8428.0 0.0 282782.0 289080.0 111444.0 119414.0 241444.0 84457.0 241444.0 241444.0 241444.0 241444.0 84457.0 84457.0 84457.0 84457.0
140571.0 132867.0 174381.0 170278.0 143987.0 139141.0 362073.0 354097.0 231242.0 223953.0 287519.0 294057.0 120429.0 121772.0 200091.0 201462.0 153502.0 149332.0 141802.0 144903.0 65542.0 58631.0 140271.0 146462.0 109998.0 102142.0 127231.0 121303.0 65687.0 73609.0 128743.0 124472.0 116348.0 124584.0 283271.0 282782.0 0.0 7940.0 176928.0 168510.0 169876.0 212006.0 169876.0 169876.0 169876.0 169876.0 212006.0 212006.0 212006.0 212006.0
138008.0 130212.0 179984.0 175962.0 142513.0 137320.0 368861.0 360895.0 238025.0 230795.0 293797.0 300257.0 126645.0 127640.0 206445.0 207995.0 151223.0 146748.0 137915.0 141388.0 73460.0 66570.0 147925.0 154180.0 117296.0 109430.0 123472.0 117254.0 68190.0 75989.0 126416.0 122579.0 122757.0 131064.0 289423.0 289080.0 7940.0 0.0 183908.0 175503.0 169977.0 217317.0 169977.0 169977.0 169977.0 169977.0 217317.0 217317.0 217317.0 217317.0
208662.0 206112.0 51883.0 49188.0 193126.0 196396.0 185475.0 177472.0 55180.0 47500.0 116313.0 123779.0 62577.0 66473.0 36140.0 31902.0 211028.0 213721.0 229908.0 225972.0 127569.0 129439.0 125767.0 121832.0 141428.0 141932.0 219306.0 220068.0 139348.0 136979.0 199274.0 191100.0 63989.0 55630.0 114158.0 111444.0 176928.0 183908.0 0.0 8434.0 183483.0 75084.0 183483.0 183483.0 183483.0 183483.0 75084.0 75084.0 75084.0 75084.0
202806.0 200038.0 51416.0 48097.0 187697.0 190723.0 193906.0 185904.0 63539.0 55899.0 124283.0 131682.0 54987.0 59384.0 41956.0 38783.0 205594.0 208075.0 223661.0 219911.0 119369.0 121132.0 120344.0 116784.0 134606.0 134839.0 212808.0 213377.0 131637.0 129475.0 193181.0 184994.0 56056.0 47786.0 121920.0 119414.0 168510.0 175503.0 8434.0 0.0 179018.0 78498.0 179018.0 179018.0 179018.0 179018.0 78498.0 78498.0 78498.0 78498.0
64505.0 68264.0 138719.0 138832.0 44275.0 52073.0 328359.0 321135.0 213451.0 210164.0 245365.0 249851.0 135822.0 127741.0 176257.0 183114.0 57108.0 63495.0 89757.0 82210.0 188170.0 181724.0 250760.0 252484.0 238750.0 233058.0 88720.0 94953.0 108311.0 100915.0 64593.0 60608.0 139943.0 143565.0 238728.0 241444.0 169876.0 169977.0 183483.0 179018.0 0.0 158470.0 0.0 0.0 0.0 0.0 158470.0 158470.0 158470.0 158470.0
192835.0 192751.0 38758.0 43398.0 173963.0 179394.0 171494.0 164411.0 68145.0 68493.0 88159.0 92214.0 95068.0 91411.0 42206.0 49871.0 191029.0 195567.0 217291.0 211476.0 180652.0 179673.0 197841.0 194778.0 207941.0 206777.0 210223.0 213414.0 155705.0 149917.0 186539.0 179059.0 100704.0 94275.0 81174.0 84457.0 212006.0 217317.0 75084.0 78498.0 158470.0 0.0 158470.0 158470.0 158470.0 158470.0 0.0 0.0 0.0 0.0
64505.0 68264.0 138719.0 138832.0 44275.0 52073.0 328359.0 321135.0 213451.0 210164.0 245365.0 249851.0 135822.0 127741.0 176257.0 183114.0 57108.0 63495.0 89757.0 82210.0 188170.0 181724.0 250760.0 252484.0 238750.0 233058.0 88720.0 94953.0 108311.0 100915.0 64593.0 60608.0 139943.0 143565.0 238728.0 241444.0 169876.0 169977.0 183483.0 179018.0 0.0 158470.0 0.0 0.0 0.0 0.0 158470.0 158470.0 158470.0 158470.0
64505.0 68264.0 138719.0 138832.0 44275.0 52073.0 328359.0 321135.0 213451.0 210164.0 245365.0 249851.0 135822.0 127741.0 176257.0 183114.0 57108.0 63495.0 89757.0 82210.0 188170.0 181724.0 250760.0 252484.0 238750.0 233058.0 88720.0 94953.0 108311.0 100915.0 64593.0 60608.0 139943.0 143565.0 238728.0 241444.0 169876.0 169977.0 183483.0 179018.0 0.0 158470.0 0.0 0.0 0.0 0.0 158470.0 158470.0 158470.0 158470.0
64505.0 68264.0 138719.0 138832.0 44275.0 52073.0 328359.0 321135.0 213451.0 210164.0 245365.0 249851.0 135822.0 127741.0 176257.0 183114.0 57108.0 63495.0 89757.0 82210.0 188170.0 181724.0 250760.0 252484.0 238750.0 233058.0 88720.0 94953.0 108311.0 100915.0 64593.0 60608.0 139943.0 143565.0 238728.0 241444.0 169876.0 169977.0 183483.0 179018.0 0.0 158470.0 0.0 0.0 0.0 0.0 158470.0 158470.0 158470.0 158470.0
64505.0 68264.0 138719.0 138832.0 44275.0 52073.0 328359.0 321135.0 213451.0 210164.0 245365.0 249851.0 135822.0 127741.0 176257.0 183114.0 57108.0 63495.0 89757.0 82210.0 188170.0 181724.0 250760.0 252484.0 238750.0 233058.0 88720.0 94953.0 108311.0 100915.0 64593.0 60608.0 139943.0 143565.0 238728.0 241444.0 169876.0 169977.0 183483.0 179018.0 0.0 158470.0 0.0 0.0 0.0 0.0 158470.0 158470.0 158470.0 158470.0
192835.0 192751.0 38758.0 43398.0 173963.0 179394.0 171494.0 164411.0 68145.0 68493.0 88159.0 92214.0 95068.0 91411.0 42206.0 49871.0 191029.0 195567.0 217291.0 211476.0 180652.0 179673.0 197841.0 194778.0 207941.0 206777.0 210223.0 213414.0 155705.0 149917.0 186539.0 179059.0 100704.0 94275.0 81174.0 84457.0 212006.0 217317.0 75084.0 78498.0 158470.0 0.0 158470.0 158470.0 158470.0 158470.0 0.0 0.0 0.0 0.0
192835.0 192751.0 38758.0 43398.0 173963.0 179394.0 171494.0 164411.0 68145.0 68493.0 88159.0 92214.0 95068.0 91411.0 42206.0 49871.0 191029.0 195567.0 217291.0 211476.0 180652.0 179673.0 197841.0 194778.0 207941.0 206777.0 210223.0 213414.0 155705.0 149917.0 186539.0 179059.0 100704.0 94275.0 81174.0 84457.0 212006.0 217317.0 75084.0 78498.0 158470.0 0.0 158470.0 158470.0 158470.0 158470.0 0.0 0.0 0.0 0.0
192835.0 192751.0 38758.0 43398.0 173963.0 179394.0 171494.0 164411.0 68145.0 68493.0 88159.0 92214.0 95068.0 91411.0 42206.0 49871.0 191029.0 195567.0 217291.0 211476.0 180652.0 179673.0 197841.0 194778.0 207941.0 206777.0 210223.0 213414.0 155705.0 149917.0 186539.0 179059.0 100704.0 94275.0 81174.0 84457.0 212006.0 217317.0 75084.0 78498.0 158470.0 0.0 158470.0 158470.0 158470.0 158470.0 0.0 0.0 0.0 0.0
192835.0 192751.0 38758.0 43398.0 173963.0 179394.0 171494.0 164411.0 68145.0 68493.0 88159.0 92214.0 95068.0 91411.0 42206.0 49871.0 191029.0 195567.0 217291.0 211476.0 180652.0 179673.0 197841.0 194778.0 207941.0 206777.0 210223.0 213414.0 155705.0 149917.0 186539.0 179059.0 100704.0 94275.0 81174.0 84457.0 212006.0 217317.0 75084.0 78498.0 158470.0 0.0 158470.0 158470.0 158470.0 158470.0 0.0 0.0 0.0 0.0
FIXED_EDGES_SECTION
1 2
3 4
5 6
7 8
9 10
11 12
13 14
15 16
17 18
19 20
21 22
23 24
25 26
27 28
29 30
31 32
33 34
35 36
37 38
39 40
-1 
DEMAND_SECTION
1 247
2 247
3 399
4 399
5 104
6 104
7 229
8 229
9 319
10 319
11 184
12 184
13 119
14 119
15 313
16 313
17 219
18 219
19 216
20 216
21 180
22 180
23 321
24 321
25 277
26 277
27 274
28 274
29 341
30 341
31 396
32 396
33 421
34 421
35 534
36 534
37 224
38 224
39 68
40 68
41 0
42 0
43 0
44 0
45 0
46 0
47 0
48 0
49 0
50 0
DEPOT_SECTION
41 
-1 
CAPACITIES_SECTION
2500 
2750 
3000 
3250 
-1 
EOF