NAME: GFS_20_1
TYPE: GFSP
DIMENSION: 50
VEHICLES: 4
CAPACITY: 2500.0
TRIP_DIST_LIMIT: 600000.0
TOTAL_DIST_LIMIT: 1050000.0
EDGE_WEIGHT_TYPE: EXPLICIT
EDGE_WEIGHT_FORMAT: FULL_MATRIX
EDGE_WEIGHT_SECTION
0.0 8242.0 92305.0 84076.0 134040.0 137266.0 195823.0 188411.0 48697.0 55110.0 214723.0 206871.0 134643.0 126457.0 24648.0 32023.0 238053.0 230449.0 177789.0 185604.0 160950.0 166327.0 255415.0 257246.0 196200.0 191302.0 234010.0 225906.0 133436.0 140521.0 163424.0 171894.0 25501.0 28965.0 155940.0 148326.0 175867.0 174672.0 60045.0 51929.0 262112.0 222342.0 262112.0 262112.0 262112.0 262112.0 222342.0 222342.0 222342.0 222342.0
8242.0 0.0 88110.0 79848.0 129659.0 132504.0 191865.0 184577.0 40690.0 47339.0 212178.0 204427.0 129473.0 121302.0 22365.0 28638.0 236407.0 228894.0 175739.0 183459.0 158545.0 164201.0 253260.0 255320.0 199128.0 194482.0 229826.0 221739.0 128083.0 134995.0 164685.0 173195.0 23734.0 24880.0 155431.0 147682.0 173251.0 172418.0 51925.0 43817.0 261115.0 226086.0 261115.0 261115.0 261115.0 261115.0 226086.0 226086.0 226086.0 226086.0
92305.0 88110.0 0.0 8262.0 41764.0 45604.0 103766.0 96543.0 67066.0 60613.0 126993.0 119743.0 44722.0 36865.0 67926.0 60302.0 154854.0 147962.0 93613.0 100582.0 75176.0 82118.0 169143.0 172156.0 158018.0 156680.0 141754.0 133658.0 44697.0 52560.0 110373.0 118128.0 109123.0 105813.0 85814.0 77901.0 88426.0 89327.0 87626.0 86009.0 182844.0 191700.0 182844.0 182844.0 182844.0 182844.0 191700.0 191700.0 191700.0 191700.0
84076.0 79848.0 8262.0 0.0 49967.0 53570.0 112027.0 104795.0 59734.0 53630.0 134840.0 127507.0 52174.0 44151.0 59746.0 52090.0 162236.0 155247.0 100913.0 108027.0 82601.0 89356.0 176886.0 179777.0 160328.0 158595.0 150008.0 141913.0 51828.0 59574.0 113735.0 121704.0 100910.0 97687.0 91035.0 83021.0 96150.0 96767.0 80904.0 78862.0 189830.0 193544.0 189830.0 189830.0 189830.0 189830.0 193544.0 193544.0 193544.0 193544.0
134040.0 129659.0 41764.0 49967.0 0.0 7991.0 62735.0 55964.0 104532.0 97095.0 91445.0 85226.0 15509.0 16737.0 109690.0 102056.0 122910.0 116986.0 65017.0 70073.0 47343.0 55298.0 133875.0 137914.0 158210.0 158985.0 100209.0 92140.0 19238.0 24197.0 107723.0 113652.0 150048.0 146192.0 74610.0 68636.0 55825.0 59714.0 122106.0 122232.0 153652.0 193176.0 153652.0 153652.0 153652.0 153652.0 193176.0 193176.0 193176.0 193176.0
137266.0 132504.0 45604.0 53570.0 7991.0 0.0 61829.0 55705.0 105311.0 97646.0 93695.0 87959.0 8763.0 13449.0 113183.0 105437.0 126122.0 120529.0 69913.0 74359.0 52937.0 60853.0 135881.0 140275.0 165900.0 166772.0 98168.0 90195.0 12764.0 16450.0 115404.0 121203.0 152209.0 147989.0 81948.0 76187.0 59831.0 64484.0 121761.0 122418.0 157491.0 200878.0 157491.0 157491.0 157491.0 157491.0 200878.0 200878.0 200878.0 200878.0
195823.0 191865.0 103766.0 112027.0 62735.0 61829.0 0.0 8042.0 166997.0 159406.0 42730.0 41556.0 67971.0 75023.0 171251.0 163812.0 77378.0 74554.0 49142.0 45805.0 49569.0 51519.0 80004.0 85856.0 163971.0 167692.0 38659.0 30590.0 71080.0 67826.0 118447.0 120317.0 212671.0 208916.0 84747.0 84568.0 37951.0 45742.0 183517.0 184246.0 109849.0 197172.0 109849.0 109849.0 109849.0 109849.0 197172.0 197172.0 197172.0 197172.0
188411.0 184577.0 96543.0 104795.0 55964.0 55705.0 8042.0 0.0 160460.0 152957.0 43259.0 40549.0 62378.0 69068.0 163809.0 156420.0 78026.0 74427.0 43214.0 40876.0 41969.0 44449.0 82904.0 88295.0 158187.0 161669.0 46542.0 38513.0 65697.0 63135.0 111873.0 114090.0 205587.0 201968.0 77732.0 77196.0 31337.0 39330.0 177450.0 177949.0 109735.0 191730.0 109735.0 109735.0 109735.0 109735.0 191730.0 191730.0 191730.0 191730.0
48697.0 40690.0 67066.0 59734.0 104532.0 105311.0 166997.0 160460.0 0.0 8092.0 193737.0 186639.0 100314.0 92551.0 38714.0 35253.0 221902.0 214960.0 160613.0 167643.0 142228.0 149074.0 236035.0 239176.0 207974.0 204691.0 203301.0 195395.0 98046.0 103867.0 166293.0 174706.0 51266.0 45137.0 148676.0 140599.0 155398.0 156386.0 23290.0 19338.0 249526.0 238506.0 249526.0 249526.0 249526.0 249526.0 238506.0 238506.0 238506.0 238506.0
55110.0 47339.0 60613.0 53630.0 97095.0 97646.0 159406.0 152957.0 8092.0 0.0 186804.0 179804.0 92482.0 84782.0 42115.0 37323.0 215415.0 208565.0 154219.0 161126.0 135748.0 142731.0 229173.0 232443.0 205377.0 202370.0 195522.0 187637.0 90149.0 95883.0 162578.0 170923.0 59230.0 53206.0 143635.0 135561.0 148650.0 149882.0 27441.0 25463.0 243402.0 236487.0 243402.0 243402.0 243402.0 243402.0 236487.0 236487.0 236487.0 236487.0
214723.0 212178.0 126993.0 134840.0 91445.0 93695.0 42730.0 43259.0 193737.0 186804.0 0.0 8263.0 101596.0 106992.0 190255.0 183539.0 34802.0 31912.0 38659.0 30629.0 53816.0 49219.0 42481.0 46580.0 137358.0 142558.0 51885.0 48256.0 105322.0 104215.0 99786.0 98705.0 234655.0 232118.0 73758.0 77672.0 38938.0 40545.0 212813.0 212241.0 67138.0 168584.0 67138.0 67138.0 67138.0 67138.0 168584.0 168584.0 168584.0 168584.0
206871.0 204427.0 119743.0 127507.0 85226.0 87959.0 41556.0 40549.0 186639.0 179804.0 8263.0 0.0 96085.0 101109.0 182444.0 175792.0 38536.0 34071.0 30404.0 22368.0 45921.0 41067.0 49403.0 52809.0 131703.0 136636.0 56844.0 52287.0 99895.0 99285.0 92643.0 91959.0 227007.0 224578.0 65730.0 69490.0 31374.0 32430.0 206009.0 205260.0 69266.0 163413.0 69266.0 69266.0 69266.0 69266.0 163413.0 163413.0 163413.0 163413.0
134643.0 129473.0 44722.0 52174.0 15509.0 8763.0 67971.0 62378.0 100314.0 92482.0 101596.0 96085.0 0.0 8186.0 110975.0 103143.0 134385.0 128915.0 78646.0 82993.0 61695.0 69614.0 143586.0 148153.0 173608.0 174277.0 103074.0 95236.0 4004.0 9542.0 123137.0 129134.0 148385.0 143808.0 90116.0 84125.0 68426.0 73206.0 115720.0 116820.0 165956.0 208560.0 165956.0 165956.0 165956.0 165956.0 208560.0 208560.0 208560.0 208560.0
126457.0 121302.0 36865.0 44151.0 16737.0 13449.0 75023.0 69068.0 92551.0 84782.0 106992.0 101109.0 8186.0 0.0 102797.0 94963.0 139106.0 133347.0 81741.0 86683.0 64057.0 72009.0 149247.0 153563.0 171989.0 172289.0 110750.0 102856.0 7946.0 15885.0 121681.0 128057.0 140314.0 135811.0 89740.0 83266.0 72326.0 76420.0 108494.0 109337.0 170149.0 206844.0 170149.0 170149.0 170149.0 170149.0 206844.0 206844.0 206844.0 206844.0
24648.0 22365.0 67926.0 59746.0 109690.0 113183.0 171251.0 163809.0 38714.0 42115.0 190255.0 182444.0 110975.0 102797.0 0.0 7871.0 214115.0 206581.0 153563.0 161324.0 136530.0 142053.0 231141.0 233112.0 179700.0 175461.0 209504.0 201395.0 109998.0 117296.0 143363.0 151892.0 45960.0 45856.0 133133.0 125359.0 151364.0 150330.0 58119.0 50887.0 238750.0 207941.0 238750.0 238750.0 238750.0 238750.0 207941.0 207941.0 207941.0 207941.0
32023.0 28638.0 60302.0 52090.0 102056.0 105437.0 163812.0 156420.0 35253.0 37323.0 183539.0 175792.0 103143.0 94963.0 7871.0 0.0 207970.0 200503.0 147176.0 154869.0 129917.0 135622.0 224656.0 226773.0 177731.0 173790.0 201988.0 193883.0 102142.0 109430.0 139810.0 148341.0 51607.0 50515.0 127966.0 120098.0 144613.0 143809.0 56481.0 49855.0 233058.0 206777.0 233058.0 233058.0 233058.0 233058.0 206777.0 206777.0 206777.0 206777.0
238053.0 236407.0 154854.0 162236.0 122910.0 126122.0 77378.0 78026.0 221902.0 215415.0 34802.0 38536.0 134385.0 139106.0 214115.0 207970.0 0.0 8000.0 61349.0 54290.0 79678.0 72949.0 23163.0 20893.0 126882.0 133415.0 77541.0 76652.0 138236.0 137800.0 100987.0 97047.0 259559.0 257780.0 85830.0 92160.0 67413.0 65533.0 242108.0 240848.0 33292.0 155105.0 33292.0 33292.0 33292.0 33292.0 155105.0 155105.0 155105.0 155105.0
230449.0 228894.0 147962.0 155247.0 116986.0 120529.0 74554.0 74427.0 214960.0 208565.0 31912.0 34071.0 128915.0 133347.0 206581.0 200503.0 8000.0 0.0 54351.0 47611.0 72842.0 65892.0 30581.0 28857.0 120644.0 126994.0 78702.0 76989.0 132811.0 132729.0 93304.0 89567.0 252105.0 250420.0 77854.0 84234.0 61228.0 58771.0 235373.0 233972.0 35337.0 149371.0 35337.0 35337.0 35337.0 35337.0 149371.0 149371.0 149371.0 149371.0
177789.0 175739.0 93613.0 100913.0 65017.0 69913.0 49142.0 43214.0 160613.0 154219.0 38659.0 30404.0 78646.0 81741.0 153563.0 147176.0 61349.0 54351.0 0.0 8061.0 18611.0 11617.0 77639.0 79603.0 114982.0 118569.0 79115.0 72584.0 82648.0 84276.0 69649.0 71193.0 198671.0 196668.0 37814.0 40118.0 12777.0 5523.0 181075.0 179621.0 89706.0 148561.0 89706.0 89706.0 89706.0 89706.0 148561.0 148561.0 148561.0 148561.0
185604.0 183459.0 100582.0 108027.0 70073.0 74359.0 45805.0 40876.0 167643.0 161126.0 30629.0 22368.0 82993.0 86683.0 161324.0 154869.0 54290.0 47611.0 8061.0 0.0 25426.0 19277.0 69819.0 72012.0 118414.0 122428.0 72989.0 66837.0 86971.0 87959.0 74848.0 75643.0 206312.0 204203.0 44652.0 47611.0 14648.0 11261.0 187832.0 186563.0 83699.0 151405.0 83699.0 83699.0 83699.0 83699.0 151405.0 151405.0 151405.0 151405.0
160950.0 158545.0 75176.0 82601.0 47343.0 52937.0 49569.0 41969.0 142228.0 135748.0 53816.0 45921.0 61695.0 64057.0 136530.0 129917.0 79678.0 72842.0 18611.0 25426.0 0.0 7955.0 94821.0 97323.0 121137.0 123625.0 85254.0 77810.0 65687.0 68190.0 72316.0 75912.0 181227.0 178971.0 37090.0 35441.0 15479.0 14166.0 162533.0 161174.0 108311.0 155705.0 108311.0 108311.0 108311.0 108311.0 155705.0 155705.0 155705.0 155705.0
166327.0 164201.0 82118.0 89356.0 55298.0 60853.0 51519.0 44449.0 149074.0 142731.0 49219.0 41067.0 69614.0 72009.0 142053.0 135622.0 72949.0 65892.0 11617.0 19277.0 7955.0 0.0 89094.0 91183.0 115603.0 118462.0 85159.0 78065.0 73609.0 75989.0 67762.0 70668.0 187094.0 185061.0 33283.0 33340.0 14063.0 8721.0 169652.0 168113.0 100915.0 149917.0 100915.0 100915.0 100915.0 100915.0 149917.0 149917.0 149917.0 149917.0
255415.0 253260.0 169143.0 176886.0 133875.0 135881.0 80004.0 82904.0 236035.0 229173.0 42481.0 49403.0 143586.0 149247.0 231141.0 224656.0 23163.0 30581.0 77639.0 69819.0 94821.0 89094.0 0.0 7611.0 149603.0 156269.0 68600.0 70131.0 147227.0 145596.0 123869.0 120124.0 276038.0 273774.0 106577.0 112317.0 80736.0 80848.0 255271.0 254623.0 45843.0 177392.0 45843.0 45843.0 45843.0 45843.0 177392.0 177392.0 177392.0 177392.0
257246.0 255320.0 172156.0 179777.0 137914.0 140275.0 85856.0 88295.0 239176.0 232443.0 46580.0 52809.0 148153.0 153563.0 233112.0 226773.0 20893.0 28857.0 79603.0 72012.0 97323.0 91183.0 7611.0 0.0 145159.0 152002.0 76046.0 77360.0 151860.0 150539.0 121662.0 117466.0 278273.0 276214.0 106434.0 112555.0 83793.0 83207.0 258768.0 257905.0 38771.0 172534.0 38771.0 38771.0 38771.0 38771.0 172534.0 172534.0 172534.0 172534.0
196200.0 199128.0 158018.0 160328.0 158210.0 165900.0 163971.0 158187.0 207974.0 205377.0 137358.0 131703.0 173608.0 171989.0 179700.0 177731.0 126882.0 120644.0 114982.0 118414.0 121137.0 115603.0 149603.0 145159.0 0.0 8000.0 188532.0 183563.0 177072.0 182341.0 50495.0 45338.0 221688.0 224008.0 85079.0 89866.0 127091.0 119017.0 231239.0 226010.0 131325.0 34986.0 131325.0 131325.0 131325.0 131325.0 34986.0 34986.0 34986.0 34986.0
191302.0 194482.0 156680.0 158595.0 158985.0 166772.0 167692.0 161669.0 204691.0 202370.0 142558.0 136636.0 174277.0 172289.0 175461.0 173790.0 133415.0 126994.0 118569.0 122428.0 123625.0 118462.0 156269.0 152002.0 8000.0 0.0 193368.0 188182.0 177646.0 183173.0 51806.0 47794.0 216803.0 219348.0 87018.0 91210.0 130416.0 122367.0 227905.0 222481.0 138409.0 35028.0 138409.0 138409.0 138409.0 138409.0 35028.0 35028.0 35028.0 35028.0
234010.0 229826.0 141754.0 150008.0 100209.0 98168.0 38659.0 46542.0 203301.0 195522.0 51885.0 56844.0 103074.0 110750.0 209504.0 201988.0 77541.0 78702.0 79115.0 72989.0 85254.0 85159.0 68600.0 76046.0 188532.0 193368.0 0.0 8114.0 105629.0 100862.0 147703.0 147903.0 250186.0 246123.0 116880.0 118330.0 71128.0 77586.0 218501.0 219862.0 110171.0 220209.0 110171.0 110171.0 110171.0 110171.0 220209.0 220209.0 220209.0 220209.0
225906.0 221739.0 133658.0 141913.0 92140.0 90195.0 30590.0 38513.0 195395.0 187637.0 48256.0 52287.0 95236.0 102856.0 201395.0 193883.0 76652.0 76989.0 72584.0 66837.0 77810.0 78065.0 70131.0 77360.0 183563.0 188182.0 8114.0 0.0 97858.0 93258.0 141684.0 142214.0 242142.0 238114.0 110203.0 111347.0 64004.0 70733.0 210778.0 212051.0 109736.0 215591.0 109736.0 109736.0 109736.0 109736.0 215591.0 215591.0 215591.0 215591.0
133436.0 128083.0 44697.0 51828.0 19238.0 12764.0 71080.0 65697.0 98046.0 90149.0 105322.0 99895.0 4004.0 7946.0 109998.0 102142.0 138236.0 132811.0 82648.0 86971.0 65687.0 73609.0 147227.0 151860.0 177072.0 177646.0 105629.0 97858.0 0.0 7940.0 126627.0 132712.0 146606.0 141868.0 93817.0 87727.0 72395.0 77206.0 112937.0 114245.0 169876.0 212006.0 169876.0 169876.0 169876.0 169876.0 212006.0 212006.0 212006.0 212006.0
140521.0 134995.0 52560.0 59574.0 24197.0 16450.0 67826.0 63135.0 103867.0 95883.0 104215.0 99285.0 9542.0 15885.0 117296.0 109430.0 137800.0 132729.0 84276.0 87959.0 68190.0 75989.0 145596.0 150539.0 182341.0 183173.0 100862.0 93258.0 7940.0 0.0 131847.0 137650.0 153058.0 148110.0 98348.0 92636.0 73310.0 78769.0 117761.0 119491.0 169977.0 217317.0 169977.0 169977.0 169977.0 169977.0 217317.0 217317.0 217317.0 217317.0
163424.0 164685.0 110373.0 113735.0 107723.0 115404.0 118447.0 111873.0 166293.0 162578.0 99786.0 92643.0 123137.0 121681.0 143363.0 139810.0 100987.0 93304.0 69649.0 74848.0 72316.0 67762.0 123869.0 121662.0 50495.0 51806.0 147703.0 141684.0 126627.0 131847.0 0.0 8532.0 188245.0 189128.0 35361.0 39454.0 80572.0 72705.0 189474.0 185166.0 113808.0 85477.0 113808.0 113808.0 113808.0 113808.0 85477.0 85477.0 85477.0 85477.0
171894.0 173195.0 118128.0 121704.0 113652.0 121203.0 120317.0 114090.0 174706.0 170923.0 98705.0 91959.0 129134.0 128057.0 151892.0 148341.0 97047.0 89567.0 71193.0 75643.0 75912.0 70668.0 120124.0 117466.0 45338.0 47794.0 147903.0 142214.0 132712.0 137650.0 8532.0 0.0 196744.0 197650.0 39783.0 45020.0 82776.0 74760.0 197868.0 193609.0 108260.0 80183.0 108260.0 108260.0 108260.0 108260.0 80183.0 80183.0 80183.0 80183.0
25501.0 23734.0 109123.0 100910.0 150048.0 152209.0 212671.0 205587.0 51266.0 59230.0 234655.0 227007.0 148385.0 140314.0 45960.0 51607.0 259559.0 252105.0 198671.0 206312.0 181227.0 187094.0 276038.0 278273.0 221688.0 216803.0 250186.0 242142.0 146606.0 153058.0 188245.0 196744.0 0.0 8088.0 179092.0 171316.0 195720.0 195201.0 51844.0 44542.0 284593.0 247775.0 284593.0 284593.0 284593.0 284593.0 247775.0 247775.0 247775.0 247775.0
28965.0 24880.0 105813.0 97687.0 146192.0 147989.0 208916.0 201968.0 45137.0 53206.0 232118.0 224578.0 143808.0 135811.0 45856.0 50515.0 257780.0 250420.0 196668.0 204203.0 178971.0 185061.0 273774.0 276214.0 224008.0 219348.0 246123.0 238114.0 141868.0 148110.0 189128.0 197650.0 8088.0 0.0 178480.0 170611.0 193227.0 193029.0 43951.0 36825.0 283373.0 250835.0 283373.0 283373.0 283373.0 283373.0 250835.0 250835.0 250835.0 250835.0
155940.0 155431.0 85814.0 91035.0 74610.0 81948.0 84747.0 77732.0 148676.0 143635.0 73758.0 65730.0 90116.0 89740.0 133133.0 127966.0 85830.0 77854.0 37814.0 44652.0 37090.0 33283.0 106577.0 106434.0 85079.0 87018.0 116880.0 110203.0 93817.0 98348.0 35361.0 39783.0 179092.0 178480.0 0.0 8078.0 46900.0 39558.0 171072.0 168003.0 106667.0 119965.0 106667.0 106667.0 106667.0 106667.0 119965.0 119965.0 119965.0 119965.0
148326.0 147682.0 77901.0 83021.0 68636.0 76187.0 84568.0 77196.0 140599.0 135561.0 77672.0 69490.0 84125.0 83266.0 125359.0 120098.0 92160.0 84234.0 40118.0 47611.0 35441.0 33340.0 112317.0 112555.0 89866.0 91210.0 118330.0 111347.0 87727.0 92636.0 39454.0 45020.0 171316.0 170611.0 8078.0 0.0 47387.0 40788.0 162996.0 159926.0 113965.0 124850.0 113965.0 113965.0 113965.0 113965.0 124850.0 124850.0 124850.0 124850.0
175867.0 173251.0 88426.0 96150.0 55825.0 59831.0 37951.0 31337.0 155398.0 148650.0 38938.0 31374.0 68426.0 72326.0 151364.0 144613.0 67413.0 61228.0 12777.0 14648.0 15479.0 14063.0 80736.0 83793.0 127091.0 130416.0 71128.0 64004.0 72395.0 73310.0 80572.0 82776.0 195720.0 193227.0 46900.0 47387.0 0.0 8076.0 175051.0 174113.0 97835.0 160920.0 97835.0 97835.0 97835.0 97835.0 160920.0 160920.0 160920.0 160920.0
174672.0 172418.0 89327.0 96767.0 59714.0 64484.0 45742.0 39330.0 156386.0 149882.0 40545.0 32430.0 73206.0 76420.0 150330.0 143809.0 65533.0 58771.0 5523.0 11261.0 14166.0 8721.0 80848.0 83207.0 119017.0 122367.0 77586.0 70733.0 77206.0 78769.0 72705.0 74760.0 195201.0 193029.0 39558.0 40788.0 8076.0 0.0 176618.0 175315.0 94554.0 152851.0 94554.0 94554.0 94554.0 94554.0 152851.0 152851.0 152851.0 152851.0
60045.0 51925.0 87626.0 80904.0 122106.0 121761.0 183517.0 177450.0 23290.0 27441.0 212813.0 206009.0 115720.0 108494.0 58119.0 56481.0 242108.0 235373.0 181075.0 187832.0 162533.0 169652.0 255271.0 258768.0 231239.0 227905.0 218501.0 210778.0 112937.0 117761.0 189474.0 197868.0 51844.0 43951.0 171072.0 162996.0 175051.0 176618.0 0.0 8118.0 270462.0 261626.0 270462.0 270462.0 270462.0 270462.0 261626.0 261626.0 261626.0 261626.0
51929.0 43817.0 86009.0 78862.0 122232.0 122418.0 184246.0 177949.0 19338.0 25463.0 212241.0 205260.0 116820.0 109337.0 50887.0 49855.0 240848.0 233972.0 179621.0 186563.0 161174.0 168113.0 254623.0 257905.0 226010.0 222481.0 219862.0 212051.0 114245.0 119491.0 185166.0 193609.0 44542.0 36825.0 168003.0 159926.0 174113.0 175315.0 8118.0 0.0 268692.0 255959.0 268692.0 268692.0 268692.0 268692.0 255959.0 255959.0 255959.0 255959.0
262112.0 261115.0 182844.0 189830.0 153652.0 157491.0 109849.0 109735.0 249526.0 243402.0 67138.0 69266.0 165956.0 170149.0 238750.0 233058.0 33292.0 35337.0 89706.0 83699.0 108311.0 100915.0 45843.0 38771.0 131325.0 138409.0 110171.0 109736.0 169876.0 169977.0 113808.0 108260.0 284593.0 283373.0 106667.0 113965.0 97835.0 94554.0 270462.0 268692.0 0.0 158470.0 0.0 0.0 0.0 0.0 158470.0 158470.0 158470.0 158470.0
222342.0 226086.0 191700.0 193544.0 193176.0 200878.0 197172.0 191730.0 238506.0 236487.0 168584.0 163413.0 208560.0 206844.0 207941.0 206777.0 155105.0 149371.0 148561.0 151405.0 155705.0 149917.0 177392.0 172534.0 34986.0 35028.0 220209.0 215591.0 212006.0 217317.0 85477.0 80183.0 247775.0 250835.0 119965.0 124850.0 160920.0 152851.0 261626.0 255959.0 158470.0 0.0 158470.0 158470.0 158470.0 158470.0 0.0 0.0 0.0 0.0
262112.0 261115.0 182844.0 189830.0 153652.0 157491.0 109849.0 109735.0 249526.0 243402.0 67138.0 69266.0 165956.0 170149.0 238750.0 233058.0 33292.0 35337.0 89706.0 83699.0 108311.0 100915.0 45843.0 38771.0 131325.0 138409.0 110171.0 109736.0 169876.0 169977.0 113808.0 108260.0 284593.0 283373.0 106667.0 113965.0 97835.0 94554.0 270462.0 268692.0 0.0 158470.0 0.0 0.0 0.0 0.0 158470.0 158470.0 158470.0 158470.0
262112.0 261115.0 182844.0 189830.0 153652.0 157491.0 109849.0 109735.0 249526.0 243402.0 67138.0 69266.0 165956.0 170149.0 238750.0 233058.0 33292.0 35337.0 89706.0 83699.0 108311.0 100915.0 45843.0 38771.0 131325.0 138409.0 110171.0 109736.0 169876.0 169977.0 113808.0 108260.0 284593.0 283373.0 106667.0 113965.0 97835.0 94554.0 270462.0 268692.0 0.0 158470.0 0.0 0.0 0.0 0.0 158470.0 158470.0 158470.0 158470.0
262112.0 261115.0 182844.0 189830.0 153652.0 157491.0 109849.0 109735.0 249526.0 243402.0 67138.0 69266.0 165956.0 170149.0 238750.0 233058.0 33292.0 35337.0 89706.0 83699.0 108311.0 100915.0 45843.0 38771.0 131325.0 138409.0 110171.0 109736.0 169876.0 169977.0 113808.0 108260.0 284593.0 283373.0 106667.0 113965.0 97835.0 94554.0 270462.0 268692.0 0.0 158470.0 0.0 0.0 0.0 0.0 158470.0 158470.0 158470.0 158470.0
262112.0 261115.0 182844.0 189830.0 153652.0 157491.0 109849.0 109735.0 249526.0 243402.0 67138.0 69266.0 165956.0 170149.0 238750.0 233058.0 33292.0 35337.0 89706.0 83699.0 108311.0 100915.0 45843.0 38771.0 131325.0 138409.0 110171.0 109736.0 169876.0 169977.0 113808.0 108260.0 284593.0 283373.0 106667.0 113965.0 97835.0 94554.0 270462.0 268692.0 0.0 158470.0 0.0 0.0 0.0 0.0 158470.0 158470.0 158470.0 158470.0
222342.0 226086.0 191700.0 193544.0 193176.0 200878.0 197172.0 191730.0 238506.0 236487.0 168584.0 163413.0 208560.0 206844.0 207941.0 206777.0 155105.0 149371.0 148561.0 151405.0 155705.0 149917.0 177392.0 172534.0 34986.0 35028.0 220209.0 215591.0 212006.0 217317.0 85477.0 80183.0 247775.0 250835.0 119965.0 124850.0 160920.0 152851.0 261626.0 255959.0 158470.0 0.0 158470.0 158470.0 158470.0 158470.0 0.0 0.0 0.0 0.0
222342.0 226086.0 191700.0 193544.0 193176.0 200878.0 197172.0 191730.0 238506.0 236487.0 168584.0 163413.0 208560.0 206844.0 207941.0 206777.0 155105.0 149371.0 148561.0 151405.0 155705.0 149917.0 177392.0 172534.0 34986.0 35028.0 220209.0 215591.0 212006.0 217317.0 85477.0 80183.0 247775.0 250835.0 119965.0 124850.0 160920.0 152851.0 261626.0 255959.0 158470.0 0.0 158470.0 158470.0 158470.0 158470.0 0.0 0.0 0.0 0.0
222342.0 226086.0 191700.0 193544.0 193176.0 200878.0 197172.0 191730.0 238506.0 236487.0 168584.0 163413.0 208560.0 206844.0 207941.0 206777.0 155105.0 149371.0 148561.0 151405.0 155705.0 149917.0 177392.0 172534.0 34986.0 35028.0 220209.0 215591.0 212006.0 217317.0 85477.0 80183.0 247775.0 250835.0 119965.0 124850.0 160920.0 152851.0 261626.0 255959.0 158470.0 0.0 158470.0 158470.0 158470.0 158470.0 0.0 0.0 0.0 0.0
222342.0 226086.0 191700.0 193544.0 193176.0 200878.0 197172.0 191730.0 238506.0 236487.0 168584.0 163413.0 208560.0 206844.0 207941.0 206777.0 155105.0 149371.0 148561.0 151405.0 155705.0 149917.0 177392.0 172534.0 34986.0 35028.0 220209.0 215591.0 212006.0 217317.0 85477.0 80183.0 247775.0 250835.0 119965.0 124850.0 160920.0 152851.0 261626.0 255959.0 158470.0 0.0 158470.0 158470.0 158470.0 158470.0 0.0 0.0 0.0 0.0
FIXED_EDGES_SECTION
1 2
3 4
5 6
7 8
9 10
11 12
13 14
15 16
17 18
19 20
21 22
23 24
25 26
27 28
29 30
31 32
33 34
35 36
37 38
39 40
-1 
DEMAND_SECTION
1 234
2 234
3 74
4 74
5 90
6 90
7 461
8 461
9 380
10 380
11 155
12 155
13 211
14 211
15 277
16 277
17 485
18 485
19 207
20 207
21 341
22 341
23 341
24 341
25 100
26 100
27 265
28 265
29 224
30 224
31 358
32 358
33 120
34 120
35 114
36 114
37 293
38 293
39 542
40 542
41 0
42 0
43 0
44 0
45 0
46 0
47 0
48 0
49 0
50 0
DEPOT_SECTION
41 
-1 
CAPACITIES_SECTION
2500 
2750 
3000 
3250 
-1 
EOF