NAME: GFS_20_1
TYPE: GFSP
DIMENSION: 50
VEHICLES: 4
CAPACITY: 2500.0
TRIP_DIST_LIMIT: 600000.0
TOTAL_DIST_LIMIT: 1050000.0
EDGE_WEIGHT_TYPE: EXPLICIT
EDGE_WEIGHT_FORMAT: FULL_MATRIX
EDGE_WEIGHT_SECTION
0.0 7961.0 128362.0 136374.0 268983.0 264475.0 184121.0 192371.0 375909.0 371221.0 236133.0 232794.0 358510.0 354622.0 379254.0 371921.0 263636.0 256435.0 366126.0 370547.0 303420.0 306852.0 295078.0 288839.0 348535.0 348451.0 365923.0 369114.0 258956.0 255890.0 298954.0 305394.0 330391.0 327740.0 245908.0 244852.0 341557.0 333733.0 356563.0 357332.0 314170.0 157477.0 314170.0 314170.0 314170.0 314170.0 157477.0 157477.0 157477.0 157477.0
7961.0 0.0 130024.0 138030.0 268134.0 263831.0 184743.0 192912.0 373969.0 369337.0 234682.0 231082.0 356570.0 352721.0 377313.0 369981.0 263049.0 255985.0 364291.0 368768.0 301543.0 304922.0 297614.0 291498.0 346595.0 346511.0 363983.0 367174.0 258015.0 255180.0 297014.0 303461.0 328451.0 325800.0 245315.0 244518.0 339617.0 331793.0 358214.0 358807.0 312230.0 155537.0 312230.0 312230.0 312230.0 312230.0 155537.0 155537.0 155537.0 155537.0
128362.0 130024.0 0.0 8013.0 151300.0 145243.0 58889.0 67311.0 273898.0 267927.0 126243.0 126257.0 256822.0 251277.0 285960.0 279281.0 143987.0 135949.0 255468.0 258383.0 195711.0 201091.0 168664.0 162968.0 255539.0 254152.0 269377.0 271114.0 142477.0 137513.0 194670.0 202347.0 240324.0 237672.0 126951.0 123876.0 242630.0 235593.0 228234.0 228973.0 224102.0 80125.0 224102.0 224102.0 224102.0 224102.0 80125.0 80125.0 80125.0 80125.0
136374.0 138030.0 8013.0 0.0 144634.0 138414.0 51645.0 60027.0 268399.0 262311.0 120699.0 121125.0 251394.0 245707.0 281526.0 274976.0 137112.0 129001.0 249209.0 251976.0 189936.0 195486.0 160843.0 155209.0 251221.0 249629.0 264506.0 266059.0 135998.0 130825.0 189245.0 197005.0 236833.0 234236.0 120244.0 116915.0 237552.0 230629.0 220221.0 220962.0 220667.0 80081.0 220667.0 220667.0 220667.0 220667.0 80081.0 80081.0 80081.0 80081.0
268983.0 268134.0 151300.0 144634.0 0.0 8199.0 93660.0 85696.0 131225.0 124034.0 38317.0 45729.0 115737.0 108555.0 157924.0 153818.0 10213.0 18087.0 105696.0 107770.0 53946.0 61615.0 123814.0 125712.0 132032.0 127251.0 135633.0 134540.0 10523.0 13816.0 59566.0 67472.0 134015.0 135790.0 24404.0 29103.0 107605.0 103110.0 131830.0 127354.0 126955.0 122677.0 126955.0 126955.0 126955.0 126955.0 122677.0 122677.0 122677.0 122677.0
264475.0 263831.0 145243.0 138414.0 8199.0 0.0 87115.0 79009.0 139230.0 131986.0 38440.0 46531.0 123837.0 116604.0 166109.0 161971.0 2030.0 10172.0 112962.0 114744.0 62143.0 69813.0 117070.0 118689.0 140113.0 135389.0 143831.0 142717.0 11320.0 8890.0 67671.0 75611.0 141542.0 143121.0 18615.0 21845.0 115804.0 111291.0 128704.0 124639.0 133796.0 120562.0 133796.0 133796.0 133796.0 133796.0 120562.0 120562.0 120562.0 120562.0
184121.0 184743.0 58889.0 51645.0 93660.0 87115.0 0.0 8434.0 220627.0 214131.0 74515.0 77143.0 203975.0 197771.0 238166.0 232268.0 85735.0 77527.0 198996.0 201375.0 141558.0 147733.0 125767.0 121832.0 208662.0 206112.0 219306.0 220068.0 85579.0 79856.0 142294.0 150328.0 198626.0 197005.0 69282.0 65444.0 191646.0 185279.0 176193.0 175863.0 183483.0 75084.0 183483.0 183483.0 183483.0 183483.0 75084.0 75084.0 75084.0 75084.0
192371.0 192912.0 67311.0 60027.0 85696.0 79009.0 8434.0 0.0 213490.0 206895.0 68403.0 71705.0 196948.0 190617.0 232068.0 226329.0 77588.0 69330.0 191203.0 193460.0 134378.0 140717.0 120344.0 116784.0 202806.0 200038.0 212808.0 213377.0 77865.0 71921.0 135516.0 143600.0 193780.0 192441.0 61377.0 57263.0 185023.0 178808.0 168853.0 168336.0 179018.0 78498.0 179018.0 179018.0 179018.0 179018.0 78498.0 78498.0 78498.0 78498.0
375909.0 373969.0 273898.0 268399.0 131225.0 139230.0 220627.0 213490.0 0.0 8114.0 147703.0 147903.0 17342.0 22878.0 48726.0 52126.0 141138.0 149306.0 41161.0 47481.0 79115.0 72989.0 234414.0 239118.0 52132.0 45155.0 27985.0 20072.0 136733.0 143873.0 79250.0 71745.0 83978.0 91881.0 153699.0 159901.0 35806.0 44024.0 203301.0 195522.0 110171.0 220209.0 110171.0 110171.0 110171.0 110171.0 220209.0 220209.0 220209.0 220209.0
371221.0 369337.0 267927.0 262311.0 124034.0 131986.0 214131.0 206895.0 8114.0 0.0 141684.0 142214.0 13869.0 16755.0 55306.0 57924.0 133875.0 142095.0 33508.0 40213.0 72584.0 66837.0 226323.0 231046.0 54954.0 47480.0 32787.0 25323.0 129815.0 136839.0 73542.0 66329.0 85778.0 93542.0 146774.0 152836.0 33803.0 41838.0 195395.0 187637.0 109736.0 215591.0 109736.0 109736.0 109736.0 109736.0 215591.0 215591.0 215591.0 215591.0
236133.0 234682.0 126243.0 120699.0 38317.0 38440.0 74515.0 68403.0 147703.0 141684.0 0.0 8532.0 130703.0 125041.0 163699.0 157926.0 39015.0 37433.0 130978.0 134834.0 69649.0 74848.0 145930.0 145994.0 134417.0 131657.0 144889.0 145893.0 28084.0 30600.0 68571.0 76410.0 126975.0 126467.0 28053.0 35141.0 117400.0 110858.0 166293.0 162578.0 113808.0 85477.0 113808.0 113808.0 113808.0 113808.0 85477.0 85477.0 85477.0 85477.0
232794.0 231082.0 126257.0 121125.0 45729.0 46531.0 77143.0 71705.0 147903.0 142214.0 8532.0 0.0 130725.0 125481.0 161363.0 155276.0 47220.0 45938.0 133474.0 137756.0 71193.0 75643.0 154164.0 154100.0 131612.0 129316.0 143471.0 144934.0 35819.0 38949.0 68689.0 76194.0 122296.0 121341.0 36540.0 43476.0 116428.0 109534.0 174706.0 170923.0 108260.0 80183.0 108260.0 108260.0 108260.0 108260.0 80183.0 80183.0 80183.0 80183.0
358510.0 356570.0 256822.0 251394.0 115737.0 123837.0 203975.0 196948.0 17342.0 13869.0 130703.0 130725.0 0.0 8322.0 51643.0 52242.0 125784.0 133815.0 38573.0 46404.0 62750.0 56243.0 223060.0 227406.0 44359.0 36518.0 26864.0 21636.0 120721.0 128044.0 62156.0 54532.0 73610.0 81202.0 137667.0 144100.0 19971.0 27970.0 196455.0 188882.0 96105.0 202888.0 96105.0 96105.0 96105.0 96105.0 202888.0 202888.0 202888.0 202888.0
354622.0 352721.0 251277.0 245707.0 108555.0 116604.0 197771.0 190617.0 22878.0 16755.0 125041.0 125481.0 8322.0 0.0 59788.0 60031.0 118530.0 126642.0 32230.0 40303.0 56240.0 50226.0 214805.0 219185.0 50205.0 42278.0 34900.0 29951.0 113897.0 121087.0 56800.0 49580.0 77671.0 84998.0 130863.0 137128.0 21723.0 28631.0 188297.0 180751.0 97414.0 198964.0 97414.0 97414.0 97414.0 97414.0 198964.0 198964.0 198964.0 198964.0
379254.0 377313.0 285960.0 281526.0 157924.0 166109.0 238166.0 232068.0 48726.0 55306.0 163699.0 161363.0 51643.0 59788.0 0.0 8543.0 168132.0 175481.0 88382.0 95450.0 104256.0 96387.0 272191.0 276095.0 30719.0 32058.0 24949.0 30550.0 160679.0 168565.0 98845.0 90719.0 57298.0 64628.0 177015.0 184303.0 50867.0 54824.0 248082.0 240522.0 92852.0 223554.0 92852.0 92852.0 92852.0 92852.0 223554.0 223554.0 223554.0 223554.0
371921.0 369981.0 279281.0 274976.0 153818.0 161971.0 232268.0 226329.0 52126.0 57924.0 157926.0 155276.0 52242.0 60031.0 8543.0 0.0 164000.0 171161.0 90155.0 97558.0 100576.0 92594.0 269833.0 273532.0 23756.0 26682.0 25582.0 32605.0 156095.0 164045.0 94388.0 86368.0 48785.0 56088.0 172218.0 179638.0 48153.0 50956.0 247936.0 240481.0 84514.0 216221.0 84514.0 84514.0 84514.0 84514.0 216221.0 216221.0 216221.0 216221.0
263636.0 263049.0 143987.0 137112.0 10213.0 2030.0 85735.0 77588.0 141138.0 133875.0 39015.0 47220.0 125784.0 118530.0 168132.0 164000.0 0.0 8440.0 114638.0 116337.0 64148.0 71828.0 115278.0 116838.0 142143.0 137419.0 145837.0 144703.0 12599.0 8775.0 69702.0 77641.0 143507.0 145055.0 17734.0 20341.0 117815.0 113316.0 127739.0 123775.0 135648.0 120401.0 135648.0 135648.0 135648.0 135648.0 120401.0 120401.0 120401.0 120401.0
256435.0 255985.0 135949.0 129001.0 18087.0 10172.0 77527.0 69330.0 149306.0 142095.0 37433.0 45938.0 133815.0 126642.0 175481.0 171161.0 8440.0 0.0 123078.0 124765.0 71829.0 79375.0 111712.0 112764.0 149035.0 144523.0 153464.0 152511.0 16095.0 8418.0 76773.0 84816.0 149145.0 150348.0 11529.0 12088.0 125387.0 120662.0 129024.0 125532.0 140215.0 115283.0 140215.0 140215.0 140215.0 140215.0 115283.0 115283.0 115283.0 115283.0
366126.0 364291.0 255468.0 249209.0 105696.0 112962.0 198996.0 191203.0 41161.0 33508.0 130978.0 133474.0 38573.0 32230.0 88382.0 90155.0 114638.0 123078.0 0.0 8154.0 62847.0 60525.0 196765.0 201947.0 82408.0 74484.0 64576.0 57898.0 113427.0 119357.0 69095.0 64579.0 109301.0 116384.0 129846.0 134715.0 53008.0 58491.0 162315.0 154493.0 125530.0 211398.0 125530.0 125530.0 125530.0 125530.0 211398.0 211398.0 211398.0 211398.0
370547.0 368768.0 258383.0 251976.0 107770.0 114744.0 201375.0 193460.0 47481.0 40213.0 134834.0 137756.0 46404.0 40303.0 95450.0 97558.0 116337.0 124765.0 8154.0 0.0 67940.0 66353.0 193964.0 199369.0 90428.0 82510.0 72019.0 65112.0 115986.0 121541.0 75039.0 71051.0 117454.0 124532.0 132100.0 136581.0 61161.0 66604.0 157036.0 149137.0 133371.0 216364.0 133371.0 133371.0 133371.0 133371.0 216364.0 216364.0 216364.0 216364.0
303420.0 301543.0 195711.0 189936.0 53946.0 62143.0 141558.0 134378.0 79115.0 72584.0 69649.0 71193.0 62750.0 56240.0 104256.0 100576.0 64148.0 71829.0 62847.0 67940.0 0.0 8061.0 170883.0 174049.0 79829.0 74324.0 81689.0 80719.0 58077.0 65572.0 11809.0 16264.0 88331.0 92154.0 74984.0 81609.0 53694.0 49626.0 160613.0 154219.0 89706.0 148561.0 89706.0 89706.0 89706.0 89706.0 148561.0 148561.0 148561.0 148561.0
306852.0 304922.0 201091.0 195486.0 61615.0 69813.0 147733.0 140717.0 72989.0 66837.0 74848.0 75643.0 56243.0 50226.0 96387.0 92594.0 71828.0 79375.0 60525.0 66353.0 8061.0 0.0 178911.0 182100.0 71769.0 66292.0 74096.0 73442.0 65237.0 72880.0 8746.0 9037.0 80874.0 84967.0 82040.0 88866.0 46013.0 41667.0 167643.0 161126.0 83699.0 151405.0 83699.0 83699.0 83699.0 83699.0 151405.0 151405.0 151405.0 151405.0
295078.0 297614.0 168664.0 160843.0 123814.0 117070.0 125767.0 120344.0 234414.0 226323.0 145930.0 154164.0 223060.0 214805.0 272191.0 269833.0 115278.0 111712.0 196765.0 193964.0 170883.0 178911.0 0.0 7817.0 250454.0 244446.0 247781.0 244394.0 127253.0 120108.0 179767.0 186718.0 256941.0 259223.0 118291.0 110815.0 221697.0 219422.0 71642.0 76306.0 250760.0 197841.0 250760.0 250760.0 250760.0 250760.0 197841.0 197841.0 197841.0 197841.0
288839.0 291498.0 162968.0 155209.0 125712.0 118689.0 121832.0 116784.0 239118.0 231046.0 145994.0 154100.0 227406.0 219185.0 276095.0 273532.0 116838.0 112764.0 201947.0 199369.0 174049.0 182100.0 7817.0 0.0 253793.0 247933.0 251825.0 248631.0 128543.0 121182.0 182608.0 189724.0 259367.0 261427.0 118690.0 111028.0 225450.0 222931.0 79453.0 84115.0 252484.0 194778.0 252484.0 252484.0 252484.0 252484.0 194778.0 194778.0 194778.0 194778.0
348535.0 346595.0 255539.0 251221.0 132032.0 140113.0 208662.0 202806.0 52132.0 54954.0 134417.0 131612.0 44359.0 50205.0 30719.0 23756.0 142143.0 149035.0 82408.0 90428.0 79829.0 71769.0 250454.0 253793.0 0.0 7927.0 25791.0 33265.0 133683.0 141689.0 72475.0 64713.0 32612.0 40607.0 149529.0 157078.0 31851.0 31470.0 233044.0 225861.0 64505.0 192835.0 64505.0 64505.0 64505.0 64505.0 192835.0 192835.0 192835.0 192835.0
348451.0 346511.0 254152.0 249629.0 127251.0 135389.0 206112.0 200038.0 45155.0 47480.0 131657.0 129316.0 36518.0 42278.0 32058.0 26682.0 137419.0 144523.0 74484.0 82510.0 74324.0 66292.0 244446.0 247933.0 7927.0 0.0 20478.0 27215.0 129418.0 137374.0 67755.0 59779.0 38864.0 46807.0 145540.0 152956.0 24343.0 25025.0 225801.0 218566.0 68264.0 192751.0 68264.0 68264.0 68264.0 68264.0 192751.0 192751.0 192751.0 192751.0
365923.0 363983.0 269377.0 264506.0 135633.0 143831.0 219306.0 212808.0 27985.0 32787.0 144889.0 143471.0 26864.0 34900.0 24949.0 25582.0 145837.0 153464.0 64576.0 72019.0 81689.0 74096.0 247781.0 251825.0 25791.0 20478.0 0.0 7962.0 139200.0 146928.0 77721.0 69537.0 58400.0 66395.0 155856.0 162863.0 28126.0 34032.0 223187.0 215649.0 88720.0 210223.0 88720.0 88720.0 88720.0 88720.0 210223.0 210223.0 210223.0 210223.0
369114.0 367174.0 271114.0 266059.0 134540.0 142717.0 220068.0 213377.0 20072.0 25323.0 145893.0 144934.0 21636.0 29951.0 30550.0 32605.0 144703.0 152511.0 57898.0 65112.0 80719.0 73442.0 244394.0 248631.0 33265.0 27215.0 7962.0 0.0 138673.0 146265.0 77882.0 69777.0 65773.0 73761.0 155480.0 162280.0 28515.0 35660.0 217890.0 210275.0 94953.0 213414.0 94953.0 94953.0 94953.0 94953.0 213414.0 213414.0 213414.0 213414.0
258956.0 258015.0 142477.0 135998.0 10523.0 11320.0 85579.0 77865.0 136733.0 129815.0 28084.0 35819.0 120721.0 113897.0 160679.0 156095.0 12599.0 16095.0 113427.0 115986.0 58077.0 65237.0 127253.0 128543.0 133683.0 129418.0 139200.0 138673.0 0.0 8048.0 61835.0 69979.0 133093.0 134255.0 16967.0 23667.0 111074.0 105953.0 139959.0 135815.0 124185.0 112154.0 124185.0 124185.0 124185.0 124185.0 112154.0 112154.0 112154.0 112154.0
255890.0 255180.0 137513.0 130825.0 13816.0 8890.0 79856.0 71921.0 143873.0 136839.0 30600.0 38949.0 128044.0 121087.0 168565.0 164045.0 8775.0 8418.0 119357.0 121541.0 65572.0 72880.0 120108.0 121182.0 141689.0 137374.0 146928.0 146265.0 8048.0 0.0 69726.0 77848.0 141067.0 142153.0 10588.0 16056.0 118808.0 113802.0 135767.0 131985.0 131866.0 111706.0 131866.0 131866.0 131866.0 131866.0 111706.0 111706.0 111706.0 111706.0
298954.0 297014.0 194670.0 189245.0 59566.0 67671.0 142294.0 135516.0 79250.0 73542.0 68571.0 68689.0 62156.0 56800.0 98845.0 94388.0 69702.0 76773.0 69095.0 75039.0 11809.0 8746.0 179767.0 182608.0 72475.0 67755.0 77721.0 77882.0 61835.0 69726.0 0.0 8189.0 77938.0 81327.0 78271.0 85472.0 49678.0 44148.0 171896.0 165604.0 78028.0 143376.0 78028.0 78028.0 78028.0 78028.0 143376.0 143376.0 143376.0 143376.0
305394.0 303461.0 202347.0 197005.0 67472.0 75611.0 150328.0 143600.0 71745.0 66329.0 76410.0 76194.0 54532.0 49580.0 90719.0 86368.0 77641.0 84816.0 64579.0 71051.0 16264.0 9037.0 186718.0 189724.0 64713.0 59779.0 69537.0 69777.0 69979.0 77848.0 8189.0 0.0 72083.0 76025.0 86450.0 93627.0 41512.0 35979.0 176609.0 170121.0 74759.0 149722.0 74759.0 74759.0 74759.0 74759.0 149722.0 149722.0 149722.0 149722.0
330391.0 328451.0 240324.0 236833.0 134015.0 141542.0 198626.0 193780.0 83978.0 85778.0 126975.0 122296.0 73610.0 77671.0 57298.0 48785.0 143507.0 149145.0 109301.0 117454.0 88331.0 80874.0 256941.0 259367.0 32612.0 38864.0 58400.0 65773.0 133093.0 141067.0 77938.0 72083.0 0.0 7995.0 147117.0 155087.0 56298.0 51447.0 248289.0 241609.0 36893.0 174691.0 36893.0 36893.0 36893.0 36893.0 174691.0 174691.0 174691.0 174691.0
327740.0 325800.0 237672.0 234236.0 135790.0 143121.0 197005.0 192441.0 91881.0 93542.0 126467.0 121341.0 81202.0 84998.0 64628.0 56088.0 145055.0 150348.0 116384.0 124532.0 92154.0 84967.0 259223.0 261427.0 40607.0 46807.0 66395.0 73761.0 134255.0 142153.0 81327.0 76025.0 7995.0 0.0 147717.0 155735.0 63462.0 58165.0 252608.0 246053.0 31861.0 172040.0 31861.0 31861.0 31861.0 31861.0 172040.0 172040.0 172040.0 172040.0
245908.0 245315.0 126951.0 120244.0 24404.0 18615.0 69282.0 61377.0 153699.0 146774.0 28053.0 36540.0 137667.0 130863.0 177015.0 172218.0 17734.0 11529.0 129846.0 132100.0 74984.0 82040.0 118291.0 118690.0 149529.0 145540.0 155856.0 155480.0 16967.0 10588.0 78271.0 86450.0 147117.0 147717.0 0.0 8048.0 127737.0 122417.0 139640.0 136381.0 136518.0 103757.0 136518.0 136518.0 136518.0 136518.0 103757.0 103757.0 103757.0 103757.0
244852.0 244518.0 123876.0 116915.0 29103.0 21845.0 65444.0 57263.0 159901.0 152836.0 35141.0 43476.0 144100.0 137128.0 184303.0 179638.0 20341.0 12088.0 134715.0 136581.0 81609.0 88866.0 110815.0 111028.0 157078.0 152956.0 162863.0 162280.0 23667.0 16056.0 85472.0 93627.0 155087.0 155735.0 8048.0 0.0 134737.0 129605.0 134817.0 131921.0 144566.0 106109.0 144566.0 144566.0 144566.0 144566.0 106109.0 106109.0 106109.0 106109.0
341557.0 339617.0 242630.0 237552.0 107605.0 115804.0 191646.0 185023.0 35806.0 33803.0 117400.0 116428.0 19971.0 21723.0 50867.0 48153.0 117815.0 125387.0 53008.0 61161.0 53694.0 46013.0 221697.0 225450.0 31851.0 24343.0 28126.0 28515.0 111074.0 118808.0 49678.0 41512.0 56298.0 63462.0 127737.0 134737.0 0.0 8219.0 201492.0 194239.0 76270.0 185857.0 76270.0 76270.0 76270.0 76270.0 185857.0 185857.0 185857.0 185857.0
333733.0 331793.0 235593.0 230629.0 103110.0 111291.0 185279.0 178808.0 44024.0 41838.0 110858.0 109534.0 27970.0 28631.0 54824.0 50956.0 113316.0 120662.0 58491.0 66604.0 49626.0 41667.0 219422.0 222931.0 31470.0 25025.0 34032.0 35660.0 105953.0 113802.0 44148.0 35979.0 51447.0 58165.0 122417.0 129605.0 8219.0 0.0 201893.0 194794.0 68795.0 178033.0 68795.0 68795.0 68795.0 68795.0 178033.0 178033.0 178033.0 178033.0
356563.0 358214.0 228234.0 220221.0 131830.0 128704.0 176193.0 168853.0 203301.0 195395.0 166293.0 174706.0 196455.0 188297.0 248082.0 247936.0 127739.0 129024.0 162315.0 157036.0 160613.0 167643.0 71642.0 79453.0 233044.0 225801.0 223187.0 217890.0 139959.0 135767.0 171896.0 176609.0 248289.0 252608.0 139640.0 134817.0 201492.0 201893.0 0.0 8092.0 249526.0 238506.0 249526.0 249526.0 249526.0 249526.0 238506.0 238506.0 238506.0 238506.0
357332.0 358807.0 228973.0 220962.0 127354.0 124639.0 175863.0 168336.0 195522.0 187637.0 162578.0 170923.0 188882.0 180751.0 240522.0 240481.0 123775.0 125532.0 154493.0 149137.0 154219.0 161126.0 76306.0 84115.0 225861.0 218566.0 215649.0 210275.0 135815.0 131985.0 165604.0 170121.0 241609.0 246053.0 136381.0 131921.0 194239.0 194794.0 8092.0 0.0 243402.0 236487.0 243402.0 243402.0 243402.0 243402.0 236487.0 236487.0 236487.0 236487.0
314170.0 312230.0 224102.0 220667.0 126955.0 133796.0 183483.0 179018.0 110171.0 109736.0 113808.0 108260.0 96105.0 97414.0 92852.0 84514.0 135648.0 140215.0 125530.0 133371.0 89706.0 83699.0 250760.0 252484.0 64505.0 68264.0 88720.0 94953.0 124185.0 131866.0 78028.0 74759.0 36893.0 31861.0 136518.0 144566.0 76270.0 68795.0 249526.0 243402.0 0.0 158470.0 0.0 0.0 0.0 0.0 158470.0 158470.0 158470.0 158470.0
157477.0 155537.0 80125.0 80081.0 122677.0 120562.0 75084.0 78498.0 220209.0 215591.0 85477.0 80183.0 202888.0 198964.0 223554.0 216221.0 120401.0 115283.0 211398.0 216364.0 148561.0 151405.0 197841.0 194778.0 192835.0 192751.0 210223.0 213414.0 112154.0 111706.0 143376.0 149722.0 174691.0 172040.0 103757.0 106109.0 185857.0 178033.0 238506.0 236487.0 158470.0 0.0 158470.0 158470.0 158470.0 158470.0 0.0 0.0 0.0 0.0
314170.0 312230.0 224102.0 220667.0 126955.0 133796.0 183483.0 179018.0 110171.0 109736.0 113808.0 108260.0 96105.0 97414.0 92852.0 84514.0 135648.0 140215.0 125530.0 133371.0 89706.0 83699.0 250760.0 252484.0 64505.0 68264.0 88720.0 94953.0 124185.0 131866.0 78028.0 74759.0 36893.0 31861.0 136518.0 144566.0 76270.0 68795.0 249526.0 243402.0 0.0 158470.0 0.0 0.0 0.0 0.0 158470.0 158470.0 158470.0 158470.0
314170.0 312230.0 224102.0 220667.0 126955.0 133796.0 183483.0 179018.0 110171.0 109736.0 113808.0 108260.0 96105.0 97414.0 92852.0 84514.0 135648.0 140215.0 125530.0 133371.0 89706.0 83699.0 250760.0 252484.0 64505.0 68264.0 88720.0 94953.0 124185.0 131866.0 78028.0 74759.0 36893.0 31861.0 136518.0 144566.0 76270.0 68795.0 249526.0 243402.0 0.0 158470.0 0.0 0.0 0.0 0.0 158470.0 158470.0 158470.0 158470.0
314170.0 312230.0 224102.0 220667.0 126955.0 133796.0 183483.0 179018.0 110171.0 109736.0 113808.0 108260.0 96105.0 97414.0 92852.0 84514.0 135648.0 140215.0 125530.0 133371.0 89706.0 83699.0 250760.0 252484.0 64505.0 68264.0 88720.0 94953.0 124185.0 131866.0 78028.0 74759.0 36893.0 31861.0 136518.0 144566.0 76270.0 68795.0 249526.0 243402.0 0.0 158470.0 0.0 0.0 0.0 0.0 158470.0 158470.0 158470.0 158470.0
314170.0 312230.0 224102.0 220667.0 126955.0 133796.0 183483.0 179018.0 110171.0 109736.0 113808.0 108260.0 96105.0 97414.0 92852.0 84514.0 135648.0 140215.0 125530.0 133371.0 89706.0 83699.0 250760.0 252484.0 64505.0 68264.0 88720.0 94953.0 124185.0 131866.0 78028.0 74759.0 36893.0 31861.0 136518.0 144566.0 76270.0 68795.0 249526.0 243402.0 0.0 158470.0 0.0 0.0 0.0 0.0 158470.0 158470.0 158470.0 158470.0
157477.0 155537.0 80125.0 80081.0 122677.0 120562.0 75084.0 78498.0 220209.0 215591.0 85477.0 80183.0 202888.0 198964.0 223554.0 216221.0 120401.0 115283.0 211398.0 216364.0 148561.0 151405.0 197841.0 194778.0 192835.0 192751.0 210223.0 213414.0 112154.0 111706.0 143376.0 149722.0 174691.0 172040.0 103757.0 106109.0 185857.0 178033.0 238506.0 236487.0 158470.0 0.0 158470.0 158470.0 158470.0 158470.0 0.0 0.0 0.0 0.0
157477.0 155537.0 80125.0 80081.0 122677.0 120562.0 75084.0 78498.0 220209.0 215591.0 85477.0 80183.0 202888.0 198964.0 223554.0 216221.0 120401.0 115283.0 211398.0 216364.0 148561.0 151405.0 197841.0 194778.0 192835.0 192751.0 210223.0 213414.0 112154.0 111706.0 143376.0 149722.0 174691.0 172040.0 103757.0 106109.0 185857.0 178033.0 238506.0 236487.0 158470.0 0.0 158470.0 158470.0 158470.0 158470.0 0.0 0.0 0.0 0.0
157477.0 155537.0 80125.0 80081.0 122677.0 120562.0 75084.0 78498.0 220209.0 215591.0 85477.0 80183.0 202888.0 198964.0 223554.0 216221.0 120401.0 115283.0 211398.0 216364.0 148561.0 151405.0 197841.0 194778.0 192835.0 192751.0 210223.0 213414.0 112154.0 111706.0 143376.0 149722.0 174691.0 172040.0 103757.0 106109.0 185857.0 178033.0 238506.0 236487.0 158470.0 0.0 158470.0 158470.0 158470.0 158470.0 0.0 0.0 0.0 0.0
157477.0 155537.0 80125.0 80081.0 122677.0 120562.0 75084.0 78498.0 220209.0 215591.0 85477.0 80183.0 202888.0 198964.0 223554.0 216221.0 120401.0 115283.0 211398.0 216364.0 148561.0 151405.0 197841.0 194778.0 192835.0 192751.0 210223.0 213414.0 112154.0 111706.0 143376.0 149722.0 174691.0 172040.0 103757.0 106109.0 185857.0 178033.0 238506.0 236487.0 158470.0 0.0 158470.0 158470.0 158470.0 158470.0 0.0 0.0 0.0 0.0
FIXED_EDGES_SECTION
1 2
3 4
5 6
7 8
9 10
11 12
13 14
15 16
17 18
19 20
21 22
23 24
25 26
27 28
29 30
31 32
33 34
35 36
37 38
39 40
-1 
DEMAND_SECTION
1 71
2 71
3 336
4 336
5 94
6 94
7 68
8 68
9 265
10 265
11 358
12 358
13 375
14 375
15 251
16 251
17 279
18 279
19 55
20 55
21 207
22 207
23 321
24 321
25 247
26 247
27 274
28 274
29 380
30 380
31 394
32 394
33 97
34 97
35 177
36 177
37 493
38 493
39 380
40 380
41 0
42 0
43 0
44 0
45 0
46 0
47 0
48 0
49 0
50 0
DEPOT_SECTION
41 
-1 
CAPACITIES_SECTION
2500 
2750 
3000 
3250 
-1 
EOF