NAME: GFS_20_1
TYPE: GFSP
DIMENSION: 96
VEHICLES: 4
CAPACITY: 2500.0
TRIP_DIST_LIMIT: 750000.0
TOTAL_DIST_LIMIT: 1050000.0
EDGE_WEIGHT_TYPE: EXPLICIT
EDGE_WEIGHT_FORMAT: FULL_MATRIX
EDGE_WEIGHT_SECTION
0.0 8061.0 269643.0 264548.0 270155.0 261988.0 37059.0 44324.0 89763.0 85970.0 227611.0 229174.0 65017.0 69913.0 104256.0 100576.0 303420.0 301543.0 160613.0 154219.0 198671.0 196668.0 306006.0 297825.0 61192.0 68970.0 47510.0 39439.0 159583.0 163021.0 11809.0 16264.0 240544.0 234163.0 199262.0 204930.0 187711.0 181971.0 52222.0 59521.0 53694.0 49626.0 278073.0 285744.0 316323.0 314659.0 84849.0 83427.0 96695.0 89457.0 38659.0 30404.0 90265.0 81911.0 31799.0 31379.0 93613.0 100913.0 64315.0 67169.0 100148.0 107745.0 33796.0 29859.0 314445.0 306799.0 53946.0 62143.0 100546.0 92577.0 13366.0 21310.0 190395.0 190501.0 101638.0 109162.0 37814.0 40118.0 116503.0 113794.0 89706.0 148561.0 89706.0 89706.0 89706.0 89706.0 89706.0 89706.0 89706.0 148561.0 148561.0 148561.0 148561.0 148561.0 148561.0 148561.0
8061.0 0.0 273496.0 268563.0 273534.0 265366.0 44987.0 52139.0 96737.0 93232.0 231112.0 232934.0 70073.0 74359.0 96387.0 92594.0 306852.0 304922.0 167643.0 161126.0 206312.0 204203.0 310306.0 302149.0 66624.0 74218.0 41095.0 33341.0 165175.0 168864.0 8746.0 9037.0 245127.0 238882.0 202271.0 208096.0 192813.0 187258.0 54308.0 61030.0 46013.0 41667.0 281792.0 289521.0 319779.0 318295.0 77725.0 76720.0 103351.0 96284.0 30629.0 22368.0 94739.0 86274.0 39577.0 38479.0 100582.0 108027.0 56728.0 59314.0 108088.0 115722.0 40424.0 35411.0 318629.0 311038.0 61615.0 69813.0 106865.0 98868.0 18852.0 26090.0 197488.0 197428.0 94068.0 101654.0 44652.0 47611.0 120568.0 118096.0 83699.0 151405.0 83699.0 83699.0 83699.0 83699.0 83699.0 83699.0 83699.0 151405.0 151405.0 151405.0 151405.0 151405.0 151405.0 151405.0
269643.0 273496.0 0.0 7962.0 27211.0 24960.0 247850.0 241473.0 197974.0 205610.0 43952.0 40655.0 303867.0 311852.0 347127.0 339794.0 37573.0 39616.0 319023.0 319765.0 309277.0 314951.0 41035.0 34353.0 210126.0 202163.0 312399.0 305754.0 122787.0 124575.0 265843.0 272590.0 39621.0 47570.0 76416.0 68834.0 91700.0 99564.0 312171.0 320318.0 309425.0 301606.0 9862.0 16346.0 49257.0 45796.0 342213.0 344385.0 188143.0 195964.0 292110.0 286769.0 324986.0 320413.0 265516.0 273492.0 290859.0 289997.0 288399.0 296091.0 257872.0 255209.0 277849.0 283116.0 47053.0 40632.0 233104.0 228305.0 306689.0 303333.0 256302.0 248333.0 333070.0 339631.0 351501.0 359230.0 236611.0 239560.0 153158.0 156073.0 282043.0 124850.0 282043.0 282043.0 282043.0 282043.0 282043.0 282043.0 282043.0 124850.0 124850.0 124850.0 124850.0 124850.0 124850.0 124850.0
264548.0 268563.0 7962.0 0.0 33350.0 29523.0 242080.0 235604.0 191600.0 199187.0 41243.0 36623.0 297674.0 305664.0 342964.0 335632.0 45060.0 47469.0 311521.0 312334.0 301443.0 307144.0 43250.0 35737.0 204689.0 196721.0 307747.0 300998.0 115945.0 117480.0 261011.0 267867.0 31803.0 39792.0 73948.0 66108.0 84728.0 92526.0 306451.0 314588.0 305129.0 297368.0 17613.0 23063.0 56333.0 52291.0 338045.0 340060.0 181786.0 189656.0 287732.0 282248.0 318556.0 314091.0 259730.0 267722.0 284050.0 283073.0 284237.0 291929.0 250857.0 248082.0 272051.0 277447.0 50478.0 43364.0 227106.0 222159.0 299881.0 296627.0 251191.0 243242.0 325374.0 331965.0 347339.0 355067.0 231089.0 233856.0 148054.0 150815.0 277881.0 121060.0 277881.0 277881.0 277881.0 277881.0 277881.0 277881.0 277881.0 121060.0 121060.0 121060.0 121060.0 121060.0 121060.0 121060.0
270155.0 273534.0 27211.0 33350.0 0.0 8282.0 250796.0 244858.0 204117.0 211943.0 43162.0 45141.0 308411.0 316349.0 345925.0 338592.0 36574.0 32798.0 331860.0 332003.0 325725.0 330993.0 60542.0 56123.0 212021.0 204128.0 311625.0 305245.0 132704.0 135981.0 265625.0 272073.0 59713.0 66740.0 73021.0 65941.0 103285.0 111265.0 314666.0 322833.0 308229.0 300405.0 24271.0 30237.0 49264.0 50233.0 341031.0 343194.0 194300.0 201777.0 290956.0 285737.0 330633.0 325527.0 268437.0 276316.0 298855.0 298718.0 287197.0 294890.0 267337.0 265445.0 280773.0 285515.0 63039.0 59066.0 237097.0 233024.0 314613.0 310654.0 256905.0 248907.0 347738.0 353965.0 350300.0 358028.0 238665.0 242285.0 154408.0 157814.0 280842.0 124149.0 280842.0 280842.0 280842.0 280842.0 280842.0 280842.0 280842.0 124149.0 124149.0 124149.0 124149.0 124149.0 124149.0 124149.0
261988.0 265366.0 24960.0 29523.0 8282.0 0.0 242629.0 236634.0 195910.0 203731.0 34974.0 36872.0 300234.0 308170.0 337758.0 330425.0 42924.0 40042.0 323622.0 323746.0 317723.0 322952.0 62504.0 57170.0 203854.0 195961.0 303458.0 297078.0 124431.0 127743.0 257458.0 263906.0 52958.0 59666.0 64854.0 57773.0 95087.0 103062.0 306498.0 314665.0 300062.0 292238.0 25194.0 32462.0 55828.0 55954.0 332864.0 335027.0 186089.0 193584.0 282789.0 277570.0 322483.0 317366.0 260270.0 268149.0 290603.0 290449.0 279030.0 286722.0 259057.0 257163.0 272605.0 277347.0 66179.0 61365.0 228911.0 224856.0 306364.0 302424.0 248738.0 240740.0 339589.0 345794.0 342133.0 349861.0 230498.0 234117.0 146241.0 149646.0 272674.0 115982.0 272674.0 272674.0 272674.0 272674.0 272674.0 272674.0 272674.0 115982.0 115982.0 115982.0 115982.0 115982.0 115982.0 115982.0
37059.0 44987.0 247850.0 242080.0 250796.0 242629.0 0.0 7778.0 56349.0 51194.0 207829.0 208203.0 59909.0 67441.0 141313.0 137577.0 283243.0 282076.0 135079.0 129735.0 167762.0 166681.0 282003.0 273770.0 39850.0 47313.0 82931.0 74630.0 131257.0 133497.0 44279.0 51732.0 215770.0 208843.0 182407.0 187017.0 161202.0 154697.0 64400.0 72520.0 90674.0 86654.0 256812.0 264166.0 295959.0 293511.0 121011.0 118825.0 64704.0 56821.0 75577.0 67316.0 84949.0 78161.0 17672.0 25644.0 71050.0 76638.0 98186.0 102210.0 67156.0 74013.0 30016.0 35644.0 290901.0 283059.0 17932.0 25871.0 82567.0 75433.0 29667.0 28676.0 163934.0 165252.0 138442.0 145873.0 15340.0 8753.0 96905.0 93153.0 116844.0 133594.0 116844.0 116844.0 116844.0 116844.0 116844.0 116844.0 116844.0 133594.0 133594.0 133594.0 133594.0 133594.0 133594.0 133594.0
44324.0 52139.0 241473.0 235604.0 244858.0 236634.0 7778.0 0.0 48705.0 43434.0 201843.0 202018.0 64423.0 72174.0 148526.0 144624.0 277082.0 276051.0 133262.0 128277.0 163987.0 163241.0 275258.0 267023.0 35552.0 42500.0 90597.0 82303.0 124087.0 126159.0 50762.0 58464.0 208977.0 201979.0 176998.0 181405.0 154236.0 147631.0 71167.0 79227.0 98014.0 93774.0 250507.0 257804.0 289755.0 287186.0 128618.0 126520.0 57220.0 49280.0 82607.0 74362.0 88751.0 82397.0 24395.0 32408.0 71010.0 75925.0 104091.0 108426.0 63205.0 69591.0 36566.0 42796.0 284216.0 276352.0 10156.0 18128.0 83565.0 76815.0 35804.0 33460.0 161671.0 163354.0 145889.0 153358.0 15440.0 7401.0 91471.0 87548.0 121091.0 128765.0 121091.0 121091.0 121091.0 121091.0 121091.0 121091.0 121091.0 128765.0 128765.0 128765.0 128765.0 128765.0 128765.0 128765.0
89763.0 96737.0 197974.0 191600.0 204117.0 195910.0 56349.0 48705.0 0.0 7886.0 160954.0 159937.0 106369.0 114354.0 191281.0 186315.0 234575.0 234306.0 141519.0 139058.0 157321.0 159005.0 229697.0 221480.0 37608.0 34895.0 137235.0 129077.0 77131.0 78317.0 92717.0 100906.0 163424.0 156091.0 140161.0 143167.0 108123.0 101031.0 118672.0 126524.0 142298.0 136825.0 207357.0 214296.0 246955.0 243747.0 174461.0 173187.0 9847.0 3303.0 125461.0 117570.0 127025.0 122500.0 72630.0 80486.0 95504.0 96469.0 140140.0 145993.0 68258.0 69479.0 84272.0 91184.0 238926.0 230972.0 38736.0 31946.0 111055.0 106677.0 78139.0 72234.0 165425.0 169342.0 190346.0 198050.0 52086.0 50294.0 59382.0 54612.0 147836.0 97785.0 147836.0 147836.0 147836.0 147836.0 147836.0 147836.0 147836.0 97785.0 97785.0 97785.0 97785.0 97785.0 97785.0 97785.0
85970.0 93232.0 205610.0 199187.0 211943.0 203731.0 51194.0 43434.0 7886.0 0.0 168782.0 167706.0 99073.0 107046.0 188652.0 183967.0 242281.0 242063.0 134464.0 131816.0 151810.0 153213.0 237039.0 228830.0 38559.0 37448.0 133227.0 124998.0 84352.0 85189.0 89825.0 97983.0 170813.0 163424.0 148040.0 151053.0 115476.0 108285.0 112277.0 120038.0 139103.0 133962.0 215021.0 221923.0 254633.0 251368.0 170819.0 169218.0 17644.0 10701.0 122599.0 114573.0 119379.0 114984.0 66773.0 74495.0 87621.0 88638.0 138926.0 144489.0 60822.0 62428.0 78110.0 85297.0 246311.0 238346.0 33290.0 25832.0 103169.0 98807.0 74956.0 69617.0 158837.0 162571.0 187203.0 194842.0 48845.0 45967.0 66838.0 62091.0 148365.0 105378.0 148365.0 148365.0 148365.0 148365.0 148365.0 148365.0 148365.0 105378.0 105378.0 105378.0 105378.0 105378.0 105378.0 105378.0
227611.0 231112.0 43952.0 41243.0 43162.0 34974.0 207829.0 201843.0 160954.0 168782.0 0.0 8428.0 265321.0 273265.0 303812.0 296479.0 75824.0 74256.0 290090.0 289963.0 286327.0 291243.0 84356.0 76973.0 169174.0 161265.0 269469.0 262998.0 90576.0 94548.0 223274.0 229817.0 39024.0 41575.0 32708.0 24935.0 62806.0 70579.0 271776.0 279942.0 266115.0 258291.0 51149.0 59099.0 88714.0 87266.0 298917.0 301081.0 151139.0 158616.0 248815.0 243667.0 287512.0 282415.0 225479.0 233373.0 255761.0 255716.0 245084.0 252776.0 224505.0 222812.0 237819.0 242629.0 90958.0 84264.0 194027.0 189907.0 271506.0 267507.0 214333.0 206338.0 306955.0 312958.0 308186.0 315914.0 195810.0 199340.0 111617.0 114942.0 238728.0 81174.0 238728.0 238728.0 238728.0 238728.0 238728.0 238728.0 238728.0 81174.0 81174.0 81174.0 81174.0 81174.0 81174.0 81174.0
229174.0 232934.0 40655.0 36623.0 45141.0 36872.0 208203.0 202018.0 159937.0 167706.0 8428.0 0.0 265054.0 273021.0 306527.0 299194.0 75065.0 74383.0 286789.0 286881.0 281700.0 286774.0 79828.0 72147.0 170021.0 162072.0 271751.0 265124.0 87564.0 90923.0 225240.0 231956.0 30639.0 33199.0 38419.0 30346.0 58446.0 66381.0 272380.0 280540.0 268802.0 260999.0 48906.0 56587.0 87755.0 85560.0 301633.0 303757.0 150093.0 157725.0 251469.0 246115.0 286823.0 281931.0 225874.0 233815.0 254189.0 253876.0 247799.0 255492.0 222338.0 220352.0 238219.0 243267.0 87037.0 79988.0 193933.0 189506.0 269978.0 266195.0 215848.0 207869.0 303013.0 309147.0 310902.0 318630.0 196591.0 199809.0 112771.0 115834.0 241444.0 84457.0 241444.0 241444.0 241444.0 241444.0 241444.0 241444.0 241444.0 84457.0 84457.0 84457.0 84457.0 84457.0 84457.0 84457.0
65017.0 70073.0 303867.0 297674.0 308411.0 300234.0 59909.0 64423.0 106369.0 99073.0 265321.0 265054.0 0.0 7991.0 143634.0 143404.0 340046.0 339346.0 104532.0 97095.0 150048.0 146192.0 336065.0 327850.0 99634.0 106856.0 81794.0 75620.0 183423.0 184096.0 76770.0 78919.0 269791.0 262457.0 241253.0 245473.0 214491.0 207352.0 28607.0 31768.0 97360.0 98469.0 313111.0 320211.0 352586.0 349661.0 115135.0 109301.0 116082.0 108115.0 91445.0 85226.0 25962.0 18387.0 43941.0 37907.0 41764.0 49967.0 123214.0 123525.0 69414.0 77373.0 33672.0 35192.0 345291.0 337340.0 71372.0 75579.0 40687.0 33151.0 71235.0 76730.0 134271.0 132786.0 135585.0 141259.0 74610.0 68636.0 155789.0 151765.0 153652.0 193176.0 153652.0 153652.0 153652.0 153652.0 153652.0 153652.0 153652.0 193176.0 193176.0 193176.0 193176.0 193176.0 193176.0 193176.0
69913.0 74359.0 311852.0 305664.0 316349.0 308170.0 67441.0 72174.0 114354.0 107046.0 273265.0 273021.0 7991.0 0.0 142958.0 143204.0 348018.0 347304.0 105311.0 97646.0 152209.0 147989.0 344049.0 335833.0 107245.0 114539.0 82123.0 76541.0 191398.0 192041.0 81521.0 83006.0 277777.0 270439.0 249092.0 253353.0 222474.0 215328.0 27444.0 28523.0 98214.0 99972.0 321093.0 328197.0 360564.0 357647.0 113803.0 107574.0 124070.0 116105.0 93695.0 87959.0 20386.0 12006.0 51065.0 44575.0 45604.0 53570.0 125843.0 125676.0 75601.0 83392.0 40166.0 40485.0 353277.0 345326.0 79282.0 83558.0 41727.0 34920.0 77095.0 82972.0 134741.0 132782.0 134318.0 139671.0 81948.0 76187.0 163602.0 159605.0 157491.0 200878.0 157491.0 157491.0 157491.0 157491.0 157491.0 157491.0 157491.0 200878.0 200878.0 200878.0 200878.0 200878.0 200878.0 200878.0
104256.0 96387.0 347127.0 342964.0 345925.0 337758.0 141313.0 148526.0 191281.0 188652.0 303812.0 306527.0 143634.0 142958.0 0.0 8543.0 379254.0 377313.0 248082.0 240522.0 293006.0 289548.0 385848.0 377913.0 156919.0 163302.0 62876.0 70430.0 252128.0 257140.0 98845.0 90719.0 323647.0 318518.0 274420.0 280276.0 276117.0 271869.0 115563.0 115422.0 50867.0 54824.0 354891.0 362776.0 392181.0 391052.0 30724.0 38616.0 196699.0 190354.0 66132.0 74288.0 159129.0 151551.0 132958.0 128811.0 183884.0 192100.0 58761.0 51038.0 200528.0 208594.0 128449.0 120426.0 393443.0 386219.0 157924.0 166109.0 184223.0 176785.0 113835.0 119102.0 277664.0 275715.0 13306.0 16595.0 139838.0 143778.0 200641.0 199687.0 92852.0 223554.0 92852.0 92852.0 92852.0 92852.0 92852.0 92852.0 92852.0 223554.0 223554.0 223554.0 223554.0 223554.0 223554.0 223554.0
100576.0 92594.0 339794.0 335632.0 338592.0 330425.0 137577.0 144624.0 186315.0 183967.0 296479.0 299194.0 143404.0 143204.0 8543.0 0.0 371921.0 369981.0 247936.0 240481.0 292056.0 288812.0 378515.0 370580.0 151377.0 157560.0 61806.0 68855.0 245746.0 250902.0 94388.0 86368.0 316370.0 311330.0 267087.0 272943.0 269310.0 265194.0 115760.0 116221.0 48153.0 50956.0 347559.0 355443.0 384848.0 383719.0 34118.0 42335.0 191436.0 185272.0 62019.0 70271.0 160049.0 152267.0 130143.0 126435.0 183013.0 191182.0 51422.0 43823.0 198242.0 206230.0 126368.0 118533.0 386110.0 378886.0 153818.0 161971.0 184086.0 176516.0 109475.0 114350.0 277656.0 275950.0 20429.0 24950.0 135281.0 139586.0 193812.0 192983.0 84514.0 216221.0 84514.0 84514.0 84514.0 84514.0 84514.0 84514.0 84514.0 216221.0 216221.0 216221.0 216221.0 216221.0 216221.0 216221.0
303420.0 306852.0 37573.0 45060.0 36574.0 42924.0 283243.0 277082.0 234575.0 242281.0 75824.0 75065.0 340046.0 348018.0 379254.0 371921.0 0.0 7961.0 356563.0 357332.0 346150.0 351943.0 37772.0 38521.0 244871.0 236942.0 344912.0 338563.0 160087.0 162068.0 298954.0 305394.0 76763.0 84784.0 106350.0 99269.0 129139.0 137038.0 347363.0 355526.0 341557.0 333733.0 27746.0 22520.0 12954.0 14310.0 374359.0 376523.0 224730.0 232460.0 324284.0 319066.0 361582.0 356821.0 300912.0 308843.0 328029.0 327300.0 320526.0 328218.0 295270.0 292696.0 313257.0 318234.0 34804.0 35142.0 268983.0 264475.0 343854.0 340364.0 290151.0 282155.0 370377.0 376995.0 383628.0 391357.0 271483.0 274826.0 187394.0 190634.0 314170.0 157477.0 314170.0 314170.0 314170.0 314170.0 314170.0 314170.0 314170.0 157477.0 157477.0 157477.0 157477.0 157477.0 157477.0 157477.0
301543.0 304922.0 39616.0 47469.0 32798.0 40042.0 282076.0 276051.0 234306.0 242063.0 74256.0 74383.0 339346.0 347304.0 377313.0 369981.0 7961.0 0.0 358214.0 358807.0 348893.0 354564.0 45511.0 45743.0 243400.0 235500.0 343013.0 336634.0 160702.0 163065.0 297014.0 303461.0 79236.0 87184.0 104410.0 97329.0 130072.0 138031.0 346025.0 354192.0 339617.0 331793.0 29861.0 26510.0 17418.0 21292.0 372419.0 374583.0 224461.0 232106.0 322344.0 317126.0 361205.0 356289.0 299730.0 307627.0 328286.0 327758.0 318586.0 326278.0 295917.0 293555.0 312071.0 316877.0 42765.0 42934.0 268134.0 263831.0 344096.0 340440.0 288294.0 280295.0 372589.0 379109.0 381688.0 389416.0 270041.0 273594.0 185796.0 189179.0 312230.0 155537.0 312230.0 312230.0 312230.0 312230.0 312230.0 312230.0 312230.0 155537.0 155537.0 155537.0 155537.0 155537.0 155537.0 155537.0
160613.0 167643.0 319023.0 311521.0 331860.0 323622.0 135079.0 133262.0 141519.0 134464.0 290090.0 286789.0 104532.0 105311.0 248082.0 247936.0 356563.0 358214.0 0.0 8092.0 51266.0 45137.0 341524.0 333880.0 161995.0 165583.0 186264.0 179821.0 199517.0 195880.0 171896.0 176609.0 280033.0 272006.0 275863.0 277180.0 228667.0 220673.0 132565.0 133554.0 201492.0 201893.0 328881.0 334431.0 367632.0 362682.0 219114.0 212827.0 149462.0 144756.0 193737.0 186639.0 91867.0 98104.0 129826.0 129249.0 67066.0 59734.0 224004.0 225496.0 74380.0 72051.0 127278.0 133364.0 351420.0 343523.0 131830.0 128704.0 63868.0 71436.0 160875.0 162727.0 29957.0 30184.0 239628.0 244941.0 148676.0 140599.0 200702.0 195910.0 249526.0 238506.0 249526.0 249526.0 249526.0 249526.0 249526.0 249526.0 249526.0 238506.0 238506.0 238506.0 238506.0 238506.0 238506.0 238506.0
154219.0 161126.0 319765.0 312334.0 332003.0 323746.0 129735.0 128277.0 139058.0 131816.0 289963.0 286881.0 97095.0 97646.0 240522.0 240481.0 357332.0 358807.0 8092.0 0.0 59230.0 53206.0 343091.0 335377.0 157951.0 161847.0 178880.0 172538.0 199418.0 196078.0 165604.0 170121.0 280979.0 272963.0 274900.0 276450.0 228982.0 220989.0 124968.0 125797.0 194239.0 194794.0 329614.0 335303.0 368548.0 363738.0 211435.0 205087.0 147302.0 142255.0 186804.0 179804.0 83885.0 90223.0 123742.0 122840.0 60613.0 53630.0 217312.0 218650.0 71185.0 69705.0 120711.0 126584.0 352968.0 345042.0 127354.0 124639.0 56409.0 64101.0 154924.0 157050.0 37176.0 36304.0 231952.0 237205.0 143635.0 135561.0 198402.0 193618.0 243402.0 236487.0 243402.0 243402.0 243402.0 243402.0 243402.0 243402.0 243402.0 236487.0 236487.0 236487.0 236487.0 236487.0 236487.0 236487.0
198671.0 206312.0 309277.0 301443.0 325725.0 317723.0 167762.0 163987.0 157321.0 151810.0 286327.0 281700.0 150048.0 152209.0 293006.0 292056.0 346150.0 348893.0 51266.0 59230.0 0.0 8088.0 326258.0 319152.0 186069.0 187688.0 230311.0 223236.0 197982.0 192604.0 209095.0 214935.0 269657.0 261718.0 277659.0 277480.0 223525.0 215766.0 178638.0 180731.0 244492.0 243829.0 319055.0 323646.0 356165.0 350383.0 265113.0 259348.0 163005.0 160598.0 234655.0 227007.0 141133.0 146543.0 166895.0 168189.0 109123.0 100910.0 262985.0 265488.0 100784.0 94723.0 167185.0 174353.0 336153.0 328539.0 159759.0 154491.0 110635.0 117320.0 196260.0 196426.0 34815.0 42858.0 285506.0 291292.0 179092.0 171316.0 212817.0 208137.0 284593.0 247775.0 284593.0 284593.0 284593.0 284593.0 284593.0 284593.0 284593.0 247775.0 247775.0 247775.0 247775.0 247775.0 247775.0 247775.0
196668.0 204203.0 314951.0 307144.0 330993.0 322952.0 166681.0 163241.0 159005.0 153213.0 291243.0 286774.0 146192.0 147989.0 289548.0 288812.0 351943.0 354564.0 45137.0 53206.0 8088.0 0.0 332561.0 325391.0 186590.0 188543.0 227014.0 220086.0 202382.0 197213.0 207299.0 212921.0 275344.0 267381.0 281835.0 281856.0 228476.0 220664.0 174711.0 176493.0 241479.0 241071.0 324751.0 329457.0 362087.0 356391.0 261327.0 255404.0 165074.0 162298.0 232118.0 224578.0 136137.0 141844.0 164973.0 165894.0 105813.0 97687.0 260928.0 263211.0 100135.0 94558.0 164684.0 171646.0 342466.0 334815.0 159479.0 154542.0 106284.0 113228.0 194787.0 195279.0 26743.0 34774.0 281773.0 287424.0 178480.0 170611.0 215347.0 210632.0 283373.0 250835.0 283373.0 283373.0 283373.0 283373.0 283373.0 283373.0 283373.0 250835.0 250835.0 250835.0 250835.0 250835.0 250835.0 250835.0
306006.0 310306.0 41035.0 43250.0 60542.0 62504.0 282003.0 275258.0 229697.0 237039.0 84356.0 79828.0 336065.0 344049.0 385848.0 378515.0 37772.0 45511.0 341524.0 343091.0 326258.0 332561.0 0.0 8235.0 245564.0 237610.0 349891.0 342996.0 152736.0 152836.0 302930.0 309944.0 66330.0 73615.0 117041.0 109278.0 121574.0 128799.0 346379.0 354469.0 347715.0 340018.0 37325.0 30334.0 38726.0 30736.0 380746.0 382597.0 220012.0 228019.0 330239.0 324586.0 355918.0 351927.0 299566.0 307585.0 319626.0 317968.0 327120.0 334812.0 285327.0 281789.0 311819.0 317570.0 9922.0 2881.0 266389.0 260956.0 335401.0 332718.0 292640.0 284740.0 352728.0 359748.0 390186.0 397890.0 271692.0 273987.0 189764.0 192242.0 320764.0 164164.0 320764.0 320764.0 320764.0 320764.0 320764.0 320764.0 320764.0 164164.0 164164.0 164164.0 164164.0 164164.0 164164.0 164164.0
297825.0 302149.0 34353.0 35737.0 56123.0 57170.0 273770.0 267023.0 221480.0 228830.0 76973.0 72147.0 327850.0 335833.0 377913.0 370580.0 38521.0 45743.0 333880.0 335377.0 319152.0 325391.0 8235.0 0.0 237356.0 229402.0 341776.0 334862.0 144539.0 144693.0 294791.0 301823.0 58100.0 65409.0 109680.0 101845.0 113360.0 120605.0 338145.0 346235.0 339678.0 331996.0 32114.0 26140.0 42065.0 34444.0 372734.0 374547.0 211791.0 219797.0 322186.0 316503.0 347740.0 343730.0 291332.0 299351.0 311534.0 309918.0 319185.0 326877.0 277297.0 273810.0 303584.0 309338.0 17704.0 9697.0 258155.0 252728.0 327316.0 324599.0 284460.0 276564.0 345356.0 352334.0 382275.0 389988.0 263472.0 265756.0 181620.0 184074.0 312829.0 156343.0 312829.0 312829.0 312829.0 312829.0 312829.0 312829.0 312829.0 156343.0 156343.0 156343.0 156343.0 156343.0 156343.0 156343.0
61192.0 66624.0 210126.0 204689.0 212021.0 203854.0 39850.0 35552.0 37608.0 38559.0 169174.0 170021.0 99634.0 107245.0 156919.0 151377.0 244871.0 243400.0 161995.0 157951.0 186069.0 186590.0 245564.0 237356.0 0.0 7968.0 107643.0 99965.0 98550.0 102338.0 60659.0 68619.0 179769.0 173238.0 142895.0 147745.0 126544.0 120781.0 102687.0 110852.0 109870.0 103543.0 218854.0 226365.0 257676.0 255554.0 142993.0 142834.0 40587.0 35653.0 92362.0 85027.0 124268.0 117772.0 57068.0 64723.0 104206.0 108006.0 103548.0 109776.0 88154.0 92418.0 69263.0 73539.0 254187.0 246457.0 31702.0 33315.0 117828.0 111494.0 48009.0 40542.0 188840.0 191515.0 157259.0 165087.0 26648.0 31099.0 57655.0 54240.0 110237.0 93760.0 110237.0 110237.0 110237.0 110237.0 110237.0 110237.0 110237.0 93760.0 93760.0 93760.0 93760.0 93760.0 93760.0 93760.0
68970.0 74218.0 202163.0 196721.0 204128.0 195961.0 47313.0 42500.0 34895.0 37448.0 161265.0 162072.0 106856.0 114539.0 163302.0 157560.0 236942.0 235500.0 165583.0 161847.0 187688.0 188543.0 237610.0 229402.0 7968.0 0.0 115147.0 107548.0 91033.0 95033.0 67994.0 75854.0 171840.0 165333.0 135177.0 139944.0 118742.0 113063.0 110548.0 118715.0 116891.0 110380.0 210898.0 218405.0 249740.0 247600.0 150127.0 150157.0 36044.0 32426.0 99291.0 92118.0 131218.0 124892.0 64706.0 72437.0 109554.0 112937.0 108971.0 115436.0 91340.0 95019.0 76958.0 81396.0 246225.0 238497.0 37469.0 37651.0 123565.0 117463.0 55724.0 48132.0 191858.0 194823.0 164015.0 171862.0 34546.0 38598.0 49813.0 46323.0 113779.0 86341.0 113779.0 113779.0 113779.0 113779.0 113779.0 113779.0 113779.0 86341.0 86341.0 86341.0 86341.0 86341.0 86341.0 86341.0
47510.0 41095.0 312399.0 307747.0 311625.0 303458.0 82931.0 90597.0 137235.0 133227.0 269469.0 271751.0 81794.0 82123.0 62876.0 61806.0 344912.0 343013.0 186264.0 178880.0 230311.0 227014.0 349891.0 341776.0 107643.0 115147.0 0.0 8311.0 206168.0 209938.0 47332.0 39973.0 285172.0 279102.0 240124.0 245980.0 233467.0 228064.0 54856.0 56682.0 16906.0 21829.0 320441.0 328262.0 357864.0 356733.0 38285.0 35992.0 144195.0 136964.0 23734.0 26252.0 100071.0 91934.0 71841.0 66820.0 121229.0 129412.0 51870.0 48634.0 138092.0 146229.0 66016.0 57825.0 358024.0 350527.0 100588.0 108707.0 122472.0 114829.0 59926.0 67110.0 216053.0 214544.0 57056.0 63989.0 85322.0 87260.0 160239.0 158075.0 89809.0 189257.0 89809.0 89809.0 89809.0 89809.0 89809.0 89809.0 89809.0 189257.0 189257.0 189257.0 189257.0 189257.0 189257.0 189257.0
39439.0 33341.0 305754.0 300998.0 305245.0 297078.0 74630.0 82303.0 129077.0 124998.0 262998.0 265124.0 75620.0 76541.0 70430.0 68855.0 338563.0 336634.0 179821.0 172538.0 223236.0 220086.0 342996.0 334862.0 99965.0 107548.0 8311.0 0.0 198516.0 202177.0 40095.0 33181.0 278075.0 271925.0 233752.0 239580.0 226062.0 220564.0 49713.0 52549.0 21742.0 24033.0 313887.0 321678.0 351509.0 350259.0 46574.0 44242.0 136129.0 128848.0 21804.0 21648.0 95147.0 86847.0 63613.0 58744.0 114274.0 122410.0 52973.0 50905.0 130214.0 138323.0 58104.0 50010.0 351204.0 343670.0 92306.0 100418.0 116183.0 108437.0 52079.0 59430.0 209685.0 208380.0 65128.0 72160.0 77244.0 79032.0 153252.0 150968.0 88942.0 182886.0 88942.0 88942.0 88942.0 88942.0 88942.0 88942.0 88942.0 182886.0 182886.0 182886.0 182886.0 182886.0 182886.0 182886.0
159583.0 165175.0 122787.0 115945.0 132704.0 124431.0 131257.0 124087.0 77131.0 84352.0 90576.0 87564.0 183423.0 191398.0 252128.0 245746.0 160087.0 160702.0 199517.0 199418.0 197982.0 202382.0 152736.0 144539.0 98550.0 91033.0 206168.0 198516.0 0.0 8078.0 159014.0 166818.0 86635.0 79135.0 79946.0 79499.0 31341.0 23940.0 195117.0 203095.0 207529.0 200706.0 132449.0 138933.0 172044.0 168231.0 240891.0 241138.0 67587.0 75649.0 189828.0 182914.0 203250.0 199192.0 148473.0 156471.0 168106.0 167221.0 195156.0 202327.0 135224.0 132921.0 160515.0 166853.0 162071.0 154088.0 114725.0 108762.0 183936.0 180729.0 146517.0 139090.0 216894.0 222713.0 253949.0 261820.0 122852.0 123807.0 54855.0 54180.0 192960.0 64459.0 192960.0 192960.0 192960.0 192960.0 192960.0 192960.0 192960.0 64459.0 64459.0 64459.0 64459.0 64459.0 64459.0 64459.0
163021.0 168864.0 124575.0 117480.0 135981.0 127743.0 133497.0 126159.0 78317.0 85189.0 94548.0 90923.0 184096.0 192041.0 257140.0 250902.0 162068.0 163065.0 195880.0 196078.0 192604.0 197213.0 152836.0 144693.0 102338.0 95033.0 209938.0 202177.0 8078.0 0.0 162978.0 170880.0 87282.0 79539.0 86136.0 85153.0 32994.0 25041.0 196878.0 204780.0 211862.0 205193.0 134339.0 140539.0 173777.0 169640.0 245146.0 245159.0 69093.0 77147.0 194208.0 187135.0 203206.0 199452.0 150466.0 158422.0 167007.0 165732.0 200584.0 207660.0 133399.0 130635.0 162355.0 168949.0 162331.0 154320.0 116559.0 110216.0 182819.0 179939.0 150102.0 142832.0 212419.0 218412.0 258627.0 266493.0 125871.0 126336.0 61685.0 60636.0 199086.0 72531.0 199086.0 199086.0 199086.0 199086.0 199086.0 199086.0 199086.0 72531.0 72531.0 72531.0 72531.0 72531.0 72531.0 72531.0
11809.0 8746.0 265843.0 261011.0 265625.0 257458.0 44279.0 50762.0 92717.0 89825.0 223274.0 225240.0 76770.0 81521.0 98845.0 94388.0 298954.0 297014.0 171896.0 165604.0 209095.0 207299.0 302930.0 294791.0 60659.0 67994.0 47332.0 40095.0 159014.0 162978.0 0.0 8189.0 237982.0 231847.0 194242.0 200095.0 186136.0 180761.0 62600.0 69503.0 49678.0 44148.0 274057.0 281817.0 311889.0 310503.0 82453.0 82180.0 98744.0 91999.0 32781.0 24859.0 101896.0 93502.0 42378.0 42846.0 104994.0 112164.0 54323.0 57979.0 109758.0 117131.0 45489.0 41647.0 311171.0 303619.0 59566.0 67671.0 112253.0 104296.0 15109.0 20587.0 201607.0 201857.0 97645.0 105375.0 40995.0 45283.0 113173.0 110874.0 78028.0 143376.0 78028.0 78028.0 78028.0 78028.0 78028.0 78028.0 78028.0 143376.0 143376.0 143376.0 143376.0 143376.0 143376.0 143376.0
16264.0 9037.0 272590.0 267867.0 272073.0 263906.0 51732.0 58464.0 100906.0 97983.0 229817.0 231956.0 78919.0 83006.0 90719.0 86368.0 305394.0 303461.0 176609.0 170121.0 214935.0 212921.0 309944.0 301823.0 68619.0 75854.0 39973.0 33181.0 166818.0 170880.0 8189.0 0.0 245203.0 239151.0 200588.0 206428.0 193683.0 188406.0 61940.0 68249.0 41512.0 35979.0 280708.0 288503.0 318339.0 317078.0 74395.0 74320.0 106914.0 100185.0 24616.0 16672.0 103361.0 94867.0 48055.0 47388.0 109557.0 116962.0 48052.0 51062.0 116249.0 123771.0 49436.0 44415.0 318108.0 310594.0 67472.0 75611.0 115901.0 107904.0 23127.0 28758.0 206437.0 206420.0 89457.0 97190.0 49142.0 53221.0 120267.0 118114.0 74759.0 149722.0 74759.0 74759.0 74759.0 74759.0 74759.0 74759.0 74759.0 149722.0 149722.0 149722.0 149722.0 149722.0 149722.0 149722.0
240544.0 245127.0 39621.0 31803.0 59713.0 52958.0 215770.0 208977.0 163424.0 170813.0 39024.0 30639.0 269791.0 277777.0 323647.0 316370.0 76763.0 79236.0 280033.0 280979.0 269657.0 275344.0 66330.0 58100.0 179769.0 171840.0 285172.0 278075.0 86635.0 87282.0 237982.0 245203.0 0.0 8032.0 65726.0 57816.0 55350.0 62761.0 280120.0 288200.0 283865.0 276351.0 49406.0 54438.0 87599.0 82828.0 317129.0 318562.0 153717.0 161714.0 266243.0 260255.0 289883.0 285763.0 233306.0 241327.0 254283.0 252978.0 264960.0 272629.0 220544.0 217468.0 245542.0 251367.0 75502.0 67550.0 200069.0 194630.0 270098.0 267145.0 227193.0 219354.0 293615.0 300235.0 327607.0 335395.0 205704.0 207814.0 124996.0 127110.0 258629.0 104040.0 258629.0 258629.0 258629.0 258629.0 258629.0 258629.0 258629.0 104040.0 104040.0 104040.0 104040.0 104040.0 104040.0 104040.0
234163.0 238882.0 47570.0 39792.0 66740.0 59666.0 208843.0 201979.0 156091.0 163424.0 41575.0 33199.0 262457.0 270439.0 318518.0 311330.0 84784.0 87184.0 272006.0 272963.0 261718.0 267381.0 73615.0 65409.0 173238.0 165333.0 279102.0 271925.0 79135.0 79539.0 231847.0 239151.0 8032.0 0.0 65027.0 57412.0 47970.0 55209.0 273142.0 281204.0 278120.0 270676.0 57380.0 62470.0 95627.0 90817.0 311440.0 312728.0 146422.0 154441.0 260461.0 254353.0 282366.0 278324.0 226336.0 234358.0 246542.0 245171.0 259908.0 267542.0 212700.0 209568.0 238543.0 244467.0 82941.0 74954.0 192979.0 187424.0 262351.0 259460.0 220828.0 213027.0 285598.0 292212.0 322238.0 330045.0 199018.0 200962.0 119121.0 121045.0 253719.0 100037.0 253719.0 253719.0 253719.0 253719.0 253719.0 253719.0 253719.0 100037.0 100037.0 100037.0 100037.0 100037.0 100037.0 100037.0
199262.0 202271.0 76416.0 73948.0 73021.0 64854.0 182407.0 176998.0 140161.0 148040.0 32708.0 38419.0 241253.0 249092.0 274420.0 267087.0 106350.0 104410.0 275863.0 274900.0 277659.0 281835.0 117041.0 109680.0 142895.0 135177.0 240124.0 233752.0 79946.0 86136.0 194242.0 200588.0 65726.0 65027.0 0.0 8101.0 61164.0 67063.0 245421.0 253571.0 236724.0 228899.0 82938.0 90970.0 119290.0 118287.0 269526.0 271689.0 130631.0 137464.0 219450.0 214279.0 264519.0 258865.0 199880.0 207605.0 235658.0 236491.0 215692.0 223384.0 206671.0 206034.0 212133.0 216321.0 123469.0 116900.0 169995.0 166800.0 251154.0 246497.0 186149.0 178163.0 295181.0 300610.0 278794.0 286523.0 169446.0 173738.0 85536.0 89488.0 209336.0 50865.0 209336.0 209336.0 209336.0 209336.0 209336.0 209336.0 209336.0 50865.0 50865.0 50865.0 50865.0 50865.0 50865.0 50865.0
204930.0 208096.0 68834.0 66108.0 65941.0 57773.0 187017.0 181405.0 143167.0 151053.0 24935.0 30346.0 245473.0 253353.0 280276.0 272943.0 99269.0 97329.0 277180.0 276450.0 277480.0 281856.0 109278.0 101845.0 147745.0 139944.0 245980.0 239580.0 79499.0 85153.0 200095.0 206428.0 57816.0 57412.0 8101.0 0.0 57972.0 64480.0 250407.0 258568.0 242580.0 234756.0 75664.0 83676.0 112209.0 111207.0 275382.0 277545.0 133515.0 140576.0 225307.0 220135.0 268413.0 262932.0 204571.0 212361.0 238631.0 239201.0 221548.0 229241.0 208925.0 207978.0 216865.0 221270.0 115871.0 109199.0 174119.0 170614.0 254219.0 249758.0 191747.0 183750.0 295847.0 301436.0 284651.0 292379.0 174366.0 178399.0 90144.0 93881.0 215192.0 57106.0 215192.0 215192.0 215192.0 215192.0 215192.0 215192.0 215192.0 57106.0 57106.0 57106.0 57106.0 57106.0 57106.0 57106.0
187711.0 192813.0 91700.0 84728.0 103285.0 95087.0 161202.0 154236.0 108123.0 115476.0 62806.0 58446.0 214491.0 222474.0 276117.0 269310.0 129139.0 130072.0 228667.0 228982.0 223525.0 228476.0 121574.0 113360.0 126544.0 118742.0 233467.0 226062.0 31341.0 32994.0 186136.0 193683.0 55350.0 47970.0 61164.0 57972.0 0.0 7996.0 225396.0 233434.0 233565.0 226391.0 101430.0 107758.0 140943.0 136986.0 266985.0 267782.0 98453.0 106475.0 215833.0 209335.0 234548.0 230415.0 178620.0 186639.0 199364.0 198346.0 218090.0 225534.0 166172.0 163564.0 190782.0 196845.0 130837.0 122870.0 145128.0 139483.0 215193.0 212049.0 174455.0 166785.0 244569.0 250725.0 278906.0 286763.0 151859.0 153455.0 75497.0 76519.0 213451.0 68145.0 213451.0 213451.0 213451.0 213451.0 213451.0 213451.0 213451.0 68145.0 68145.0 68145.0 68145.0 68145.0 68145.0 68145.0
181971.0 187258.0 99564.0 92526.0 111265.0 103062.0 154697.0 147631.0 101031.0 108285.0 70579.0 66381.0 207352.0 215328.0 271869.0 265194.0 137038.0 138031.0 220673.0 220989.0 215766.0 220664.0 128799.0 120605.0 120781.0 113063.0 228064.0 220564.0 23940.0 25041.0 180761.0 188406.0 62761.0 55209.0 67063.0 64480.0 7996.0 0.0 218748.0 226755.0 228607.0 221547.0 109315.0 115574.0 148788.0 144746.0 262028.0 262632.0 91438.0 99489.0 210872.0 204227.0 227158.0 223128.0 172026.0 180037.0 191670.0 190568.0 214127.0 221494.0 158334.0 155658.0 184132.0 190332.0 138150.0 130163.0 138393.0 132571.0 207496.0 204433.0 168775.0 161186.0 236634.0 242771.0 274342.0 282208.0 145749.0 147079.0 71629.0 72212.0 210164.0 68493.0 210164.0 210164.0 210164.0 210164.0 210164.0 210164.0 210164.0 68493.0 68493.0 68493.0 68493.0 68493.0 68493.0 68493.0
52222.0 54308.0 312171.0 306451.0 314666.0 306498.0 64400.0 71167.0 118672.0 112277.0 271776.0 272380.0 28607.0 27444.0 115563.0 115760.0 347363.0 346025.0 132565.0 124968.0 178638.0 174711.0 346379.0 338145.0 102687.0 110548.0 54856.0 49713.0 195117.0 196878.0 62600.0 61940.0 280120.0 273142.0 245421.0 250407.0 225396.0 218748.0 0.0 8167.0 71199.0 73531.0 321078.0 328474.0 360121.0 357786.0 86663.0 80714.0 127786.0 119730.0 68309.0 63515.0 45435.0 37153.0 46814.0 38794.0 70221.0 78462.0 100725.0 99853.0 94836.0 103034.0 34617.0 29152.0 355295.0 347448.0 80395.0 86726.0 68760.0 61512.0 62794.0 70108.0 162102.0 160219.0 107151.0 112713.0 76046.0 72611.0 160341.0 156852.0 134550.0 195588.0 134550.0 134550.0 134550.0 134550.0 134550.0 134550.0 134550.0 195588.0 195588.0 195588.0 195588.0 195588.0 195588.0 195588.0
59521.0 61030.0 320318.0 314588.0 322833.0 314665.0 72520.0 79227.0 126524.0 120038.0 279942.0 280540.0 31768.0 28523.0 115422.0 116221.0 355526.0 354192.0 133554.0 125797.0 180731.0 176493.0 354469.0 346235.0 110852.0 118715.0 56682.0 52549.0 203095.0 204780.0 69503.0 68249.0 288200.0 281204.0 253571.0 258568.0 233434.0 226755.0 8167.0 0.0 73436.0 76581.0 329233.0 336624.0 368283.0 365939.0 85767.0 79292.0 135700.0 127637.0 72404.0 68311.0 43832.0 36129.0 54908.0 46893.0 73408.0 81548.0 104752.0 103332.0 100117.0 108240.0 42661.0 37319.0 363398.0 355546.0 88372.0 94582.0 70211.0 63428.0 70506.0 77931.0 162771.0 160491.0 106276.0 111411.0 84210.0 80760.0 168507.0 165019.0 139846.0 203707.0 139846.0 139846.0 139846.0 139846.0 139846.0 139846.0 139846.0 203707.0 203707.0 203707.0 203707.0 203707.0 203707.0 203707.0
53694.0 46013.0 309425.0 305129.0 308229.0 300062.0 90674.0 98014.0 142298.0 139103.0 266115.0 268802.0 97360.0 98214.0 50867.0 48153.0 341557.0 339617.0 201492.0 194239.0 244492.0 241479.0 347715.0 339678.0 109870.0 116891.0 16906.0 21742.0 207529.0 211862.0 49678.0 41512.0 283865.0 278120.0 236724.0 242580.0 233565.0 228607.0 71199.0 73436.0 0.0 8219.0 317155.0 325061.0 354485.0 353356.0 33423.0 34976.0 148422.0 141647.0 17736.0 24884.0 116577.0 108350.0 82150.0 78285.0 135706.0 143795.0 36698.0 32446.0 150091.0 158089.0 78243.0 70488.0 355569.0 348216.0 107605.0 115804.0 137904.0 130140.0 64192.0 70265.0 231373.0 230110.0 48100.0 55760.0 90319.0 93622.0 159011.0 157314.0 76270.0 185857.0 76270.0 76270.0 76270.0 76270.0 76270.0 76270.0 76270.0 185857.0 185857.0 185857.0 185857.0 185857.0 185857.0 185857.0
49626.0 41667.0 301606.0 297368.0 300405.0 292238.0 86654.0 93774.0 136825.0 133962.0 258291.0 260999.0 98469.0 99972.0 54824.0 50956.0 333733.0 331793.0 201893.0 194794.0 243829.0 241071.0 340018.0 331996.0 103543.0 110380.0 21829.0 24033.0 200706.0 205193.0 44148.0 35979.0 276351.0 270676.0 228899.0 234756.0 226391.0 221547.0 73531.0 76581.0 8219.0 0.0 309287.0 317204.0 346660.0 345532.0 40779.0 42940.0 142621.0 136035.0 11368.0 19464.0 118938.0 110571.0 79535.0 76392.0 135540.0 143516.0 30063.0 27031.0 148015.0 155896.0 76826.0 69476.0 347823.0 340495.0 103110.0 111291.0 138674.0 130806.0 59052.0 64597.0 231833.0 230855.0 53744.0 61555.0 85119.0 88954.0 151612.0 150023.0 68795.0 178033.0 68795.0 68795.0 68795.0 68795.0 68795.0 68795.0 68795.0 178033.0 178033.0 178033.0 178033.0 178033.0 178033.0 178033.0
278073.0 281792.0 9862.0 17613.0 24271.0 25194.0 256812.0 250507.0 207357.0 215021.0 51149.0 48906.0 313111.0 321093.0 354891.0 347559.0 27746.0 29861.0 328881.0 329614.0 319055.0 324751.0 37325.0 32114.0 218854.0 210898.0 320441.0 313887.0 132449.0 134339.0 274057.0 280708.0 49406.0 57380.0 82938.0 75664.0 101430.0 109315.0 321078.0 329233.0 317155.0 309287.0 0.0 8039.0 39645.0 36710.0 349997.0 352128.0 197519.0 205307.0 299920.0 294708.0 334382.0 329741.0 274483.0 282445.0 300475.0 299670.0 296163.0 303856.0 267588.0 264972.0 286823.0 291993.0 41568.0 36274.0 242231.0 237535.0 316303.0 312893.0 264751.0 256770.0 342918.0 349486.0 359266.0 366994.0 245393.0 248476.0 161674.0 164705.0 289808.0 132322.0 289808.0 289808.0 289808.0 289808.0 289808.0 289808.0 289808.0 132322.0 132322.0 132322.0 132322.0 132322.0 132322.0 132322.0
285744.0 289521.0 16346.0 23063.0 30237.0 32462.0 264166.0 257804.0 214296.0 221923.0 59099.0 56587.0 320211.0 328197.0 362776.0 355443.0 22520.0 26510.0 334431.0 335303.0 323646.0 329457.0 30334.0 26140.0 226365.0 218405.0 328262.0 321678.0 138933.0 140539.0 281817.0 288503.0 54438.0 62470.0 90970.0 83676.0 107758.0 115574.0 328474.0 336624.0 325061.0 317204.0 8039.0 0.0 33281.0 29455.0 357749.0 360033.0 204468.0 212296.0 307806.0 302559.0 341301.0 336746.0 281833.0 289807.0 307034.0 306101.0 304048.0 311740.0 273908.0 271145.0 294169.0 299411.0 33796.0 28991.0 249447.0 244651.0 322865.0 319559.0 272412.0 264437.0 347994.0 354645.0 367151.0 374879.0 252872.0 255865.0 169296.0 172267.0 297692.0 140267.0 297692.0 297692.0 297692.0 297692.0 297692.0 297692.0 297692.0 140267.0 140267.0 140267.0 140267.0 140267.0 140267.0 140267.0
316323.0 319779.0 49257.0 56333.0 49264.0 55828.0 295959.0 289755.0 246955.0 254633.0 88714.0 87755.0 352586.0 360564.0 392181.0 384848.0 12954.0 17418.0 367632.0 368548.0 356165.0 362087.0 38726.0 42065.0 257676.0 249740.0 357864.0 351509.0 172044.0 173777.0 311889.0 318339.0 87599.0 95627.0 119290.0 112209.0 140943.0 148788.0 360121.0 368283.0 354485.0 346660.0 39645.0 33281.0 0.0 8049.0 387287.0 389450.0 237113.0 244880.0 337211.0 331939.0 373979.0 369290.0 313630.0 321570.0 340102.0 339254.0 333453.0 341145.0 307114.0 304399.0 325974.0 331000.0 32595.0 35851.0 281594.0 277008.0 355932.0 352537.0 303048.0 295053.0 380929.0 387638.0 396555.0 404284.0 284277.0 287561.0 200238.0 203445.0 327097.0 170417.0 327097.0 327097.0 327097.0 327097.0 327097.0 327097.0 327097.0 170417.0 170417.0 170417.0 170417.0 170417.0 170417.0 170417.0
314659.0 318295.0 45796.0 52291.0 50233.0 55954.0 293511.0 287186.0 243747.0 251368.0 87266.0 85560.0 349661.0 357647.0 391052.0 383719.0 14310.0 21292.0 362682.0 363738.0 350383.0 356391.0 30736.0 34444.0 255554.0 247600.0 356733.0 350259.0 168231.0 169640.0 310503.0 317078.0 82828.0 90817.0 118287.0 111207.0 136986.0 144746.0 357786.0 365939.0 353356.0 345532.0 36710.0 29455.0 8049.0 0.0 386158.0 388321.0 233920.0 241751.0 335990.0 330910.0 370747.0 366201.0 311181.0 319146.0 336334.0 335314.0 332324.0 340017.0 303039.0 300148.0 323520.0 328702.0 24611.0 27857.0 278867.0 274098.0 352164.0 348917.0 301348.0 293362.0 375532.0 382312.0 395427.0 403155.0 282099.0 285182.0 198322.0 201389.0 325969.0 168223.0 325969.0 325969.0 325969.0 325969.0 325969.0 325969.0 325969.0 168223.0 168223.0 168223.0 168223.0 168223.0 168223.0 168223.0
84849.0 77725.0 342213.0 338045.0 341031.0 332864.0 121011.0 128618.0 174461.0 170819.0 298917.0 301633.0 115135.0 113803.0 30724.0 34118.0 374359.0 372419.0 219114.0 211435.0 265113.0 261327.0 380746.0 372734.0 142993.0 150127.0 38285.0 46574.0 240891.0 245146.0 82453.0 74395.0 317129.0 311440.0 269526.0 275382.0 266985.0 262028.0 86663.0 85767.0 33423.0 40779.0 349997.0 357749.0 387287.0 386158.0 0.0 8242.0 180977.0 173992.0 51159.0 58012.0 129183.0 121821.0 110090.0 104854.0 156177.0 164436.0 60227.0 53103.0 175553.0 183747.0 103759.0 95434.0 388511.0 381206.0 138521.0 146680.0 155397.0 148170.0 96426.0 102971.0 248483.0 246258.0 20518.0 26335.0 122376.0 124932.0 192356.0 190707.0 100102.0 218659.0 100102.0 100102.0 100102.0 100102.0 100102.0 100102.0 100102.0 218659.0 218659.0 218659.0 218659.0 218659.0 218659.0 218659.0
83427.0 76720.0 344385.0 340060.0 343194.0 335027.0 118825.0 126520.0 173187.0 169218.0 301081.0 303757.0 109301.0 107574.0 38616.0 42335.0 376523.0 374583.0 212827.0 205087.0 259348.0 255404.0 382597.0 374547.0 142834.0 150157.0 35992.0 44242.0 241138.0 245159.0 82180.0 74320.0 318562.0 312728.0 271689.0 277545.0 267782.0 262632.0 80714.0 79292.0 34976.0 42940.0 352128.0 360033.0 389450.0 388321.0 8242.0 0.0 180037.0 172872.0 52363.0 58451.0 122370.0 115182.0 106980.0 101323.0 150652.0 158914.0 65458.0 58704.0 171238.0 179465.0 99912.0 91522.0 390489.0 383117.0 136541.0 144642.0 149271.0 142178.0 95562.0 102465.0 242055.0 239669.0 27458.0 32119.0 121207.0 123251.0 193611.0 191773.0 105724.0 220823.0 105724.0 105724.0 105724.0 105724.0 105724.0 105724.0 105724.0 220823.0 220823.0 220823.0 220823.0 220823.0 220823.0 220823.0
96695.0 103351.0 188143.0 181786.0 194300.0 186089.0 64704.0 57220.0 9847.0 17644.0 151139.0 150093.0 116082.0 124070.0 196699.0 191436.0 224730.0 224461.0 149462.0 147302.0 163005.0 165074.0 220012.0 211791.0 40587.0 36044.0 144195.0 136129.0 67587.0 69093.0 98744.0 106914.0 153717.0 146422.0 130631.0 133515.0 98453.0 91438.0 127786.0 135700.0 148422.0 142621.0 197519.0 204468.0 237113.0 233920.0 180977.0 180037.0 0.0 8071.0 131294.0 123574.0 136866.0 132305.0 81430.0 89362.0 105116.0 105875.0 144121.0 150280.0 76952.0 77598.0 93267.0 99951.0 229214.0 221268.0 47493.0 41196.0 120720.0 116437.0 84563.0 78158.0 172627.0 176813.0 196315.0 204077.0 58884.0 58055.0 51276.0 46483.0 149818.0 89199.0 149818.0 149818.0 149818.0 149818.0 149818.0 149818.0 149818.0 89199.0 89199.0 89199.0 89199.0 89199.0 89199.0 89199.0
89457.0 96284.0 195964.0 189656.0 201777.0 193584.0 56821.0 49280.0 3303.0 10701.0 158616.0 157725.0 108115.0 116105.0 190354.0 185272.0 232460.0 232106.0 144756.0 142255.0 160598.0 162298.0 228019.0 219797.0 35653.0 32426.0 136964.0 128848.0 75649.0 77147.0 91999.0 100185.0 161714.0 154441.0 137464.0 140576.0 106475.0 99489.0 119730.0 127637.0 141647.0 136035.0 205307.0 212296.0 244880.0 241751.0 173992.0 172872.0 8071.0 0.0 124681.0 116858.0 129125.0 124451.0 73428.0 81344.0 98203.0 99318.0 138676.0 144636.0 71388.0 72709.0 85226.0 91961.0 237204.0 229263.0 39482.0 33126.0 113696.0 109193.0 77582.0 71450.0 168717.0 172619.0 189642.0 197372.0 51668.0 50388.0 56234.0 51474.0 145762.0 94711.0 145762.0 145762.0 145762.0 145762.0 145762.0 145762.0 145762.0 94711.0 94711.0 94711.0 94711.0 94711.0 94711.0 94711.0
38659.0 30629.0 292110.0 287732.0 290956.0 282789.0 75577.0 82607.0 125461.0 122599.0 248815.0 251469.0 91445.0 93695.0 66132.0 62019.0 324284.0 322344.0 193737.0 186804.0 234655.0 232118.0 330239.0 322186.0 92362.0 99291.0 23734.0 21804.0 189828.0 194208.0 32781.0 24616.0 266243.0 260461.0 219450.0 225307.0 215833.0 210872.0 68309.0 72404.0 17736.0 11368.0 299920.0 307806.0 337211.0 335990.0 51159.0 52363.0 131294.0 124681.0 0.0 8263.0 113264.0 104779.0 69241.0 66647.0 126993.0 134840.0 32420.0 32081.0 137884.0 145675.0 67471.0 60561.0 338149.0 330766.0 91860.0 100032.0 131052.0 123106.0 47708.0 53237.0 223693.0 223002.0 65030.0 72816.0 73758.0 77672.0 141342.0 139607.0 67138.0 168584.0 67138.0 67138.0 67138.0 67138.0 67138.0 67138.0 67138.0 168584.0 168584.0 168584.0 168584.0 168584.0 168584.0 168584.0
30404.0 22368.0 286769.0 282248.0 285737.0 277570.0 67316.0 74362.0 117570.0 114573.0 243667.0 246115.0 85226.0 87959.0 74288.0 70271.0 319066.0 317126.0 186639.0 179804.0 227007.0 224578.0 324586.0 316503.0 85027.0 92118.0 26252.0 21648.0 182914.0 187135.0 24859.0 16672.0 260255.0 254353.0 214279.0 220135.0 209335.0 204227.0 63515.0 68311.0 24884.0 19464.0 294708.0 302559.0 331939.0 330910.0 58012.0 58451.0 123574.0 116858.0 8263.0 0.0 107839.0 99312.0 61178.0 58858.0 119743.0 127507.0 37989.0 38857.0 129841.0 137596.0 59898.0 53288.0 332605.0 325165.0 83653.0 91832.0 124336.0 116358.0 39627.0 45425.0 216586.0 216055.0 72786.0 80519.0 65730.0 69490.0 135264.0 133352.0 69266.0 163413.0 69266.0 69266.0 69266.0 69266.0 69266.0 69266.0 69266.0 163413.0 163413.0 163413.0 163413.0 163413.0 163413.0 163413.0
90265.0 94739.0 324986.0 318556.0 330633.0 322483.0 84949.0 88751.0 127025.0 119379.0 287512.0 286823.0 25962.0 20386.0 159129.0 160049.0 361582.0 361205.0 91867.0 83885.0 141133.0 136137.0 355918.0 347740.0 124268.0 131218.0 100071.0 95147.0 203250.0 203206.0 101896.0 103361.0 289883.0 282366.0 264519.0 268413.0 234548.0 227158.0 45435.0 43832.0 116577.0 118938.0 334382.0 341301.0 373979.0 370747.0 129183.0 122370.0 136866.0 129125.0 113264.0 107839.0 0.0 8540.0 69662.0 63855.0 43080.0 49438.0 145570.0 145074.0 78079.0 84941.0 59633.0 60697.0 365307.0 357316.0 94680.0 97802.0 32474.0 28944.0 97095.0 102686.0 120296.0 117481.0 149628.0 154407.0 99953.0 93577.0 179372.0 175184.0 177758.0 217268.0 177758.0 177758.0 177758.0 177758.0 177758.0 177758.0 177758.0 217268.0 217268.0 217268.0 217268.0 217268.0 217268.0 217268.0
81911.0 86274.0 320413.0 314091.0 325527.0 317366.0 78161.0 82397.0 122500.0 114984.0 282415.0 281931.0 18387.0 12006.0 151551.0 152267.0 356821.0 356289.0 98104.0 90223.0 146543.0 141844.0 351927.0 343730.0 117772.0 124892.0 91934.0 86847.0 199192.0 199452.0 93502.0 94867.0 285763.0 278324.0 258865.0 262932.0 230415.0 223128.0 37153.0 36129.0 108350.0 110571.0 329741.0 336746.0 369290.0 366201.0 121821.0 115182.0 132305.0 124451.0 104779.0 99312.0 8540.0 0.0 62327.0 56175.0 44241.0 51437.0 137065.0 136626.0 77651.0 84957.0 51850.0 52477.0 361246.0 353271.0 88870.0 92510.0 36330.0 31137.0 89034.0 94804.0 126982.0 124486.0 142311.0 147279.0 92958.0 86862.0 173515.0 169413.0 169228.0 211139.0 169228.0 169228.0 169228.0 169228.0 169228.0 169228.0 169228.0 211139.0 211139.0 211139.0 211139.0 211139.0 211139.0 211139.0
31799.0 39577.0 265516.0 259730.0 268437.0 260270.0 17672.0 24395.0 72630.0 66773.0 225479.0 225874.0 43941.0 51065.0 132958.0 130143.0 300912.0 299730.0 129826.0 123742.0 166895.0 164973.0 299566.0 291332.0 57068.0 64706.0 71841.0 63613.0 148473.0 150466.0 42378.0 48055.0 233306.0 226336.0 199880.0 204571.0 178620.0 172026.0 46814.0 54908.0 82150.0 79535.0 274483.0 281833.0 313630.0 311181.0 110090.0 106980.0 81430.0 73428.0 69241.0 61178.0 69662.0 62327.0 0.0 8022.0 63304.0 70138.0 96106.0 98891.0 68664.0 76435.0 12345.0 18555.0 308490.0 300639.0 33946.0 40942.0 72287.0 64589.0 31313.0 34713.0 159419.0 159893.0 128651.0 135763.0 31028.0 26175.0 114433.0 110739.0 119700.0 150783.0 119700.0 119700.0 119700.0 119700.0 119700.0 119700.0 119700.0 150783.0 150783.0 150783.0 150783.0 150783.0 150783.0 150783.0
31379.0 38479.0 273492.0 267722.0 276316.0 268149.0 25644.0 32408.0 80486.0 74495.0 233373.0 233815.0 37907.0 44575.0 128811.0 126435.0 308843.0 307627.0 129249.0 122840.0 168189.0 165894.0 307585.0 299351.0 64723.0 72437.0 66820.0 58744.0 156471.0 158422.0 42846.0 47388.0 241327.0 234358.0 207605.0 212361.0 186639.0 180037.0 38794.0 46893.0 78285.0 76392.0 282445.0 289807.0 321570.0 319146.0 104854.0 101323.0 89362.0 81344.0 66647.0 58858.0 63855.0 56175.0 8022.0 0.0 62234.0 69576.0 95145.0 97325.0 71807.0 79814.0 4579.0 10884.0 316506.0 308656.0 41870.0 48685.0 69634.0 61738.0 34175.0 38991.0 159056.0 159122.0 123858.0 130796.0 38386.0 34033.0 122217.0 118572.0 120848.0 158330.0 120848.0 120848.0 120848.0 120848.0 120848.0 120848.0 120848.0 158330.0 158330.0 158330.0 158330.0 158330.0 158330.0 158330.0
93613.0 100582.0 290859.0 284050.0 298855.0 290603.0 71050.0 71010.0 95504.0 87621.0 255761.0 254189.0 41764.0 45604.0 183884.0 183013.0 328029.0 328286.0 67066.0 60613.0 109123.0 105813.0 319626.0 311534.0 104206.0 109554.0 121229.0 114274.0 168106.0 167007.0 104994.0 109557.0 254283.0 246542.0 235658.0 238631.0 199364.0 191670.0 70221.0 73408.0 135706.0 135540.0 300475.0 307034.0 340102.0 336334.0 156177.0 150652.0 105116.0 98203.0 126993.0 119743.0 43080.0 44241.0 63304.0 62234.0 0.0 8262.0 156964.0 158588.0 35972.0 42191.0 60214.0 66464.0 329211.0 321194.0 72511.0 72166.0 15831.0 14420.0 94591.0 97198.0 96950.0 96889.0 176502.0 182435.0 85814.0 77901.0 152954.0 148375.0 182844.0 191700.0 182844.0 182844.0 182844.0 182844.0 182844.0 182844.0 182844.0 191700.0 191700.0 191700.0 191700.0 191700.0 191700.0 191700.0
100913.0 108027.0 289997.0 283073.0 298718.0 290449.0 76638.0 75925.0 96469.0 88638.0 255716.0 253876.0 49967.0 53570.0 192100.0 191182.0 327300.0 327758.0 59734.0 53630.0 100910.0 97687.0 317968.0 309918.0 108006.0 112937.0 129412.0 122410.0 167221.0 165732.0 112164.0 116962.0 252978.0 245171.0 236491.0 239201.0 198346.0 190568.0 78462.0 81548.0 143795.0 143516.0 299670.0 306101.0 339254.0 335314.0 164436.0 158914.0 105875.0 99318.0 134840.0 127507.0 49438.0 51437.0 70138.0 69576.0 8262.0 0.0 164555.0 166324.0 32794.0 37821.0 67784.0 74279.0 327615.0 319597.0 76475.0 75308.0 18776.0 20534.0 101294.0 103510.0 89483.0 89758.0 184756.0 190696.0 91035.0 83021.0 154796.0 150148.0 189830.0 193544.0 189830.0 189830.0 189830.0 189830.0 189830.0 189830.0 189830.0 193544.0 193544.0 193544.0 193544.0 193544.0 193544.0 193544.0
64315.0 56728.0 288399.0 284237.0 287197.0 279030.0 98186.0 104091.0 140140.0 138926.0 245084.0 247799.0 123214.0 125843.0 58761.0 51422.0 320526.0 318586.0 224004.0 217312.0 262985.0 260928.0 327120.0 319185.0 103548.0 108971.0 51870.0 52973.0 195156.0 200584.0 54323.0 48052.0 264960.0 259908.0 215692.0 221548.0 218090.0 214127.0 100725.0 104752.0 36698.0 30063.0 296163.0 304048.0 333453.0 332324.0 60227.0 65458.0 144121.0 138676.0 32420.0 37989.0 145570.0 137065.0 96106.0 95145.0 156964.0 164555.0 0.0 7799.0 164066.0 171454.0 96776.0 90753.0 334715.0 327491.0 111975.0 119746.0 162159.0 154167.0 68519.0 71040.0 253912.0 253603.0 64297.0 71739.0 91954.0 97835.0 142610.0 141938.0 40422.0 164826.0 40422.0 40422.0 40422.0 40422.0 40422.0 40422.0 40422.0 164826.0 164826.0 164826.0 164826.0 164826.0 164826.0 164826.0
67169.0 59314.0 296091.0 291929.0 294890.0 286722.0 102210.0 108426.0 145993.0 144489.0 252776.0 255492.0 123525.0 125676.0 51038.0 43823.0 328218.0 326278.0 225496.0 218650.0 265488.0 263211.0 334812.0 326877.0 109776.0 115436.0 48634.0 50905.0 202327.0 207660.0 57979.0 51062.0 272629.0 267542.0 223384.0 229241.0 225534.0 221494.0 99853.0 103332.0 32446.0 27031.0 303856.0 311740.0 341145.0 340017.0 53103.0 58704.0 150280.0 144636.0 32081.0 38857.0 145074.0 136626.0 98891.0 97325.0 158588.0 166324.0 7799.0 0.0 167297.0 174832.0 98619.0 92142.0 342407.0 335183.0 116666.0 124563.0 163058.0 155097.0 72648.0 75833.0 255443.0 254889.0 56518.0 63944.0 96909.0 102427.0 150040.0 149286.0 47048.0 172518.0 47048.0 47048.0 47048.0 47048.0 47048.0 47048.0 47048.0 172518.0 172518.0 172518.0 172518.0 172518.0 172518.0 172518.0
100148.0 108088.0 257872.0 250857.0 267337.0 259057.0 67156.0 63205.0 68258.0 60822.0 224505.0 222338.0 69414.0 75601.0 200528.0 198242.0 295270.0 295917.0 74380.0 71185.0 100784.0 100135.0 285327.0 277297.0 88154.0 91340.0 138092.0 130214.0 135224.0 133399.0 109758.0 116249.0 220544.0 212700.0 206671.0 208925.0 166172.0 158334.0 94836.0 100117.0 150091.0 148015.0 267588.0 273908.0 307114.0 303039.0 175553.0 171238.0 76952.0 71388.0 137884.0 129841.0 78079.0 77651.0 68664.0 71807.0 35972.0 32794.0 164066.0 167297.0 0.0 8254.0 72110.0 80270.0 294998.0 286982.0 59471.0 55149.0 51035.0 50272.0 96188.0 95827.0 100686.0 103485.0 195082.0 201772.0 78364.0 70543.0 127622.0 122860.0 183973.0 166018.0 183973.0 183973.0 183973.0 183973.0 183973.0 183973.0 183973.0 166018.0 166018.0 166018.0 166018.0 166018.0 166018.0 166018.0
107745.0 115722.0 255209.0 248082.0 265445.0 257163.0 74013.0 69591.0 69479.0 62428.0 222812.0 220352.0 77373.0 83392.0 208594.0 206230.0 292696.0 293555.0 72051.0 69705.0 94723.0 94558.0 281789.0 273810.0 92418.0 95019.0 146229.0 138323.0 132921.0 130635.0 117131.0 123771.0 217468.0 209568.0 206034.0 207978.0 163564.0 155658.0 103034.0 108240.0 158089.0 155896.0 264972.0 271145.0 304399.0 300148.0 183747.0 179465.0 77598.0 72709.0 145675.0 137596.0 84941.0 84957.0 76435.0 79814.0 42191.0 37821.0 171454.0 174832.0 8254.0 0.0 80224.0 88418.0 291514.0 283505.0 65037.0 59996.0 56516.0 56611.0 103324.0 102607.0 96957.0 100317.0 203238.0 209953.0 84495.0 76834.0 128744.0 123956.0 190633.0 166783.0 190633.0 190633.0 190633.0 190633.0 190633.0 190633.0 190633.0 166783.0 166783.0 166783.0 166783.0 166783.0 166783.0 166783.0
33796.0 40424.0 277849.0 272051.0 280773.0 272605.0 30016.0 36566.0 84272.0 78110.0 237819.0 238219.0 33672.0 40166.0 128449.0 126368.0 313257.0 312071.0 127278.0 120711.0 167185.0 164684.0 311819.0 303584.0 69263.0 76958.0 66016.0 58104.0 160515.0 162355.0 45489.0 49436.0 245542.0 238543.0 212133.0 216865.0 190782.0 184132.0 34617.0 42661.0 78243.0 76826.0 286823.0 294169.0 325974.0 323520.0 103759.0 99912.0 93267.0 85226.0 67471.0 59898.0 59633.0 51850.0 12345.0 4579.0 60214.0 67784.0 96776.0 98619.0 72110.0 80224.0 0.0 8408.0 320763.0 312905.0 45812.0 52373.0 66764.0 58808.0 37861.0 43069.0 157159.0 157015.0 123054.0 129856.0 42959.0 38494.0 126722.0 123054.0 123494.0 162894.0 123494.0 123494.0 123494.0 123494.0 123494.0 123494.0 123494.0 162894.0 162894.0 162894.0 162894.0 162894.0 162894.0 162894.0
29859.0 35411.0 283116.0 277447.0 285515.0 277347.0 35644.0 42796.0 91184.0 85297.0 242629.0 243267.0 35192.0 40485.0 120426.0 118533.0 318234.0 316877.0 133364.0 126584.0 174353.0 171646.0 317570.0 309338.0 73539.0 81396.0 57825.0 50010.0 166853.0 168949.0 41647.0 44415.0 251367.0 244467.0 216321.0 221270.0 196845.0 190332.0 29152.0 37319.0 70488.0 69476.0 291993.0 299411.0 331000.0 328702.0 95434.0 91522.0 99951.0 91961.0 60561.0 53288.0 60697.0 52477.0 18555.0 10884.0 66464.0 74279.0 90753.0 92142.0 80270.0 88418.0 8408.0 0.0 326430.0 318604.0 52486.0 59471.0 71617.0 63613.0 36756.0 43113.0 163306.0 162863.0 114820.0 121571.0 46904.0 43606.0 131192.0 127701.0 119091.0 166617.0 119091.0 119091.0 119091.0 119091.0 119091.0 119091.0 119091.0 166617.0 166617.0 166617.0 166617.0 166617.0 166617.0 166617.0
314445.0 318629.0 47053.0 50478.0 63039.0 66179.0 290901.0 284216.0 238926.0 246311.0 90958.0 87037.0 345291.0 353277.0 393443.0 386110.0 34804.0 42765.0 351420.0 352968.0 336153.0 342466.0 9922.0 17704.0 254187.0 246225.0 358024.0 351204.0 162071.0 162331.0 311171.0 318108.0 75502.0 82941.0 123469.0 115871.0 130837.0 138150.0 355295.0 363398.0 355569.0 347823.0 41568.0 33796.0 32595.0 24611.0 388511.0 390489.0 229214.0 237204.0 338149.0 332605.0 365307.0 361246.0 308490.0 316506.0 329211.0 327615.0 334715.0 342407.0 294998.0 291514.0 320763.0 326430.0 0.0 8018.0 275423.0 270082.0 344996.0 342255.0 301080.0 293158.0 362649.0 369669.0 397652.0 405328.0 280407.0 282830.0 198061.0 200651.0 328359.0 171494.0 328359.0 328359.0 328359.0 328359.0 328359.0 328359.0 328359.0 171494.0 171494.0 171494.0 171494.0 171494.0 171494.0 171494.0
306799.0 311038.0 40632.0 43364.0 59066.0 61365.0 283059.0 276352.0 230972.0 238346.0 84264.0 79988.0 337340.0 345326.0 386219.0 378886.0 35142.0 42934.0 343523.0 345042.0 328539.0 334815.0 2881.0 9697.0 246457.0 238497.0 350527.0 343670.0 154088.0 154320.0 303619.0 310594.0 67550.0 74954.0 116900.0 109199.0 122870.0 130163.0 347448.0 355546.0 348216.0 340495.0 36274.0 28991.0 35851.0 27857.0 381206.0 383117.0 221268.0 229263.0 330766.0 325165.0 357316.0 353271.0 300639.0 308656.0 321194.0 319597.0 327491.0 335183.0 286982.0 283505.0 312905.0 318604.0 8018.0 0.0 267531.0 262160.0 336979.0 334241.0 293433.0 285522.0 354886.0 361884.0 390511.0 398203.0 272638.0 275010.0 190475.0 193013.0 321135.0 164411.0 321135.0 321135.0 321135.0 321135.0 321135.0 321135.0 321135.0 164411.0 164411.0 164411.0 164411.0 164411.0 164411.0 164411.0
53946.0 61615.0 233104.0 227106.0 237097.0 228911.0 17932.0 10156.0 38736.0 33290.0 194027.0 193933.0 71372.0 79282.0 157924.0 153818.0 268983.0 268134.0 131830.0 127354.0 159759.0 159479.0 266389.0 258155.0 31702.0 37469.0 100588.0 92306.0 114725.0 116559.0 59566.0 67472.0 200069.0 192979.0 169995.0 174119.0 145128.0 138393.0 80395.0 88372.0 107605.0 103110.0 242231.0 249447.0 281594.0 278867.0 138521.0 136541.0 47493.0 39482.0 91860.0 83653.0 94680.0 88870.0 33946.0 41870.0 72511.0 76475.0 111975.0 116666.0 59471.0 65037.0 45812.0 52486.0 275423.0 267531.0 0.0 8199.0 86190.0 80001.0 44464.0 40935.0 159522.0 161691.0 155583.0 163098.0 20395.0 14296.0 84699.0 80552.0 126955.0 122677.0 126955.0 126955.0 126955.0 126955.0 126955.0 126955.0 126955.0 122677.0 122677.0 122677.0 122677.0 122677.0 122677.0 122677.0
62143.0 69813.0 228305.0 222159.0 233024.0 224856.0 25871.0 18128.0 31946.0 25832.0 189907.0 189506.0 75579.0 83558.0 166109.0 161971.0 264475.0 263831.0 128704.0 124639.0 154491.0 154542.0 260956.0 252728.0 33315.0 37651.0 108707.0 100418.0 108762.0 110216.0 67671.0 75611.0 194630.0 187424.0 166800.0 170614.0 139483.0 132571.0 86726.0 94582.0 115804.0 111291.0 237535.0 244651.0 277008.0 274098.0 146680.0 144642.0 41196.0 33126.0 100032.0 91832.0 97802.0 92510.0 40942.0 48685.0 72166.0 75308.0 119746.0 124563.0 55149.0 59996.0 52373.0 59471.0 270082.0 262160.0 8199.0 0.0 86597.0 80934.0 52563.0 48744.0 155765.0 158295.0 163780.0 171291.0 27840.0 22393.0 82098.0 77740.0 133796.0 120562.0 133796.0 133796.0 133796.0 133796.0 133796.0 133796.0 133796.0 120562.0 120562.0 120562.0 120562.0 120562.0 120562.0 120562.0
100546.0 106865.0 306689.0 299881.0 314613.0 306364.0 82567.0 83565.0 111055.0 103169.0 271506.0 269978.0 40687.0 41727.0 184223.0 184086.0 343854.0 344096.0 63868.0 56409.0 110635.0 106284.0 335401.0 327316.0 117828.0 123565.0 122472.0 116183.0 183936.0 182819.0 112253.0 115901.0 270098.0 262351.0 251154.0 254219.0 215193.0 207496.0 68760.0 70211.0 137904.0 138674.0 316303.0 322865.0 355932.0 352164.0 155397.0 149271.0 120720.0 113696.0 131052.0 124336.0 32474.0 36330.0 72287.0 69634.0 15831.0 18776.0 162159.0 163058.0 51035.0 56516.0 66764.0 71617.0 344996.0 336979.0 86190.0 86597.0 0.0 8004.0 103379.0 106929.0 93584.0 92219.0 175898.0 181351.0 97740.0 90072.0 168020.0 163486.0 190251.0 206726.0 190251.0 190251.0 190251.0 190251.0 190251.0 190251.0 190251.0 206726.0 206726.0 206726.0 206726.0 206726.0 206726.0 206726.0
92577.0 98868.0 303333.0 296627.0 310654.0 302424.0 75433.0 76815.0 106677.0 98807.0 267507.0 266195.0 33151.0 34920.0 176785.0 176516.0 340364.0 340440.0 71436.0 64101.0 117320.0 113228.0 332718.0 324599.0 111494.0 117463.0 114829.0 108437.0 180729.0 179939.0 104296.0 107904.0 267145.0 259460.0 246497.0 249758.0 212049.0 204433.0 61512.0 63428.0 130140.0 130806.0 312893.0 319559.0 352537.0 348917.0 148170.0 142178.0 116437.0 109193.0 123106.0 116358.0 28944.0 31137.0 64589.0 61738.0 14420.0 20534.0 154167.0 155097.0 50272.0 56611.0 58808.0 63613.0 342255.0 334241.0 80001.0 80934.0 8004.0 0.0 95581.0 99278.0 101253.0 100052.0 168648.0 174214.0 90690.0 83138.0 162779.0 158306.0 182282.0 201399.0 182282.0 182282.0 182282.0 182282.0 182282.0 182282.0 182282.0 201399.0 201399.0 201399.0 201399.0 201399.0 201399.0 201399.0
13366.0 18852.0 256302.0 251191.0 256905.0 248738.0 29667.0 35804.0 78139.0 74956.0 214333.0 215848.0 71235.0 77095.0 113835.0 109475.0 290151.0 288294.0 160875.0 154924.0 196260.0 194787.0 292640.0 284460.0 48009.0 55724.0 59926.0 52079.0 146517.0 150102.0 15109.0 23127.0 227193.0 220828.0 186149.0 191747.0 174455.0 168775.0 62794.0 70506.0 64192.0 59052.0 264751.0 272412.0 303048.0 301348.0 96426.0 95562.0 84563.0 77582.0 47708.0 39627.0 97095.0 89034.0 31313.0 34175.0 94591.0 101294.0 68519.0 72648.0 96188.0 103324.0 37861.0 36756.0 301080.0 293433.0 44464.0 52563.0 103379.0 95581.0 0.0 7999.0 190323.0 190998.0 112279.0 119951.0 26131.0 30176.0 103153.0 100430.0 88814.0 135524.0 88814.0 88814.0 88814.0 88814.0 88814.0 88814.0 88814.0 135524.0 135524.0 135524.0 135524.0 135524.0 135524.0 135524.0
21310.0 26090.0 248333.0 243242.0 248907.0 240740.0 28676.0 33460.0 72234.0 69617.0 206338.0 207869.0 76730.0 82972.0 119102.0 114350.0 282155.0 280295.0 162727.0 157050.0 196426.0 195279.0 284740.0 276564.0 40542.0 48132.0 67110.0 59430.0 139090.0 142832.0 20587.0 28758.0 219354.0 213027.0 178163.0 183750.0 166785.0 161186.0 70108.0 77931.0 70265.0 64597.0 256770.0 264437.0 295053.0 293362.0 102971.0 102465.0 78158.0 71450.0 53237.0 45425.0 102686.0 94804.0 34713.0 38991.0 97198.0 103510.0 71040.0 75833.0 95827.0 102607.0 43069.0 43113.0 293158.0 285522.0 40935.0 48744.0 106929.0 99278.0 7999.0 0.0 191902.0 192905.0 118199.0 125942.0 21125.0 26855.0 95194.0 92510.0 88170.0 127556.0 88170.0 88170.0 88170.0 88170.0 88170.0 88170.0 88170.0 127556.0 127556.0 127556.0 127556.0 127556.0 127556.0 127556.0
190395.0 197488.0 333070.0 325374.0 347738.0 339589.0 163934.0 161671.0 165425.0 158837.0 306955.0 303013.0 134271.0 134741.0 277664.0 277656.0 370377.0 372589.0 29957.0 37176.0 34815.0 26743.0 352728.0 345356.0 188840.0 191858.0 216053.0 209685.0 216894.0 212419.0 201607.0 206437.0 293615.0 285598.0 295181.0 295847.0 244569.0 236634.0 162102.0 162771.0 231373.0 231833.0 342918.0 347994.0 380929.0 375532.0 248483.0 242055.0 172627.0 168717.0 223693.0 216586.0 120296.0 126982.0 159419.0 159056.0 96950.0 89483.0 253912.0 255443.0 100686.0 96957.0 157159.0 163306.0 362649.0 354886.0 159522.0 155765.0 93584.0 101253.0 190323.0 191902.0 0.0 8111.0 269001.0 274172.0 177111.0 169055.0 223793.0 219009.0 279075.0 260732.0 279075.0 279075.0 279075.0 279075.0 279075.0 279075.0 279075.0 260732.0 260732.0 260732.0 260732.0 260732.0 260732.0 260732.0
190501.0 197428.0 339631.0 331965.0 353965.0 345794.0 165252.0 163354.0 169342.0 162571.0 312958.0 309147.0 132786.0 132782.0 275715.0 275950.0 376995.0 379109.0 30184.0 36304.0 42858.0 34774.0 359748.0 352334.0 191515.0 194823.0 214544.0 208380.0 222713.0 218412.0 201857.0 206420.0 300235.0 292212.0 300610.0 301436.0 250725.0 242771.0 160219.0 160491.0 230110.0 230855.0 349486.0 354645.0 387638.0 382312.0 246258.0 239669.0 176813.0 172619.0 223002.0 216055.0 117481.0 124486.0 159893.0 159122.0 96889.0 89758.0 253603.0 254889.0 103485.0 100317.0 157015.0 162863.0 369669.0 361884.0 161691.0 158295.0 92219.0 100052.0 190998.0 192905.0 8111.0 0.0 266764.0 271762.0 178780.0 170705.0 228065.0 223274.0 279587.0 265317.0 279587.0 279587.0 279587.0 279587.0 279587.0 279587.0 279587.0 265317.0 265317.0 265317.0 265317.0 265317.0 265317.0 265317.0
101638.0 94068.0 351501.0 347339.0 350300.0 342133.0 138442.0 145889.0 190346.0 187203.0 308186.0 310902.0 135585.0 134318.0 13306.0 20429.0 383628.0 381688.0 239628.0 231952.0 285506.0 281773.0 390186.0 382275.0 157259.0 164015.0 57056.0 65128.0 253949.0 258627.0 97645.0 89457.0 327607.0 322238.0 278794.0 284651.0 278906.0 274342.0 107151.0 106276.0 48100.0 53744.0 359266.0 367151.0 396555.0 395427.0 20518.0 27458.0 196315.0 189642.0 65030.0 72786.0 149628.0 142311.0 128651.0 123858.0 176502.0 184756.0 64297.0 56518.0 195082.0 203238.0 123054.0 114820.0 397652.0 390511.0 155583.0 163780.0 175898.0 168648.0 112279.0 118199.0 269001.0 266764.0 0.0 7871.0 138410.0 141673.0 203644.0 202389.0 101167.0 227928.0 101167.0 101167.0 101167.0 101167.0 101167.0 101167.0 101167.0 227928.0 227928.0 227928.0 227928.0 227928.0 227928.0 227928.0
109162.0 101654.0 359230.0 355067.0 358028.0 349861.0 145873.0 153358.0 198050.0 194842.0 315914.0 318630.0 141259.0 139671.0 16595.0 24950.0 391357.0 389416.0 244941.0 237205.0 291292.0 287424.0 397890.0 389988.0 165087.0 171862.0 63989.0 72160.0 261820.0 266493.0 105375.0 97190.0 335395.0 330045.0 286523.0 292379.0 286763.0 282208.0 112713.0 111411.0 55760.0 61555.0 366994.0 374879.0 404284.0 403155.0 26335.0 32119.0 204077.0 197372.0 72816.0 80519.0 154407.0 147279.0 135763.0 130796.0 182435.0 190696.0 71739.0 63944.0 201772.0 209953.0 129856.0 121571.0 405328.0 398203.0 163098.0 171291.0 181351.0 174214.0 119951.0 125942.0 274172.0 271762.0 7871.0 0.0 146077.0 149237.0 211487.0 210245.0 107939.0 235656.0 107939.0 107939.0 107939.0 107939.0 107939.0 107939.0 107939.0 235656.0 235656.0 235656.0 235656.0 235656.0 235656.0 235656.0
37814.0 44652.0 236611.0 231089.0 238665.0 230498.0 15340.0 15440.0 52086.0 48845.0 195810.0 196591.0 74610.0 81948.0 139838.0 135281.0 271483.0 270041.0 148676.0 143635.0 179092.0 178480.0 271692.0 263472.0 26648.0 34546.0 85322.0 77244.0 122852.0 125871.0 40995.0 49142.0 205704.0 199018.0 169446.0 174366.0 151859.0 145749.0 76046.0 84210.0 90319.0 85119.0 245393.0 252872.0 284277.0 282099.0 122376.0 121207.0 58884.0 51668.0 73758.0 65730.0 99953.0 92958.0 31028.0 38386.0 85814.0 91035.0 91954.0 96909.0 78364.0 84495.0 42959.0 46904.0 280407.0 272638.0 20395.0 27840.0 97740.0 90690.0 26131.0 21125.0 177111.0 178780.0 138410.0 146077.0 0.0 8078.0 84300.0 80869.0 106667.0 119965.0 106667.0 106667.0 106667.0 106667.0 106667.0 106667.0 106667.0 119965.0 119965.0 119965.0 119965.0 119965.0 119965.0 119965.0
40118.0 47611.0 239560.0 233856.0 242285.0 234117.0 8753.0 7401.0 50294.0 45967.0 199340.0 199809.0 68636.0 76187.0 143778.0 139586.0 274826.0 273594.0 140599.0 135561.0 171316.0 170611.0 273987.0 265756.0 31099.0 38598.0 87260.0 79032.0 123807.0 126336.0 45283.0 53221.0 207814.0 200962.0 173738.0 178399.0 153455.0 147079.0 72611.0 80760.0 93622.0 88954.0 248476.0 255865.0 287561.0 285182.0 124932.0 123251.0 58055.0 50388.0 77672.0 69490.0 93577.0 86862.0 26175.0 34033.0 77901.0 83021.0 97835.0 102427.0 70543.0 76834.0 38494.0 43606.0 282830.0 275010.0 14296.0 22393.0 90072.0 83138.0 30176.0 26855.0 169055.0 170705.0 141673.0 149237.0 8078.0 0.0 88265.0 84564.0 113965.0 124850.0 113965.0 113965.0 113965.0 113965.0 113965.0 113965.0 113965.0 124850.0 124850.0 124850.0 124850.0 124850.0 124850.0 124850.0
116503.0 120568.0 153158.0 148054.0 154408.0 146241.0 96905.0 91471.0 59382.0 66838.0 111617.0 112771.0 155789.0 163602.0 200641.0 193812.0 187394.0 185796.0 200702.0 198402.0 212817.0 215347.0 189764.0 181620.0 57655.0 49813.0 160239.0 153252.0 54855.0 61685.0 113173.0 120267.0 124996.0 119121.0 85536.0 90144.0 75497.0 71629.0 160341.0 168507.0 159011.0 151612.0 161674.0 169296.0 200238.0 198322.0 192356.0 193611.0 51276.0 56234.0 141342.0 135264.0 179372.0 173515.0 114433.0 122217.0 152954.0 154796.0 142610.0 150040.0 127622.0 128744.0 126722.0 131192.0 198061.0 190475.0 84699.0 82098.0 168020.0 162779.0 103153.0 95194.0 223793.0 228065.0 203644.0 211487.0 84300.0 88265.0 0.0 4794.0 138719.0 38758.0 138719.0 138719.0 138719.0 138719.0 138719.0 138719.0 138719.0 38758.0 38758.0 38758.0 38758.0 38758.0 38758.0 38758.0
113794.0 118096.0 156073.0 150815.0 157814.0 149646.0 93153.0 87548.0 54612.0 62091.0 114942.0 115834.0 151765.0 159605.0 199687.0 192983.0 190634.0 189179.0 195910.0 193618.0 208137.0 210632.0 192242.0 184074.0 54240.0 46323.0 158075.0 150968.0 54180.0 60636.0 110874.0 118114.0 127110.0 121045.0 89488.0 93881.0 76519.0 72212.0 156852.0 165019.0 157314.0 150023.0 164705.0 172267.0 203445.0 201389.0 190707.0 191773.0 46483.0 51474.0 139607.0 133352.0 175184.0 169413.0 110739.0 118572.0 148375.0 150148.0 141938.0 149286.0 122860.0 123956.0 123054.0 127701.0 200651.0 193013.0 80552.0 77740.0 163486.0 158306.0 100430.0 92510.0 219009.0 223274.0 202389.0 210245.0 80869.0 84564.0 4794.0 0.0 138832.0 43398.0 138832.0 138832.0 138832.0 138832.0 138832.0 138832.0 138832.0 43398.0 43398.0 43398.0 43398.0 43398.0 43398.0 43398.0
89706.0 83699.0 282043.0 277881.0 280842.0 272674.0 116844.0 121091.0 147836.0 148365.0 238728.0 241444.0 153652.0 157491.0 92852.0 84514.0 314170.0 312230.0 249526.0 243402.0 284593.0 283373.0 320764.0 312829.0 110237.0 113779.0 89809.0 88942.0 192960.0 199086.0 78028.0 74759.0 258629.0 253719.0 209336.0 215192.0 213451.0 210164.0 134550.0 139846.0 76270.0 68795.0 289808.0 297692.0 327097.0 325969.0 100102.0 105724.0 149818.0 145762.0 67138.0 69266.0 177758.0 169228.0 119700.0 120848.0 182844.0 189830.0 40422.0 47048.0 183973.0 190633.0 123494.0 119091.0 328359.0 321135.0 126955.0 133796.0 190251.0 182282.0 88814.0 88170.0 279075.0 279587.0 101167.0 107939.0 106667.0 113965.0 138719.0 138832.0 0.0 158470.0 0.0 0.0 0.0 0.0 0.0 0.0 0.0 158470.0 158470.0 158470.0 158470.0 158470.0 158470.0 158470.0
148561.0 151405.0 124850.0 121060.0 124149.0 115982.0 133594.0 128765.0 97785.0 105378.0 81174.0 84457.0 193176.0 200878.0 223554.0 216221.0 157477.0 155537.0 238506.0 236487.0 247775.0 250835.0 164164.0 156343.0 93760.0 86341.0 189257.0 182886.0 64459.0 72531.0 143376.0 149722.0 104040.0 100037.0 50865.0 57106.0 68145.0 68493.0 195588.0 203707.0 185857.0 178033.0 132322.0 140267.0 170417.0 168223.0 218659.0 220823.0 89199.0 94711.0 168584.0 163413.0 217268.0 211139.0 150783.0 158330.0 191700.0 193544.0 164826.0 172518.0 166018.0 166783.0 162894.0 166617.0 171494.0 164411.0 122677.0 120562.0 206726.0 201399.0 135524.0 127556.0 260732.0 265317.0 227928.0 235656.0 119965.0 124850.0 38758.0 43398.0 158470.0 0.0 158470.0 158470.0 158470.0 158470.0 158470.0 158470.0 158470.0 0.0 0.0 0.0 0.0 0.0 0.0 0.0
89706.0 83699.0 282043.0 277881.0 280842.0 272674.0 116844.0 121091.0 147836.0 148365.0 238728.0 241444.0 153652.0 157491.0 92852.0 84514.0 314170.0 312230.0 249526.0 243402.0 284593.0 283373.0 320764.0 312829.0 110237.0 113779.0 89809.0 88942.0 192960.0 199086.0 78028.0 74759.0 258629.0 253719.0 209336.0 215192.0 213451.0 210164.0 134550.0 139846.0 76270.0 68795.0 289808.0 297692.0 327097.0 325969.0 100102.0 105724.0 149818.0 145762.0 67138.0 69266.0 177758.0 169228.0 119700.0 120848.0 182844.0 189830.0 40422.0 47048.0 183973.0 190633.0 123494.0 119091.0 328359.0 321135.0 126955.0 133796.0 190251.0 182282.0 88814.0 88170.0 279075.0 279587.0 101167.0 107939.0 106667.0 113965.0 138719.0 138832.0 0.0 158470.0 0.0 0.0 0.0 0.0 0.0 0.0 0.0 158470.0 158470.0 158470.0 158470.0 158470.0 158470.0 158470.0
89706.0 83699.0 282043.0 277881.0 280842.0 272674.0 116844.0 121091.0 147836.0 148365.0 238728.0 241444.0 153652.0 157491.0 92852.0 84514.0 314170.0 312230.0 249526.0 243402.0 284593.0 283373.0 320764.0 312829.0 110237.0 113779.0 89809.0 88942.0 192960.0 199086.0 78028.0 74759.0 258629.0 253719.0 209336.0 215192.0 213451.0 210164.0 134550.0 139846.0 76270.0 68795.0 289808.0 297692.0 327097.0 325969.0 100102.0 105724.0 149818.0 145762.0 67138.0 69266.0 177758.0 169228.0 119700.0 120848.0 182844.0 189830.0 40422.0 47048.0 183973.0 190633.0 123494.0 119091.0 328359.0 321135.0 126955.0 133796.0 190251.0 182282.0 88814.0 88170.0 279075.0 279587.0 101167.0 107939.0 106667.0 113965.0 138719.0 138832.0 0.0 158470.0 0.0 0.0 0.0 0.0 0.0 0.0 0.0 158470.0 158470.0 158470.0 158470.0 158470.0 158470.0 158470.0
89706.0 83699.0 282043.0 277881.0 280842.0 272674.0 116844.0 121091.0 147836.0 148365.0 238728.0 241444.0 153652.0 157491.0 92852.0 84514.0 314170.0 312230.0 249526.0 243402.0 284593.0 283373.0 320764.0 312829.0 110237.0 113779.0 89809.0 88942.0 192960.0 199086.0 78028.0 74759.0 258629.0 253719.0 209336.0 215192.0 213451.0 210164.0 134550.0 139846.0 76270.0 68795.0 289808.0 297692.0 327097.0 325969.0 100102.0 105724.0 149818.0 145762.0 67138.0 69266.0 177758.0 169228.0 119700.0 120848.0 182844.0 189830.0 40422.0 47048.0 183973.0 190633.0 123494.0 119091.0 328359.0 321135.0 126955.0 133796.0 190251.0 182282.0 88814.0 88170.0 279075.0 279587.0 101167.0 107939.0 106667.0 113965.0 138719.0 138832.0 0.0 158470.0 0.0 0.0 0.0 0.0 0.0 0.0 0.0 158470.0 158470.0 158470.0 158470.0 158470.0 158470.0 158470.0
89706.0 83699.0 282043.0 277881.0 280842.0 272674.0 116844.0 121091.0 147836.0 148365.0 238728.0 241444.0 153652.0 157491.0 92852.0 84514.0 314170.0 312230.0 249526.0 243402.0 284593.0 283373.0 320764.0 312829.0 110237.0 113779.0 89809.0 88942.0 192960.0 199086.0 78028.0 74759.0 258629.0 253719.0 209336.0 215192.0 213451.0 210164.0 134550.0 139846.0 76270.0 68795.0 289808.0 297692.0 327097.0 325969.0 100102.0 105724.0 149818.0 145762.0 67138.0 69266.0 177758.0 169228.0 119700.0 120848.0 182844.0 189830.0 40422.0 47048.0 183973.0 190633.0 123494.0 119091.0 328359.0 321135.0 126955.0 133796.0 190251.0 182282.0 88814.0 88170.0 279075.0 279587.0 101167.0 107939.0 106667.0 113965.0 138719.0 138832.0 0.0 158470.0 0.0 0.0 0.0 0.0 0.0 0.0 0.0 158470.0 158470.0 158470.0 158470.0 158470.0 158470.0 158470.0
89706.0 83699.0 282043.0 277881.0 280842.0 272674.0 116844.0 121091.0 147836.0 148365.0 238728.0 241444.0 153652.0 157491.0 92852.0 84514.0 314170.0 312230.0 249526.0 243402.0 284593.0 283373.0 320764.0 312829.0 110237.0 113779.0 89809.0 88942.0 192960.0 199086.0 78028.0 74759.0 258629.0 253719.0 209336.0 215192.0 213451.0 210164.0 134550.0 139846.0 76270.0 68795.0 289808.0 297692.0 327097.0 325969.0 100102.0 105724.0 149818.0 145762.0 67138.0 69266.0 177758.0 169228.0 119700.0 120848.0 182844.0 189830.0 40422.0 47048.0 183973.0 190633.0 123494.0 119091.0 328359.0 321135.0 126955.0 133796.0 190251.0 182282.0 88814.0 88170.0 279075.0 279587.0 101167.0 107939.0 106667.0 113965.0 138719.0 138832.0 0.0 158470.0 0.0 0.0 0.0 0.0 0.0 0.0 0.0 158470.0 158470.0 158470.0 158470.0 158470.0 158470.0 158470.0
89706.0 83699.0 282043.0 277881.0 280842.0 272674.0 116844.0 121091.0 147836.0 148365.0 238728.0 241444.0 153652.0 157491.0 92852.0 84514.0 314170.0 312230.0 249526.0 243402.0 284593.0 283373.0 320764.0 312829.0 110237.0 113779.0 89809.0 88942.0 192960.0 199086.0 78028.0 74759.0 258629.0 253719.0 209336.0 215192.0 213451.0 210164.0 134550.0 139846.0 76270.0 68795.0 289808.0 297692.0 327097.0 325969.0 100102.0 105724.0 149818.0 145762.0 67138.0 69266.0 177758.0 169228.0 119700.0 120848.0 182844.0 189830.0 40422.0 47048.0 183973.0 190633.0 123494.0 119091.0 328359.0 321135.0 126955.0 133796.0 190251.0 182282.0 88814.0 88170.0 279075.0 279587.0 101167.0 107939.0 106667.0 113965.0 138719.0 138832.0 0.0 158470.0 0.0 0.0 0.0 0.0 0.0 0.0 0.0 158470.0 158470.0 158470.0 158470.0 158470.0 158470.0 158470.0
89706.0 83699.0 282043.0 277881.0 280842.0 272674.0 116844.0 121091.0 147836.0 148365.0 238728.0 241444.0 153652.0 157491.0 92852.0 84514.0 314170.0 312230.0 249526.0 243402.0 284593.0 283373.0 320764.0 312829.0 110237.0 113779.0 89809.0 88942.0 192960.0 199086.0 78028.0 74759.0 258629.0 253719.0 209336.0 215192.0 213451.0 210164.0 134550.0 139846.0 76270.0 68795.0 289808.0 297692.0 327097.0 325969.0 100102.0 105724.0 149818.0 145762.0 67138.0 69266.0 177758.0 169228.0 119700.0 120848.0 182844.0 189830.0 40422.0 47048.0 183973.0 190633.0 123494.0 119091.0 328359.0 321135.0 126955.0 133796.0 190251.0 182282.0 88814.0 88170.0 279075.0 279587.0 101167.0 107939.0 106667.0 113965.0 138719.0 138832.0 0.0 158470.0 0.0 0.0 0.0 0.0 0.0 0.0 0.0 158470.0 158470.0 158470.0 158470.0 158470.0 158470.0 158470.0
148561.0 151405.0 124850.0 121060.0 124149.0 115982.0 133594.0 128765.0 97785.0 105378.0 81174.0 84457.0 193176.0 200878.0 223554.0 216221.0 157477.0 155537.0 238506.0 236487.0 247775.0 250835.0 164164.0 156343.0 93760.0 86341.0 189257.0 182886.0 64459.0 72531.0 143376.0 149722.0 104040.0 100037.0 50865.0 57106.0 68145.0 68493.0 195588.0 203707.0 185857.0 178033.0 132322.0 140267.0 170417.0 168223.0 218659.0 220823.0 89199.0 94711.0 168584.0 163413.0 217268.0 211139.0 150783.0 158330.0 191700.0 193544.0 164826.0 172518.0 166018.0 166783.0 162894.0 166617.0 171494.0 164411.0 122677.0 120562.0 206726.0 201399.0 135524.0 127556.0 260732.0 265317.0 227928.0 235656.0 119965.0 124850.0 38758.0 43398.0 158470.0 0.0 158470.0 158470.0 158470.0 158470.0 158470.0 158470.0 158470.0 0.0 0.0 0.0 0.0 0.0 0.0 0.0
148561.0 151405.0 124850.0 121060.0 124149.0 115982.0 133594.0 128765.0 97785.0 105378.0 81174.0 84457.0 193176.0 200878.0 223554.0 216221.0 157477.0 155537.0 238506.0 236487.0 247775.0 250835.0 164164.0 156343.0 93760.0 86341.0 189257.0 182886.0 64459.0 72531.0 143376.0 149722.0 104040.0 100037.0 50865.0 57106.0 68145.0 68493.0 195588.0 203707.0 185857.0 178033.0 132322.0 140267.0 170417.0 168223.0 218659.0 220823.0 89199.0 94711.0 168584.0 163413.0 217268.0 211139.0 150783.0 158330.0 191700.0 193544.0 164826.0 172518.0 166018.0 166783.0 162894.0 166617.0 171494.0 164411.0 122677.0 120562.0 206726.0 201399.0 135524.0 127556.0 260732.0 265317.0 227928.0 235656.0 119965.0 124850.0 38758.0 43398.0 158470.0 0.0 158470.0 158470.0 158470.0 158470.0 158470.0 158470.0 158470.0 0.0 0.0 0.0 0.0 0.0 0.0 0.0
148561.0 151405.0 124850.0 121060.0 124149.0 115982.0 133594.0 128765.0 97785.0 105378.0 81174.0 84457.0 193176.0 200878.0 223554.0 216221.0 157477.0 155537.0 238506.0 236487.0 247775.0 250835.0 164164.0 156343.0 93760.0 86341.0 189257.0 182886.0 64459.0 72531.0 143376.0 149722.0 104040.0 100037.0 50865.0 57106.0 68145.0 68493.0 195588.0 203707.0 185857.0 178033.0 132322.0 140267.0 170417.0 168223.0 218659.0 220823.0 89199.0 94711.0 168584.0 163413.0 217268.0 211139.0 150783.0 158330.0 191700.0 193544.0 164826.0 172518.0 166018.0 166783.0 162894.0 166617.0 171494.0 164411.0 122677.0 120562.0 206726.0 201399.0 135524.0 127556.0 260732.0 265317.0 227928.0 235656.0 119965.0 124850.0 38758.0 43398.0 158470.0 0.0 158470.0 158470.0 158470.0 158470.0 158470.0 158470.0 158470.0 0.0 0.0 0.0 0.0 0.0 0.0 0.0
148561.0 151405.0 124850.0 121060.0 124149.0 115982.0 133594.0 128765.0 97785.0 105378.0 81174.0 84457.0 193176.0 200878.0 223554.0 216221.0 157477.0 155537.0 238506.0 236487.0 247775.0 250835.0 164164.0 156343.0 93760.0 86341.0 189257.0 182886.0 64459.0 72531.0 143376.0 149722.0 104040.0 100037.0 50865.0 57106.0 68145.0 68493.0 195588.0 203707.0 185857.0 178033.0 132322.0 140267.0 170417.0 168223.0 218659.0 220823.0 89199.0 94711.0 168584.0 163413.0 217268.0 211139.0 150783.0 158330.0 191700.0 193544.0 164826.0 172518.0 166018.0 166783.0 162894.0 166617.0 171494.0 164411.0 122677.0 120562.0 206726.0 201399.0 135524.0 127556.0 260732.0 265317.0 227928.0 235656.0 119965.0 124850.0 38758.0 43398.0 158470.0 0.0 158470.0 158470.0 158470.0 158470.0 158470.0 158470.0 158470.0 0.0 0.0 0.0 0.0 0.0 0.0 0.0
148561.0 151405.0 124850.0 121060.0 124149.0 115982.0 133594.0 128765.0 97785.0 105378.0 81174.0 84457.0 193176.0 200878.0 223554.0 216221.0 157477.0 155537.0 238506.0 236487.0 247775.0 250835.0 164164.0 156343.0 93760.0 86341.0 189257.0 182886.0 64459.0 72531.0 143376.0 149722.0 104040.0 100037.0 50865.0 57106.0 68145.0 68493.0 195588.0 203707.0 185857.0 178033.0 132322.0 140267.0 170417.0 168223.0 218659.0 220823.0 89199.0 94711.0 168584.0 163413.0 217268.0 211139.0 150783.0 158330.0 191700.0 193544.0 164826.0 172518.0 166018.0 166783.0 162894.0 166617.0 171494.0 164411.0 122677.0 120562.0 206726.0 201399.0 135524.0 127556.0 260732.0 265317.0 227928.0 235656.0 119965.0 124850.0 38758.0 43398.0 158470.0 0.0 158470.0 158470.0 158470.0 158470.0 158470.0 158470.0 158470.0 0.0 0.0 0.0 0.0 0.0 0.0 0.0
148561.0 151405.0 124850.0 121060.0 124149.0 115982.0 133594.0 128765.0 97785.0 105378.0 81174.0 84457.0 193176.0 200878.0 223554.0 216221.0 157477.0 155537.0 238506.0 236487.0 247775.0 250835.0 164164.0 156343.0 93760.0 86341.0 189257.0 182886.0 64459.0 72531.0 143376.0 149722.0 104040.0 100037.0 50865.0 57106.0 68145.0 68493.0 195588.0 203707.0 185857.0 178033.0 132322.0 140267.0 170417.0 168223.0 218659.0 220823.0 89199.0 94711.0 168584.0 163413.0 217268.0 211139.0 150783.0 158330.0 191700.0 193544.0 164826.0 172518.0 166018.0 166783.0 162894.0 166617.0 171494.0 164411.0 122677.0 120562.0 206726.0 201399.0 135524.0 127556.0 260732.0 265317.0 227928.0 235656.0 119965.0 124850.0 38758.0 43398.0 158470.0 0.0 158470.0 158470.0 158470.0 158470.0 158470.0 158470.0 158470.0 0.0 0.0 0.0 0.0 0.0 0.0 0.0
148561.0 151405.0 124850.0 121060.0 124149.0 115982.0 133594.0 128765.0 97785.0 105378.0 81174.0 84457.0 193176.0 200878.0 223554.0 216221.0 157477.0 155537.0 238506.0 236487.0 247775.0 250835.0 164164.0 156343.0 93760.0 86341.0 189257.0 182886.0 64459.0 72531.0 143376.0 149722.0 104040.0 100037.0 50865.0 57106.0 68145.0 68493.0 195588.0 203707.0 185857.0 178033.0 132322.0 140267.0 170417.0 168223.0 218659.0 220823.0 89199.0 94711.0 168584.0 163413.0 217268.0 211139.0 150783.0 158330.0 191700.0 193544.0 164826.0 172518.0 166018.0 166783.0 162894.0 166617.0 171494.0 164411.0 122677.0 120562.0 206726.0 201399.0 135524.0 127556.0 260732.0 265317.0 227928.0 235656.0 119965.0 124850.0 38758.0 43398.0 158470.0 0.0 158470.0 158470.0 158470.0 158470.0 158470.0 158470.0 158470.0 0.0 0.0 0.0 0.0 0.0 0.0 0.0
FIXED_EDGES_SECTION
1 2
3 4
5 6
7 8
9 10
11 12
13 14
15 16
17 18
19 20
21 22
23 24
25 26
27 28
29 30
31 32
33 34
35 36
37 38
39 40
41 42
43 44
45 46
47 48
49 50
51 52
53 54
55 56
57 58
59 60
61 62
63 64
65 66
67 68
69 70
71 72
73 74
75 76
77 78
79 80
-1 
DEMAND_SECTION
1 207
2 207
3 322
4 322
5 224
6 224
7 191
8 191
9 291
10 291
11 534
12 534
13 90
14 90
15 251
16 251
17 71
18 71
19 380
20 380
21 120
22 120
23 421
24 421
25 80
26 80
27 57
28 57
29 84
30 84
31 394
32 394
33 341
34 341
35 114
36 114
37 319
38 319
39 247
40 247
41 493
42 493
43 99
44 99
45 491
46 491
47 500
48 500
49 158
50 158
51 155
52 155
53 217
54 217
55 96
56 96
57 74
58 74
59 618
60 618
61 112
62 112
63 349
64 349
65 229
66 229
67 94
68 94
69 186
70 186
71 277
72 277
73 138
74 138
75 316
76 316
77 114
78 114
79 399
80 399
81 0
82 0
83 0
84 0
85 0
86 0
87 0
88 0
89 0
90 0
91 0
92 0
93 0
94 0
95 0
96 0
DEPOT_SECTION
81 
-1 
CAPACITIES_SECTION
2500 
2750 
3000 
3250 
-1 
EOF