NAME: GFS_20_1
TYPE: GFSP
DIMENSION: 94
VEHICLES: 4
CAPACITY: 2500.0
TRIP_DIST_LIMIT: 750000.0
TOTAL_DIST_LIMIT: 1050000.0
EDGE_WEIGHT_TYPE: EXPLICIT
EDGE_WEIGHT_FORMAT: FULL_MATRIX
EDGE_WEIGHT_SECTION
0.0 7469.0 98826.0 106838.0 239896.0 247703.0 195225.0 202998.0 52203.0 59589.0 284428.0 290248.0 287347.0 279308.0 31693.0 34728.0 332173.0 335375.0 268858.0 261033.0 352269.0 344936.0 294950.0 301337.0 204393.0 197370.0 216588.0 215373.0 207612.0 204597.0 210925.0 213720.0 154361.0 162617.0 279928.0 275161.0 314135.0 310689.0 292257.0 299086.0 73415.0 79983.0 347375.0 349497.0 348912.0 344204.0 272044.0 280003.0 128674.0 120714.0 39744.0 34295.0 281920.0 283734.0 208159.0 208051.0 41892.0 39193.0 271476.0 278116.0 47916.0 55842.0 312168.0 304115.0 242910.0 246025.0 325340.0 321884.0 142544.0 134523.0 275524.0 279223.0 29764.0 31355.0 293421.0 285749.0 356644.0 364372.0 233713.0 240588.0 287186.0 129679.0 287186.0 287186.0 287186.0 287186.0 287186.0 287186.0 129679.0 129679.0 129679.0 129679.0 129679.0 129679.0
7469.0 0.0 103361.0 111353.0 240767.0 248622.0 197840.0 205533.0 58849.0 66024.0 285644.0 291323.0 288368.0 280312.0 25269.0 29390.0 335689.0 338735.0 269873.0 261987.0 352478.0 345145.0 300024.0 306314.0 205189.0 198112.0 218892.0 217936.0 209018.0 205721.0 212074.0 214605.0 157845.0 166022.0 281304.0 276370.0 317281.0 313679.0 296130.0 302866.0 78967.0 85255.0 347584.0 349747.0 349080.0 344515.0 273790.0 281720.0 128981.0 121080.0 44580.0 40002.0 285391.0 287023.0 210384.0 209986.0 39932.0 38674.0 272075.0 278582.0 53519.0 61291.0 314840.0 306807.0 244366.0 247702.0 327702.0 324407.0 143995.0 136001.0 276422.0 279928.0 27124.0 26905.0 296047.0 288338.0 356853.0 364581.0 236079.0 242835.0 287395.0 129575.0 287395.0 287395.0 287395.0 287395.0 287395.0 287395.0 129575.0 129575.0 129575.0 129575.0 129575.0 129575.0
98826.0 103361.0 0.0 8013.0 161861.0 168813.0 104047.0 112117.0 56284.0 48986.0 201498.0 208372.0 206034.0 198398.0 127821.0 132740.0 234771.0 238467.0 188207.0 181238.0 285960.0 279281.0 197100.0 203205.0 129510.0 123700.0 126951.0 123876.0 126243.0 126257.0 131870.0 137159.0 58889.0 67311.0 195750.0 192553.0 218127.0 215384.0 194015.0 201040.0 29752.0 22018.0 276048.0 276603.0 273898.0 267927.0 185071.0 193067.0 74070.0 68620.0 117335.0 109217.0 184819.0 187303.0 119468.0 121787.0 139646.0 135100.0 194670.0 202347.0 52316.0 44405.0 218440.0 210353.0 159270.0 160375.0 233266.0 228897.0 68931.0 62695.0 195711.0 201091.0 128362.0 130024.0 200130.0 192757.0 288422.0 296288.0 143087.0 150639.0 224102.0 80125.0 224102.0 224102.0 224102.0 224102.0 224102.0 224102.0 80125.0 80125.0 80125.0 80125.0 80125.0 80125.0
106838.0 111353.0 8013.0 0.0 156471.0 163276.0 97241.0 105308.0 63761.0 56284.0 195340.0 202313.0 200047.0 192485.0 135771.0 140729.0 226903.0 230651.0 182364.0 175528.0 281526.0 274976.0 189233.0 195299.0 124802.0 119224.0 120244.0 116915.0 120699.0 121125.0 126585.0 132151.0 51645.0 60027.0 189466.0 186463.0 210421.0 207761.0 186060.0 193106.0 37139.0 29395.0 270945.0 271316.0 268399.0 262311.0 178487.0 186464.0 73664.0 68904.0 124984.0 116895.0 177001.0 179564.0 112940.0 115594.0 147643.0 143065.0 189245.0 197005.0 60256.0 52316.0 210996.0 202913.0 153198.0 154043.0 225995.0 221528.0 65800.0 60195.0 189936.0 195486.0 136374.0 138030.0 192757.0 185429.0 283685.0 291555.0 136174.0 143789.0 220667.0 80081.0 220667.0 220667.0 220667.0 220667.0 220667.0 220667.0 80081.0 80081.0 80081.0 80081.0 80081.0 80081.0
239896.0 240767.0 161861.0 156471.0 0.0 7992.0 68162.0 62227.0 214454.0 208470.0 46338.0 50984.0 47830.0 39756.0 259615.0 266468.0 140717.0 138432.0 29453.0 21366.0 128667.0 123286.0 175212.0 174812.0 35617.0 42763.0 50272.0 58165.0 35893.0 35985.0 30051.0 26176.0 110133.0 103663.0 44032.0 37344.0 115257.0 107908.0 125153.0 126005.0 189928.0 182719.0 114768.0 114862.0 112060.0 106263.0 44616.0 50353.0 112321.0 120020.0 270668.0 262504.0 104535.0 99189.0 51886.0 45145.0 280666.0 279021.0 32813.0 40542.0 205457.0 199229.0 100016.0 94198.0 19458.0 27438.0 103473.0 104246.0 98171.0 106131.0 35658.0 39672.0 267763.0 265887.0 84259.0 77721.0 128874.0 136702.0 49038.0 45429.0 88120.0 113104.0 88120.0 88120.0 88120.0 88120.0 88120.0 88120.0 113104.0 113104.0 113104.0 113104.0 113104.0 113104.0
247703.0 248622.0 168813.0 163276.0 7992.0 0.0 73028.0 66592.0 221775.0 215709.0 38382.0 43001.0 39869.0 31793.0 267503.0 274355.0 135522.0 132888.0 21464.0 13402.0 123763.0 118735.0 173768.0 172999.0 43541.0 50704.0 53601.0 61219.0 42583.0 43459.0 37350.0 34022.0 116164.0 109437.0 36336.0 29453.0 109985.0 102474.0 122085.0 122467.0 197081.0 189819.0 108562.0 108301.0 105123.0 99126.0 38339.0 43471.0 120263.0 127944.0 278271.0 270098.0 101388.0 95628.0 56337.0 50288.0 288530.0 286842.0 26140.0 34170.0 212930.0 206630.0 93932.0 88444.0 18449.0 25504.0 96506.0 97619.0 105791.0 113772.0 27823.0 32319.0 275633.0 273774.0 78855.0 72671.0 123333.0 131117.0 49762.0 45020.0 88461.0 121085.0 88461.0 88461.0 88461.0 88461.0 88461.0 88461.0 121085.0 121085.0 121085.0 121085.0 121085.0 121085.0
195225.0 197840.0 104047.0 97241.0 68162.0 73028.0 0.0 8071.0 159960.0 152933.0 99717.0 107122.0 105279.0 98275.0 219305.0 225799.0 141517.0 143299.0 88839.0 83200.0 196699.0 191436.0 137575.0 140201.0 50910.0 50772.0 23100.0 20184.0 36012.0 42326.0 44011.0 52002.0 46183.0 38332.0 93314.0 91301.0 120720.0 116437.0 107522.0 112568.0 133708.0 126023.0 180977.0 180037.0 175753.0 169006.0 81430.0 89362.0 84281.0 89278.0 220012.0 211791.0 92030.0 91846.0 16972.0 23057.0 237113.0 233920.0 98744.0 106914.0 153717.0 146422.0 117001.0 108973.0 58884.0 58055.0 130323.0 126669.0 59816.0 66512.0 96695.0 103351.0 224730.0 224461.0 98213.0 90525.0 196315.0 204077.0 39115.0 46594.0 149818.0 89199.0 149818.0 149818.0 149818.0 149818.0 149818.0 149818.0 89199.0 89199.0 89199.0 89199.0 89199.0 89199.0
202998.0 205533.0 112117.0 105308.0 62227.0 66592.0 8071.0 0.0 168017.0 161000.0 92009.0 99483.0 97723.0 90846.0 226827.0 233380.0 134990.0 136501.0 81584.0 76223.0 190354.0 185272.0 135301.0 137489.0 48880.0 49879.0 15140.0 12419.0 32578.0 39909.0 40463.0 48504.0 54178.0 46240.0 85509.0 83705.0 113696.0 109193.0 102250.0 106941.0 141776.0 134092.0 173992.0 172872.0 168402.0 161570.0 73428.0 81344.0 90135.0 95495.0 228019.0 219797.0 85970.0 85332.0 10343.0 18022.0 244880.0 241751.0 91999.0 100185.0 161714.0 154441.0 109362.0 101361.0 51668.0 50388.0 122432.0 118892.0 66227.0 73219.0 89457.0 96284.0 232460.0 232106.0 90534.0 82807.0 189642.0 197372.0 31077.0 38526.0 145762.0 94711.0 145762.0 145762.0 145762.0 145762.0 145762.0 145762.0 94711.0 94711.0 94711.0 94711.0 94711.0 94711.0
52203.0 58849.0 56284.0 63761.0 214454.0 221775.0 159960.0 168017.0 0.0 8065.0 255954.0 262563.0 260046.0 252244.0 83884.0 86551.0 290094.0 294062.0 241905.0 234611.0 334467.0 327315.0 246101.0 252833.0 180439.0 174012.0 182681.0 179928.0 179570.0 178479.0 184448.0 188882.0 115168.0 123593.0 250519.0 246869.0 274087.0 271505.0 248656.0 255897.0 26625.0 34366.0 327087.0 328269.0 326272.0 320687.0 240484.0 248501.0 112405.0 104859.0 61399.0 53428.0 240429.0 243186.0 174940.0 176634.0 88254.0 82487.0 247148.0 254528.0 14001.0 16149.0 274715.0 266629.0 213669.0 215344.0 289524.0 285181.0 117218.0 109630.0 249197.0 254068.0 78765.0 82508.0 256414.0 249036.0 338077.0 345893.0 199066.0 206528.0 269783.0 116178.0 269783.0 269783.0 269783.0 269783.0 269783.0 269783.0 116178.0 116178.0 116178.0 116178.0 116178.0 116178.0
59589.0 66024.0 48986.0 56284.0 208470.0 215709.0 152933.0 161000.0 8065.0 0.0 249503.0 256193.0 253728.0 245968.0 91195.0 94124.0 282270.0 286291.0 235664.0 228451.0 329486.0 322426.0 238045.0 244771.0 174773.0 168457.0 175749.0 172827.0 173368.0 172533.0 178430.0 183062.0 107846.0 116256.0 243967.0 240456.0 266424.0 263916.0 240748.0 248012.0 19238.0 26969.0 321552.0 322588.0 320418.0 314733.0 233700.0 241711.0 108441.0 101088.0 69235.0 61327.0 232672.0 235502.0 168109.0 170017.0 96259.0 90537.0 241222.0 248678.0 16149.0 14001.0 267278.0 259196.0 207213.0 208712.0 282231.0 277807.0 111794.0 104360.0 243017.0 248023.0 86631.0 90198.0 249036.0 241693.0 332856.0 340687.0 192013.0 199525.0 265195.0 112592.0 265195.0 265195.0 265195.0 265195.0 265195.0 265195.0 112592.0 112592.0 112592.0 112592.0 112592.0 112592.0
284428.0 285644.0 201498.0 195340.0 46338.0 38382.0 99717.0 92009.0 255954.0 249503.0 0.0 7924.0 8031.0 9617.0 304759.0 311612.0 111567.0 107093.0 17385.0 25430.0 109464.0 106834.0 167896.0 165334.0 81416.0 88611.0 76975.0 82618.0 76990.0 79942.0 73578.0 71736.0 145588.0 137986.0 7607.0 9274.0 86742.0 78741.0 110202.0 108089.0 230539.0 223062.0 86652.0 83818.0 77878.0 70521.0 23574.0 19825.0 157982.0 165537.0 313798.0 305585.0 90572.0 83126.0 83023.0 79746.0 325576.0 323618.0 26677.0 29196.0 247903.0 241264.0 66793.0 63820.0 42290.0 41664.0 63595.0 66826.0 141938.0 149964.0 15059.0 20182.0 312725.0 311017.0 57481.0 54444.0 105084.0 112221.0 64825.0 57157.0 103862.0 159119.0 103862.0 103862.0 103862.0 103862.0 103862.0 103862.0 159119.0 159119.0 159119.0 159119.0 159119.0 159119.0
290248.0 291323.0 208372.0 202313.0 50984.0 43001.0 107122.0 99483.0 262563.0 256193.0 7924.0 0.0 3612.0 11317.0 310307.0 317159.0 115469.0 110553.0 21545.0 29626.0 101966.0 99559.0 174570.0 171804.0 86497.0 93676.0 84507.0 90299.0 83216.0 85651.0 79333.0 76900.0 152850.0 145328.0 15474.0 15878.0 91109.0 83115.0 116406.0 113940.0 237289.0 229849.0 78776.0 75895.0 69988.0 62676.0 31346.0 26882.0 163216.0 170860.0 320067.0 311864.0 97097.0 89516.0 90341.0 86758.0 331249.0 329422.0 26221.0 26432.0 254310.0 247756.0 70476.0 68277.0 49116.0 49095.0 65170.0 69249.0 147907.0 155927.0 16293.0 18113.0 318372.0 316525.0 62865.0 60513.0 97331.0 104419.0 72661.0 65026.0 100912.0 164086.0 100912.0 100912.0 100912.0 100912.0 100912.0 100912.0 164086.0 164086.0 164086.0 164086.0 164086.0 164086.0
287347.0 288368.0 206034.0 200047.0 47830.0 39869.0 105279.0 97723.0 260046.0 253728.0 8031.0 3612.0 0.0 8076.0 307308.0 314161.0 118151.0 113376.0 18495.0 26468.0 101517.0 98821.0 175867.0 173251.0 83405.0 90572.0 82834.0 88832.0 80572.0 82776.0 76485.0 73845.0 150839.0 143395.0 15479.0 14063.0 93611.0 85608.0 118024.0 115767.0 234863.0 227449.0 79159.0 76635.0 71128.0 64004.0 31447.0 27827.0 160129.0 167800.0 317363.0 309166.0 98495.0 91005.0 88426.0 84585.0 328289.0 326511.0 22633.0 23178.0 251682.0 245175.0 73200.0 70725.0 46900.0 47387.0 68426.0 72326.0 145097.0 153110.0 12777.0 14648.0 315403.0 313580.0 64906.0 62188.0 97337.0 104544.0 71538.0 64016.0 97835.0 160920.0 97835.0 97835.0 97835.0 97835.0 97835.0 97835.0 160920.0 160920.0 160920.0 160920.0 160920.0 160920.0
279308.0 280312.0 198398.0 192485.0 39756.0 31793.0 98275.0 90846.0 252244.0 245968.0 9617.0 11317.0 8076.0 0.0 299241.0 306094.0 120776.0 116458.0 10452.0 18392.0 105220.0 101949.0 174672.0 172418.0 75329.0 82496.0 76114.0 82408.0 72705.0 74760.0 68484.0 65773.0 143580.0 136240.0 14166.0 8721.0 95783.0 87796.0 117734.0 116016.0 227140.0 219751.0 84452.0 82503.0 77586.0 70733.0 28764.0 27229.0 152054.0 159725.0 309421.0 301228.0 97745.0 90515.0 81353.0 77190.0 320230.0 318468.0 17065.0 20240.0 243795.0 237323.0 76144.0 72878.0 39558.0 40788.0 73206.0 76420.0 137103.0 145113.0 5523.0 11261.0 307342.0 305513.0 66009.0 62387.0 101913.0 109306.0 65743.0 58466.0 94554.0 152851.0 94554.0 94554.0 94554.0 94554.0 94554.0 94554.0 152851.0 152851.0 152851.0 152851.0 152851.0 152851.0
31693.0 25269.0 127821.0 135771.0 259615.0 267503.0 219305.0 226827.0 83884.0 91195.0 304759.0 310307.0 307308.0 299241.0 0.0 8022.0 358460.0 361253.0 288817.0 280886.0 371042.0 363709.0 324789.0 330990.0 224007.0 216900.0 239712.0 239245.0 228424.0 224819.0 231189.0 233482.0 180856.0 188892.0 300591.0 295486.0 339457.0 335587.0 319479.0 326073.0 104152.0 110307.0 366147.0 368311.0 367697.0 363065.0 293553.0 301433.0 147591.0 139727.0 54703.0 53717.0 308141.0 309475.0 231080.0 230159.0 28460.0 32603.0 290742.0 297189.0 78747.0 86463.0 336169.0 328183.0 263782.0 267401.0 348413.0 345439.0 163643.0 155729.0 295271.0 298650.0 18761.0 11333.0 317315.0 309548.0 375416.0 383144.0 256973.0 263481.0 305958.0 149265.0 305958.0 305958.0 305958.0 305958.0 305958.0 305958.0 149265.0 149265.0 149265.0 149265.0 149265.0 149265.0
34728.0 29390.0 132740.0 140729.0 266468.0 274355.0 225799.0 233380.0 86551.0 94124.0 311612.0 317159.0 314161.0 306094.0 8022.0 0.0 364478.0 367384.0 295670.0 287739.0 377894.0 370562.0 329386.0 335693.0 230860.0 223753.0 246415.0 245799.0 235277.0 231672.0 238042.0 240335.0 186716.0 194823.0 307444.0 302339.0 345727.0 341959.0 325198.0 331870.0 108085.0 114526.0 373000.0 375164.0 374550.0 369918.0 300388.0 308258.0 154443.0 146580.0 51147.0 51322.0 314161.0 315627.0 237814.0 236999.0 20951.0 26016.0 297595.0 304042.0 82585.0 90459.0 342742.0 334739.0 270635.0 274229.0 355177.0 352108.0 170489.0 162581.0 302124.0 305503.0 13501.0 5638.0 323904.0 316153.0 382269.0 389997.0 263660.0 270242.0 312811.0 156118.0 312811.0 312811.0 312811.0 312811.0 312811.0 312811.0 156118.0 156118.0 156118.0 156118.0 156118.0 156118.0
332173.0 335689.0 234771.0 226903.0 140717.0 135522.0 141517.0 134990.0 290094.0 282270.0 111567.0 115469.0 118151.0 120776.0 358460.0 364478.0 0.0 8425.0 123703.0 128664.0 204883.0 205387.0 88535.0 81748.0 163101.0 168779.0 125539.0 123150.0 148388.0 156137.0 151224.0 155205.0 177850.0 169673.0 107098.0 114711.0 25555.0 33288.0 43323.0 35375.0 263632.0 256001.0 175242.0 168588.0 158839.0 151086.0 97829.0 94997.0 224945.0 230477.0 351489.0 343509.0 50320.0 49677.0 134134.0 138615.0 373762.0 369637.0 137419.0 140763.0 287049.0 279173.0 45004.0 48038.0 122986.0 115222.0 56009.0 48914.0 201195.0 208026.0 125661.0 131744.0 361937.0 362582.0 56706.0 62998.0 195734.0 200672.0 109576.0 106027.0 215326.0 229147.0 215326.0 215326.0 215326.0 215326.0 215326.0 215326.0 229147.0 229147.0 229147.0 229147.0 229147.0 229147.0
335375.0 338735.0 238467.0 230651.0 138432.0 132888.0 143299.0 136501.0 294062.0 286291.0 107093.0 110553.0 113376.0 116458.0 361253.0 367384.0 8425.0 0.0 119998.0 125348.0 197976.0 198690.0 96835.0 90113.0 162303.0 168198.0 126315.0 124446.0 148118.0 155658.0 150528.0 154120.0 181021.0 172760.0 103052.0 110804.0 23743.0 30561.0 49458.0 41420.0 267531.0 259865.0 168141.0 161362.0 151539.0 143857.0 94798.0 91362.0 226084.0 231823.0 355457.0 347435.0 53651.0 51785.0 135011.0 139044.0 377064.0 373083.0 133291.0 136235.0 290665.0 282833.0 40314.0 44545.0 121237.0 113647.0 49203.0 42588.0 202708.0 209703.0 121489.0 127261.0 365130.0 365604.0 54182.0 61061.0 188601.0 193400.0 109921.0 105831.0 210954.0 230070.0 210954.0 210954.0 210954.0 210954.0 210954.0 210954.0 230070.0 230070.0 230070.0 230070.0 230070.0 230070.0
268858.0 269873.0 188207.0 182364.0 29453.0 21464.0 88839.0 81584.0 241905.0 235664.0 17385.0 21545.0 18495.0 10452.0 288817.0 295670.0 123703.0 119998.0 0.0 8151.0 111706.0 107822.0 172426.0 170647.0 64955.0 72132.0 67109.0 73761.0 62341.0 64308.0 58035.0 55370.0 133792.0 126573.0 17561.0 9627.0 98324.0 90441.0 116924.0 115915.0 216869.0 209501.0 92698.0 91304.0 86939.0 80340.0 27245.0 28706.0 141677.0 149331.0 298991.0 290800.0 96505.0 89692.0 71872.0 67326.0 309793.0 308020.0 15349.0 22107.0 233397.0 226949.0 79887.0 75685.0 29955.0 32337.0 79240.0 81578.0 126654.0 134663.0 7877.0 15333.0 296908.0 295089.0 67628.0 62938.0 109345.0 116901.0 58081.0 51250.0 92538.0 142547.0 92538.0 92538.0 92538.0 92538.0 92538.0 92538.0 142547.0 142547.0 142547.0 142547.0 142547.0 142547.0
261033.0 261987.0 181238.0 175528.0 21366.0 13402.0 83200.0 76223.0 234611.0 228451.0 25430.0 29626.0 26468.0 18392.0 280886.0 287739.0 128664.0 125348.0 8151.0 0.0 115145.0 110757.0 173565.0 172164.0 56942.0 64106.0 62198.0 69261.0 55091.0 56608.0 50398.0 47405.0 127536.0 120506.0 24605.0 17012.0 103155.0 95383.0 119363.0 118877.0 209730.0 202409.0 97788.0 96924.0 93126.0 86818.0 30977.0 34146.0 133664.0 141343.0 291409.0 283227.0 98749.0 92301.0 66253.0 61124.0 301899.0 300181.0 16374.0 24429.0 225938.0 219562.0 85549.0 80836.0 24789.0 28938.0 86106.0 87998.0 118980.0 126976.0 14606.0 20211.0 289005.0 287158.0 72134.0 66817.0 113624.0 121299.0 54952.0 48763.0 89435.0 134468.0 89435.0 89435.0 89435.0 89435.0 89435.0 89435.0 134468.0 134468.0 134468.0 134468.0 134468.0 134468.0
352269.0 352478.0 285960.0 281526.0 128667.0 123763.0 196699.0 190354.0 334467.0 329486.0 109464.0 101966.0 101517.0 105220.0 371042.0 377894.0 204883.0 197976.0 111706.0 115145.0 0.0 8543.0 275041.0 271602.0 156809.0 162311.0 177015.0 184303.0 163699.0 161363.0 156640.0 150112.0 238166.0 232068.0 116996.0 113902.0 184223.0 176785.0 215791.0 212135.0 312053.0 305412.0 30724.0 38616.0 48726.0 55306.0 132958.0 128811.0 223683.0 231675.0 385848.0 377913.0 197655.0 189817.0 180095.0 173767.0 392181.0 391052.0 98845.0 90719.0 323647.0 318518.0 162478.0 163346.0 139838.0 143778.0 148881.0 156104.0 217949.0 225183.0 104256.0 96387.0 379254.0 377313.0 161167.0 160615.0 13306.0 16595.0 169725.0 162951.0 92852.0 223554.0 92852.0 92852.0 92852.0 92852.0 92852.0 92852.0 223554.0 223554.0 223554.0 223554.0 223554.0 223554.0
344936.0 345145.0 279281.0 274976.0 123286.0 118735.0 191436.0 185272.0 327315.0 322426.0 106834.0 99559.0 98821.0 101949.0 363709.0 370562.0 205387.0 198690.0 107822.0 110757.0 8543.0 0.0 273558.0 270352.0 150430.0 155763.0 172218.0 179638.0 157926.0 155276.0 150724.0 144011.0 232268.0 226329.0 114268.0 110668.0 184086.0 176516.0 214583.0 211214.0 305120.0 298546.0 34118.0 42335.0 52126.0 57924.0 130143.0 126435.0 216351.0 224342.0 378515.0 370580.0 196053.0 188285.0 174971.0 168431.0 384848.0 383719.0 94388.0 86368.0 316370.0 311330.0 162323.0 162768.0 135281.0 139586.0 149494.0 156490.0 211049.0 218201.0 100576.0 92594.0 371921.0 369981.0 160021.0 159058.0 20429.0 24950.0 165602.0 159022.0 84514.0 216221.0 84514.0 84514.0 84514.0 84514.0 84514.0 84514.0 216221.0 216221.0 216221.0 216221.0 216221.0 216221.0
294950.0 300024.0 197100.0 189233.0 175212.0 173768.0 137575.0 135301.0 246101.0 238045.0 167896.0 174570.0 175867.0 174672.0 324789.0 329386.0 88535.0 96835.0 172426.0 173565.0 275041.0 273558.0 0.0 8242.0 180850.0 183676.0 135372.0 128581.0 163424.0 171894.0 169788.0 176781.0 152154.0 146171.0 160950.0 166327.0 96924.0 102607.0 59648.0 64648.0 221755.0 214976.0 248098.0 242796.0 234010.0 225906.0 146027.0 148080.0 216227.0 219090.0 305284.0 297994.0 77528.0 85273.0 140952.0 148817.0 334145.0 328581.0 187772.0 194005.0 247138.0 239151.0 116675.0 113531.0 155940.0 148326.0 134643.0 126457.0 190824.0 195173.0 177789.0 185604.0 323832.0 326304.0 114036.0 114500.0 268280.0 274414.0 127715.0 129911.0 262112.0 222342.0 262112.0 262112.0 262112.0 262112.0 262112.0 262112.0 222342.0 222342.0 222342.0 222342.0 222342.0 222342.0
301337.0 306314.0 203205.0 195299.0 174812.0 172999.0 140201.0 137489.0 252833.0 244771.0 165334.0 171804.0 173251.0 172418.0 330990.0 335693.0 81748.0 90113.0 170647.0 172164.0 271602.0 270352.0 8242.0 0.0 182069.0 185186.0 136664.0 130149.0 164685.0 173195.0 170805.0 177602.0 156957.0 150713.0 158545.0 164201.0 91613.0 97658.0 55811.0 60035.0 228269.0 221406.0 244250.0 238762.0 229826.0 221739.0 143940.0 145569.0 220096.0 223203.0 312277.0 304932.0 74762.0 82289.0 142631.0 150312.0 340763.0 335284.0 185991.0 191993.0 253594.0 245590.0 111900.0 109215.0 155431.0 147682.0 129473.0 121302.0 194655.0 199252.0 175739.0 183459.0 330333.0 332687.0 110436.0 111422.0 264529.0 270528.0 128060.0 129766.0 261115.0 226086.0 261115.0 261115.0 261115.0 261115.0 261115.0 261115.0 226086.0 226086.0 226086.0 226086.0 226086.0 226086.0
204393.0 205189.0 129510.0 124802.0 35617.0 43541.0 50910.0 48880.0 180439.0 174773.0 81416.0 86497.0 83405.0 75329.0 224007.0 230860.0 163101.0 162303.0 64955.0 56942.0 156809.0 150430.0 180850.0 182069.0 0.0 7195.0 45479.0 52530.0 17433.0 9094.0 11984.0 9706.0 83051.0 78186.0 78140.0 72217.0 138567.0 132072.0 139229.0 141984.0 156612.0 149642.0 146824.0 147834.0 145967.0 140647.0 74663.0 81786.0 76725.0 84406.0 235661.0 227529.0 119845.0 116413.0 40710.0 32395.0 245077.0 243490.0 67283.0 74321.0 170915.0 164947.0 126928.0 120027.0 43686.0 49935.0 133780.0 133180.0 63387.0 71224.0 71267.0 74850.0 232167.0 230279.0 109179.0 101695.0 158922.0 166790.0 55995.0 57574.0 100929.0 77703.0 100929.0 100929.0 100929.0 100929.0 100929.0 100929.0 77703.0 77703.0 77703.0 77703.0 77703.0 77703.0
197370.0 198112.0 123700.0 119224.0 42763.0 50704.0 50772.0 49879.0 174012.0 168457.0 88611.0 93676.0 90572.0 82496.0 216900.0 223753.0 168779.0 168198.0 72132.0 64106.0 162311.0 155763.0 183676.0 185186.0 7195.0 0.0 48615.0 55096.0 21068.0 12746.0 17751.0 16891.0 79175.0 74870.0 85309.0 79411.0 144455.0 138099.0 143728.0 146772.0 150441.0 143558.0 153098.0 154291.0 152621.0 147410.0 81577.0 88782.0 69560.0 77262.0 228859.0 220741.0 124664.0 121545.0 42786.0 34878.0 237989.0 236447.0 74179.0 81086.0 164308.0 158438.0 133324.0 126313.0 50558.0 56543.0 140560.0 139804.0 56826.0 64578.0 78395.0 81853.0 225074.0 223172.0 115399.0 107839.0 164784.0 172644.0 60638.0 62889.0 104309.0 70508.0 104309.0 104309.0 104309.0 104309.0 104309.0 104309.0 70508.0 70508.0 70508.0 70508.0 70508.0 70508.0
216588.0 218892.0 126951.0 120244.0 50272.0 53601.0 23100.0 15140.0 182681.0 175749.0 76975.0 84507.0 82834.0 76114.0 239712.0 246415.0 125539.0 126315.0 67109.0 62198.0 177015.0 172218.0 135372.0 136664.0 45479.0 48615.0 0.0 8048.0 28053.0 36540.0 34674.0 42148.0 69282.0 61377.0 70406.0 68787.0 102999.0 97868.0 96248.0 100016.0 156546.0 148887.0 159747.0 158392.0 153699.0 146774.0 58332.0 66271.0 99886.0 105896.0 242397.0 234167.0 78242.0 76383.0 8792.0 14016.0 258426.0 255492.0 78271.0 86450.0 176068.0 168894.0 96746.0 88877.0 37427.0 35448.0 108812.0 105736.0 77345.0 84799.0 74984.0 82040.0 245908.0 245315.0 77868.0 70043.0 175819.0 183496.0 17275.0 24044.0 136518.0 103757.0 136518.0 136518.0 136518.0 136518.0 136518.0 136518.0 103757.0 103757.0 103757.0 103757.0 103757.0 103757.0
215373.0 217936.0 123876.0 116915.0 58165.0 61219.0 20184.0 12419.0 179928.0 172827.0 82618.0 90299.0 88832.0 82408.0 239245.0 245799.0 123150.0 124446.0 73761.0 69261.0 184303.0 179638.0 128581.0 130149.0 52530.0 55096.0 8048.0 0.0 35141.0 43476.0 42167.0 49818.0 65444.0 57263.0 75774.0 74772.0 101498.0 96873.0 91781.0 96046.0 153591.0 145883.0 166457.0 164872.0 159901.0 152836.0 62751.0 70526.0 101796.0 107389.0 240126.0 231910.0 74677.0 73582.0 12569.0 20247.0 257258.0 254093.0 85472.0 93627.0 173851.0 166522.0 96945.0 88942.0 44487.0 41624.0 110140.0 106511.0 78290.0 85416.0 81609.0 88866.0 244852.0 244518.0 78121.0 70402.0 182837.0 190475.0 19296.0 27064.0 144566.0 106109.0 144566.0 144566.0 144566.0 144566.0 144566.0 144566.0 106109.0 106109.0 106109.0 106109.0 106109.0 106109.0
207612.0 209018.0 126243.0 120699.0 35893.0 42583.0 36012.0 32578.0 179570.0 173368.0 76990.0 83216.0 80572.0 72705.0 228424.0 235277.0 148388.0 148118.0 62341.0 55091.0 163699.0 157926.0 163424.0 164685.0 17433.0 21068.0 28053.0 35141.0 0.0 8532.0 8000.0 16024.0 74515.0 68403.0 72316.0 67762.0 124400.0 118307.0 122662.0 125751.0 154640.0 147330.0 150655.0 150721.0 147703.0 141684.0 65557.0 73281.0 83126.0 90228.0 236861.0 228655.0 103660.0 100694.0 23619.0 15185.0 248934.0 246804.0 68571.0 76410.0 171111.0 164618.0 114442.0 107146.0 35361.0 39454.0 123137.0 121681.0 65069.0 73088.0 69649.0 74848.0 236133.0 234682.0 96108.0 88403.0 164474.0 172323.0 39635.0 42363.0 113808.0 85477.0 113808.0 113808.0 113808.0 113808.0 113808.0 113808.0 85477.0 85477.0 85477.0 85477.0 85477.0 85477.0
204597.0 205721.0 126257.0 121125.0 35985.0 43459.0 42326.0 39909.0 178479.0 172533.0 79942.0 85651.0 82776.0 74760.0 224819.0 231672.0 156137.0 155658.0 64308.0 56608.0 161363.0 155276.0 171894.0 173195.0 9094.0 12746.0 36540.0 43476.0 8532.0 0.0 6380.0 11266.0 77143.0 71705.0 75912.0 70668.0 131918.0 125655.0 131059.0 134046.0 154059.0 146906.0 149829.0 150361.0 147903.0 142214.0 70680.0 78161.0 78411.0 85801.0 234821.0 226645.0 111932.0 108801.0 31617.0 23308.0 245653.0 243774.0 68689.0 76194.0 169492.0 163244.0 121241.0 114106.0 39783.0 45020.0 129134.0 128057.0 62372.0 70371.0 71193.0 75643.0 232794.0 231082.0 103135.0 95512.0 162812.0 170680.0 47914.0 50183.0 108260.0 80183.0 108260.0 108260.0 108260.0 108260.0 108260.0 108260.0 80183.0 80183.0 80183.0 80183.0 80183.0 80183.0
210925.0 212074.0 131870.0 126585.0 30051.0 37350.0 44011.0 40463.0 184448.0 178430.0 73578.0 79333.0 76485.0 68484.0 231189.0 238042.0 151224.0 150528.0 58035.0 50398.0 156640.0 150724.0 169788.0 170805.0 11984.0 17751.0 34674.0 42167.0 8000.0 6380.0 0.0 8047.0 81548.0 75717.0 69533.0 64304.0 126786.0 120380.0 127327.0 130022.0 159876.0 152673.0 144396.0 144750.0 142100.0 136309.0 64470.0 71895.0 84777.0 92178.0 241011.0 232829.0 107881.0 104429.0 31199.0 22764.0 252006.0 250105.0 62851.0 70478.0 175587.0 169281.0 115593.0 108563.0 33509.0 39000.0 123118.0 122191.0 68620.0 76629.0 64998.0 69620.0 239150.0 237453.0 97648.0 90093.0 157750.0 165612.0 44110.0 45594.0 105814.0 86491.0 105814.0 105814.0 105814.0 105814.0 105814.0 105814.0 86491.0 86491.0 86491.0 86491.0 86491.0 86491.0
213720.0 214605.0 137159.0 132151.0 26176.0 34022.0 52002.0 48504.0 188882.0 183062.0 71736.0 76900.0 73845.0 65773.0 233482.0 240335.0 155205.0 154120.0 55370.0 47405.0 150112.0 144011.0 176781.0 177602.0 9706.0 16891.0 42148.0 49818.0 16024.0 11266.0 8047.0 0.0 88388.0 82859.0 68435.0 62527.0 130421.0 123748.0 132974.0 135327.0 164715.0 157633.0 138891.0 139595.0 137390.0 131880.0 65230.0 72248.0 86323.0 93961.0 244634.0 236483.0 113204.0 109347.0 39149.0 30739.0 254510.0 252846.0 58364.0 65647.0 179620.0 173516.0 118118.0 111372.0 34374.0 41004.0 124477.0 124071.0 72173.0 80095.0 61819.0 65687.0 241611.0 239754.0 100629.0 93262.0 151650.0 159520.0 50088.0 50605.0 97865.0 87390.0 97865.0 97865.0 97865.0 97865.0 97865.0 97865.0 87390.0 87390.0 87390.0 87390.0 87390.0 87390.0
154361.0 157845.0 58889.0 51645.0 110133.0 116164.0 46183.0 54178.0 115168.0 107846.0 145588.0 152850.0 150839.0 143580.0 180856.0 186716.0 177850.0 181021.0 133792.0 127536.0 238166.0 232268.0 152154.0 156957.0 83051.0 79175.0 69282.0 65444.0 74515.0 77143.0 81548.0 88388.0 0.0 8434.0 139348.0 136979.0 160015.0 156936.0 138700.0 145222.0 88629.0 80883.0 224723.0 224350.0 220627.0 214131.0 127604.0 135522.0 68158.0 69096.0 176031.0 167868.0 127569.0 129439.0 62577.0 66473.0 196048.0 192163.0 142294.0 150328.0 110220.0 102577.0 159614.0 151524.0 104023.0 103961.0 174385.0 170017.0 45043.0 46385.0 141558.0 147733.0 184121.0 184743.0 141254.0 133868.0 238953.0 246794.0 84738.0 92442.0 183483.0 75084.0 183483.0 183483.0 183483.0 183483.0 183483.0 183483.0 75084.0 75084.0 75084.0 75084.0 75084.0 75084.0
162617.0 166022.0 67311.0 60027.0 103663.0 109437.0 38332.0 46240.0 123593.0 116256.0 137986.0 145328.0 143395.0 136240.0 188892.0 194823.0 169673.0 172760.0 126573.0 120506.0 232068.0 226329.0 146171.0 150713.0 78186.0 74870.0 61377.0 57263.0 68403.0 71705.0 75717.0 82859.0 8434.0 0.0 131637.0 129475.0 151660.0 148535.0 130839.0 137261.0 97044.0 89297.0 217968.0 217412.0 213490.0 206895.0 119637.0 127526.0 71795.0 73559.0 184465.0 176301.0 119369.0 121132.0 54987.0 59384.0 204340.0 200505.0 135516.0 143600.0 118635.0 111003.0 151180.0 143090.0 96700.0 96325.0 165978.0 161589.0 47431.0 50069.0 134378.0 140717.0 192371.0 192912.0 132825.0 125447.0 232535.0 240359.0 76558.0 84305.0 179018.0 78498.0 179018.0 179018.0 179018.0 179018.0 179018.0 179018.0 78498.0 78498.0 78498.0 78498.0 78498.0 78498.0
279928.0 281304.0 195750.0 189466.0 44032.0 36336.0 93314.0 85509.0 250519.0 243967.0 7607.0 15474.0 15479.0 14166.0 300591.0 307444.0 107098.0 103052.0 17561.0 24605.0 116996.0 114268.0 160950.0 158545.0 78140.0 85309.0 70406.0 75774.0 72316.0 75912.0 69533.0 68435.0 139348.0 131637.0 0.0 7955.0 81942.0 73979.0 103677.0 101870.0 224938.0 217416.0 94244.0 91339.0 85254.0 77810.0 15984.0 13089.0 154267.0 161707.0 308756.0 300534.0 83809.0 76494.0 76786.0 73979.0 321228.0 319120.0 30323.0 34382.0 242721.0 235980.0 62792.0 59092.0 37090.0 35441.0 61695.0 64057.0 137385.0 145404.0 18611.0 25426.0 308412.0 306863.0 51905.0 48227.0 112688.0 119828.0 57678.0 49934.0 108311.0 155705.0 108311.0 108311.0 108311.0 108311.0 108311.0 108311.0 155705.0 155705.0 155705.0 155705.0 155705.0 155705.0
275161.0 276370.0 192553.0 186463.0 37344.0 29453.0 91301.0 83705.0 246869.0 240456.0 9274.0 15878.0 14063.0 8721.0 295486.0 302339.0 114711.0 110804.0 9627.0 17012.0 113902.0 110668.0 166327.0 164201.0 72217.0 79411.0 68787.0 74772.0 67762.0 70668.0 64304.0 62527.0 136979.0 129475.0 7955.0 0.0 89449.0 81515.0 109795.0 108348.0 221522.0 214065.0 92722.0 90486.0 85159.0 78065.0 20301.0 19940.0 148737.0 156281.0 304599.0 296389.0 89639.0 82540.0 74489.0 70892.0 316303.0 314349.0 22906.0 27860.0 238742.0 232131.0 70593.0 66675.0 33283.0 33340.0 69614.0 72009.0 132680.0 140705.0 11617.0 19277.0 303452.0 301745.0 59077.0 54903.0 110435.0 117779.0 57615.0 50189.0 100915.0 149917.0 100915.0 100915.0 100915.0 100915.0 100915.0 100915.0 149917.0 149917.0 149917.0 149917.0 149917.0 149917.0
314135.0 317281.0 218127.0 210421.0 115257.0 109985.0 120720.0 113696.0 274087.0 266424.0 86742.0 91109.0 93611.0 95783.0 339457.0 345727.0 25555.0 23743.0 98324.0 103155.0 184223.0 184086.0 96924.0 91613.0 138567.0 144455.0 102999.0 101498.0 124400.0 131918.0 126786.0 130421.0 160015.0 151660.0 81942.0 89449.0 0.0 8004.0 39880.0 32974.0 247481.0 239767.0 155397.0 149271.0 139894.0 131914.0 72287.0 69634.0 202868.0 208741.0 335401.0 327316.0 35191.0 30990.0 111739.0 115531.0 355932.0 352164.0 112253.0 115901.0 270098.0 262351.0 21764.0 22922.0 97740.0 90072.0 37885.0 29741.0 179779.0 186899.0 100546.0 106865.0 343854.0 344096.0 31152.0 37594.0 175898.0 181351.0 86414.0 82147.0 190251.0 206726.0 190251.0 190251.0 190251.0 190251.0 190251.0 190251.0 206726.0 206726.0 206726.0 206726.0 206726.0 206726.0
310689.0 313679.0 215384.0 207761.0 107908.0 102474.0 116437.0 109193.0 271505.0 263916.0 78741.0 83115.0 85608.0 87796.0 335587.0 341959.0 33288.0 30561.0 90441.0 95383.0 176785.0 176516.0 102607.0 97658.0 132072.0 138099.0 97868.0 96873.0 118307.0 125655.0 120380.0 123748.0 156936.0 148535.0 73979.0 81515.0 8004.0 0.0 44148.0 38031.0 244881.0 237147.0 148170.0 142178.0 132911.0 124891.0 64589.0 61738.0 197723.0 203758.0 332718.0 324599.0 35575.0 29860.0 106650.0 110028.0 352537.0 348917.0 104296.0 107904.0 267145.0 259460.0 14433.0 14923.0 90690.0 83138.0 32177.0 24017.0 175003.0 182251.0 92577.0 98868.0 340364.0 340440.0 23651.0 30540.0 168648.0 174214.0 81002.0 76282.0 182282.0 201399.0 182282.0 182282.0 182282.0 182282.0 182282.0 182282.0 201399.0 201399.0 201399.0 201399.0 201399.0 201399.0
292257.0 296130.0 194015.0 186060.0 125153.0 122085.0 107522.0 102250.0 248656.0 240748.0 110202.0 116406.0 118024.0 117734.0 319479.0 325198.0 43323.0 49458.0 116924.0 119363.0 215791.0 214583.0 59648.0 55811.0 139229.0 143728.0 96248.0 91781.0 122662.0 131059.0 127327.0 132974.0 138700.0 130839.0 103677.0 109795.0 39880.0 44148.0 0.0 8039.0 222378.0 214835.0 188533.0 183164.0 174362.0 166258.0 89780.0 90605.0 191768.0 196503.0 309968.0 302072.0 20705.0 27261.0 104006.0 110206.0 333545.0 329114.0 132150.0 137652.0 246316.0 238364.0 57642.0 53964.0 105787.0 97736.0 76280.0 68149.0 166977.0 173152.0 121408.0 128913.0 321983.0 323027.0 54625.0 55894.0 208771.0 214834.0 83234.0 82535.0 208797.0 196710.0 208797.0 208797.0 208797.0 208797.0 208797.0 208797.0 196710.0 196710.0 196710.0 196710.0 196710.0 196710.0
299086.0 302866.0 201040.0 193106.0 126005.0 122467.0 112568.0 106941.0 255897.0 248012.0 108089.0 113940.0 115767.0 116016.0 326073.0 331870.0 35375.0 41420.0 115915.0 118877.0 212135.0 211214.0 64648.0 60035.0 141984.0 146772.0 100016.0 96046.0 125751.0 134046.0 130022.0 135327.0 145222.0 137261.0 101870.0 108348.0 32974.0 38031.0 8039.0 0.0 229558.0 221987.0 184395.0 178797.0 169810.0 161727.0 88671.0 88788.0 196841.0 201775.0 317245.0 309322.0 22142.0 26843.0 108040.0 113856.0 340464.0 336115.0 130985.0 136119.0 253354.0 245421.0 52028.0 49204.0 106815.0 98737.0 70179.0 61999.0 172259.0 178608.0 119956.0 127259.0 328830.0 329770.0 51328.0 53668.0 204739.0 210633.0 86133.0 84724.0 208225.0 201614.0 208225.0 208225.0 208225.0 208225.0 208225.0 208225.0 201614.0 201614.0 201614.0 201614.0 201614.0 201614.0
73415.0 78967.0 29752.0 37139.0 189928.0 197081.0 133708.0 141776.0 26625.0 19238.0 230539.0 237289.0 234863.0 227140.0 104152.0 108085.0 263632.0 267531.0 216869.0 209730.0 312053.0 305120.0 221755.0 228269.0 156612.0 150441.0 156546.0 153591.0 154640.0 154059.0 159876.0 164715.0 88629.0 97044.0 224938.0 221522.0 247481.0 244881.0 222378.0 229558.0 0.0 7751.0 303435.0 304308.0 301956.0 296174.0 214547.0 222554.0 93181.0 86271.0 87943.0 79904.0 213889.0 216590.0 148945.0 150966.0 112594.0 107439.0 222718.0 230250.0 25501.0 17690.0 248119.0 240034.0 188258.0 189640.0 263012.0 258616.0 94107.0 86936.0 224272.0 229400.0 102077.0 104720.0 229846.0 222489.0 315110.0 322958.0 172781.0 180302.0 248445.0 97988.0 248445.0 248445.0 248445.0 248445.0 248445.0 248445.0 97988.0 97988.0 97988.0 97988.0 97988.0 97988.0
79983.0 85255.0 22018.0 29395.0 182719.0 189819.0 126023.0 134092.0 34366.0 26969.0 223062.0 229849.0 227449.0 219751.0 110307.0 114526.0 256001.0 259865.0 209501.0 202409.0 305412.0 298546.0 214976.0 221406.0 149642.0 143558.0 148887.0 145883.0 147330.0 146906.0 152673.0 157633.0 80883.0 89297.0 217416.0 214065.0 239767.0 237147.0 214835.0 221987.0 7751.0 0.0 296439.0 297223.0 294772.0 288935.0 206932.0 214936.0 87963.0 81340.0 95641.0 87582.0 206218.0 208885.0 141325.0 143437.0 119702.0 114706.0 215523.0 223097.0 32199.0 24186.0 240368.0 232283.0 180791.0 182091.0 255267.0 250865.0 87502.0 80513.0 216934.0 222134.0 108962.0 111336.0 222096.0 214740.0 308308.0 316162.0 165084.0 172617.0 242216.0 93095.0 242216.0 242216.0 242216.0 242216.0 242216.0 242216.0 93095.0 93095.0 93095.0 93095.0 93095.0 93095.0
347375.0 347584.0 276048.0 270945.0 114768.0 108562.0 180977.0 173992.0 327087.0 321552.0 86652.0 78776.0 79159.0 84452.0 366147.0 373000.0 175242.0 168141.0 92698.0 97788.0 30724.0 34118.0 248098.0 244250.0 146824.0 153098.0 159747.0 166457.0 150655.0 149829.0 144396.0 138891.0 224723.0 217968.0 94244.0 92722.0 155397.0 148170.0 188533.0 184395.0 303435.0 296439.0 0.0 8242.0 18091.0 24653.0 110090.0 104854.0 218777.0 226771.0 380746.0 372734.0 171224.0 163290.0 164039.0 158662.0 387287.0 386158.0 82453.0 74395.0 317129.0 311440.0 133764.0 135265.0 122376.0 124932.0 119269.0 126720.0 209869.0 217509.0 84849.0 77725.0 374359.0 372419.0 134088.0 134350.0 20518.0 26335.0 150195.0 142886.0 100102.0 218659.0 100102.0 100102.0 100102.0 100102.0 100102.0 100102.0 218659.0 218659.0 218659.0 218659.0 218659.0 218659.0
349497.0 349747.0 276603.0 271316.0 114862.0 108301.0 180037.0 172872.0 328269.0 322588.0 83818.0 75895.0 76635.0 82503.0 368311.0 375164.0 168588.0 161362.0 91304.0 96924.0 38616.0 42335.0 242796.0 238762.0 147834.0 154291.0 158392.0 164872.0 150721.0 150361.0 144750.0 139595.0 224350.0 217412.0 91339.0 90486.0 149271.0 142178.0 183164.0 178797.0 304308.0 297223.0 8242.0 0.0 10159.0 17505.0 106980.0 101323.0 220912.0 228899.0 382597.0 374547.0 166278.0 158320.0 163067.0 158029.0 389450.0 388321.0 82180.0 74320.0 318562.0 312728.0 127748.0 129599.0 121207.0 123251.0 112720.0 120308.0 211117.0 218844.0 83427.0 76720.0 376523.0 374583.0 128943.0 129597.0 27458.0 32119.0 148101.0 140638.0 105724.0 220823.0 105724.0 105724.0 105724.0 105724.0 105724.0 105724.0 220823.0 220823.0 220823.0 220823.0 220823.0 220823.0
348912.0 349080.0 273898.0 268399.0 112060.0 105123.0 175753.0 168402.0 326272.0 320418.0 77878.0 69988.0 71128.0 77586.0 367697.0 374550.0 158839.0 151539.0 86939.0 93126.0 48726.0 52126.0 234010.0 229826.0 145967.0 152621.0 153699.0 159901.0 147703.0 147903.0 142100.0 137390.0 220627.0 213490.0 85254.0 85159.0 139894.0 132911.0 174362.0 169810.0 301956.0 294772.0 18091.0 10159.0 0.0 8114.0 100564.0 94490.0 220238.0 228202.0 381390.0 373296.0 157865.0 149896.0 158794.0 154164.0 388646.0 387691.0 79250.0 71745.0 316882.0 310876.0 118479.0 120612.0 116880.0 118330.0 103074.0 110750.0 209354.0 217175.0 79115.0 72989.0 375909.0 373969.0 120411.0 121425.0 37569.0 41865.0 142616.0 135010.0 110171.0 220209.0 110171.0 110171.0 110171.0 110171.0 110171.0 110171.0 220209.0 220209.0 220209.0 220209.0 220209.0 220209.0
344204.0 344515.0 267927.0 262311.0 106263.0 99126.0 169006.0 161570.0 320687.0 314733.0 70521.0 62676.0 64004.0 70733.0 363065.0 369918.0 151086.0 143857.0 80340.0 86818.0 55306.0 57924.0 225906.0 221739.0 140647.0 147410.0 146774.0 152836.0 141684.0 142214.0 136309.0 131880.0 214131.0 206895.0 77810.0 78065.0 131914.0 124891.0 166258.0 161727.0 296174.0 288935.0 24653.0 17505.0 8114.0 0.0 92954.0 86737.0 215565.0 223504.0 376268.0 368150.0 149754.0 141784.0 152073.0 147661.0 384174.0 383080.0 73542.0 66329.0 311494.0 305386.0 110459.0 112526.0 110203.0 111347.0 95236.0 102856.0 203996.0 211865.0 72584.0 66837.0 371221.0 369337.0 112298.0 113335.0 44850.0 49598.0 135336.0 127676.0 109736.0 215591.0 109736.0 109736.0 109736.0 109736.0 109736.0 109736.0 215591.0 215591.0 215591.0 215591.0 215591.0 215591.0
272044.0 273790.0 185071.0 178487.0 44616.0 38339.0 81430.0 73428.0 240484.0 233700.0 23574.0 31346.0 31447.0 28764.0 293553.0 300388.0 97829.0 94798.0 27245.0 30977.0 132958.0 130143.0 146027.0 143940.0 74663.0 81577.0 58332.0 62751.0 65557.0 70680.0 64470.0 65230.0 127604.0 119637.0 15984.0 20301.0 72287.0 64589.0 89780.0 88671.0 214547.0 206932.0 110090.0 106980.0 100564.0 92954.0 0.0 8022.0 148659.0 155784.0 299566.0 291332.0 69479.0 62525.0 65608.0 64211.0 313630.0 311181.0 42378.0 48055.0 233306.0 226336.0 55594.0 50264.0 31028.0 26175.0 59389.0 59687.0 129916.0 137862.0 31799.0 39577.0 300912.0 299730.0 41194.0 35901.0 128651.0 135763.0 43868.0 35967.0 119700.0 150783.0 119700.0 119700.0 119700.0 119700.0 119700.0 119700.0 150783.0 150783.0 150783.0 150783.0 150783.0 150783.0
280003.0 281720.0 193067.0 186464.0 50353.0 43471.0 89362.0 81344.0 248501.0 241711.0 19825.0 26882.0 27827.0 27229.0 301433.0 308258.0 94997.0 91362.0 28706.0 34146.0 128811.0 126435.0 148080.0 145569.0 81786.0 88782.0 66271.0 70526.0 73281.0 78161.0 71895.0 72248.0 135522.0 127526.0 13089.0 19940.0 69634.0 61738.0 90605.0 88788.0 222554.0 214936.0 104854.0 101323.0 94490.0 86737.0 8022.0 0.0 156320.0 163497.0 307585.0 299351.0 70812.0 63443.0 73610.0 72221.0 321570.0 319146.0 42846.0 47388.0 241327.0 234358.0 51415.0 46983.0 38386.0 34033.0 53119.0 54203.0 137809.0 145766.0 31379.0 38479.0 308843.0 307627.0 39137.0 35164.0 123858.0 130796.0 51501.0 43598.0 120848.0 158330.0 120848.0 120848.0 120848.0 120848.0 120848.0 120848.0 158330.0 158330.0 158330.0 158330.0 158330.0 158330.0
128674.0 128981.0 74070.0 73664.0 112321.0 120263.0 84281.0 90135.0 112405.0 108441.0 157982.0 163216.0 160129.0 152054.0 147591.0 154443.0 224945.0 226084.0 141677.0 133664.0 223683.0 216351.0 216227.0 220096.0 76725.0 69560.0 99886.0 101796.0 83126.0 78411.0 84777.0 86323.0 68158.0 71795.0 154267.0 148737.0 202868.0 197723.0 191768.0 196841.0 93181.0 87963.0 218777.0 220912.0 220238.0 215565.0 148659.0 156320.0 0.0 7995.0 162168.0 154244.0 176092.0 175363.0 91131.0 87993.0 168743.0 167516.0 143163.0 149605.0 100688.0 96261.0 195803.0 188134.0 118066.0 122581.0 205868.0 203898.0 25448.0 21799.0 147932.0 151117.0 155801.0 153863.0 177042.0 169203.0 228058.0 235786.0 116760.0 122118.0 158600.0 7151.0 158600.0 158600.0 158600.0 158600.0 158600.0 158600.0 7151.0 7151.0 7151.0 7151.0 7151.0 7151.0
120714.0 121080.0 68620.0 68904.0 120020.0 127944.0 89278.0 95495.0 104859.0 101088.0 165537.0 170860.0 167800.0 159725.0 139727.0 146580.0 230477.0 231823.0 149331.0 141343.0 231675.0 224342.0 219090.0 223203.0 84406.0 77262.0 105896.0 107389.0 90228.0 85801.0 92178.0 93961.0 69096.0 73559.0 161707.0 156281.0 208741.0 203758.0 196503.0 201775.0 86271.0 81340.0 226771.0 228899.0 228202.0 223504.0 155784.0 163497.0 7995.0 0.0 154187.0 146271.0 181291.0 180827.0 97110.0 94404.0 160874.0 159588.0 151016.0 157503.0 92968.0 88710.0 202198.0 194468.0 125334.0 129655.0 212626.0 210488.0 29526.0 23958.0 155656.0 158931.0 147938.0 145999.0 183389.0 175545.0 236050.0 243778.0 122924.0 128512.0 166591.0 11757.0 166591.0 166591.0 166591.0 166591.0 166591.0 166591.0 11757.0 11757.0 11757.0 11757.0 11757.0 11757.0
39744.0 44580.0 117335.0 124984.0 270668.0 278271.0 220012.0 228019.0 61399.0 69235.0 313798.0 320067.0 317363.0 309421.0 54703.0 51147.0 351489.0 355457.0 298991.0 291409.0 385848.0 378515.0 305284.0 312277.0 235661.0 228859.0 242397.0 240126.0 236861.0 234821.0 241011.0 244634.0 176031.0 184465.0 308756.0 304599.0 335401.0 332718.0 309968.0 317245.0 87943.0 95641.0 380746.0 382597.0 381390.0 376268.0 299566.0 307585.0 162168.0 154187.0 0.0 8235.0 301820.0 304526.0 234376.0 235389.0 38726.0 30736.0 302930.0 309944.0 66330.0 73615.0 335638.0 327549.0 271692.0 273987.0 350091.0 345957.0 172497.0 164545.0 306006.0 310306.0 37772.0 45511.0 317217.0 309759.0 390186.0 397890.0 259091.0 266390.0 320764.0 164164.0 320764.0 320764.0 320764.0 320764.0 320764.0 320764.0 164164.0 164164.0 164164.0 164164.0 164164.0 164164.0
34295.0 40002.0 109217.0 116895.0 262504.0 270098.0 211791.0 219797.0 53428.0 61327.0 305585.0 311864.0 309166.0 301228.0 53717.0 51322.0 343509.0 347435.0 290800.0 283227.0 377913.0 370580.0 297994.0 304932.0 227529.0 220741.0 234167.0 231910.0 228655.0 226645.0 232829.0 236483.0 167868.0 176301.0 300534.0 296389.0 327316.0 324599.0 302072.0 309322.0 79904.0 87582.0 372734.0 374547.0 373296.0 368150.0 291332.0 299351.0 154244.0 146271.0 8235.0 0.0 293792.0 296454.0 226143.0 227155.0 42065.0 34444.0 294791.0 301823.0 58100.0 65409.0 327468.0 319378.0 263472.0 265756.0 341888.0 337770.0 164334.0 156390.0 297825.0 302149.0 38521.0 45743.0 309034.0 301569.0 382275.0 389988.0 250867.0 258162.0 312829.0 156343.0 312829.0 312829.0 312829.0 312829.0 312829.0 312829.0 156343.0 156343.0 156343.0 156343.0 156343.0 156343.0
281920.0 285391.0 184819.0 177001.0 104535.0 101388.0 92030.0 85970.0 240429.0 232672.0 90572.0 97097.0 98495.0 97745.0 308141.0 314161.0 50320.0 53651.0 96505.0 98749.0 197655.0 196053.0 77528.0 74762.0 119845.0 124664.0 78242.0 74677.0 103660.0 111932.0 107881.0 113204.0 127569.0 119369.0 83809.0 89639.0 35191.0 35575.0 20705.0 22142.0 213889.0 206218.0 171224.0 166278.0 157865.0 149754.0 69479.0 70812.0 176092.0 181291.0 301820.0 293792.0 0.0 7971.0 86430.0 91985.0 323553.0 319505.0 111784.0 117489.0 237032.0 229192.0 45986.0 40146.0 85210.0 77146.0 65220.0 57626.0 151847.0 158450.0 101226.0 108849.0 311682.0 312281.0 37521.0 37039.0 191228.0 197558.0 64030.0 62607.0 188170.0 180652.0 188170.0 188170.0 188170.0 188170.0 188170.0 188170.0 180652.0 180652.0 180652.0 180652.0 180652.0 180652.0
283734.0 287023.0 187303.0 179564.0 99189.0 95628.0 91846.0 85332.0 243186.0 235502.0 83126.0 89516.0 91005.0 90515.0 309475.0 315627.0 49677.0 51785.0 89692.0 92301.0 189817.0 188285.0 85273.0 82289.0 116413.0 121545.0 76383.0 73582.0 100694.0 108801.0 104429.0 109347.0 129439.0 121132.0 76494.0 82540.0 30990.0 29860.0 27261.0 26843.0 216590.0 208885.0 163290.0 158320.0 149896.0 141784.0 62525.0 63443.0 175363.0 180827.0 304526.0 296454.0 7971.0 0.0 84839.0 89815.0 325472.0 321592.0 104900.0 110398.0 239363.0 231584.0 38931.0 32651.0 80055.0 71978.0 58067.0 50687.0 151523.0 158352.0 94151.0 101677.0 313479.0 313880.0 29556.0 29228.0 183316.0 189625.0 61182.0 58856.0 181724.0 179673.0 181724.0 181724.0 181724.0 181724.0 181724.0 181724.0 179673.0 179673.0 179673.0 179673.0 179673.0 179673.0
208159.0 210384.0 119468.0 112940.0 51886.0 56337.0 16972.0 10343.0 174940.0 168109.0 83023.0 90341.0 88426.0 81353.0 231080.0 237814.0 134134.0 135011.0 71872.0 66253.0 180095.0 174971.0 140952.0 142631.0 40710.0 42786.0 8792.0 12569.0 23619.0 31617.0 31199.0 39149.0 62577.0 54987.0 76786.0 74489.0 111739.0 106650.0 104006.0 108040.0 148945.0 141325.0 164039.0 163067.0 158794.0 152073.0 65608.0 73610.0 91131.0 97110.0 234376.0 226143.0 86430.0 84839.0 0.0 8448.0 249972.0 247113.0 81884.0 90064.0 168054.0 160961.0 105502.0 97646.0 41918.0 41384.0 117367.0 114410.0 68563.0 76041.0 79726.0 86389.0 237423.0 236758.0 86626.0 78796.0 179505.0 187251.0 26005.0 32452.0 135822.0 95068.0 135822.0 135822.0 135822.0 135822.0 135822.0 135822.0 95068.0 95068.0 95068.0 95068.0 95068.0 95068.0
208051.0 209986.0 121787.0 115594.0 45145.0 50288.0 23057.0 18022.0 176634.0 170017.0 79746.0 86758.0 84585.0 77190.0 230159.0 236999.0 138615.0 139044.0 67326.0 61124.0 173767.0 168431.0 148817.0 150312.0 32395.0 34878.0 14016.0 20247.0 15185.0 23308.0 22764.0 30739.0 66473.0 59384.0 73979.0 70892.0 115531.0 110028.0 110206.0 113856.0 150966.0 143437.0 158662.0 158029.0 154164.0 147661.0 64211.0 72221.0 87993.0 94404.0 235389.0 227155.0 91985.0 89815.0 8448.0 0.0 249740.0 247139.0 76242.0 84370.0 169167.0 162274.0 107820.0 100141.0 37685.0 38711.0 118537.0 116132.0 66765.0 74530.0 75085.0 81334.0 237087.0 236140.0 89048.0 81209.0 173615.0 181404.0 29124.0 34127.0 127741.0 91411.0 127741.0 127741.0 127741.0 127741.0 127741.0 127741.0 91411.0 91411.0 91411.0 91411.0 91411.0 91411.0
41892.0 39932.0 139646.0 147643.0 280666.0 288530.0 237113.0 244880.0 88254.0 96259.0 325576.0 331249.0 328289.0 320230.0 28460.0 20951.0 373762.0 377064.0 309793.0 301899.0 392181.0 384848.0 334145.0 340763.0 245077.0 237989.0 258426.0 257258.0 248934.0 245653.0 252006.0 254510.0 196048.0 204340.0 321228.0 316303.0 355932.0 352537.0 333545.0 340464.0 112594.0 119702.0 387287.0 389450.0 388646.0 384174.0 313630.0 321570.0 168743.0 160874.0 38726.0 42065.0 323553.0 325472.0 249972.0 249740.0 0.0 8049.0 311889.0 318339.0 87599.0 95627.0 354059.0 346006.0 284277.0 287561.0 367200.0 363769.0 183896.0 175895.0 316323.0 319779.0 12954.0 17418.0 335312.0 327638.0 396555.0 404284.0 275568.0 282412.0 327097.0 170417.0 327097.0 327097.0 327097.0 327097.0 327097.0 327097.0 170417.0 170417.0 170417.0 170417.0 170417.0 170417.0
39193.0 38674.0 135100.0 143065.0 279021.0 286842.0 233920.0 241751.0 82487.0 90537.0 323618.0 329422.0 326511.0 318468.0 32603.0 26016.0 369637.0 373083.0 308020.0 300181.0 391052.0 383719.0 328581.0 335284.0 243490.0 236447.0 255492.0 254093.0 246804.0 243774.0 250105.0 252846.0 192163.0 200505.0 319120.0 314349.0 352164.0 348917.0 329114.0 336115.0 107439.0 114706.0 386158.0 388321.0 387691.0 383080.0 311181.0 319146.0 167516.0 159588.0 30736.0 34444.0 319505.0 321592.0 247113.0 247139.0 8049.0 0.0 310503.0 317078.0 82828.0 90817.0 350736.0 342668.0 282099.0 285182.0 364163.0 360581.0 181736.0 173716.0 314659.0 318295.0 14310.0 21292.0 332041.0 324405.0 395427.0 403155.0 272567.0 279515.0 325969.0 168223.0 325969.0 325969.0 325969.0 325969.0 325969.0 325969.0 168223.0 168223.0 168223.0 168223.0 168223.0 168223.0
271476.0 272075.0 194670.0 189245.0 32813.0 26140.0 98744.0 91999.0 247148.0 241222.0 26677.0 26221.0 22633.0 17065.0 290742.0 297595.0 137419.0 133291.0 15349.0 16374.0 98845.0 94388.0 187772.0 185991.0 67283.0 74179.0 78271.0 85472.0 68571.0 68689.0 62851.0 58364.0 142294.0 135516.0 30323.0 22906.0 112253.0 104296.0 132150.0 130985.0 222718.0 215523.0 82453.0 82180.0 79250.0 73542.0 42378.0 42846.0 143163.0 151016.0 302930.0 294791.0 111784.0 104900.0 81884.0 76242.0 311889.0 310503.0 0.0 8189.0 237982.0 231847.0 92990.0 89415.0 40995.0 45283.0 90229.0 93482.0 130524.0 138425.0 11809.0 8746.0 298954.0 297014.0 81982.0 77719.0 97645.0 105375.0 71308.0 65002.0 78028.0 143376.0 78028.0 78028.0 78028.0 78028.0 78028.0 78028.0 143376.0 143376.0 143376.0 143376.0 143376.0 143376.0
278116.0 278582.0 202347.0 197005.0 40542.0 34170.0 106914.0 100185.0 254528.0 248678.0 29196.0 26432.0 23178.0 20240.0 297189.0 304042.0 140763.0 136235.0 22107.0 24429.0 90719.0 86368.0 194005.0 191993.0 74321.0 81086.0 86450.0 93627.0 76410.0 76194.0 70478.0 65647.0 150328.0 143600.0 34382.0 27860.0 115901.0 107904.0 137652.0 136119.0 230250.0 223097.0 74395.0 74320.0 71745.0 66329.0 48055.0 47388.0 149605.0 157503.0 309944.0 301823.0 117489.0 110398.0 90064.0 84370.0 318339.0 317078.0 8189.0 0.0 245203.0 239151.0 95958.0 92981.0 49142.0 53221.0 91586.0 95475.0 137687.0 145543.0 16264.0 9037.0 305394.0 303461.0 86250.0 82547.0 89457.0 97190.0 79244.0 72791.0 74759.0 149722.0 74759.0 74759.0 74759.0 74759.0 74759.0 74759.0 149722.0 149722.0 149722.0 149722.0 149722.0 149722.0
47916.0 53519.0 52316.0 60256.0 205457.0 212930.0 153717.0 161714.0 14001.0 16149.0 247903.0 254310.0 251682.0 243795.0 78747.0 82585.0 287049.0 290665.0 233397.0 225938.0 323647.0 316370.0 247138.0 253594.0 170915.0 164308.0 176068.0 173851.0 171111.0 169492.0 175587.0 179620.0 110220.0 118635.0 242721.0 238742.0 270098.0 267145.0 246316.0 253354.0 25501.0 32199.0 317129.0 318562.0 316882.0 311494.0 233306.0 241327.0 100688.0 92968.0 66330.0 58100.0 237032.0 239363.0 168054.0 169167.0 87599.0 82828.0 237982.0 245203.0 0.0 8032.0 269666.0 261577.0 205704.0 207814.0 283889.0 279865.0 107528.0 99731.0 240544.0 245127.0 76763.0 79236.0 251158.0 243651.0 327607.0 335395.0 192779.0 200063.0 258629.0 104040.0 258629.0 258629.0 258629.0 258629.0 258629.0 258629.0 104040.0 104040.0 104040.0 104040.0 104040.0 104040.0
55842.0 61291.0 44405.0 52316.0 199229.0 206630.0 146422.0 154441.0 16149.0 14001.0 241264.0 247756.0 245175.0 237323.0 86463.0 90459.0 279173.0 282833.0 226949.0 219562.0 318518.0 311330.0 239151.0 245590.0 164947.0 158438.0 168894.0 166522.0 164618.0 163244.0 169281.0 173516.0 102577.0 111003.0 235980.0 232131.0 262351.0 259460.0 238364.0 245421.0 17690.0 24186.0 311440.0 312728.0 310876.0 305386.0 226336.0 234358.0 96261.0 88710.0 73615.0 65409.0 229192.0 231584.0 160961.0 162274.0 95627.0 90817.0 231847.0 239151.0 8032.0 0.0 262118.0 254028.0 199018.0 200962.0 276479.0 272378.0 101612.0 93931.0 234163.0 238882.0 84784.0 87184.0 243651.0 236173.0 322238.0 330045.0 185517.0 192855.0 253719.0 100037.0 253719.0 253719.0 253719.0 253719.0 253719.0 253719.0 100037.0 100037.0 100037.0 100037.0 100037.0 100037.0
312168.0 314840.0 218440.0 210996.0 100016.0 93932.0 117001.0 109362.0 274715.0 267278.0 66793.0 70476.0 73200.0 76144.0 336169.0 342742.0 45004.0 40314.0 79887.0 85549.0 162478.0 162323.0 116675.0 111900.0 126928.0 133324.0 96746.0 96945.0 114442.0 121241.0 115593.0 118118.0 159614.0 151180.0 62792.0 70593.0 21764.0 14433.0 57642.0 52028.0 248119.0 240368.0 133764.0 127748.0 118479.0 110459.0 55594.0 51415.0 195803.0 202198.0 335638.0 327468.0 45986.0 38931.0 105502.0 107820.0 354059.0 350736.0 92990.0 95958.0 269666.0 262118.0 0.0 8090.0 84131.0 77114.0 19246.0 11796.0 174039.0 181542.0 81185.0 86969.0 341714.0 341454.0 18881.0 26706.0 154249.0 159790.0 79498.0 73695.0 170653.0 199028.0 170653.0 170653.0 170653.0 170653.0 170653.0 170653.0 199028.0 199028.0 199028.0 199028.0 199028.0 199028.0
304115.0 306807.0 210353.0 202913.0 94198.0 88444.0 108973.0 101361.0 266629.0 259196.0 63820.0 68277.0 70725.0 72878.0 328183.0 334739.0 48038.0 44545.0 75685.0 80836.0 163346.0 162768.0 113531.0 109215.0 120027.0 126313.0 88877.0 88942.0 107146.0 114106.0 108563.0 111372.0 151524.0 143090.0 59092.0 66675.0 22922.0 14923.0 53964.0 49204.0 240034.0 232283.0 135265.0 129599.0 120612.0 112526.0 50264.0 46983.0 188134.0 194468.0 327549.0 319378.0 40146.0 32651.0 97646.0 100141.0 346006.0 342668.0 89415.0 92981.0 261577.0 254028.0 8090.0 0.0 77674.0 70427.0 25785.0 19244.0 166204.0 173675.0 77680.0 83945.0 333670.0 333433.0 11099.0 18932.0 155655.0 161470.0 71655.0 66023.0 167380.0 191448.0 167380.0 167380.0 167380.0 167380.0 167380.0 167380.0 191448.0 191448.0 191448.0 191448.0 191448.0 191448.0
242910.0 244366.0 159270.0 153198.0 19458.0 18449.0 58884.0 51668.0 213669.0 207213.0 42290.0 49116.0 46900.0 39558.0 263782.0 270635.0 122986.0 121237.0 29955.0 24789.0 139838.0 135281.0 155940.0 155431.0 43686.0 50558.0 37427.0 44487.0 35361.0 39783.0 33509.0 34374.0 104023.0 96700.0 37090.0 33283.0 97740.0 90690.0 105787.0 106815.0 188258.0 180791.0 122376.0 121207.0 116880.0 110203.0 31028.0 38386.0 118066.0 125334.0 271692.0 263472.0 85210.0 80055.0 41918.0 37685.0 284277.0 282099.0 40995.0 49142.0 205704.0 199018.0 84131.0 77674.0 0.0 8078.0 90116.0 89740.0 100388.0 108399.0 37814.0 44652.0 271483.0 270041.0 67206.0 60182.0 138410.0 146077.0 31416.0 26609.0 106667.0 119965.0 106667.0 106667.0 106667.0 106667.0 106667.0 106667.0 119965.0 119965.0 119965.0 119965.0 119965.0 119965.0
246025.0 247702.0 160375.0 154043.0 27438.0 25504.0 58055.0 50388.0 215344.0 208712.0 41664.0 49095.0 47387.0 40788.0 267401.0 274229.0 115222.0 113647.0 32337.0 28938.0 143778.0 139586.0 148326.0 147682.0 49935.0 56543.0 35448.0 41624.0 39454.0 45020.0 39000.0 41004.0 103961.0 96325.0 35441.0 33340.0 90072.0 83138.0 97736.0 98737.0 189640.0 182091.0 124932.0 123251.0 118330.0 111347.0 26175.0 34033.0 122581.0 129655.0 273987.0 265756.0 77146.0 71978.0 41384.0 38711.0 287561.0 285182.0 45283.0 53221.0 207814.0 200962.0 77114.0 70427.0 8078.0 0.0 84125.0 83266.0 103776.0 111735.0 40118.0 47611.0 274826.0 273594.0 59789.0 52598.0 141673.0 149237.0 26028.0 20020.0 113965.0 124850.0 113965.0 113965.0 113965.0 113965.0 113965.0 113965.0 124850.0 124850.0 124850.0 124850.0 124850.0 124850.0
325340.0 327702.0 233266.0 225995.0 103473.0 96506.0 130323.0 122432.0 289524.0 282231.0 63595.0 65170.0 68426.0 73206.0 348413.0 355177.0 56009.0 49203.0 79240.0 86106.0 148881.0 149494.0 134643.0 129473.0 133780.0 140560.0 108812.0 110140.0 123137.0 129134.0 123118.0 124477.0 174385.0 165978.0 61695.0 69614.0 37885.0 32177.0 76280.0 70179.0 263012.0 255267.0 119269.0 112720.0 103074.0 95236.0 59389.0 53119.0 205868.0 212626.0 350091.0 341888.0 65220.0 58067.0 117367.0 118537.0 367200.0 364163.0 90229.0 91586.0 283889.0 276479.0 19246.0 25785.0 90116.0 84125.0 0.0 8186.0 185293.0 193010.0 78646.0 82993.0 354707.0 354119.0 33864.0 40703.0 139774.0 144832.0 91633.0 84936.0 165956.0 208560.0 165956.0 165956.0 165956.0 165956.0 165956.0 165956.0 208560.0 208560.0 208560.0 208560.0 208560.0 208560.0
321884.0 324407.0 228897.0 221528.0 104246.0 97619.0 126669.0 118892.0 285181.0 277807.0 66826.0 69249.0 72326.0 76420.0 345439.0 352108.0 48914.0 42588.0 81578.0 87998.0 156104.0 156490.0 126457.0 121302.0 133180.0 139804.0 105736.0 106511.0 121681.0 128057.0 122191.0 124071.0 170017.0 161589.0 64057.0 72009.0 29741.0 24017.0 68149.0 61999.0 258616.0 250865.0 126720.0 120308.0 110750.0 102856.0 59687.0 54203.0 203898.0 210488.0 345957.0 337770.0 57626.0 50687.0 114410.0 116132.0 363769.0 360581.0 93482.0 95475.0 279865.0 272378.0 11796.0 19244.0 89740.0 83266.0 8186.0 0.0 182733.0 190353.0 81741.0 86683.0 351350.0 350932.0 28771.0 36217.0 147237.0 152426.0 88468.0 82166.0 170149.0 206844.0 170149.0 170149.0 170149.0 170149.0 170149.0 170149.0 206844.0 206844.0 206844.0 206844.0 206844.0 206844.0
142544.0 143995.0 68931.0 65800.0 98171.0 105791.0 59816.0 66227.0 117218.0 111794.0 141938.0 147907.0 145097.0 137103.0 163643.0 170489.0 201195.0 202708.0 126654.0 118980.0 217949.0 211049.0 190824.0 194655.0 63387.0 56826.0 77345.0 78290.0 65069.0 62372.0 68620.0 72173.0 45043.0 47431.0 137385.0 132680.0 179779.0 175003.0 166977.0 172259.0 94107.0 87502.0 209869.0 211117.0 209354.0 203996.0 129916.0 137809.0 25448.0 29526.0 172497.0 164334.0 151847.0 151523.0 68563.0 66765.0 183896.0 181736.0 130524.0 137687.0 107528.0 101612.0 174039.0 166204.0 100388.0 103776.0 185293.0 182733.0 0.0 8025.0 133561.0 137816.0 171117.0 169818.0 155171.0 147335.0 221084.0 228922.0 94550.0 100567.0 155178.0 31579.0 155178.0 155178.0 155178.0 155178.0 155178.0 155178.0 31579.0 31579.0 31579.0 31579.0 31579.0 31579.0
134523.0 136001.0 62695.0 60195.0 106131.0 113772.0 66512.0 73219.0 109630.0 104360.0 149964.0 155927.0 153110.0 145113.0 155729.0 162581.0 208026.0 209703.0 134663.0 126976.0 225183.0 218201.0 195173.0 199252.0 71224.0 64578.0 84799.0 85416.0 73088.0 70371.0 76629.0 80095.0 46385.0 50069.0 145404.0 140705.0 186899.0 182251.0 173152.0 178608.0 86936.0 80513.0 217509.0 218844.0 217175.0 211865.0 137862.0 145766.0 21799.0 23958.0 164545.0 156390.0 158450.0 158352.0 76041.0 74530.0 175895.0 173716.0 138425.0 145543.0 99731.0 93931.0 181542.0 173675.0 108399.0 111735.0 193010.0 190353.0 8025.0 0.0 141552.0 145762.0 163124.0 161868.0 162665.0 154837.0 228506.0 236334.0 102046.0 108196.0 161762.0 28701.0 161762.0 161762.0 161762.0 161762.0 161762.0 161762.0 28701.0 28701.0 28701.0 28701.0 28701.0 28701.0
275524.0 276422.0 195711.0 189936.0 35658.0 27823.0 96695.0 89457.0 249197.0 243017.0 15059.0 16293.0 12777.0 5523.0 295271.0 302124.0 125661.0 121489.0 7877.0 14606.0 104256.0 100576.0 177789.0 175739.0 71267.0 78395.0 74984.0 81609.0 69649.0 71193.0 64998.0 61819.0 141558.0 134378.0 18611.0 11617.0 100546.0 92577.0 121408.0 119956.0 224272.0 216934.0 84849.0 83427.0 79115.0 72584.0 31799.0 31379.0 147932.0 155656.0 306006.0 297825.0 101226.0 94151.0 79726.0 75085.0 316323.0 314659.0 11809.0 16264.0 240544.0 234163.0 81185.0 77680.0 37814.0 40118.0 78646.0 81741.0 133561.0 141552.0 0.0 8061.0 303420.0 301543.0 70452.0 66466.0 101638.0 109162.0 65720.0 58746.0 89706.0 148561.0 89706.0 89706.0 89706.0 89706.0 89706.0 89706.0 148561.0 148561.0 148561.0 148561.0 148561.0 148561.0
279223.0 279928.0 201091.0 195486.0 39672.0 32319.0 103351.0 96284.0 254068.0 248023.0 20182.0 18113.0 14648.0 11261.0 298650.0 305503.0 131744.0 127261.0 15333.0 20211.0 96387.0 92594.0 185604.0 183459.0 74850.0 81853.0 82040.0 88866.0 74848.0 75643.0 69620.0 65687.0 147733.0 140717.0 25426.0 19277.0 106865.0 98868.0 128913.0 127259.0 229400.0 222134.0 77725.0 76720.0 72989.0 66837.0 39577.0 38479.0 151117.0 158931.0 310306.0 302149.0 108849.0 101677.0 86389.0 81334.0 319779.0 318295.0 8746.0 9037.0 245127.0 238882.0 86969.0 83945.0 44652.0 47611.0 82993.0 86683.0 137816.0 145762.0 8061.0 0.0 306852.0 304922.0 77244.0 73641.0 94068.0 101654.0 73412.0 66564.0 83699.0 151405.0 83699.0 83699.0 83699.0 83699.0 83699.0 83699.0 151405.0 151405.0 151405.0 151405.0 151405.0 151405.0
29764.0 27124.0 128362.0 136374.0 267763.0 275633.0 224730.0 232460.0 78765.0 86631.0 312725.0 318372.0 315403.0 307342.0 18761.0 13501.0 361937.0 365130.0 296908.0 289005.0 379254.0 371921.0 323832.0 330333.0 232167.0 225074.0 245908.0 244852.0 236133.0 232794.0 239150.0 241611.0 184121.0 192371.0 308412.0 303452.0 343854.0 340364.0 321983.0 328830.0 102077.0 108962.0 374359.0 376523.0 375909.0 371221.0 300912.0 308843.0 155801.0 147938.0 37772.0 38521.0 311682.0 313479.0 237423.0 237087.0 12954.0 14310.0 298954.0 305394.0 76763.0 84784.0 341714.0 333670.0 271483.0 274826.0 354707.0 351350.0 171117.0 163124.0 303420.0 306852.0 0.0 7961.0 322942.0 315249.0 383628.0 391357.0 263076.0 269871.0 314170.0 157477.0 314170.0 314170.0 314170.0 314170.0 314170.0 314170.0 157477.0 157477.0 157477.0 157477.0 157477.0 157477.0
31355.0 26905.0 130024.0 138030.0 265887.0 273774.0 224461.0 232106.0 82508.0 90198.0 311017.0 316525.0 313580.0 305513.0 11333.0 5638.0 362582.0 365604.0 295089.0 287158.0 377313.0 369981.0 326304.0 332687.0 230279.0 223172.0 245315.0 244518.0 234682.0 231082.0 237453.0 239754.0 184743.0 192912.0 306863.0 301745.0 344096.0 340440.0 323027.0 329770.0 104720.0 111336.0 372419.0 374583.0 373969.0 369337.0 299730.0 307627.0 153863.0 145999.0 45511.0 45743.0 312281.0 313880.0 236758.0 236140.0 17418.0 21292.0 297014.0 303461.0 79236.0 87184.0 341454.0 333433.0 270041.0 273594.0 354119.0 350932.0 169818.0 161868.0 301543.0 304922.0 7961.0 0.0 322639.0 314910.0 381688.0 389416.0 262534.0 269206.0 312230.0 155537.0 312230.0 312230.0 312230.0 312230.0 312230.0 312230.0 155537.0 155537.0 155537.0 155537.0 155537.0 155537.0
293421.0 296047.0 200130.0 192757.0 84259.0 78855.0 98213.0 90534.0 256414.0 249036.0 57481.0 62865.0 64906.0 66009.0 317315.0 323904.0 56706.0 54182.0 67628.0 72134.0 161167.0 160021.0 114036.0 110436.0 109179.0 115399.0 77868.0 78121.0 96108.0 103135.0 97648.0 100629.0 141254.0 132825.0 51905.0 59077.0 31152.0 23651.0 54625.0 51328.0 229846.0 222096.0 134088.0 128943.0 120411.0 112298.0 41194.0 39137.0 177042.0 183389.0 317217.0 309034.0 37521.0 29556.0 86626.0 89048.0 335312.0 332041.0 81982.0 86250.0 251158.0 243651.0 18881.0 11099.0 67206.0 59789.0 33864.0 28771.0 155171.0 162665.0 70452.0 77244.0 322942.0 322639.0 0.0 7844.0 154244.0 160415.0 60624.0 54927.0 159981.0 180349.0 159981.0 159981.0 159981.0 159981.0 159981.0 159981.0 180349.0 180349.0 180349.0 180349.0 180349.0 180349.0
285749.0 288338.0 192757.0 185429.0 77721.0 72671.0 90525.0 82807.0 249036.0 241693.0 54444.0 60513.0 62188.0 62387.0 309548.0 316153.0 62998.0 61061.0 62938.0 66817.0 160615.0 159058.0 114500.0 111422.0 101695.0 107839.0 70043.0 70402.0 88403.0 95512.0 90093.0 93262.0 133868.0 125447.0 48227.0 54903.0 37594.0 30540.0 55894.0 53668.0 222489.0 214740.0 134350.0 129597.0 121425.0 113335.0 35901.0 35164.0 169203.0 175545.0 309759.0 301569.0 37039.0 29228.0 78796.0 81209.0 327638.0 324405.0 77719.0 82547.0 243651.0 236173.0 26706.0 18932.0 60182.0 52598.0 40703.0 36217.0 147335.0 154837.0 66466.0 73641.0 315249.0 314910.0 7844.0 0.0 154267.0 160673.0 52792.0 47092.0 155476.0 172526.0 155476.0 155476.0 155476.0 155476.0 155476.0 155476.0 172526.0 172526.0 172526.0 172526.0 172526.0 172526.0
356644.0 356853.0 288422.0 283685.0 128874.0 123333.0 196315.0 189642.0 338077.0 332856.0 105084.0 97331.0 97337.0 101913.0 375416.0 382269.0 195734.0 188601.0 109345.0 113624.0 13306.0 20429.0 268280.0 264529.0 158922.0 164784.0 175819.0 182837.0 164474.0 162812.0 157750.0 151650.0 238953.0 232535.0 112688.0 110435.0 175898.0 168648.0 208771.0 204739.0 315110.0 308308.0 20518.0 27458.0 37569.0 44850.0 128651.0 123858.0 228058.0 236050.0 390186.0 382275.0 191228.0 183316.0 179505.0 173615.0 396555.0 395427.0 97645.0 89457.0 327607.0 322238.0 154249.0 155655.0 138410.0 141673.0 139774.0 147237.0 221084.0 228506.0 101638.0 94068.0 383628.0 381688.0 154244.0 154267.0 0.0 7871.0 167353.0 160278.0 101167.0 227928.0 101167.0 101167.0 101167.0 101167.0 101167.0 101167.0 227928.0 227928.0 227928.0 227928.0 227928.0 227928.0
364372.0 364581.0 296288.0 291555.0 136702.0 131117.0 204077.0 197372.0 345893.0 340687.0 112221.0 104419.0 104544.0 109306.0 383144.0 389997.0 200672.0 193400.0 116901.0 121299.0 16595.0 24950.0 274414.0 270528.0 166790.0 172644.0 183496.0 190475.0 172323.0 170680.0 165612.0 159520.0 246794.0 240359.0 119828.0 117779.0 181351.0 174214.0 214834.0 210633.0 322958.0 316162.0 26335.0 32119.0 41865.0 49598.0 135763.0 130796.0 235786.0 243778.0 397890.0 389988.0 197558.0 189625.0 187251.0 181404.0 404284.0 403155.0 105375.0 97190.0 335395.0 330045.0 159790.0 161470.0 146077.0 149237.0 144832.0 152426.0 228922.0 236334.0 109162.0 101654.0 391357.0 389416.0 160415.0 160673.0 7871.0 0.0 174854.0 167728.0 107939.0 235656.0 107939.0 107939.0 107939.0 107939.0 107939.0 107939.0 235656.0 235656.0 235656.0 235656.0 235656.0 235656.0
233713.0 236079.0 143087.0 136174.0 49038.0 49762.0 39115.0 31077.0 199066.0 192013.0 64825.0 72661.0 71538.0 65743.0 256973.0 263660.0 109576.0 109921.0 58081.0 54952.0 169725.0 165602.0 127715.0 128060.0 55995.0 60638.0 17275.0 19296.0 39635.0 47914.0 44110.0 50088.0 84738.0 76558.0 57678.0 57615.0 86414.0 81002.0 83234.0 86133.0 172781.0 165084.0 150195.0 148101.0 142616.0 135336.0 43868.0 51501.0 116760.0 122924.0 259091.0 250867.0 64030.0 61182.0 26005.0 29124.0 275568.0 272567.0 71308.0 79244.0 192779.0 185517.0 79498.0 71655.0 31416.0 26028.0 91633.0 88468.0 94550.0 102046.0 65720.0 73412.0 263076.0 262534.0 60624.0 52792.0 167353.0 174854.0 0.0 7905.0 137159.0 120399.0 137159.0 137159.0 137159.0 137159.0 137159.0 137159.0 120399.0 120399.0 120399.0 120399.0 120399.0 120399.0
240588.0 242835.0 150639.0 143789.0 45429.0 45020.0 46594.0 38526.0 206528.0 199525.0 57157.0 65026.0 64016.0 58466.0 263481.0 270242.0 106027.0 105831.0 51250.0 48763.0 162951.0 159022.0 129911.0 129766.0 57574.0 62889.0 24044.0 27064.0 42363.0 50183.0 45594.0 50605.0 92442.0 84305.0 49934.0 50189.0 82147.0 76282.0 82535.0 84724.0 180302.0 172617.0 142886.0 140638.0 135010.0 127676.0 35967.0 43598.0 122118.0 128512.0 266390.0 258162.0 62607.0 58856.0 32452.0 34127.0 282412.0 279515.0 65002.0 72791.0 200063.0 192855.0 73695.0 66023.0 26609.0 20020.0 84936.0 82166.0 100567.0 108196.0 58746.0 66564.0 269871.0 269206.0 54927.0 47092.0 160278.0 167728.0 7905.0 0.0 133236.0 125451.0 133236.0 133236.0 133236.0 133236.0 133236.0 133236.0 125451.0 125451.0 125451.0 125451.0 125451.0 125451.0
287186.0 287395.0 224102.0 220667.0 88120.0 88461.0 149818.0 145762.0 269783.0 265195.0 103862.0 100912.0 97835.0 94554.0 305958.0 312811.0 215326.0 210954.0 92538.0 89435.0 92852.0 84514.0 262112.0 261115.0 100929.0 104309.0 136518.0 144566.0 113808.0 108260.0 105814.0 97865.0 183483.0 179018.0 108311.0 100915.0 190251.0 182282.0 208797.0 208225.0 248445.0 242216.0 100102.0 105724.0 110171.0 109736.0 119700.0 120848.0 158600.0 166591.0 320764.0 312829.0 188170.0 181724.0 135822.0 127741.0 327097.0 325969.0 78028.0 74759.0 258629.0 253719.0 170653.0 167380.0 106667.0 113965.0 165956.0 170149.0 155178.0 161762.0 89706.0 83699.0 314170.0 312230.0 159981.0 155476.0 101167.0 107939.0 137159.0 133236.0 0.0 158470.0 0.0 0.0 0.0 0.0 0.0 0.0 158470.0 158470.0 158470.0 158470.0 158470.0 158470.0
129679.0 129575.0 80125.0 80081.0 113104.0 121085.0 89199.0 94711.0 116178.0 112592.0 159119.0 164086.0 160920.0 152851.0 149265.0 156118.0 229147.0 230070.0 142547.0 134468.0 223554.0 216221.0 222342.0 226086.0 77703.0 70508.0 103757.0 106109.0 85477.0 80183.0 86491.0 87390.0 75084.0 78498.0 155705.0 149917.0 206726.0 201399.0 196710.0 201614.0 97988.0 93095.0 218659.0 220823.0 220209.0 215591.0 150783.0 158330.0 7151.0 11757.0 164164.0 156343.0 180652.0 179673.0 95068.0 91411.0 170417.0 168223.0 143376.0 149722.0 104040.0 100037.0 199028.0 191448.0 119965.0 124850.0 208560.0 206844.0 31579.0 28701.0 148561.0 151405.0 157477.0 155537.0 180349.0 172526.0 227928.0 235656.0 120399.0 125451.0 158470.0 0.0 158470.0 158470.0 158470.0 158470.0 158470.0 158470.0 0.0 0.0 0.0 0.0 0.0 0.0
287186.0 287395.0 224102.0 220667.0 88120.0 88461.0 149818.0 145762.0 269783.0 265195.0 103862.0 100912.0 97835.0 94554.0 305958.0 312811.0 215326.0 210954.0 92538.0 89435.0 92852.0 84514.0 262112.0 261115.0 100929.0 104309.0 136518.0 144566.0 113808.0 108260.0 105814.0 97865.0 183483.0 179018.0 108311.0 100915.0 190251.0 182282.0 208797.0 208225.0 248445.0 242216.0 100102.0 105724.0 110171.0 109736.0 119700.0 120848.0 158600.0 166591.0 320764.0 312829.0 188170.0 181724.0 135822.0 127741.0 327097.0 325969.0 78028.0 74759.0 258629.0 253719.0 170653.0 167380.0 106667.0 113965.0 165956.0 170149.0 155178.0 161762.0 89706.0 83699.0 314170.0 312230.0 159981.0 155476.0 101167.0 107939.0 137159.0 133236.0 0.0 158470.0 0.0 0.0 0.0 0.0 0.0 0.0 158470.0 158470.0 158470.0 158470.0 158470.0 158470.0
287186.0 287395.0 224102.0 220667.0 88120.0 88461.0 149818.0 145762.0 269783.0 265195.0 103862.0 100912.0 97835.0 94554.0 305958.0 312811.0 215326.0 210954.0 92538.0 89435.0 92852.0 84514.0 262112.0 261115.0 100929.0 104309.0 136518.0 144566.0 113808.0 108260.0 105814.0 97865.0 183483.0 179018.0 108311.0 100915.0 190251.0 182282.0 208797.0 208225.0 248445.0 242216.0 100102.0 105724.0 110171.0 109736.0 119700.0 120848.0 158600.0 166591.0 320764.0 312829.0 188170.0 181724.0 135822.0 127741.0 327097.0 325969.0 78028.0 74759.0 258629.0 253719.0 170653.0 167380.0 106667.0 113965.0 165956.0 170149.0 155178.0 161762.0 89706.0 83699.0 314170.0 312230.0 159981.0 155476.0 101167.0 107939.0 137159.0 133236.0 0.0 158470.0 0.0 0.0 0.0 0.0 0.0 0.0 158470.0 158470.0 158470.0 158470.0 158470.0 158470.0
287186.0 287395.0 224102.0 220667.0 88120.0 88461.0 149818.0 145762.0 269783.0 265195.0 103862.0 100912.0 97835.0 94554.0 305958.0 312811.0 215326.0 210954.0 92538.0 89435.0 92852.0 84514.0 262112.0 261115.0 100929.0 104309.0 136518.0 144566.0 113808.0 108260.0 105814.0 97865.0 183483.0 179018.0 108311.0 100915.0 190251.0 182282.0 208797.0 208225.0 248445.0 242216.0 100102.0 105724.0 110171.0 109736.0 119700.0 120848.0 158600.0 166591.0 320764.0 312829.0 188170.0 181724.0 135822.0 127741.0 327097.0 325969.0 78028.0 74759.0 258629.0 253719.0 170653.0 167380.0 106667.0 113965.0 165956.0 170149.0 155178.0 161762.0 89706.0 83699.0 314170.0 312230.0 159981.0 155476.0 101167.0 107939.0 137159.0 133236.0 0.0 158470.0 0.0 0.0 0.0 0.0 0.0 0.0 158470.0 158470.0 158470.0 158470.0 158470.0 158470.0
287186.0 287395.0 224102.0 220667.0 88120.0 88461.0 149818.0 145762.0 269783.0 265195.0 103862.0 100912.0 97835.0 94554.0 305958.0 312811.0 215326.0 210954.0 92538.0 89435.0 92852.0 84514.0 262112.0 261115.0 100929.0 104309.0 136518.0 144566.0 113808.0 108260.0 105814.0 97865.0 183483.0 179018.0 108311.0 100915.0 190251.0 182282.0 208797.0 208225.0 248445.0 242216.0 100102.0 105724.0 110171.0 109736.0 119700.0 120848.0 158600.0 166591.0 320764.0 312829.0 188170.0 181724.0 135822.0 127741.0 327097.0 325969.0 78028.0 74759.0 258629.0 253719.0 170653.0 167380.0 106667.0 113965.0 165956.0 170149.0 155178.0 161762.0 89706.0 83699.0 314170.0 312230.0 159981.0 155476.0 101167.0 107939.0 137159.0 133236.0 0.0 158470.0 0.0 0.0 0.0 0.0 0.0 0.0 158470.0 158470.0 158470.0 158470.0 158470.0 158470.0
287186.0 287395.0 224102.0 220667.0 88120.0 88461.0 149818.0 145762.0 269783.0 265195.0 103862.0 100912.0 97835.0 94554.0 305958.0 312811.0 215326.0 210954.0 92538.0 89435.0 92852.0 84514.0 262112.0 261115.0 100929.0 104309.0 136518.0 144566.0 113808.0 108260.0 105814.0 97865.0 183483.0 179018.0 108311.0 100915.0 190251.0 182282.0 208797.0 208225.0 248445.0 242216.0 100102.0 105724.0 110171.0 109736.0 119700.0 120848.0 158600.0 166591.0 320764.0 312829.0 188170.0 181724.0 135822.0 127741.0 327097.0 325969.0 78028.0 74759.0 258629.0 253719.0 170653.0 167380.0 106667.0 113965.0 165956.0 170149.0 155178.0 161762.0 89706.0 83699.0 314170.0 312230.0 159981.0 155476.0 101167.0 107939.0 137159.0 133236.0 0.0 158470.0 0.0 0.0 0.0 0.0 0.0 0.0 158470.0 158470.0 158470.0 158470.0 158470.0 158470.0
287186.0 287395.0 224102.0 220667.0 88120.0 88461.0 149818.0 145762.0 269783.0 265195.0 103862.0 100912.0 97835.0 94554.0 305958.0 312811.0 215326.0 210954.0 92538.0 89435.0 92852.0 84514.0 262112.0 261115.0 100929.0 104309.0 136518.0 144566.0 113808.0 108260.0 105814.0 97865.0 183483.0 179018.0 108311.0 100915.0 190251.0 182282.0 208797.0 208225.0 248445.0 242216.0 100102.0 105724.0 110171.0 109736.0 119700.0 120848.0 158600.0 166591.0 320764.0 312829.0 188170.0 181724.0 135822.0 127741.0 327097.0 325969.0 78028.0 74759.0 258629.0 253719.0 170653.0 167380.0 106667.0 113965.0 165956.0 170149.0 155178.0 161762.0 89706.0 83699.0 314170.0 312230.0 159981.0 155476.0 101167.0 107939.0 137159.0 133236.0 0.0 158470.0 0.0 0.0 0.0 0.0 0.0 0.0 158470.0 158470.0 158470.0 158470.0 158470.0 158470.0
129679.0 129575.0 80125.0 80081.0 113104.0 121085.0 89199.0 94711.0 116178.0 112592.0 159119.0 164086.0 160920.0 152851.0 149265.0 156118.0 229147.0 230070.0 142547.0 134468.0 223554.0 216221.0 222342.0 226086.0 77703.0 70508.0 103757.0 106109.0 85477.0 80183.0 86491.0 87390.0 75084.0 78498.0 155705.0 149917.0 206726.0 201399.0 196710.0 201614.0 97988.0 93095.0 218659.0 220823.0 220209.0 215591.0 150783.0 158330.0 7151.0 11757.0 164164.0 156343.0 180652.0 179673.0 95068.0 91411.0 170417.0 168223.0 143376.0 149722.0 104040.0 100037.0 199028.0 191448.0 119965.0 124850.0 208560.0 206844.0 31579.0 28701.0 148561.0 151405.0 157477.0 155537.0 180349.0 172526.0 227928.0 235656.0 120399.0 125451.0 158470.0 0.0 158470.0 158470.0 158470.0 158470.0 158470.0 158470.0 0.0 0.0 0.0 0.0 0.0 0.0
129679.0 129575.0 80125.0 80081.0 113104.0 121085.0 89199.0 94711.0 116178.0 112592.0 159119.0 164086.0 160920.0 152851.0 149265.0 156118.0 229147.0 230070.0 142547.0 134468.0 223554.0 216221.0 222342.0 226086.0 77703.0 70508.0 103757.0 106109.0 85477.0 80183.0 86491.0 87390.0 75084.0 78498.0 155705.0 149917.0 206726.0 201399.0 196710.0 201614.0 97988.0 93095.0 218659.0 220823.0 220209.0 215591.0 150783.0 158330.0 7151.0 11757.0 164164.0 156343.0 180652.0 179673.0 95068.0 91411.0 170417.0 168223.0 143376.0 149722.0 104040.0 100037.0 199028.0 191448.0 119965.0 124850.0 208560.0 206844.0 31579.0 28701.0 148561.0 151405.0 157477.0 155537.0 180349.0 172526.0 227928.0 235656.0 120399.0 125451.0 158470.0 0.0 158470.0 158470.0 158470.0 158470.0 158470.0 158470.0 0.0 0.0 0.0 0.0 0.0 0.0
129679.0 129575.0 80125.0 80081.0 113104.0 121085.0 89199.0 94711.0 116178.0 112592.0 159119.0 164086.0 160920.0 152851.0 149265.0 156118.0 229147.0 230070.0 142547.0 134468.0 223554.0 216221.0 222342.0 226086.0 77703.0 70508.0 103757.0 106109.0 85477.0 80183.0 86491.0 87390.0 75084.0 78498.0 155705.0 149917.0 206726.0 201399.0 196710.0 201614.0 97988.0 93095.0 218659.0 220823.0 220209.0 215591.0 150783.0 158330.0 7151.0 11757.0 164164.0 156343.0 180652.0 179673.0 95068.0 91411.0 170417.0 168223.0 143376.0 149722.0 104040.0 100037.0 199028.0 191448.0 119965.0 124850.0 208560.0 206844.0 31579.0 28701.0 148561.0 151405.0 157477.0 155537.0 180349.0 172526.0 227928.0 235656.0 120399.0 125451.0 158470.0 0.0 158470.0 158470.0 158470.0 158470.0 158470.0 158470.0 0.0 0.0 0.0 0.0 0.0 0.0
129679.0 129575.0 80125.0 80081.0 113104.0 121085.0 89199.0 94711.0 116178.0 112592.0 159119.0 164086.0 160920.0 152851.0 149265.0 156118.0 229147.0 230070.0 142547.0 134468.0 223554.0 216221.0 222342.0 226086.0 77703.0 70508.0 103757.0 106109.0 85477.0 80183.0 86491.0 87390.0 75084.0 78498.0 155705.0 149917.0 206726.0 201399.0 196710.0 201614.0 97988.0 93095.0 218659.0 220823.0 220209.0 215591.0 150783.0 158330.0 7151.0 11757.0 164164.0 156343.0 180652.0 179673.0 95068.0 91411.0 170417.0 168223.0 143376.0 149722.0 104040.0 100037.0 199028.0 191448.0 119965.0 124850.0 208560.0 206844.0 31579.0 28701.0 148561.0 151405.0 157477.0 155537.0 180349.0 172526.0 227928.0 235656.0 120399.0 125451.0 158470.0 0.0 158470.0 158470.0 158470.0 158470.0 158470.0 158470.0 0.0 0.0 0.0 0.0 0.0 0.0
129679.0 129575.0 80125.0 80081.0 113104.0 121085.0 89199.0 94711.0 116178.0 112592.0 159119.0 164086.0 160920.0 152851.0 149265.0 156118.0 229147.0 230070.0 142547.0 134468.0 223554.0 216221.0 222342.0 226086.0 77703.0 70508.0 103757.0 106109.0 85477.0 80183.0 86491.0 87390.0 75084.0 78498.0 155705.0 149917.0 206726.0 201399.0 196710.0 201614.0 97988.0 93095.0 218659.0 220823.0 220209.0 215591.0 150783.0 158330.0 7151.0 11757.0 164164.0 156343.0 180652.0 179673.0 95068.0 91411.0 170417.0 168223.0 143376.0 149722.0 104040.0 100037.0 199028.0 191448.0 119965.0 124850.0 208560.0 206844.0 31579.0 28701.0 148561.0 151405.0 157477.0 155537.0 180349.0 172526.0 227928.0 235656.0 120399.0 125451.0 158470.0 0.0 158470.0 158470.0 158470.0 158470.0 158470.0 158470.0 0.0 0.0 0.0 0.0 0.0 0.0
129679.0 129575.0 80125.0 80081.0 113104.0 121085.0 89199.0 94711.0 116178.0 112592.0 159119.0 164086.0 160920.0 152851.0 149265.0 156118.0 229147.0 230070.0 142547.0 134468.0 223554.0 216221.0 222342.0 226086.0 77703.0 70508.0 103757.0 106109.0 85477.0 80183.0 86491.0 87390.0 75084.0 78498.0 155705.0 149917.0 206726.0 201399.0 196710.0 201614.0 97988.0 93095.0 218659.0 220823.0 220209.0 215591.0 150783.0 158330.0 7151.0 11757.0 164164.0 156343.0 180652.0 179673.0 95068.0 91411.0 170417.0 168223.0 143376.0 149722.0 104040.0 100037.0 199028.0 191448.0 119965.0 124850.0 208560.0 206844.0 31579.0 28701.0 148561.0 151405.0 157477.0 155537.0 180349.0 172526.0 227928.0 235656.0 120399.0 125451.0 158470.0 0.0 158470.0 158470.0 158470.0 158470.0 158470.0 158470.0 0.0 0.0 0.0 0.0 0.0 0.0
FIXED_EDGES_SECTION
1 2
3 4
5 6
7 8
9 10
11 12
13 14
15 16
17 18
19 20
21 22
23 24
25 26
27 28
29 30
31 32
33 34
35 36
37 38
39 40
41 42
43 44
45 46
47 48
49 50
51 52
53 54
55 56
57 58
59 60
61 62
63 64
65 66
67 68
69 70
71 72
73 74
75 76
77 78
79 80
-1 
DEMAND_SECTION
1 60
2 60
3 336
4 336
5 56
6 56
7 158
8 158
9 268
10 268
11 353
12 353
13 293
14 293
15 280
16 280
17 76
18 76
19 171
20 171
21 251
22 251
23 234
24 234
25 75
26 75
27 177
28 177
29 358
30 358
31 373
32 373
33 68
34 68
35 341
36 341
37 186
38 186
39 157
40 157
41 244
42 244
43 500
44 500
45 265
46 265
47 96
48 96
49 37
50 37
51 421
52 421
53 180
54 180
55 119
56 119
57 491
58 491
59 394
60 394
61 341
62 341
63 479
64 479
65 114
66 114
67 211
68 211
69 371
70 371
71 207
72 207
73 71
74 71
75 82
76 82
77 316
78 316
79 90
80 90
81 0
82 0
83 0
84 0
85 0
86 0
87 0
88 0
89 0
90 0
91 0
92 0
93 0
94 0
DEPOT_SECTION
81 
-1 
CAPACITIES_SECTION
2500 
2750 
3000 
3250 
-1 
EOF