NAME: GFS_20_1
TYPE: GFSP
DIMENSION: 96
VEHICLES: 4
CAPACITY: 2500.0
TRIP_DIST_LIMIT: 750000.0
TOTAL_DIST_LIMIT: 1050000.0
EDGE_WEIGHT_TYPE: EXPLICIT
EDGE_WEIGHT_FORMAT: FULL_MATRIX
EDGE_WEIGHT_SECTION
0.0 8055.0 234564.0 242582.0 123909.0 115795.0 288443.0 281191.0 225615.0 232012.0 182138.0 174272.0 173573.0 172475.0 263993.0 269281.0 193228.0 200672.0 244556.0 240888.0 250721.0 243323.0 267978.0 263890.0 284801.0 288698.0 235054.0 237730.0 131460.0 131744.0 290808.0 283035.0 283781.0 279483.0 296366.0 288931.0 215676.0 223676.0 49819.0 41402.0 328548.0 321410.0 286368.0 293292.0 229889.0 222134.0 268607.0 265958.0 327508.0 321748.0 6004.0 5370.0 10953.0 10620.0 276089.0 277330.0 307950.0 304453.0 263910.0 269794.0 48826.0 43700.0 280150.0 277499.0 306670.0 298916.0 106678.0 99180.0 163687.0 170879.0 269056.0 260968.0 55953.0 62682.0 191867.0 187306.0 128746.0 130505.0 297859.0 297249.0 263929.0 110557.0 263929.0 263929.0 263929.0 263929.0 263929.0 263929.0 263929.0 110557.0 110557.0 110557.0 110557.0 110557.0 110557.0 110557.0
8055.0 0.0 241431.0 249452.0 128669.0 120606.0 294430.0 287255.0 232513.0 238821.0 188527.0 180629.0 179916.0 178573.0 271762.0 277002.0 200371.0 207764.0 251196.0 247394.0 258151.0 250721.0 273373.0 269121.0 292645.0 296492.0 242843.0 245451.0 138331.0 138850.0 296071.0 288354.0 291122.0 286903.0 304417.0 296984.0 222614.0 230607.0 48298.0 40091.0 333617.0 326390.0 293743.0 300623.0 236144.0 228348.0 276303.0 273584.0 334305.0 328620.0 5370.0 12310.0 10620.0 15330.0 284124.0 285347.0 312722.0 309225.0 271915.0 277816.0 51548.0 47485.0 284922.0 282271.0 312146.0 304349.0 110953.0 103290.0 170879.0 178137.0 276537.0 268448.0 62869.0 69855.0 198732.0 194313.0 134424.0 136370.0 302907.0 302461.0 268701.0 114448.0 268701.0 268701.0 268701.0 268701.0 268701.0 268701.0 268701.0 114448.0 114448.0 114448.0 114448.0 114448.0 114448.0 114448.0
234564.0 241431.0 0.0 8022.0 130228.0 135563.0 71841.0 63613.0 9099.0 4124.0 57068.0 64706.0 65557.0 70680.0 77206.0 75098.0 43868.0 35967.0 15984.0 20301.0 41194.0 35901.0 79554.0 83679.0 97829.0 94798.0 69479.0 62525.0 103110.0 103263.0 98322.0 91207.0 59389.0 59687.0 150900.0 148997.0 19251.0 11428.0 225479.0 225874.0 132958.0 130143.0 63177.0 67406.0 31313.0 34713.0 72287.0 64589.0 93024.0 87189.0 240484.0 233700.0 233306.0 226336.0 129826.0 123742.0 134772.0 137228.0 166895.0 164973.0 201359.0 200089.0 120064.0 123676.0 102756.0 98235.0 148659.0 155784.0 72630.0 66773.0 55594.0 50264.0 178620.0 172026.0 42700.0 47750.0 114433.0 110739.0 110594.0 104554.0 119700.0 150783.0 119700.0 119700.0 119700.0 119700.0 119700.0 119700.0 119700.0 150783.0 150783.0 150783.0 150783.0 150783.0 150783.0 150783.0
242582.0 249452.0 8022.0 0.0 137782.0 143230.0 66820.0 58744.0 17027.0 11147.0 64723.0 72437.0 73281.0 78161.0 75431.0 72550.0 51501.0 43598.0 13089.0 19940.0 39137.0 35164.0 77935.0 82748.0 94997.0 91362.0 70812.0 63443.0 111129.0 111247.0 95374.0 88610.0 53119.0 54203.0 149723.0 148243.0 27139.0 19190.0 233373.0 233815.0 128811.0 126435.0 57005.0 60705.0 34175.0 38991.0 69634.0 61738.0 85031.0 79169.0 248501.0 241711.0 241327.0 234358.0 129249.0 122840.0 132497.0 135404.0 168189.0 165894.0 209312.0 208078.0 119339.0 123413.0 98446.0 94405.0 156320.0 163497.0 80486.0 74495.0 51415.0 46983.0 186639.0 180037.0 50720.0 55684.0 122217.0 118572.0 107758.0 101373.0 120848.0 158330.0 120848.0 120848.0 120848.0 120848.0 120848.0 120848.0 120848.0 158330.0 158330.0 158330.0 158330.0 158330.0 158330.0 158330.0
123909.0 128669.0 130228.0 137782.0 0.0 8150.0 169806.0 163347.0 122630.0 126648.0 73205.0 65811.0 64946.0 59647.0 186362.0 188715.0 100483.0 105285.0 135284.0 129602.0 160115.0 152305.0 145624.0 140905.0 209658.0 210346.0 161700.0 160373.0 51250.0 58768.0 167879.0 160324.0 188060.0 186422.0 243936.0 238523.0 114508.0 121602.0 99665.0 102101.0 205059.0 197759.0 191522.0 196792.0 115445.0 107457.0 186893.0 181410.0 218164.0 213831.0 129756.0 125257.0 118612.0 113692.0 220716.0 218357.0 184055.0 180558.0 232582.0 235216.0 79514.0 81500.0 156255.0 153604.0 184552.0 176631.0 19441.0 27343.0 79302.0 86657.0 178737.0 171211.0 75254.0 73407.0 91819.0 91673.0 20052.0 24843.0 174340.0 174146.0 140034.0 20556.0 140034.0 140034.0 140034.0 140034.0 140034.0 140034.0 140034.0 20556.0 20556.0 20556.0 20556.0 20556.0 20556.0 20556.0
115795.0 120606.0 135563.0 143230.0 8150.0 0.0 177095.0 170522.0 127731.0 132083.0 78509.0 70884.0 70028.0 65379.0 189299.0 191951.0 103982.0 109207.0 141269.0 135814.0 164133.0 156299.0 153415.0 148801.0 212536.0 213524.0 163985.0 163036.0 50715.0 57786.0 175775.0 168181.0 192805.0 190884.0 245095.0 239483.0 119295.0 126579.0 92531.0 94663.0 213061.0 205793.0 196195.0 201662.0 122010.0 114011.0 190226.0 184980.0 224458.0 219960.0 121650.0 117117.0 110587.0 105600.0 221952.0 219877.0 192155.0 188658.0 232018.0 234917.0 71756.0 73522.0 164355.0 161704.0 192329.0 184429.0 13099.0 20470.0 81119.0 88709.0 182868.0 175230.0 67280.0 65669.0 96126.0 95371.0 22208.0 26780.0 182344.0 182074.0 148135.0 16669.0 148135.0 148135.0 148135.0 148135.0 148135.0 148135.0 148135.0 16669.0 16669.0 16669.0 16669.0 16669.0 16669.0 16669.0
288443.0 294430.0 71841.0 66820.0 169806.0 177095.0 0.0 8311.0 79322.0 71362.0 107643.0 115147.0 115752.0 116015.0 131011.0 125471.0 112185.0 104781.0 55965.0 54594.0 98345.0 97753.0 35870.0 44211.0 144407.0 138058.0 134791.0 126944.0 160723.0 163354.0 36852.0 34136.0 88983.0 95539.0 203729.0 204019.0 88106.0 81968.0 269469.0 271751.0 62876.0 61806.0 92330.0 89695.0 59926.0 67110.0 122472.0 114829.0 64939.0 65821.0 294447.0 288547.0 285172.0 279102.0 186264.0 178880.0 74315.0 79676.0 230311.0 227014.0 248452.0 249163.0 72853.0 79801.0 32589.0 30688.0 189216.0 197149.0 137235.0 133227.0 100730.0 100974.0 233467.0 228064.0 105483.0 112825.0 160239.0 158075.0 48315.0 40552.0 89809.0 189257.0 89809.0 89809.0 89809.0 89809.0 89809.0 89809.0 89809.0 189257.0 189257.0 189257.0 189257.0 189257.0 189257.0 189257.0
281191.0 287255.0 63613.0 58744.0 163347.0 170522.0 8311.0 0.0 71030.0 63078.0 99965.0 107548.0 108172.0 108716.0 124495.0 119200.0 103890.0 96475.0 47707.0 46290.0 91183.0 90267.0 35541.0 43742.0 138675.0 132578.0 127294.0 119490.0 152968.0 155466.0 41508.0 37338.0 83797.0 89990.0 197721.0 197784.0 79795.0 73675.0 262998.0 265124.0 70430.0 68855.0 87299.0 85248.0 52079.0 59430.0 116183.0 108437.0 65921.0 65777.0 287195.0 281219.0 278075.0 271925.0 179821.0 172538.0 79578.0 84393.0 223236.0 220086.0 241676.0 242229.0 75370.0 81873.0 40015.0 37114.0 182781.0 190683.0 129077.0 124998.0 94518.0 94326.0 226062.0 220564.0 97303.0 104601.0 153252.0 150968.0 53560.0 46082.0 88942.0 182886.0 88942.0 88942.0 88942.0 88942.0 88942.0 88942.0 88942.0 182886.0 182886.0 182886.0 182886.0 182886.0 182886.0 182886.0
225615.0 232513.0 9099.0 17027.0 122630.0 127731.0 79322.0 71030.0 0.0 8006.0 49449.0 56868.0 57729.0 63372.0 78323.0 77117.0 34867.0 26981.0 23503.0 25632.0 43455.0 36989.0 84009.0 87410.0 99949.0 97635.0 67177.0 60820.0 94182.0 94223.0 103900.0 96501.0 65814.0 65214.0 150849.0 148471.0 10152.0 2646.0 217097.0 217363.0 139500.0 136298.0 69451.0 74279.0 32274.0 33564.0 74461.0 67101.0 102055.0 96137.0 231527.0 224716.0 224445.0 217440.0 129175.0 123490.0 139559.0 141561.0 164017.0 162513.0 192815.0 191421.0 123340.0 126448.0 109526.0 104608.0 140829.0 147839.0 63531.0 57709.0 59738.0 53548.0 169681.0 163045.0 33806.0 38665.0 106364.0 102557.0 116010.0 110317.0 120994.0 143177.0 120994.0 120994.0 120994.0 120994.0 120994.0 120994.0 120994.0 143177.0 143177.0 143177.0 143177.0 143177.0 143177.0 143177.0
232012.0 238821.0 4124.0 11147.0 126648.0 132083.0 71362.0 63078.0 8006.0 0.0 53576.0 61296.0 62139.0 67041.0 80972.0 79010.0 42569.0 34731.0 15497.0 18214.0 45090.0 39568.0 77257.0 81078.0 101770.0 98823.0 72369.0 65586.0 100563.0 100975.0 96595.0 89325.0 63407.0 63793.0 154470.0 152455.0 17698.0 10644.0 222296.0 222792.0 131814.0 128758.0 67213.0 71337.0 27674.0 30720.0 76219.0 68559.0 95496.0 89864.0 237945.0 231223.0 230605.0 223691.0 133245.0 127255.0 132665.0 134916.0 169665.0 167883.0 198310.0 197157.0 117317.0 120751.0 101754.0 96971.0 145173.0 152351.0 70779.0 65220.0 59701.0 54305.0 176060.0 169552.0 40218.0 45745.0 111085.0 107460.0 108788.0 102933.0 116316.0 147199.0 116316.0 116316.0 116316.0 116316.0 116316.0 116316.0 116316.0 147199.0 147199.0 147199.0 147199.0 147199.0 147199.0 147199.0
182138.0 188527.0 57068.0 64723.0 73205.0 78509.0 107643.0 99965.0 49449.0 53576.0 0.0 7968.0 8750.0 14235.0 119073.0 120026.0 35170.0 36494.0 63567.0 59040.0 88909.0 81300.0 94569.0 93486.0 142189.0 141571.0 98816.0 95330.0 53143.0 56386.0 118068.0 109874.0 115093.0 113891.0 185057.0 181036.0 41766.0 48517.0 169174.0 170021.0 156919.0 151377.0 118638.0 123695.0 48009.0 40542.0 117828.0 111494.0 147215.0 142253.0 188132.0 181875.0 179769.0 173238.0 161995.0 157951.0 145953.0 145112.0 186069.0 186590.0 145719.0 145126.0 122268.0 122243.0 130461.0 123475.0 91601.0 98783.0 37608.0 38559.0 107008.0 99874.0 126544.0 120781.0 22194.0 26663.0 57655.0 54240.0 128029.0 124940.0 110237.0 93760.0 110237.0 110237.0 110237.0 110237.0 110237.0 110237.0 110237.0 93760.0 93760.0 93760.0 93760.0 93760.0 93760.0 93760.0
174272.0 180629.0 64706.0 72437.0 65811.0 70884.0 115147.0 107548.0 56868.0 61296.0 7968.0 0.0 867.0 9169.0 124340.0 125665.0 38881.0 41544.0 71521.0 67002.0 95251.0 87548.0 100852.0 99331.0 147570.0 147285.0 102910.0 99914.0 45961.0 49750.0 124412.0 116227.0 122270.0 120814.0 188757.0 184467.0 48745.0 55794.0 161265.0 162072.0 163302.0 157560.0 125759.0 130981.0 55724.0 48132.0 123565.0 117463.0 155171.0 150182.0 180267.0 174050.0 171840.0 165333.0 165583.0 161847.0 151220.0 150039.0 187688.0 188543.0 137759.0 137158.0 126829.0 126376.0 137310.0 130198.0 83982.0 91078.0 34895.0 37448.0 113580.0 106287.0 118742.0 113063.0 27253.0 29863.0 49813.0 46323.0 134069.0 131265.0 113779.0 86341.0 113779.0 113779.0 113779.0 113779.0 113779.0 113779.0 113779.0 86341.0 86341.0 86341.0 86341.0 86341.0 86341.0 86341.0
173573.0 179916.0 65557.0 73281.0 64946.0 70028.0 115752.0 108172.0 57729.0 62139.0 8750.0 867.0 0.0 8532.0 125153.0 126496.0 39635.0 42363.0 72316.0 67762.0 96108.0 88403.0 101243.0 99657.0 148388.0 148118.0 103660.0 100694.0 45465.0 49363.0 124807.0 116625.0 123137.0 121681.0 189474.0 185166.0 49612.0 56658.0 160449.0 161273.0 163699.0 157926.0 126627.0 131847.0 56387.0 48769.0 124400.0 118307.0 155965.0 150990.0 179570.0 173368.0 171111.0 164618.0 166293.0 162578.0 151455.0 150229.0 188245.0 189128.0 136968.0 136391.0 126975.0 126467.0 137787.0 130654.0 83126.0 90228.0 35101.0 37822.0 114442.0 107146.0 118069.0 112418.0 28084.0 30600.0 48980.0 45509.0 134417.0 131657.0 113808.0 85477.0 113808.0 113808.0 113808.0 113808.0 113808.0 113808.0 113808.0 85477.0 85477.0 85477.0 85477.0 85477.0 85477.0 85477.0
172475.0 178573.0 70680.0 78161.0 59647.0 65379.0 116015.0 108716.0 63372.0 67041.0 14235.0 9169.0 8532.0 0.0 132960.0 134081.0 47914.0 50183.0 75912.0 70668.0 103135.0 95512.0 98972.0 96722.0 156137.0 155658.0 111932.0 108801.0 47737.0 52714.0 122522.0 114388.0 129134.0 128057.0 197868.0 193609.0 55956.0 62560.0 156985.0 158223.0 161363.0 155276.0 132712.0 137650.0 57827.0 49919.0 131918.0 125655.0 159295.0 154648.0 178479.0 172533.0 169492.0 163244.0 174706.0 170923.0 147529.0 145893.0 196744.0 197650.0 134172.0 134094.0 122296.0 121341.0 136379.0 129023.0 78411.0 85801.0 42654.0 45967.0 121241.0 114106.0 117489.0 112272.0 35819.0 38949.0 45452.0 42604.0 131612.0 129316.0 108260.0 80183.0 108260.0 108260.0 108260.0 108260.0 108260.0 108260.0 108260.0 80183.0 80183.0 80183.0 80183.0 80183.0 80183.0 80183.0
263993.0 271762.0 77206.0 75431.0 186362.0 189299.0 131011.0 124495.0 78323.0 80972.0 119073.0 124340.0 125153.0 132960.0 0.0 7913.0 86259.0 82805.0 88125.0 95368.0 36298.0 41469.0 151347.0 157044.0 23321.0 24940.0 29028.0 26868.0 143300.0 139203.0 165378.0 159772.0 47741.0 39572.0 74488.0 73643.0 80619.0 77385.0 268597.0 266778.0 193099.0 192750.0 46449.0 53625.0 108511.0 111472.0 9945.0 16371.0 108846.0 100725.0 269391.0 261649.0 265845.0 258030.0 55339.0 48218.0 203500.0 207489.0 101025.0 96864.0 242565.0 238916.0 193562.0 198152.0 163380.0 161523.0 201751.0 207356.0 109108.0 101255.0 30798.0 30251.0 211245.0 203461.0 97150.0 95314.0 167138.0 162519.0 177709.0 170462.0 196277.0 205896.0 196277.0 196277.0 196277.0 196277.0 196277.0 196277.0 196277.0 205896.0 205896.0 205896.0 205896.0 205896.0 205896.0 205896.0
269281.0 277002.0 75098.0 72550.0 188715.0 191951.0 125471.0 119200.0 77117.0 79010.0 120026.0 125665.0 126496.0 134081.0 7913.0 0.0 88270.0 84187.0 84901.0 92386.0 33922.0 40180.0 147112.0 153074.0 22833.0 21661.0 35117.0 31551.0 146929.0 143165.0 160352.0 154981.0 40478.0 32380.0 78746.0 78584.0 80385.0 76434.0 272710.0 271096.0 187175.0 187067.0 38942.0 45947.0 106234.0 109708.0 3036.0 11021.0 101212.0 93098.0 274734.0 267044.0 270891.0 263121.0 60908.0 53417.0 198513.0 202724.0 107936.0 103502.0 246774.0 243331.0 189463.0 194280.0 157670.0 156090.0 204549.0 210353.0 112479.0 104595.0 24747.0 25923.0 216074.0 208348.0 98413.0 97208.0 169750.0 165193.0 172619.0 165263.0 193212.0 208479.0 193212.0 193212.0 193212.0 193212.0 193212.0 193212.0 193212.0 208479.0 208479.0 208479.0 208479.0 208479.0 208479.0 208479.0
193228.0 200371.0 43868.0 51501.0 100483.0 103982.0 112185.0 103890.0 34867.0 42569.0 35170.0 38881.0 39635.0 47914.0 86259.0 88270.0 0.0 7905.0 57678.0 57615.0 60624.0 52792.0 110241.0 111676.0 109576.0 109921.0 64030.0 61182.0 62906.0 61529.0 132283.0 124369.0 91633.0 88468.0 150017.0 145900.0 24872.0 32440.0 188726.0 188173.0 169725.0 165602.0 94609.0 100986.0 56199.0 52360.0 86414.0 81002.0 135891.0 129546.0 199066.0 192013.0 192779.0 185517.0 126903.0 123018.0 165227.0 165928.0 151788.0 151970.0 163546.0 161315.0 145088.0 146617.0 140591.0 134846.0 116760.0 122924.0 29618.0 23061.0 79498.0 71655.0 137553.0 130552.0 13809.0 9113.0 81787.0 77343.0 143751.0 139022.0 137159.0 120399.0 137159.0 137159.0 137159.0 137159.0 137159.0 137159.0 137159.0 120399.0 120399.0 120399.0 120399.0 120399.0 120399.0 120399.0
200672.0 207764.0 35967.0 43598.0 105285.0 109207.0 104781.0 96475.0 26981.0 34731.0 36494.0 41544.0 42363.0 50183.0 82805.0 84187.0 7905.0 0.0 49934.0 50189.0 54927.0 47092.0 104155.0 105990.0 106027.0 105831.0 62607.0 58856.0 69923.0 68928.0 125837.0 118007.0 84936.0 82166.0 149012.0 145273.0 17052.0 24540.0 195255.0 194891.0 162951.0 159022.0 88037.0 94196.0 49954.0 46857.0 82147.0 76282.0 128079.0 121788.0 206528.0 199525.0 200063.0 192855.0 126098.0 121774.0 159424.0 160405.0 153488.0 153259.0 170260.0 168223.0 140063.0 141932.0 133602.0 128021.0 122118.0 128512.0 37272.0 30926.0 73695.0 66023.0 144911.0 137990.0 14367.0 14083.0 87100.0 82794.0 137465.0 132525.0 133236.0 125451.0 133236.0 133236.0 133236.0 133236.0 133236.0 133236.0 133236.0 125451.0 125451.0 125451.0 125451.0 125451.0 125451.0 125451.0
244556.0 251196.0 15984.0 13089.0 135284.0 141269.0 55965.0 47707.0 23503.0 15497.0 63567.0 71521.0 72316.0 75912.0 88125.0 84901.0 57678.0 49934.0 0.0 7955.0 51905.0 48227.0 64873.0 69665.0 107098.0 103052.0 83809.0 76494.0 113402.0 114417.0 82730.0 75805.0 61695.0 64057.0 162533.0 161174.0 32901.0 26141.0 232675.0 233587.0 116996.0 114268.0 65687.0 68190.0 24225.0 30701.0 81942.0 73979.0 83651.0 78762.0 250519.0 243967.0 242721.0 235980.0 142228.0 135748.0 119603.0 122397.0 181227.0 178971.0 209276.0 208558.0 106261.0 110390.0 86775.0 82318.0 154267.0 161707.0 85132.0 79981.0 62792.0 59092.0 188654.0 182384.0 53778.0 60050.0 121068.0 117783.0 95068.0 88856.0 108311.0 155705.0 108311.0 108311.0 108311.0 108311.0 108311.0 108311.0 108311.0 155705.0 155705.0 155705.0 155705.0 155705.0 155705.0 155705.0
240888.0 247394.0 20301.0 19940.0 129602.0 135814.0 54594.0 46290.0 25632.0 18214.0 59040.0 67002.0 67762.0 70668.0 95368.0 92386.0 57615.0 50189.0 7955.0 0.0 59077.0 54903.0 59254.0 63464.0 114711.0 110804.0 89639.0 82540.0 110249.0 111778.0 78387.0 71115.0 69614.0 72009.0 169652.0 168113.0 33636.0 28213.0 227650.0 228790.0 113902.0 110668.0 73609.0 75989.0 16497.0 23458.0 89449.0 81515.0 88653.0 84239.0 246869.0 240456.0 238742.0 232131.0 149074.0 142731.0 114531.0 116929.0 187094.0 185061.0 204605.0 204149.0 99940.0 103764.0 84025.0 78990.0 148737.0 156281.0 83632.0 79077.0 70593.0 66675.0 185096.0 179024.0 51865.0 58776.0 116066.0 112972.0 90574.0 84746.0 100915.0 149917.0 100915.0 100915.0 100915.0 100915.0 100915.0 100915.0 100915.0 149917.0 149917.0 149917.0 149917.0 149917.0 149917.0 149917.0
250721.0 258151.0 41194.0 39137.0 160115.0 164133.0 98345.0 91183.0 43455.0 45090.0 88909.0 95251.0 96108.0 103135.0 36298.0 33922.0 60624.0 54927.0 51905.0 59077.0 0.0 7844.0 115786.0 121185.0 56706.0 54182.0 37521.0 29556.0 122833.0 120413.0 131087.0 125033.0 33864.0 28771.0 110629.0 109341.0 47795.0 42994.0 249079.0 248258.0 161167.0 160021.0 35929.0 43350.0 72405.0 75787.0 31152.0 23651.0 90959.0 83200.0 256414.0 249036.0 251158.0 243651.0 90517.0 83892.0 168988.0 172562.0 132057.0 129033.0 223668.0 221059.0 157774.0 162162.0 130932.0 128253.0 177042.0 183389.0 88367.0 80683.0 18881.0 11099.0 195820.0 188442.0 68368.0 68851.0 142023.0 137695.0 143503.0 136537.0 159981.0 180349.0 159981.0 159981.0 159981.0 159981.0 159981.0 159981.0 159981.0 180349.0 180349.0 180349.0 180349.0 180349.0 180349.0 180349.0
243323.0 250721.0 35901.0 35164.0 152305.0 156299.0 97753.0 90267.0 36989.0 39568.0 81300.0 87548.0 88403.0 95512.0 41469.0 40180.0 52792.0 47092.0 48227.0 54903.0 7844.0 0.0 112887.0 117884.0 62998.0 61061.0 37039.0 29228.0 115096.0 112775.0 129258.0 122886.0 40703.0 36217.0 115021.0 113259.0 40507.0 36255.0 241308.0 240528.0 160615.0 159058.0 43077.0 50243.0 67199.0 70002.0 37594.0 30540.0 95488.0 87919.0 249036.0 241693.0 243651.0 236173.0 94179.0 87929.0 166880.0 170119.0 133623.0 131040.0 215930.0 213372.0 154485.0 158571.0 130243.0 127110.0 169203.0 175545.0 80683.0 73038.0 26706.0 18932.0 188305.0 180966.0 60594.0 61008.0 134184.0 129853.0 141689.0 134941.0 155476.0 172526.0 155476.0 155476.0 155476.0 155476.0 155476.0 155476.0 155476.0 172526.0 172526.0 172526.0 172526.0 172526.0 172526.0 172526.0
267978.0 273373.0 79554.0 77935.0 145624.0 153415.0 35870.0 35541.0 84009.0 77257.0 94569.0 100852.0 101243.0 98972.0 151347.0 147112.0 110241.0 104155.0 64873.0 59254.0 115786.0 112887.0 0.0 8344.0 168127.0 162828.0 148656.0 141367.0 146442.0 150601.0 23574.0 15417.0 115485.0 120694.0 225736.0 224937.0 89936.0 86397.0 244750.0 247433.0 62465.0 56824.0 119249.0 118301.0 54205.0 58167.0 144081.0 136101.0 100692.0 101108.0 273941.0 268653.0 263627.0 258150.0 206267.0 199477.0 55603.0 57676.0 246096.0 243824.0 225135.0 226804.0 42429.0 47880.0 38935.0 31015.0 164620.0 172613.0 129659.0 127594.0 123150.0 121307.0 214651.0 210118.0 99938.0 107955.0 139408.0 138133.0 33789.0 30415.0 53939.0 164492.0 53939.0 53939.0 53939.0 53939.0 53939.0 53939.0 53939.0 164492.0 164492.0 164492.0 164492.0 164492.0 164492.0 164492.0
263890.0 269121.0 83679.0 82748.0 140905.0 148801.0 44211.0 43742.0 87410.0 81078.0 93486.0 99331.0 99657.0 96722.0 157044.0 153074.0 111676.0 105990.0 69665.0 63464.0 121185.0 117884.0 8344.0 0.0 174392.0 169304.0 153103.0 145976.0 144424.0 148947.0 26974.0 19598.0 122461.0 127418.0 231518.0 230503.0 92590.0 89688.0 239838.0 242553.0 65047.0 58606.0 126273.0 125602.0 56388.0 59316.0 150052.0 142053.0 109030.0 109398.0 269832.0 264711.0 259265.0 253953.0 211695.0 205043.0 53580.0 54486.0 250555.0 248503.0 220384.0 222305.0 36608.0 41240.0 44455.0 36386.0 159709.0 167701.0 129496.0 127929.0 129388.0 127187.0 211116.0 206825.0 100684.0 108732.0 135674.0 134655.0 34896.0 33364.0 45598.0 159580.0 45598.0 45598.0 45598.0 45598.0 45598.0 45598.0 45598.0 159580.0 159580.0 159580.0 159580.0 159580.0 159580.0 159580.0
284801.0 292645.0 97829.0 94997.0 209658.0 212536.0 144407.0 138675.0 99949.0 101770.0 142189.0 147570.0 148388.0 156137.0 23321.0 22833.0 109576.0 106027.0 107098.0 114711.0 56706.0 62998.0 168127.0 174392.0 0.0 8425.0 50320.0 49677.0 166139.0 161814.0 180126.0 175176.0 56009.0 48914.0 59719.0 61167.0 103066.0 99252.0 290948.0 288924.0 204883.0 205387.0 53230.0 58324.0 128868.0 132483.0 25555.0 33288.0 111859.0 103987.0 290094.0 282270.0 287049.0 279173.0 46193.0 38106.0 218249.0 222831.0 96856.0 91183.0 264841.0 260979.0 210553.0 215632.0 176040.0 175090.0 224945.0 230477.0 132136.0 124309.0 45004.0 48038.0 232827.0 224975.0 120352.0 118625.0 190391.0 185759.0 192234.0 184699.0 215326.0 229147.0 215326.0 215326.0 215326.0 215326.0 215326.0 215326.0 215326.0 229147.0 229147.0 229147.0 229147.0 229147.0 229147.0 229147.0
288698.0 296492.0 94798.0 91362.0 210346.0 213524.0 138058.0 132578.0 97635.0 98823.0 141571.0 147285.0 148118.0 155658.0 24940.0 21661.0 109921.0 105831.0 103052.0 110804.0 54182.0 61061.0 162828.0 169304.0 8425.0 0.0 53651.0 51785.0 168073.0 164080.0 174081.0 169357.0 49203.0 42588.0 67004.0 68919.0 101529.0 97150.0 293515.0 291716.0 197976.0 198690.0 46166.0 50757.0 125469.0 129508.0 23743.0 30561.0 103722.0 95895.0 294062.0 286291.0 290665.0 282833.0 54478.0 46386.0 212133.0 216901.0 105255.0 99530.0 267494.0 263856.0 205243.0 210514.0 169403.0 168702.0 226084.0 231823.0 133756.0 125882.0 40314.0 44545.0 236138.0 228340.0 120035.0 118867.0 191329.0 186756.0 186094.0 178486.0 210954.0 230070.0 210954.0 210954.0 210954.0 210954.0 210954.0 210954.0 210954.0 230070.0 230070.0 230070.0 230070.0 230070.0 230070.0 230070.0
235054.0 242843.0 69479.0 70812.0 161700.0 163985.0 134791.0 127294.0 67177.0 72369.0 98816.0 102910.0 103660.0 111932.0 29028.0 35117.0 64030.0 62607.0 83809.0 89639.0 37521.0 37039.0 148656.0 153103.0 50320.0 53651.0 0.0 7971.0 116370.0 111747.0 165920.0 159341.0 65220.0 57626.0 86422.0 82912.0 65852.0 65403.0 240665.0 238605.0 197655.0 196053.0 65542.0 73460.0 99417.0 100364.0 35191.0 35575.0 126212.0 118208.0 240429.0 232672.0 237032.0 229192.0 63636.0 59170.0 203280.0 206204.0 97463.0 95516.0 214541.0 210660.0 189539.0 193110.0 167280.0 164075.0 176092.0 181291.0 82959.0 75283.0 45986.0 40146.0 182610.0 174784.0 76659.0 73072.0 142036.0 137316.0 178340.0 171725.0 188170.0 180652.0 188170.0 188170.0 188170.0 188170.0 188170.0 188170.0 188170.0 180652.0 180652.0 180652.0 180652.0 180652.0 180652.0 180652.0
237730.0 245451.0 62525.0 63443.0 160373.0 163036.0 126944.0 119490.0 60820.0 65586.0 95330.0 99914.0 100694.0 108801.0 26868.0 31551.0 61182.0 58856.0 76494.0 82540.0 29556.0 29228.0 141367.0 145976.0 49677.0 51785.0 7971.0 0.0 116507.0 112342.0 158332.0 151832.0 58067.0 50687.0 91022.0 88050.0 60338.0 59203.0 241732.0 239941.0 189817.0 188285.0 58631.0 66570.0 92910.0 94257.0 30990.0 29860.0 118693.0 110723.0 243186.0 235502.0 239363.0 231584.0 68712.0 63592.0 195800.0 198835.0 104749.0 102528.0 215709.0 212101.0 182480.0 186197.0 159457.0 156330.0 175363.0 180827.0 82463.0 74644.0 38931.0 32651.0 184607.0 176859.0 73144.0 70294.0 140941.0 136275.0 170758.0 164083.0 181724.0 179673.0 181724.0 181724.0 181724.0 181724.0 181724.0 181724.0 181724.0 179673.0 179673.0 179673.0 179673.0 179673.0 179673.0 179673.0
131460.0 138331.0 103110.0 111129.0 51250.0 50715.0 160723.0 152968.0 94182.0 100563.0 53143.0 45961.0 45465.0 47737.0 143300.0 146929.0 62906.0 69923.0 113402.0 110249.0 122833.0 115096.0 146442.0 144424.0 166139.0 168073.0 116370.0 116507.0 0.0 7909.0 170015.0 161852.0 154523.0 151137.0 195047.0 189233.0 84300.0 92286.0 126328.0 125432.0 208898.0 202931.0 157451.0 163890.0 100899.0 93617.0 145574.0 141304.0 196056.0 190298.0 137386.0 130673.0 130338.0 123272.0 172032.0 170360.0 195101.0 193219.0 181445.0 184239.0 100835.0 98417.0 169382.0 167923.0 183247.0 176086.0 61315.0 65563.0 34643.0 42499.0 141667.0 133666.0 75511.0 69021.0 60410.0 56169.0 31987.0 27628.0 179301.0 176840.0 154464.0 66901.0 154464.0 154464.0 154464.0 154464.0 154464.0 154464.0 154464.0 66901.0 66901.0 66901.0 66901.0 66901.0 66901.0 66901.0
131744.0 138850.0 103263.0 111247.0 58768.0 57786.0 163354.0 155466.0 94223.0 100975.0 56386.0 49750.0 49363.0 52714.0 139203.0 143165.0 61529.0 68928.0 114417.0 111778.0 120413.0 112775.0 150601.0 148947.0 161814.0 164080.0 111747.0 112342.0 7909.0 0.0 174162.0 165977.0 152719.0 148962.0 188966.0 183005.0 84174.0 92178.0 129562.0 128187.0 213052.0 207284.0 155508.0 162164.0 103427.0 96417.0 141944.0 138019.0 196277.0 190289.0 137604.0 130639.0 131280.0 123991.0 166062.0 164641.0 200230.0 198592.0 174232.0 177170.0 103725.0 100726.0 174914.0 173709.0 186847.0 179834.0 67839.0 71586.0 32180.0 39737.0 139138.0 131084.0 76024.0 69063.0 60795.0 55667.0 39768.0 35482.0 183752.0 181015.0 160365.0 73696.0 160365.0 160365.0 160365.0 160365.0 160365.0 160365.0 160365.0 73696.0 73696.0 73696.0 73696.0 73696.0 73696.0 73696.0
290808.0 296071.0 98322.0 95374.0 167879.0 175775.0 36852.0 41508.0 103900.0 96595.0 118068.0 124412.0 124807.0 122522.0 165378.0 160352.0 132283.0 125837.0 82730.0 78387.0 131087.0 129258.0 23574.0 26974.0 180126.0 174081.0 165920.0 158332.0 170015.0 174162.0 0.0 8193.0 125277.0 131493.0 239008.0 238882.0 110790.0 106418.0 266797.0 269513.0 38893.0 33534.0 128743.0 126416.0 76096.0 80829.0 157324.0 149496.0 98148.0 100446.0 296755.0 291591.0 286229.0 280893.0 220705.0 213549.0 38165.0 42937.0 262862.0 260080.0 247351.0 249277.0 38250.0 45942.0 19196.0 11738.0 186669.0 194661.0 152789.0 150443.0 135761.0 135131.0 237834.0 233417.0 122594.0 130557.0 162460.0 161326.0 12431.0 6880.0 64593.0 186539.0 64593.0 64593.0 64593.0 64593.0 64593.0 64593.0 64593.0 186539.0 186539.0 186539.0 186539.0 186539.0 186539.0 186539.0
283035.0 288354.0 91207.0 88610.0 160324.0 168181.0 34136.0 37338.0 96501.0 89325.0 109874.0 116227.0 116625.0 114388.0 159772.0 154981.0 124369.0 118007.0 75805.0 71115.0 125033.0 122886.0 15417.0 19598.0 175176.0 169357.0 159341.0 151832.0 161852.0 165977.0 8193.0 0.0 120900.0 126818.0 233718.0 233380.0 103154.0 98989.0 259317.0 262032.0 47075.0 41674.0 124472.0 122579.0 68170.0 72752.0 151947.0 144058.0 97782.0 99429.0 288989.0 283771.0 278552.0 273157.0 215035.0 207987.0 43996.0 47742.0 256500.0 253872.0 239827.0 241650.0 38749.0 45873.0 24953.0 16888.0 179188.0 187173.0 144641.0 142350.0 130534.0 129530.0 229901.0 225430.0 114537.0 122514.0 154581.0 153384.0 19535.0 15070.0 60608.0 179059.0 60608.0 60608.0 60608.0 60608.0 60608.0 60608.0 60608.0 179059.0 179059.0 179059.0 179059.0 179059.0 179059.0 179059.0
283781.0 291122.0 59389.0 53119.0 188060.0 192805.0 88983.0 83797.0 65814.0 63407.0 115093.0 122270.0 123137.0 129134.0 47741.0 40478.0 91633.0 84936.0 61695.0 69614.0 33864.0 40703.0 115485.0 122461.0 56009.0 49203.0 65220.0 58067.0 154523.0 152719.0 125277.0 120900.0 0.0 8186.0 115720.0 116820.0 73555.0 66582.0 280190.0 279779.0 148881.0 149494.0 4004.0 9542.0 85842.0 91665.0 37885.0 32177.0 61690.0 53581.0 289524.0 282231.0 283889.0 276479.0 100314.0 92482.0 163205.0 168188.0 148385.0 143808.0 255149.0 252939.0 157670.0 163364.0 120200.0 119576.0 205868.0 212626.0 120539.0 113078.0 19246.0 25785.0 228547.0 221301.0 96878.0 98996.0 171041.0 166971.0 137163.0 129490.0 165956.0 208560.0 165956.0 165956.0 165956.0 165956.0 165956.0 165956.0 165956.0 208560.0 208560.0 208560.0 208560.0 208560.0 208560.0 208560.0
279483.0 286903.0 59687.0 54203.0 186422.0 190884.0 95539.0 89990.0 65214.0 63793.0 113891.0 120814.0 121681.0 128057.0 39572.0 32380.0 88468.0 82166.0 64057.0 72009.0 28771.0 36217.0 120694.0 127418.0 48914.0 42588.0 57626.0 50687.0 151137.0 148962.0 131493.0 126818.0 8186.0 0.0 108494.0 109337.0 72131.0 65663.0 277192.0 276552.0 156104.0 156490.0 7946.0 15885.0 87857.0 93168.0 29741.0 24017.0 69797.0 61679.0 285181.0 277807.0 279865.0 272378.0 92551.0 84782.0 169549.0 174322.0 140314.0 135811.0 251937.0 249492.0 163041.0 168516.0 127132.0 126210.0 203898.0 210488.0 116836.0 109229.0 11796.0 19244.0 224520.0 217170.0 94760.0 96244.0 168947.0 164762.0 143512.0 135919.0 170149.0 206844.0 170149.0 170149.0 170149.0 170149.0 170149.0 170149.0 170149.0 206844.0 206844.0 206844.0 206844.0 206844.0 206844.0 206844.0
296366.0 304417.0 150900.0 149723.0 243936.0 245095.0 203729.0 197721.0 150849.0 154470.0 185057.0 188757.0 189474.0 197868.0 74488.0 78746.0 150017.0 149012.0 162533.0 169652.0 110629.0 115021.0 225736.0 231518.0 59719.0 67004.0 86422.0 91022.0 195047.0 188966.0 239008.0 233718.0 115720.0 108494.0 0.0 8118.0 151282.0 149519.0 311953.0 308438.0 264570.0 264963.0 112937.0 117761.0 182143.0 184399.0 81782.0 89709.0 169728.0 162113.0 300987.0 292930.0 300701.0 292669.0 23290.0 27441.0 277174.0 281459.0 51844.0 43951.0 285826.0 280542.0 268011.0 272639.0 235586.0 234412.0 256317.0 260513.0 164775.0 157743.0 103247.0 104433.0 250144.0 242160.0 162970.0 158920.0 223912.0 219119.0 251231.0 243803.0 270462.0 261626.0 270462.0 270462.0 270462.0 270462.0 270462.0 270462.0 270462.0 261626.0 261626.0 261626.0 261626.0 261626.0 261626.0 261626.0
288931.0 296984.0 148997.0 148243.0 238523.0 239483.0 204019.0 197784.0 148471.0 152455.0 181036.0 184467.0 185166.0 193609.0 73643.0 78584.0 145900.0 145273.0 161174.0 168113.0 109341.0 113259.0 224937.0 230503.0 61167.0 68919.0 82912.0 88050.0 189233.0 183005.0 238882.0 233380.0 116820.0 109337.0 8118.0 0.0 148383.0 147023.0 305120.0 301498.0 265376.0 265508.0 114245.0 119491.0 180104.0 182029.0 81600.0 89387.0 172411.0 164674.0 293510.0 285449.0 293381.0 285350.0 19338.0 25463.0 277033.0 281110.0 44542.0 36825.0 279033.0 273650.0 267071.0 271502.0 236108.0 234659.0 250543.0 254588.0 159545.0 152660.0 103299.0 103856.0 243148.0 235171.0 159057.0 154704.0 218478.0 213684.0 251173.0 243840.0 268692.0 255959.0 268692.0 268692.0 268692.0 268692.0 268692.0 268692.0 268692.0 255959.0 255959.0 255959.0 255959.0 255959.0 255959.0 255959.0
215676.0 222614.0 19251.0 27139.0 114508.0 119295.0 88106.0 79795.0 10152.0 17698.0 41766.0 48745.0 49612.0 55956.0 80619.0 80385.0 24872.0 17052.0 32901.0 33636.0 47795.0 40507.0 89936.0 92590.0 103066.0 101529.0 65852.0 60338.0 84300.0 84174.0 110790.0 103154.0 73555.0 72131.0 151282.0 148383.0 0.0 8006.0 207882.0 207987.0 147221.0 143642.0 77020.0 82368.0 36265.0 35285.0 77931.0 71043.0 112125.0 106125.0 221579.0 214730.0 214621.0 207572.0 129045.0 123841.0 145513.0 147042.0 161198.0 160178.0 183404.0 181853.0 127804.0 130367.0 117547.0 112264.0 132373.0 139227.0 53379.0 47594.0 65429.0 58548.0 159761.0 153070.0 24118.0 28553.0 97659.0 93709.0 122685.0 117358.0 123436.0 135005.0 123436.0 123436.0 123436.0 123436.0 123436.0 123436.0 123436.0 135005.0 135005.0 135005.0 135005.0 135005.0 135005.0 135005.0
223676.0 230607.0 11428.0 19190.0 121602.0 126579.0 81968.0 73675.0 2646.0 10644.0 48517.0 55794.0 56658.0 62560.0 77385.0 76434.0 32440.0 24540.0 26141.0 28213.0 42994.0 36255.0 86397.0 89688.0 99252.0 97150.0 65403.0 59203.0 92286.0 92178.0 106418.0 98989.0 66582.0 65663.0 149519.0 147023.0 8006.0 0.0 215605.0 215787.0 142101.0 138867.0 70153.0 75198.0 34234.0 35054.0 73830.0 66591.0 104131.0 98119.0 229580.0 222735.0 222596.0 215558.0 127709.0 122128.0 141968.0 143905.0 162030.0 160614.0 191219.0 189737.0 125520.0 128536.0 112145.0 107200.0 139672.0 146618.0 61296.0 55357.0 59751.0 53324.0 167757.0 161074.0 32016.0 36545.0 105094.0 101223.0 118506.0 112852.0 122800.0 142135.0 122800.0 122800.0 122800.0 122800.0 122800.0 122800.0 122800.0 142135.0 142135.0 142135.0 142135.0 142135.0 142135.0 142135.0
49819.0 48298.0 225479.0 233373.0 99665.0 92531.0 269469.0 262998.0 217097.0 222296.0 169174.0 161265.0 160449.0 156985.0 268597.0 272710.0 188726.0 195255.0 232675.0 227650.0 249079.0 241308.0 244750.0 239838.0 290948.0 293515.0 240665.0 241732.0 126328.0 129562.0 266797.0 259317.0 280190.0 277192.0 311953.0 305120.0 207882.0 215605.0 0.0 8428.0 303812.0 296479.0 283271.0 289423.0 214333.0 206338.0 271506.0 267507.0 316238.0 311415.0 52757.0 54678.0 39024.0 41575.0 290090.0 289963.0 282748.0 279252.0 286327.0 291243.0 26241.0 31698.0 254949.0 252298.0 283683.0 275729.0 80254.0 72322.0 160954.0 168782.0 267938.0 259959.0 62806.0 70579.0 183856.0 181197.0 111617.0 114942.0 273093.0 273009.0 238728.0 81174.0 238728.0 238728.0 238728.0 238728.0 238728.0 238728.0 238728.0 81174.0 81174.0 81174.0 81174.0 81174.0 81174.0 81174.0
41402.0 40091.0 225874.0 233815.0 102101.0 94663.0 271751.0 265124.0 217363.0 222792.0 170021.0 162072.0 161273.0 158223.0 266778.0 271096.0 188173.0 194891.0 233587.0 228790.0 248258.0 240528.0 247433.0 242553.0 288924.0 291716.0 238605.0 239941.0 125432.0 128187.0 269513.0 262032.0 279779.0 276552.0 308438.0 301498.0 207987.0 215787.0 8428.0 0.0 306527.0 299194.0 282782.0 289080.0 215848.0 207869.0 269978.0 266195.0 317229.0 312234.0 44441.0 46250.0 30639.0 33199.0 286789.0 286881.0 285464.0 281967.0 281700.0 286774.0 24631.0 28060.0 257664.0 255013.0 286361.0 278390.0 82861.0 74868.0 159937.0 167706.0 267077.0 259060.0 58446.0 66381.0 183892.0 180886.0 112771.0 115834.0 275808.0 275725.0 241444.0 84457.0 241444.0 241444.0 241444.0 241444.0 241444.0 241444.0 241444.0 84457.0 84457.0 84457.0 84457.0 84457.0 84457.0 84457.0
328548.0 333617.0 132958.0 128811.0 205059.0 213061.0 62876.0 70430.0 139500.0 131814.0 156919.0 163302.0 163699.0 161363.0 193099.0 187175.0 169725.0 162951.0 116996.0 113902.0 161167.0 160615.0 62465.0 65047.0 204883.0 197976.0 197655.0 189817.0 208898.0 213052.0 38893.0 47075.0 148881.0 156104.0 264570.0 265376.0 147221.0 142101.0 303812.0 306527.0 0.0 8543.0 151810.0 147804.0 113835.0 119102.0 184223.0 176785.0 106609.0 111530.0 334467.0 329486.0 323647.0 318518.0 248082.0 240522.0 33853.0 42109.0 293006.0 289548.0 284377.0 286559.0 57298.0 64628.0 30421.0 34958.0 223683.0 231675.0 191281.0 188652.0 162478.0 163346.0 276117.0 271869.0 160679.0 168565.0 200641.0 199687.0 30719.0 32058.0 92852.0 223554.0 92852.0 92852.0 92852.0 92852.0 92852.0 92852.0 92852.0 223554.0 223554.0 223554.0 223554.0 223554.0 223554.0 223554.0
321410.0 326390.0 130143.0 126435.0 197759.0 205793.0 61806.0 68855.0 136298.0 128758.0 151377.0 157560.0 157926.0 155276.0 192750.0 187067.0 165602.0 159022.0 114268.0 110668.0 160021.0 159058.0 56824.0 58606.0 205387.0 198690.0 196053.0 188285.0 202931.0 207284.0 33534.0 41674.0 149494.0 156490.0 264963.0 265508.0 143642.0 138867.0 296479.0 299194.0 8543.0 0.0 152572.0 148959.0 109475.0 114350.0 184086.0 176516.0 110230.0 114681.0 327315.0 322426.0 316370.0 311330.0 247936.0 240481.0 25792.0 34077.0 292056.0 288812.0 277045.0 279244.0 48785.0 56088.0 29401.0 32042.0 216351.0 224342.0 186315.0 183967.0 162323.0 162768.0 269310.0 265194.0 156095.0 164045.0 193812.0 192983.0 23756.0 26682.0 84514.0 216221.0 84514.0 84514.0 84514.0 84514.0 84514.0 84514.0 84514.0 216221.0 216221.0 216221.0 216221.0 216221.0 216221.0 216221.0
286368.0 293743.0 63177.0 57005.0 191522.0 196195.0 92330.0 87299.0 69451.0 67213.0 118638.0 125759.0 126627.0 132712.0 46449.0 38942.0 94609.0 88037.0 65687.0 73609.0 35929.0 43077.0 119249.0 126273.0 53230.0 46166.0 65542.0 58631.0 157451.0 155508.0 128743.0 124472.0 4004.0 7946.0 112937.0 114245.0 77020.0 70153.0 283271.0 282782.0 151810.0 152572.0 0.0 7940.0 89824.0 95615.0 36514.0 31472.0 62453.0 54327.0 292091.0 284762.0 286592.0 279149.0 98046.0 90149.0 166606.0 171670.0 146606.0 141868.0 258155.0 255861.0 161384.0 167127.0 123330.0 122865.0 209248.0 215961.0 123338.0 115817.0 19735.0 26995.0 231242.0 223953.0 100183.0 102114.0 174381.0 170278.0 140571.0 132867.0 169876.0 212006.0 169876.0 169876.0 169876.0 169876.0 169876.0 169876.0 169876.0 212006.0 212006.0 212006.0 212006.0 212006.0 212006.0 212006.0
293292.0 300623.0 67406.0 60705.0 196792.0 201662.0 89695.0 85248.0 74279.0 71337.0 123695.0 130981.0 131847.0 137650.0 53625.0 45947.0 100986.0 94196.0 68190.0 75989.0 43350.0 50243.0 118301.0 125602.0 58324.0 50757.0 73460.0 66570.0 163890.0 162164.0 126416.0 122579.0 9542.0 15885.0 117761.0 119491.0 82368.0 75198.0 289423.0 289080.0 147804.0 148959.0 7940.0 0.0 92414.0 98622.0 43685.0 39119.0 55272.0 47164.0 299039.0 291754.0 293363.0 285965.0 103867.0 95883.0 163979.0 169332.0 153058.0 148110.0 264449.0 262301.0 160085.0 166089.0 119919.0 119937.0 214740.0 221565.0 129984.0 122551.0 27671.0 34826.0 238025.0 230795.0 105907.0 108232.0 179984.0 175962.0 138008.0 130212.0 169977.0 217317.0 169977.0 169977.0 169977.0 169977.0 169977.0 169977.0 169977.0 217317.0 217317.0 217317.0 217317.0 217317.0 217317.0 217317.0
229889.0 236144.0 31313.0 34175.0 115445.0 122010.0 59926.0 52079.0 32274.0 27674.0 48009.0 55724.0 56387.0 57827.0 108511.0 106234.0 56199.0 49954.0 24225.0 16497.0 72405.0 67199.0 54205.0 56388.0 128868.0 125469.0 99417.0 92910.0 100899.0 103427.0 76096.0 68170.0 85842.0 87857.0 182143.0 180104.0 36265.0 34234.0 214333.0 215848.0 113835.0 109475.0 89824.0 92414.0 0.0 7999.0 103379.0 95581.0 102970.0 99130.0 235889.0 229740.0 227193.0 220828.0 160875.0 154924.0 109586.0 110871.0 196260.0 194787.0 191924.0 191921.0 91591.0 94375.0 85338.0 79141.0 134764.0 142455.0 78139.0 74956.0 85590.0 80985.0 174455.0 168775.0 46928.0 54752.0 103153.0 100430.0 87568.0 82855.0 88814.0 135524.0 88814.0 88814.0 88814.0 88814.0 88814.0 88814.0 88814.0 135524.0 135524.0 135524.0 135524.0 135524.0 135524.0 135524.0
222134.0 228348.0 34713.0 38991.0 107457.0 114011.0 67110.0 59430.0 33564.0 30720.0 40542.0 48132.0 48769.0 49919.0 111472.0 109708.0 52360.0 46857.0 30701.0 23458.0 75787.0 70002.0 58167.0 59316.0 132483.0 129508.0 100364.0 94257.0 93617.0 96417.0 80829.0 72752.0 91665.0 93168.0 184399.0 182029.0 35285.0 35054.0 206338.0 207869.0 119102.0 114350.0 95615.0 98622.0 7999.0 0.0 106929.0 99278.0 110891.0 106956.0 228136.0 222033.0 219354.0 213027.0 162727.0 157050.0 112875.0 113615.0 196426.0 195279.0 183964.0 184004.0 93274.0 95418.0 91250.0 84728.0 126769.0 134458.0 72234.0 69617.0 90087.0 84969.0 166785.0 161186.0 41797.0 49798.0 95194.0 92510.0 91891.0 87668.0 88170.0 127556.0 88170.0 88170.0 88170.0 88170.0 88170.0 88170.0 88170.0 127556.0 127556.0 127556.0 127556.0 127556.0 127556.0 127556.0
268607.0 276303.0 72287.0 69634.0 186893.0 190226.0 122472.0 116183.0 74461.0 76219.0 117828.0 123565.0 124400.0 131918.0 9945.0 3036.0 86414.0 82147.0 81942.0 89449.0 31152.0 37594.0 144081.0 150052.0 25555.0 23743.0 35191.0 30990.0 145574.0 141944.0 157324.0 151947.0 37885.0 29741.0 81782.0 81600.0 77931.0 73830.0 271506.0 269978.0 184223.0 184086.0 36514.0 43685.0 103379.0 106929.0 0.0 8004.0 98901.0 90780.0 274087.0 266424.0 270098.0 262351.0 63868.0 56409.0 195485.0 199689.0 110635.0 106284.0 245615.0 242258.0 186435.0 191261.0 154690.0 153084.0 202868.0 208741.0 111055.0 103169.0 21764.0 22922.0 215193.0 207496.0 96319.0 95302.0 168020.0 163486.0 169593.0 162243.0 190251.0 206726.0 190251.0 190251.0 190251.0 190251.0 190251.0 190251.0 190251.0 206726.0 206726.0 206726.0 206726.0 206726.0 206726.0 206726.0
265958.0 273584.0 64589.0 61738.0 181410.0 184980.0 114829.0 108437.0 67101.0 68559.0 111494.0 117463.0 118307.0 125655.0 16371.0 11021.0 81002.0 76282.0 73979.0 81515.0 23651.0 30540.0 136101.0 142053.0 33288.0 30561.0 35575.0 29860.0 141304.0 138019.0 149496.0 144058.0 32177.0 24017.0 89709.0 89387.0 71043.0 66591.0 267507.0 266195.0 176785.0 176516.0 31472.0 39119.0 95581.0 99278.0 8004.0 0.0 93802.0 85681.0 271505.0 263916.0 267145.0 259460.0 71436.0 64101.0 187650.0 191799.0 117320.0 113228.0 241742.0 238608.0 178445.0 183260.0 147132.0 145398.0 197723.0 203758.0 106677.0 98807.0 14433.0 14923.0 212049.0 204433.0 90279.0 89738.0 162779.0 158306.0 161787.0 154470.0 182282.0 201399.0 182282.0 182282.0 182282.0 182282.0 182282.0 182282.0 182282.0 201399.0 201399.0 201399.0 201399.0 201399.0 201399.0 201399.0
327508.0 334305.0 93024.0 85031.0 218164.0 224458.0 64939.0 65921.0 102055.0 95496.0 147215.0 155171.0 155965.0 159295.0 108846.0 101212.0 135891.0 128079.0 83651.0 88653.0 90959.0 95488.0 100692.0 109030.0 111859.0 103722.0 126212.0 118693.0 196056.0 196277.0 98148.0 97782.0 61690.0 69797.0 169728.0 172411.0 112125.0 104131.0 316238.0 317229.0 106609.0 110230.0 62453.0 55272.0 102970.0 110891.0 98901.0 93802.0 0.0 8126.0 333441.0 326701.0 326026.0 319159.0 158004.0 149933.0 130889.0 137877.0 207952.0 202738.0 292927.0 292162.0 136157.0 143559.0 84717.0 88136.0 237358.0 244926.0 165288.0 158942.0 80701.0 86073.0 271556.0 265027.0 135672.0 140676.0 204623.0 201407.0 107044.0 99290.0 154576.0 238386.0 154576.0 154576.0 154576.0 154576.0 154576.0 154576.0 154576.0 238386.0 238386.0 238386.0 238386.0 238386.0 238386.0 238386.0
321748.0 328620.0 87189.0 79169.0 213831.0 219960.0 65821.0 65777.0 96137.0 89864.0 142253.0 150182.0 150990.0 154648.0 100725.0 93098.0 129546.0 121788.0 78762.0 84239.0 83200.0 87919.0 101108.0 109398.0 103987.0 95895.0 118208.0 110723.0 190298.0 190289.0 100446.0 99429.0 53581.0 61679.0 162113.0 164674.0 106125.0 98119.0 311415.0 312234.0 111530.0 114681.0 54327.0 47164.0 99130.0 106956.0 90780.0 85681.0 8126.0 0.0 327663.0 320848.0 320461.0 313518.0 150094.0 142031.0 134411.0 141147.0 199936.0 194767.0 287853.0 286908.0 138081.0 145302.0 88184.0 90968.0 232923.0 240415.0 159051.0 152558.0 72622.0 78084.0 265807.0 259180.0 129889.0 134629.0 199822.0 196492.0 109961.0 102108.0 154719.0 234156.0 154719.0 154719.0 154719.0 154719.0 154719.0 154719.0 154719.0 234156.0 234156.0 234156.0 234156.0 234156.0 234156.0 234156.0
6004.0 5370.0 240484.0 248501.0 129756.0 121650.0 294447.0 287195.0 231527.0 237945.0 188132.0 180267.0 179570.0 178479.0 269391.0 274734.0 199066.0 206528.0 250519.0 246869.0 256414.0 249036.0 273941.0 269832.0 290094.0 294062.0 240429.0 243186.0 137386.0 137604.0 296755.0 288989.0 289524.0 285181.0 300987.0 293510.0 221579.0 229580.0 52757.0 44441.0 334467.0 327315.0 292091.0 299039.0 235889.0 228136.0 274087.0 271505.0 333441.0 327663.0 0.0 8065.0 14001.0 16149.0 280860.0 282204.0 313803.0 310306.0 267939.0 273914.0 53969.0 49217.0 286003.0 283353.0 312643.0 304884.0 112405.0 104859.0 169509.0 176671.0 274715.0 266629.0 61891.0 68544.0 197790.0 193191.0 134732.0 136503.0 303774.0 303189.0 269783.0 116178.0 269783.0 269783.0 269783.0 269783.0 269783.0 269783.0 269783.0 116178.0 116178.0 116178.0 116178.0 116178.0 116178.0 116178.0
5370.0 12310.0 233700.0 241711.0 125257.0 117117.0 288547.0 281219.0 224716.0 231223.0 181875.0 174050.0 173368.0 172533.0 261649.0 267044.0 192013.0 199525.0 243967.0 240456.0 249036.0 241693.0 268653.0 264711.0 282270.0 286291.0 232672.0 235502.0 130673.0 130639.0 291591.0 283771.0 282231.0 277807.0 292930.0 285449.0 214730.0 222735.0 54678.0 46250.0 329486.0 322426.0 284762.0 291754.0 229740.0 222033.0 266424.0 263916.0 326701.0 320848.0 8065.0 0.0 16149.0 14001.0 272824.0 274191.0 309216.0 305719.0 259915.0 265874.0 51924.0 46193.0 281416.0 278765.0 307258.0 299545.0 108441.0 101088.0 162421.0 169509.0 267278.0 259196.0 55362.0 61675.0 191029.0 186284.0 129278.0 130851.0 298825.0 298074.0 265195.0 112592.0 265195.0 265195.0 265195.0 265195.0 265195.0 265195.0 265195.0 112592.0 112592.0 112592.0 112592.0 112592.0 112592.0 112592.0
10953.0 10620.0 233306.0 241327.0 118612.0 110587.0 285172.0 278075.0 224445.0 230605.0 179769.0 171840.0 171111.0 169492.0 265845.0 270891.0 192779.0 200063.0 242721.0 238742.0 251158.0 243651.0 263627.0 259265.0 287049.0 290665.0 237032.0 239363.0 130338.0 131280.0 286229.0 278552.0 283889.0 279865.0 300701.0 293381.0 214621.0 222596.0 39024.0 30639.0 323647.0 316370.0 286592.0 293363.0 227193.0 219354.0 270098.0 267145.0 326026.0 320461.0 14001.0 16149.0 0.0 8032.0 280033.0 280979.0 302650.0 299153.0 269657.0 275344.0 40965.0 37198.0 274850.0 272199.0 302448.0 294623.0 100688.0 92968.0 163424.0 170813.0 269666.0 261577.0 55350.0 62761.0 190640.0 186468.0 124996.0 127110.0 292930.0 292584.0 258629.0 104040.0 258629.0 258629.0 258629.0 258629.0 258629.0 258629.0 258629.0 104040.0 104040.0 104040.0 104040.0 104040.0 104040.0 104040.0
10620.0 15330.0 226336.0 234358.0 113692.0 105600.0 279102.0 271925.0 217440.0 223691.0 173238.0 165333.0 164618.0 163244.0 258030.0 263121.0 185517.0 192855.0 235980.0 232131.0 243651.0 236173.0 258150.0 253953.0 279173.0 282833.0 229192.0 231584.0 123272.0 123991.0 280893.0 273157.0 276479.0 272378.0 292669.0 285350.0 207572.0 215558.0 41575.0 33199.0 318518.0 311330.0 279149.0 285965.0 220828.0 213027.0 262351.0 259460.0 319159.0 313518.0 16149.0 14001.0 8032.0 0.0 272006.0 272963.0 297740.0 294243.0 261718.0 267381.0 38242.0 33112.0 269940.0 267289.0 296901.0 289116.0 96261.0 88710.0 156091.0 163424.0 262118.0 254028.0 47970.0 55209.0 183646.0 179333.0 119121.0 121045.0 287816.0 287302.0 253719.0 100037.0 253719.0 253719.0 253719.0 253719.0 253719.0 253719.0 253719.0 100037.0 100037.0 100037.0 100037.0 100037.0 100037.0 100037.0
276089.0 284124.0 129826.0 129249.0 220716.0 221952.0 186264.0 179821.0 129175.0 133245.0 161995.0 165583.0 166293.0 174706.0 55339.0 60908.0 126903.0 126098.0 142228.0 149074.0 90517.0 94179.0 206267.0 211695.0 46193.0 54478.0 63636.0 68712.0 172032.0 166062.0 220705.0 215035.0 100314.0 92551.0 23290.0 19338.0 129045.0 127709.0 290090.0 286789.0 248082.0 247936.0 98046.0 103867.0 160875.0 162727.0 63868.0 71436.0 158004.0 150094.0 280860.0 272824.0 280033.0 272006.0 0.0 8092.0 258814.0 262724.0 51266.0 45137.0 263906.0 258815.0 248289.0 252608.0 218544.0 216822.0 233256.0 237550.0 141519.0 134464.0 85628.0 85576.0 228667.0 220673.0 139959.0 135767.0 200702.0 195910.0 233044.0 225801.0 249526.0 238506.0 249526.0 249526.0 249526.0 249526.0 249526.0 249526.0 249526.0 238506.0 238506.0 238506.0 238506.0 238506.0 238506.0 238506.0
277330.0 285347.0 123742.0 122840.0 218357.0 219877.0 178880.0 172538.0 123490.0 127255.0 157951.0 161847.0 162578.0 170923.0 48218.0 53417.0 123018.0 121774.0 135748.0 142731.0 83892.0 87929.0 199477.0 205043.0 38106.0 46386.0 59170.0 63592.0 170360.0 164641.0 213549.0 207987.0 92482.0 84782.0 27441.0 25463.0 123841.0 122128.0 289963.0 286881.0 240522.0 240481.0 90149.0 95883.0 154924.0 157050.0 56409.0 64101.0 149933.0 142031.0 282204.0 274191.0 280979.0 272963.0 8092.0 0.0 251686.0 255707.0 59230.0 53206.0 263740.0 258854.0 241609.0 246053.0 211082.0 209482.0 231403.0 235922.0 139058.0 131816.0 78165.0 78457.0 228982.0 220989.0 135815.0 131985.0 198402.0 193618.0 225861.0 218566.0 243402.0 236487.0 243402.0 243402.0 243402.0 243402.0 243402.0 243402.0 243402.0 236487.0 236487.0 236487.0 236487.0 236487.0 236487.0 236487.0
307950.0 312722.0 134772.0 132497.0 184055.0 192155.0 74315.0 79578.0 139559.0 132665.0 145953.0 151220.0 151455.0 147529.0 203500.0 198513.0 165227.0 159424.0 119603.0 114531.0 168988.0 166880.0 55603.0 53580.0 218249.0 212133.0 203280.0 195800.0 195101.0 200230.0 38165.0 43996.0 163205.0 169549.0 277174.0 277033.0 145513.0 141968.0 282748.0 285464.0 33853.0 25792.0 166606.0 163979.0 109586.0 112875.0 195485.0 187650.0 130889.0 134411.0 313803.0 309216.0 302650.0 297740.0 258814.0 251686.0 0.0 8285.0 300489.0 297866.0 263314.0 265514.0 28514.0 34156.0 46234.0 44279.0 202620.0 210612.0 182608.0 181330.0 173926.0 173249.0 257380.0 253883.0 154237.0 162285.0 182271.0 182031.0 26044.0 33769.0 65346.0 202490.0 65346.0 65346.0 65346.0 65346.0 65346.0 65346.0 65346.0 202490.0 202490.0 202490.0 202490.0 202490.0 202490.0 202490.0
304453.0 309225.0 137228.0 135404.0 180558.0 188658.0 79676.0 84393.0 141561.0 134916.0 145112.0 150039.0 150229.0 145893.0 207489.0 202724.0 165928.0 160405.0 122397.0 116929.0 172562.0 170119.0 57676.0 54486.0 222831.0 216901.0 206204.0 198835.0 193219.0 198592.0 42937.0 47742.0 168188.0 174322.0 281459.0 281110.0 147042.0 143905.0 279252.0 281967.0 42109.0 34077.0 171670.0 169332.0 110871.0 113615.0 199689.0 191799.0 137877.0 141147.0 310306.0 305719.0 299153.0 294243.0 262724.0 255707.0 8285.0 0.0 303585.0 301157.0 259818.0 262017.0 24303.0 28492.0 53171.0 50408.0 199124.0 207115.0 182146.0 181224.0 178260.0 177255.0 253956.0 250677.0 154521.0 162555.0 179165.0 179130.0 31558.0 39479.0 60282.0 198994.0 60282.0 60282.0 60282.0 60282.0 60282.0 60282.0 60282.0 198994.0 198994.0 198994.0 198994.0 198994.0 198994.0 198994.0
263910.0 271915.0 166895.0 168189.0 232582.0 232018.0 230311.0 223236.0 164017.0 169665.0 186069.0 187688.0 188245.0 196744.0 101025.0 107936.0 151788.0 153488.0 181227.0 187094.0 132057.0 133623.0 246096.0 250555.0 96856.0 105255.0 97463.0 104749.0 181445.0 174232.0 262862.0 256500.0 148385.0 140314.0 51844.0 44542.0 161198.0 162030.0 286327.0 281700.0 293006.0 292056.0 146606.0 153058.0 196260.0 196426.0 110635.0 117320.0 207952.0 199936.0 267939.0 259915.0 269657.0 261718.0 51266.0 59230.0 300489.0 303585.0 0.0 8088.0 260916.0 254638.0 286951.0 290382.0 262893.0 260309.0 241626.0 244402.0 157321.0 151810.0 131737.0 129852.0 223525.0 215766.0 165592.0 159551.0 212817.0 208137.0 275293.0 268468.0 284593.0 247775.0 284593.0 284593.0 284593.0 284593.0 284593.0 284593.0 284593.0 247775.0 247775.0 247775.0 247775.0 247775.0 247775.0 247775.0
269794.0 277816.0 164973.0 165894.0 235216.0 234917.0 227014.0 220086.0 162513.0 167883.0 186590.0 188543.0 189128.0 197650.0 96864.0 103502.0 151970.0 153259.0 178971.0 185061.0 129033.0 131040.0 243824.0 248503.0 91183.0 99530.0 95516.0 102528.0 184239.0 177170.0 260080.0 253872.0 143808.0 135811.0 43951.0 36825.0 160178.0 160614.0 291243.0 286774.0 289548.0 288812.0 141868.0 148110.0 194787.0 195279.0 106284.0 113228.0 202738.0 194767.0 273914.0 265874.0 275344.0 267381.0 45137.0 53206.0 297866.0 301157.0 8088.0 0.0 265685.0 259545.0 284999.0 288626.0 259560.0 257196.0 244800.0 247801.0 159005.0 153213.0 127660.0 126211.0 228476.0 220664.0 165741.0 159971.0 215347.0 210632.0 272504.0 265569.0 283373.0 250835.0 283373.0 283373.0 283373.0 283373.0 283373.0 283373.0 283373.0 250835.0 250835.0 250835.0 250835.0 250835.0 250835.0 250835.0
48826.0 51548.0 201359.0 209312.0 79514.0 71756.0 248452.0 241676.0 192815.0 198310.0 145719.0 137759.0 136968.0 134172.0 242565.0 246774.0 163546.0 170260.0 209276.0 204605.0 223668.0 215930.0 225135.0 220384.0 264841.0 267494.0 214541.0 215709.0 100835.0 103725.0 247351.0 239827.0 255149.0 251937.0 285826.0 279033.0 183404.0 191219.0 26241.0 24631.0 284377.0 277045.0 258155.0 264449.0 191924.0 183964.0 245615.0 241742.0 292927.0 287853.0 53969.0 51924.0 40965.0 38242.0 263906.0 263740.0 263314.0 259818.0 260916.0 265685.0 0.0 8300.0 235515.0 232864.0 264060.0 256144.0 60798.0 52885.0 135374.0 143160.0 242495.0 234486.0 37930.0 45342.0 159302.0 156257.0 88771.0 91644.0 253659.0 253575.0 219294.0 63526.0 219294.0 219294.0 219294.0 219294.0 219294.0 219294.0 219294.0 63526.0 63526.0 63526.0 63526.0 63526.0 63526.0 63526.0
43700.0 47485.0 200089.0 208078.0 81500.0 73522.0 249163.0 242229.0 191421.0 197157.0 145126.0 137158.0 136391.0 134094.0 238916.0 243331.0 161315.0 168223.0 208558.0 204149.0 221059.0 213372.0 226804.0 222305.0 260979.0 263856.0 210660.0 212101.0 98417.0 100726.0 249277.0 241650.0 252939.0 249492.0 280542.0 273650.0 181853.0 189737.0 31698.0 28060.0 286559.0 279244.0 255861.0 262301.0 191921.0 184004.0 242258.0 238608.0 292162.0 286908.0 49217.0 46193.0 37198.0 33112.0 258815.0 258854.0 265514.0 262017.0 254638.0 259545.0 8300.0 0.0 237714.0 235064.0 265679.0 257816.0 63494.0 55805.0 132693.0 140395.0 239828.0 231784.0 31140.0 38881.0 157737.0 154311.0 88986.0 91494.0 255840.0 255592.0 221494.0 67000.0 221494.0 221494.0 221494.0 221494.0 221494.0 221494.0 221494.0 67000.0 67000.0 67000.0 67000.0 67000.0 67000.0 67000.0
280150.0 284922.0 120064.0 119339.0 156255.0 164355.0 72853.0 75370.0 123340.0 117317.0 122268.0 126829.0 126975.0 122296.0 193562.0 189463.0 145088.0 140063.0 106261.0 99940.0 157774.0 154485.0 42429.0 36608.0 210553.0 205243.0 189539.0 182480.0 169382.0 174914.0 38250.0 38749.0 157670.0 163041.0 268011.0 267071.0 127804.0 125520.0 254949.0 257664.0 57298.0 48785.0 161384.0 160085.0 91591.0 93274.0 186435.0 178445.0 136157.0 138081.0 286003.0 281416.0 274850.0 269940.0 248289.0 241609.0 28514.0 24303.0 286951.0 284999.0 235515.0 237714.0 0.0 7995.0 55234.0 49326.0 174821.0 182812.0 159618.0 159142.0 165570.0 163616.0 229658.0 226375.0 133093.0 141067.0 154874.0 154871.0 32612.0 38864.0 36893.0 174691.0 36893.0 36893.0 36893.0 36893.0 36893.0 36893.0 36893.0 174691.0 174691.0 174691.0 174691.0 174691.0 174691.0 174691.0
277499.0 282271.0 123676.0 123413.0 153604.0 161704.0 79801.0 81873.0 126448.0 120751.0 122243.0 126376.0 126467.0 121341.0 198152.0 194280.0 146617.0 141932.0 110390.0 103764.0 162162.0 158571.0 47880.0 41240.0 215632.0 210514.0 193110.0 186197.0 167923.0 173709.0 45942.0 45873.0 163364.0 168516.0 272639.0 271502.0 130367.0 128536.0 252298.0 255013.0 64628.0 56088.0 167127.0 166089.0 94375.0 95418.0 191261.0 183260.0 143559.0 145302.0 283353.0 278765.0 272199.0 267289.0 252608.0 246053.0 34156.0 28492.0 290382.0 288626.0 232864.0 235064.0 7995.0 0.0 63189.0 57165.0 172170.0 180161.0 159784.0 159702.0 170628.0 168379.0 227021.0 223734.0 134255.0 142153.0 152289.0 152402.0 40607.0 46807.0 31861.0 172040.0 31861.0 31861.0 31861.0 31861.0 31861.0 31861.0 31861.0 172040.0 172040.0 172040.0 172040.0 172040.0 172040.0 172040.0
306670.0 312146.0 102756.0 98446.0 184552.0 192329.0 32589.0 40015.0 109526.0 101754.0 130461.0 137310.0 137787.0 136379.0 163380.0 157670.0 140591.0 133602.0 86775.0 84025.0 130932.0 130243.0 38935.0 44455.0 176040.0 169403.0 167280.0 159457.0 183247.0 186847.0 19196.0 24953.0 120200.0 127132.0 235586.0 236108.0 117547.0 112145.0 283683.0 286361.0 30421.0 29401.0 123330.0 119919.0 85338.0 91250.0 154690.0 147132.0 84717.0 88184.0 312643.0 307258.0 302448.0 296901.0 218544.0 211082.0 46234.0 53171.0 262893.0 259560.0 264060.0 265679.0 55234.0 63189.0 0.0 8072.0 203554.0 211547.0 163391.0 160277.0 132926.0 133444.0 252990.0 248251.0 132246.0 139998.0 177981.0 176533.0 23189.0 16390.0 83749.0 203425.0 83749.0 83749.0 83749.0 83749.0 83749.0 83749.0 83749.0 203425.0 203425.0 203425.0 203425.0 203425.0 203425.0 203425.0
298916.0 304349.0 98235.0 94405.0 176631.0 184429.0 30688.0 37114.0 104608.0 96971.0 123475.0 130198.0 130654.0 129023.0 161523.0 156090.0 134846.0 128021.0 82318.0 78990.0 128253.0 127110.0 31015.0 36386.0 175090.0 168702.0 164075.0 156330.0 176086.0 179834.0 11738.0 16888.0 119576.0 126210.0 234412.0 234659.0 112264.0 107200.0 275729.0 278390.0 34958.0 32042.0 122865.0 119937.0 79141.0 84728.0 153084.0 145398.0 88136.0 90968.0 304884.0 299545.0 294623.0 289116.0 216822.0 209482.0 44279.0 50408.0 260309.0 257196.0 256144.0 257816.0 49326.0 57165.0 8072.0 0.0 195601.0 203592.0 156958.0 154075.0 131360.0 131397.0 245380.0 240714.0 126059.0 133890.0 170272.0 168890.0 18996.0 11157.0 76242.0 195471.0 76242.0 76242.0 76242.0 76242.0 76242.0 76242.0 76242.0 195471.0 195471.0 195471.0 195471.0 195471.0 195471.0 195471.0
106678.0 110953.0 148659.0 156320.0 19441.0 13099.0 189216.0 182781.0 140829.0 145173.0 91601.0 83982.0 83126.0 78411.0 201751.0 204549.0 116760.0 122118.0 154267.0 148737.0 177042.0 169203.0 164620.0 159709.0 224945.0 226084.0 176092.0 175363.0 61315.0 67839.0 186669.0 179188.0 205868.0 203898.0 256317.0 250543.0 132373.0 139672.0 80254.0 82861.0 223683.0 216351.0 209248.0 214740.0 134764.0 126769.0 202868.0 197723.0 237358.0 232923.0 112405.0 108441.0 100688.0 96261.0 233256.0 231403.0 202620.0 199124.0 241626.0 244800.0 60798.0 63494.0 174821.0 172170.0 203554.0 195601.0 0.0 7995.0 93134.0 100833.0 195803.0 188134.0 62146.0 62063.0 109139.0 108227.0 35019.0 39419.0 192965.0 192881.0 158600.0 7151.0 158600.0 158600.0 158600.0 158600.0 158600.0 158600.0 158600.0 7151.0 7151.0 7151.0 7151.0 7151.0 7151.0 7151.0
99180.0 103290.0 155784.0 163497.0 27343.0 20470.0 197149.0 190683.0 147839.0 152351.0 98783.0 91078.0 90228.0 85801.0 207356.0 210353.0 122924.0 128512.0 161707.0 156281.0 183389.0 175545.0 172613.0 167701.0 230477.0 231823.0 181291.0 180827.0 65563.0 71586.0 194661.0 187173.0 212626.0 210488.0 260513.0 254588.0 139227.0 146618.0 72322.0 74868.0 231675.0 224342.0 215961.0 221565.0 142455.0 134458.0 208741.0 203758.0 244926.0 240415.0 104859.0 101088.0 92968.0 88710.0 237550.0 235922.0 210612.0 207115.0 244402.0 247801.0 52885.0 55805.0 182812.0 180161.0 211547.0 203592.0 7995.0 0.0 98401.0 106188.0 202198.0 194468.0 56622.0 57363.0 115783.0 114538.0 41585.0 45732.0 200956.0 200872.0 166591.0 11757.0 166591.0 166591.0 166591.0 166591.0 166591.0 166591.0 166591.0 11757.0 11757.0 11757.0 11757.0 11757.0 11757.0 11757.0
163687.0 170879.0 72630.0 80486.0 79302.0 81119.0 137235.0 129077.0 63531.0 70779.0 37608.0 34895.0 35101.0 42654.0 109108.0 112479.0 29618.0 37272.0 85132.0 83632.0 88367.0 80683.0 129659.0 129496.0 132136.0 133756.0 82959.0 82463.0 34643.0 32180.0 152789.0 144641.0 120539.0 116836.0 164775.0 159545.0 53379.0 61296.0 160954.0 159937.0 191281.0 186315.0 123338.0 129984.0 78139.0 72234.0 111055.0 106677.0 165288.0 159051.0 169509.0 162421.0 163424.0 156091.0 141519.0 139058.0 182608.0 182146.0 157321.0 159005.0 135374.0 132693.0 159618.0 159784.0 163391.0 156958.0 93134.0 98401.0 0.0 7886.0 107154.0 99127.0 108123.0 101031.0 31813.0 25090.0 59382.0 54612.0 163427.0 159658.0 147836.0 97785.0 147836.0 147836.0 147836.0 147836.0 147836.0 147836.0 147836.0 97785.0 97785.0 97785.0 97785.0 97785.0 97785.0 97785.0
170879.0 178137.0 66773.0 74495.0 86657.0 88709.0 133227.0 124998.0 57709.0 65220.0 38559.0 37448.0 37822.0 45967.0 101255.0 104595.0 23061.0 30926.0 79981.0 79077.0 80683.0 73038.0 127594.0 127929.0 124309.0 125882.0 75283.0 74644.0 42499.0 39737.0 150443.0 142350.0 113078.0 109229.0 157743.0 152660.0 47594.0 55357.0 168782.0 167706.0 188652.0 183967.0 115817.0 122551.0 74956.0 69617.0 103169.0 98807.0 158942.0 152558.0 176671.0 169509.0 170813.0 163424.0 134464.0 131816.0 181330.0 181224.0 151810.0 153213.0 143160.0 140395.0 159142.0 159702.0 160277.0 154075.0 100833.0 106188.0 7886.0 0.0 99433.0 91391.0 115476.0 108285.0 28032.0 20407.0 66838.0 62091.0 161379.0 157285.0 148365.0 105378.0 148365.0 148365.0 148365.0 148365.0 148365.0 148365.0 148365.0 105378.0 105378.0 105378.0 105378.0 105378.0 105378.0 105378.0
269056.0 276537.0 55594.0 51415.0 178737.0 182868.0 100730.0 94518.0 59738.0 59701.0 107008.0 113580.0 114442.0 121241.0 30798.0 24747.0 79498.0 73695.0 62792.0 70593.0 18881.0 26706.0 123150.0 129388.0 45004.0 40314.0 45986.0 38931.0 141667.0 139138.0 135761.0 130534.0 19246.0 11796.0 103247.0 103299.0 65429.0 59751.0 267938.0 267077.0 162478.0 162323.0 19735.0 27671.0 85590.0 90087.0 21764.0 14433.0 80701.0 72622.0 274715.0 267278.0 269666.0 262118.0 85628.0 78165.0 173926.0 178260.0 131737.0 127660.0 242495.0 239828.0 165570.0 170628.0 132926.0 131360.0 195803.0 202198.0 107154.0 99433.0 0.0 8090.0 214353.0 206919.0 86923.0 87668.0 160789.0 156488.0 147992.0 140595.0 170653.0 199028.0 170653.0 170653.0 170653.0 170653.0 170653.0 170653.0 170653.0 199028.0 199028.0 199028.0 199028.0 199028.0 199028.0 199028.0
260968.0 268448.0 50264.0 46983.0 171211.0 175230.0 100974.0 94326.0 53548.0 54305.0 99874.0 106287.0 107146.0 114106.0 30251.0 25923.0 71655.0 66023.0 59092.0 66675.0 11099.0 18932.0 121307.0 127187.0 48038.0 44545.0 40146.0 32651.0 133666.0 131084.0 135131.0 129530.0 25785.0 19244.0 104433.0 103856.0 58548.0 53324.0 259959.0 259060.0 163346.0 162768.0 26995.0 34826.0 80985.0 84969.0 22922.0 14923.0 86073.0 78084.0 266629.0 259196.0 261577.0 254028.0 85576.0 78457.0 173249.0 177255.0 129852.0 126211.0 234486.0 231784.0 163616.0 168379.0 133444.0 131397.0 188134.0 194468.0 99127.0 91391.0 8090.0 0.0 206266.0 198830.0 79451.0 79933.0 153116.0 148781.0 147468.0 140243.0 167380.0 191448.0 167380.0 167380.0 167380.0 167380.0 167380.0 167380.0 167380.0 191448.0 191448.0 191448.0 191448.0 191448.0 191448.0 191448.0
55953.0 62869.0 178620.0 186639.0 75254.0 67280.0 233467.0 226062.0 169681.0 176060.0 126544.0 118742.0 118069.0 117489.0 211245.0 216074.0 137553.0 144911.0 188654.0 185096.0 195820.0 188305.0 214651.0 211116.0 232827.0 236138.0 182610.0 184607.0 75511.0 76024.0 237834.0 229901.0 228547.0 224520.0 250144.0 243148.0 159761.0 167757.0 62806.0 58446.0 276117.0 269310.0 231242.0 238025.0 174455.0 166785.0 215193.0 212049.0 271556.0 265807.0 61891.0 55362.0 55350.0 47970.0 228667.0 228982.0 257380.0 253956.0 223525.0 228476.0 37930.0 31140.0 229658.0 227021.0 252990.0 245380.0 62146.0 56622.0 108123.0 115476.0 214353.0 206266.0 0.0 7996.0 135921.0 131443.0 75497.0 76519.0 245596.0 244425.0 213451.0 68145.0 213451.0 213451.0 213451.0 213451.0 213451.0 213451.0 213451.0 68145.0 68145.0 68145.0 68145.0 68145.0 68145.0 68145.0
62682.0 69855.0 172026.0 180037.0 73407.0 65669.0 228064.0 220564.0 163045.0 169552.0 120781.0 113063.0 112418.0 112272.0 203461.0 208348.0 130552.0 137990.0 182384.0 179024.0 188442.0 180966.0 210118.0 206825.0 224975.0 228340.0 174784.0 176859.0 69021.0 69063.0 233417.0 225430.0 221301.0 217170.0 242160.0 235171.0 153070.0 161074.0 70579.0 66381.0 271869.0 265194.0 223953.0 230795.0 168775.0 161186.0 207496.0 204433.0 265027.0 259180.0 68544.0 61675.0 62761.0 55209.0 220673.0 220989.0 253883.0 250677.0 215766.0 220664.0 45342.0 38881.0 226375.0 223734.0 248251.0 240714.0 62063.0 57363.0 101031.0 108285.0 206919.0 198830.0 7996.0 0.0 129355.0 124654.0 71629.0 72212.0 241451.0 240062.0 210164.0 68493.0 210164.0 210164.0 210164.0 210164.0 210164.0 210164.0 210164.0 68493.0 68493.0 68493.0 68493.0 68493.0 68493.0 68493.0
191867.0 198732.0 42700.0 50720.0 91819.0 96126.0 105483.0 97303.0 33806.0 40218.0 22194.0 27253.0 28084.0 35819.0 97150.0 98413.0 13809.0 14367.0 53778.0 51865.0 68368.0 60594.0 99938.0 100684.0 120352.0 120035.0 76659.0 73144.0 60410.0 60795.0 122594.0 114537.0 96878.0 94760.0 162970.0 159057.0 24118.0 32016.0 183856.0 183892.0 160679.0 156095.0 100183.0 105907.0 46928.0 41797.0 96319.0 90279.0 135672.0 129889.0 197790.0 191029.0 190640.0 183646.0 139959.0 135815.0 154237.0 154521.0 165592.0 165741.0 159302.0 157737.0 133093.0 134255.0 132246.0 126059.0 109139.0 115783.0 31813.0 28032.0 86923.0 79451.0 135921.0 129355.0 0.0 8048.0 74212.0 70097.0 133683.0 129418.0 124185.0 112154.0 124185.0 124185.0 124185.0 124185.0 124185.0 124185.0 124185.0 112154.0 112154.0 112154.0 112154.0 112154.0 112154.0 112154.0
187306.0 194313.0 47750.0 55684.0 91673.0 95371.0 112825.0 104601.0 38665.0 45745.0 26663.0 29863.0 30600.0 38949.0 95314.0 97208.0 9113.0 14083.0 60050.0 58776.0 68851.0 61008.0 107955.0 108732.0 118625.0 118867.0 73072.0 70294.0 56169.0 55667.0 130557.0 122514.0 98996.0 96244.0 158920.0 154704.0 28553.0 36545.0 181197.0 180886.0 168565.0 164045.0 102114.0 108232.0 54752.0 49798.0 95302.0 89738.0 140676.0 134629.0 193191.0 186284.0 186468.0 179333.0 135767.0 131985.0 162285.0 162555.0 159551.0 159971.0 156257.0 154311.0 141067.0 142153.0 139998.0 133890.0 108227.0 114538.0 25090.0 20407.0 87668.0 79933.0 131443.0 124654.0 8048.0 0.0 73214.0 68851.0 141689.0 137374.0 131866.0 111706.0 131866.0 131866.0 131866.0 131866.0 131866.0 131866.0 131866.0 111706.0 111706.0 111706.0 111706.0 111706.0 111706.0 111706.0
128746.0 134424.0 114433.0 122217.0 20052.0 22208.0 160239.0 153252.0 106364.0 111085.0 57655.0 49813.0 48980.0 45452.0 167138.0 169750.0 81787.0 87100.0 121068.0 116066.0 142023.0 134184.0 139408.0 135674.0 190391.0 191329.0 142036.0 140941.0 31987.0 39768.0 162460.0 154581.0 171041.0 168947.0 223912.0 218478.0 97659.0 105094.0 111617.0 112771.0 200641.0 193812.0 174381.0 179984.0 103153.0 95194.0 168020.0 162779.0 204623.0 199822.0 134732.0 129278.0 124996.0 119121.0 200702.0 198402.0 182271.0 179165.0 212817.0 215347.0 88771.0 88986.0 154874.0 152289.0 177981.0 170272.0 35019.0 41585.0 59382.0 66838.0 160789.0 153116.0 75497.0 71629.0 74212.0 73214.0 0.0 4794.0 170102.0 169011.0 138719.0 38758.0 138719.0 138719.0 138719.0 138719.0 138719.0 138719.0 138719.0 38758.0 38758.0 38758.0 38758.0 38758.0 38758.0 38758.0
130505.0 136370.0 110739.0 118572.0 24843.0 26780.0 158075.0 150968.0 102557.0 107460.0 54240.0 46323.0 45509.0 42604.0 162519.0 165193.0 77343.0 82794.0 117783.0 112972.0 137695.0 129853.0 138133.0 134655.0 185759.0 186756.0 137316.0 136275.0 27628.0 35482.0 161326.0 153384.0 166971.0 164762.0 219119.0 213684.0 93709.0 101223.0 114942.0 115834.0 199687.0 192983.0 170278.0 175962.0 100430.0 92510.0 163486.0 158306.0 201407.0 196492.0 136503.0 130851.0 127110.0 121045.0 195910.0 193618.0 182031.0 179130.0 208137.0 210632.0 91644.0 91494.0 154871.0 152402.0 176533.0 168890.0 39419.0 45732.0 54612.0 62091.0 156488.0 148781.0 76519.0 72212.0 70097.0 68851.0 4794.0 0.0 169242.0 167935.0 138832.0 43398.0 138832.0 138832.0 138832.0 138832.0 138832.0 138832.0 138832.0 43398.0 43398.0 43398.0 43398.0 43398.0 43398.0 43398.0
297859.0 302907.0 110594.0 107758.0 174340.0 182344.0 48315.0 53560.0 116010.0 108788.0 128029.0 134069.0 134417.0 131612.0 177709.0 172619.0 143751.0 137465.0 95068.0 90574.0 143503.0 141689.0 33789.0 34896.0 192234.0 186094.0 178340.0 170758.0 179301.0 183752.0 12431.0 19535.0 137163.0 143512.0 251231.0 251173.0 122685.0 118506.0 273093.0 275808.0 30719.0 23756.0 140571.0 138008.0 87568.0 91891.0 169593.0 161787.0 107044.0 109961.0 303774.0 298825.0 292930.0 287816.0 233044.0 225861.0 26044.0 31558.0 275293.0 272504.0 253659.0 255840.0 32612.0 40607.0 23189.0 18996.0 192965.0 200956.0 163427.0 161379.0 147992.0 147468.0 245596.0 241451.0 133683.0 141689.0 170102.0 169242.0 0.0 7927.0 64505.0 192835.0 64505.0 64505.0 64505.0 64505.0 64505.0 64505.0 64505.0 192835.0 192835.0 192835.0 192835.0 192835.0 192835.0 192835.0
297249.0 302461.0 104554.0 101373.0 174146.0 182074.0 40552.0 46082.0 110317.0 102933.0 124940.0 131265.0 131657.0 129316.0 170462.0 165263.0 139022.0 132525.0 88856.0 84746.0 136537.0 134941.0 30415.0 33364.0 184699.0 178486.0 171725.0 164083.0 176840.0 181015.0 6880.0 15070.0 129490.0 135919.0 243803.0 243840.0 117358.0 112852.0 273009.0 275725.0 32058.0 26682.0 132867.0 130212.0 82855.0 87668.0 162243.0 154470.0 99290.0 102108.0 303189.0 298074.0 292584.0 287302.0 225801.0 218566.0 33769.0 39479.0 268468.0 265569.0 253575.0 255592.0 38864.0 46807.0 16390.0 11157.0 192881.0 200872.0 159658.0 157285.0 140595.0 140243.0 244425.0 240062.0 129418.0 137374.0 169011.0 167935.0 7927.0 0.0 68264.0 192751.0 68264.0 68264.0 68264.0 68264.0 68264.0 68264.0 68264.0 192751.0 192751.0 192751.0 192751.0 192751.0 192751.0 192751.0
263929.0 268701.0 119700.0 120848.0 140034.0 148135.0 89809.0 88942.0 120994.0 116316.0 110237.0 113779.0 113808.0 108260.0 196277.0 193212.0 137159.0 133236.0 108311.0 100915.0 159981.0 155476.0 53939.0 45598.0 215326.0 210954.0 188170.0 181724.0 154464.0 160365.0 64593.0 60608.0 165956.0 170149.0 270462.0 268692.0 123436.0 122800.0 238728.0 241444.0 92852.0 84514.0 169876.0 169977.0 88814.0 88170.0 190251.0 182282.0 154576.0 154719.0 269783.0 265195.0 258629.0 253719.0 249526.0 243402.0 65346.0 60282.0 284593.0 283373.0 219294.0 221494.0 36893.0 31861.0 83749.0 76242.0 158600.0 166591.0 147836.0 148365.0 170653.0 167380.0 213451.0 210164.0 124185.0 131866.0 138719.0 138832.0 64505.0 68264.0 0.0 158470.0 0.0 0.0 0.0 0.0 0.0 0.0 0.0 158470.0 158470.0 158470.0 158470.0 158470.0 158470.0 158470.0
110557.0 114448.0 150783.0 158330.0 20556.0 16669.0 189257.0 182886.0 143177.0 147199.0 93760.0 86341.0 85477.0 80183.0 205896.0 208479.0 120399.0 125451.0 155705.0 149917.0 180349.0 172526.0 164492.0 159580.0 229147.0 230070.0 180652.0 179673.0 66901.0 73696.0 186539.0 179059.0 208560.0 206844.0 261626.0 255959.0 135005.0 142135.0 81174.0 84457.0 223554.0 216221.0 212006.0 217317.0 135524.0 127556.0 206726.0 201399.0 238386.0 234156.0 116178.0 112592.0 104040.0 100037.0 238506.0 236487.0 202490.0 198994.0 247775.0 250835.0 63526.0 67000.0 174691.0 172040.0 203425.0 195471.0 7151.0 11757.0 97785.0 105378.0 199028.0 191448.0 68145.0 68493.0 112154.0 111706.0 38758.0 43398.0 192835.0 192751.0 158470.0 0.0 158470.0 158470.0 158470.0 158470.0 158470.0 158470.0 158470.0 0.0 0.0 0.0 0.0 0.0 0.0 0.0
263929.0 268701.0 119700.0 120848.0 140034.0 148135.0 89809.0 88942.0 120994.0 116316.0 110237.0 113779.0 113808.0 108260.0 196277.0 193212.0 137159.0 133236.0 108311.0 100915.0 159981.0 155476.0 53939.0 45598.0 215326.0 210954.0 188170.0 181724.0 154464.0 160365.0 64593.0 60608.0 165956.0 170149.0 270462.0 268692.0 123436.0 122800.0 238728.0 241444.0 92852.0 84514.0 169876.0 169977.0 88814.0 88170.0 190251.0 182282.0 154576.0 154719.0 269783.0 265195.0 258629.0 253719.0 249526.0 243402.0 65346.0 60282.0 284593.0 283373.0 219294.0 221494.0 36893.0 31861.0 83749.0 76242.0 158600.0 166591.0 147836.0 148365.0 170653.0 167380.0 213451.0 210164.0 124185.0 131866.0 138719.0 138832.0 64505.0 68264.0 0.0 158470.0 0.0 0.0 0.0 0.0 0.0 0.0 0.0 158470.0 158470.0 158470.0 158470.0 158470.0 158470.0 158470.0
263929.0 268701.0 119700.0 120848.0 140034.0 148135.0 89809.0 88942.0 120994.0 116316.0 110237.0 113779.0 113808.0 108260.0 196277.0 193212.0 137159.0 133236.0 108311.0 100915.0 159981.0 155476.0 53939.0 45598.0 215326.0 210954.0 188170.0 181724.0 154464.0 160365.0 64593.0 60608.0 165956.0 170149.0 270462.0 268692.0 123436.0 122800.0 238728.0 241444.0 92852.0 84514.0 169876.0 169977.0 88814.0 88170.0 190251.0 182282.0 154576.0 154719.0 269783.0 265195.0 258629.0 253719.0 249526.0 243402.0 65346.0 60282.0 284593.0 283373.0 219294.0 221494.0 36893.0 31861.0 83749.0 76242.0 158600.0 166591.0 147836.0 148365.0 170653.0 167380.0 213451.0 210164.0 124185.0 131866.0 138719.0 138832.0 64505.0 68264.0 0.0 158470.0 0.0 0.0 0.0 0.0 0.0 0.0 0.0 158470.0 158470.0 158470.0 158470.0 158470.0 158470.0 158470.0
263929.0 268701.0 119700.0 120848.0 140034.0 148135.0 89809.0 88942.0 120994.0 116316.0 110237.0 113779.0 113808.0 108260.0 196277.0 193212.0 137159.0 133236.0 108311.0 100915.0 159981.0 155476.0 53939.0 45598.0 215326.0 210954.0 188170.0 181724.0 154464.0 160365.0 64593.0 60608.0 165956.0 170149.0 270462.0 268692.0 123436.0 122800.0 238728.0 241444.0 92852.0 84514.0 169876.0 169977.0 88814.0 88170.0 190251.0 182282.0 154576.0 154719.0 269783.0 265195.0 258629.0 253719.0 249526.0 243402.0 65346.0 60282.0 284593.0 283373.0 219294.0 221494.0 36893.0 31861.0 83749.0 76242.0 158600.0 166591.0 147836.0 148365.0 170653.0 167380.0 213451.0 210164.0 124185.0 131866.0 138719.0 138832.0 64505.0 68264.0 0.0 158470.0 0.0 0.0 0.0 0.0 0.0 0.0 0.0 158470.0 158470.0 158470.0 158470.0 158470.0 158470.0 158470.0
263929.0 268701.0 119700.0 120848.0 140034.0 148135.0 89809.0 88942.0 120994.0 116316.0 110237.0 113779.0 113808.0 108260.0 196277.0 193212.0 137159.0 133236.0 108311.0 100915.0 159981.0 155476.0 53939.0 45598.0 215326.0 210954.0 188170.0 181724.0 154464.0 160365.0 64593.0 60608.0 165956.0 170149.0 270462.0 268692.0 123436.0 122800.0 238728.0 241444.0 92852.0 84514.0 169876.0 169977.0 88814.0 88170.0 190251.0 182282.0 154576.0 154719.0 269783.0 265195.0 258629.0 253719.0 249526.0 243402.0 65346.0 60282.0 284593.0 283373.0 219294.0 221494.0 36893.0 31861.0 83749.0 76242.0 158600.0 166591.0 147836.0 148365.0 170653.0 167380.0 213451.0 210164.0 124185.0 131866.0 138719.0 138832.0 64505.0 68264.0 0.0 158470.0 0.0 0.0 0.0 0.0 0.0 0.0 0.0 158470.0 158470.0 158470.0 158470.0 158470.0 158470.0 158470.0
263929.0 268701.0 119700.0 120848.0 140034.0 148135.0 89809.0 88942.0 120994.0 116316.0 110237.0 113779.0 113808.0 108260.0 196277.0 193212.0 137159.0 133236.0 108311.0 100915.0 159981.0 155476.0 53939.0 45598.0 215326.0 210954.0 188170.0 181724.0 154464.0 160365.0 64593.0 60608.0 165956.0 170149.0 270462.0 268692.0 123436.0 122800.0 238728.0 241444.0 92852.0 84514.0 169876.0 169977.0 88814.0 88170.0 190251.0 182282.0 154576.0 154719.0 269783.0 265195.0 258629.0 253719.0 249526.0 243402.0 65346.0 60282.0 284593.0 283373.0 219294.0 221494.0 36893.0 31861.0 83749.0 76242.0 158600.0 166591.0 147836.0 148365.0 170653.0 167380.0 213451.0 210164.0 124185.0 131866.0 138719.0 138832.0 64505.0 68264.0 0.0 158470.0 0.0 0.0 0.0 0.0 0.0 0.0 0.0 158470.0 158470.0 158470.0 158470.0 158470.0 158470.0 158470.0
263929.0 268701.0 119700.0 120848.0 140034.0 148135.0 89809.0 88942.0 120994.0 116316.0 110237.0 113779.0 113808.0 108260.0 196277.0 193212.0 137159.0 133236.0 108311.0 100915.0 159981.0 155476.0 53939.0 45598.0 215326.0 210954.0 188170.0 181724.0 154464.0 160365.0 64593.0 60608.0 165956.0 170149.0 270462.0 268692.0 123436.0 122800.0 238728.0 241444.0 92852.0 84514.0 169876.0 169977.0 88814.0 88170.0 190251.0 182282.0 154576.0 154719.0 269783.0 265195.0 258629.0 253719.0 249526.0 243402.0 65346.0 60282.0 284593.0 283373.0 219294.0 221494.0 36893.0 31861.0 83749.0 76242.0 158600.0 166591.0 147836.0 148365.0 170653.0 167380.0 213451.0 210164.0 124185.0 131866.0 138719.0 138832.0 64505.0 68264.0 0.0 158470.0 0.0 0.0 0.0 0.0 0.0 0.0 0.0 158470.0 158470.0 158470.0 158470.0 158470.0 158470.0 158470.0
263929.0 268701.0 119700.0 120848.0 140034.0 148135.0 89809.0 88942.0 120994.0 116316.0 110237.0 113779.0 113808.0 108260.0 196277.0 193212.0 137159.0 133236.0 108311.0 100915.0 159981.0 155476.0 53939.0 45598.0 215326.0 210954.0 188170.0 181724.0 154464.0 160365.0 64593.0 60608.0 165956.0 170149.0 270462.0 268692.0 123436.0 122800.0 238728.0 241444.0 92852.0 84514.0 169876.0 169977.0 88814.0 88170.0 190251.0 182282.0 154576.0 154719.0 269783.0 265195.0 258629.0 253719.0 249526.0 243402.0 65346.0 60282.0 284593.0 283373.0 219294.0 221494.0 36893.0 31861.0 83749.0 76242.0 158600.0 166591.0 147836.0 148365.0 170653.0 167380.0 213451.0 210164.0 124185.0 131866.0 138719.0 138832.0 64505.0 68264.0 0.0 158470.0 0.0 0.0 0.0 0.0 0.0 0.0 0.0 158470.0 158470.0 158470.0 158470.0 158470.0 158470.0 158470.0
110557.0 114448.0 150783.0 158330.0 20556.0 16669.0 189257.0 182886.0 143177.0 147199.0 93760.0 86341.0 85477.0 80183.0 205896.0 208479.0 120399.0 125451.0 155705.0 149917.0 180349.0 172526.0 164492.0 159580.0 229147.0 230070.0 180652.0 179673.0 66901.0 73696.0 186539.0 179059.0 208560.0 206844.0 261626.0 255959.0 135005.0 142135.0 81174.0 84457.0 223554.0 216221.0 212006.0 217317.0 135524.0 127556.0 206726.0 201399.0 238386.0 234156.0 116178.0 112592.0 104040.0 100037.0 238506.0 236487.0 202490.0 198994.0 247775.0 250835.0 63526.0 67000.0 174691.0 172040.0 203425.0 195471.0 7151.0 11757.0 97785.0 105378.0 199028.0 191448.0 68145.0 68493.0 112154.0 111706.0 38758.0 43398.0 192835.0 192751.0 158470.0 0.0 158470.0 158470.0 158470.0 158470.0 158470.0 158470.0 158470.0 0.0 0.0 0.0 0.0 0.0 0.0 0.0
110557.0 114448.0 150783.0 158330.0 20556.0 16669.0 189257.0 182886.0 143177.0 147199.0 93760.0 86341.0 85477.0 80183.0 205896.0 208479.0 120399.0 125451.0 155705.0 149917.0 180349.0 172526.0 164492.0 159580.0 229147.0 230070.0 180652.0 179673.0 66901.0 73696.0 186539.0 179059.0 208560.0 206844.0 261626.0 255959.0 135005.0 142135.0 81174.0 84457.0 223554.0 216221.0 212006.0 217317.0 135524.0 127556.0 206726.0 201399.0 238386.0 234156.0 116178.0 112592.0 104040.0 100037.0 238506.0 236487.0 202490.0 198994.0 247775.0 250835.0 63526.0 67000.0 174691.0 172040.0 203425.0 195471.0 7151.0 11757.0 97785.0 105378.0 199028.0 191448.0 68145.0 68493.0 112154.0 111706.0 38758.0 43398.0 192835.0 192751.0 158470.0 0.0 158470.0 158470.0 158470.0 158470.0 158470.0 158470.0 158470.0 0.0 0.0 0.0 0.0 0.0 0.0 0.0
110557.0 114448.0 150783.0 158330.0 20556.0 16669.0 189257.0 182886.0 143177.0 147199.0 93760.0 86341.0 85477.0 80183.0 205896.0 208479.0 120399.0 125451.0 155705.0 149917.0 180349.0 172526.0 164492.0 159580.0 229147.0 230070.0 180652.0 179673.0 66901.0 73696.0 186539.0 179059.0 208560.0 206844.0 261626.0 255959.0 135005.0 142135.0 81174.0 84457.0 223554.0 216221.0 212006.0 217317.0 135524.0 127556.0 206726.0 201399.0 238386.0 234156.0 116178.0 112592.0 104040.0 100037.0 238506.0 236487.0 202490.0 198994.0 247775.0 250835.0 63526.0 67000.0 174691.0 172040.0 203425.0 195471.0 7151.0 11757.0 97785.0 105378.0 199028.0 191448.0 68145.0 68493.0 112154.0 111706.0 38758.0 43398.0 192835.0 192751.0 158470.0 0.0 158470.0 158470.0 158470.0 158470.0 158470.0 158470.0 158470.0 0.0 0.0 0.0 0.0 0.0 0.0 0.0
110557.0 114448.0 150783.0 158330.0 20556.0 16669.0 189257.0 182886.0 143177.0 147199.0 93760.0 86341.0 85477.0 80183.0 205896.0 208479.0 120399.0 125451.0 155705.0 149917.0 180349.0 172526.0 164492.0 159580.0 229147.0 230070.0 180652.0 179673.0 66901.0 73696.0 186539.0 179059.0 208560.0 206844.0 261626.0 255959.0 135005.0 142135.0 81174.0 84457.0 223554.0 216221.0 212006.0 217317.0 135524.0 127556.0 206726.0 201399.0 238386.0 234156.0 116178.0 112592.0 104040.0 100037.0 238506.0 236487.0 202490.0 198994.0 247775.0 250835.0 63526.0 67000.0 174691.0 172040.0 203425.0 195471.0 7151.0 11757.0 97785.0 105378.0 199028.0 191448.0 68145.0 68493.0 112154.0 111706.0 38758.0 43398.0 192835.0 192751.0 158470.0 0.0 158470.0 158470.0 158470.0 158470.0 158470.0 158470.0 158470.0 0.0 0.0 0.0 0.0 0.0 0.0 0.0
110557.0 114448.0 150783.0 158330.0 20556.0 16669.0 189257.0 182886.0 143177.0 147199.0 93760.0 86341.0 85477.0 80183.0 205896.0 208479.0 120399.0 125451.0 155705.0 149917.0 180349.0 172526.0 164492.0 159580.0 229147.0 230070.0 180652.0 179673.0 66901.0 73696.0 186539.0 179059.0 208560.0 206844.0 261626.0 255959.0 135005.0 142135.0 81174.0 84457.0 223554.0 216221.0 212006.0 217317.0 135524.0 127556.0 206726.0 201399.0 238386.0 234156.0 116178.0 112592.0 104040.0 100037.0 238506.0 236487.0 202490.0 198994.0 247775.0 250835.0 63526.0 67000.0 174691.0 172040.0 203425.0 195471.0 7151.0 11757.0 97785.0 105378.0 199028.0 191448.0 68145.0 68493.0 112154.0 111706.0 38758.0 43398.0 192835.0 192751.0 158470.0 0.0 158470.0 158470.0 158470.0 158470.0 158470.0 158470.0 158470.0 0.0 0.0 0.0 0.0 0.0 0.0 0.0
110557.0 114448.0 150783.0 158330.0 20556.0 16669.0 189257.0 182886.0 143177.0 147199.0 93760.0 86341.0 85477.0 80183.0 205896.0 208479.0 120399.0 125451.0 155705.0 149917.0 180349.0 172526.0 164492.0 159580.0 229147.0 230070.0 180652.0 179673.0 66901.0 73696.0 186539.0 179059.0 208560.0 206844.0 261626.0 255959.0 135005.0 142135.0 81174.0 84457.0 223554.0 216221.0 212006.0 217317.0 135524.0 127556.0 206726.0 201399.0 238386.0 234156.0 116178.0 112592.0 104040.0 100037.0 238506.0 236487.0 202490.0 198994.0 247775.0 250835.0 63526.0 67000.0 174691.0 172040.0 203425.0 195471.0 7151.0 11757.0 97785.0 105378.0 199028.0 191448.0 68145.0 68493.0 112154.0 111706.0 38758.0 43398.0 192835.0 192751.0 158470.0 0.0 158470.0 158470.0 158470.0 158470.0 158470.0 158470.0 158470.0 0.0 0.0 0.0 0.0 0.0 0.0 0.0
110557.0 114448.0 150783.0 158330.0 20556.0 16669.0 189257.0 182886.0 143177.0 147199.0 93760.0 86341.0 85477.0 80183.0 205896.0 208479.0 120399.0 125451.0 155705.0 149917.0 180349.0 172526.0 164492.0 159580.0 229147.0 230070.0 180652.0 179673.0 66901.0 73696.0 186539.0 179059.0 208560.0 206844.0 261626.0 255959.0 135005.0 142135.0 81174.0 84457.0 223554.0 216221.0 212006.0 217317.0 135524.0 127556.0 206726.0 201399.0 238386.0 234156.0 116178.0 112592.0 104040.0 100037.0 238506.0 236487.0 202490.0 198994.0 247775.0 250835.0 63526.0 67000.0 174691.0 172040.0 203425.0 195471.0 7151.0 11757.0 97785.0 105378.0 199028.0 191448.0 68145.0 68493.0 112154.0 111706.0 38758.0 43398.0 192835.0 192751.0 158470.0 0.0 158470.0 158470.0 158470.0 158470.0 158470.0 158470.0 158470.0 0.0 0.0 0.0 0.0 0.0 0.0 0.0
FIXED_EDGES_SECTION
1 2
3 4
5 6
7 8
9 10
11 12
13 14
15 16
17 18
19 20
21 22
23 24
25 26
27 28
29 30
31 32
33 34
35 36
37 38
39 40
41 42
43 44
45 46
47 48
49 50
51 52
53 54
55 56
57 58
59 60
61 62
63 64
65 66
67 68
69 70
71 72
73 74
75 76
77 78
79 80
-1 
DEMAND_SECTION
1 350
2 350
3 96
4 96
5 235
6 235
7 57
8 57
9 541
10 541
11 80
12 80
13 358
14 358
15 72
16 72
17 90
18 90
19 341
20 341
21 82
22 82
23 100
24 100
25 76
26 76
27 180
28 180
29 342
30 342
31 396
32 396
33 211
34 211
35 542
36 542
37 256
38 256
39 534
40 534
41 251
42 251
43 224
44 224
45 277
46 277
47 186
48 186
49 497
50 497
51 268
52 268
53 341
54 341
55 380
56 380
57 369
58 369
59 120
60 120
61 563
62 563
63 97
64 97
65 379
66 379
67 37
68 37
69 291
70 291
71 479
72 479
73 319
74 319
75 380
76 380
77 399
78 399
79 247
80 247
81 0
82 0
83 0
84 0
85 0
86 0
87 0
88 0
89 0
90 0
91 0
92 0
93 0
94 0
95 0
96 0
DEPOT_SECTION
81 
-1 
CAPACITIES_SECTION
2500 
2750 
3000 
3250 
-1 
EOF