NAME: GFS_20_1
TYPE: GFSP
DIMENSION: 96
VEHICLES: 4
CAPACITY: 2500.0
TRIP_DIST_LIMIT: 750000.0
TOTAL_DIST_LIMIT: 1050000.0
EDGE_WEIGHT_TYPE: EXPLICIT
EDGE_WEIGHT_FORMAT: FULL_MATRIX
EDGE_WEIGHT_SECTION
0.0 8022.0 370649.0 377022.0 194528.0 197574.0 179525.0 182930.0 323680.0 323415.0 246459.0 254328.0 308141.0 309475.0 156887.0 159764.0 322179.0 319528.0 304759.0 310307.0 126844.0 134839.0 307308.0 299241.0 324880.0 320022.0 384108.0 379346.0 324789.0 330990.0 53086.0 52321.0 240689.0 247639.0 239746.0 236842.0 371042.0 363709.0 333345.0 325521.0 339782.0 347949.0 83884.0 91195.0 317315.0 309548.0 288817.0 280886.0 333512.0 341446.0 350913.0 342959.0 256973.0 263481.0 331298.0 335948.0 127821.0 135771.0 286037.0 288341.0 319479.0 326073.0 28460.0 32603.0 351507.0 357631.0 317703.0 311321.0 229133.0 236944.0 350298.0 346449.0 180856.0 188892.0 366147.0 368311.0 86327.0 78936.0 259615.0 267503.0 305958.0 149265.0 305958.0 305958.0 305958.0 305958.0 305958.0 305958.0 305958.0 149265.0 149265.0 149265.0 149265.0 149265.0 149265.0 149265.0
8022.0 0.0 375496.0 381954.0 201076.0 203947.0 186377.0 189783.0 329932.0 329538.0 253312.0 261181.0 314161.0 315627.0 162699.0 165308.0 329032.0 326381.0 311612.0 317159.0 132327.0 140309.0 314161.0 306094.0 331733.0 326875.0 390961.0 386199.0 329386.0 335693.0 48255.0 48564.0 247199.0 254242.0 246598.0 243695.0 377894.0 370562.0 340198.0 332374.0 346555.0 354722.0 86551.0 94124.0 323904.0 316153.0 295670.0 287739.0 340330.0 348276.0 357766.0 349812.0 263660.0 270242.0 338151.0 342800.0 132740.0 140729.0 292889.0 295194.0 325198.0 331870.0 20951.0 26016.0 358239.0 364424.0 324556.0 318174.0 235638.0 243425.0 357151.0 353302.0 186716.0 194823.0 373000.0 375164.0 89458.0 81813.0 266468.0 274355.0 312811.0 156118.0 312811.0 312811.0 312811.0 312811.0 312811.0 312811.0 312811.0 156118.0 156118.0 156118.0 156118.0 156118.0 156118.0 156118.0
370649.0 375496.0 0.0 8111.0 193841.0 187310.0 223793.0 219009.0 96950.0 89483.0 187741.0 185876.0 91924.0 97651.0 216894.0 212419.0 278191.0 282454.0 177900.0 183202.0 244569.0 236634.0 185330.0 186228.0 265985.0 269096.0 185364.0 177608.0 47928.0 40510.0 362649.0 354886.0 157106.0 155850.0 185326.0 193211.0 277664.0 277656.0 231373.0 231833.0 162102.0 162771.0 293124.0 285059.0 120434.0 123930.0 186654.0 189773.0 134271.0 134741.0 248256.0 246648.0 153677.0 153590.0 279729.0 276337.0 242830.0 234878.0 178685.0 185805.0 71331.0 70908.0 380929.0 375532.0 126862.0 132245.0 174946.0 170335.0 165425.0 158837.0 226022.0 217903.0 194461.0 187719.0 248483.0 242055.0 288722.0 296775.0 196457.0 193216.0 279075.0 260732.0 279075.0 279075.0 279075.0 279075.0 279075.0 279075.0 279075.0 260732.0 260732.0 260732.0 260732.0 260732.0 260732.0 260732.0
377022.0 381954.0 8111.0 0.0 198490.0 192115.0 228065.0 223274.0 96889.0 89758.0 190014.0 187827.0 93633.0 98877.0 222713.0 218412.0 277901.0 282358.0 177648.0 182680.0 250725.0 242771.0 184935.0 186182.0 265403.0 268723.0 181668.0 174016.0 55494.0 47852.0 369669.0 361884.0 160676.0 159027.0 187962.0 195804.0 275715.0 275950.0 230110.0 230855.0 160219.0 160491.0 299957.0 291892.0 120196.0 124151.0 187061.0 190501.0 132786.0 132782.0 246555.0 245202.0 156356.0 155875.0 279150.0 275540.0 249233.0 241263.0 179287.0 186240.0 73343.0 72035.0 387638.0 382312.0 124314.0 129340.0 174109.0 169815.0 169342.0 162571.0 224090.0 216042.0 200049.0 193154.0 246258.0 239669.0 295495.0 303550.0 198020.0 194484.0 279587.0 265317.0 279587.0 279587.0 279587.0 279587.0 279587.0 279587.0 279587.0 265317.0 265317.0 265317.0 265317.0 265317.0 265317.0 265317.0
194528.0 201076.0 193841.0 198490.0 0.0 7909.0 31987.0 27628.0 129947.0 130545.0 62953.0 70567.0 116370.0 116507.0 45875.0 49215.0 169382.0 167923.0 119156.0 126093.0 75511.0 69021.0 123829.0 116296.0 167786.0 164933.0 196056.0 190298.0 155956.0 159424.0 205708.0 197809.0 46180.0 53207.0 54119.0 55495.0 208898.0 202931.0 162851.0 156320.0 149895.0 157943.0 137386.0 130673.0 122833.0 115096.0 106231.0 99560.0 140011.0 147999.0 183247.0 176086.0 62906.0 69923.0 177320.0 180094.0 82356.0 76222.0 100711.0 105458.0 131010.0 136437.0 212685.0 209661.0 157451.0 163890.0 131055.0 123651.0 34643.0 42499.0 175789.0 169855.0 29411.0 24618.0 196067.0 195976.0 131460.0 138331.0 81307.0 87677.0 154464.0 66901.0 154464.0 154464.0 154464.0 154464.0 154464.0 154464.0 154464.0 66901.0 66901.0 66901.0 66901.0 66901.0 66901.0 66901.0
197574.0 203947.0 187310.0 192115.0 7909.0 0.0 39768.0 35482.0 126207.0 126365.0 65920.0 73228.0 111747.0 112342.0 45288.0 47361.0 174914.0 173709.0 120491.0 127656.0 76024.0 69063.0 125569.0 118236.0 172779.0 170180.0 196277.0 190289.0 148764.0 152400.0 206776.0 198830.0 43648.0 51358.0 56887.0 59248.0 213052.0 207284.0 166231.0 159926.0 149848.0 157815.0 137604.0 130639.0 120413.0 112775.0 108386.0 102074.0 138517.0 146504.0 186847.0 179834.0 61529.0 68928.0 182646.0 185163.0 81848.0 75230.0 102358.0 107566.0 125627.0 131316.0 214922.0 211632.0 155508.0 162164.0 132021.0 124431.0 32180.0 39737.0 178507.0 172328.0 25472.0 19060.0 199273.0 198878.0 131744.0 138850.0 84767.0 90711.0 160365.0 73696.0 160365.0 160365.0 160365.0 160365.0 160365.0 160365.0 160365.0 73696.0 73696.0 73696.0 73696.0 73696.0 73696.0 73696.0
179525.0 186377.0 223793.0 228065.0 31987.0 39768.0 0.0 4794.0 152954.0 154796.0 66937.0 74824.0 142036.0 140941.0 54855.0 61685.0 154874.0 152289.0 125339.0 131102.0 75497.0 71629.0 128214.0 120185.0 156116.0 152016.0 204623.0 199822.0 187316.0 190480.0 198061.0 190475.0 69617.0 74272.0 60376.0 57344.0 200641.0 193812.0 159011.0 151612.0 160341.0 168507.0 134732.0 129278.0 142023.0 134184.0 109733.0 101960.0 155789.0 163602.0 177981.0 170272.0 81787.0 87100.0 163755.0 167807.0 85665.0 81959.0 106570.0 109200.0 158459.0 163163.0 200238.0 198322.0 174381.0 179984.0 138228.0 131797.0 59382.0 66838.0 174592.0 169837.0 51883.0 51416.0 192356.0 193611.0 128746.0 134424.0 80983.0 88690.0 138719.0 38758.0 138719.0 138719.0 138719.0 138719.0 138719.0 138719.0 138719.0 38758.0 38758.0 38758.0 38758.0 38758.0 38758.0 38758.0
182930.0 189783.0 219009.0 223274.0 27628.0 35482.0 4794.0 0.0 148375.0 150148.0 63712.0 71653.0 137316.0 136275.0 54180.0 60636.0 154871.0 152402.0 122237.0 128157.0 76519.0 72212.0 125335.0 117337.0 155629.0 151729.0 201407.0 196492.0 182637.0 185762.0 200651.0 193013.0 64904.0 69676.0 56816.0 54230.0 199687.0 192983.0 157314.0 150023.0 156852.0 165019.0 136503.0 130851.0 137695.0 129853.0 106888.0 99212.0 151765.0 159605.0 176533.0 168890.0 77343.0 82794.0 163606.0 167449.0 86298.0 82194.0 103431.0 106323.0 153685.0 158411.0 203445.0 201389.0 170278.0 175962.0 135051.0 128493.0 54612.0 62091.0 172557.0 167632.0 49188.0 48097.0 190707.0 191773.0 130505.0 136370.0 78436.0 86032.0 138832.0 43398.0 138832.0 138832.0 138832.0 138832.0 138832.0 138832.0 138832.0 43398.0 43398.0 43398.0 43398.0 43398.0 43398.0 43398.0
323680.0 329932.0 96950.0 96889.0 129947.0 126207.0 152954.0 148375.0 0.0 8262.0 100042.0 96044.0 21210.0 15586.0 168106.0 167007.0 181242.0 185544.0 80952.0 86394.0 199364.0 191670.0 88426.0 89327.0 169143.0 172156.0 106259.0 98182.0 92305.0 88110.0 329211.0 321194.0 84209.0 78702.0 100550.0 107708.0 183884.0 183013.0 135706.0 135540.0 70221.0 73408.0 258328.0 250680.0 23531.0 27405.0 90315.0 94191.0 41764.0 45604.0 153796.0 151386.0 71699.0 68010.0 182879.0 179690.0 202335.0 194642.0 82809.0 89521.0 32716.0 28257.0 340102.0 336334.0 44697.0 52560.0 78639.0 73552.0 95504.0 87621.0 132698.0 124395.0 144187.0 135830.0 156177.0 150652.0 252834.0 260519.0 104144.0 99553.0 182844.0 191700.0 182844.0 182844.0 182844.0 182844.0 182844.0 182844.0 182844.0 191700.0 191700.0 191700.0 191700.0 191700.0 191700.0 191700.0
323415.0 329538.0 89483.0 89758.0 130545.0 126365.0 154796.0 150148.0 8262.0 0.0 104473.0 100953.0 16551.0 14039.0 167221.0 165732.0 188808.0 192985.0 88579.0 94210.0 198346.0 190568.0 96150.0 96767.0 176886.0 179777.0 113847.0 105747.0 84076.0 79848.0 327615.0 319597.0 85445.0 80613.0 104345.0 111721.0 192100.0 191182.0 143795.0 143516.0 78462.0 81548.0 256595.0 248870.0 31411.0 34453.0 97308.0 100830.0 49967.0 53570.0 161988.0 159515.0 74466.0 71544.0 190611.0 187536.0 200841.0 193062.0 89557.0 96483.0 24553.0 20038.0 339254.0 335314.0 51828.0 59574.0 86664.0 81401.0 96469.0 88638.0 140944.0 132639.0 143206.0 134931.0 164436.0 158914.0 251181.0 258938.0 109747.0 105531.0 189830.0 193544.0 189830.0 189830.0 189830.0 189830.0 189830.0 189830.0 189830.0 193544.0 193544.0 193544.0 193544.0 193544.0 193544.0 193544.0
246459.0 253312.0 187741.0 190014.0 62953.0 65920.0 66937.0 63712.0 100042.0 104473.0 0.0 7988.0 96609.0 92422.0 108461.0 112166.0 115228.0 115692.0 58556.0 64702.0 136488.0 130730.0 62052.0 54196.0 110388.0 109017.0 137708.0 132892.0 162753.0 163086.0 263955.0 256240.0 42227.0 37483.0 9096.0 9723.0 147910.0 142562.0 100338.0 94173.0 93615.0 101767.0 198055.0 191814.0 83168.0 75786.0 43853.0 36752.0 92144.0 99582.0 121056.0 114186.0 35046.0 34155.0 121667.0 122929.0 144488.0 138789.0 39735.0 43179.0 116671.0 118667.0 267134.0 265099.0 111299.0 116008.0 71339.0 64866.0 44550.0 44011.0 112837.0 106950.0 91370.0 84686.0 133354.0 133065.0 192060.0 198427.0 19278.0 24796.0 104539.0 102177.0 104539.0 104539.0 104539.0 104539.0 104539.0 104539.0 104539.0 102177.0 102177.0 102177.0 102177.0 102177.0 102177.0 102177.0
254328.0 261181.0 185876.0 187827.0 70567.0 73228.0 74824.0 71653.0 96044.0 100953.0 7988.0 0.0 94201.0 89480.0 116207.0 119773.0 111025.0 111976.0 50591.0 56715.0 144401.0 138593.0 54076.0 46241.0 105312.0 104386.0 129800.0 125051.0 162774.0 162703.0 271941.0 264228.0 46076.0 40153.0 16448.0 17487.0 141507.0 136393.0 93312.0 87385.0 85949.0 94087.0 206003.0 199739.0 78010.0 70866.0 35930.0 28996.0 85580.0 92869.0 114183.0 107473.0 35615.0 32939.0 117013.0 117842.0 152318.0 146553.0 31778.0 35237.0 114583.0 116065.0 275048.0 273041.0 104798.0 109245.0 63412.0 57036.0 49980.0 48387.0 105312.0 99290.0 98700.0 91831.0 126142.0 125650.0 200009.0 206393.0 14001.0 17781.0 101763.0 109679.0 101763.0 101763.0 101763.0 101763.0 101763.0 101763.0 101763.0 109679.0 109679.0 109679.0 109679.0 109679.0 109679.0 109679.0
308141.0 314161.0 91924.0 93633.0 116370.0 111747.0 142036.0 137316.0 21210.0 16551.0 96609.0 94201.0 0.0 7971.0 151612.0 149867.0 189539.0 193110.0 90572.0 97097.0 182610.0 174784.0 98495.0 97745.0 178590.0 180821.0 126212.0 118208.0 77528.0 74762.0 311493.0 303477.0 72422.0 68639.0 95195.0 102898.0 197655.0 196053.0 148069.0 146885.0 87257.0 91519.0 240429.0 232672.0 37521.0 37039.0 96505.0 98749.0 59863.0 64956.0 167280.0 164075.0 64030.0 62607.0 192192.0 189791.0 184819.0 177001.0 88060.0 95582.0 20705.0 22142.0 323553.0 319505.0 65542.0 73460.0 91044.0 84728.0 82959.0 75283.0 147366.0 139052.0 127569.0 119369.0 171224.0 166278.0 235054.0 242843.0 104535.0 101388.0 188170.0 180652.0 188170.0 188170.0 188170.0 188170.0 188170.0 188170.0 188170.0 180652.0 180652.0 180652.0 180652.0 180652.0 180652.0 180652.0
309475.0 315627.0 97651.0 98877.0 116507.0 112342.0 140941.0 136275.0 15586.0 14039.0 92422.0 89480.0 7971.0 0.0 153429.0 152087.0 182480.0 186197.0 83126.0 89516.0 184607.0 176859.0 91005.0 90515.0 171315.0 173686.0 118693.0 110723.0 85273.0 82289.0 314142.0 306124.0 71493.0 66869.0 91679.0 99221.0 189817.0 188285.0 140351.0 139291.0 79316.0 83659.0 243186.0 235502.0 29556.0 29228.0 89692.0 92301.0 52068.0 57375.0 159457.0 156330.0 61182.0 58856.0 184951.0 182416.0 187303.0 179564.0 81409.0 88793.0 27261.0 26843.0 325472.0 321592.0 58631.0 66570.0 83255.0 77056.0 82463.0 74644.0 139446.0 131131.0 129439.0 121132.0 163290.0 158320.0 237730.0 245451.0 99189.0 95628.0 181724.0 179673.0 181724.0 181724.0 181724.0 181724.0 181724.0 181724.0 181724.0 179673.0 179673.0 179673.0 179673.0 179673.0 179673.0 179673.0
156887.0 162699.0 216894.0 222713.0 45875.0 45288.0 54855.0 54180.0 168106.0 167221.0 108461.0 116207.0 151612.0 153429.0 0.0 8078.0 208913.0 206530.0 165022.0 171967.0 31341.0 23940.0 169690.0 162123.0 209128.0 205509.0 241497.0 235558.0 173423.0 178654.0 162071.0 154088.0 88356.0 96377.0 99787.0 100443.0 252128.0 245746.0 207529.0 200706.0 195117.0 203095.0 92381.0 85358.0 164528.0 157038.0 152004.0 145189.0 183423.0 191398.0 227557.0 220181.0 106687.0 114171.0 217522.0 221117.0 36602.0 30363.0 146585.0 151249.0 162602.0 169192.0 172044.0 168231.0 200016.0 206855.0 176851.0 169379.0 77131.0 84352.0 221145.0 215400.0 24044.0 32296.0 240891.0 241138.0 86555.0 93785.0 126276.0 133001.0 192960.0 64459.0 192960.0 192960.0 192960.0 192960.0 192960.0 192960.0 192960.0 64459.0 64459.0 64459.0 64459.0 64459.0 64459.0 64459.0
159764.0 165308.0 212419.0 218412.0 49215.0 47361.0 61685.0 60636.0 167007.0 165732.0 112166.0 119773.0 149867.0 152087.0 8078.0 0.0 214895.0 212656.0 167816.0 174924.0 32994.0 25041.0 172770.0 165336.0 214690.0 211256.0 243415.0 237296.0 168290.0 173749.0 162331.0 154320.0 89222.0 97475.0 103326.0 104532.0 257140.0 250902.0 211862.0 205193.0 196878.0 204780.0 91854.0 84499.0 164562.0 157199.0 155351.0 148761.0 184096.0 192041.0 232095.0 224819.0 107927.0 115575.0 223369.0 226773.0 35570.0 28300.0 149583.0 154561.0 159968.0 166766.0 173777.0 169640.0 200265.0 207258.0 179381.0 171780.0 78317.0 85189.0 225001.0 219063.0 23354.0 31757.0 245146.0 245159.0 86183.0 93702.0 130387.0 136872.0 199086.0 72531.0 199086.0 199086.0 199086.0 199086.0 199086.0 199086.0 199086.0 72531.0 72531.0 72531.0 72531.0 72531.0 72531.0 72531.0
322179.0 329032.0 278191.0 277901.0 169382.0 174914.0 154874.0 154871.0 181242.0 188808.0 115228.0 111025.0 189539.0 182480.0 208913.0 214895.0 0.0 7995.0 100295.0 95339.0 229658.0 226375.0 92975.0 92111.0 15748.0 9548.0 136157.0 138081.0 265703.0 263910.0 344580.0 337356.0 157049.0 151065.0 123525.0 118140.0 57298.0 48785.0 56298.0 51447.0 124204.0 127786.0 286003.0 281416.0 157774.0 154485.0 93287.0 92541.0 147339.0 149768.0 55234.0 49326.0 145088.0 140063.0 10047.0 17479.0 240324.0 236833.0 102072.0 94257.0 209734.0 208127.0 343318.0 342189.0 161384.0 160085.0 104598.0 108166.0 159618.0 159142.0 73610.0 77671.0 198626.0 193780.0 70345.0 77313.0 280150.0 284922.0 97024.0 95326.0 36893.0 174691.0 36893.0 36893.0 36893.0 36893.0 36893.0 36893.0 36893.0 174691.0 174691.0 174691.0 174691.0 174691.0 174691.0 174691.0
319528.0 326381.0 282454.0 282358.0 167923.0 173709.0 152289.0 152402.0 185544.0 192985.0 115692.0 111976.0 193110.0 186197.0 206530.0 212656.0 7995.0 0.0 104738.0 100194.0 227021.0 223734.0 97654.0 96226.0 23411.0 16438.0 143559.0 145302.0 268770.0 267199.0 341929.0 334705.0 157785.0 152125.0 123722.0 117962.0 64628.0 56088.0 63462.0 58165.0 130183.0 134054.0 283353.0 278765.0 162162.0 158571.0 96623.0 95244.0 152607.0 155331.0 63189.0 57165.0 146617.0 141932.0 17005.0 25009.0 237672.0 234236.0 105235.0 97560.0 213455.0 212110.0 340667.0 339538.0 167127.0 166089.0 109788.0 112933.0 159784.0 159702.0 81202.0 84998.0 197005.0 192441.0 78341.0 85293.0 277499.0 282271.0 98015.0 96958.0 31861.0 172040.0 31861.0 31861.0 31861.0 31861.0 31861.0 31861.0 31861.0 172040.0 172040.0 172040.0 172040.0 172040.0 172040.0 172040.0
304759.0 311612.0 177900.0 177648.0 119156.0 120491.0 125339.0 122237.0 80952.0 88579.0 58556.0 50591.0 90572.0 83126.0 165022.0 167816.0 100295.0 104738.0 0.0 7924.0 194150.0 188019.0 8031.0 9617.0 88378.0 91209.0 79391.0 75048.0 167896.0 165334.0 322443.0 314705.0 83191.0 74764.0 66183.0 68017.0 109464.0 106834.0 58734.0 56589.0 38148.0 45835.0 255954.0 249503.0 57481.0 54444.0 17385.0 25430.0 50134.0 54870.0 79211.0 74848.0 64825.0 57157.0 102081.0 99308.0 201498.0 195340.0 18826.0 17468.0 110202.0 108089.0 325576.0 323618.0 67596.0 69255.0 13130.0 9610.0 91774.0 86869.0 63111.0 55505.0 145588.0 137986.0 86652.0 83818.0 249977.0 256517.0 46338.0 38382.0 103862.0 159119.0 103862.0 103862.0 103862.0 103862.0 103862.0 103862.0 103862.0 159119.0 159119.0 159119.0 159119.0 159119.0 159119.0 159119.0
310307.0 317159.0 183202.0 182680.0 126093.0 127656.0 131102.0 128157.0 86394.0 94210.0 64702.0 56715.0 97097.0 89516.0 171967.0 174924.0 95339.0 100194.0 7924.0 0.0 200832.0 194812.0 3612.0 11317.0 82783.0 86080.0 74362.0 70618.0 174570.0 171804.0 328637.0 320933.0 90927.0 82533.0 72671.0 73961.0 101966.0 99559.0 51406.0 49787.0 36383.0 43420.0 262563.0 256193.0 62865.0 60513.0 21545.0 29626.0 52845.0 56622.0 71636.0 67525.0 72661.0 65026.0 96527.0 93327.0 208372.0 202313.0 25384.0 21973.0 116406.0 113940.0 331249.0 329422.0 69126.0 69891.0 10919.0 12870.0 99334.0 94571.0 55196.0 47582.0 152850.0 145328.0 78776.0 75895.0 256577.0 263034.0 50984.0 43001.0 100912.0 164086.0 100912.0 100912.0 100912.0 100912.0 100912.0 100912.0 100912.0 164086.0 164086.0 164086.0 164086.0 164086.0 164086.0 164086.0
126844.0 132327.0 244569.0 250725.0 75511.0 76024.0 75497.0 76519.0 199364.0 198346.0 136488.0 144401.0 182610.0 184607.0 31341.0 32994.0 229658.0 227021.0 194150.0 200832.0 0.0 7996.0 198370.0 190621.0 231501.0 227217.0 271556.0 265807.0 199675.0 205448.0 130837.0 122870.0 119459.0 127351.0 128190.0 127848.0 276117.0 269310.0 233565.0 226391.0 225396.0 233434.0 61891.0 55362.0 195820.0 188305.0 180330.0 173160.0 214491.0 222474.0 252990.0 245380.0 137553.0 144911.0 238759.0 243071.0 12001.0 14422.0 175491.0 179635.0 192957.0 199731.0 140943.0 136986.0 231242.0 238025.0 206301.0 199013.0 108123.0 115476.0 248213.0 242883.0 55180.0 63539.0 266985.0 267782.0 55953.0 62869.0 153342.0 160494.0 213451.0 68145.0 213451.0 213451.0 213451.0 213451.0 213451.0 213451.0 213451.0 68145.0 68145.0 68145.0 68145.0 68145.0 68145.0 68145.0
134839.0 140309.0 236634.0 242771.0 69021.0 69063.0 71629.0 72212.0 191670.0 190568.0 130730.0 138593.0 174784.0 176859.0 23940.0 25041.0 226375.0 223734.0 188019.0 194812.0 7996.0 0.0 192423.0 184741.0 227726.0 223641.0 265027.0 259180.0 191841.0 197569.0 138150.0 130163.0 112286.0 120276.0 122282.0 122294.0 271869.0 265194.0 228607.0 221547.0 218748.0 226755.0 68544.0 61675.0 188442.0 180966.0 174509.0 167466.0 207352.0 215328.0 248251.0 240714.0 130552.0 137990.0 235338.0 239436.0 14091.0 11601.0 169440.0 173790.0 185008.0 191804.0 148788.0 144746.0 223953.0 230795.0 200038.0 192666.0 101031.0 108285.0 242902.0 237417.0 47500.0 55899.0 262028.0 262632.0 62682.0 69855.0 147948.0 154960.0 210164.0 68493.0 210164.0 210164.0 210164.0 210164.0 210164.0 210164.0 210164.0 68493.0 68493.0 68493.0 68493.0 68493.0 68493.0 68493.0
307308.0 314161.0 185330.0 184935.0 123829.0 125569.0 128214.0 125335.0 88426.0 96150.0 62052.0 54076.0 98495.0 91005.0 169690.0 172770.0 92975.0 97654.0 8031.0 3612.0 198370.0 192423.0 0.0 8076.0 80736.0 83793.0 77634.0 74024.0 175867.0 173251.0 325895.0 318207.0 89555.0 81236.0 70180.0 71201.0 101517.0 98821.0 50743.0 48568.0 39985.0 47032.0 260046.0 253728.0 64906.0 62188.0 18495.0 26468.0 55825.0 59831.0 71314.0 66850.0 71538.0 64016.0 94463.0 91512.0 206034.0 200047.0 23219.0 19016.0 118024.0 115767.0 328289.0 326511.0 72395.0 73310.0 14443.0 15306.0 97681.0 93134.0 55853.0 48486.0 150839.0 143395.0 79159.0 76635.0 254056.0 260465.0 47830.0 39869.0 97835.0 160920.0 97835.0 97835.0 97835.0 97835.0 97835.0 97835.0 97835.0 160920.0 160920.0 160920.0 160920.0 160920.0 160920.0 160920.0
299241.0 306094.0 186228.0 186182.0 116296.0 118236.0 120185.0 117337.0 89327.0 96767.0 54196.0 46241.0 97745.0 90515.0 162123.0 165336.0 92111.0 96226.0 9617.0 11317.0 190621.0 184741.0 8076.0 0.0 80848.0 83207.0 85657.0 81929.0 174672.0 172418.0 317931.0 310253.0 83278.0 75106.0 62459.0 63254.0 105220.0 101949.0 54388.0 51082.0 46790.0 54169.0 252244.0 245968.0 66009.0 62387.0 10452.0 18392.0 59714.0 64484.0 75412.0 70294.0 65743.0 58466.0 94450.0 92178.0 198398.0 192485.0 16283.0 11034.0 117734.0 116016.0 320230.0 318468.0 77206.0 78769.0 21121.0 19198.0 90957.0 86745.0 61711.0 54754.0 143580.0 136240.0 84452.0 82503.0 246250.0 252621.0 39756.0 31793.0 94554.0 152851.0 94554.0 94554.0 94554.0 94554.0 94554.0 94554.0 94554.0 152851.0 152851.0 152851.0 152851.0 152851.0 152851.0 152851.0
324880.0 331733.0 265985.0 265403.0 167786.0 172779.0 156116.0 155629.0 169143.0 176886.0 110388.0 105312.0 178590.0 171315.0 209128.0 214690.0 15748.0 23411.0 88378.0 82783.0 231501.0 227726.0 80736.0 80848.0 0.0 7611.0 120426.0 122424.0 255415.0 253260.0 347281.0 340057.0 151288.0 144741.0 119095.0 114500.0 47583.0 39551.0 40750.0 36449.0 109819.0 113028.0 288684.0 283984.0 145614.0 142821.0 83398.0 83827.0 133875.0 135881.0 40146.0 33806.0 137939.0 132329.0 13747.0 12542.0 241777.0 237821.0 92376.0 84412.0 198489.0 196465.0 346019.0 344890.0 147227.0 145596.0 91436.0 95650.0 154920.0 153698.0 57865.0 61981.0 197191.0 191808.0 55819.0 62391.0 282812.0 287619.0 91461.0 88571.0 45843.0 177392.0 45843.0 45843.0 45843.0 45843.0 45843.0 45843.0 45843.0 177392.0 177392.0 177392.0 177392.0 177392.0 177392.0 177392.0
320022.0 326875.0 269096.0 268723.0 164933.0 170180.0 152016.0 151729.0 172156.0 179777.0 109017.0 104386.0 180821.0 173686.0 205509.0 211256.0 9548.0 16438.0 91209.0 86080.0 227217.0 223641.0 83793.0 83207.0 7611.0 0.0 127123.0 128879.0 257246.0 255320.0 342423.0 335200.0 150462.0 144207.0 117533.0 112534.0 54146.0 45892.0 47041.0 41961.0 114661.0 118242.0 283822.0 279260.0 148662.0 145518.0 84849.0 84547.0 137914.0 140275.0 47712.0 41218.0 137849.0 132562.0 12650.0 15940.0 237658.0 233892.0 93722.0 85836.0 200924.0 199182.0 341162.0 340033.0 151860.0 150539.0 95213.0 98929.0 153548.0 152708.0 64844.0 68560.0 194292.0 189150.0 63430.0 69971.0 277978.0 282766.0 90419.0 88168.0 38771.0 172534.0 38771.0 38771.0 38771.0 38771.0 38771.0 38771.0 38771.0 172534.0 172534.0 172534.0 172534.0 172534.0 172534.0 172534.0
384108.0 390961.0 185364.0 181668.0 196056.0 196277.0 204623.0 201407.0 106259.0 113847.0 137708.0 129800.0 126212.0 118693.0 241497.0 243415.0 136157.0 143559.0 79391.0 74362.0 271556.0 265027.0 77634.0 85657.0 120426.0 127123.0 0.0 8126.0 195789.0 190251.0 400988.0 393185.0 154942.0 146438.0 144860.0 147280.0 106609.0 110230.0 80265.0 86600.0 46669.0 39078.0 333441.0 326701.0 90959.0 95488.0 95864.0 103979.0 67325.0 61328.0 84717.0 88136.0 135891.0 128079.0 131762.0 124766.0 278095.0 271489.0 98071.0 96223.0 137945.0 131669.0 404841.0 402768.0 62453.0 55272.0 66405.0 72989.0 165288.0 158942.0 62862.0 58587.0 220431.0 212357.0 76183.0 68065.0 327508.0 334305.0 125317.0 117326.0 154576.0 238386.0 154576.0 154576.0 154576.0 154576.0 154576.0 154576.0 154576.0 238386.0 238386.0 238386.0 238386.0 238386.0 238386.0 238386.0
379346.0 386199.0 177608.0 174016.0 190298.0 190289.0 199822.0 196492.0 98182.0 105747.0 132892.0 125051.0 118208.0 110723.0 235558.0 237296.0 138081.0 145302.0 75048.0 70618.0 265807.0 259180.0 74024.0 81929.0 122424.0 128879.0 8126.0 0.0 187674.0 182153.0 395563.0 387733.0 148543.0 140082.0 139776.0 142534.0 111530.0 114681.0 81840.0 87647.0 40441.0 32528.0 327663.0 320848.0 83200.0 87919.0 91922.0 100071.0 59569.0 53393.0 88184.0 90968.0 129546.0 121788.0 134217.0 127495.0 272136.0 265440.0 93486.0 92205.0 129825.0 123543.0 399922.0 397725.0 54327.0 47164.0 61935.0 68026.0 159051.0 152558.0 65601.0 60462.0 214223.0 206091.0 80878.0 72917.0 321748.0 328620.0 121297.0 113311.0 154719.0 234156.0 154719.0 154719.0 154719.0 154719.0 154719.0 154719.0 154719.0 234156.0 234156.0 234156.0 234156.0 234156.0 234156.0 234156.0
324789.0 329386.0 47928.0 55494.0 155956.0 148764.0 187316.0 182637.0 92305.0 84076.0 162753.0 162774.0 77528.0 85273.0 173423.0 168290.0 265703.0 268770.0 167896.0 174570.0 199675.0 191841.0 175867.0 174672.0 255415.0 257246.0 195789.0 187674.0 0.0 8242.0 315202.0 307483.0 125923.0 126943.0 158375.0 166263.0 275041.0 273558.0 225596.0 224349.0 162524.0 165527.0 246101.0 238045.0 114036.0 114500.0 172426.0 173565.0 134040.0 137266.0 244705.0 241595.0 127715.0 129911.0 268903.0 266850.0 197100.0 189233.0 163637.0 171451.0 59648.0 64648.0 334145.0 328581.0 133436.0 140521.0 168528.0 162253.0 132035.0 126678.0 224395.0 216073.0 152154.0 146171.0 248098.0 242796.0 241850.0 249890.0 175212.0 173768.0 262112.0 222342.0 262112.0 262112.0 262112.0 262112.0 262112.0 262112.0 262112.0 222342.0 222342.0 222342.0 222342.0 222342.0 222342.0 222342.0
330990.0 335693.0 40510.0 47852.0 159424.0 152400.0 190480.0 185762.0 88110.0 79848.0 163086.0 162703.0 74762.0 82289.0 178654.0 173749.0 263910.0 267199.0 165334.0 171804.0 205448.0 197569.0 173251.0 172418.0 253260.0 255320.0 190251.0 182153.0 8242.0 0.0 322198.0 314449.0 127493.0 127966.0 159122.0 167044.0 271602.0 270352.0 222547.0 221580.0 158238.0 160912.0 252833.0 244771.0 110436.0 111422.0 170647.0 172164.0 129659.0 132504.0 241347.0 238471.0 128060.0 129766.0 266822.0 264532.0 203205.0 195299.0 161966.0 169691.0 55811.0 60035.0 340763.0 335284.0 128083.0 134995.0 165357.0 159327.0 134199.0 128497.0 220675.0 212359.0 156957.0 150713.0 244250.0 238762.0 248500.0 256548.0 174812.0 172999.0 261115.0 226086.0 261115.0 261115.0 261115.0 261115.0 261115.0 261115.0 261115.0 226086.0 226086.0 226086.0 226086.0 226086.0 226086.0 226086.0
53086.0 48255.0 362649.0 369669.0 205708.0 206776.0 198061.0 200651.0 329211.0 327615.0 263955.0 271941.0 311493.0 314142.0 162071.0 162331.0 344580.0 341929.0 322443.0 328637.0 130837.0 138150.0 325895.0 317931.0 347281.0 342423.0 400988.0 395563.0 315202.0 322198.0 0.0 8018.0 250290.0 258133.0 256313.0 254696.0 393443.0 386110.0 355569.0 347823.0 355295.0 363398.0 71127.0 79010.0 326592.0 319110.0 307491.0 299859.0 345291.0 353277.0 373322.0 365365.0 268263.0 275517.0 353699.0 358349.0 126882.0 134580.0 303622.0 306903.0 319759.0 327017.0 32595.0 24611.0 362073.0 368861.0 335014.0 328059.0 238926.0 246311.0 372095.0 367674.0 185475.0 193906.0 388511.0 390489.0 76439.0 68694.0 279026.0 286675.0 328359.0 171494.0 328359.0 328359.0 328359.0 328359.0 328359.0 328359.0 328359.0 171494.0 171494.0 171494.0 171494.0 171494.0 171494.0 171494.0
52321.0 48564.0 354886.0 361884.0 197809.0 198830.0 190475.0 193013.0 321194.0 319597.0 256240.0 264228.0 303477.0 306124.0 154088.0 154320.0 337356.0 334705.0 314705.0 320933.0 122870.0 130163.0 318207.0 310253.0 340057.0 335200.0 393185.0 387733.0 307483.0 314449.0 8018.0 0.0 242327.0 250184.0 248558.0 247007.0 386219.0 378886.0 348216.0 340495.0 347448.0 355546.0 63125.0 71022.0 318604.0 311126.0 299818.0 292208.0 337340.0 345326.0 366074.0 358131.0 260326.0 267595.0 346475.0 351125.0 118866.0 126561.0 295889.0 299223.0 311768.0 319020.0 35851.0 27857.0 354097.0 360895.0 327253.0 320273.0 230972.0 238346.0 364645.0 360169.0 177472.0 185904.0 381206.0 383117.0 68423.0 60676.0 271417.0 279045.0 321135.0 164411.0 321135.0 321135.0 321135.0 321135.0 321135.0 321135.0 321135.0 164411.0 164411.0 164411.0 164411.0 164411.0 164411.0 164411.0
240689.0 247199.0 157106.0 160676.0 46180.0 43648.0 69617.0 64904.0 84209.0 85445.0 42227.0 46076.0 72422.0 71493.0 88356.0 89222.0 157049.0 157785.0 83191.0 90927.0 119459.0 112286.0 89555.0 83278.0 151288.0 150462.0 154942.0 148543.0 125923.0 127493.0 250290.0 242327.0 0.0 8574.0 35100.0 42357.0 185665.0 181088.0 135936.0 130918.0 108275.0 116026.0 180687.0 173532.0 76816.0 69146.0 74821.0 70548.0 95067.0 103043.0 157127.0 151012.0 19087.0 26973.0 163085.0 163800.0 124555.0 117512.0 67028.0 73842.0 89347.0 93697.0 258498.0 255265.0 111870.0 118576.0 93219.0 85246.0 11562.0 4035.0 144989.0 137937.0 65938.0 57677.0 167483.0 165777.0 174891.0 182139.0 60059.0 62871.0 146755.0 108273.0 146755.0 146755.0 146755.0 146755.0 146755.0 146755.0 146755.0 108273.0 108273.0 108273.0 108273.0 108273.0 108273.0 108273.0
247639.0 254242.0 155850.0 159027.0 53207.0 51358.0 74272.0 69676.0 78702.0 80613.0 37483.0 40153.0 68639.0 66869.0 96377.0 97475.0 151065.0 152125.0 74764.0 82533.0 127351.0 120276.0 81236.0 75106.0 144741.0 144207.0 146438.0 140082.0 126943.0 127966.0 258133.0 250184.0 8574.0 0.0 31671.0 39449.0 178132.0 173727.0 128153.0 123327.0 99777.0 107557.0 188753.0 181657.0 69676.0 61912.0 66896.0 63001.0 87159.0 95147.0 149358.0 143377.0 10548.0 18410.0 156791.0 157215.0 132706.0 125741.0 58906.0 65902.0 86679.0 90408.0 265859.0 262748.0 104297.0 110851.0 84674.0 76692.0 19246.0 12518.0 136801.0 129673.0 74249.0 66043.0 159444.0 157601.0 182932.0 190121.0 54114.0 56170.0 141709.0 113029.0 141709.0 141709.0 141709.0 141709.0 141709.0 141709.0 141709.0 113029.0 113029.0 113029.0 113029.0 113029.0 113029.0 113029.0
239746.0 246598.0 185326.0 187962.0 54119.0 56887.0 60376.0 56816.0 100550.0 104345.0 9096.0 16448.0 95195.0 91679.0 99787.0 103326.0 123525.0 123722.0 66183.0 72671.0 128190.0 122282.0 70180.0 62459.0 119095.0 117533.0 144860.0 139776.0 158375.0 159122.0 256313.0 248558.0 35100.0 31671.0 0.0 7938.0 156982.0 151596.0 109413.0 103268.0 100037.0 108204.0 189892.0 183548.0 85360.0 77731.0 52246.0 45442.0 96378.0 104030.0 130149.0 123282.0 31650.0 32837.0 130180.0 131631.0 135961.0 130141.0 47404.0 51514.0 114751.0 117337.0 260160.0 257956.0 115335.0 120477.0 78704.0 71872.0 36096.0 36379.0 121732.0 115738.0 82350.0 75611.0 142392.0 142025.0 183906.0 190378.0 28320.0 33833.0 112043.0 96878.0 112043.0 112043.0 112043.0 112043.0 112043.0 112043.0 112043.0 96878.0 96878.0 96878.0 96878.0 96878.0 96878.0 96878.0
236842.0 243695.0 193211.0 195804.0 55495.0 59248.0 57344.0 54230.0 107708.0 111721.0 9723.0 17487.0 102898.0 99221.0 100443.0 104532.0 118140.0 117962.0 68017.0 73961.0 127848.0 122294.0 71201.0 63254.0 114500.0 112534.0 147280.0 142534.0 166263.0 167044.0 254696.0 247007.0 42357.0 39449.0 7938.0 0.0 153813.0 148120.0 107363.0 100840.0 103328.0 111478.0 189225.0 183098.0 91768.0 84250.0 52832.0 45391.0 101567.0 109069.0 127769.0 120660.0 39549.0 40378.0 125150.0 126997.0 136155.0 130673.0 49230.0 52221.0 122557.0 125036.0 257577.0 255601.0 120676.0 125509.0 80884.0 74513.0 42083.0 43282.0 120722.0 115126.0 84484.0 78254.0 140616.0 140703.0 183224.0 189487.0 25859.0 32666.0 105770.0 92464.0 105770.0 105770.0 105770.0 105770.0 105770.0 105770.0 105770.0 92464.0 92464.0 92464.0 92464.0 92464.0 92464.0 92464.0
371042.0 377894.0 277664.0 275715.0 208898.0 213052.0 200641.0 199687.0 183884.0 192100.0 147910.0 141507.0 197655.0 189817.0 252128.0 257140.0 57298.0 64628.0 109464.0 101966.0 276117.0 271869.0 101517.0 105220.0 47583.0 54146.0 106609.0 111530.0 275041.0 271602.0 393443.0 386219.0 185665.0 178132.0 156982.0 153813.0 0.0 8543.0 50867.0 54824.0 115563.0 115422.0 334467.0 329486.0 161167.0 160615.0 111706.0 115145.0 143634.0 142958.0 30421.0 34958.0 169725.0 162951.0 47623.0 39827.0 285960.0 281526.0 120350.0 112737.0 215791.0 212135.0 392181.0 391052.0 151810.0 147804.0 106664.0 113434.0 191281.0 188652.0 51643.0 59788.0 238166.0 232068.0 30724.0 38616.0 328548.0 333617.0 128667.0 123763.0 92852.0 223554.0 92852.0 92852.0 92852.0 92852.0 92852.0 92852.0 92852.0 223554.0 223554.0 223554.0 223554.0 223554.0 223554.0 223554.0
363709.0 370562.0 277656.0 275950.0 202931.0 207284.0 193812.0 192983.0 183013.0 191182.0 142562.0 136393.0 196053.0 188285.0 245746.0 250902.0 48785.0 56088.0 106834.0 99559.0 269310.0 265194.0 98821.0 101949.0 39551.0 45892.0 110230.0 114681.0 273558.0 270352.0 386110.0 378886.0 181088.0 173727.0 151596.0 148120.0 8543.0 0.0 48153.0 50956.0 115760.0 116221.0 327315.0 322426.0 160021.0 159058.0 107822.0 110757.0 143404.0 143204.0 29401.0 32042.0 165602.0 159022.0 39084.0 31327.0 279281.0 274976.0 116619.0 108861.0 214583.0 211214.0 384848.0 383719.0 152572.0 148959.0 105034.0 111445.0 186315.0 183967.0 52242.0 60031.0 232268.0 226329.0 34118.0 42335.0 321410.0 326390.0 123286.0 118735.0 84514.0 216221.0 84514.0 84514.0 84514.0 84514.0 84514.0 84514.0 84514.0 216221.0 216221.0 216221.0 216221.0 216221.0 216221.0 216221.0
333345.0 340198.0 231373.0 230110.0 162851.0 166231.0 159011.0 157314.0 135706.0 143795.0 100338.0 93312.0 148069.0 140351.0 207529.0 211862.0 56298.0 63462.0 58734.0 51406.0 233565.0 228607.0 50743.0 54388.0 40750.0 47041.0 80265.0 81840.0 225596.0 222547.0 355569.0 348216.0 135936.0 128153.0 109413.0 107363.0 50867.0 48153.0 0.0 8219.0 71199.0 73436.0 293735.0 288164.0 112466.0 111144.0 61324.0 65539.0 97360.0 98214.0 21207.0 16121.0 119393.0 112432.0 53254.0 47503.0 242630.0 237552.0 69765.0 62338.0 166861.0 163781.0 354485.0 353356.0 108777.0 106392.0 57224.0 63368.0 142298.0 139103.0 19971.0 21723.0 191646.0 185023.0 33423.0 34976.0 287746.0 293411.0 81553.0 75604.0 76270.0 185857.0 76270.0 76270.0 76270.0 76270.0 76270.0 76270.0 76270.0 185857.0 185857.0 185857.0 185857.0 185857.0 185857.0 185857.0
325521.0 332374.0 231833.0 230855.0 156320.0 159926.0 151612.0 150023.0 135540.0 143516.0 94173.0 87385.0 146885.0 139291.0 200706.0 205193.0 51447.0 58165.0 56589.0 49787.0 226391.0 221547.0 48568.0 51082.0 36449.0 41961.0 86600.0 87647.0 224349.0 221580.0 347823.0 340495.0 130918.0 123327.0 103268.0 100840.0 54824.0 50956.0 8219.0 0.0 73531.0 76581.0 286341.0 280845.0 112106.0 110220.0 56945.0 60371.0 98469.0 99972.0 26930.0 20133.0 114910.0 108191.0 49712.0 44958.0 235593.0 230629.0 65686.0 57981.0 166104.0 163396.0 346660.0 345532.0 111051.0 109215.0 56937.0 62307.0 136825.0 133962.0 27970.0 28631.0 185279.0 178808.0 40779.0 42940.0 280357.0 285951.0 75160.0 69608.0 68795.0 178033.0 68795.0 68795.0 68795.0 68795.0 68795.0 68795.0 68795.0 178033.0 178033.0 178033.0 178033.0 178033.0 178033.0 178033.0
339782.0 346555.0 162102.0 160219.0 149895.0 149848.0 160341.0 156852.0 70221.0 78462.0 93615.0 85949.0 87257.0 79316.0 195117.0 196878.0 124204.0 130183.0 38148.0 36383.0 225396.0 218748.0 39985.0 46790.0 109819.0 114661.0 46669.0 40441.0 162524.0 158238.0 355295.0 347448.0 108275.0 99777.0 100037.0 103328.0 115563.0 115760.0 71199.0 73531.0 0.0 8167.0 287241.0 280412.0 49815.0 52325.0 55523.0 63496.0 28607.0 27444.0 86385.0 85491.0 89231.0 81434.0 123230.0 118312.0 231695.0 225007.0 55164.0 55556.0 102900.0 98211.0 360121.0 357786.0 37591.0 35906.0 25702.0 29516.0 118672.0 112277.0 63920.0 55827.0 173835.0 165732.0 86663.0 80714.0 281330.0 288225.0 83926.0 76095.0 134550.0 195588.0 134550.0 134550.0 134550.0 134550.0 134550.0 134550.0 134550.0 195588.0 195588.0 195588.0 195588.0 195588.0 195588.0 195588.0
347949.0 354722.0 162771.0 160491.0 157943.0 157815.0 168507.0 165019.0 73408.0 81548.0 101767.0 94087.0 91519.0 83659.0 203095.0 204780.0 127786.0 134054.0 45835.0 43420.0 233434.0 226755.0 47032.0 54169.0 113028.0 118242.0 39078.0 32528.0 165527.0 160912.0 363398.0 355546.0 116026.0 107557.0 108204.0 111478.0 115422.0 116221.0 73436.0 76581.0 8167.0 0.0 295263.0 288411.0 54506.0 57879.0 63216.0 71253.0 31768.0 28523.0 87043.0 86903.0 97020.0 89260.0 126218.0 120893.0 239661.0 232937.0 63185.0 63296.0 106099.0 100936.0 368283.0 365939.0 36393.0 33041.0 33062.0 37479.0 126524.0 120038.0 64001.0 56248.0 181696.0 173563.0 85767.0 79292.0 289358.0 296274.0 91858.0 83990.0 139846.0 203707.0 139846.0 139846.0 139846.0 139846.0 139846.0 139846.0 139846.0 203707.0 203707.0 203707.0 203707.0 203707.0 203707.0 203707.0
83884.0 86551.0 293124.0 299957.0 137386.0 137604.0 134732.0 136503.0 258328.0 256595.0 198055.0 206003.0 240429.0 243186.0 92381.0 91854.0 286003.0 283353.0 255954.0 262563.0 61891.0 68544.0 260046.0 252244.0 288684.0 283822.0 333441.0 327663.0 246101.0 252833.0 71127.0 63125.0 180687.0 188753.0 189892.0 189225.0 334467.0 327315.0 293735.0 286341.0 287241.0 295263.0 0.0 8065.0 256414.0 249036.0 241905.0 234611.0 275735.0 283700.0 312643.0 304884.0 199066.0 206528.0 295123.0 299761.0 56284.0 63761.0 237256.0 241234.0 248656.0 255897.0 88254.0 82487.0 292091.0 299039.0 268161.0 260896.0 169509.0 176671.0 309022.0 303947.0 115168.0 123593.0 327087.0 328269.0 6004.0 5370.0 214454.0 221775.0 269783.0 116178.0 269783.0 269783.0 269783.0 269783.0 269783.0 269783.0 269783.0 116178.0 116178.0 116178.0 116178.0 116178.0 116178.0 116178.0
91195.0 94124.0 285059.0 291892.0 130673.0 130639.0 129278.0 130851.0 250680.0 248870.0 191814.0 199739.0 232672.0 235502.0 85358.0 84499.0 281416.0 278765.0 249503.0 256193.0 55362.0 61675.0 253728.0 245968.0 283984.0 279260.0 326701.0 320848.0 238045.0 244771.0 79010.0 71022.0 173532.0 181657.0 183548.0 183098.0 329486.0 322426.0 288164.0 280845.0 280412.0 288411.0 8065.0 0.0 249036.0 241693.0 235664.0 228451.0 268533.0 276490.0 307258.0 299545.0 192013.0 199525.0 290535.0 295192.0 48986.0 56284.0 230852.0 234975.0 240748.0 248012.0 96259.0 90537.0 284762.0 291754.0 261618.0 254291.0 162421.0 169509.0 303203.0 298009.0 107846.0 116256.0 321552.0 322588.0 5370.0 12310.0 208470.0 215709.0 265195.0 112592.0 265195.0 265195.0 265195.0 265195.0 265195.0 265195.0 265195.0 112592.0 112592.0 112592.0 112592.0 112592.0 112592.0 112592.0
317315.0 323904.0 120434.0 120196.0 122833.0 120413.0 142023.0 137695.0 23531.0 31411.0 83168.0 78010.0 37521.0 29556.0 164528.0 164562.0 157774.0 162162.0 57481.0 62865.0 195820.0 188442.0 64906.0 66009.0 145614.0 148662.0 90959.0 83200.0 114036.0 110436.0 326592.0 318604.0 76816.0 69676.0 85360.0 91768.0 161167.0 160021.0 112466.0 112106.0 49815.0 54506.0 256414.0 249036.0 0.0 7844.0 67628.0 72134.0 23636.0 30310.0 130932.0 128253.0 60624.0 54927.0 159351.0 156170.0 200130.0 192757.0 60629.0 66892.0 54625.0 51328.0 335312.0 332041.0 35929.0 43350.0 55283.0 50028.0 88367.0 80683.0 110358.0 102036.0 141254.0 132825.0 134088.0 128943.0 250721.0 258151.0 84259.0 78855.0 159981.0 180349.0 159981.0 159981.0 159981.0 159981.0 159981.0 159981.0 159981.0 180349.0 180349.0 180349.0 180349.0 180349.0 180349.0 180349.0
309548.0 316153.0 123930.0 124151.0 115096.0 112775.0 134184.0 129853.0 27405.0 34453.0 75786.0 70866.0 37039.0 29228.0 157038.0 157199.0 154485.0 158571.0 54444.0 60513.0 188305.0 180966.0 62188.0 62387.0 142821.0 145518.0 95488.0 87919.0 114500.0 111422.0 319110.0 311126.0 69146.0 61912.0 77731.0 84250.0 160615.0 159058.0 111144.0 110220.0 52325.0 57879.0 249036.0 241693.0 7844.0 0.0 62938.0 66817.0 28748.0 36135.0 130243.0 127110.0 52792.0 47092.0 156517.0 153699.0 192757.0 185429.0 55412.0 62134.0 55894.0 53668.0 327638.0 324405.0 43077.0 50243.0 54028.0 47922.0 80683.0 73038.0 110439.0 102136.0 133868.0 125447.0 134350.0 129597.0 243323.0 250721.0 77721.0 72671.0 155476.0 172526.0 155476.0 155476.0 155476.0 155476.0 155476.0 155476.0 155476.0 172526.0 172526.0 172526.0 172526.0 172526.0 172526.0 172526.0
288817.0 295670.0 186654.0 187061.0 106231.0 108386.0 109733.0 106888.0 90315.0 97308.0 43853.0 35930.0 96505.0 89692.0 152004.0 155351.0 93287.0 96623.0 17385.0 21545.0 180330.0 174509.0 18495.0 10452.0 83398.0 84849.0 95864.0 91922.0 172426.0 170647.0 307491.0 299818.0 74821.0 66896.0 52246.0 52832.0 111706.0 107822.0 61324.0 56945.0 55523.0 63216.0 241905.0 235664.0 67628.0 62938.0 0.0 8151.0 64882.0 70479.0 82529.0 76789.0 58081.0 51250.0 96681.0 95269.0 188207.0 182364.0 9017.0 1044.0 116924.0 115915.0 309793.0 308020.0 83235.0 85580.0 30329.0 26406.0 81887.0 78123.0 70622.0 64061.0 133792.0 126573.0 92698.0 91304.0 235910.0 242252.0 29453.0 21464.0 92538.0 142547.0 92538.0 92538.0 92538.0 92538.0 92538.0 92538.0 92538.0 142547.0 142547.0 142547.0 142547.0 142547.0 142547.0 142547.0
280886.0 287739.0 189773.0 190501.0 99560.0 102074.0 101960.0 99212.0 94191.0 100830.0 36752.0 28996.0 98749.0 92301.0 145189.0 148761.0 92541.0 95244.0 25430.0 29626.0 173160.0 167466.0 26468.0 18392.0 83827.0 84547.0 103979.0 100071.0 173565.0 172164.0 299859.0 292208.0 70548.0 63001.0 45442.0 45391.0 115145.0 110757.0 65539.0 60371.0 63496.0 71253.0 234611.0 228451.0 72134.0 66817.0 8151.0 0.0 71412.0 77369.0 86681.0 80466.0 54952.0 48763.0 96734.0 96016.0 181238.0 175528.0 11518.0 7961.0 119363.0 118877.0 301899.0 300181.0 90081.0 92780.0 38448.0 34177.0 76784.0 73622.0 76449.0 70307.0 127536.0 120506.0 97788.0 96924.0 228611.0 234877.0 21366.0 13402.0 89435.0 134468.0 89435.0 89435.0 89435.0 89435.0 89435.0 89435.0 89435.0 134468.0 134468.0 134468.0 134468.0 134468.0 134468.0 134468.0
333512.0 340330.0 134271.0 132786.0 140011.0 138517.0 155789.0 151765.0 41764.0 49967.0 92144.0 85580.0 59863.0 52068.0 183423.0 184096.0 147339.0 152607.0 50134.0 52845.0 214491.0 207352.0 55825.0 59714.0 133875.0 137914.0 67325.0 59569.0 134040.0 129659.0 345291.0 337340.0 95067.0 87159.0 96378.0 101567.0 143634.0 143404.0 97360.0 98469.0 28607.0 31768.0 275735.0 268533.0 23636.0 28748.0 64882.0 71412.0 0.0 7991.0 114012.0 112427.0 77126.0 70176.0 147551.0 143385.0 219548.0 212392.0 60450.0 64452.0 74480.0 69625.0 352586.0 349661.0 19238.0 24197.0 42824.0 40777.0 106369.0 99073.0 92070.0 83856.0 160747.0 152379.0 115135.0 109301.0 269950.0 277206.0 88207.0 81375.0 153652.0 193176.0 153652.0 153652.0 153652.0 153652.0 153652.0 153652.0 153652.0 193176.0 193176.0 193176.0 193176.0 193176.0 193176.0 193176.0
341446.0 348276.0 134741.0 132782.0 147999.0 146504.0 163602.0 159605.0 45604.0 53570.0 99582.0 92869.0 64956.0 57375.0 191398.0 192041.0 149768.0 155331.0 54870.0 56622.0 222474.0 215328.0 59831.0 64484.0 135881.0 140275.0 61328.0 53393.0 137266.0 132504.0 353277.0 345326.0 103043.0 95147.0 104030.0 109069.0 142958.0 143204.0 98214.0 99972.0 27444.0 28523.0 283700.0 276490.0 30310.0 36135.0 70479.0 77369.0 7991.0 0.0 113825.0 112803.0 85116.0 78152.0 149460.0 144919.0 227504.0 220336.0 66703.0 70131.0 78084.0 72621.0 360564.0 357647.0 12764.0 16450.0 46078.0 45301.0 114354.0 107046.0 91320.0 83260.0 168690.0 160317.0 113803.0 107574.0 277918.0 285182.0 94912.0 87877.0 157491.0 200878.0 157491.0 157491.0 157491.0 157491.0 157491.0 157491.0 157491.0 200878.0 200878.0 200878.0 200878.0 200878.0 200878.0 200878.0
350913.0 357766.0 248256.0 246555.0 183247.0 186847.0 177981.0 176533.0 153796.0 161988.0 121056.0 114183.0 167280.0 159457.0 227557.0 232095.0 55234.0 63189.0 79211.0 71636.0 252990.0 248251.0 71314.0 75412.0 40146.0 47712.0 84717.0 88184.0 244705.0 241347.0 373322.0 366074.0 157127.0 149358.0 130149.0 127769.0 30421.0 29401.0 21207.0 26930.0 86385.0 87043.0 312643.0 307258.0 130932.0 130243.0 82529.0 86681.0 114012.0 113825.0 0.0 8072.0 140591.0 133602.0 48726.0 41009.0 262311.0 257425.0 90935.0 83541.0 185544.0 182026.0 372053.0 370924.0 123330.0 119919.0 76261.0 83015.0 163391.0 160277.0 23386.0 30795.0 212206.0 205715.0 16455.0 22272.0 306670.0 312146.0 102081.0 96424.0 83749.0 203425.0 83749.0 83749.0 83749.0 83749.0 83749.0 83749.0 83749.0 203425.0 203425.0 203425.0 203425.0 203425.0 203425.0 203425.0
342959.0 349812.0 246648.0 245202.0 176086.0 179834.0 170272.0 168890.0 151386.0 159515.0 114186.0 107473.0 164075.0 156330.0 220181.0 224819.0 49326.0 57165.0 74848.0 67525.0 245380.0 240714.0 66850.0 70294.0 33806.0 41218.0 88136.0 90968.0 241595.0 238471.0 365365.0 358131.0 151012.0 143377.0 123282.0 120660.0 34958.0 32042.0 16121.0 20133.0 85491.0 86903.0 304884.0 299545.0 128253.0 127110.0 76789.0 80466.0 112427.0 112803.0 8072.0 0.0 134846.0 128021.0 43794.0 36630.0 254784.0 249973.0 85400.0 77817.0 182741.0 179527.0 364098.0 362970.0 122865.0 119937.0 73115.0 79420.0 156958.0 154075.0 25370.0 31382.0 205140.0 198755.0 24377.0 29482.0 298916.0 304349.0 95094.0 89693.0 76242.0 195471.0 76242.0 76242.0 76242.0 76242.0 76242.0 76242.0 76242.0 195471.0 195471.0 195471.0 195471.0 195471.0 195471.0 195471.0
256973.0 263660.0 153677.0 156356.0 62906.0 61529.0 81787.0 77343.0 71699.0 74466.0 35046.0 35615.0 64030.0 61182.0 106687.0 107927.0 145088.0 146617.0 64825.0 72661.0 137553.0 130552.0 71538.0 65743.0 137939.0 137849.0 135891.0 129546.0 127715.0 128060.0 268263.0 260326.0 19087.0 10548.0 31650.0 39549.0 169725.0 165602.0 119393.0 114910.0 89231.0 97020.0 199066.0 192013.0 60624.0 52792.0 58081.0 54952.0 77126.0 85116.0 140591.0 134846.0 0.0 7905.0 150338.0 150323.0 143087.0 136174.0 49731.0 57061.0 83234.0 86133.0 275568.0 272567.0 94609.0 100986.0 74387.0 66369.0 29618.0 23061.0 127297.0 120025.0 84738.0 76558.0 150195.0 148101.0 193228.0 200371.0 49038.0 49762.0 137159.0 120399.0 137159.0 137159.0 137159.0 137159.0 137159.0 137159.0 137159.0 120399.0 120399.0 120399.0 120399.0 120399.0 120399.0 120399.0
263481.0 270242.0 153590.0 155875.0 69923.0 68928.0 87100.0 82794.0 68010.0 71544.0 34155.0 32939.0 62607.0 58856.0 114171.0 115575.0 140063.0 141932.0 57157.0 65026.0 144911.0 137990.0 64016.0 58466.0 132329.0 132562.0 128079.0 121788.0 129911.0 129766.0 275517.0 267595.0 26973.0 18410.0 32837.0 40378.0 162951.0 159022.0 112432.0 108191.0 81434.0 89260.0 206528.0 199525.0 54927.0 47092.0 51250.0 48763.0 70176.0 78152.0 133602.0 128021.0 7905.0 0.0 144958.0 144627.0 150639.0 143789.0 42668.0 50216.0 82535.0 84724.0 282412.0 279515.0 88037.0 94196.0 66527.0 58497.0 37272.0 30926.0 119843.0 112487.0 92442.0 84305.0 142886.0 140638.0 200672.0 207764.0 45429.0 45020.0 133236.0 125451.0 133236.0 133236.0 133236.0 133236.0 133236.0 133236.0 133236.0 125451.0 125451.0 125451.0 125451.0 125451.0 125451.0 125451.0
331298.0 338151.0 279729.0 279150.0 177320.0 182646.0 163755.0 163606.0 182879.0 190611.0 121667.0 117013.0 192192.0 184951.0 217522.0 223369.0 10047.0 17005.0 102081.0 96527.0 238759.0 235338.0 94463.0 94450.0 13747.0 12650.0 131762.0 134217.0 268903.0 266822.0 353699.0 346475.0 163085.0 156791.0 130180.0 125150.0 47623.0 39084.0 53254.0 49712.0 123230.0 126218.0 295123.0 290535.0 159351.0 156517.0 96681.0 96734.0 147551.0 149460.0 48726.0 43794.0 150338.0 144958.0 0.0 8263.0 249322.0 245696.0 105620.0 97684.0 212143.0 210170.0 352437.0 351308.0 160709.0 158924.0 105164.0 109395.0 166198.0 165346.0 68903.0 73830.0 206650.0 201594.0 62922.0 70293.0 289269.0 294041.0 103052.0 100708.0 46895.0 183810.0 46895.0 46895.0 46895.0 46895.0 46895.0 46895.0 46895.0 183810.0 183810.0 183810.0 183810.0 183810.0 183810.0 183810.0
335948.0 342800.0 276337.0 275540.0 180094.0 185163.0 167807.0 167449.0 179690.0 187536.0 122929.0 117842.0 189791.0 182416.0 221117.0 226773.0 17479.0 25009.0 99308.0 93327.0 243071.0 239436.0 91512.0 92178.0 12542.0 15940.0 124766.0 127495.0 266850.0 264532.0 358349.0 351125.0 163800.0 157215.0 131631.0 126997.0 39827.0 31327.0 47503.0 44958.0 118312.0 120893.0 299761.0 295192.0 156170.0 153699.0 95269.0 96016.0 143385.0 144919.0 41009.0 36630.0 150323.0 144627.0 8263.0 0.0 253466.0 249634.0 104275.0 96293.0 209510.0 207249.0 357087.0 355958.0 155888.0 153780.0 101434.0 106143.0 167462.0 166225.0 61955.0 67344.0 209489.0 204179.0 54819.0 62296.0 293916.0 298691.0 103999.0 101047.0 53539.0 188460.0 53539.0 53539.0 53539.0 53539.0 53539.0 53539.0 53539.0 188460.0 188460.0 188460.0 188460.0 188460.0 188460.0 188460.0
127821.0 132740.0 242830.0 249233.0 82356.0 81848.0 85665.0 86298.0 202335.0 200841.0 144488.0 152318.0 184819.0 187303.0 36602.0 35570.0 240324.0 237672.0 201498.0 208372.0 12001.0 14091.0 206034.0 198398.0 241777.0 237658.0 278095.0 272136.0 197100.0 203205.0 126882.0 118866.0 124555.0 132706.0 135961.0 136155.0 285960.0 279281.0 242630.0 235593.0 231695.0 239661.0 56284.0 48986.0 200130.0 192757.0 188207.0 181238.0 219548.0 227504.0 262311.0 254784.0 143087.0 150639.0 249322.0 253466.0 0.0 8013.0 182988.0 187474.0 194015.0 201040.0 139646.0 135100.0 235817.0 242785.0 213401.0 205956.0 113480.0 120531.0 256822.0 251277.0 58889.0 67311.0 276048.0 276603.0 50621.0 58200.0 161861.0 168813.0 224102.0 80125.0 224102.0 224102.0 224102.0 224102.0 224102.0 224102.0 224102.0 80125.0 80125.0 80125.0 80125.0 80125.0 80125.0 80125.0
135771.0 140729.0 234878.0 241263.0 76222.0 75230.0 81959.0 82194.0 194642.0 193062.0 138789.0 146553.0 177001.0 179564.0 30363.0 28300.0 236833.0 234236.0 195340.0 202313.0 14422.0 11601.0 200047.0 192485.0 237821.0 233892.0 271489.0 265440.0 189233.0 195299.0 134580.0 126561.0 117512.0 125741.0 130141.0 130673.0 281526.0 274976.0 237552.0 230629.0 225007.0 232937.0 63761.0 56284.0 192757.0 185429.0 182364.0 175528.0 212392.0 220336.0 257425.0 249973.0 136174.0 143789.0 245696.0 249634.0 8013.0 0.0 176932.0 181610.0 186060.0 193106.0 147643.0 143065.0 228502.0 235523.0 207103.0 199585.0 106556.0 113480.0 251394.0 245707.0 51645.0 60027.0 270945.0 271316.0 58200.0 65887.0 156471.0 163276.0 220667.0 80081.0 220667.0 220667.0 220667.0 220667.0 220667.0 220667.0 220667.0 80081.0 80081.0 80081.0 80081.0 80081.0 80081.0 80081.0
286037.0 292889.0 178685.0 179287.0 100711.0 102358.0 106570.0 103431.0 82809.0 89557.0 39735.0 31778.0 88060.0 81409.0 146585.0 149583.0 102072.0 105235.0 18826.0 25384.0 175491.0 169440.0 23219.0 16283.0 92376.0 93722.0 98071.0 93486.0 163637.0 161966.0 303622.0 295889.0 67028.0 58906.0 47404.0 49230.0 120350.0 116619.0 69765.0 65686.0 55164.0 63185.0 237256.0 230852.0 60629.0 55412.0 9017.0 11518.0 60450.0 66703.0 90935.0 85400.0 49731.0 42668.0 105620.0 104275.0 182988.0 176932.0 0.0 7986.0 108579.0 107834.0 306807.0 304818.0 79333.0 82427.0 31667.0 25727.0 74692.0 70472.0 77971.0 71035.0 127620.0 120188.0 100549.0 98753.0 231274.0 237776.0 28952.0 21399.0 100394.0 140747.0 100394.0 100394.0 100394.0 100394.0 100394.0 100394.0 100394.0 140747.0 140747.0 140747.0 140747.0 140747.0 140747.0 140747.0
288341.0 295194.0 185805.0 186240.0 105458.0 107566.0 109200.0 106323.0 89521.0 96483.0 43179.0 35237.0 95582.0 88793.0 151249.0 154561.0 94257.0 97560.0 17468.0 21973.0 179635.0 173790.0 19016.0 11034.0 84412.0 85836.0 96223.0 92205.0 171451.0 169691.0 306903.0 299223.0 73842.0 65902.0 51514.0 52221.0 112737.0 108861.0 62338.0 57981.0 55556.0 63296.0 241234.0 234975.0 66892.0 62134.0 1044.0 7961.0 64452.0 70131.0 83541.0 77817.0 57061.0 50216.0 97684.0 96293.0 187474.0 181610.0 7986.0 0.0 116018.0 115047.0 309299.0 307503.0 82880.0 85314.0 30499.0 26318.0 80957.0 77156.0 71534.0 64933.0 132962.0 125722.0 93662.0 92230.0 235239.0 241598.0 29109.0 21117.0 93350.0 142168.0 93350.0 93350.0 93350.0 93350.0 93350.0 93350.0 93350.0 142168.0 142168.0 142168.0 142168.0 142168.0 142168.0 142168.0
319479.0 325198.0 71331.0 73343.0 131010.0 125627.0 158459.0 153685.0 32716.0 24553.0 116671.0 114583.0 20705.0 27261.0 162602.0 159968.0 209734.0 213455.0 110202.0 116406.0 192957.0 185008.0 118024.0 117734.0 198489.0 200924.0 137945.0 129825.0 59648.0 55811.0 319759.0 311768.0 89347.0 86679.0 114751.0 122557.0 215791.0 214583.0 166861.0 166104.0 102900.0 106099.0 248656.0 240748.0 54625.0 55894.0 116924.0 119363.0 74480.0 78084.0 185544.0 182741.0 83234.0 82535.0 212143.0 209510.0 194015.0 186060.0 108579.0 116018.0 0.0 8039.0 333545.0 329114.0 75592.0 83128.0 109642.0 103798.0 99079.0 91752.0 164901.0 156582.0 138700.0 130839.0 188533.0 183164.0 243507.0 251432.0 125153.0 122085.0 208797.0 196710.0 208797.0 208797.0 208797.0 208797.0 208797.0 208797.0 208797.0 196710.0 196710.0 196710.0 196710.0 196710.0 196710.0 196710.0
326073.0 331870.0 70908.0 72035.0 136437.0 131316.0 163163.0 158411.0 28257.0 20038.0 118667.0 116065.0 22142.0 26843.0 169192.0 166766.0 208127.0 212110.0 108089.0 113940.0 199731.0 191804.0 115767.0 116016.0 196465.0 199182.0 131669.0 123543.0 64648.0 60035.0 327017.0 319020.0 93697.0 90408.0 117337.0 125036.0 212135.0 211214.0 163781.0 163396.0 98211.0 100936.0 255897.0 248012.0 51328.0 53668.0 115915.0 118877.0 69625.0 72621.0 182026.0 179527.0 86133.0 84724.0 210170.0 207249.0 201040.0 193106.0 107834.0 115047.0 8039.0 0.0 340464.0 336115.0 69217.0 76581.0 106611.0 101181.0 103835.0 96329.0 160948.0 152648.0 145222.0 137261.0 184395.0 178797.0 250704.0 258608.0 126005.0 122467.0 208225.0 201614.0 208225.0 208225.0 208225.0 208225.0 208225.0 208225.0 208225.0 201614.0 201614.0 201614.0 201614.0 201614.0 201614.0 201614.0
28460.0 20951.0 380929.0 387638.0 212685.0 214922.0 200238.0 203445.0 340102.0 339254.0 267134.0 275048.0 323553.0 325472.0 172044.0 173777.0 343318.0 340667.0 325576.0 331249.0 140943.0 148788.0 328289.0 320230.0 346019.0 341162.0 404841.0 399922.0 334145.0 340763.0 32595.0 35851.0 258498.0 265859.0 260160.0 257577.0 392181.0 384848.0 354485.0 346660.0 360121.0 368283.0 88254.0 96259.0 335312.0 327638.0 309793.0 301899.0 352586.0 360564.0 372053.0 364098.0 275568.0 282412.0 352437.0 357087.0 139646.0 147643.0 306807.0 309299.0 333545.0 340464.0 0.0 8049.0 370136.0 376546.0 338459.0 331937.0 246955.0 254633.0 371356.0 367573.0 196048.0 204340.0 387287.0 389450.0 92301.0 84272.0 280666.0 288530.0 327097.0 170417.0 327097.0 327097.0 327097.0 327097.0 327097.0 327097.0 327097.0 170417.0 170417.0 170417.0 170417.0 170417.0 170417.0 170417.0
32603.0 26016.0 375532.0 382312.0 209661.0 211632.0 198322.0 201389.0 336334.0 335314.0 265099.0 273041.0 319505.0 321592.0 168231.0 169640.0 342189.0 339538.0 323618.0 329422.0 136986.0 144746.0 326511.0 318468.0 344890.0 340033.0 402768.0 397725.0 328581.0 335284.0 24611.0 27857.0 255265.0 262748.0 257956.0 255601.0 391052.0 383719.0 353356.0 345532.0 357786.0 365939.0 82487.0 90537.0 332041.0 324405.0 308020.0 300181.0 349661.0 357647.0 370924.0 362970.0 272567.0 279515.0 351308.0 355958.0 135100.0 143065.0 304818.0 307503.0 329114.0 336115.0 8049.0 0.0 367044.0 373547.0 336437.0 329806.0 243747.0 251368.0 370377.0 366435.0 192163.0 200505.0 386158.0 388321.0 86816.0 78762.0 279021.0 286842.0 325969.0 168223.0 325969.0 325969.0 325969.0 325969.0 325969.0 325969.0 325969.0 168223.0 168223.0 168223.0 168223.0 168223.0 168223.0 168223.0
351507.0 358239.0 126862.0 124314.0 157451.0 155508.0 174381.0 170278.0 44697.0 51828.0 111299.0 104798.0 65542.0 58631.0 200016.0 200265.0 161384.0 167127.0 67596.0 69126.0 231242.0 223953.0 72395.0 77206.0 147227.0 151860.0 62453.0 54327.0 133436.0 128083.0 362073.0 354097.0 111870.0 104297.0 115335.0 120676.0 151810.0 152572.0 108777.0 111051.0 37591.0 36393.0 292091.0 284762.0 35929.0 43077.0 83235.0 90081.0 19238.0 12764.0 123330.0 122865.0 94609.0 88037.0 160709.0 155888.0 235817.0 228502.0 79333.0 82880.0 75592.0 69217.0 370136.0 367044.0 0.0 7940.0 58453.0 58012.0 123338.0 115817.0 100378.0 92556.0 176928.0 168510.0 122033.0 115360.0 286368.0 293743.0 107353.0 100422.0 169876.0 212006.0 169876.0 169876.0 169876.0 169876.0 169876.0 169876.0 169876.0 212006.0 212006.0 212006.0 212006.0 212006.0 212006.0 212006.0
357631.0 364424.0 132245.0 129340.0 163890.0 162164.0 179984.0 175962.0 52560.0 59574.0 116008.0 109245.0 73460.0 66570.0 206855.0 207258.0 160085.0 166089.0 69255.0 69891.0 238025.0 230795.0 73310.0 78769.0 145596.0 150539.0 55272.0 47164.0 140521.0 134995.0 368861.0 360895.0 118576.0 110851.0 120477.0 125509.0 147804.0 148959.0 106392.0 109215.0 35906.0 33041.0 299039.0 291754.0 43350.0 50243.0 85580.0 92780.0 24197.0 16450.0 119919.0 119937.0 100986.0 94196.0 158924.0 153780.0 242785.0 235523.0 82427.0 85314.0 83128.0 76581.0 376546.0 373547.0 7940.0 0.0 59015.0 59656.0 129984.0 122551.0 96724.0 89138.0 183908.0 175503.0 117684.0 110749.0 293292.0 300623.0 110923.0 103738.0 169977.0 217317.0 169977.0 169977.0 169977.0 169977.0 169977.0 169977.0 169977.0 217317.0 217317.0 217317.0 217317.0 217317.0 217317.0 217317.0
317703.0 324556.0 174946.0 174109.0 131055.0 132021.0 138228.0 135051.0 78639.0 86664.0 71339.0 63412.0 91044.0 83255.0 176851.0 179381.0 104598.0 109788.0 13130.0 10919.0 206301.0 200038.0 14443.0 21121.0 91436.0 95213.0 66405.0 61935.0 168528.0 165357.0 335014.0 327253.0 93219.0 84674.0 78704.0 80884.0 106664.0 105034.0 57224.0 56937.0 25702.0 33062.0 268161.0 261618.0 55283.0 54028.0 30329.0 38448.0 42824.0 46078.0 76261.0 73115.0 74387.0 66527.0 105164.0 101434.0 213401.0 207103.0 31667.0 30499.0 109642.0 106611.0 338459.0 336437.0 58453.0 59015.0 0.0 8087.0 102445.0 97035.0 57367.0 49227.0 156885.0 149123.0 81356.0 77448.0 262196.0 268820.0 59463.0 51500.0 111434.0 172222.0 111434.0 111434.0 111434.0 111434.0 111434.0 111434.0 111434.0 172222.0 172222.0 172222.0 172222.0 172222.0 172222.0 172222.0
311321.0 318174.0 170335.0 169815.0 123651.0 124431.0 131797.0 128493.0 73552.0 81401.0 64866.0 57036.0 84728.0 77056.0 169379.0 171780.0 108166.0 112933.0 9610.0 12870.0 199013.0 192666.0 15306.0 19198.0 95650.0 98929.0 72989.0 68026.0 162253.0 159327.0 328059.0 320273.0 85246.0 76692.0 71872.0 74513.0 113434.0 111445.0 63368.0 62307.0 29516.0 37479.0 260896.0 254291.0 50028.0 47922.0 26406.0 34177.0 40777.0 45301.0 83015.0 79420.0 66369.0 58497.0 109395.0 106143.0 205956.0 199585.0 25727.0 26318.0 103798.0 101181.0 331937.0 329806.0 58012.0 59656.0 8087.0 0.0 94594.0 89082.0 64886.0 56843.0 149187.0 141372.0 88826.0 85161.0 254941.0 261628.0 54410.0 46587.0 112936.0 166420.0 112936.0 112936.0 112936.0 112936.0 112936.0 112936.0 112936.0 166420.0 166420.0 166420.0 166420.0 166420.0 166420.0 166420.0
229133.0 235638.0 165425.0 169342.0 34643.0 32180.0 59382.0 54612.0 95504.0 96469.0 44550.0 49980.0 82959.0 82463.0 77131.0 78317.0 159618.0 159784.0 91774.0 99334.0 108123.0 101031.0 97681.0 90957.0 154920.0 153548.0 165288.0 159051.0 132035.0 134199.0 238926.0 230972.0 11562.0 19246.0 36096.0 42083.0 191281.0 186315.0 142298.0 136825.0 118672.0 126524.0 169509.0 162421.0 88367.0 80683.0 81887.0 76784.0 106369.0 114354.0 163391.0 156958.0 29618.0 37272.0 166198.0 167462.0 113480.0 106556.0 74692.0 80957.0 99079.0 103835.0 246955.0 243747.0 123338.0 129984.0 102445.0 94594.0 0.0 7886.0 152476.0 145701.0 55172.0 47070.0 174461.0 173187.0 163687.0 170879.0 63540.0 67580.0 147836.0 97785.0 147836.0 147836.0 147836.0 147836.0 147836.0 147836.0 147836.0 97785.0 97785.0 97785.0 97785.0 97785.0 97785.0 97785.0
236944.0 243425.0 158837.0 162571.0 42499.0 39737.0 66838.0 62091.0 87621.0 88638.0 44011.0 48387.0 75283.0 74644.0 84352.0 85189.0 159142.0 159702.0 86869.0 94571.0 115476.0 108285.0 93134.0 86745.0 153698.0 152708.0 158942.0 152558.0 126678.0 128497.0 246311.0 238346.0 4035.0 12518.0 36379.0 43282.0 188652.0 183967.0 139103.0 133962.0 112277.0 120038.0 176671.0 169509.0 80683.0 73038.0 78123.0 73622.0 99073.0 107046.0 160277.0 154075.0 23061.0 30926.0 165346.0 166225.0 120531.0 113480.0 70472.0 77156.0 91752.0 96329.0 254633.0 251368.0 115817.0 122551.0 97035.0 89082.0 7886.0 0.0 148443.0 141454.0 61903.0 53643.0 170819.0 169218.0 170879.0 178137.0 62300.0 65492.0 148365.0 105378.0 148365.0 148365.0 148365.0 148365.0 148365.0 148365.0 148365.0 105378.0 105378.0 105378.0 105378.0 105378.0 105378.0 105378.0
350298.0 357151.0 226022.0 224090.0 175789.0 178507.0 174592.0 172557.0 132698.0 140944.0 112837.0 105312.0 147366.0 139446.0 221145.0 225001.0 73610.0 81202.0 63111.0 55196.0 248213.0 242902.0 55853.0 61711.0 57865.0 64844.0 62862.0 65601.0 224395.0 220675.0 372095.0 364645.0 144989.0 136801.0 121732.0 120722.0 51643.0 52242.0 19971.0 27970.0 63920.0 64001.0 309022.0 303203.0 110358.0 110439.0 70622.0 76449.0 92070.0 91320.0 23386.0 25370.0 127297.0 119843.0 68903.0 61955.0 256822.0 251394.0 77971.0 71534.0 164901.0 160948.0 371356.0 370377.0 100378.0 96724.0 57367.0 64886.0 152476.0 148443.0 0.0 8322.0 203975.0 196948.0 23998.0 20805.0 303020.0 308924.0 94961.0 88156.0 96105.0 202888.0 96105.0 96105.0 96105.0 96105.0 96105.0 96105.0 96105.0 202888.0 202888.0 202888.0 202888.0 202888.0 202888.0 202888.0
346449.0 353302.0 217903.0 216042.0 169855.0 172328.0 169837.0 167632.0 124395.0 132639.0 106950.0 99290.0 139052.0 131131.0 215400.0 219063.0 77671.0 84998.0 55505.0 47582.0 242883.0 237417.0 48486.0 54754.0 61981.0 68560.0 58587.0 60462.0 216073.0 212359.0 367674.0 360169.0 137937.0 129673.0 115738.0 115126.0 59788.0 60031.0 21723.0 28631.0 55827.0 56248.0 303947.0 298009.0 102036.0 102136.0 64061.0 70307.0 83856.0 83260.0 30795.0 31382.0 120025.0 112487.0 73830.0 67344.0 251277.0 245707.0 71035.0 64933.0 156582.0 152648.0 367573.0 366435.0 92556.0 89138.0 49227.0 56843.0 145701.0 141454.0 8322.0 0.0 197771.0 190617.0 32241.0 28383.0 297943.0 303966.0 89546.0 82464.0 97414.0 198964.0 97414.0 97414.0 97414.0 97414.0 97414.0 97414.0 97414.0 198964.0 198964.0 198964.0 198964.0 198964.0 198964.0 198964.0
180856.0 186716.0 194461.0 200049.0 29411.0 25472.0 51883.0 49188.0 144187.0 143206.0 91370.0 98700.0 127569.0 129439.0 24044.0 23354.0 198626.0 197005.0 145588.0 152850.0 55180.0 47500.0 150839.0 143580.0 197191.0 194292.0 220431.0 214223.0 152154.0 156957.0 185475.0 177472.0 65938.0 74249.0 82350.0 84484.0 238166.0 232268.0 191646.0 185279.0 173835.0 181696.0 115168.0 107846.0 141254.0 133868.0 133792.0 127536.0 160747.0 168690.0 212206.0 205140.0 84738.0 92442.0 206650.0 209489.0 58889.0 51645.0 127620.0 132962.0 138700.0 145222.0 196048.0 192163.0 176928.0 183908.0 156885.0 149187.0 55172.0 61903.0 203975.0 197771.0 0.0 8434.0 224723.0 224350.0 109467.0 116923.0 110133.0 116164.0 183483.0 75084.0 183483.0 183483.0 183483.0 183483.0 183483.0 183483.0 183483.0 75084.0 75084.0 75084.0 75084.0 75084.0 75084.0 75084.0
188892.0 194823.0 187719.0 193154.0 24618.0 19060.0 51416.0 48097.0 135830.0 134931.0 84686.0 91831.0 119369.0 121132.0 32296.0 31757.0 193780.0 192441.0 137986.0 145328.0 63539.0 55899.0 143395.0 136240.0 191808.0 189150.0 212357.0 206091.0 146171.0 150713.0 193906.0 185904.0 57677.0 66043.0 75611.0 78254.0 232068.0 226329.0 185023.0 178808.0 165732.0 173563.0 123593.0 116256.0 132825.0 125447.0 126573.0 120506.0 152379.0 160317.0 205715.0 198755.0 76558.0 84305.0 201594.0 204179.0 67311.0 60027.0 120188.0 125722.0 130839.0 137261.0 204340.0 200505.0 168510.0 175503.0 149123.0 141372.0 47070.0 53643.0 196948.0 190617.0 8434.0 0.0 217968.0 217412.0 117897.0 125357.0 103663.0 109437.0 179018.0 78498.0 179018.0 179018.0 179018.0 179018.0 179018.0 179018.0 179018.0 78498.0 78498.0 78498.0 78498.0 78498.0 78498.0 78498.0
366147.0 373000.0 248483.0 246258.0 196067.0 199273.0 192356.0 190707.0 156177.0 164436.0 133354.0 126142.0 171224.0 163290.0 240891.0 245146.0 70345.0 78341.0 86652.0 78776.0 266985.0 262028.0 79159.0 84452.0 55819.0 63430.0 76183.0 80878.0 248098.0 244250.0 388511.0 381206.0 167483.0 159444.0 142392.0 140616.0 30724.0 34118.0 33423.0 40779.0 86663.0 85767.0 327087.0 321552.0 134088.0 134350.0 92698.0 97788.0 115135.0 113803.0 16455.0 24377.0 150195.0 142886.0 62922.0 54819.0 276048.0 270945.0 100549.0 93662.0 188533.0 184395.0 387287.0 386158.0 122033.0 117684.0 81356.0 88826.0 174461.0 170819.0 23998.0 32241.0 224723.0 217968.0 0.0 8242.0 321101.0 326720.0 114768.0 108562.0 100102.0 218659.0 100102.0 100102.0 100102.0 100102.0 100102.0 100102.0 100102.0 218659.0 218659.0 218659.0 218659.0 218659.0 218659.0 218659.0
368311.0 375164.0 242055.0 239669.0 195976.0 198878.0 193611.0 191773.0 150652.0 158914.0 133065.0 125650.0 166278.0 158320.0 241138.0 245159.0 77313.0 85293.0 83818.0 75895.0 267782.0 262632.0 76635.0 82503.0 62391.0 69971.0 68065.0 72917.0 242796.0 238762.0 390489.0 383117.0 165777.0 157601.0 142025.0 140703.0 38616.0 42335.0 34976.0 42940.0 80714.0 79292.0 328269.0 322588.0 128943.0 129597.0 91304.0 96924.0 109301.0 107574.0 22272.0 29482.0 148101.0 140638.0 70293.0 62296.0 276603.0 271316.0 98753.0 92230.0 183164.0 178797.0 389450.0 388321.0 115360.0 110749.0 77448.0 85161.0 173187.0 169218.0 20805.0 28383.0 224350.0 217412.0 8242.0 0.0 322273.0 328035.0 114862.0 108301.0 105724.0 220823.0 105724.0 105724.0 105724.0 105724.0 105724.0 105724.0 105724.0 220823.0 220823.0 220823.0 220823.0 220823.0 220823.0 220823.0
86327.0 89458.0 288722.0 295495.0 131460.0 131744.0 128746.0 130505.0 252834.0 251181.0 192060.0 200009.0 235054.0 237730.0 86555.0 86183.0 280150.0 277499.0 249977.0 256577.0 55953.0 62682.0 254056.0 246250.0 282812.0 277978.0 327508.0 321748.0 241850.0 248500.0 76439.0 68423.0 174891.0 182932.0 183906.0 183224.0 328548.0 321410.0 287746.0 280357.0 281330.0 289358.0 6004.0 5370.0 250721.0 243323.0 235910.0 228611.0 269950.0 277918.0 306670.0 298916.0 193228.0 200672.0 289269.0 293916.0 50621.0 58200.0 231274.0 235239.0 243507.0 250704.0 92301.0 86816.0 286368.0 293292.0 262196.0 254941.0 163687.0 170879.0 303020.0 297943.0 109467.0 117897.0 321101.0 322273.0 0.0 8055.0 208450.0 215772.0 263929.0 110557.0 263929.0 263929.0 263929.0 263929.0 263929.0 263929.0 263929.0 110557.0 110557.0 110557.0 110557.0 110557.0 110557.0 110557.0
78936.0 81813.0 296775.0 303550.0 138331.0 138850.0 134424.0 136370.0 260519.0 258938.0 198427.0 206393.0 242843.0 245451.0 93785.0 93702.0 284922.0 282271.0 256517.0 263034.0 62869.0 69855.0 260465.0 252621.0 287619.0 282766.0 334305.0 328620.0 249890.0 256548.0 68694.0 60676.0 182139.0 190121.0 190378.0 189487.0 333617.0 326390.0 293411.0 285951.0 288225.0 296274.0 5370.0 12310.0 258151.0 250721.0 242252.0 234877.0 277206.0 285182.0 312146.0 304349.0 200371.0 207764.0 294041.0 298691.0 58200.0 65887.0 237776.0 241598.0 251432.0 258608.0 84272.0 78762.0 293743.0 300623.0 268820.0 261628.0 170879.0 178137.0 308924.0 303966.0 116923.0 125357.0 326720.0 328035.0 8055.0 0.0 214557.0 221954.0 268701.0 114448.0 268701.0 268701.0 268701.0 268701.0 268701.0 268701.0 268701.0 114448.0 114448.0 114448.0 114448.0 114448.0 114448.0 114448.0
259615.0 266468.0 196457.0 198020.0 81307.0 84767.0 80983.0 78436.0 104144.0 109747.0 19278.0 14001.0 104535.0 99189.0 126276.0 130387.0 97024.0 98015.0 46338.0 50984.0 153342.0 147948.0 47830.0 39756.0 91461.0 90419.0 125317.0 121297.0 175212.0 174812.0 279026.0 271417.0 60059.0 54114.0 28320.0 25859.0 128667.0 123286.0 81553.0 75160.0 83926.0 91858.0 214454.0 208470.0 84259.0 77721.0 29453.0 21366.0 88207.0 94912.0 102081.0 95094.0 49038.0 45429.0 103052.0 103999.0 161861.0 156471.0 28952.0 29109.0 125153.0 126005.0 280666.0 279021.0 107353.0 110923.0 59463.0 54410.0 63540.0 62300.0 94961.0 89546.0 110133.0 103663.0 114768.0 114862.0 208450.0 214557.0 0.0 7992.0 88120.0 113104.0 88120.0 88120.0 88120.0 88120.0 88120.0 88120.0 88120.0 113104.0 113104.0 113104.0 113104.0 113104.0 113104.0 113104.0
267503.0 274355.0 193216.0 194484.0 87677.0 90711.0 88690.0 86032.0 99553.0 105531.0 24796.0 17781.0 101388.0 95628.0 133001.0 136872.0 95326.0 96958.0 38382.0 43001.0 160494.0 154960.0 39869.0 31793.0 88571.0 88168.0 117326.0 113311.0 173768.0 172999.0 286675.0 279045.0 62871.0 56170.0 33833.0 32666.0 123763.0 118735.0 75604.0 69608.0 76095.0 83990.0 221775.0 215709.0 78855.0 72671.0 21464.0 13402.0 81375.0 87877.0 96424.0 89693.0 49762.0 45020.0 100708.0 101047.0 168813.0 163276.0 21399.0 21117.0 122085.0 122467.0 288530.0 286842.0 100422.0 103738.0 51500.0 46587.0 67580.0 65492.0 88156.0 82464.0 116164.0 109437.0 108562.0 108301.0 215772.0 221954.0 7992.0 0.0 88461.0 121085.0 88461.0 88461.0 88461.0 88461.0 88461.0 88461.0 88461.0 121085.0 121085.0 121085.0 121085.0 121085.0 121085.0 121085.0
305958.0 312811.0 279075.0 279587.0 154464.0 160365.0 138719.0 138832.0 182844.0 189830.0 104539.0 101763.0 188170.0 181724.0 192960.0 199086.0 36893.0 31861.0 103862.0 100912.0 213451.0 210164.0 97835.0 94554.0 45843.0 38771.0 154576.0 154719.0 262112.0 261115.0 328359.0 321135.0 146755.0 141709.0 112043.0 105770.0 92852.0 84514.0 76270.0 68795.0 134550.0 139846.0 269783.0 265195.0 159981.0 155476.0 92538.0 89435.0 153652.0 157491.0 83749.0 76242.0 137159.0 133236.0 46895.0 53539.0 224102.0 220667.0 100394.0 93350.0 208797.0 208225.0 327097.0 325969.0 169876.0 169977.0 111434.0 112936.0 147836.0 148365.0 96105.0 97414.0 183483.0 179018.0 100102.0 105724.0 263929.0 268701.0 88120.0 88461.0 0.0 158470.0 0.0 0.0 0.0 0.0 0.0 0.0 0.0 158470.0 158470.0 158470.0 158470.0 158470.0 158470.0 158470.0
149265.0 156118.0 260732.0 265317.0 66901.0 73696.0 38758.0 43398.0 191700.0 193544.0 102177.0 109679.0 180652.0 179673.0 64459.0 72531.0 174691.0 172040.0 159119.0 164086.0 68145.0 68493.0 160920.0 152851.0 177392.0 172534.0 238386.0 234156.0 222342.0 226086.0 171494.0 164411.0 108273.0 113029.0 96878.0 92464.0 223554.0 216221.0 185857.0 178033.0 195588.0 203707.0 116178.0 112592.0 180349.0 172526.0 142547.0 134468.0 193176.0 200878.0 203425.0 195471.0 120399.0 125451.0 183810.0 188460.0 80125.0 80081.0 140747.0 142168.0 196710.0 201614.0 170417.0 168223.0 212006.0 217317.0 172222.0 166420.0 97785.0 105378.0 202888.0 198964.0 75084.0 78498.0 218659.0 220823.0 110557.0 114448.0 113104.0 121085.0 158470.0 0.0 158470.0 158470.0 158470.0 158470.0 158470.0 158470.0 158470.0 0.0 0.0 0.0 0.0 0.0 0.0 0.0
305958.0 312811.0 279075.0 279587.0 154464.0 160365.0 138719.0 138832.0 182844.0 189830.0 104539.0 101763.0 188170.0 181724.0 192960.0 199086.0 36893.0 31861.0 103862.0 100912.0 213451.0 210164.0 97835.0 94554.0 45843.0 38771.0 154576.0 154719.0 262112.0 261115.0 328359.0 321135.0 146755.0 141709.0 112043.0 105770.0 92852.0 84514.0 76270.0 68795.0 134550.0 139846.0 269783.0 265195.0 159981.0 155476.0 92538.0 89435.0 153652.0 157491.0 83749.0 76242.0 137159.0 133236.0 46895.0 53539.0 224102.0 220667.0 100394.0 93350.0 208797.0 208225.0 327097.0 325969.0 169876.0 169977.0 111434.0 112936.0 147836.0 148365.0 96105.0 97414.0 183483.0 179018.0 100102.0 105724.0 263929.0 268701.0 88120.0 88461.0 0.0 158470.0 0.0 0.0 0.0 0.0 0.0 0.0 0.0 158470.0 158470.0 158470.0 158470.0 158470.0 158470.0 158470.0
305958.0 312811.0 279075.0 279587.0 154464.0 160365.0 138719.0 138832.0 182844.0 189830.0 104539.0 101763.0 188170.0 181724.0 192960.0 199086.0 36893.0 31861.0 103862.0 100912.0 213451.0 210164.0 97835.0 94554.0 45843.0 38771.0 154576.0 154719.0 262112.0 261115.0 328359.0 321135.0 146755.0 141709.0 112043.0 105770.0 92852.0 84514.0 76270.0 68795.0 134550.0 139846.0 269783.0 265195.0 159981.0 155476.0 92538.0 89435.0 153652.0 157491.0 83749.0 76242.0 137159.0 133236.0 46895.0 53539.0 224102.0 220667.0 100394.0 93350.0 208797.0 208225.0 327097.0 325969.0 169876.0 169977.0 111434.0 112936.0 147836.0 148365.0 96105.0 97414.0 183483.0 179018.0 100102.0 105724.0 263929.0 268701.0 88120.0 88461.0 0.0 158470.0 0.0 0.0 0.0 0.0 0.0 0.0 0.0 158470.0 158470.0 158470.0 158470.0 158470.0 158470.0 158470.0
305958.0 312811.0 279075.0 279587.0 154464.0 160365.0 138719.0 138832.0 182844.0 189830.0 104539.0 101763.0 188170.0 181724.0 192960.0 199086.0 36893.0 31861.0 103862.0 100912.0 213451.0 210164.0 97835.0 94554.0 45843.0 38771.0 154576.0 154719.0 262112.0 261115.0 328359.0 321135.0 146755.0 141709.0 112043.0 105770.0 92852.0 84514.0 76270.0 68795.0 134550.0 139846.0 269783.0 265195.0 159981.0 155476.0 92538.0 89435.0 153652.0 157491.0 83749.0 76242.0 137159.0 133236.0 46895.0 53539.0 224102.0 220667.0 100394.0 93350.0 208797.0 208225.0 327097.0 325969.0 169876.0 169977.0 111434.0 112936.0 147836.0 148365.0 96105.0 97414.0 183483.0 179018.0 100102.0 105724.0 263929.0 268701.0 88120.0 88461.0 0.0 158470.0 0.0 0.0 0.0 0.0 0.0 0.0 0.0 158470.0 158470.0 158470.0 158470.0 158470.0 158470.0 158470.0
305958.0 312811.0 279075.0 279587.0 154464.0 160365.0 138719.0 138832.0 182844.0 189830.0 104539.0 101763.0 188170.0 181724.0 192960.0 199086.0 36893.0 31861.0 103862.0 100912.0 213451.0 210164.0 97835.0 94554.0 45843.0 38771.0 154576.0 154719.0 262112.0 261115.0 328359.0 321135.0 146755.0 141709.0 112043.0 105770.0 92852.0 84514.0 76270.0 68795.0 134550.0 139846.0 269783.0 265195.0 159981.0 155476.0 92538.0 89435.0 153652.0 157491.0 83749.0 76242.0 137159.0 133236.0 46895.0 53539.0 224102.0 220667.0 100394.0 93350.0 208797.0 208225.0 327097.0 325969.0 169876.0 169977.0 111434.0 112936.0 147836.0 148365.0 96105.0 97414.0 183483.0 179018.0 100102.0 105724.0 263929.0 268701.0 88120.0 88461.0 0.0 158470.0 0.0 0.0 0.0 0.0 0.0 0.0 0.0 158470.0 158470.0 158470.0 158470.0 158470.0 158470.0 158470.0
305958.0 312811.0 279075.0 279587.0 154464.0 160365.0 138719.0 138832.0 182844.0 189830.0 104539.0 101763.0 188170.0 181724.0 192960.0 199086.0 36893.0 31861.0 103862.0 100912.0 213451.0 210164.0 97835.0 94554.0 45843.0 38771.0 154576.0 154719.0 262112.0 261115.0 328359.0 321135.0 146755.0 141709.0 112043.0 105770.0 92852.0 84514.0 76270.0 68795.0 134550.0 139846.0 269783.0 265195.0 159981.0 155476.0 92538.0 89435.0 153652.0 157491.0 83749.0 76242.0 137159.0 133236.0 46895.0 53539.0 224102.0 220667.0 100394.0 93350.0 208797.0 208225.0 327097.0 325969.0 169876.0 169977.0 111434.0 112936.0 147836.0 148365.0 96105.0 97414.0 183483.0 179018.0 100102.0 105724.0 263929.0 268701.0 88120.0 88461.0 0.0 158470.0 0.0 0.0 0.0 0.0 0.0 0.0 0.0 158470.0 158470.0 158470.0 158470.0 158470.0 158470.0 158470.0
305958.0 312811.0 279075.0 279587.0 154464.0 160365.0 138719.0 138832.0 182844.0 189830.0 104539.0 101763.0 188170.0 181724.0 192960.0 199086.0 36893.0 31861.0 103862.0 100912.0 213451.0 210164.0 97835.0 94554.0 45843.0 38771.0 154576.0 154719.0 262112.0 261115.0 328359.0 321135.0 146755.0 141709.0 112043.0 105770.0 92852.0 84514.0 76270.0 68795.0 134550.0 139846.0 269783.0 265195.0 159981.0 155476.0 92538.0 89435.0 153652.0 157491.0 83749.0 76242.0 137159.0 133236.0 46895.0 53539.0 224102.0 220667.0 100394.0 93350.0 208797.0 208225.0 327097.0 325969.0 169876.0 169977.0 111434.0 112936.0 147836.0 148365.0 96105.0 97414.0 183483.0 179018.0 100102.0 105724.0 263929.0 268701.0 88120.0 88461.0 0.0 158470.0 0.0 0.0 0.0 0.0 0.0 0.0 0.0 158470.0 158470.0 158470.0 158470.0 158470.0 158470.0 158470.0
305958.0 312811.0 279075.0 279587.0 154464.0 160365.0 138719.0 138832.0 182844.0 189830.0 104539.0 101763.0 188170.0 181724.0 192960.0 199086.0 36893.0 31861.0 103862.0 100912.0 213451.0 210164.0 97835.0 94554.0 45843.0 38771.0 154576.0 154719.0 262112.0 261115.0 328359.0 321135.0 146755.0 141709.0 112043.0 105770.0 92852.0 84514.0 76270.0 68795.0 134550.0 139846.0 269783.0 265195.0 159981.0 155476.0 92538.0 89435.0 153652.0 157491.0 83749.0 76242.0 137159.0 133236.0 46895.0 53539.0 224102.0 220667.0 100394.0 93350.0 208797.0 208225.0 327097.0 325969.0 169876.0 169977.0 111434.0 112936.0 147836.0 148365.0 96105.0 97414.0 183483.0 179018.0 100102.0 105724.0 263929.0 268701.0 88120.0 88461.0 0.0 158470.0 0.0 0.0 0.0 0.0 0.0 0.0 0.0 158470.0 158470.0 158470.0 158470.0 158470.0 158470.0 158470.0
149265.0 156118.0 260732.0 265317.0 66901.0 73696.0 38758.0 43398.0 191700.0 193544.0 102177.0 109679.0 180652.0 179673.0 64459.0 72531.0 174691.0 172040.0 159119.0 164086.0 68145.0 68493.0 160920.0 152851.0 177392.0 172534.0 238386.0 234156.0 222342.0 226086.0 171494.0 164411.0 108273.0 113029.0 96878.0 92464.0 223554.0 216221.0 185857.0 178033.0 195588.0 203707.0 116178.0 112592.0 180349.0 172526.0 142547.0 134468.0 193176.0 200878.0 203425.0 195471.0 120399.0 125451.0 183810.0 188460.0 80125.0 80081.0 140747.0 142168.0 196710.0 201614.0 170417.0 168223.0 212006.0 217317.0 172222.0 166420.0 97785.0 105378.0 202888.0 198964.0 75084.0 78498.0 218659.0 220823.0 110557.0 114448.0 113104.0 121085.0 158470.0 0.0 158470.0 158470.0 158470.0 158470.0 158470.0 158470.0 158470.0 0.0 0.0 0.0 0.0 0.0 0.0 0.0
149265.0 156118.0 260732.0 265317.0 66901.0 73696.0 38758.0 43398.0 191700.0 193544.0 102177.0 109679.0 180652.0 179673.0 64459.0 72531.0 174691.0 172040.0 159119.0 164086.0 68145.0 68493.0 160920.0 152851.0 177392.0 172534.0 238386.0 234156.0 222342.0 226086.0 171494.0 164411.0 108273.0 113029.0 96878.0 92464.0 223554.0 216221.0 185857.0 178033.0 195588.0 203707.0 116178.0 112592.0 180349.0 172526.0 142547.0 134468.0 193176.0 200878.0 203425.0 195471.0 120399.0 125451.0 183810.0 188460.0 80125.0 80081.0 140747.0 142168.0 196710.0 201614.0 170417.0 168223.0 212006.0 217317.0 172222.0 166420.0 97785.0 105378.0 202888.0 198964.0 75084.0 78498.0 218659.0 220823.0 110557.0 114448.0 113104.0 121085.0 158470.0 0.0 158470.0 158470.0 158470.0 158470.0 158470.0 158470.0 158470.0 0.0 0.0 0.0 0.0 0.0 0.0 0.0
149265.0 156118.0 260732.0 265317.0 66901.0 73696.0 38758.0 43398.0 191700.0 193544.0 102177.0 109679.0 180652.0 179673.0 64459.0 72531.0 174691.0 172040.0 159119.0 164086.0 68145.0 68493.0 160920.0 152851.0 177392.0 172534.0 238386.0 234156.0 222342.0 226086.0 171494.0 164411.0 108273.0 113029.0 96878.0 92464.0 223554.0 216221.0 185857.0 178033.0 195588.0 203707.0 116178.0 112592.0 180349.0 172526.0 142547.0 134468.0 193176.0 200878.0 203425.0 195471.0 120399.0 125451.0 183810.0 188460.0 80125.0 80081.0 140747.0 142168.0 196710.0 201614.0 170417.0 168223.0 212006.0 217317.0 172222.0 166420.0 97785.0 105378.0 202888.0 198964.0 75084.0 78498.0 218659.0 220823.0 110557.0 114448.0 113104.0 121085.0 158470.0 0.0 158470.0 158470.0 158470.0 158470.0 158470.0 158470.0 158470.0 0.0 0.0 0.0 0.0 0.0 0.0 0.0
149265.0 156118.0 260732.0 265317.0 66901.0 73696.0 38758.0 43398.0 191700.0 193544.0 102177.0 109679.0 180652.0 179673.0 64459.0 72531.0 174691.0 172040.0 159119.0 164086.0 68145.0 68493.0 160920.0 152851.0 177392.0 172534.0 238386.0 234156.0 222342.0 226086.0 171494.0 164411.0 108273.0 113029.0 96878.0 92464.0 223554.0 216221.0 185857.0 178033.0 195588.0 203707.0 116178.0 112592.0 180349.0 172526.0 142547.0 134468.0 193176.0 200878.0 203425.0 195471.0 120399.0 125451.0 183810.0 188460.0 80125.0 80081.0 140747.0 142168.0 196710.0 201614.0 170417.0 168223.0 212006.0 217317.0 172222.0 166420.0 97785.0 105378.0 202888.0 198964.0 75084.0 78498.0 218659.0 220823.0 110557.0 114448.0 113104.0 121085.0 158470.0 0.0 158470.0 158470.0 158470.0 158470.0 158470.0 158470.0 158470.0 0.0 0.0 0.0 0.0 0.0 0.0 0.0
149265.0 156118.0 260732.0 265317.0 66901.0 73696.0 38758.0 43398.0 191700.0 193544.0 102177.0 109679.0 180652.0 179673.0 64459.0 72531.0 174691.0 172040.0 159119.0 164086.0 68145.0 68493.0 160920.0 152851.0 177392.0 172534.0 238386.0 234156.0 222342.0 226086.0 171494.0 164411.0 108273.0 113029.0 96878.0 92464.0 223554.0 216221.0 185857.0 178033.0 195588.0 203707.0 116178.0 112592.0 180349.0 172526.0 142547.0 134468.0 193176.0 200878.0 203425.0 195471.0 120399.0 125451.0 183810.0 188460.0 80125.0 80081.0 140747.0 142168.0 196710.0 201614.0 170417.0 168223.0 212006.0 217317.0 172222.0 166420.0 97785.0 105378.0 202888.0 198964.0 75084.0 78498.0 218659.0 220823.0 110557.0 114448.0 113104.0 121085.0 158470.0 0.0 158470.0 158470.0 158470.0 158470.0 158470.0 158470.0 158470.0 0.0 0.0 0.0 0.0 0.0 0.0 0.0
149265.0 156118.0 260732.0 265317.0 66901.0 73696.0 38758.0 43398.0 191700.0 193544.0 102177.0 109679.0 180652.0 179673.0 64459.0 72531.0 174691.0 172040.0 159119.0 164086.0 68145.0 68493.0 160920.0 152851.0 177392.0 172534.0 238386.0 234156.0 222342.0 226086.0 171494.0 164411.0 108273.0 113029.0 96878.0 92464.0 223554.0 216221.0 185857.0 178033.0 195588.0 203707.0 116178.0 112592.0 180349.0 172526.0 142547.0 134468.0 193176.0 200878.0 203425.0 195471.0 120399.0 125451.0 183810.0 188460.0 80125.0 80081.0 140747.0 142168.0 196710.0 201614.0 170417.0 168223.0 212006.0 217317.0 172222.0 166420.0 97785.0 105378.0 202888.0 198964.0 75084.0 78498.0 218659.0 220823.0 110557.0 114448.0 113104.0 121085.0 158470.0 0.0 158470.0 158470.0 158470.0 158470.0 158470.0 158470.0 158470.0 0.0 0.0 0.0 0.0 0.0 0.0 0.0
149265.0 156118.0 260732.0 265317.0 66901.0 73696.0 38758.0 43398.0 191700.0 193544.0 102177.0 109679.0 180652.0 179673.0 64459.0 72531.0 174691.0 172040.0 159119.0 164086.0 68145.0 68493.0 160920.0 152851.0 177392.0 172534.0 238386.0 234156.0 222342.0 226086.0 171494.0 164411.0 108273.0 113029.0 96878.0 92464.0 223554.0 216221.0 185857.0 178033.0 195588.0 203707.0 116178.0 112592.0 180349.0 172526.0 142547.0 134468.0 193176.0 200878.0 203425.0 195471.0 120399.0 125451.0 183810.0 188460.0 80125.0 80081.0 140747.0 142168.0 196710.0 201614.0 170417.0 168223.0 212006.0 217317.0 172222.0 166420.0 97785.0 105378.0 202888.0 198964.0 75084.0 78498.0 218659.0 220823.0 110557.0 114448.0 113104.0 121085.0 158470.0 0.0 158470.0 158470.0 158470.0 158470.0 158470.0 158470.0 158470.0 0.0 0.0 0.0 0.0 0.0 0.0 0.0
FIXED_EDGES_SECTION
1 2
3 4
5 6
7 8
9 10
11 12
13 14
15 16
17 18
19 20
21 22
23 24
25 26
27 28
29 30
31 32
33 34
35 36
37 38
39 40
41 42
43 44
45 46
47 48
49 50
51 52
53 54
55 56
57 58
59 60
61 62
63 64
65 66
67 68
69 70
71 72
73 74
75 76
77 78
79 80
-1 
DEMAND_SECTION
1 280
2 280
3 138
4 138
5 342
6 342
7 399
8 399
9 74
10 74
11 432
12 432
13 180
14 180
15 84
16 84
17 97
18 97
19 353
20 353
21 319
22 319
23 293
24 293
25 341
26 341
27 497
28 497
29 234
30 234
31 229
32 229
33 271
34 271
35 214
36 214
37 251
38 251
39 493
40 493
41 247
42 247
43 268
44 268
45 82
46 82
47 171
48 171
49 90
50 90
51 379
52 379
53 90
54 90
55 292
56 292
57 336
58 336
59 119
60 119
61 157
62 157
63 491
64 491
65 224
66 224
67 583
68 583
69 291
70 291
71 375
72 375
73 68
74 68
75 500
76 500
77 350
78 350
79 56
80 56
81 0
82 0
83 0
84 0
85 0
86 0
87 0
88 0
89 0
90 0
91 0
92 0
93 0
94 0
95 0
96 0
DEPOT_SECTION
81 
-1 
CAPACITIES_SECTION
2500 
2750 
3000 
3250 
-1 
EOF