NAME: GFS_20_1
TYPE: GFSP
DIMENSION: 98
VEHICLES: 4
CAPACITY: 2500.0
TRIP_DIST_LIMIT: 750000.0
TOTAL_DIST_LIMIT: 1050000.0
EDGE_WEIGHT_TYPE: EXPLICIT
EDGE_WEIGHT_FORMAT: FULL_MATRIX
EDGE_WEIGHT_SECTION
0.0 7971.0 65220.0 57626.0 82959.0 75283.0 197655.0 196053.0 174554.0 172336.0 77528.0 74762.0 107881.0 113204.0 20705.0 22142.0 47826.0 55781.0 189539.0 193110.0 148656.0 153103.0 99004.0 92699.0 178340.0 171725.0 172890.0 168917.0 29028.0 35117.0 222307.0 224740.0 191228.0 197558.0 301820.0 293792.0 142036.0 137316.0 323553.0 319505.0 240665.0 238605.0 96609.0 94201.0 119321.0 111684.0 35191.0 35575.0 167280.0 164075.0 151612.0 149867.0 96505.0 98749.0 91044.0 84728.0 157629.0 156782.0 80395.0 86380.0 184819.0 177001.0 194985.0 191779.0 72108.0 69772.0 162266.0 154909.0 92043.0 91971.0 103660.0 111932.0 165532.0 168045.0 65852.0 65403.0 86430.0 91985.0 87257.0 91519.0 188170.0 180652.0 188170.0 188170.0 188170.0 188170.0 188170.0 188170.0 188170.0 188170.0 180652.0 180652.0 180652.0 180652.0 180652.0 180652.0 180652.0 180652.0
7971.0 0.0 58067.0 50687.0 82463.0 74644.0 189817.0 188285.0 167308.0 164947.0 85273.0 82289.0 104429.0 109347.0 27261.0 26843.0 39868.0 47847.0 182480.0 186197.0 141367.0 145976.0 99716.0 93025.0 170758.0 164083.0 165030.0 161009.0 26868.0 31551.0 222456.0 225163.0 183316.0 189625.0 304526.0 296454.0 140941.0 136275.0 325472.0 321592.0 241732.0 239941.0 92422.0 89480.0 111358.0 103730.0 30990.0 29860.0 159457.0 156330.0 153429.0 152087.0 89692.0 92301.0 83255.0 77056.0 158346.0 157902.0 79010.0 85541.0 187303.0 179564.0 197135.0 194197.0 66378.0 64686.0 155351.0 148079.0 91150.0 90353.0 100694.0 108801.0 158400.0 160759.0 60338.0 59203.0 84839.0 89815.0 79316.0 83659.0 181724.0 179673.0 181724.0 181724.0 181724.0 181724.0 181724.0 181724.0 181724.0 181724.0 179673.0 179673.0 179673.0 179673.0 179673.0 179673.0 179673.0 179673.0
65220.0 58067.0 0.0 8186.0 120539.0 113078.0 148881.0 149494.0 140314.0 135545.0 134643.0 129473.0 123118.0 124477.0 76280.0 70179.0 27238.0 22548.0 157670.0 163364.0 115485.0 122461.0 141435.0 133633.0 137163.0 129490.0 124223.0 118414.0 47741.0 40478.0 256445.0 260573.0 139774.0 144832.0 350091.0 341888.0 171041.0 166971.0 367200.0 364163.0 280190.0 279779.0 107650.0 101081.0 67971.0 62378.0 37885.0 32177.0 120200.0 119576.0 197361.0 197734.0 79240.0 86106.0 54524.0 54013.0 197116.0 198595.0 113396.0 121676.0 233266.0 225995.0 241499.0 239761.0 75405.0 79796.0 134385.0 128915.0 126382.0 122014.0 123137.0 129134.0 133862.0 133469.0 73555.0 66582.0 117367.0 118537.0 34148.0 33507.0 165956.0 208560.0 165956.0 165956.0 165956.0 165956.0 165956.0 165956.0 165956.0 165956.0 208560.0 208560.0 208560.0 208560.0 208560.0 208560.0 208560.0 208560.0
57626.0 50687.0 8186.0 0.0 116836.0 109229.0 156104.0 156490.0 145862.0 141368.0 126457.0 121302.0 122191.0 124071.0 68149.0 61999.0 24330.0 22106.0 163041.0 168516.0 120694.0 127418.0 137393.0 129695.0 143512.0 135919.0 131349.0 125712.0 39572.0 32380.0 254109.0 258024.0 147237.0 152426.0 345957.0 337770.0 168947.0 164762.0 363769.0 360581.0 277192.0 276552.0 106953.0 100760.0 75023.0 69068.0 29741.0 24017.0 127132.0 126210.0 193247.0 193330.0 81578.0 87998.0 58946.0 57409.0 193838.0 195016.0 110120.0 118265.0 228897.0 221528.0 237428.0 235477.0 74669.0 78361.0 139106.0 133347.0 123156.0 119242.0 121681.0 128057.0 139049.0 139010.0 72131.0 65663.0 114410.0 116132.0 40765.0 41016.0 170149.0 206844.0 170149.0 170149.0 170149.0 170149.0 170149.0 170149.0 170149.0 170149.0 206844.0 206844.0 206844.0 206844.0 206844.0 206844.0 206844.0 206844.0
82959.0 82463.0 120539.0 116836.0 0.0 7886.0 191281.0 186315.0 150650.0 152398.0 132035.0 134199.0 42895.0 50909.0 99079.0 103835.0 93302.0 98939.0 159618.0 159784.0 129659.0 129496.0 21597.0 13601.0 163427.0 159658.0 170399.0 170152.0 109108.0 112479.0 140161.0 143167.0 190346.0 198050.0 229697.0 221480.0 59382.0 54612.0 246955.0 243747.0 160954.0 159937.0 44550.0 49980.0 134634.0 127100.0 111055.0 106677.0 163391.0 156958.0 77131.0 78317.0 81887.0 76784.0 102445.0 94594.0 77306.0 78183.0 9599.0 4886.0 113480.0 106556.0 121110.0 119742.0 56349.0 48705.0 132661.0 124745.0 9904.0 14951.0 35101.0 42654.0 140140.0 145993.0 53379.0 61296.0 12021.0 20213.0 118672.0 126524.0 147836.0 97785.0 147836.0 147836.0 147836.0 147836.0 147836.0 147836.0 147836.0 147836.0 97785.0 97785.0 97785.0 97785.0 97785.0 97785.0 97785.0 97785.0
75283.0 74644.0 113078.0 109229.0 7886.0 0.0 188652.0 183967.0 149404.0 150747.0 126678.0 128497.0 45143.0 52941.0 91752.0 96329.0 85844.0 91657.0 159142.0 159702.0 127594.0 127929.0 28468.0 20573.0 161379.0 157285.0 167229.0 166645.0 101255.0 104595.0 148040.0 151053.0 187203.0 194842.0 237039.0 228830.0 66838.0 62091.0 254633.0 251368.0 168782.0 167706.0 44011.0 48387.0 129549.0 121892.0 103169.0 98807.0 160277.0 154075.0 84352.0 85189.0 78123.0 73622.0 97035.0 89082.0 85119.0 85853.0 8694.0 11195.0 120531.0 113480.0 128439.0 126887.0 51194.0 43434.0 131823.0 123851.0 16862.0 19185.0 37822.0 45967.0 138926.0 144489.0 47594.0 55357.0 14403.0 22673.0 112277.0 120038.0 148365.0 105378.0 148365.0 148365.0 148365.0 148365.0 148365.0 148365.0 148365.0 148365.0 105378.0 105378.0 105378.0 105378.0 105378.0 105378.0 105378.0 105378.0
197655.0 189817.0 148881.0 156104.0 191281.0 188652.0 0.0 8543.0 50293.0 44189.0 275041.0 271602.0 156640.0 150112.0 215791.0 212135.0 151494.0 144607.0 57298.0 64628.0 62465.0 65047.0 209293.0 202626.0 30719.0 32058.0 24949.0 30550.0 193099.0 187175.0 274420.0 280276.0 13306.0 16595.0 385848.0 377913.0 200641.0 199687.0 392181.0 391052.0 303812.0 306527.0 147910.0 141507.0 81132.0 87674.0 184223.0 176785.0 30421.0 34958.0 252128.0 257140.0 111706.0 115145.0 106664.0 113434.0 238352.0 244391.0 181859.0 188259.0 285960.0 281526.0 287766.0 290017.0 141313.0 148526.0 68525.0 74285.0 188651.0 180268.0 163699.0 161363.0 58761.0 51038.0 147221.0 142101.0 180095.0 173767.0 115563.0 115422.0 92852.0 223554.0 92852.0 92852.0 92852.0 92852.0 92852.0 92852.0 92852.0 92852.0 223554.0 223554.0 223554.0 223554.0 223554.0 223554.0 223554.0 223554.0
196053.0 188285.0 149494.0 156490.0 186315.0 183967.0 8543.0 0.0 42494.0 36896.0 273558.0 270352.0 150724.0 144011.0 214583.0 211214.0 150560.0 143938.0 48785.0 56088.0 56824.0 58606.0 203906.0 197389.0 23756.0 26682.0 25582.0 32605.0 192750.0 187067.0 267087.0 272943.0 20429.0 24950.0 378515.0 370580.0 193812.0 192983.0 384848.0 383719.0 296479.0 299194.0 142562.0 136393.0 81523.0 87559.0 184086.0 176516.0 29401.0 32042.0 245746.0 250902.0 107822.0 110757.0 105034.0 111445.0 231577.0 237733.0 176970.0 183154.0 279281.0 274976.0 280851.0 283229.0 137577.0 144624.0 61116.0 67236.0 183339.0 174933.0 157926.0 155276.0 51422.0 43823.0 143642.0 138867.0 174971.0 168431.0 115760.0 116221.0 84514.0 216221.0 84514.0 84514.0 84514.0 84514.0 84514.0 84514.0 84514.0 84514.0 216221.0 216221.0 216221.0 216221.0 216221.0 216221.0 216221.0 216221.0
174554.0 167308.0 140314.0 145862.0 150650.0 149404.0 50293.0 42494.0 0.0 8039.0 251309.0 249196.0 112091.0 104840.0 194501.0 192544.0 133737.0 128724.0 17818.0 24893.0 26005.0 22088.0 166562.0 160619.0 20418.0 24167.0 44634.0 51266.0 177253.0 172902.0 224829.0 230685.0 57273.0 64357.0 336257.0 328322.0 152381.0 151828.0 342590.0 341462.0 254221.0 256937.0 106124.0 101020.0 77480.0 80062.0 169868.0 161903.0 40193.0 33313.0 205232.0 210744.0 79203.0 79555.0 87814.0 91862.0 190186.0 196581.0 141716.0 147009.0 238027.0 234010.0 239138.0 241751.0 108113.0 114170.0 19247.0 26463.0 146443.0 138050.0 119698.0 116031.0 10515.0 6852.0 114664.0 111647.0 138860.0 131623.0 106673.0 110089.0 44275.0 173963.0 44275.0 44275.0 44275.0 44275.0 44275.0 44275.0 44275.0 44275.0 173963.0 173963.0 173963.0 173963.0 173963.0 173963.0 173963.0 173963.0
172336.0 164947.0 135545.0 141368.0 152398.0 150747.0 44189.0 36896.0 8039.0 0.0 249445.0 247084.0 115006.0 108009.0 192032.0 189769.0 130330.0 124966.0 24629.0 32199.0 24161.0 22919.0 169002.0 162815.0 13538.0 16208.0 36686.0 43236.0 173787.0 169166.0 230260.0 236116.0 50130.0 57431.0 341688.0 333753.0 156979.0 156222.0 348021.0 346892.0 259652.0 262367.0 108046.0 102494.0 71317.0 74442.0 166130.0 158207.0 32154.0 25339.0 209236.0 214547.0 78204.0 79378.0 84068.0 88679.0 194762.0 200987.0 143289.0 148933.0 242512.0 238301.0 243976.0 246401.0 107630.0 114024.0 24339.0 30377.0 148664.0 140248.0 122440.0 119261.0 14574.0 6940.0 114079.0 110544.0 140752.0 133775.0 101640.0 104623.0 52073.0 179394.0 52073.0 52073.0 52073.0 52073.0 52073.0 52073.0 52073.0 52073.0 179394.0 179394.0 179394.0 179394.0 179394.0 179394.0 179394.0 179394.0
77528.0 85273.0 134643.0 126457.0 132035.0 126678.0 275041.0 273558.0 251309.0 249445.0 0.0 8242.0 169788.0 176781.0 59648.0 64648.0 124006.0 131454.0 265703.0 268770.0 225570.0 229582.0 137397.0 134884.0 255783.0 249227.0 250212.0 246009.0 86988.0 94577.0 252875.0 252893.0 268280.0 274414.0 305284.0 297994.0 187316.0 182637.0 334145.0 328581.0 262412.0 258025.0 162753.0 162774.0 195823.0 188411.0 96924.0 102607.0 244705.0 241595.0 173423.0 168290.0 172426.0 173565.0 168528.0 162253.0 188052.0 183986.0 134776.0 136792.0 197100.0 189233.0 209604.0 204104.0 145371.0 141091.0 238053.0 230449.0 141837.0 145856.0 163424.0 171894.0 241989.0 244918.0 138742.0 140242.0 140952.0 148817.0 162524.0 165527.0 262112.0 222342.0 262112.0 262112.0 262112.0 262112.0 262112.0 262112.0 262112.0 262112.0 222342.0 222342.0 222342.0 222342.0 222342.0 222342.0 222342.0 222342.0
74762.0 82289.0 129473.0 121302.0 134199.0 128497.0 271602.0 270352.0 249196.0 247084.0 8242.0 0.0 170805.0 177602.0 55811.0 60035.0 120214.0 127455.0 263910.0 267199.0 223348.0 227614.0 140746.0 137817.0 253047.0 246356.0 246714.0 242310.0 81732.0 89142.0 257797.0 258021.0 264529.0 270528.0 312277.0 304932.0 190480.0 185762.0 340763.0 335284.0 268088.0 263864.0 163086.0 162703.0 191865.0 184577.0 91613.0 97658.0 241347.0 238471.0 178654.0 173749.0 170647.0 172164.0 165357.0 159327.0 192661.0 188847.0 136386.0 138882.0 203205.0 195299.0 215606.0 210243.0 144271.0 140370.0 236407.0 228894.0 144067.0 147672.0 164685.0 173195.0 240039.0 242729.0 137685.0 138722.0 142631.0 150312.0 158238.0 160912.0 261115.0 226086.0 261115.0 261115.0 261115.0 261115.0 261115.0 261115.0 261115.0 261115.0 226086.0 226086.0 226086.0 226086.0 226086.0 226086.0 226086.0 226086.0
107881.0 104429.0 123118.0 122191.0 42895.0 45143.0 156640.0 150724.0 112091.0 115006.0 169788.0 170805.0 0.0 8047.0 127327.0 130022.0 98115.0 100683.0 119100.0 118517.0 94182.0 92305.0 54942.0 49858.0 127140.0 124583.0 138289.0 139553.0 128130.0 129010.0 136246.0 141382.0 157750.0 165612.0 241011.0 232829.0 51785.0 48854.0 252006.0 250105.0 163346.0 164550.0 15698.0 23263.0 114093.0 107810.0 126786.0 120380.0 131189.0 123932.0 96495.0 100906.0 58035.0 50398.0 86517.0 80276.0 86183.0 90828.0 36455.0 38310.0 131870.0 126585.0 135825.0 136779.0 47714.0 44048.0 93285.0 85658.0 36012.0 28216.0 8000.0 6380.0 101654.0 108256.0 50194.0 56590.0 31199.0 22764.0 109203.0 117345.0 105814.0 86491.0 105814.0 105814.0 105814.0 105814.0 105814.0 105814.0 105814.0 105814.0 86491.0 86491.0 86491.0 86491.0 86491.0 86491.0 86491.0 86491.0
113204.0 109347.0 124477.0 124071.0 50909.0 52941.0 150112.0 144011.0 104840.0 108009.0 176781.0 177602.0 8047.0 0.0 132974.0 135327.0 100302.0 102257.0 111416.0 110686.0 87741.0 85457.0 62728.0 57822.0 120347.0 118069.0 132369.0 133957.0 132299.0 132756.0 137782.0 143263.0 151650.0 159520.0 244634.0 236483.0 54881.0 52510.0 254510.0 252846.0 165796.0 167382.0 17477.0 23398.0 110914.0 104988.0 130421.0 123748.0 125283.0 117880.0 102302.0 107065.0 55370.0 47405.0 84833.0 79113.0 90712.0 95814.0 44247.0 46347.0 137159.0 132151.0 140536.0 141830.0 49435.0 46939.0 85906.0 78379.0 44036.0 36262.0 16024.0 11266.0 94454.0 101205.0 52838.0 58489.0 39149.0 30739.0 108437.0 116512.0 97865.0 87390.0 97865.0 97865.0 97865.0 97865.0 97865.0 97865.0 97865.0 97865.0 87390.0 87390.0 87390.0 87390.0 87390.0 87390.0 87390.0 87390.0
20705.0 27261.0 76280.0 68149.0 99079.0 91752.0 215791.0 214583.0 194501.0 192032.0 59648.0 55811.0 127327.0 132974.0 0.0 8039.0 64443.0 71814.0 209734.0 213455.0 168539.0 173218.0 112858.0 107338.0 197570.0 190773.0 190903.0 186532.0 30315.0 38215.0 236271.0 238179.0 208771.0 214834.0 309968.0 302072.0 158459.0 153685.0 333545.0 329114.0 252758.0 250137.0 116671.0 114583.0 136206.0 128844.0 39880.0 44148.0 185544.0 182741.0 162602.0 159968.0 116924.0 119363.0 109642.0 103798.0 170836.0 169198.0 97786.0 102946.0 194015.0 186060.0 204904.0 201089.0 92808.0 90348.0 182608.0 175321.0 108608.0 109519.0 122662.0 131059.0 185640.0 187928.0 86533.0 86073.0 104006.0 110206.0 102900.0 106099.0 208797.0 196710.0 208797.0 208797.0 208797.0 208797.0 208797.0 208797.0 208797.0 208797.0 196710.0 196710.0 196710.0 196710.0 196710.0 196710.0 196710.0 196710.0
22142.0 26843.0 70179.0 61999.0 103835.0 96329.0 212135.0 211214.0 192544.0 189769.0 64648.0 60035.0 130022.0 135327.0 8039.0 0.0 60666.0 67621.0 208127.0 212110.0 166542.0 171534.0 118529.0 112717.0 194815.0 187864.0 187201.0 182581.0 23144.0 31042.0 242040.0 244127.0 204739.0 210633.0 317245.0 309322.0 163163.0 158411.0 340464.0 336115.0 259124.0 256655.0 118667.0 116065.0 131966.0 124785.0 32974.0 38031.0 182026.0 179527.0 169192.0 166766.0 115915.0 118877.0 106611.0 101181.0 176810.0 175412.0 101912.0 107505.0 201040.0 193106.0 211784.0 208095.0 93221.0 91411.0 181297.0 174164.0 113179.0 113578.0 125751.0 134046.0 183925.0 185898.0 87167.0 85967.0 108040.0 113856.0 98211.0 100936.0 208225.0 201614.0 208225.0 208225.0 208225.0 208225.0 208225.0 208225.0 208225.0 208225.0 201614.0 201614.0 201614.0 201614.0 201614.0 201614.0 201614.0 201614.0
47826.0 39868.0 27238.0 24330.0 93302.0 85844.0 151494.0 150560.0 133737.0 130330.0 124006.0 120214.0 98115.0 100302.0 64443.0 60666.0 0.0 8174.0 150081.0 154767.0 107835.0 113603.0 114216.0 106403.0 134599.0 127494.0 126570.0 122096.0 43516.0 39609.0 229835.0 233807.0 144328.0 150410.0 322868.0 314663.0 144626.0 140455.0 340025.0 336955.0 253167.0 252662.0 83036.0 77139.0 71841.0 64409.0 36620.0 28627.0 121360.0 118938.0 170144.0 170590.0 62114.0 67486.0 46390.0 41919.0 169972.0 171379.0 86229.0 94478.0 206103.0 198868.0 214272.0 212574.0 50883.0 54158.0 124369.0 117852.0 99237.0 95076.0 97414.0 103907.0 125785.0 126965.0 47951.0 41818.0 90327.0 91848.0 39479.0 44272.0 153675.0 182518.0 153675.0 153675.0 153675.0 153675.0 153675.0 153675.0 153675.0 153675.0 182518.0 182518.0 182518.0 182518.0 182518.0 182518.0 182518.0 182518.0
55781.0 47847.0 22548.0 22106.0 98939.0 91657.0 144607.0 143938.0 128724.0 124966.0 131454.0 127455.0 100683.0 102257.0 71814.0 67621.0 8174.0 0.0 145385.0 150359.0 102990.0 109120.0 120115.0 112226.0 128646.0 121396.0 119660.0 114961.0 49068.0 44204.0 233953.0 238135.0 137123.0 143073.0 328635.0 320419.0 148520.0 144470.0 345157.0 342225.0 257923.0 257634.0 85287.0 78891.0 64413.0 57164.0 41168.0 33244.0 114634.0 112535.0 176003.0 176708.0 60115.0 66212.0 40928.0 37567.0 175045.0 176739.0 91452.0 99815.0 212147.0 205006.0 220045.0 218539.0 52996.0 57250.0 120269.0 114042.0 104369.0 99736.0 100598.0 106660.0 121139.0 121908.0 51009.0 44102.0 95199.0 96113.0 31479.0 36102.0 150345.0 186013.0 150345.0 150345.0 150345.0 150345.0 150345.0 150345.0 150345.0 150345.0 186013.0 186013.0 186013.0 186013.0 186013.0 186013.0 186013.0 186013.0
189539.0 182480.0 157670.0 163041.0 159618.0 159142.0 57298.0 48785.0 17818.0 24629.0 265703.0 263910.0 119100.0 111416.0 209734.0 208127.0 150081.0 145385.0 0.0 7995.0 42429.0 36608.0 174037.0 168634.0 32612.0 38864.0 58400.0 65773.0 193562.0 189463.0 225557.0 231413.0 67073.0 73172.0 336985.0 329050.0 154874.0 154871.0 343318.0 342189.0 254949.0 257664.0 115228.0 111025.0 95298.0 97822.0 186435.0 178445.0 55234.0 49326.0 208913.0 214895.0 93287.0 92541.0 104598.0 108166.0 192467.0 199278.0 151086.0 155667.0 240324.0 236833.0 240577.0 243592.0 121168.0 126675.0 27956.0 35883.0 154516.0 146242.0 126975.0 122296.0 24300.0 24466.0 127804.0 125520.0 147649.0 139970.0 124204.0 127786.0 36893.0 174691.0 36893.0 36893.0 36893.0 36893.0 36893.0 36893.0 36893.0 36893.0 174691.0 174691.0 174691.0 174691.0 174691.0 174691.0 174691.0 174691.0
193110.0 186197.0 163364.0 168516.0 159784.0 159702.0 64628.0 56088.0 24893.0 32199.0 268770.0 267199.0 118517.0 110686.0 213455.0 212110.0 154767.0 150359.0 7995.0 0.0 47880.0 41240.0 173414.0 168292.0 40607.0 46807.0 66395.0 73761.0 198152.0 194280.0 222906.0 228762.0 74765.0 80696.0 334334.0 326399.0 152289.0 152402.0 340667.0 339538.0 252298.0 255013.0 115692.0 111976.0 102101.0 104281.0 191261.0 183260.0 63189.0 57165.0 206530.0 212656.0 96623.0 95244.0 109788.0 112933.0 189826.0 196684.0 151489.0 155692.0 237672.0 234236.0 237927.0 240959.0 123714.0 128876.0 30848.0 38321.0 154256.0 146077.0 126467.0 121341.0 29503.0 31170.0 130367.0 128536.0 147773.0 139910.0 130183.0 134054.0 31861.0 172040.0 31861.0 31861.0 31861.0 31861.0 31861.0 31861.0 31861.0 31861.0 172040.0 172040.0 172040.0 172040.0 172040.0 172040.0 172040.0 172040.0
148656.0 141367.0 115485.0 120694.0 129659.0 127594.0 62465.0 56824.0 26005.0 24161.0 225570.0 223348.0 94182.0 87741.0 168539.0 166542.0 107835.0 102990.0 42429.0 47880.0 0.0 8344.0 147082.0 140586.0 33789.0 30415.0 45780.0 49109.0 151347.0 147112.0 215358.0 221214.0 64256.0 72112.0 326732.0 318760.0 139408.0 138133.0 333119.0 331990.0 244750.0 247433.0 85746.0 79686.0 56453.0 57390.0 144081.0 136101.0 38935.0 31015.0 189936.0 194806.0 54043.0 55393.0 62171.0 65928.0 176875.0 182645.0 120389.0 126410.0 224202.0 219543.0 226561.0 228487.0 83506.0 89984.0 20956.0 19599.0 126522.0 118113.0 101243.0 98972.0 18377.0 19393.0 89936.0 86397.0 118222.0 111612.0 82406.0 86596.0 53939.0 164492.0 53939.0 53939.0 53939.0 53939.0 53939.0 53939.0 53939.0 53939.0 164492.0 164492.0 164492.0 164492.0 164492.0 164492.0 164492.0 164492.0
153103.0 145976.0 122461.0 127418.0 129496.0 127929.0 65047.0 58606.0 22088.0 22919.0 229582.0 227614.0 92305.0 85457.0 173218.0 171534.0 113603.0 109120.0 36608.0 41240.0 8344.0 0.0 146117.0 139902.0 34896.0 33364.0 50961.0 55152.0 157044.0 153074.0 210446.0 216302.0 68372.0 76137.0 321865.0 313938.0 135674.0 134655.0 328207.0 327078.0 239838.0 242553.0 85127.0 79624.0 64679.0 65362.0 150052.0 142053.0 44455.0 36386.0 187163.0 192296.0 57263.0 57467.0 68588.0 71725.0 173342.0 179346.0 120413.0 126016.0 220916.0 216488.0 222840.0 225005.0 86032.0 92090.0 12705.0 11791.0 125754.0 117337.0 99657.0 96722.0 12430.0 16574.0 92590.0 89688.0 117836.0 110861.0 89768.0 94244.0 45598.0 159580.0 45598.0 45598.0 45598.0 45598.0 45598.0 45598.0 45598.0 45598.0 159580.0 159580.0 159580.0 159580.0 159580.0 159580.0 159580.0 159580.0
99004.0 99716.0 141435.0 137393.0 21597.0 28468.0 209293.0 203906.0 166562.0 169002.0 137397.0 140746.0 54942.0 62728.0 112858.0 118529.0 114216.0 120115.0 174037.0 173414.0 147082.0 146117.0 0.0 7999.0 180629.0 177391.0 189256.0 189457.0 126583.0 130665.0 123513.0 125754.0 209110.0 216888.0 208657.0 200455.0 49998.0 45388.0 226890.0 223443.0 142055.0 140489.0 61382.0 68009.0 155646.0 148212.0 129502.0 125749.0 182191.0 175458.0 55928.0 56773.0 101887.0 96176.0 123720.0 115936.0 58657.0 58370.0 30592.0 22435.0 92064.0 85046.0 100071.0 98424.0 77610.0 70059.0 147979.0 140240.0 20724.0 29042.0 47070.0 52282.0 156070.0 162385.0 74900.0 82843.0 30015.0 35535.0 140268.0 148120.0 160498.0 85675.0 160498.0 160498.0 160498.0 160498.0 160498.0 160498.0 160498.0 160498.0 85675.0 85675.0 85675.0 85675.0 85675.0 85675.0 85675.0 85675.0
92699.0 93025.0 133633.0 129695.0 13601.0 20573.0 202626.0 197389.0 160619.0 162815.0 134884.0 137817.0 49858.0 57822.0 107338.0 112717.0 106403.0 112226.0 168634.0 168292.0 140586.0 139902.0 7999.0 0.0 174238.0 170809.0 182278.0 182318.0 119866.0 123721.0 129608.0 132151.0 202172.0 209926.0 216470.0 208263.0 52784.0 48027.0 234347.0 230988.0 149045.0 147689.0 54854.0 61145.0 147881.0 140409.0 122472.0 118515.0 175230.0 168601.0 63779.0 64758.0 94456.0 88943.0 115855.0 108045.0 65432.0 65639.0 22714.0 14785.0 100006.0 93021.0 107872.0 106330.0 69739.0 62154.0 142225.0 134413.0 14177.0 22576.0 41868.0 47949.0 150110.0 156268.0 66938.0 74871.0 22698.0 29041.0 132272.0 140122.0 155671.0 89876.0 155671.0 155671.0 155671.0 155671.0 155671.0 155671.0 155671.0 155671.0 89876.0 89876.0 89876.0 89876.0 89876.0 89876.0 89876.0 89876.0
178340.0 170758.0 137163.0 143512.0 163427.0 161379.0 30719.0 23756.0 20418.0 13538.0 255783.0 253047.0 127140.0 120347.0 197570.0 194815.0 134599.0 128646.0 32612.0 40607.0 33789.0 34896.0 180629.0 174238.0 0.0 7927.0 25791.0 33265.0 177709.0 172619.0 243701.0 249557.0 36858.0 44010.0 355129.0 347194.0 170102.0 169242.0 361462.0 360333.0 273093.0 275808.0 119385.0 113448.0 70489.0 74932.0 169593.0 161787.0 23189.0 18996.0 221997.0 227176.0 86653.0 88803.0 88258.0 93772.0 207853.0 213987.0 154173.0 160136.0 255539.0 251221.0 257176.0 259511.0 116410.0 123169.0 37857.0 43598.0 160139.0 151723.0 134417.0 131612.0 28077.0 20325.0 122685.0 118506.0 151947.0 145227.0 103015.0 104983.0 64505.0 192835.0 64505.0 64505.0 64505.0 64505.0 64505.0 64505.0 64505.0 64505.0 192835.0 192835.0 192835.0 192835.0 192835.0 192835.0 192835.0 192835.0
171725.0 164083.0 129490.0 135919.0 159658.0 157285.0 32058.0 26682.0 24167.0 16208.0 249227.0 246356.0 124583.0 118069.0 190773.0 187864.0 127494.0 121396.0 38864.0 46807.0 30415.0 33364.0 177391.0 170809.0 7927.0 0.0 20478.0 27215.0 170462.0 165263.0 243617.0 249474.0 35263.0 42921.0 354969.0 347070.0 169011.0 167935.0 361378.0 360250.0 273009.0 275725.0 116018.0 109762.0 62618.0 67189.0 162243.0 154470.0 16390.0 11157.0 220150.0 225113.0 81414.0 84128.0 81254.0 87029.0 206645.0 212580.0 150300.0 156529.0 254152.0 249629.0 256185.0 258303.0 111203.0 118152.0 38942.0 43503.0 156787.0 148390.0 131657.0 129316.0 29373.0 21744.0 117358.0 112852.0 148350.0 141887.0 95343.0 97178.0 68264.0 192751.0 68264.0 68264.0 68264.0 68264.0 68264.0 68264.0 68264.0 68264.0 192751.0 192751.0 192751.0 192751.0 192751.0 192751.0 192751.0 192751.0
172890.0 165030.0 124223.0 131349.0 170399.0 167229.0 24949.0 25582.0 44634.0 36686.0 250212.0 246714.0 138289.0 132369.0 190903.0 187201.0 126570.0 119660.0 58400.0 66395.0 45780.0 50961.0 189256.0 182278.0 25791.0 20478.0 0.0 7962.0 168166.0 162280.0 261089.0 266945.0 19976.0 27654.0 372490.0 364525.0 184981.0 183562.0 378850.0 377721.0 290481.0 293131.0 128143.0 121251.0 56327.0 62746.0 159321.0 151860.0 7103.0 14764.0 234649.0 239195.0 89381.0 93659.0 82012.0 88975.0 222290.0 227878.0 160864.0 167684.0 269377.0 264506.0 272060.0 273819.0 118547.0 125966.0 58555.0 62117.0 168533.0 160246.0 144889.0 143471.0 49312.0 41930.0 124209.0 118678.0 159600.0 153785.0 90722.0 90845.0 88720.0 210223.0 88720.0 88720.0 88720.0 88720.0 88720.0 88720.0 88720.0 88720.0 210223.0 210223.0 210223.0 210223.0 210223.0 210223.0 210223.0 210223.0
168917.0 161009.0 118414.0 125712.0 170152.0 166645.0 30550.0 32605.0 51266.0 43236.0 246009.0 242310.0 139553.0 133957.0 186532.0 182581.0 122096.0 114961.0 65773.0 73761.0 49109.0 55152.0 189457.0 182318.0 33265.0 27215.0 7962.0 0.0 163084.0 157005.0 264280.0 270136.0 22318.0 29070.0 375535.0 367530.0 187272.0 185665.0 382041.0 380912.0 293672.0 296385.0 128717.0 121581.0 50909.0 57806.0 154074.0 146734.0 11212.0 19049.0 236044.0 240367.0 88535.0 93401.0 78535.0 85826.0 224324.0 229712.0 160575.0 167631.0 271114.0 266059.0 274158.0 275712.0 117148.0 124702.0 63839.0 66670.0 168745.0 160540.0 145893.0 144934.0 54972.0 47920.0 122572.0 116680.0 159620.0 154124.0 85326.0 84929.0 94953.0 213414.0 94953.0 94953.0 94953.0 94953.0 94953.0 94953.0 94953.0 94953.0 213414.0 213414.0 213414.0 213414.0 213414.0 213414.0 213414.0 213414.0
29028.0 26868.0 47741.0 39572.0 109108.0 101255.0 193099.0 192750.0 177253.0 173787.0 86988.0 81732.0 128130.0 132299.0 30315.0 23144.0 43516.0 49068.0 193562.0 198152.0 151347.0 157044.0 126583.0 119866.0 177709.0 170462.0 168166.0 163084.0 0.0 7913.0 249209.0 251982.0 185014.0 190585.0 330773.0 322732.0 167138.0 162519.0 352158.0 348207.0 268597.0 266778.0 114955.0 110921.0 112189.0 105425.0 9945.0 16371.0 163380.0 161523.0 180128.0 178611.0 103899.0 108180.0 89745.0 85423.0 185209.0 184758.0 105206.0 112027.0 213687.0 205896.0 223705.0 220623.0 85778.0 85898.0 167631.0 160941.0 117590.0 116320.0 125153.0 132960.0 169263.0 170478.0 80619.0 77385.0 110856.0 115294.0 77883.0 79708.0 196277.0 205896.0 196277.0 196277.0 196277.0 196277.0 196277.0 196277.0 196277.0 196277.0 205896.0 205896.0 205896.0 205896.0 205896.0 205896.0 205896.0 205896.0
35117.0 31551.0 40478.0 32380.0 112479.0 104595.0 187175.0 187067.0 172902.0 169166.0 94577.0 89142.0 129010.0 132756.0 38215.0 31042.0 39609.0 44204.0 189463.0 194280.0 147112.0 153074.0 130665.0 123721.0 172619.0 165263.0 162280.0 157005.0 7913.0 0.0 252627.0 255612.0 178804.0 184229.0 336077.0 328006.0 169750.0 165193.0 356884.0 353059.0 272710.0 271096.0 115309.0 110802.0 106102.0 99560.0 3036.0 11021.0 157670.0 156090.0 184854.0 183610.0 101229.0 105997.0 85130.0 81350.0 189152.0 188992.0 107997.0 115139.0 218851.0 211115.0 228636.0 225739.0 85121.0 85957.0 163954.0 157461.0 120622.0 118833.0 126496.0 134081.0 165186.0 166093.0 80385.0 76434.0 113441.0 117394.0 71682.0 73022.0 193212.0 208479.0 193212.0 193212.0 193212.0 193212.0 193212.0 193212.0 193212.0 193212.0 208479.0 208479.0 208479.0 208479.0 208479.0 208479.0 208479.0 208479.0
222307.0 222456.0 256445.0 254109.0 140161.0 148040.0 274420.0 267087.0 224829.0 230260.0 252875.0 257797.0 136246.0 137782.0 236271.0 242040.0 229835.0 233953.0 225557.0 222906.0 215358.0 210446.0 123513.0 129608.0 243701.0 243617.0 261089.0 264280.0 249209.0 252627.0 0.0 8101.0 278794.0 286523.0 117041.0 109680.0 85536.0 89488.0 119290.0 118287.0 32708.0 38419.0 151806.0 159509.0 247984.0 242462.0 251154.0 246497.0 254292.0 246337.0 79946.0 86136.0 193105.0 185067.0 222533.0 216497.0 65785.0 68955.0 145035.0 137552.0 70507.0 75457.0 59167.0 66595.0 182407.0 176998.0 205971.0 200237.0 132163.0 135041.0 134329.0 129874.0 215692.0 223384.0 183176.0 190630.0 140106.0 137987.0 245421.0 253571.0 209336.0 50865.0 209336.0 209336.0 209336.0 209336.0 209336.0 209336.0 209336.0 209336.0 50865.0 50865.0 50865.0 50865.0 50865.0 50865.0 50865.0 50865.0
224740.0 225163.0 260573.0 258024.0 143167.0 151053.0 280276.0 272943.0 230685.0 236116.0 252893.0 258021.0 141382.0 143263.0 238179.0 244127.0 233807.0 238135.0 231413.0 228762.0 221214.0 216302.0 125754.0 132151.0 249557.0 249474.0 266945.0 270136.0 251982.0 255612.0 8101.0 0.0 284651.0 292379.0 109278.0 101845.0 90144.0 93881.0 112209.0 111207.0 24935.0 30346.0 156837.0 164619.0 253800.0 248144.0 254219.0 249758.0 260148.0 252194.0 79499.0 85153.0 198632.0 190639.0 227837.0 221653.0 67343.0 69619.0 148461.0 140782.0 66403.0 71962.0 54433.0 61902.0 187017.0 181405.0 211828.0 206094.0 135497.0 138797.0 139106.0 135002.0 221548.0 229241.0 187545.0 195099.0 143739.0 142035.0 250407.0 258568.0 215192.0 57106.0 215192.0 215192.0 215192.0 215192.0 215192.0 215192.0 215192.0 215192.0 57106.0 57106.0 57106.0 57106.0 57106.0 57106.0 57106.0 57106.0
191228.0 183316.0 139774.0 147237.0 190346.0 187203.0 13306.0 20429.0 57273.0 50130.0 268280.0 264529.0 157750.0 151650.0 208771.0 204739.0 144328.0 137123.0 67073.0 74765.0 64256.0 68372.0 209110.0 202172.0 36858.0 35263.0 19976.0 22318.0 185014.0 178804.0 278794.0 284651.0 0.0 7871.0 390186.0 382275.0 203644.0 202389.0 396555.0 395427.0 308186.0 310902.0 147917.0 141102.0 72858.0 79962.0 175898.0 168648.0 26955.0 33823.0 253949.0 258627.0 109345.0 113624.0 100812.0 108036.0 241131.0 246876.0 180817.0 187601.0 288422.0 283685.0 290809.0 292739.0 138442.0 145889.0 74009.0 78764.0 188391.0 180086.0 164474.0 162812.0 64297.0 56518.0 144048.0 138396.0 179505.0 173615.0 107151.0 106276.0 101167.0 227928.0 101167.0 101167.0 101167.0 101167.0 101167.0 101167.0 101167.0 101167.0 227928.0 227928.0 227928.0 227928.0 227928.0 227928.0 227928.0 227928.0
197558.0 189625.0 144832.0 152426.0 198050.0 194842.0 16595.0 24950.0 64357.0 57431.0 274414.0 270528.0 165612.0 159520.0 214834.0 210633.0 150410.0 143073.0 73172.0 80696.0 72112.0 76137.0 216888.0 209926.0 44010.0 42921.0 27654.0 29070.0 190585.0 184229.0 286523.0 292379.0 7871.0 0.0 397890.0 389988.0 211487.0 210245.0 404284.0 403155.0 315914.0 318630.0 155725.0 148879.0 78669.0 86004.0 181351.0 174214.0 34698.0 41680.0 261820.0 266493.0 116901.0 121299.0 107517.0 114871.0 248987.0 254740.0 188512.0 195337.0 296288.0 291555.0 298656.0 300598.0 145873.0 153358.0 81486.0 86413.0 196167.0 187870.0 172323.0 170680.0 71739.0 63944.0 151411.0 145645.0 187251.0 181404.0 112713.0 111411.0 107939.0 235656.0 107939.0 107939.0 107939.0 107939.0 107939.0 107939.0 107939.0 107939.0 235656.0 235656.0 235656.0 235656.0 235656.0 235656.0 235656.0 235656.0
301820.0 304526.0 350091.0 345957.0 229697.0 237039.0 385848.0 378515.0 336257.0 341688.0 305284.0 312277.0 241011.0 244634.0 309968.0 317245.0 322868.0 328635.0 336985.0 334334.0 326732.0 321865.0 208657.0 216470.0 355129.0 354969.0 372490.0 375535.0 330773.0 336077.0 117041.0 109278.0 390186.0 397890.0 0.0 8235.0 189764.0 192242.0 38726.0 30736.0 84356.0 79828.0 255367.0 263355.0 355098.0 348694.0 335401.0 332718.0 365664.0 357732.0 152736.0 152836.0 298991.0 291409.0 326312.0 319298.0 155600.0 152565.0 237442.0 228994.0 117335.0 124984.0 108600.0 110584.0 282003.0 275258.0 317399.0 311665.0 224784.0 230529.0 236861.0 234821.0 327120.0 334812.0 280926.0 288895.0 234376.0 235389.0 346379.0 354469.0 320764.0 164164.0 320764.0 320764.0 320764.0 320764.0 320764.0 320764.0 320764.0 320764.0 164164.0 164164.0 164164.0 164164.0 164164.0 164164.0 164164.0 164164.0
293792.0 296454.0 341888.0 337770.0 221480.0 228830.0 377913.0 370580.0 328322.0 333753.0 297994.0 304932.0 232829.0 236483.0 302072.0 309322.0 314663.0 320419.0 329050.0 326399.0 318760.0 313938.0 200455.0 208263.0 347194.0 347070.0 364525.0 367530.0 322732.0 328006.0 109680.0 101845.0 382275.0 389988.0 8235.0 0.0 181620.0 184074.0 42065.0 34444.0 76973.0 72147.0 247163.0 255151.0 346911.0 340495.0 327316.0 324599.0 357688.0 349765.0 144539.0 144693.0 290800.0 283227.0 318092.0 311072.0 147376.0 144331.0 229215.0 220768.0 109217.0 116895.0 100391.0 102439.0 273770.0 267023.0 309464.0 303730.0 216553.0 222294.0 228655.0 226645.0 319185.0 326877.0 272691.0 280661.0 226143.0 227155.0 338145.0 346235.0 312829.0 156343.0 312829.0 312829.0 312829.0 312829.0 312829.0 312829.0 312829.0 312829.0 156343.0 156343.0 156343.0 156343.0 156343.0 156343.0 156343.0 156343.0
142036.0 140941.0 171041.0 168947.0 59382.0 66838.0 200641.0 193812.0 152381.0 156979.0 187316.0 190480.0 51785.0 54881.0 158459.0 163163.0 144626.0 148520.0 154874.0 152289.0 139408.0 135674.0 49998.0 52784.0 170102.0 169011.0 184981.0 187272.0 167138.0 169750.0 85536.0 90144.0 203644.0 211487.0 189764.0 181620.0 0.0 4794.0 200238.0 198322.0 111617.0 112771.0 66937.0 74824.0 165645.0 159512.0 168020.0 162779.0 177981.0 170272.0 54855.0 61685.0 109733.0 101960.0 138228.0 131797.0 37806.0 44405.0 61952.0 55678.0 85665.0 81959.0 87180.0 89421.0 96905.0 91471.0 133166.0 126602.0 50007.0 50919.0 48980.0 45452.0 142610.0 150040.0 97659.0 105094.0 56319.0 52975.0 160341.0 168507.0 138719.0 38758.0 138719.0 138719.0 138719.0 138719.0 138719.0 138719.0 138719.0 138719.0 38758.0 38758.0 38758.0 38758.0 38758.0 38758.0 38758.0 38758.0
137316.0 136275.0 166971.0 164762.0 54612.0 62091.0 199687.0 192983.0 151828.0 156222.0 182637.0 185762.0 48854.0 52510.0 153685.0 158411.0 140455.0 144470.0 154871.0 152402.0 138133.0 134655.0 45388.0 48027.0 169242.0 167935.0 183562.0 185665.0 162519.0 165193.0 89488.0 93881.0 202389.0 210245.0 192242.0 184074.0 4794.0 0.0 203445.0 201389.0 114942.0 115834.0 63712.0 71653.0 162921.0 156663.0 163486.0 158306.0 176533.0 168890.0 54180.0 60636.0 106888.0 99212.0 135051.0 128493.0 38742.0 44768.0 57316.0 50943.0 86298.0 82194.0 88508.0 90373.0 93153.0 87548.0 132588.0 125860.0 45275.0 46392.0 45509.0 42604.0 141938.0 149286.0 93709.0 101223.0 51753.0 48677.0 156852.0 165019.0 138832.0 43398.0 138832.0 138832.0 138832.0 138832.0 138832.0 138832.0 138832.0 138832.0 43398.0 43398.0 43398.0 43398.0 43398.0 43398.0 43398.0 43398.0
323553.0 325472.0 367200.0 363769.0 246955.0 254633.0 392181.0 384848.0 342590.0 348021.0 334145.0 340763.0 252006.0 254510.0 333545.0 340464.0 340025.0 345157.0 343318.0 340667.0 333119.0 328207.0 226890.0 234347.0 361462.0 361378.0 378850.0 382041.0 352158.0 356884.0 119290.0 112209.0 396555.0 404284.0 38726.0 42065.0 200238.0 203445.0 0.0 8049.0 88714.0 87755.0 267134.0 275048.0 365357.0 359496.0 355932.0 352537.0 372053.0 364098.0 172044.0 173777.0 309793.0 301899.0 338459.0 331937.0 170111.0 168781.0 253804.0 245553.0 139646.0 147643.0 128690.0 132540.0 295959.0 289755.0 323732.0 317998.0 240823.0 245577.0 248934.0 245653.0 333453.0 341145.0 295707.0 303523.0 249972.0 249740.0 360121.0 368283.0 327097.0 170417.0 327097.0 327097.0 327097.0 327097.0 327097.0 327097.0 327097.0 327097.0 170417.0 170417.0 170417.0 170417.0 170417.0 170417.0 170417.0 170417.0
319505.0 321592.0 364163.0 360581.0 243747.0 251368.0 391052.0 383719.0 341462.0 346892.0 328581.0 335284.0 250105.0 252846.0 329114.0 336115.0 336955.0 342225.0 342189.0 339538.0 331990.0 327078.0 223443.0 230988.0 360333.0 360250.0 377721.0 380912.0 348207.0 353059.0 118287.0 111207.0 395427.0 403155.0 30736.0 34444.0 198322.0 201389.0 8049.0 0.0 87266.0 85560.0 265099.0 273041.0 363756.0 357775.0 352164.0 348917.0 370924.0 362970.0 168231.0 169640.0 308020.0 300181.0 336437.0 329806.0 167264.0 165583.0 250794.0 242487.0 135100.0 143065.0 124520.0 128027.0 293511.0 287186.0 322604.0 316870.0 237856.0 242824.0 246804.0 243774.0 332324.0 340017.0 293087.0 300944.0 247113.0 247139.0 357786.0 365939.0 325969.0 168223.0 325969.0 325969.0 325969.0 325969.0 325969.0 325969.0 325969.0 325969.0 168223.0 168223.0 168223.0 168223.0 168223.0 168223.0 168223.0 168223.0
240665.0 241732.0 280190.0 277192.0 160954.0 168782.0 303812.0 296479.0 254221.0 259652.0 262412.0 268088.0 163346.0 165796.0 252758.0 259124.0 253167.0 257923.0 254949.0 252298.0 244750.0 239838.0 142055.0 149045.0 273093.0 273009.0 290481.0 293672.0 268597.0 272710.0 32708.0 24935.0 308186.0 315914.0 84356.0 76973.0 111617.0 114942.0 88714.0 87266.0 0.0 8428.0 178550.0 186440.0 276656.0 270781.0 271506.0 267507.0 283683.0 275729.0 90576.0 94548.0 221084.0 213185.0 249839.0 243398.0 83673.0 83884.0 167097.0 159071.0 67330.0 74557.0 54303.0 61064.0 207829.0 201843.0 235363.0 229629.0 154057.0 158191.0 160449.0 156985.0 245084.0 252776.0 207882.0 215605.0 162842.0 161988.0 271776.0 279942.0 238728.0 81174.0 238728.0 238728.0 238728.0 238728.0 238728.0 238728.0 238728.0 238728.0 81174.0 81174.0 81174.0 81174.0 81174.0 81174.0 81174.0 81174.0
238605.0 239941.0 279779.0 276552.0 159937.0 167706.0 306527.0 299194.0 256937.0 262367.0 258025.0 263864.0 164550.0 167382.0 250137.0 256655.0 252662.0 257634.0 257664.0 255013.0 247433.0 242553.0 140489.0 147689.0 275808.0 275725.0 293131.0 296385.0 266778.0 271096.0 38419.0 30346.0 310902.0 318630.0 79828.0 72147.0 112771.0 115834.0 87755.0 85560.0 8428.0 0.0 179545.0 187484.0 278294.0 272256.0 269978.0 266195.0 286361.0 278390.0 87564.0 90923.0 222489.0 214673.0 250884.0 244282.0 82715.0 82120.0 166450.0 158293.0 61739.0 69260.0 48806.0 55163.0 208203.0 202018.0 238079.0 232345.0 153428.0 157952.0 161273.0 158223.0 247799.0 255492.0 207987.0 215787.0 162439.0 162022.0 272380.0 280540.0 241444.0 84457.0 241444.0 241444.0 241444.0 241444.0 241444.0 241444.0 241444.0 241444.0 84457.0 84457.0 84457.0 84457.0 84457.0 84457.0 84457.0 84457.0
96609.0 92422.0 107650.0 106953.0 44550.0 44011.0 147910.0 142562.0 106124.0 108046.0 162753.0 163086.0 15698.0 17477.0 116671.0 118667.0 83036.0 85287.0 115228.0 115692.0 85746.0 85127.0 61382.0 54854.0 119385.0 116018.0 128143.0 128717.0 114955.0 115309.0 151806.0 156837.0 147917.0 155725.0 255367.0 247163.0 66937.0 63712.0 267134.0 265099.0 178550.0 179545.0 0.0 7988.0 99937.0 93353.0 112961.0 106271.0 121056.0 114186.0 108461.0 112166.0 43853.0 36752.0 71339.0 64866.0 99995.0 104074.0 35857.0 40906.0 144488.0 138789.0 149212.0 149721.0 32300.0 29463.0 88127.0 80200.0 40777.0 32372.0 18521.0 21998.0 95611.0 101564.0 35391.0 41291.0 32741.0 25870.0 93615.0 101767.0 104539.0 102177.0 104539.0 104539.0 104539.0 104539.0 104539.0 104539.0 104539.0 104539.0 102177.0 102177.0 102177.0 102177.0 102177.0 102177.0 102177.0 102177.0
94201.0 89480.0 101081.0 100760.0 49980.0 48387.0 141507.0 136393.0 101020.0 102494.0 162774.0 162703.0 23263.0 23398.0 114583.0 116065.0 77139.0 78891.0 111025.0 111976.0 79686.0 79624.0 68009.0 61145.0 113448.0 109762.0 121251.0 121581.0 110921.0 110802.0 159509.0 164619.0 141102.0 148879.0 263355.0 255151.0 74824.0 71653.0 275048.0 273041.0 186440.0 187484.0 7988.0 0.0 91977.0 85370.0 108345.0 101404.0 114183.0 107473.0 116207.0 119773.0 35930.0 28996.0 63412.0 57036.0 107971.0 112004.0 40796.0 46767.0 152318.0 146553.0 157144.0 157598.0 26285.0 25050.0 83522.0 75534.0 47290.0 38998.0 26503.0 29636.0 90540.0 96163.0 30418.0 35352.0 38593.0 32553.0 85949.0 94087.0 101763.0 109679.0 101763.0 101763.0 101763.0 101763.0 101763.0 101763.0 101763.0 101763.0 109679.0 109679.0 109679.0 109679.0 109679.0 109679.0 109679.0 109679.0
119321.0 111358.0 67971.0 75023.0 134634.0 129549.0 81132.0 81523.0 77480.0 71317.0 195823.0 191865.0 114093.0 110914.0 136206.0 131966.0 71841.0 64413.0 95298.0 102101.0 56453.0 64679.0 155646.0 147881.0 70489.0 62618.0 56327.0 50909.0 112189.0 106102.0 247984.0 253800.0 72858.0 78669.0 355098.0 346911.0 165645.0 162921.0 365357.0 363756.0 276656.0 278294.0 99937.0 91977.0 0.0 8042.0 103168.0 95832.0 52250.0 52150.0 207592.0 210568.0 56131.0 63709.0 32976.0 41062.0 199919.0 203959.0 125195.0 133211.0 243967.0 237943.0 249097.0 249406.0 78375.0 86119.0 77378.0 74554.0 135688.0 128265.0 118447.0 120317.0 73606.0 70951.0 82267.0 74993.0 125908.0 122402.0 34438.0 34837.0 109849.0 197172.0 109849.0 109849.0 109849.0 109849.0 109849.0 109849.0 109849.0 109849.0 197172.0 197172.0 197172.0 197172.0 197172.0 197172.0 197172.0 197172.0
111684.0 103730.0 62378.0 69068.0 127100.0 121892.0 87674.0 87559.0 80062.0 74442.0 188411.0 184577.0 107810.0 104988.0 128844.0 124785.0 64409.0 57164.0 97822.0 104281.0 57390.0 65362.0 148212.0 140409.0 74932.0 67189.0 62746.0 57806.0 105425.0 99560.0 242462.0 248144.0 79962.0 86004.0 348694.0 340495.0 159512.0 156663.0 359496.0 357775.0 270781.0 272256.0 93353.0 85370.0 8042.0 0.0 96593.0 89115.0 58162.0 57200.0 200559.0 203396.0 49782.0 57599.0 25063.0 33147.0 193334.0 197216.0 117703.0 125783.0 237000.0 230889.0 242335.0 242516.0 70774.0 78490.0 78026.0 74427.0 128385.0 121073.0 111873.0 114090.0 75219.0 73356.0 74497.0 67141.0 118577.0 115298.0 28309.0 30217.0 109735.0 191730.0 109735.0 109735.0 109735.0 109735.0 109735.0 109735.0 109735.0 109735.0 191730.0 191730.0 191730.0 191730.0 191730.0 191730.0 191730.0 191730.0
35191.0 30990.0 37885.0 29741.0 111055.0 103169.0 184223.0 184086.0 169868.0 166130.0 96924.0 91613.0 126786.0 130421.0 39880.0 32974.0 36620.0 41168.0 186435.0 191261.0 144081.0 150052.0 129502.0 122472.0 169593.0 162243.0 159321.0 154074.0 9945.0 3036.0 251154.0 254219.0 175898.0 181351.0 335401.0 327316.0 168020.0 163486.0 355932.0 352164.0 271506.0 269978.0 112961.0 108345.0 103168.0 96593.0 0.0 8004.0 154690.0 153084.0 183936.0 182819.0 98324.0 103155.0 82094.0 78330.0 187900.0 187859.0 106371.0 113618.0 218127.0 210421.0 227798.0 224991.0 82567.0 83565.0 160947.0 154468.0 119067.0 117102.0 124400.0 131918.0 162159.0 163058.0 77931.0 73830.0 111739.0 115531.0 68760.0 70211.0 190251.0 206726.0 190251.0 190251.0 190251.0 190251.0 190251.0 190251.0 190251.0 190251.0 206726.0 206726.0 206726.0 206726.0 206726.0 206726.0 206726.0 206726.0
35575.0 29860.0 32177.0 24017.0 106677.0 98807.0 176785.0 176516.0 161903.0 158207.0 102607.0 97658.0 120380.0 123748.0 44148.0 38031.0 28627.0 33244.0 178445.0 183260.0 136101.0 142053.0 125749.0 118515.0 161787.0 154470.0 151860.0 146734.0 16371.0 11021.0 246497.0 249758.0 168648.0 174214.0 332718.0 324599.0 162779.0 158306.0 352537.0 348917.0 267507.0 266195.0 106271.0 101404.0 95832.0 89115.0 8004.0 0.0 147132.0 145398.0 180729.0 179939.0 90441.0 95383.0 74153.0 70329.0 183837.0 184099.0 101488.0 108986.0 215384.0 207761.0 224756.0 222179.0 75433.0 76815.0 152943.0 146469.0 114335.0 111928.0 118307.0 125655.0 154167.0 155097.0 71043.0 66591.0 106650.0 110028.0 61512.0 63428.0 182282.0 201399.0 182282.0 182282.0 182282.0 182282.0 182282.0 182282.0 182282.0 182282.0 201399.0 201399.0 201399.0 201399.0 201399.0 201399.0 201399.0 201399.0
167280.0 159457.0 120200.0 127132.0 163391.0 160277.0 30421.0 29401.0 40193.0 32154.0 244705.0 241347.0 131189.0 125283.0 185544.0 182026.0 121360.0 114634.0 55234.0 63189.0 38935.0 44455.0 182191.0 175230.0 23189.0 16390.0 7103.0 11212.0 163380.0 157670.0 254292.0 260148.0 26955.0 34698.0 365664.0 357688.0 177981.0 176533.0 372053.0 370924.0 283683.0 286361.0 121056.0 114183.0 52250.0 58162.0 154690.0 147132.0 0.0 8072.0 227557.0 232095.0 82529.0 86681.0 76261.0 83015.0 215255.0 220820.0 153864.0 160650.0 262311.0 257425.0 265036.0 266770.0 111816.0 119190.0 52718.0 55813.0 161469.0 153176.0 137787.0 136379.0 43775.0 36711.0 117547.0 112145.0 152558.0 146712.0 86385.0 87043.0 83749.0 203425.0 83749.0 83749.0 83749.0 83749.0 83749.0 83749.0 83749.0 83749.0 203425.0 203425.0 203425.0 203425.0 203425.0 203425.0 203425.0 203425.0
164075.0 156330.0 119576.0 126210.0 156958.0 154075.0 34958.0 32042.0 33313.0 25339.0 241595.0 238471.0 123932.0 117880.0 182741.0 179527.0 118938.0 112535.0 49326.0 57165.0 31015.0 36386.0 175458.0 168601.0 18996.0 11157.0 14764.0 19049.0 161523.0 156090.0 246337.0 252194.0 33823.0 41680.0 357732.0 349765.0 170272.0 168890.0 364098.0 362970.0 275729.0 278390.0 114186.0 107473.0 52150.0 57200.0 153084.0 145398.0 8072.0 0.0 220181.0 224819.0 76789.0 80466.0 73115.0 79420.0 207626.0 213265.0 147473.0 154096.0 254784.0 249973.0 257375.0 259182.0 106360.0 113595.0 44794.0 47749.0 154752.0 146420.0 130654.0 129023.0 36032.0 29230.0 112264.0 107200.0 145969.0 139937.0 85491.0 86903.0 76242.0 195471.0 76242.0 76242.0 76242.0 76242.0 76242.0 76242.0 76242.0 76242.0 195471.0 195471.0 195471.0 195471.0 195471.0 195471.0 195471.0 195471.0
151612.0 153429.0 197361.0 193247.0 77131.0 84352.0 252128.0 245746.0 205232.0 209236.0 173423.0 178654.0 96495.0 102302.0 162602.0 169192.0 170144.0 176003.0 208913.0 206530.0 189936.0 187163.0 55928.0 63779.0 221997.0 220150.0 234649.0 236044.0 180128.0 184854.0 79946.0 79499.0 253949.0 261820.0 152736.0 144539.0 54855.0 54180.0 172044.0 168231.0 90576.0 87564.0 108461.0 116207.0 207592.0 200559.0 183936.0 180729.0 227557.0 220181.0 0.0 8078.0 152004.0 145189.0 176851.0 169379.0 22372.0 14598.0 85276.0 76795.0 36602.0 30363.0 44185.0 42641.0 131257.0 124087.0 185994.0 179003.0 73055.0 79695.0 90444.0 91179.0 195156.0 202327.0 129433.0 137439.0 82867.0 85279.0 195117.0 203095.0 192960.0 64459.0 192960.0 192960.0 192960.0 192960.0 192960.0 192960.0 192960.0 192960.0 64459.0 64459.0 64459.0 64459.0 64459.0 64459.0 64459.0 64459.0
149867.0 152087.0 197734.0 193330.0 78317.0 85189.0 257140.0 250902.0 210744.0 214547.0 168290.0 173749.0 100906.0 107065.0 159968.0 166766.0 170590.0 176708.0 214895.0 212656.0 194806.0 192296.0 56773.0 64758.0 227176.0 225113.0 239195.0 240367.0 178611.0 183610.0 86136.0 85153.0 258627.0 266493.0 152836.0 144693.0 61685.0 60636.0 173777.0 169640.0 94548.0 90923.0 112166.0 119773.0 210568.0 203396.0 182819.0 179939.0 232095.0 224819.0 8078.0 0.0 155351.0 148761.0 179381.0 171780.0 30444.0 22661.0 86916.0 78480.0 35570.0 28300.0 45121.0 42254.0 133497.0 126159.0 191532.0 184420.0 75201.0 82323.0 94495.0 95848.0 200584.0 207660.0 131296.0 139286.0 85057.0 88186.0 196878.0 204780.0 199086.0 72531.0 199086.0 199086.0 199086.0 199086.0 199086.0 199086.0 199086.0 199086.0 72531.0 72531.0 72531.0 72531.0 72531.0 72531.0 72531.0 72531.0
96505.0 89692.0 79240.0 81578.0 81887.0 78123.0 111706.0 107822.0 79203.0 78204.0 172426.0 170647.0 58035.0 55370.0 116924.0 115915.0 62114.0 60115.0 93287.0 96623.0 54043.0 57263.0 101887.0 94456.0 86653.0 81414.0 89381.0 88535.0 103899.0 101229.0 193105.0 198632.0 109345.0 116901.0 298991.0 290800.0 109733.0 106888.0 309793.0 308020.0 221084.0 222489.0 43853.0 35930.0 56131.0 49782.0 98324.0 90441.0 82529.0 76789.0 152004.0 155351.0 0.0 8151.0 30329.0 26406.0 143797.0 147926.0 72288.0 79678.0 188207.0 182364.0 193065.0 193520.0 29792.0 36829.0 65791.0 58407.0 81368.0 73490.0 62341.0 64308.0 69625.0 73056.0 36035.0 32445.0 71872.0 67326.0 55523.0 63216.0 92538.0 142547.0 92538.0 92538.0 92538.0 92538.0 92538.0 92538.0 92538.0 92538.0 142547.0 142547.0 142547.0 142547.0 142547.0 142547.0 142547.0 142547.0
98749.0 92301.0 86106.0 87998.0 76784.0 73622.0 115145.0 110757.0 79555.0 79378.0 173565.0 172164.0 50398.0 47405.0 119363.0 118877.0 67486.0 66212.0 92541.0 95244.0 55393.0 57467.0 96176.0 88943.0 88803.0 84128.0 93659.0 93401.0 108180.0 105997.0 185067.0 190639.0 113624.0 121299.0 291409.0 283227.0 101960.0 99212.0 301899.0 300181.0 213185.0 214673.0 36752.0 28996.0 63709.0 57599.0 103155.0 95383.0 86681.0 80466.0 145189.0 148761.0 8151.0 0.0 38448.0 34177.0 136413.0 140716.0 67227.0 74235.0 181238.0 175528.0 185836.0 186445.0 28652.0 34663.0 64669.0 56945.0 75511.0 67434.0 55091.0 56608.0 69559.0 73765.0 35272.0 33472.0 66253.0 61124.0 63496.0 71253.0 89435.0 134468.0 89435.0 89435.0 89435.0 89435.0 89435.0 89435.0 89435.0 89435.0 134468.0 134468.0 134468.0 134468.0 134468.0 134468.0 134468.0 134468.0
91044.0 83255.0 54524.0 58946.0 102445.0 97035.0 106664.0 105034.0 87814.0 84068.0 168528.0 165357.0 86517.0 84833.0 109642.0 106611.0 46390.0 40928.0 104598.0 109788.0 62171.0 68588.0 123720.0 115855.0 88258.0 81254.0 82012.0 78535.0 89745.0 85130.0 222533.0 227837.0 100812.0 107517.0 326312.0 318092.0 138228.0 135051.0 338459.0 336437.0 249839.0 250884.0 71339.0 63412.0 32976.0 25063.0 82094.0 74153.0 76261.0 73115.0 176851.0 179381.0 30329.0 38448.0 0.0 8087.0 170722.0 174199.0 93143.0 101338.0 213401.0 207103.0 219204.0 219084.0 46116.0 53745.0 80163.0 74456.0 104204.0 97169.0 89677.0 92891.0 80421.0 80991.0 49524.0 42090.0 94355.0 91633.0 25702.0 33062.0 111434.0 172222.0 111434.0 111434.0 111434.0 111434.0 111434.0 111434.0 111434.0 111434.0 172222.0 172222.0 172222.0 172222.0 172222.0 172222.0 172222.0 172222.0
84728.0 77056.0 54013.0 57409.0 94594.0 89082.0 113434.0 111445.0 91862.0 88679.0 162253.0 159327.0 80276.0 79113.0 103798.0 101181.0 41919.0 37567.0 108166.0 112933.0 65928.0 71725.0 115936.0 108045.0 93772.0 87029.0 88975.0 85826.0 85423.0 81350.0 216497.0 221653.0 108036.0 114871.0 319298.0 311072.0 131797.0 128493.0 331937.0 329806.0 243398.0 244282.0 64866.0 57036.0 41062.0 33147.0 78330.0 70329.0 83015.0 79420.0 169379.0 171780.0 26406.0 34177.0 8087.0 0.0 163701.0 167012.0 85346.0 93591.0 205956.0 199585.0 211943.0 211704.0 38342.0 45894.0 82718.0 76485.0 96580.0 89686.0 83009.0 86655.0 83872.0 85112.0 41524.0 34027.0 86724.0 84275.0 29516.0 37479.0 112936.0 166420.0 112936.0 112936.0 112936.0 112936.0 112936.0 112936.0 112936.0 112936.0 166420.0 166420.0 166420.0 166420.0 166420.0 166420.0 166420.0 166420.0
157629.0 158346.0 197116.0 193838.0 77306.0 85119.0 238352.0 231577.0 190186.0 194762.0 188052.0 192661.0 86183.0 90712.0 170836.0 176810.0 169972.0 175045.0 192467.0 189826.0 176875.0 173342.0 58657.0 65432.0 207853.0 206645.0 222290.0 224324.0 185209.0 189152.0 65785.0 67343.0 241131.0 248987.0 155600.0 147376.0 37806.0 38742.0 170111.0 167264.0 83673.0 82715.0 99995.0 107971.0 199919.0 193334.0 187900.0 183837.0 215255.0 207626.0 22372.0 30444.0 143797.0 136413.0 170722.0 163701.0 0.0 8049.0 83746.0 75578.0 47890.0 44614.0 49849.0 51665.0 126607.0 120073.0 170972.0 164385.0 70737.0 75568.0 81477.0 80218.0 180409.0 187823.0 125904.0 133804.0 79869.0 80042.0 191004.0 199127.0 176257.0 42206.0 176257.0 176257.0 176257.0 176257.0 176257.0 176257.0 176257.0 176257.0 42206.0 42206.0 42206.0 42206.0 42206.0 42206.0 42206.0 42206.0
156782.0 157902.0 198595.0 195016.0 78183.0 85853.0 244391.0 237733.0 196581.0 200987.0 183986.0 188847.0 90828.0 95814.0 169198.0 175412.0 171379.0 176739.0 199278.0 196684.0 182645.0 179346.0 58370.0 65639.0 213987.0 212580.0 227878.0 229712.0 184758.0 188992.0 68955.0 69619.0 246876.0 254740.0 152565.0 144331.0 44405.0 44768.0 168781.0 165583.0 83884.0 82120.0 104074.0 112004.0 203959.0 197216.0 187859.0 184099.0 220820.0 213265.0 14598.0 22661.0 147926.0 140716.0 174199.0 167012.0 8049.0 0.0 85289.0 76936.0 41572.0 37555.0 45140.0 46017.0 129471.0 122693.0 177344.0 170627.0 72439.0 77966.0 85629.0 85052.0 186705.0 194051.0 128375.0 136337.0 81903.0 82873.0 193823.0 201908.0 183114.0 49871.0 183114.0 183114.0 183114.0 183114.0 183114.0 183114.0 183114.0 183114.0 49871.0 49871.0 49871.0 49871.0 49871.0 49871.0 49871.0 49871.0
80395.0 79010.0 113396.0 110120.0 9599.0 8694.0 181859.0 176970.0 141716.0 143289.0 134776.0 136386.0 36455.0 44247.0 97786.0 101912.0 86229.0 91452.0 151086.0 151489.0 120389.0 120413.0 30592.0 22714.0 154173.0 150300.0 160864.0 160575.0 105206.0 107997.0 145035.0 148461.0 180817.0 188512.0 237442.0 229215.0 61952.0 57316.0 253804.0 250794.0 167097.0 166450.0 35857.0 40796.0 125195.0 117703.0 106371.0 101488.0 153864.0 147473.0 85276.0 86916.0 72288.0 67227.0 93143.0 85346.0 83746.0 85289.0 0.0 8481.0 121795.0 115041.0 128969.0 127913.0 47028.0 39467.0 123921.0 115972.0 13041.0 11750.0 29199.0 37434.0 131217.0 136943.0 44401.0 52379.0 6325.0 14134.0 109970.0 117896.0 139943.0 100704.0 139943.0 139943.0 139943.0 139943.0 139943.0 139943.0 139943.0 139943.0 100704.0 100704.0 100704.0 100704.0 100704.0 100704.0 100704.0 100704.0
86380.0 85541.0 121676.0 118265.0 4886.0 11195.0 188259.0 183154.0 147009.0 148933.0 136792.0 138882.0 38310.0 46347.0 102946.0 107505.0 94478.0 99815.0 155667.0 155692.0 126410.0 126016.0 22435.0 14785.0 160136.0 156529.0 167684.0 167631.0 112027.0 115139.0 137552.0 140782.0 187601.0 195337.0 228994.0 220768.0 55678.0 50943.0 245553.0 242487.0 159071.0 158293.0 40906.0 46767.0 133211.0 125783.0 113618.0 108986.0 160650.0 154096.0 76795.0 78480.0 79678.0 74235.0 101338.0 93591.0 75578.0 76936.0 8481.0 0.0 113319.0 106581.0 120502.0 119432.0 55249.0 47769.0 128870.0 120984.0 5674.0 10180.0 30445.0 37861.0 136495.0 142467.0 52817.0 60806.0 8189.0 15823.0 118426.0 126362.0 143565.0 94275.0 143565.0 143565.0 143565.0 143565.0 143565.0 143565.0 143565.0 143565.0 94275.0 94275.0 94275.0 94275.0 94275.0 94275.0 94275.0 94275.0
184819.0 187303.0 233266.0 228897.0 113480.0 120531.0 285960.0 279281.0 238027.0 242512.0 197100.0 203205.0 131870.0 137159.0 194015.0 201040.0 206103.0 212147.0 240324.0 237672.0 224202.0 220916.0 92064.0 100006.0 255539.0 254152.0 269377.0 271114.0 213687.0 218851.0 70507.0 66403.0 288422.0 296288.0 117335.0 109217.0 85665.0 86298.0 139646.0 135100.0 67330.0 61739.0 144488.0 152318.0 243967.0 237000.0 218127.0 215384.0 262311.0 254784.0 36602.0 35570.0 188207.0 181238.0 213401.0 205956.0 47890.0 41572.0 121795.0 113319.0 0.0 8013.0 13028.0 7123.0 167856.0 160688.0 218801.0 212144.0 109651.0 116271.0 126243.0 126257.0 228201.0 235575.0 166017.0 174022.0 119468.0 121787.0 231695.0 239661.0 224102.0 80125.0 224102.0 224102.0 224102.0 224102.0 224102.0 224102.0 224102.0 224102.0 80125.0 80125.0 80125.0 80125.0 80125.0 80125.0 80125.0 80125.0
177001.0 179564.0 225995.0 221528.0 106556.0 113480.0 281526.0 274976.0 234010.0 238301.0 189233.0 195299.0 126585.0 132151.0 186060.0 193106.0 198868.0 205006.0 236833.0 234236.0 219543.0 216488.0 85046.0 93021.0 251221.0 249629.0 264506.0 266059.0 205896.0 211115.0 75457.0 71962.0 283685.0 291555.0 124984.0 116895.0 81959.0 82194.0 147643.0 143065.0 74557.0 69260.0 138789.0 146553.0 237943.0 230889.0 210421.0 207761.0 257425.0 249973.0 30363.0 28300.0 182364.0 175528.0 207103.0 199585.0 44614.0 37555.0 115041.0 106581.0 8013.0 0.0 20470.0 15136.0 161385.0 154132.0 214766.0 207969.0 103095.0 109935.0 120699.0 121125.0 224077.0 231372.0 159367.0 167366.0 112940.0 115594.0 225007.0 232937.0 220667.0 80081.0 220667.0 220667.0 220667.0 220667.0 220667.0 220667.0 220667.0 220667.0 80081.0 80081.0 80081.0 80081.0 80081.0 80081.0 80081.0 80081.0
194985.0 197135.0 241499.0 237428.0 121110.0 128439.0 287766.0 280851.0 239138.0 243976.0 209604.0 215606.0 135825.0 140536.0 204904.0 211784.0 214272.0 220045.0 240577.0 237927.0 226561.0 222840.0 100071.0 107872.0 257176.0 256185.0 272060.0 274158.0 223705.0 228636.0 59167.0 54433.0 290809.0 298656.0 108600.0 100391.0 87180.0 88508.0 128690.0 124520.0 54303.0 48806.0 149212.0 157144.0 249097.0 242335.0 227798.0 224756.0 265036.0 257375.0 44185.0 45121.0 193065.0 185836.0 219204.0 211943.0 49849.0 45140.0 128969.0 120502.0 13028.0 20470.0 0.0 7469.0 174174.0 167226.0 219994.0 213615.0 116437.0 122522.0 130757.0 129949.0 229535.0 237039.0 172762.0 180758.0 126127.0 127688.0 238390.0 246431.0 224357.0 75676.0 224357.0 224357.0 224357.0 224357.0 224357.0 224357.0 224357.0 224357.0 75676.0 75676.0 75676.0 75676.0 75676.0 75676.0 75676.0 75676.0
191779.0 194197.0 239761.0 235477.0 119742.0 126887.0 290017.0 283229.0 241751.0 246401.0 204104.0 210243.0 136779.0 141830.0 201089.0 208095.0 212574.0 218539.0 243592.0 240959.0 228487.0 225005.0 98424.0 106330.0 259511.0 258303.0 273819.0 275712.0 220623.0 225739.0 66595.0 61902.0 292739.0 300598.0 110584.0 102439.0 89421.0 90373.0 132540.0 128027.0 61064.0 55163.0 149721.0 157598.0 249406.0 242516.0 224991.0 222179.0 266770.0 259182.0 42641.0 42254.0 193520.0 186445.0 219084.0 211704.0 51665.0 46017.0 127913.0 119432.0 7123.0 15136.0 7469.0 0.0 173707.0 166613.0 222555.0 216023.0 115624.0 122060.0 131375.0 131050.0 232024.0 239461.0 172017.0 180022.0 125406.0 127453.0 237701.0 245695.0 227389.0 80817.0 227389.0 227389.0 227389.0 227389.0 227389.0 227389.0 227389.0 227389.0 80817.0 80817.0 80817.0 80817.0 80817.0 80817.0 80817.0 80817.0
72108.0 66378.0 75405.0 74669.0 56349.0 51194.0 141313.0 137577.0 108113.0 107630.0 145371.0 144271.0 47714.0 49435.0 92808.0 93221.0 50883.0 52996.0 121168.0 123714.0 83506.0 86032.0 77610.0 69739.0 116410.0 111203.0 118547.0 117148.0 85778.0 85121.0 182407.0 187017.0 138442.0 145873.0 282003.0 273770.0 96905.0 93153.0 295959.0 293511.0 207829.0 208203.0 32300.0 26285.0 78375.0 70774.0 82567.0 75433.0 111816.0 106360.0 131257.0 133497.0 29792.0 28652.0 46116.0 38342.0 126607.0 129471.0 47028.0 55249.0 167856.0 161385.0 174174.0 173707.0 0.0 7778.0 93263.0 85480.0 58306.0 51667.0 48172.0 53763.0 98186.0 102210.0 6654.0 9070.0 48452.0 46615.0 64400.0 72520.0 116844.0 133594.0 116844.0 116844.0 116844.0 116844.0 116844.0 116844.0 116844.0 116844.0 133594.0 133594.0 133594.0 133594.0 133594.0 133594.0 133594.0 133594.0
69772.0 64686.0 79796.0 78361.0 48705.0 43434.0 148526.0 144624.0 114170.0 114024.0 141091.0 140370.0 44048.0 46939.0 90348.0 91411.0 54158.0 57250.0 126675.0 128876.0 89984.0 92090.0 70059.0 62154.0 123169.0 118152.0 125966.0 124702.0 85898.0 85957.0 176998.0 181405.0 145889.0 153358.0 275258.0 267023.0 91471.0 87548.0 289755.0 287186.0 201843.0 202018.0 29463.0 25050.0 86119.0 78490.0 83565.0 76815.0 119190.0 113595.0 124087.0 126159.0 36829.0 34663.0 53745.0 45894.0 120073.0 122693.0 39467.0 47769.0 160688.0 154132.0 167226.0 166613.0 7778.0 0.0 98720.0 90839.0 51045.0 44738.0 43368.0 49757.0 104091.0 108426.0 6245.0 13770.0 41220.0 40051.0 71167.0 79227.0 121091.0 128765.0 121091.0 121091.0 121091.0 121091.0 121091.0 121091.0 121091.0 121091.0 128765.0 128765.0 128765.0 128765.0 128765.0 128765.0 128765.0 128765.0
162266.0 155351.0 134385.0 139106.0 132661.0 131823.0 68525.0 61116.0 19247.0 24339.0 238053.0 236407.0 93285.0 85906.0 182608.0 181297.0 124369.0 120269.0 27956.0 30848.0 20956.0 12705.0 147979.0 142225.0 37857.0 38942.0 58555.0 63839.0 167631.0 163954.0 205971.0 211828.0 74009.0 81486.0 317399.0 309464.0 133166.0 132588.0 323732.0 322604.0 235363.0 238079.0 88127.0 83522.0 77378.0 78026.0 160947.0 152943.0 52718.0 44794.0 185994.0 191532.0 65791.0 64669.0 80163.0 82718.0 170972.0 177344.0 123921.0 128870.0 218801.0 214766.0 219994.0 222555.0 93263.0 98720.0 0.0 8000.0 128055.0 119697.0 100987.0 97047.0 9783.0 17574.0 99906.0 97813.0 120770.0 113325.0 102051.0 106722.0 33292.0 155105.0 33292.0 33292.0 33292.0 33292.0 33292.0 33292.0 33292.0 33292.0 155105.0 155105.0 155105.0 155105.0 155105.0 155105.0 155105.0 155105.0
154909.0 148079.0 128915.0 133347.0 124745.0 123851.0 74285.0 67236.0 26463.0 30377.0 230449.0 228894.0 85658.0 78379.0 175321.0 174164.0 117852.0 114042.0 35883.0 38321.0 19599.0 11791.0 140240.0 134413.0 43598.0 43503.0 62117.0 66670.0 160941.0 157461.0 200237.0 206094.0 78764.0 86413.0 311665.0 303730.0 126602.0 125860.0 317998.0 316870.0 229629.0 232345.0 80200.0 75534.0 74554.0 74427.0 154468.0 146469.0 55813.0 47749.0 179003.0 184420.0 58407.0 56945.0 74456.0 76485.0 164385.0 170627.0 115972.0 120984.0 212144.0 207969.0 213615.0 216023.0 85480.0 90839.0 8000.0 0.0 120238.0 111867.0 93304.0 89567.0 16165.0 23438.0 92130.0 90216.0 112872.0 105477.0 97214.0 102304.0 35337.0 149371.0 35337.0 35337.0 35337.0 35337.0 35337.0 35337.0 35337.0 35337.0 149371.0 149371.0 149371.0 149371.0 149371.0 149371.0 149371.0 149371.0
92043.0 91150.0 126382.0 123156.0 9904.0 16862.0 188651.0 183339.0 146443.0 148664.0 141837.0 144067.0 36012.0 44036.0 108608.0 113179.0 99237.0 104369.0 154516.0 154256.0 126522.0 125754.0 20724.0 14177.0 160139.0 156787.0 168533.0 168745.0 117590.0 120622.0 132163.0 135497.0 188391.0 196167.0 224784.0 216553.0 50007.0 45275.0 240823.0 237856.0 154057.0 153428.0 40777.0 47290.0 135688.0 128385.0 119067.0 114335.0 161469.0 154752.0 73055.0 75201.0 81368.0 75511.0 104204.0 96580.0 70737.0 72439.0 13041.0 5674.0 109651.0 103095.0 116437.0 115624.0 58306.0 51045.0 128055.0 120238.0 0.0 8419.0 28015.0 34707.0 135934.0 142105.0 56394.0 64399.0 9856.0 14913.0 122078.0 130076.0 141771.0 88619.0 141771.0 141771.0 141771.0 141771.0 141771.0 141771.0 141771.0 141771.0 88619.0 88619.0 88619.0 88619.0 88619.0 88619.0 88619.0 88619.0
91971.0 90353.0 122014.0 119242.0 14951.0 19185.0 180268.0 174933.0 138050.0 140248.0 145856.0 147672.0 28216.0 36262.0 109519.0 113578.0 95076.0 99736.0 146242.0 146077.0 118113.0 117337.0 29042.0 22576.0 151723.0 148390.0 160246.0 160540.0 116320.0 118833.0 135041.0 138797.0 180086.0 187870.0 230529.0 222294.0 50919.0 46392.0 245577.0 242824.0 158191.0 157952.0 32372.0 38998.0 128265.0 121073.0 117102.0 111928.0 153176.0 146420.0 79695.0 82323.0 73490.0 67434.0 97169.0 89686.0 75568.0 77966.0 11750.0 10180.0 116271.0 109935.0 122522.0 122060.0 51667.0 44738.0 119697.0 111867.0 8419.0 0.0 20301.0 27703.0 127539.0 133693.0 50419.0 58372.0 5542.0 6503.0 115898.0 123965.0 133739.0 89649.0 133739.0 133739.0 133739.0 133739.0 133739.0 133739.0 133739.0 133739.0 89649.0 89649.0 89649.0 89649.0 89649.0 89649.0 89649.0 89649.0
103660.0 100694.0 123137.0 121681.0 35101.0 37822.0 163699.0 157926.0 119698.0 122440.0 163424.0 164685.0 8000.0 16024.0 122662.0 125751.0 97414.0 100598.0 126975.0 126467.0 101243.0 99657.0 47070.0 41868.0 134417.0 131657.0 144889.0 145893.0 125153.0 126496.0 134329.0 139106.0 164474.0 172323.0 236861.0 228655.0 48980.0 45509.0 248934.0 246804.0 160449.0 161273.0 18521.0 26503.0 118447.0 111873.0 124400.0 118307.0 137787.0 130654.0 90444.0 94495.0 62341.0 55091.0 89677.0 83009.0 81477.0 85629.0 29199.0 30445.0 126243.0 120699.0 130757.0 131375.0 48172.0 43368.0 100987.0 93304.0 28015.0 20301.0 0.0 8532.0 109235.0 115732.0 49612.0 56658.0 23619.0 15185.0 111374.0 119540.0 113808.0 85477.0 113808.0 113808.0 113808.0 113808.0 113808.0 113808.0 113808.0 113808.0 85477.0 85477.0 85477.0 85477.0 85477.0 85477.0 85477.0 85477.0
111932.0 108801.0 129134.0 128057.0 42654.0 45967.0 161363.0 155276.0 116031.0 119261.0 171894.0 173195.0 6380.0 11266.0 131059.0 134046.0 103907.0 106660.0 122296.0 121341.0 98972.0 96722.0 52282.0 47949.0 131612.0 129316.0 143471.0 144934.0 132960.0 134081.0 129874.0 135002.0 162812.0 170680.0 234821.0 226645.0 45452.0 42604.0 245653.0 243774.0 156985.0 158223.0 21998.0 29636.0 120317.0 114090.0 131918.0 125655.0 136379.0 129023.0 91179.0 95848.0 64308.0 56608.0 92891.0 86655.0 80218.0 85052.0 37434.0 37861.0 126257.0 121125.0 129949.0 131050.0 53763.0 49757.0 97047.0 89567.0 34707.0 27703.0 8532.0 0.0 105663.0 112449.0 55956.0 62560.0 31617.0 23308.0 115565.0 123709.0 108260.0 80183.0 108260.0 108260.0 108260.0 108260.0 108260.0 108260.0 108260.0 108260.0 80183.0 80183.0 80183.0 80183.0 80183.0 80183.0 80183.0 80183.0
165532.0 158400.0 133862.0 139049.0 140140.0 138926.0 58761.0 51422.0 10515.0 14574.0 241989.0 240039.0 101654.0 94454.0 185640.0 183925.0 125785.0 121139.0 24300.0 29503.0 18377.0 12430.0 156070.0 150110.0 28077.0 29373.0 49312.0 54972.0 169263.0 165186.0 215692.0 221548.0 64297.0 71739.0 327120.0 319185.0 142610.0 141938.0 333453.0 332324.0 245084.0 247799.0 95611.0 90540.0 73606.0 75219.0 162159.0 154167.0 43775.0 36032.0 195156.0 200584.0 69625.0 69559.0 80421.0 83872.0 180409.0 186705.0 131217.0 136495.0 228201.0 224077.0 229535.0 232024.0 98186.0 104091.0 9783.0 16165.0 135934.0 127539.0 109235.0 105663.0 0.0 7799.0 104771.0 102024.0 128347.0 121111.0 100725.0 104752.0 40422.0 164826.0 40422.0 40422.0 40422.0 40422.0 40422.0 40422.0 40422.0 40422.0 164826.0 164826.0 164826.0 164826.0 164826.0 164826.0 164826.0 164826.0
168045.0 160759.0 133469.0 139010.0 145993.0 144489.0 51038.0 43823.0 6852.0 6940.0 244918.0 242729.0 108256.0 101205.0 187928.0 185898.0 126965.0 121908.0 24466.0 31170.0 19393.0 16574.0 162385.0 156268.0 20325.0 21744.0 41930.0 47920.0 170478.0 166093.0 223384.0 229241.0 56518.0 63944.0 334812.0 326877.0 150040.0 149286.0 341145.0 340017.0 252776.0 255492.0 101564.0 96163.0 70951.0 73356.0 163058.0 155097.0 36711.0 29230.0 202327.0 207660.0 73056.0 73765.0 80991.0 85112.0 187823.0 194051.0 136943.0 142467.0 235575.0 231372.0 237039.0 239461.0 102210.0 108426.0 17574.0 23438.0 142105.0 133693.0 115732.0 112449.0 7799.0 0.0 108720.0 105488.0 134294.0 127232.0 99853.0 103332.0 47048.0 172518.0 47048.0 47048.0 47048.0 47048.0 47048.0 47048.0 47048.0 47048.0 172518.0 172518.0 172518.0 172518.0 172518.0 172518.0 172518.0 172518.0
65852.0 60338.0 73555.0 72131.0 53379.0 47594.0 147221.0 143642.0 114664.0 114079.0 138742.0 137685.0 50194.0 52838.0 86533.0 87167.0 47951.0 51009.0 127804.0 130367.0 89936.0 92590.0 74900.0 66938.0 122685.0 117358.0 124209.0 122572.0 80619.0 80385.0 183176.0 187545.0 144048.0 151411.0 280926.0 272691.0 97659.0 93709.0 295707.0 293087.0 207882.0 207987.0 35391.0 30418.0 82267.0 74497.0 77931.0 71043.0 117547.0 112264.0 129433.0 131296.0 36035.0 35272.0 49524.0 41524.0 125904.0 128375.0 44401.0 52817.0 166017.0 159367.0 172762.0 172017.0 6654.0 6245.0 99906.0 92130.0 56394.0 50419.0 49612.0 55956.0 104771.0 108720.0 0.0 8006.0 46640.0 45967.0 65685.0 73686.0 123436.0 135005.0 123436.0 123436.0 123436.0 123436.0 123436.0 123436.0 123436.0 123436.0 135005.0 135005.0 135005.0 135005.0 135005.0 135005.0 135005.0 135005.0
65403.0 59203.0 66582.0 65663.0 61296.0 55357.0 142101.0 138867.0 111647.0 110544.0 140242.0 138722.0 56590.0 58489.0 86073.0 85967.0 41818.0 44102.0 125520.0 128536.0 86397.0 89688.0 82843.0 74871.0 118506.0 112852.0 118678.0 116680.0 77385.0 76434.0 190630.0 195099.0 138396.0 145645.0 288895.0 280661.0 105094.0 101223.0 303523.0 300944.0 215605.0 215787.0 41291.0 35352.0 74993.0 67141.0 73830.0 66591.0 112145.0 107200.0 137439.0 139286.0 32445.0 33472.0 42090.0 34027.0 133804.0 136337.0 52379.0 60806.0 174022.0 167366.0 180758.0 180022.0 9070.0 13770.0 97813.0 90216.0 64399.0 58372.0 56658.0 62560.0 102024.0 105488.0 8006.0 0.0 54640.0 53805.0 57679.0 65683.0 122800.0 142135.0 122800.0 122800.0 122800.0 122800.0 122800.0 122800.0 122800.0 122800.0 142135.0 142135.0 142135.0 142135.0 142135.0 142135.0 142135.0 142135.0
86430.0 84839.0 117367.0 114410.0 12021.0 14403.0 180095.0 174971.0 138860.0 140752.0 140952.0 142631.0 31199.0 39149.0 104006.0 108040.0 90327.0 95199.0 147649.0 147773.0 118222.0 117836.0 30015.0 22698.0 151947.0 148350.0 159600.0 159620.0 110856.0 113441.0 140106.0 143739.0 179505.0 187251.0 234376.0 226143.0 56319.0 51753.0 249972.0 247113.0 162842.0 162439.0 32741.0 38593.0 125908.0 118577.0 111739.0 106650.0 152558.0 145969.0 82867.0 85057.0 71872.0 66253.0 94355.0 86724.0 79869.0 81903.0 6325.0 8189.0 119468.0 112940.0 126127.0 125406.0 48452.0 41220.0 120770.0 112872.0 9856.0 5542.0 23619.0 31617.0 128347.0 134294.0 46640.0 54640.0 0.0 8448.0 112307.0 120323.0 135822.0 95068.0 135822.0 135822.0 135822.0 135822.0 135822.0 135822.0 135822.0 135822.0 95068.0 95068.0 95068.0 95068.0 95068.0 95068.0 95068.0 95068.0
91985.0 89815.0 118537.0 116132.0 20213.0 22673.0 173767.0 168431.0 131623.0 133775.0 148817.0 150312.0 22764.0 30739.0 110206.0 113856.0 91848.0 96113.0 139970.0 139910.0 111612.0 110861.0 35535.0 29041.0 145227.0 141887.0 153785.0 154124.0 115294.0 117394.0 137987.0 142035.0 173615.0 181404.0 235389.0 227155.0 52975.0 48677.0 249740.0 247139.0 161988.0 162022.0 25870.0 32553.0 122402.0 115298.0 115531.0 110028.0 146712.0 139937.0 85279.0 88186.0 67326.0 61124.0 91633.0 84275.0 80042.0 82873.0 14134.0 15823.0 121787.0 115594.0 127688.0 127453.0 46615.0 40051.0 113325.0 105477.0 14913.0 6503.0 15185.0 23308.0 121111.0 127232.0 45967.0 53805.0 8448.0 0.0 111007.0 119115.0 127741.0 91411.0 127741.0 127741.0 127741.0 127741.0 127741.0 127741.0 127741.0 127741.0 91411.0 91411.0 91411.0 91411.0 91411.0 91411.0 91411.0 91411.0
87257.0 79316.0 34148.0 40765.0 118672.0 112277.0 115563.0 115760.0 106673.0 101640.0 162524.0 158238.0 109203.0 108437.0 102900.0 98211.0 39479.0 31479.0 124204.0 130183.0 82406.0 89768.0 140268.0 132272.0 103015.0 95343.0 90722.0 85326.0 77883.0 71682.0 245421.0 250407.0 107151.0 112713.0 346379.0 338145.0 160341.0 156852.0 360121.0 357786.0 271776.0 272380.0 93615.0 85949.0 34438.0 28309.0 68760.0 61512.0 86385.0 85491.0 195117.0 196878.0 55523.0 63496.0 25702.0 29516.0 191004.0 193823.0 109970.0 118426.0 231695.0 225007.0 238390.0 237701.0 64400.0 71167.0 102051.0 97214.0 122078.0 115898.0 111374.0 115565.0 100725.0 99853.0 65685.0 57679.0 112307.0 111007.0 0.0 8167.0 134550.0 195588.0 134550.0 134550.0 134550.0 134550.0 134550.0 134550.0 134550.0 134550.0 195588.0 195588.0 195588.0 195588.0 195588.0 195588.0 195588.0 195588.0
91519.0 83659.0 33507.0 41016.0 126524.0 120038.0 115422.0 116221.0 110089.0 104623.0 165527.0 160912.0 117345.0 116512.0 106099.0 100936.0 44272.0 36102.0 127786.0 134054.0 86596.0 94244.0 148120.0 140122.0 104983.0 97178.0 90845.0 84929.0 79708.0 73022.0 253571.0 258568.0 106276.0 111411.0 354469.0 346235.0 168507.0 165019.0 368283.0 365939.0 279942.0 280540.0 101767.0 94087.0 34837.0 30217.0 70211.0 63428.0 87043.0 86903.0 203095.0 204780.0 63216.0 71253.0 33062.0 37479.0 199127.0 201908.0 117896.0 126362.0 239661.0 232937.0 246431.0 245695.0 72520.0 79227.0 106722.0 102304.0 130076.0 123965.0 119540.0 123709.0 104752.0 103332.0 73686.0 65683.0 120323.0 119115.0 8167.0 0.0 139846.0 203707.0 139846.0 139846.0 139846.0 139846.0 139846.0 139846.0 139846.0 139846.0 203707.0 203707.0 203707.0 203707.0 203707.0 203707.0 203707.0 203707.0
188170.0 181724.0 165956.0 170149.0 147836.0 148365.0 92852.0 84514.0 44275.0 52073.0 262112.0 261115.0 105814.0 97865.0 208797.0 208225.0 153675.0 150345.0 36893.0 31861.0 53939.0 45598.0 160498.0 155671.0 64505.0 68264.0 88720.0 94953.0 196277.0 193212.0 209336.0 215192.0 101167.0 107939.0 320764.0 312829.0 138719.0 138832.0 327097.0 325969.0 238728.0 241444.0 104539.0 101763.0 109849.0 109735.0 190251.0 182282.0 83749.0 76242.0 192960.0 199086.0 92538.0 89435.0 111434.0 112936.0 176257.0 183114.0 139943.0 143565.0 224102.0 220667.0 224357.0 227389.0 116844.0 121091.0 33292.0 35337.0 141771.0 133739.0 113808.0 108260.0 40422.0 47048.0 123436.0 122800.0 135822.0 127741.0 134550.0 139846.0 0.0 158470.0 0.0 0.0 0.0 0.0 0.0 0.0 0.0 0.0 158470.0 158470.0 158470.0 158470.0 158470.0 158470.0 158470.0 158470.0
180652.0 179673.0 208560.0 206844.0 97785.0 105378.0 223554.0 216221.0 173963.0 179394.0 222342.0 226086.0 86491.0 87390.0 196710.0 201614.0 182518.0 186013.0 174691.0 172040.0 164492.0 159580.0 85675.0 89876.0 192835.0 192751.0 210223.0 213414.0 205896.0 208479.0 50865.0 57106.0 227928.0 235656.0 164164.0 156343.0 38758.0 43398.0 170417.0 168223.0 81174.0 84457.0 102177.0 109679.0 197172.0 191730.0 206726.0 201399.0 203425.0 195471.0 64459.0 72531.0 142547.0 134468.0 172222.0 166420.0 42206.0 49871.0 100704.0 94275.0 80125.0 80081.0 75676.0 80817.0 133594.0 128765.0 155105.0 149371.0 88619.0 89649.0 85477.0 80183.0 164826.0 172518.0 135005.0 142135.0 95068.0 91411.0 195588.0 203707.0 158470.0 0.0 158470.0 158470.0 158470.0 158470.0 158470.0 158470.0 158470.0 158470.0 0.0 0.0 0.0 0.0 0.0 0.0 0.0 0.0
188170.0 181724.0 165956.0 170149.0 147836.0 148365.0 92852.0 84514.0 44275.0 52073.0 262112.0 261115.0 105814.0 97865.0 208797.0 208225.0 153675.0 150345.0 36893.0 31861.0 53939.0 45598.0 160498.0 155671.0 64505.0 68264.0 88720.0 94953.0 196277.0 193212.0 209336.0 215192.0 101167.0 107939.0 320764.0 312829.0 138719.0 138832.0 327097.0 325969.0 238728.0 241444.0 104539.0 101763.0 109849.0 109735.0 190251.0 182282.0 83749.0 76242.0 192960.0 199086.0 92538.0 89435.0 111434.0 112936.0 176257.0 183114.0 139943.0 143565.0 224102.0 220667.0 224357.0 227389.0 116844.0 121091.0 33292.0 35337.0 141771.0 133739.0 113808.0 108260.0 40422.0 47048.0 123436.0 122800.0 135822.0 127741.0 134550.0 139846.0 0.0 158470.0 0.0 0.0 0.0 0.0 0.0 0.0 0.0 0.0 158470.0 158470.0 158470.0 158470.0 158470.0 158470.0 158470.0 158470.0
188170.0 181724.0 165956.0 170149.0 147836.0 148365.0 92852.0 84514.0 44275.0 52073.0 262112.0 261115.0 105814.0 97865.0 208797.0 208225.0 153675.0 150345.0 36893.0 31861.0 53939.0 45598.0 160498.0 155671.0 64505.0 68264.0 88720.0 94953.0 196277.0 193212.0 209336.0 215192.0 101167.0 107939.0 320764.0 312829.0 138719.0 138832.0 327097.0 325969.0 238728.0 241444.0 104539.0 101763.0 109849.0 109735.0 190251.0 182282.0 83749.0 76242.0 192960.0 199086.0 92538.0 89435.0 111434.0 112936.0 176257.0 183114.0 139943.0 143565.0 224102.0 220667.0 224357.0 227389.0 116844.0 121091.0 33292.0 35337.0 141771.0 133739.0 113808.0 108260.0 40422.0 47048.0 123436.0 122800.0 135822.0 127741.0 134550.0 139846.0 0.0 158470.0 0.0 0.0 0.0 0.0 0.0 0.0 0.0 0.0 158470.0 158470.0 158470.0 158470.0 158470.0 158470.0 158470.0 158470.0
188170.0 181724.0 165956.0 170149.0 147836.0 148365.0 92852.0 84514.0 44275.0 52073.0 262112.0 261115.0 105814.0 97865.0 208797.0 208225.0 153675.0 150345.0 36893.0 31861.0 53939.0 45598.0 160498.0 155671.0 64505.0 68264.0 88720.0 94953.0 196277.0 193212.0 209336.0 215192.0 101167.0 107939.0 320764.0 312829.0 138719.0 138832.0 327097.0 325969.0 238728.0 241444.0 104539.0 101763.0 109849.0 109735.0 190251.0 182282.0 83749.0 76242.0 192960.0 199086.0 92538.0 89435.0 111434.0 112936.0 176257.0 183114.0 139943.0 143565.0 224102.0 220667.0 224357.0 227389.0 116844.0 121091.0 33292.0 35337.0 141771.0 133739.0 113808.0 108260.0 40422.0 47048.0 123436.0 122800.0 135822.0 127741.0 134550.0 139846.0 0.0 158470.0 0.0 0.0 0.0 0.0 0.0 0.0 0.0 0.0 158470.0 158470.0 158470.0 158470.0 158470.0 158470.0 158470.0 158470.0
188170.0 181724.0 165956.0 170149.0 147836.0 148365.0 92852.0 84514.0 44275.0 52073.0 262112.0 261115.0 105814.0 97865.0 208797.0 208225.0 153675.0 150345.0 36893.0 31861.0 53939.0 45598.0 160498.0 155671.0 64505.0 68264.0 88720.0 94953.0 196277.0 193212.0 209336.0 215192.0 101167.0 107939.0 320764.0 312829.0 138719.0 138832.0 327097.0 325969.0 238728.0 241444.0 104539.0 101763.0 109849.0 109735.0 190251.0 182282.0 83749.0 76242.0 192960.0 199086.0 92538.0 89435.0 111434.0 112936.0 176257.0 183114.0 139943.0 143565.0 224102.0 220667.0 224357.0 227389.0 116844.0 121091.0 33292.0 35337.0 141771.0 133739.0 113808.0 108260.0 40422.0 47048.0 123436.0 122800.0 135822.0 127741.0 134550.0 139846.0 0.0 158470.0 0.0 0.0 0.0 0.0 0.0 0.0 0.0 0.0 158470.0 158470.0 158470.0 158470.0 158470.0 158470.0 158470.0 158470.0
188170.0 181724.0 165956.0 170149.0 147836.0 148365.0 92852.0 84514.0 44275.0 52073.0 262112.0 261115.0 105814.0 97865.0 208797.0 208225.0 153675.0 150345.0 36893.0 31861.0 53939.0 45598.0 160498.0 155671.0 64505.0 68264.0 88720.0 94953.0 196277.0 193212.0 209336.0 215192.0 101167.0 107939.0 320764.0 312829.0 138719.0 138832.0 327097.0 325969.0 238728.0 241444.0 104539.0 101763.0 109849.0 109735.0 190251.0 182282.0 83749.0 76242.0 192960.0 199086.0 92538.0 89435.0 111434.0 112936.0 176257.0 183114.0 139943.0 143565.0 224102.0 220667.0 224357.0 227389.0 116844.0 121091.0 33292.0 35337.0 141771.0 133739.0 113808.0 108260.0 40422.0 47048.0 123436.0 122800.0 135822.0 127741.0 134550.0 139846.0 0.0 158470.0 0.0 0.0 0.0 0.0 0.0 0.0 0.0 0.0 158470.0 158470.0 158470.0 158470.0 158470.0 158470.0 158470.0 158470.0
188170.0 181724.0 165956.0 170149.0 147836.0 148365.0 92852.0 84514.0 44275.0 52073.0 262112.0 261115.0 105814.0 97865.0 208797.0 208225.0 153675.0 150345.0 36893.0 31861.0 53939.0 45598.0 160498.0 155671.0 64505.0 68264.0 88720.0 94953.0 196277.0 193212.0 209336.0 215192.0 101167.0 107939.0 320764.0 312829.0 138719.0 138832.0 327097.0 325969.0 238728.0 241444.0 104539.0 101763.0 109849.0 109735.0 190251.0 182282.0 83749.0 76242.0 192960.0 199086.0 92538.0 89435.0 111434.0 112936.0 176257.0 183114.0 139943.0 143565.0 224102.0 220667.0 224357.0 227389.0 116844.0 121091.0 33292.0 35337.0 141771.0 133739.0 113808.0 108260.0 40422.0 47048.0 123436.0 122800.0 135822.0 127741.0 134550.0 139846.0 0.0 158470.0 0.0 0.0 0.0 0.0 0.0 0.0 0.0 0.0 158470.0 158470.0 158470.0 158470.0 158470.0 158470.0 158470.0 158470.0
188170.0 181724.0 165956.0 170149.0 147836.0 148365.0 92852.0 84514.0 44275.0 52073.0 262112.0 261115.0 105814.0 97865.0 208797.0 208225.0 153675.0 150345.0 36893.0 31861.0 53939.0 45598.0 160498.0 155671.0 64505.0 68264.0 88720.0 94953.0 196277.0 193212.0 209336.0 215192.0 101167.0 107939.0 320764.0 312829.0 138719.0 138832.0 327097.0 325969.0 238728.0 241444.0 104539.0 101763.0 109849.0 109735.0 190251.0 182282.0 83749.0 76242.0 192960.0 199086.0 92538.0 89435.0 111434.0 112936.0 176257.0 183114.0 139943.0 143565.0 224102.0 220667.0 224357.0 227389.0 116844.0 121091.0 33292.0 35337.0 141771.0 133739.0 113808.0 108260.0 40422.0 47048.0 123436.0 122800.0 135822.0 127741.0 134550.0 139846.0 0.0 158470.0 0.0 0.0 0.0 0.0 0.0 0.0 0.0 0.0 158470.0 158470.0 158470.0 158470.0 158470.0 158470.0 158470.0 158470.0
188170.0 181724.0 165956.0 170149.0 147836.0 148365.0 92852.0 84514.0 44275.0 52073.0 262112.0 261115.0 105814.0 97865.0 208797.0 208225.0 153675.0 150345.0 36893.0 31861.0 53939.0 45598.0 160498.0 155671.0 64505.0 68264.0 88720.0 94953.0 196277.0 193212.0 209336.0 215192.0 101167.0 107939.0 320764.0 312829.0 138719.0 138832.0 327097.0 325969.0 238728.0 241444.0 104539.0 101763.0 109849.0 109735.0 190251.0 182282.0 83749.0 76242.0 192960.0 199086.0 92538.0 89435.0 111434.0 112936.0 176257.0 183114.0 139943.0 143565.0 224102.0 220667.0 224357.0 227389.0 116844.0 121091.0 33292.0 35337.0 141771.0 133739.0 113808.0 108260.0 40422.0 47048.0 123436.0 122800.0 135822.0 127741.0 134550.0 139846.0 0.0 158470.0 0.0 0.0 0.0 0.0 0.0 0.0 0.0 0.0 158470.0 158470.0 158470.0 158470.0 158470.0 158470.0 158470.0 158470.0
180652.0 179673.0 208560.0 206844.0 97785.0 105378.0 223554.0 216221.0 173963.0 179394.0 222342.0 226086.0 86491.0 87390.0 196710.0 201614.0 182518.0 186013.0 174691.0 172040.0 164492.0 159580.0 85675.0 89876.0 192835.0 192751.0 210223.0 213414.0 205896.0 208479.0 50865.0 57106.0 227928.0 235656.0 164164.0 156343.0 38758.0 43398.0 170417.0 168223.0 81174.0 84457.0 102177.0 109679.0 197172.0 191730.0 206726.0 201399.0 203425.0 195471.0 64459.0 72531.0 142547.0 134468.0 172222.0 166420.0 42206.0 49871.0 100704.0 94275.0 80125.0 80081.0 75676.0 80817.0 133594.0 128765.0 155105.0 149371.0 88619.0 89649.0 85477.0 80183.0 164826.0 172518.0 135005.0 142135.0 95068.0 91411.0 195588.0 203707.0 158470.0 0.0 158470.0 158470.0 158470.0 158470.0 158470.0 158470.0 158470.0 158470.0 0.0 0.0 0.0 0.0 0.0 0.0 0.0 0.0
180652.0 179673.0 208560.0 206844.0 97785.0 105378.0 223554.0 216221.0 173963.0 179394.0 222342.0 226086.0 86491.0 87390.0 196710.0 201614.0 182518.0 186013.0 174691.0 172040.0 164492.0 159580.0 85675.0 89876.0 192835.0 192751.0 210223.0 213414.0 205896.0 208479.0 50865.0 57106.0 227928.0 235656.0 164164.0 156343.0 38758.0 43398.0 170417.0 168223.0 81174.0 84457.0 102177.0 109679.0 197172.0 191730.0 206726.0 201399.0 203425.0 195471.0 64459.0 72531.0 142547.0 134468.0 172222.0 166420.0 42206.0 49871.0 100704.0 94275.0 80125.0 80081.0 75676.0 80817.0 133594.0 128765.0 155105.0 149371.0 88619.0 89649.0 85477.0 80183.0 164826.0 172518.0 135005.0 142135.0 95068.0 91411.0 195588.0 203707.0 158470.0 0.0 158470.0 158470.0 158470.0 158470.0 158470.0 158470.0 158470.0 158470.0 0.0 0.0 0.0 0.0 0.0 0.0 0.0 0.0
180652.0 179673.0 208560.0 206844.0 97785.0 105378.0 223554.0 216221.0 173963.0 179394.0 222342.0 226086.0 86491.0 87390.0 196710.0 201614.0 182518.0 186013.0 174691.0 172040.0 164492.0 159580.0 85675.0 89876.0 192835.0 192751.0 210223.0 213414.0 205896.0 208479.0 50865.0 57106.0 227928.0 235656.0 164164.0 156343.0 38758.0 43398.0 170417.0 168223.0 81174.0 84457.0 102177.0 109679.0 197172.0 191730.0 206726.0 201399.0 203425.0 195471.0 64459.0 72531.0 142547.0 134468.0 172222.0 166420.0 42206.0 49871.0 100704.0 94275.0 80125.0 80081.0 75676.0 80817.0 133594.0 128765.0 155105.0 149371.0 88619.0 89649.0 85477.0 80183.0 164826.0 172518.0 135005.0 142135.0 95068.0 91411.0 195588.0 203707.0 158470.0 0.0 158470.0 158470.0 158470.0 158470.0 158470.0 158470.0 158470.0 158470.0 0.0 0.0 0.0 0.0 0.0 0.0 0.0 0.0
180652.0 179673.0 208560.0 206844.0 97785.0 105378.0 223554.0 216221.0 173963.0 179394.0 222342.0 226086.0 86491.0 87390.0 196710.0 201614.0 182518.0 186013.0 174691.0 172040.0 164492.0 159580.0 85675.0 89876.0 192835.0 192751.0 210223.0 213414.0 205896.0 208479.0 50865.0 57106.0 227928.0 235656.0 164164.0 156343.0 38758.0 43398.0 170417.0 168223.0 81174.0 84457.0 102177.0 109679.0 197172.0 191730.0 206726.0 201399.0 203425.0 195471.0 64459.0 72531.0 142547.0 134468.0 172222.0 166420.0 42206.0 49871.0 100704.0 94275.0 80125.0 80081.0 75676.0 80817.0 133594.0 128765.0 155105.0 149371.0 88619.0 89649.0 85477.0 80183.0 164826.0 172518.0 135005.0 142135.0 95068.0 91411.0 195588.0 203707.0 158470.0 0.0 158470.0 158470.0 158470.0 158470.0 158470.0 158470.0 158470.0 158470.0 0.0 0.0 0.0 0.0 0.0 0.0 0.0 0.0
180652.0 179673.0 208560.0 206844.0 97785.0 105378.0 223554.0 216221.0 173963.0 179394.0 222342.0 226086.0 86491.0 87390.0 196710.0 201614.0 182518.0 186013.0 174691.0 172040.0 164492.0 159580.0 85675.0 89876.0 192835.0 192751.0 210223.0 213414.0 205896.0 208479.0 50865.0 57106.0 227928.0 235656.0 164164.0 156343.0 38758.0 43398.0 170417.0 168223.0 81174.0 84457.0 102177.0 109679.0 197172.0 191730.0 206726.0 201399.0 203425.0 195471.0 64459.0 72531.0 142547.0 134468.0 172222.0 166420.0 42206.0 49871.0 100704.0 94275.0 80125.0 80081.0 75676.0 80817.0 133594.0 128765.0 155105.0 149371.0 88619.0 89649.0 85477.0 80183.0 164826.0 172518.0 135005.0 142135.0 95068.0 91411.0 195588.0 203707.0 158470.0 0.0 158470.0 158470.0 158470.0 158470.0 158470.0 158470.0 158470.0 158470.0 0.0 0.0 0.0 0.0 0.0 0.0 0.0 0.0
180652.0 179673.0 208560.0 206844.0 97785.0 105378.0 223554.0 216221.0 173963.0 179394.0 222342.0 226086.0 86491.0 87390.0 196710.0 201614.0 182518.0 186013.0 174691.0 172040.0 164492.0 159580.0 85675.0 89876.0 192835.0 192751.0 210223.0 213414.0 205896.0 208479.0 50865.0 57106.0 227928.0 235656.0 164164.0 156343.0 38758.0 43398.0 170417.0 168223.0 81174.0 84457.0 102177.0 109679.0 197172.0 191730.0 206726.0 201399.0 203425.0 195471.0 64459.0 72531.0 142547.0 134468.0 172222.0 166420.0 42206.0 49871.0 100704.0 94275.0 80125.0 80081.0 75676.0 80817.0 133594.0 128765.0 155105.0 149371.0 88619.0 89649.0 85477.0 80183.0 164826.0 172518.0 135005.0 142135.0 95068.0 91411.0 195588.0 203707.0 158470.0 0.0 158470.0 158470.0 158470.0 158470.0 158470.0 158470.0 158470.0 158470.0 0.0 0.0 0.0 0.0 0.0 0.0 0.0 0.0
180652.0 179673.0 208560.0 206844.0 97785.0 105378.0 223554.0 216221.0 173963.0 179394.0 222342.0 226086.0 86491.0 87390.0 196710.0 201614.0 182518.0 186013.0 174691.0 172040.0 164492.0 159580.0 85675.0 89876.0 192835.0 192751.0 210223.0 213414.0 205896.0 208479.0 50865.0 57106.0 227928.0 235656.0 164164.0 156343.0 38758.0 43398.0 170417.0 168223.0 81174.0 84457.0 102177.0 109679.0 197172.0 191730.0 206726.0 201399.0 203425.0 195471.0 64459.0 72531.0 142547.0 134468.0 172222.0 166420.0 42206.0 49871.0 100704.0 94275.0 80125.0 80081.0 75676.0 80817.0 133594.0 128765.0 155105.0 149371.0 88619.0 89649.0 85477.0 80183.0 164826.0 172518.0 135005.0 142135.0 95068.0 91411.0 195588.0 203707.0 158470.0 0.0 158470.0 158470.0 158470.0 158470.0 158470.0 158470.0 158470.0 158470.0 0.0 0.0 0.0 0.0 0.0 0.0 0.0 0.0
180652.0 179673.0 208560.0 206844.0 97785.0 105378.0 223554.0 216221.0 173963.0 179394.0 222342.0 226086.0 86491.0 87390.0 196710.0 201614.0 182518.0 186013.0 174691.0 172040.0 164492.0 159580.0 85675.0 89876.0 192835.0 192751.0 210223.0 213414.0 205896.0 208479.0 50865.0 57106.0 227928.0 235656.0 164164.0 156343.0 38758.0 43398.0 170417.0 168223.0 81174.0 84457.0 102177.0 109679.0 197172.0 191730.0 206726.0 201399.0 203425.0 195471.0 64459.0 72531.0 142547.0 134468.0 172222.0 166420.0 42206.0 49871.0 100704.0 94275.0 80125.0 80081.0 75676.0 80817.0 133594.0 128765.0 155105.0 149371.0 88619.0 89649.0 85477.0 80183.0 164826.0 172518.0 135005.0 142135.0 95068.0 91411.0 195588.0 203707.0 158470.0 0.0 158470.0 158470.0 158470.0 158470.0 158470.0 158470.0 158470.0 158470.0 0.0 0.0 0.0 0.0 0.0 0.0 0.0 0.0
FIXED_EDGES_SECTION
1 2
3 4
5 6
7 8
9 10
11 12
13 14
15 16
17 18
19 20
21 22
23 24
25 26
27 28
29 30
31 32
33 34
35 36
37 38
39 40
41 42
43 44
45 46
47 48
49 50
51 52
53 54
55 56
57 58
59 60
61 62
63 64
65 66
67 68
69 70
71 72
73 74
75 76
77 78
79 80
-1 
DEMAND_SECTION
1 180
2 180
3 211
4 211
5 291
6 291
7 251
8 251
9 104
10 104
11 234
12 234
13 373
14 373
15 157
16 157
17 211
18 211
19 97
20 97
21 100
22 100
23 130
24 130
25 247
26 247
27 274
28 274
29 72
30 72
31 114
32 114
33 316
34 316
35 421
36 421
37 399
38 399
39 491
40 491
41 534
42 534
43 432
44 432
45 461
46 461
47 186
48 186
49 379
50 379
51 84
52 84
53 171
54 171
55 583
56 583
57 313
58 313
59 421
60 421
61 336
62 336
63 620
64 620
65 191
66 191
67 485
68 485
69 223
70 223
71 358
72 358
73 618
74 618
75 256
76 256
77 119
78 119
79 247
80 247
81 0
82 0
83 0
84 0
85 0
86 0
87 0
88 0
89 0
90 0
91 0
92 0
93 0
94 0
95 0
96 0
97 0
98 0
DEPOT_SECTION
81 
-1 
CAPACITIES_SECTION
2500 
2750 
3000 
3250 
-1 
EOF