NAME: GFS_20_1
TYPE: GFSP
DIMENSION: 96
VEHICLES: 4
CAPACITY: 2500.0
TRIP_DIST_LIMIT: 750000.0
TOTAL_DIST_LIMIT: 1050000.0
EDGE_WEIGHT_TYPE: EXPLICIT
EDGE_WEIGHT_FORMAT: FULL_MATRIX
EDGE_WEIGHT_SECTION
0.0 7988.0 112483.0 116427.0 95611.0 101564.0 33800.0 36415.0 225907.0 227205.0 112837.0 106950.0 87342.0 92359.0 263955.0 256240.0 39735.0 43179.0 26650.0 31064.0 189632.0 183131.0 35857.0 40906.0 219740.0 214370.0 183029.0 179392.0 81644.0 87321.0 97776.0 90063.0 67330.0 69511.0 162753.0 163086.0 51243.0 56726.0 139248.0 135861.0 254306.0 252731.0 41849.0 45100.0 267134.0 265099.0 91370.0 84686.0 186817.0 186907.0 26233.0 32911.0 155315.0 154852.0 117246.0 110437.0 66937.0 63712.0 141584.0 143646.0 17813.0 23702.0 35391.0 41291.0 43853.0 36752.0 48804.0 56199.0 9949.0 17798.0 54132.0 49307.0 93615.0 101767.0 62052.0 54196.0 119385.0 116018.0 71339.0 64866.0 104539.0 102177.0 104539.0 104539.0 104539.0 104539.0 104539.0 104539.0 104539.0 102177.0 102177.0 102177.0 102177.0 102177.0 102177.0 102177.0
7988.0 0.0 104497.0 108464.0 90540.0 96163.0 34169.0 38485.0 233850.0 235117.0 105312.0 99290.0 86134.0 91713.0 271941.0 264228.0 31778.0 35237.0 34357.0 39039.0 197612.0 191100.0 40796.0 46767.0 227701.0 222346.0 180439.0 177113.0 89182.0 95015.0 90196.0 82403.0 74940.0 77336.0 162774.0 162703.0 43395.0 49103.0 132667.0 129544.0 262212.0 260599.0 35560.0 38004.0 275048.0 273041.0 98700.0 91831.0 186426.0 186171.0 32820.0 39792.0 163274.0 162835.0 110967.0 103940.0 74824.0 71653.0 135826.0 137582.0 11022.0 18274.0 30418.0 35352.0 35930.0 28996.0 41852.0 48990.0 17871.0 25772.0 46294.0 41334.0 85949.0 94087.0 54076.0 46241.0 113448.0 109762.0 63412.0 57036.0 101763.0 109679.0 101763.0 101763.0 101763.0 101763.0 101763.0 101763.0 101763.0 109679.0 109679.0 109679.0 109679.0 109679.0 109679.0 109679.0
112483.0 104497.0 0.0 8154.0 88493.0 85241.0 114638.0 123078.0 338063.0 339094.0 38573.0 32230.0 127118.0 135340.0 376438.0 368721.0 72873.0 69729.0 138241.0 143519.0 301996.0 295371.0 135182.0 143419.0 332051.0 326791.0 177340.0 178732.0 191420.0 198022.0 36668.0 36621.0 177769.0 181142.0 194468.0 189927.0 62847.0 60525.0 78692.0 82844.0 366126.0 364291.0 81084.0 73642.0 379013.0 377232.0 198996.0 191203.0 209770.0 205488.0 134060.0 141209.0 267628.0 267324.0 71391.0 64349.0 178922.0 175992.0 94859.0 89906.0 96387.0 95181.0 91195.0 83476.0 69221.0 77135.0 72048.0 64525.0 122274.0 130228.0 59745.0 63254.0 32461.0 29047.0 50726.0 58783.0 82408.0 74484.0 42128.0 49836.0 125530.0 211398.0 125530.0 125530.0 125530.0 125530.0 125530.0 125530.0 125530.0 211398.0 211398.0 211398.0 211398.0 211398.0 211398.0 211398.0
116427.0 108464.0 8154.0 0.0 96581.0 93385.0 116337.0 124765.0 342297.0 343477.0 46404.0 40303.0 125243.0 133406.0 380231.0 372473.0 76692.0 74262.0 142525.0 147488.0 305534.0 298801.0 137409.0 145746.0 336165.0 330780.0 171420.0 173073.0 196241.0 202678.0 44792.0 44431.0 182431.0 185530.0 190567.0 185773.0 67940.0 66353.0 85921.0 90360.0 370547.0 368768.0 82953.0 75846.0 383409.0 381485.0 201375.0 193460.0 205151.0 200649.0 138795.0 145974.0 271738.0 271216.0 65513.0 58936.0 183185.0 180109.0 88005.0 82753.0 99846.0 98027.0 93105.0 85227.0 73842.0 81898.0 73855.0 66061.0 126094.0 134062.0 62821.0 67137.0 30605.0 25382.0 55447.0 63513.0 90428.0 82510.0 45225.0 52439.0 133371.0 216364.0 133371.0 133371.0 133371.0 133371.0 133371.0 133371.0 133371.0 216364.0 216364.0 216364.0 216364.0 216364.0 216364.0 216364.0
95611.0 90540.0 88493.0 96581.0 0.0 7799.0 121746.0 127889.0 293541.0 293750.0 56137.0 58344.0 164066.0 171454.0 334715.0 327491.0 78528.0 70619.0 109185.0 117222.0 264960.0 259908.0 131217.0 136495.0 288399.0 284237.0 243715.0 242774.0 146352.0 154378.0 51870.0 52973.0 136469.0 142929.0 241989.0 240039.0 64315.0 56728.0 53170.0 46792.0 320526.0 318586.0 99767.0 93490.0 333453.0 332324.0 182787.0 177298.0 262985.0 260928.0 100102.0 105052.0 225650.0 227847.0 145570.0 137065.0 142610.0 141938.0 172827.0 170135.0 91954.0 97835.0 104771.0 102024.0 69625.0 69559.0 96106.0 95145.0 103548.0 108971.0 82059.0 75894.0 100725.0 104752.0 68676.0 67932.0 28077.0 29373.0 80421.0 83872.0 40422.0 164826.0 40422.0 40422.0 40422.0 40422.0 40422.0 40422.0 40422.0 164826.0 164826.0 164826.0 164826.0 164826.0 164826.0 164826.0
101564.0 96163.0 85241.0 93385.0 7799.0 0.0 126578.0 132988.0 301234.0 301443.0 51019.0 54123.0 167297.0 174832.0 342407.0 335183.0 82053.0 74076.0 116077.0 124061.0 272629.0 267542.0 136943.0 142467.0 296091.0 291929.0 244788.0 244103.0 154031.0 162043.0 48634.0 50905.0 144028.0 150421.0 244918.0 242729.0 67169.0 59314.0 45373.0 39022.0 328218.0 326278.0 103142.0 96522.0 341145.0 340017.0 189591.0 183966.0 265488.0 263211.0 107135.0 112240.0 233342.0 235530.0 145074.0 136626.0 150040.0 149286.0 172087.0 169050.0 96909.0 102427.0 108720.0 105488.0 73056.0 73765.0 98891.0 97325.0 109776.0 115436.0 84266.0 78591.0 99853.0 103332.0 70174.0 70311.0 20325.0 21744.0 80991.0 85112.0 47048.0 172518.0 47048.0 47048.0 47048.0 47048.0 47048.0 47048.0 47048.0 172518.0 172518.0 172518.0 172518.0 172518.0 172518.0 172518.0
33800.0 34169.0 114638.0 116337.0 121746.0 126578.0 0.0 8440.0 234303.0 236624.0 125784.0 118530.0 53972.0 58631.0 269013.0 261083.0 48172.0 55480.0 50112.0 48867.0 193542.0 186305.0 22441.0 30868.0 227392.0 221205.0 150824.0 146771.0 100412.0 104026.0 110663.0 102370.0 86251.0 85421.0 129005.0 129285.0 64148.0 71828.0 158629.0 156671.0 263636.0 263049.0 33563.0 41211.0 276147.0 273187.0 85735.0 77588.0 153017.0 153143.0 55182.0 59959.0 164071.0 161915.0 98401.0 93245.0 81847.0 77441.0 119189.0 122763.0 29823.0 24423.0 23517.0 31168.0 56498.0 53345.0 42595.0 50279.0 34265.0 38246.0 56261.0 56104.0 88155.0 95975.0 70046.0 64206.0 142143.0 137419.0 73040.0 65037.0 135648.0 120401.0 135648.0 135648.0 135648.0 135648.0 135648.0 135648.0 135648.0 120401.0 120401.0 120401.0 120401.0 120401.0 120401.0 120401.0
36415.0 38485.0 123078.0 124765.0 127889.0 132988.0 8440.0 0.0 227017.0 229471.0 133815.0 126642.0 54674.0 58263.0 261297.0 253353.0 55988.0 63084.0 48132.0 45562.0 185802.0 178505.0 15225.0 23336.0 220021.0 213743.0 152252.0 147813.0 95639.0 98749.0 118656.0 110379.0 81746.0 80259.0 127087.0 127898.0 71829.0 79375.0 166075.0 163913.0 256435.0 255985.0 41999.0 49619.0 268889.0 265813.0 77527.0 69330.0 151565.0 152134.0 54517.0 58454.0 156991.0 154613.0 105230.0 100403.0 76547.0 71997.0 125095.0 129011.0 36119.0 31765.0 31935.0 39608.0 64086.0 60404.0 51035.0 58711.0 34505.0 36770.0 64592.0 64185.0 96480.0 104262.0 78182.0 72146.0 149035.0 144523.0 81452.0 73459.0 140215.0 115283.0 140215.0 140215.0 140215.0 140215.0 140215.0 140215.0 140215.0 115283.0 115283.0 115283.0 115283.0 115283.0 115283.0 115283.0
225907.0 233850.0 338063.0 342297.0 293541.0 301234.0 234303.0 227017.0 0.0 7469.0 331585.0 327534.0 265506.0 262940.0 44180.0 38769.0 265627.0 268336.0 199828.0 194879.0 47916.0 55842.0 211945.0 203681.0 8332.0 16285.0 348007.0 340770.0 148046.0 140773.0 317839.0 311295.0 160844.0 156959.0 294950.0 301337.0 275524.0 279223.0 346007.0 340191.0 29764.0 31355.0 263473.0 269008.0 41892.0 39193.0 154361.0 162617.0 317559.0 323215.0 204393.0 197370.0 70701.0 72404.0 332090.0 327419.0 159146.0 162197.0 349924.0 354745.0 242910.0 246025.0 254011.0 261852.0 268858.0 261033.0 272044.0 280003.0 216361.0 208408.0 279928.0 275161.0 318623.0 326778.0 287347.0 279308.0 321550.0 321467.0 297244.0 290614.0 287186.0 129679.0 287186.0 287186.0 287186.0 287186.0 287186.0 287186.0 287186.0 129679.0 129679.0 129679.0 129679.0 129679.0 129679.0 129679.0
227205.0 235117.0 339094.0 343477.0 293750.0 301443.0 236624.0 229471.0 7469.0 0.0 331771.0 327887.0 269022.0 266650.0 47731.0 43234.0 266875.0 269376.0 200952.0 196249.0 53519.0 61291.0 214338.0 206144.0 14879.0 22671.0 352576.0 345403.0 148413.0 141340.0 318181.0 311760.0 161520.0 157964.0 300024.0 306314.0 276422.0 279928.0 346216.0 340400.0 27124.0 26905.0 265305.0 270680.0 39932.0 38674.0 157845.0 166022.0 322836.0 328395.0 205189.0 198112.0 72587.0 75076.0 334657.0 329835.0 160306.0 163523.0 352914.0 357605.0 244366.0 247702.0 255949.0 263742.0 269873.0 261987.0 273790.0 281720.0 217757.0 209826.0 281304.0 276370.0 320239.0 328402.0 288368.0 280312.0 321759.0 321676.0 298528.0 292015.0 287395.0 129575.0 287395.0 287395.0 287395.0 287395.0 287395.0 287395.0 287395.0 129575.0 129575.0 129575.0 129575.0 129575.0 129575.0 129575.0
112837.0 105312.0 38573.0 46404.0 56137.0 51019.0 125784.0 133815.0 331585.0 331771.0 0.0 8322.0 151556.0 159749.0 372095.0 364645.0 77971.0 71534.0 135254.0 142040.0 299583.0 293601.0 142879.0 150296.0 326272.0 321747.0 212984.0 213737.0 183552.0 190967.0 15243.0 23447.0 171191.0 176043.0 224395.0 220675.0 62750.0 56243.0 41511.0 44676.0 358510.0 356570.0 94123.0 86133.0 371356.0 370377.0 203975.0 196948.0 241768.0 238151.0 128672.0 135304.0 262508.0 263402.0 107819.0 100089.0 174592.0 172557.0 132656.0 128099.0 100560.0 102476.0 103083.0 96768.0 70622.0 76449.0 86395.0 80965.0 122672.0 130113.0 70662.0 69683.0 63920.0 64001.0 55853.0 61711.0 44359.0 36518.0 57367.0 64886.0 96105.0 202888.0 96105.0 96105.0 96105.0 96105.0 96105.0 96105.0 96105.0 202888.0 202888.0 202888.0 202888.0 202888.0 202888.0 202888.0
106950.0 99290.0 32230.0 40303.0 58344.0 54123.0 118530.0 126642.0 327534.0 327887.0 8322.0 0.0 143333.0 151535.0 367674.0 360169.0 71035.0 64933.0 130080.0 136641.0 294739.0 288636.0 136113.0 143668.0 322081.0 317411.0 204987.0 205657.0 179507.0 186784.0 9712.0 16888.0 166848.0 171436.0 216073.0 212359.0 56240.0 50226.0 49604.0 52346.0 354622.0 352721.0 86496.0 78492.0 367573.0 366435.0 197771.0 190617.0 233477.0 229886.0 123894.0 130664.0 258109.0 258782.0 100077.0 92243.0 169837.0 167632.0 125259.0 120919.0 94003.0 95528.0 95627.0 89136.0 64061.0 70307.0 78599.0 72978.0 116850.0 124421.0 62997.0 62458.0 55827.0 56248.0 48486.0 54754.0 50205.0 42278.0 49227.0 56843.0 97414.0 198964.0 97414.0 97414.0 97414.0 97414.0 97414.0 97414.0 97414.0 198964.0 198964.0 198964.0 198964.0 198964.0 198964.0 198964.0
87342.0 86134.0 127118.0 125243.0 164066.0 167297.0 53972.0 54674.0 265506.0 269022.0 151556.0 143333.0 0.0 8254.0 294998.0 286982.0 85566.0 93448.0 102805.0 99926.0 220544.0 212700.0 66754.0 72014.0 257872.0 250857.0 97637.0 93143.0 147478.0 149357.0 138092.0 130214.0 134308.0 131558.0 78244.0 77190.0 100148.0 108088.0 190374.0 190431.0 295270.0 295917.0 64305.0 70791.0 307114.0 303039.0 111180.0 103016.0 100784.0 100135.0 108848.0 113090.0 198347.0 194364.0 78079.0 77651.0 127622.0 122860.0 87509.0 93815.0 78364.0 70543.0 60543.0 62098.0 94440.0 95333.0 68664.0 71807.0 88154.0 91340.0 84183.0 88880.0 94836.0 100117.0 99509.0 97425.0 179213.0 173036.0 94273.0 87145.0 183973.0 166018.0 183973.0 183973.0 183973.0 183973.0 183973.0 183973.0 183973.0 166018.0 166018.0 166018.0 166018.0 166018.0 166018.0 166018.0
92359.0 91713.0 135340.0 133406.0 171454.0 174832.0 58631.0 58263.0 262940.0 266650.0 159749.0 151535.0 8254.0 0.0 291514.0 283505.0 92926.0 100853.0 106193.0 102753.0 217468.0 209568.0 69100.0 73568.0 255209.0 248082.0 95322.0 90280.0 148731.0 150172.0 146229.0 138323.0 135924.0 132722.0 71500.0 71011.0 107745.0 115722.0 198452.0 198431.0 292696.0 293555.0 71714.0 78417.0 304399.0 300148.0 108932.0 100950.0 94723.0 94558.0 112770.0 116624.0 196593.0 192314.0 84941.0 84957.0 128744.0 123956.0 92662.0 99303.0 84495.0 76834.0 67365.0 69430.0 101856.0 102425.0 76435.0 79814.0 92418.0 95019.0 92070.0 96572.0 103034.0 108240.0 107446.0 105166.0 187027.0 180921.0 102442.0 95260.0 190633.0 166783.0 190633.0 190633.0 190633.0 190633.0 190633.0 190633.0 190633.0 166783.0 166783.0 166783.0 166783.0 166783.0 166783.0 166783.0
263955.0 271941.0 376438.0 380231.0 334715.0 342407.0 269013.0 261297.0 44180.0 47731.0 372095.0 367674.0 294998.0 291514.0 0.0 8018.0 303622.0 306903.0 238514.0 232929.0 75502.0 82941.0 246581.0 238146.0 47053.0 50478.0 371164.0 363578.0 188862.0 181240.0 358024.0 351204.0 200905.0 196280.0 315202.0 322198.0 314445.0 318629.0 387180.0 381365.0 34804.0 42765.0 299684.0 305705.0 32595.0 24611.0 185475.0 193906.0 336153.0 342466.0 243887.0 237032.0 109587.0 109161.0 365307.0 361246.0 198061.0 200651.0 381299.0 386655.0 280407.0 282830.0 289922.0 297880.0 307491.0 299859.0 308490.0 316506.0 254187.0 246225.0 317488.0 313227.0 355295.0 363398.0 325895.0 317931.0 362724.0 362640.0 335014.0 328059.0 328359.0 171494.0 328359.0 328359.0 328359.0 328359.0 328359.0 328359.0 328359.0 171494.0 171494.0 171494.0 171494.0 171494.0 171494.0 171494.0
256240.0 264228.0 368721.0 372473.0 327491.0 335183.0 261083.0 253353.0 38769.0 43234.0 364645.0 360169.0 286982.0 283505.0 8018.0 0.0 295889.0 299223.0 230875.0 225230.0 67550.0 74954.0 238654.0 230215.0 40632.0 43364.0 363320.0 355748.0 181555.0 173883.0 350527.0 343670.0 193464.0 188744.0 307483.0 314449.0 306799.0 311038.0 379956.0 374141.0 35142.0 42934.0 291821.0 297871.0 35851.0 27857.0 177472.0 185904.0 328539.0 334815.0 236339.0 229509.0 102161.0 101520.0 357316.0 353271.0 190475.0 193013.0 373283.0 378642.0 272638.0 275010.0 282044.0 290006.0 299818.0 292208.0 300639.0 308656.0 246457.0 238497.0 309714.0 305497.0 347448.0 355546.0 318207.0 310253.0 355500.0 355281.0 327253.0 320273.0 321135.0 164411.0 321135.0 321135.0 321135.0 321135.0 321135.0 321135.0 321135.0 164411.0 164411.0 164411.0 164411.0 164411.0 164411.0 164411.0
39735.0 31778.0 72873.0 76692.0 78528.0 82053.0 48172.0 55988.0 265627.0 266875.0 77971.0 71035.0 85566.0 92926.0 303622.0 295889.0 0.0 7986.0 65984.0 70797.0 229123.0 222512.0 65115.0 72807.0 259475.0 254097.0 170380.0 168391.0 120371.0 126479.0 62762.0 54526.0 106297.0 109014.0 163637.0 161966.0 16095.0 24024.0 110701.0 109125.0 293964.0 292303.0 21268.0 15938.0 306807.0 304818.0 127620.0 120188.0 185163.0 183533.0 63105.0 70287.0 195049.0 194555.0 86403.0 78522.0 106570.0 103431.0 113096.0 113457.0 23735.0 24509.0 27083.0 23497.0 9017.0 11518.0 19520.0 22811.0 49436.0 57401.0 15137.0 9620.0 55164.0 63185.0 23219.0 16283.0 95612.0 90286.0 31667.0 25727.0 100394.0 140747.0 100394.0 100394.0 100394.0 100394.0 100394.0 100394.0 100394.0 140747.0 140747.0 140747.0 140747.0 140747.0 140747.0 140747.0
43179.0 35237.0 69729.0 74262.0 70619.0 74076.0 55480.0 63084.0 268336.0 269376.0 71534.0 64933.0 93448.0 100853.0 306903.0 299223.0 7986.0 0.0 68525.0 74017.0 232763.0 226298.0 71359.0 78776.0 262346.0 257138.0 177146.0 175344.0 121991.0 128424.0 56291.0 48182.0 108174.0 111416.0 171451.0 169691.0 8818.0 16358.0 103169.0 101414.0 296418.0 294555.0 29148.0 23219.0 309299.0 307503.0 132962.0 125722.0 192826.0 191094.0 64538.0 71722.0 197931.0 197750.0 90228.0 82098.0 109200.0 106323.0 117336.0 117208.0 29071.0 31342.0 34992.0 31434.0 1044.0 7961.0 26386.0 28049.0 53105.0 60973.0 17193.0 9326.0 55556.0 63296.0 19016.0 11034.0 87696.0 82457.0 30499.0 26318.0 93350.0 142168.0 93350.0 93350.0 93350.0 93350.0 93350.0 93350.0 93350.0 142168.0 142168.0 142168.0 142168.0 142168.0 142168.0 142168.0
26650.0 34357.0 138241.0 142525.0 109185.0 116077.0 50112.0 48132.0 199828.0 200952.0 135254.0 130080.0 102805.0 106193.0 238514.0 230875.0 65984.0 68525.0 0.0 8186.0 164814.0 158597.0 38330.0 37691.0 193821.0 188643.0 200347.0 195945.0 55045.0 60677.0 120591.0 113336.0 40692.0 43032.0 173097.0 174613.0 75931.0 80314.0 157417.0 153045.0 228025.0 226321.0 67765.0 71604.0 240884.0 239004.0 73643.0 68513.0 198082.0 199173.0 10000.0 10579.0 129410.0 129358.0 142630.0 136142.0 40683.0 37864.0 166051.0 168616.0 44387.0 49405.0 60117.0 66878.0 69069.0 61353.0 75203.0 82737.0 18371.0 11958.0 80646.0 75434.0 120256.0 128404.0 87541.0 79521.0 135400.0 133264.0 97650.0 91389.0 110802.0 75595.0 110802.0 110802.0 110802.0 110802.0 110802.0 110802.0 110802.0 75595.0 75595.0 75595.0 75595.0 75595.0 75595.0 75595.0
31064.0 39039.0 143519.0 147488.0 117222.0 124061.0 48867.0 45562.0 194879.0 196249.0 142040.0 136641.0 99926.0 102753.0 232929.0 225230.0 70797.0 74017.0 8186.0 0.0 158777.0 152390.0 33836.0 31712.0 188683.0 183307.0 197558.0 192894.0 52642.0 57422.0 127237.0 119823.0 38210.0 39083.0 168234.0 170065.0 81777.0 86607.0 165078.0 160825.0 223361.0 221893.0 70323.0 74895.0 236169.0 234072.0 65567.0 60343.0 193388.0 194756.0 18084.0 16824.0 124262.0 123804.0 144201.0 138041.0 36197.0 32729.0 166826.0 169763.0 48149.0 52126.0 61922.0 69158.0 74634.0 67174.0 78272.0 86031.0 21511.0 13619.0 85062.0 80371.0 124165.0 132332.0 92983.0 85051.0 143283.0 141013.0 102373.0 95767.0 118974.0 73098.0 118974.0 118974.0 118974.0 118974.0 118974.0 118974.0 118974.0 73098.0 73098.0 73098.0 73098.0 73098.0 73098.0 73098.0
189632.0 197612.0 301996.0 305534.0 264960.0 272629.0 193542.0 185802.0 47916.0 53519.0 299583.0 294739.0 220544.0 217468.0 75502.0 67550.0 229123.0 232763.0 164814.0 158777.0 0.0 8032.0 171118.0 162674.0 39621.0 31803.0 300701.0 293381.0 118612.0 110587.0 285172.0 278075.0 129176.0 123686.0 247138.0 253594.0 240544.0 245127.0 317158.0 311527.0 76763.0 79236.0 224445.0 230605.0 87599.0 82828.0 110220.0 118635.0 269657.0 275344.0 170915.0 164308.0 40965.0 37198.0 289883.0 285763.0 124996.0 127110.0 306275.0 311489.0 205704.0 207814.0 214621.0 222596.0 233397.0 225938.0 233306.0 241327.0 179769.0 171840.0 242721.0 238742.0 280120.0 288200.0 251682.0 243795.0 292930.0 292584.0 260314.0 253215.0 258629.0 104040.0 258629.0 258629.0 258629.0 258629.0 258629.0 258629.0 258629.0 104040.0 104040.0 104040.0 104040.0 104040.0 104040.0 104040.0
183131.0 191100.0 295371.0 298801.0 259908.0 267542.0 186305.0 178505.0 55842.0 61291.0 293601.0 288636.0 212700.0 209568.0 82941.0 74954.0 222512.0 226298.0 158597.0 152390.0 8032.0 0.0 163903.0 155444.0 47570.0 39792.0 292669.0 285350.0 113692.0 105600.0 279102.0 271925.0 123744.0 117987.0 239151.0 245590.0 234163.0 238882.0 311877.0 306364.0 84784.0 87184.0 217440.0 223691.0 95627.0 90817.0 102577.0 111003.0 261718.0 267381.0 164947.0 158438.0 38242.0 33112.0 282366.0 278324.0 119121.0 121045.0 298565.0 303827.0 199018.0 200962.0 207572.0 215558.0 226949.0 219562.0 226336.0 234358.0 173238.0 165333.0 235980.0 232131.0 273142.0 281204.0 245175.0 237323.0 287816.0 287302.0 253597.0 246432.0 253719.0 100037.0 253719.0 253719.0 253719.0 253719.0 253719.0 253719.0 253719.0 100037.0 100037.0 100037.0 100037.0 100037.0 100037.0 100037.0
35857.0 40796.0 135182.0 137409.0 131217.0 136943.0 22441.0 15225.0 211945.0 214338.0 142879.0 136113.0 66754.0 69100.0 246581.0 238654.0 65115.0 71359.0 38330.0 33836.0 171118.0 163903.0 0.0 8481.0 204998.0 198783.0 164209.0 159357.0 81388.0 84094.0 127637.0 119482.0 67811.0 65753.0 134776.0 136386.0 80165.0 87152.0 172806.0 170002.0 241323.0 240822.0 54526.0 61599.0 253804.0 250794.0 63989.0 56056.0 159802.0 161019.0 46513.0 48905.0 141828.0 139545.0 120421.0 115499.0 61952.0 57316.0 140257.0 144225.0 42504.0 40756.0 44401.0 52379.0 72288.0 67227.0 63615.0 71539.0 29941.0 28802.0 75749.0 74096.0 109970.0 117896.0 88137.0 81373.0 154173.0 150300.0 93143.0 85346.0 139943.0 100704.0 139943.0 139943.0 139943.0 139943.0 139943.0 139943.0 139943.0 100704.0 100704.0 100704.0 100704.0 100704.0 100704.0 100704.0
40906.0 46767.0 143419.0 145746.0 136495.0 142467.0 30868.0 23336.0 203681.0 206144.0 150296.0 143668.0 72014.0 73568.0 238146.0 230215.0 72807.0 78776.0 37691.0 31712.0 162674.0 155444.0 8481.0 0.0 196694.0 190438.0 168890.0 163758.0 75469.0 77611.0 135056.0 126956.0 62381.0 59585.0 136792.0 138882.0 87546.0 94324.0 179356.0 176310.0 233102.0 232675.0 62924.0 69907.0 245553.0 242487.0 55630.0 47786.0 162051.0 163668.0 46859.0 48009.0 133685.0 131278.0 128531.0 123738.0 55678.0 50943.0 147923.0 152058.0 49740.0 48654.0 52817.0 60806.0 79678.0 74235.0 72003.0 79946.0 33449.0 30279.0 83871.0 81938.0 118426.0 126362.0 95938.0 89005.0 160136.0 156529.0 101338.0 93591.0 143565.0 94275.0 143565.0 143565.0 143565.0 143565.0 143565.0 143565.0 143565.0 94275.0 94275.0 94275.0 94275.0 94275.0 94275.0 94275.0
219740.0 227701.0 332051.0 336165.0 288399.0 296091.0 227392.0 220021.0 8332.0 14879.0 326272.0 322081.0 257872.0 255209.0 47053.0 40632.0 259475.0 262346.0 193821.0 188683.0 39621.0 47570.0 204998.0 196694.0 0.0 7962.0 339908.0 332650.0 142747.0 135316.0 312399.0 305754.0 155254.0 151100.0 286709.0 293119.0 269643.0 273496.0 340864.0 335049.0 37573.0 39616.0 256887.0 262534.0 49257.0 45796.0 146791.0 155084.0 309277.0 314951.0 198647.0 191675.0 64430.0 65521.0 324986.0 320413.0 153158.0 156073.0 342561.0 347456.0 236611.0 239560.0 247353.0 255225.0 262887.0 255115.0 265516.0 273492.0 210126.0 202163.0 273670.0 269033.0 312171.0 320318.0 281361.0 273340.0 316408.0 316324.0 291050.0 284333.0 282043.0 124850.0 282043.0 282043.0 282043.0 282043.0 282043.0 282043.0 282043.0 124850.0 124850.0 124850.0 124850.0 124850.0 124850.0 124850.0
214370.0 222346.0 326791.0 330780.0 284237.0 291929.0 221205.0 213743.0 16285.0 22671.0 321747.0 317411.0 250857.0 248082.0 50478.0 43364.0 254097.0 257138.0 188643.0 183307.0 31803.0 39792.0 198783.0 190438.0 7962.0 0.0 332325.0 325041.0 138407.0 130822.0 307747.0 300998.0 150577.0 146140.0 278939.0 285382.0 264548.0 268563.0 336702.0 330886.0 45060.0 47469.0 251043.0 256809.0 56333.0 52291.0 139894.0 148226.0 301443.0 307144.0 193746.0 186836.0 59330.0 59655.0 318556.0 314091.0 148054.0 150815.0 335840.0 340818.0 231089.0 233856.0 241436.0 249337.0 257701.0 249988.0 259730.0 267722.0 204689.0 196721.0 268172.0 263677.0 306451.0 314588.0 276150.0 268151.0 312246.0 312162.0 285613.0 278806.0 277881.0 121060.0 277881.0 277881.0 277881.0 277881.0 277881.0 277881.0 277881.0 121060.0 121060.0 121060.0 121060.0 121060.0 121060.0 121060.0
183029.0 180439.0 177340.0 171420.0 243715.0 244788.0 150824.0 152252.0 348007.0 352576.0 212984.0 204987.0 97637.0 95322.0 371164.0 363320.0 170380.0 177146.0 200347.0 197558.0 300701.0 292669.0 164209.0 168890.0 339908.0 332325.0 0.0 8118.0 243936.0 245095.0 203729.0 197721.0 231239.0 227905.0 60045.0 51925.0 181075.0 187832.0 254489.0 257199.0 377384.0 379251.0 150849.0 154470.0 388256.0 383122.0 198361.0 191182.0 51844.0 43951.0 206003.0 210540.0 285826.0 280542.0 105967.0 113140.0 223912.0 219119.0 86211.0 93535.0 171072.0 162996.0 151282.0 149519.0 177939.0 181704.0 150900.0 149723.0 185057.0 188757.0 162533.0 169652.0 149204.0 149223.0 175051.0 176618.0 251231.0 243803.0 163862.0 159847.0 270462.0 261626.0 270462.0 270462.0 270462.0 270462.0 270462.0 270462.0 270462.0 261626.0 261626.0 261626.0 261626.0 261626.0 261626.0 261626.0
179392.0 177113.0 178732.0 173073.0 242774.0 244103.0 146771.0 147813.0 340770.0 345403.0 213737.0 205657.0 93143.0 90280.0 363578.0 355748.0 168391.0 175344.0 195945.0 192894.0 293381.0 285350.0 159357.0 163758.0 332650.0 325041.0 8118.0 0.0 238523.0 239483.0 204019.0 197784.0 226010.0 222481.0 51929.0 43817.0 179621.0 186563.0 255241.0 257704.0 370097.0 372040.0 148471.0 152455.0 380903.0 375715.0 191760.0 184693.0 44542.0 36825.0 201881.0 206228.0 279033.0 273650.0 107569.0 114388.0 218478.0 213684.0 89417.0 97009.0 168003.0 159926.0 148383.0 147023.0 176167.0 179609.0 148997.0 148243.0 181036.0 184467.0 161174.0 168113.0 149831.0 150290.0 174113.0 175315.0 251173.0 243840.0 163374.0 159012.0 268692.0 255959.0 268692.0 268692.0 268692.0 268692.0 268692.0 268692.0 268692.0 255959.0 255959.0 255959.0 255959.0 255959.0 255959.0 255959.0
81644.0 89182.0 191420.0 196241.0 146352.0 154031.0 100412.0 95639.0 148046.0 148413.0 183552.0 179507.0 147478.0 148731.0 188862.0 181555.0 120371.0 121991.0 55045.0 52642.0 118612.0 113692.0 81388.0 75469.0 142747.0 138407.0 243936.0 238523.0 0.0 8150.0 169806.0 163347.0 14452.0 16043.0 207083.0 210360.0 128577.0 131692.0 198704.0 192961.0 175242.0 173303.0 122630.0 126648.0 188183.0 186931.0 66278.0 67658.0 232582.0 235216.0 57455.0 50269.0 79514.0 81500.0 196844.0 190655.0 20052.0 24843.0 219247.0 222333.0 99423.0 104298.0 114508.0 121602.0 122399.0 114360.0 130228.0 137782.0 73205.0 65811.0 135284.0 129602.0 175118.0 183245.0 140828.0 132752.0 174340.0 174146.0 151910.0 146010.0 140034.0 20556.0 140034.0 140034.0 140034.0 140034.0 140034.0 140034.0 140034.0 20556.0 20556.0 20556.0 20556.0 20556.0 20556.0 20556.0
87321.0 95015.0 198022.0 202678.0 154378.0 162043.0 104026.0 98749.0 140773.0 141340.0 190967.0 186784.0 149357.0 150172.0 181240.0 173883.0 126479.0 128424.0 60677.0 57422.0 110587.0 105600.0 84094.0 77611.0 135316.0 130822.0 245095.0 239483.0 8150.0 0.0 177095.0 170522.0 20253.0 18629.0 206549.0 210119.0 135227.0 138593.0 206640.0 200948.0 168264.0 166344.0 127731.0 132083.0 181187.0 179762.0 62168.0 64468.0 232018.0 234917.0 63964.0 56836.0 71756.0 73522.0 201311.0 195329.0 22208.0 26780.0 223166.0 226490.0 104993.0 109482.0 119295.0 126579.0 128871.0 120892.0 135563.0 143230.0 78509.0 70884.0 141269.0 135814.0 180933.0 189081.0 147344.0 139270.0 182344.0 182074.0 158104.0 152011.0 148135.0 16669.0 148135.0 148135.0 148135.0 148135.0 148135.0 148135.0 148135.0 16669.0 16669.0 16669.0 16669.0 16669.0 16669.0 16669.0
97776.0 90196.0 36668.0 44792.0 51870.0 48634.0 110663.0 118656.0 317839.0 318181.0 15243.0 9712.0 138092.0 146229.0 358024.0 350527.0 62762.0 56291.0 120591.0 127237.0 285172.0 279102.0 127637.0 135056.0 312399.0 307747.0 203729.0 204019.0 169806.0 177095.0 0.0 8311.0 157177.0 161807.0 212165.0 208765.0 47510.0 41095.0 52628.0 53932.0 344912.0 343013.0 79322.0 71362.0 357864.0 356733.0 188816.0 181755.0 230311.0 227014.0 114292.0 121035.0 248452.0 249163.0 100071.0 91934.0 160239.0 158075.0 126134.0 122346.0 85322.0 87260.0 88106.0 81968.0 55380.0 61281.0 71841.0 66820.0 107643.0 115147.0 55965.0 54594.0 54856.0 56682.0 40899.0 46520.0 48315.0 40552.0 43899.0 50989.0 89809.0 189257.0 89809.0 89809.0 89809.0 89809.0 89809.0 89809.0 89809.0 189257.0 189257.0 189257.0 189257.0 189257.0 189257.0 189257.0
90063.0 82403.0 36621.0 44431.0 52973.0 50905.0 102370.0 110379.0 311295.0 311760.0 23447.0 16888.0 130214.0 138323.0 351204.0 343670.0 54526.0 48182.0 113336.0 119823.0 278075.0 271925.0 119482.0 126956.0 305754.0 300998.0 197721.0 197784.0 163347.0 170522.0 8311.0 0.0 150500.0 154927.0 204757.0 201500.0 39439.0 33341.0 60223.0 60967.0 338563.0 336634.0 71030.0 63078.0 351509.0 350259.0 180915.0 173792.0 223236.0 220086.0 107335.0 114174.0 241676.0 242229.0 95147.0 86847.0 153252.0 150968.0 121726.0 118369.0 77244.0 79032.0 79795.0 73675.0 47290.0 53425.0 63613.0 58744.0 99965.0 107548.0 47707.0 46290.0 49713.0 52549.0 32592.0 38263.0 53560.0 46082.0 36255.0 43068.0 88942.0 182886.0 88942.0 88942.0 88942.0 88942.0 88942.0 88942.0 88942.0 182886.0 182886.0 182886.0 182886.0 182886.0 182886.0 182886.0
67330.0 74940.0 177769.0 182431.0 136469.0 144028.0 86251.0 81746.0 160844.0 161520.0 171191.0 166848.0 134308.0 135924.0 200905.0 193464.0 106297.0 108174.0 40692.0 38210.0 129176.0 123744.0 67811.0 62381.0 155254.0 150577.0 231239.0 226010.0 14452.0 20253.0 157177.0 150500.0 0.0 8000.0 196200.0 199128.0 114982.0 118414.0 188147.0 182720.0 188473.0 186570.0 108191.0 112272.0 201390.0 199887.0 62399.0 61999.0 221688.0 224008.0 43716.0 36602.0 91318.0 92462.0 182408.0 176205.0 10588.0 14329.0 204914.0 207944.0 85079.0 89866.0 100056.0 107153.0 108618.0 100639.0 115828.0 123411.0 58783.0 51361.0 121137.0 115603.0 160889.0 169027.0 127091.0 119017.0 164241.0 163574.0 137900.0 131874.0 131325.0 34986.0 131325.0 131325.0 131325.0 131325.0 131325.0 131325.0 131325.0 34986.0 34986.0 34986.0 34986.0 34986.0 34986.0 34986.0
69511.0 77336.0 181142.0 185530.0 142929.0 150421.0 85421.0 80259.0 156959.0 157964.0 176043.0 171436.0 131558.0 132722.0 196280.0 188744.0 109014.0 111416.0 43032.0 39083.0 123686.0 117987.0 65753.0 59585.0 151100.0 146140.0 227905.0 222481.0 16043.0 18629.0 161807.0 154927.0 8000.0 0.0 191302.0 194482.0 118569.0 122428.0 194202.0 188944.0 185021.0 183289.0 109386.0 113945.0 197892.0 196107.0 54637.0 54598.0 216803.0 219348.0 47612.0 40772.0 86812.0 87365.0 182716.0 176780.0 4016.0 8801.0 204542.0 207863.0 87018.0 91210.0 100814.0 108173.0 111922.0 104075.0 117351.0 125088.0 60409.0 52652.0 123625.0 118462.0 163058.0 171219.0 130416.0 122367.0 170558.0 169652.0 140681.0 134365.0 138409.0 35028.0 138409.0 138409.0 138409.0 138409.0 138409.0 138409.0 138409.0 35028.0 35028.0 35028.0 35028.0 35028.0 35028.0 35028.0
162753.0 162774.0 194468.0 190567.0 241989.0 244918.0 129005.0 127087.0 294950.0 300024.0 224395.0 216073.0 78244.0 71500.0 315202.0 307483.0 163637.0 171451.0 173097.0 168234.0 247138.0 239151.0 134776.0 136792.0 286709.0 278939.0 60045.0 51929.0 207083.0 206549.0 212165.0 204757.0 196200.0 191302.0 0.0 8242.0 177789.0 185604.0 264790.0 265678.0 323832.0 326304.0 142375.0 148505.0 334145.0 328581.0 152154.0 146171.0 25501.0 28965.0 180850.0 183676.0 236799.0 230715.0 128959.0 133240.0 187316.0 182637.0 120518.0 128678.0 155940.0 148326.0 138742.0 140242.0 172426.0 173565.0 146027.0 148080.0 161564.0 162890.0 160950.0 166327.0 162524.0 165527.0 175867.0 174672.0 255783.0 249227.0 168528.0 162253.0 262112.0 222342.0 262112.0 262112.0 262112.0 262112.0 262112.0 262112.0 262112.0 222342.0 222342.0 222342.0 222342.0 222342.0 222342.0 222342.0
163086.0 162703.0 189927.0 185773.0 240039.0 242729.0 129285.0 127898.0 301337.0 306314.0 220675.0 212359.0 77190.0 71011.0 322198.0 314449.0 161966.0 169691.0 174613.0 170065.0 253594.0 245590.0 136386.0 138882.0 293119.0 285382.0 51925.0 43817.0 210360.0 210119.0 208765.0 201500.0 199128.0 194482.0 8242.0 0.0 175739.0 183459.0 261344.0 262466.0 330333.0 332687.0 140761.0 146594.0 340763.0 335284.0 156957.0 150713.0 23734.0 24880.0 182069.0 185186.0 242346.0 236408.0 123298.0 127928.0 190480.0 185762.0 113709.0 121866.0 155431.0 147682.0 137685.0 138722.0 170647.0 172164.0 143940.0 145569.0 162398.0 164117.0 158545.0 164201.0 158238.0 160912.0 173251.0 172418.0 253047.0 246356.0 165357.0 159327.0 261115.0 226086.0 261115.0 261115.0 261115.0 261115.0 261115.0 261115.0 261115.0 226086.0 226086.0 226086.0 226086.0 226086.0 226086.0 226086.0
51243.0 43395.0 62847.0 67940.0 64315.0 67169.0 64148.0 71829.0 275524.0 276422.0 62750.0 56240.0 100148.0 107745.0 314445.0 306799.0 16095.0 8818.0 75931.0 81777.0 240544.0 234163.0 80165.0 87546.0 269643.0 264548.0 181075.0 179621.0 128577.0 135227.0 47510.0 39439.0 114982.0 118569.0 177789.0 175739.0 0.0 8061.0 94609.0 93056.0 303420.0 301543.0 36237.0 29358.0 316323.0 314659.0 141558.0 134378.0 198671.0 196668.0 71267.0 78395.0 205273.0 205286.0 90265.0 81911.0 116503.0 113794.0 117715.0 116974.0 37814.0 40118.0 43067.0 38699.0 7877.0 14606.0 31799.0 31379.0 61192.0 68970.0 18611.0 11617.0 52222.0 59521.0 12777.0 5523.0 79829.0 74324.0 26525.0 24666.0 89706.0 148561.0 89706.0 89706.0 89706.0 89706.0 89706.0 89706.0 89706.0 148561.0 148561.0 148561.0 148561.0 148561.0 148561.0 148561.0
56726.0 49103.0 60525.0 66353.0 56728.0 59314.0 71828.0 79375.0 279223.0 279928.0 56243.0 50226.0 108088.0 115722.0 318629.0 311038.0 24024.0 16358.0 80314.0 86607.0 245127.0 238882.0 87152.0 94324.0 273496.0 268563.0 187832.0 186563.0 131692.0 138593.0 41095.0 33341.0 118414.0 122428.0 185604.0 183459.0 8061.0 0.0 86812.0 85107.0 306852.0 304922.0 44285.0 37308.0 319779.0 318295.0 147733.0 140717.0 206312.0 204203.0 74850.0 81853.0 209238.0 209529.0 94739.0 86274.0 120568.0 118096.0 122312.0 121112.0 44652.0 47611.0 51072.0 46755.0 15333.0 20211.0 39577.0 38479.0 66624.0 74218.0 25426.0 19277.0 54308.0 61030.0 14648.0 11261.0 71769.0 66292.0 29032.0 29297.0 83699.0 151405.0 83699.0 83699.0 83699.0 83699.0 83699.0 83699.0 83699.0 151405.0 151405.0 151405.0 151405.0 151405.0 151405.0 151405.0
139248.0 132667.0 78692.0 85921.0 53170.0 45373.0 158629.0 166075.0 346007.0 346216.0 41511.0 49604.0 190374.0 198452.0 387180.0 379956.0 110701.0 103169.0 157417.0 165078.0 317158.0 311877.0 172806.0 179356.0 340864.0 336702.0 254489.0 255241.0 198704.0 206640.0 52628.0 60223.0 188147.0 194202.0 264790.0 261344.0 94609.0 86812.0 0.0 8198.0 372991.0 371051.0 129614.0 121883.0 385918.0 384790.0 229908.0 223661.0 282752.0 279304.0 149171.0 154874.0 278113.0 280160.0 149169.0 141531.0 193531.0 192403.0 173508.0 168584.0 130612.0 134331.0 137474.0 132224.0 102144.0 105855.0 122952.0 118697.0 148411.0 154968.0 106977.0 104053.0 105413.0 105410.0 91506.0 95397.0 25501.0 24576.0 96441.0 103255.0 89757.0 217291.0 89757.0 89757.0 89757.0 89757.0 89757.0 89757.0 89757.0 217291.0 217291.0 217291.0 217291.0 217291.0 217291.0 217291.0
135861.0 129544.0 82844.0 90360.0 46792.0 39022.0 156671.0 163913.0 340191.0 340400.0 44676.0 52346.0 190431.0 198431.0 381365.0 374141.0 109125.0 101414.0 153045.0 160825.0 311527.0 306364.0 170002.0 176310.0 335049.0 330886.0 257199.0 257704.0 192961.0 200948.0 53932.0 60967.0 182720.0 188944.0 265678.0 262466.0 93056.0 85107.0 8198.0 0.0 367176.0 365236.0 128655.0 121077.0 380103.0 378974.0 225972.0 219911.0 284169.0 280931.0 144550.0 150051.0 272243.0 274459.0 152413.0 144588.0 188405.0 187436.0 177318.0 172668.0 128132.0 132274.0 136109.0 131233.0 100377.0 103518.0 122410.0 118626.0 144808.0 151137.0 106513.0 103023.0 107998.0 108581.0 91053.0 94310.0 18722.0 19874.0 97153.0 103588.0 82210.0 211476.0 82210.0 82210.0 82210.0 82210.0 82210.0 82210.0 82210.0 211476.0 211476.0 211476.0 211476.0 211476.0 211476.0 211476.0
254306.0 262212.0 366126.0 370547.0 320526.0 328218.0 263636.0 256435.0 29764.0 27124.0 358510.0 354622.0 295270.0 292696.0 34804.0 35142.0 293964.0 296418.0 228025.0 223361.0 76763.0 84784.0 241323.0 233102.0 37573.0 45060.0 377384.0 370097.0 175242.0 168264.0 344912.0 338563.0 188473.0 185021.0 323832.0 330333.0 303420.0 306852.0 372991.0 367176.0 0.0 7961.0 292421.0 297804.0 12954.0 14310.0 184121.0 192371.0 346150.0 351943.0 232167.0 225074.0 99663.0 101886.0 361582.0 356821.0 187394.0 190634.0 379601.0 384376.0 271483.0 274826.0 283052.0 290852.0 296908.0 289005.0 300912.0 308843.0 244871.0 236942.0 308412.0 303452.0 347363.0 355526.0 315403.0 307342.0 348535.0 348451.0 325621.0 319126.0 314170.0 157477.0 314170.0 314170.0 314170.0 314170.0 314170.0 314170.0 314170.0 157477.0 157477.0 157477.0 157477.0 157477.0 157477.0 157477.0
252731.0 260599.0 364291.0 368768.0 318586.0 326278.0 263049.0 255985.0 31355.0 26905.0 356570.0 352721.0 295917.0 293555.0 42765.0 42934.0 292303.0 294555.0 226321.0 221893.0 79236.0 87184.0 240822.0 232675.0 39616.0 47469.0 379251.0 372040.0 173303.0 166344.0 343013.0 336634.0 186570.0 183289.0 326304.0 332687.0 301543.0 304922.0 371051.0 365236.0 7961.0 0.0 291329.0 296552.0 17418.0 21292.0 184743.0 192912.0 348893.0 354564.0 230279.0 223172.0 98995.0 101843.0 361205.0 356289.0 185796.0 189179.0 379670.0 384306.0 270041.0 273594.0 282071.0 289818.0 295089.0 287158.0 299730.0 307627.0 243400.0 235500.0 306863.0 301745.0 346025.0 354192.0 313580.0 305513.0 346595.0 346511.0 323969.0 317593.0 312230.0 155537.0 312230.0 312230.0 312230.0 312230.0 312230.0 312230.0 312230.0 155537.0 155537.0 155537.0 155537.0 155537.0 155537.0 155537.0
41849.0 35560.0 81084.0 82953.0 99767.0 103142.0 33563.0 41999.0 263473.0 265305.0 94123.0 86496.0 64305.0 71714.0 299684.0 291821.0 21268.0 29148.0 67765.0 70323.0 224445.0 217440.0 54526.0 62924.0 256887.0 251043.0 150849.0 148471.0 122630.0 127731.0 79322.0 71030.0 108191.0 109386.0 142375.0 140761.0 36237.0 44285.0 129614.0 128655.0 292421.0 291329.0 0.0 8006.0 305111.0 302585.0 118514.0 110540.0 164017.0 162513.0 68031.0 74758.0 192815.0 191421.0 75455.0 68588.0 106364.0 102557.0 100339.0 102023.0 24539.0 18360.0 10152.0 2646.0 30147.0 31576.0 9099.0 17027.0 49449.0 56868.0 23503.0 25632.0 55716.0 63764.0 38475.0 34349.0 116010.0 110317.0 39571.0 31524.0 120994.0 143177.0 120994.0 120994.0 120994.0 120994.0 120994.0 120994.0 120994.0 143177.0 143177.0 143177.0 143177.0 143177.0 143177.0 143177.0
45100.0 38004.0 73642.0 75846.0 93490.0 96522.0 41211.0 49619.0 269008.0 270680.0 86133.0 78492.0 70791.0 78417.0 305705.0 297871.0 15938.0 23219.0 71604.0 74895.0 230605.0 223691.0 61599.0 69907.0 262534.0 256809.0 154470.0 152455.0 126648.0 132083.0 71362.0 63078.0 112272.0 113945.0 148505.0 146594.0 29358.0 37308.0 121883.0 121077.0 297804.0 296552.0 8006.0 0.0 310543.0 308163.0 125536.0 117654.0 169665.0 167883.0 70823.0 77777.0 198310.0 197157.0 73746.0 66366.0 111085.0 107460.0 99617.0 100666.0 27289.0 22983.0 17698.0 10644.0 24136.0 27254.0 4124.0 11147.0 53576.0 61296.0 15497.0 18214.0 49642.0 57785.0 30566.0 26901.0 108788.0 102933.0 31833.0 23863.0 116316.0 147199.0 116316.0 116316.0 116316.0 116316.0 116316.0 116316.0 116316.0 147199.0 147199.0 147199.0 147199.0 147199.0 147199.0 147199.0
267134.0 275048.0 379013.0 383409.0 333453.0 341145.0 276147.0 268889.0 41892.0 39932.0 371356.0 367573.0 307114.0 304399.0 32595.0 35851.0 306807.0 309299.0 240884.0 236169.0 87599.0 95627.0 253804.0 245553.0 49257.0 56333.0 388256.0 380903.0 188183.0 181187.0 357864.0 351509.0 201390.0 197892.0 334145.0 340763.0 316323.0 319779.0 385918.0 380103.0 12954.0 17418.0 305111.0 310543.0 0.0 8049.0 196048.0 204340.0 356165.0 362087.0 245077.0 237989.0 112304.0 114280.0 373979.0 369290.0 200238.0 203445.0 391770.0 396618.0 284277.0 287561.0 295707.0 303523.0 309793.0 301899.0 313630.0 321570.0 257676.0 249740.0 321228.0 316303.0 360121.0 368283.0 328289.0 320230.0 361462.0 361378.0 338459.0 331937.0 327097.0 170417.0 327097.0 327097.0 327097.0 327097.0 327097.0 327097.0 327097.0 170417.0 170417.0 170417.0 170417.0 170417.0 170417.0 170417.0
265099.0 273041.0 377232.0 381485.0 332324.0 340017.0 273187.0 265813.0 39193.0 38674.0 370377.0 366435.0 303039.0 300148.0 24611.0 27857.0 304818.0 307503.0 239004.0 234072.0 82828.0 90817.0 250794.0 242487.0 45796.0 52291.0 383122.0 375715.0 186931.0 179762.0 356733.0 350259.0 199887.0 196107.0 328581.0 335284.0 314659.0 318295.0 384790.0 378974.0 14310.0 21292.0 302585.0 308163.0 8049.0 0.0 192163.0 200505.0 350383.0 356391.0 243490.0 236447.0 109874.0 111300.0 370747.0 366201.0 198322.0 201389.0 388131.0 393100.0 282099.0 285182.0 293087.0 300944.0 308020.0 300181.0 311181.0 319146.0 255554.0 247600.0 319120.0 314349.0 357786.0 365939.0 326511.0 318468.0 360333.0 360250.0 336437.0 329806.0 325969.0 168223.0 325969.0 325969.0 325969.0 325969.0 325969.0 325969.0 325969.0 168223.0 168223.0 168223.0 168223.0 168223.0 168223.0 168223.0
91370.0 98700.0 198996.0 201375.0 182787.0 189591.0 85735.0 77527.0 154361.0 157845.0 203975.0 197771.0 111180.0 108932.0 185475.0 177472.0 127620.0 132962.0 73643.0 65567.0 110220.0 102577.0 63989.0 55630.0 146791.0 139894.0 198361.0 191760.0 66278.0 62168.0 188816.0 180915.0 62399.0 54637.0 152154.0 156957.0 141558.0 147733.0 229908.0 225972.0 184121.0 184743.0 118514.0 125536.0 196048.0 192163.0 0.0 8434.0 177115.0 181092.0 83051.0 79175.0 87919.0 83393.0 179921.0 176114.0 51883.0 49188.0 196092.0 201270.0 104023.0 103961.0 108383.0 116349.0 133792.0 127536.0 127604.0 135522.0 81777.0 74951.0 139348.0 136979.0 173835.0 181696.0 150839.0 143580.0 208662.0 206112.0 156885.0 149187.0 183483.0 75084.0 183483.0 183483.0 183483.0 183483.0 183483.0 183483.0 183483.0 75084.0 75084.0 75084.0 75084.0 75084.0 75084.0 75084.0
84686.0 91831.0 191203.0 193460.0 177298.0 183966.0 77588.0 69330.0 162617.0 166022.0 196948.0 190617.0 103016.0 100950.0 193906.0 185904.0 120188.0 125722.0 68513.0 60343.0 118635.0 111003.0 56056.0 47786.0 155084.0 148226.0 191182.0 184693.0 67658.0 64468.0 181755.0 173792.0 61999.0 54598.0 146171.0 150713.0 134378.0 140717.0 223661.0 219911.0 192371.0 192912.0 110540.0 117654.0 204340.0 200505.0 8434.0 0.0 171309.0 175045.0 78186.0 74870.0 95684.0 91393.0 171488.0 167697.0 51416.0 48097.0 187703.0 192857.0 96700.0 96325.0 100396.0 108340.0 126573.0 120506.0 119637.0 127526.0 75280.0 68777.0 131637.0 129475.0 165732.0 173563.0 143395.0 136240.0 202806.0 200038.0 149123.0 141372.0 179018.0 78498.0 179018.0 179018.0 179018.0 179018.0 179018.0 179018.0 179018.0 78498.0 78498.0 78498.0 78498.0 78498.0 78498.0 78498.0
186817.0 186426.0 209770.0 205151.0 262985.0 265488.0 153017.0 151565.0 317559.0 322836.0 241768.0 233477.0 100784.0 94723.0 336153.0 328539.0 185163.0 192826.0 198082.0 193388.0 269657.0 261718.0 159802.0 162051.0 309277.0 301443.0 51844.0 44542.0 232582.0 232018.0 230311.0 223236.0 221688.0 216803.0 25501.0 23734.0 198671.0 206312.0 282752.0 284169.0 346150.0 348893.0 164017.0 169665.0 356165.0 350383.0 177115.0 171309.0 0.0 8088.0 205647.0 208660.0 260916.0 254638.0 141133.0 146543.0 212817.0 208137.0 128083.0 136112.0 179092.0 171316.0 161198.0 162030.0 193769.0 195498.0 166895.0 168189.0 186069.0 187688.0 181227.0 187094.0 178638.0 180731.0 195720.0 195201.0 275293.0 268468.0 187272.0 181523.0 284593.0 247775.0 284593.0 284593.0 284593.0 284593.0 284593.0 284593.0 284593.0 247775.0 247775.0 247775.0 247775.0 247775.0 247775.0 247775.0
186907.0 186171.0 205488.0 200649.0 260928.0 263211.0 153143.0 152134.0 323215.0 328395.0 238151.0 229886.0 100135.0 94558.0 342466.0 334815.0 183533.0 191094.0 199173.0 194756.0 275344.0 267381.0 161019.0 163668.0 314951.0 307144.0 43951.0 36825.0 235216.0 234917.0 227014.0 220086.0 224008.0 219348.0 28965.0 24880.0 196668.0 204203.0 279304.0 280931.0 351943.0 354564.0 162513.0 167883.0 362087.0 356391.0 181092.0 175045.0 8088.0 0.0 206472.0 209736.0 265685.0 259545.0 136137.0 141844.0 215347.0 210632.0 122015.0 129977.0 178480.0 170611.0 160178.0 160614.0 192019.0 194072.0 164973.0 165894.0 186590.0 188543.0 178971.0 185061.0 174711.0 176493.0 193227.0 193029.0 272504.0 265569.0 184315.0 178807.0 283373.0 250835.0 283373.0 283373.0 283373.0 283373.0 283373.0 283373.0 283373.0 250835.0 250835.0 250835.0 250835.0 250835.0 250835.0 250835.0
26233.0 32820.0 134060.0 138795.0 100102.0 107135.0 55182.0 54517.0 204393.0 205189.0 128672.0 123894.0 108848.0 112770.0 243887.0 236339.0 63105.0 64538.0 10000.0 18084.0 170915.0 164947.0 46513.0 46859.0 198647.0 193746.0 206003.0 201881.0 57455.0 63964.0 114292.0 107335.0 43716.0 47612.0 180850.0 182069.0 71267.0 74850.0 149171.0 144550.0 232167.0 230279.0 68031.0 70823.0 245077.0 243490.0 83051.0 78186.0 205647.0 206472.0 0.0 7195.0 134416.0 134898.0 143464.0 136597.0 45947.0 43938.0 167773.0 169878.0 43686.0 49935.0 61508.0 67521.0 64955.0 56942.0 74663.0 81786.0 21083.0 17962.0 78140.0 72217.0 118136.0 126214.0 83405.0 75329.0 126688.0 124857.0 94520.0 88819.0 100929.0 77703.0 100929.0 100929.0 100929.0 100929.0 100929.0 100929.0 100929.0 77703.0 77703.0 77703.0 77703.0 77703.0 77703.0 77703.0
32911.0 39792.0 141209.0 145974.0 105052.0 112240.0 59959.0 58454.0 197370.0 198112.0 135304.0 130664.0 113090.0 116624.0 237032.0 229509.0 70287.0 71722.0 10579.0 16824.0 164308.0 158438.0 48905.0 48009.0 191675.0 186836.0 210540.0 206228.0 50269.0 56836.0 121035.0 114174.0 36602.0 40772.0 183676.0 185186.0 78395.0 81853.0 154874.0 150051.0 225074.0 223172.0 74758.0 77777.0 237989.0 236447.0 79175.0 74870.0 208660.0 209736.0 7195.0 0.0 127508.0 128131.0 150120.0 143346.0 39322.0 37650.0 174177.0 176425.0 50558.0 56543.0 67906.0 74151.0 72132.0 64106.0 81577.0 88782.0 26627.0 21785.0 85309.0 79411.0 125291.0 133376.0 90572.0 82496.0 132007.0 130458.0 101715.0 95995.0 104309.0 70508.0 104309.0 104309.0 104309.0 104309.0 104309.0 104309.0 104309.0 70508.0 70508.0 70508.0 70508.0 70508.0 70508.0 70508.0
155315.0 163274.0 267628.0 271738.0 225650.0 233342.0 164071.0 156991.0 70701.0 72587.0 262508.0 258109.0 198347.0 196593.0 109587.0 102161.0 195049.0 197931.0 129410.0 124262.0 40965.0 38242.0 141828.0 133685.0 64430.0 59330.0 285826.0 279033.0 79514.0 71756.0 248452.0 241676.0 91318.0 86812.0 236799.0 242346.0 205273.0 209238.0 278113.0 272243.0 99663.0 98995.0 192815.0 198310.0 112304.0 109874.0 87919.0 95684.0 260916.0 265685.0 134416.0 127508.0 0.0 8300.0 262214.0 257304.0 88771.0 91644.0 280941.0 285449.0 172237.0 175327.0 183404.0 191219.0 198479.0 190729.0 201359.0 209312.0 145719.0 137759.0 209276.0 204605.0 247922.0 256078.0 216947.0 208931.0 253659.0 253575.0 226634.0 219951.0 219294.0 63526.0 219294.0 219294.0 219294.0 219294.0 219294.0 219294.0 219294.0 63526.0 63526.0 63526.0 63526.0 63526.0 63526.0 63526.0
154852.0 162835.0 267324.0 271216.0 227847.0 235530.0 161915.0 154613.0 72404.0 75076.0 263402.0 258782.0 194364.0 192314.0 109161.0 101520.0 194555.0 197750.0 129358.0 123804.0 37198.0 33112.0 139545.0 131278.0 65521.0 59655.0 280542.0 273650.0 81500.0 73522.0 249163.0 242229.0 92462.0 87365.0 230715.0 236408.0 205286.0 209529.0 280160.0 274459.0 101886.0 101843.0 191421.0 197157.0 114280.0 111300.0 83393.0 91393.0 254638.0 259545.0 134898.0 128131.0 8300.0 0.0 259709.0 255016.0 88986.0 91494.0 277842.0 282535.0 171470.0 174202.0 181853.0 189737.0 198334.0 190699.0 200089.0 208078.0 145126.0 137158.0 208558.0 204149.0 246799.0 254937.0 216747.0 208776.0 255840.0 255592.0 226026.0 219179.0 221494.0 67000.0 221494.0 221494.0 221494.0 221494.0 221494.0 221494.0 221494.0 67000.0 67000.0 67000.0 67000.0 67000.0 67000.0 67000.0
117246.0 110967.0 71391.0 65513.0 145570.0 145074.0 98401.0 105230.0 332090.0 334657.0 107819.0 100077.0 78079.0 84941.0 365307.0 357316.0 86403.0 90228.0 142630.0 144201.0 289883.0 282366.0 120421.0 128531.0 324986.0 318556.0 105967.0 107569.0 196844.0 201311.0 100071.0 95147.0 182408.0 182716.0 128959.0 123298.0 90265.0 94739.0 149169.0 152413.0 361582.0 361205.0 75455.0 73746.0 373979.0 370747.0 179921.0 171488.0 141133.0 136137.0 143464.0 150120.0 262214.0 259709.0 0.0 8540.0 179372.0 175184.0 27594.0 27054.0 99953.0 93577.0 82516.0 75969.0 90617.0 97305.0 69662.0 63855.0 124268.0 131218.0 73056.0 81000.0 45435.0 43832.0 80194.0 84851.0 148345.0 140620.0 66326.0 65678.0 177758.0 217268.0 177758.0 177758.0 177758.0 177758.0 177758.0 177758.0 177758.0 217268.0 217268.0 217268.0 217268.0 217268.0 217268.0 217268.0
110437.0 103940.0 64349.0 58936.0 137065.0 136626.0 93245.0 100403.0 327419.0 329835.0 100089.0 92243.0 77651.0 84957.0 361246.0 353271.0 78522.0 82098.0 136142.0 138041.0 285763.0 278324.0 115499.0 123738.0 320413.0 314091.0 113140.0 114388.0 190655.0 195329.0 91934.0 86847.0 176205.0 176780.0 133240.0 127928.0 81911.0 86274.0 141531.0 144588.0 356821.0 356289.0 68588.0 66366.0 369290.0 366201.0 176114.0 167697.0 146543.0 141844.0 136597.0 143346.0 257304.0 255016.0 8540.0 0.0 173515.0 169413.0 36112.0 35126.0 92958.0 86862.0 76152.0 69288.0 82458.0 89286.0 62327.0 56175.0 117772.0 124892.0 64907.0 72833.0 37153.0 36129.0 71708.0 76475.0 140155.0 132462.0 57798.0 57284.0 169228.0 211139.0 169228.0 169228.0 169228.0 169228.0 169228.0 169228.0 169228.0 211139.0 211139.0 211139.0 211139.0 211139.0 211139.0 211139.0
66937.0 74824.0 178922.0 183185.0 142610.0 150040.0 81847.0 76547.0 159146.0 160306.0 174592.0 169837.0 127622.0 128744.0 198061.0 190475.0 106570.0 109200.0 40683.0 36197.0 124996.0 119121.0 61952.0 55678.0 153158.0 148054.0 223912.0 218478.0 20052.0 22208.0 160239.0 153252.0 10588.0 4016.0 187316.0 190480.0 116503.0 120568.0 193531.0 188405.0 187394.0 185796.0 106364.0 111085.0 200238.0 198322.0 51883.0 51416.0 212817.0 215347.0 45947.0 39322.0 88771.0 88986.0 179372.0 173515.0 0.0 4794.0 201014.0 204407.0 84300.0 88265.0 97659.0 105094.0 109733.0 101960.0 114433.0 122217.0 57655.0 49813.0 121068.0 116066.0 160341.0 168507.0 128214.0 120185.0 170102.0 169011.0 138228.0 131797.0 138719.0 38758.0 138719.0 138719.0 138719.0 138719.0 138719.0 138719.0 138719.0 38758.0 38758.0 38758.0 38758.0 38758.0 38758.0 38758.0
63712.0 71653.0 175992.0 180109.0 141938.0 149286.0 77441.0 71997.0 162197.0 163523.0 172557.0 167632.0 122860.0 123956.0 200651.0 193013.0 103431.0 106323.0 37864.0 32729.0 127110.0 121045.0 57316.0 50943.0 156073.0 150815.0 219119.0 213684.0 24843.0 26780.0 158075.0 150968.0 14329.0 8801.0 182637.0 185762.0 113794.0 118096.0 192403.0 187436.0 190634.0 189179.0 102557.0 107460.0 203445.0 201389.0 49188.0 48097.0 208137.0 210632.0 43938.0 37650.0 91644.0 91494.0 175184.0 169413.0 4794.0 0.0 196629.0 200097.0 80869.0 84564.0 93709.0 101223.0 106888.0 99212.0 110739.0 118572.0 54240.0 46323.0 117783.0 112972.0 156852.0 165019.0 125335.0 117337.0 169242.0 167935.0 135051.0 128493.0 138832.0 43398.0 138832.0 138832.0 138832.0 138832.0 138832.0 138832.0 138832.0 43398.0 43398.0 43398.0 43398.0 43398.0 43398.0 43398.0
141584.0 135826.0 94859.0 88005.0 172827.0 172087.0 119189.0 125095.0 349924.0 352914.0 132656.0 125259.0 87509.0 92662.0 381299.0 373283.0 113096.0 117336.0 166051.0 166826.0 306275.0 298565.0 140257.0 147923.0 342561.0 335840.0 86211.0 89417.0 219247.0 223166.0 126134.0 121726.0 204914.0 204542.0 120518.0 113709.0 117715.0 122312.0 173508.0 177318.0 379601.0 379670.0 100339.0 99617.0 391770.0 388131.0 196092.0 187703.0 128083.0 122015.0 167773.0 174177.0 280941.0 277842.0 27594.0 36112.0 201014.0 196629.0 0.0 8160.0 124828.0 117924.0 106281.0 100483.0 117772.0 124210.0 95494.0 90336.0 147839.0 154339.0 100233.0 108188.0 72234.0 69452.0 107781.0 112331.0 174433.0 166617.0 93910.0 93191.0 205338.0 239442.0 205338.0 205338.0 205338.0 205338.0 205338.0 205338.0 205338.0 239442.0 239442.0 239442.0 239442.0 239442.0 239442.0 239442.0
143646.0 137582.0 89906.0 82753.0 170135.0 169050.0 122763.0 129011.0 354745.0 357605.0 128099.0 120919.0 93815.0 99303.0 386655.0 378642.0 113457.0 117208.0 168616.0 169763.0 311489.0 303827.0 144225.0 152058.0 347456.0 340818.0 93535.0 97009.0 222333.0 226490.0 122346.0 118369.0 207944.0 207863.0 128678.0 121866.0 116974.0 121112.0 168584.0 172668.0 384376.0 384306.0 102023.0 100666.0 396618.0 393100.0 201270.0 192857.0 136112.0 129977.0 169878.0 176425.0 285449.0 282535.0 27054.0 35126.0 204407.0 200097.0 8160.0 0.0 126561.0 119944.0 108572.0 102374.0 117577.0 124338.0 96566.0 90893.0 150308.0 157033.0 100021.0 107952.0 69428.0 65831.0 106487.0 111517.0 170525.0 162660.0 92337.0 92319.0 203519.0 242642.0 203519.0 203519.0 203519.0 203519.0 203519.0 203519.0 203519.0 242642.0 242642.0 242642.0 242642.0 242642.0 242642.0 242642.0
17813.0 11022.0 96387.0 99846.0 91954.0 96909.0 29823.0 36119.0 242910.0 244366.0 100560.0 94003.0 78364.0 84495.0 280407.0 272638.0 23735.0 29071.0 44387.0 48149.0 205704.0 199018.0 42504.0 49740.0 236611.0 231089.0 171072.0 168003.0 99423.0 104993.0 85322.0 77244.0 85079.0 87018.0 155940.0 155431.0 37814.0 44652.0 130612.0 128132.0 271483.0 270041.0 24539.0 27289.0 284277.0 282099.0 104023.0 96700.0 179092.0 178480.0 43686.0 50558.0 172237.0 171470.0 99953.0 92958.0 84300.0 80869.0 124828.0 126561.0 0.0 8078.0 20035.0 24384.0 29955.0 24789.0 31028.0 38386.0 26648.0 34546.0 37090.0 33283.0 76046.0 84210.0 46900.0 39558.0 112971.0 108610.0 54620.0 47723.0 106667.0 119965.0 106667.0 106667.0 106667.0 106667.0 106667.0 106667.0 106667.0 119965.0 119965.0 119965.0 119965.0 119965.0 119965.0 119965.0
23702.0 18274.0 95181.0 98027.0 97835.0 102427.0 24423.0 31765.0 246025.0 247702.0 102476.0 95528.0 70543.0 76834.0 282830.0 275010.0 24509.0 31342.0 49405.0 52126.0 207814.0 200962.0 40756.0 48654.0 239560.0 233856.0 162996.0 159926.0 104298.0 109482.0 87260.0 79032.0 89866.0 91210.0 148326.0 147682.0 40118.0 47611.0 134331.0 132274.0 274826.0 273594.0 18360.0 22983.0 287561.0 285182.0 103961.0 96325.0 171316.0 170611.0 49935.0 56543.0 175327.0 174202.0 93577.0 86862.0 88265.0 84564.0 117924.0 119944.0 8078.0 0.0 12156.0 17608.0 32337.0 28938.0 26175.0 34033.0 31099.0 38598.0 35441.0 33340.0 72611.0 80760.0 47387.0 40788.0 117740.0 112997.0 53062.0 45589.0 113965.0 124850.0 113965.0 113965.0 113965.0 113965.0 113965.0 113965.0 113965.0 124850.0 124850.0 124850.0 124850.0 124850.0 124850.0 124850.0
35391.0 30418.0 91195.0 93105.0 104771.0 108720.0 23517.0 31935.0 254011.0 255949.0 103083.0 95627.0 60543.0 67365.0 289922.0 282044.0 27083.0 34992.0 60117.0 61922.0 214621.0 207572.0 44401.0 52817.0 247353.0 241436.0 151282.0 148383.0 114508.0 119295.0 88106.0 79795.0 100056.0 100814.0 138742.0 137685.0 43067.0 51072.0 137474.0 136109.0 283052.0 282071.0 10152.0 17698.0 295707.0 293087.0 108383.0 100396.0 161198.0 160178.0 61508.0 67906.0 183404.0 181853.0 82516.0 76152.0 97659.0 93709.0 106281.0 108572.0 20035.0 12156.0 0.0 8006.0 36035.0 35272.0 19251.0 27139.0 41766.0 48745.0 32901.0 33636.0 65685.0 73686.0 47232.0 42146.0 122685.0 117358.0 49524.0 41524.0 123436.0 135005.0 123436.0 123436.0 123436.0 123436.0 123436.0 123436.0 123436.0 135005.0 135005.0 135005.0 135005.0 135005.0 135005.0 135005.0
41291.0 35352.0 83476.0 85227.0 102024.0 105488.0 31168.0 39608.0 261852.0 263742.0 96768.0 89136.0 62098.0 69430.0 297880.0 290006.0 23497.0 31434.0 66878.0 69158.0 222596.0 215558.0 52379.0 60806.0 255225.0 249337.0 149519.0 147023.0 121602.0 126579.0 81968.0 73675.0 107153.0 108173.0 140242.0 138722.0 38699.0 46755.0 132224.0 131233.0 290852.0 289818.0 2646.0 10644.0 303523.0 300944.0 116349.0 108340.0 162030.0 160614.0 67521.0 74151.0 191219.0 189737.0 75969.0 69288.0 105094.0 101223.0 100483.0 102374.0 24384.0 17608.0 8006.0 0.0 32445.0 33472.0 11428.0 19190.0 48517.0 55794.0 26141.0 28213.0 57679.0 65683.0 41117.0 36923.0 118506.0 112852.0 42090.0 34027.0 122800.0 142135.0 122800.0 122800.0 122800.0 122800.0 122800.0 122800.0 122800.0 142135.0 142135.0 142135.0 142135.0 142135.0 142135.0 142135.0
43853.0 35930.0 69221.0 73842.0 69625.0 73056.0 56498.0 64086.0 268858.0 269873.0 70622.0 64061.0 94440.0 101856.0 307491.0 299818.0 9017.0 1044.0 69069.0 74634.0 233397.0 226949.0 72288.0 79678.0 262887.0 257701.0 177939.0 176167.0 122399.0 128871.0 55380.0 47290.0 108618.0 111922.0 172426.0 170647.0 7877.0 15333.0 102144.0 100377.0 296908.0 295089.0 30147.0 24136.0 309793.0 308020.0 133792.0 126573.0 193769.0 192019.0 64955.0 72132.0 198479.0 198334.0 90617.0 82458.0 109733.0 106888.0 117772.0 117577.0 29955.0 32337.0 36035.0 32445.0 0.0 8151.0 27245.0 28706.0 53789.0 61638.0 17561.0 9627.0 55523.0 63216.0 18495.0 10452.0 86653.0 81414.0 30329.0 26406.0 92538.0 142547.0 92538.0 92538.0 92538.0 92538.0 92538.0 92538.0 92538.0 142547.0 142547.0 142547.0 142547.0 142547.0 142547.0 142547.0
36752.0 28996.0 77135.0 81898.0 69559.0 73765.0 53345.0 60404.0 261033.0 261987.0 76449.0 70307.0 95333.0 102425.0 299859.0 292208.0 11518.0 7961.0 61353.0 67174.0 225938.0 219562.0 67227.0 74235.0 255115.0 249988.0 181704.0 179609.0 114360.0 120892.0 61281.0 53425.0 100639.0 104075.0 173565.0 172164.0 14606.0 20211.0 105855.0 103518.0 289005.0 287158.0 31576.0 27254.0 301899.0 300181.0 127536.0 120506.0 195498.0 194072.0 56942.0 64106.0 190729.0 190699.0 97305.0 89286.0 101960.0 99212.0 124210.0 124338.0 24789.0 28938.0 35272.0 33472.0 8151.0 0.0 30977.0 34146.0 46694.0 54423.0 24605.0 17012.0 63496.0 71253.0 26468.0 18392.0 88803.0 84128.0 38448.0 34177.0 89435.0 134468.0 89435.0 89435.0 89435.0 89435.0 89435.0 89435.0 89435.0 134468.0 134468.0 134468.0 134468.0 134468.0 134468.0 134468.0
48804.0 41852.0 72048.0 73855.0 96106.0 98891.0 42595.0 51035.0 272044.0 273790.0 86395.0 78599.0 68664.0 76435.0 308490.0 300639.0 19520.0 26386.0 75203.0 78272.0 233306.0 226336.0 63615.0 72003.0 265516.0 259730.0 150900.0 148997.0 130228.0 135563.0 71841.0 63613.0 115828.0 117351.0 146027.0 143940.0 31799.0 39577.0 122952.0 122410.0 300912.0 299730.0 9099.0 4124.0 313630.0 311181.0 127604.0 119637.0 166895.0 164973.0 74663.0 81577.0 201359.0 200089.0 69662.0 62327.0 114433.0 110739.0 95494.0 96566.0 31028.0 26175.0 19251.0 11428.0 27245.0 30977.0 0.0 8022.0 57068.0 64706.0 15984.0 20301.0 46814.0 54908.0 31447.0 28764.0 110594.0 104554.0 30803.0 22718.0 119700.0 150783.0 119700.0 119700.0 119700.0 119700.0 119700.0 119700.0 119700.0 150783.0 150783.0 150783.0 150783.0 150783.0 150783.0 150783.0
56199.0 48990.0 64525.0 66061.0 95145.0 97325.0 50279.0 58711.0 280003.0 281720.0 80965.0 72978.0 71807.0 79814.0 316506.0 308656.0 22811.0 28049.0 82737.0 86031.0 241327.0 234358.0 71539.0 79946.0 273492.0 267722.0 149723.0 148243.0 137782.0 143230.0 66820.0 58744.0 123411.0 125088.0 148080.0 145569.0 31379.0 38479.0 118697.0 118626.0 308843.0 307627.0 17027.0 11147.0 321570.0 319146.0 135522.0 127526.0 168189.0 165894.0 81786.0 88782.0 209312.0 208078.0 63855.0 56175.0 122217.0 118572.0 90336.0 90893.0 38386.0 34033.0 27139.0 19190.0 28706.0 34146.0 8022.0 0.0 64723.0 72437.0 13089.0 19940.0 38794.0 46893.0 27827.0 27229.0 107758.0 101373.0 24159.0 16199.0 120848.0 158330.0 120848.0 120848.0 120848.0 120848.0 120848.0 120848.0 120848.0 158330.0 158330.0 158330.0 158330.0 158330.0 158330.0 158330.0
9949.0 17871.0 122274.0 126094.0 103548.0 109776.0 34265.0 34505.0 216361.0 217757.0 122672.0 116850.0 88154.0 92418.0 254187.0 246457.0 49436.0 53105.0 18371.0 21511.0 179769.0 173238.0 29941.0 33449.0 210126.0 204689.0 185057.0 181036.0 73205.0 78509.0 107643.0 99965.0 58783.0 60409.0 161564.0 162398.0 61192.0 66624.0 148411.0 144808.0 244871.0 243400.0 49449.0 53576.0 257676.0 255554.0 81777.0 75280.0 186069.0 186590.0 21083.0 26627.0 145719.0 145126.0 124268.0 117772.0 57655.0 54240.0 147839.0 150308.0 26648.0 31099.0 41766.0 48517.0 53789.0 46694.0 57068.0 64723.0 0.0 7968.0 63567.0 59040.0 102687.0 110852.0 71938.0 64112.0 128029.0 124940.0 80930.0 74264.0 110237.0 93760.0 110237.0 110237.0 110237.0 110237.0 110237.0 110237.0 110237.0 93760.0 93760.0 93760.0 93760.0 93760.0 93760.0 93760.0
17798.0 25772.0 130228.0 134062.0 108971.0 115436.0 38246.0 36770.0 208408.0 209826.0 130113.0 124421.0 91340.0 95019.0 246225.0 238497.0 57401.0 60973.0 11958.0 13619.0 171840.0 165333.0 28802.0 30279.0 202163.0 196721.0 188757.0 184467.0 65811.0 70884.0 115147.0 107548.0 51361.0 52652.0 162890.0 164117.0 68970.0 74218.0 154968.0 151137.0 236942.0 235500.0 56868.0 61296.0 249740.0 247600.0 74951.0 68777.0 187688.0 188543.0 17962.0 21785.0 137759.0 137158.0 131218.0 124892.0 49813.0 46323.0 154339.0 157033.0 34546.0 38598.0 48745.0 55794.0 61638.0 54423.0 64706.0 72437.0 7968.0 0.0 71521.0 67002.0 110548.0 118715.0 79848.0 71993.0 134069.0 131265.0 88896.0 82209.0 113779.0 86341.0 113779.0 113779.0 113779.0 113779.0 113779.0 113779.0 113779.0 86341.0 86341.0 86341.0 86341.0 86341.0 86341.0 86341.0
54132.0 46294.0 59745.0 62821.0 82059.0 84266.0 56261.0 64592.0 279928.0 281304.0 70662.0 62997.0 84183.0 92070.0 317488.0 309714.0 15137.0 17193.0 80646.0 85062.0 242721.0 235980.0 75749.0 83871.0 273670.0 268172.0 162533.0 161174.0 135284.0 141269.0 55965.0 47707.0 121137.0 123625.0 160950.0 158545.0 18611.0 25426.0 106977.0 106513.0 308412.0 306863.0 23503.0 15497.0 321228.0 319120.0 139348.0 131637.0 181227.0 178971.0 78140.0 85309.0 209276.0 208558.0 73056.0 64907.0 121068.0 117783.0 100233.0 100021.0 37090.0 35441.0 32901.0 26141.0 17561.0 24605.0 15984.0 13089.0 63567.0 71521.0 0.0 7955.0 40039.0 48084.0 15479.0 14166.0 95068.0 88856.0 17654.0 10743.0 108311.0 155705.0 108311.0 108311.0 108311.0 108311.0 108311.0 108311.0 108311.0 155705.0 155705.0 155705.0 155705.0 155705.0 155705.0 155705.0
49307.0 41334.0 63254.0 67137.0 75894.0 78591.0 56104.0 64185.0 275161.0 276370.0 69683.0 62458.0 88880.0 96572.0 313227.0 305497.0 9620.0 9326.0 75434.0 80371.0 238742.0 232131.0 74096.0 81938.0 269033.0 263677.0 169652.0 168113.0 129602.0 135814.0 54594.0 46290.0 115603.0 118462.0 166327.0 164201.0 11617.0 19277.0 104053.0 103023.0 303452.0 301745.0 25632.0 18214.0 316303.0 314349.0 136979.0 129475.0 187094.0 185061.0 72217.0 79411.0 204605.0 204149.0 81000.0 72833.0 116066.0 112972.0 108188.0 107952.0 33283.0 33340.0 33636.0 28213.0 9627.0 17012.0 20301.0 19940.0 59040.0 67002.0 7955.0 0.0 46666.0 54538.0 14063.0 8721.0 90574.0 84746.0 22308.0 17211.0 100915.0 149917.0 100915.0 100915.0 100915.0 100915.0 100915.0 100915.0 100915.0 149917.0 149917.0 149917.0 149917.0 149917.0 149917.0 149917.0
93615.0 85949.0 32461.0 30605.0 100725.0 99853.0 88155.0 96480.0 318623.0 320239.0 63920.0 55827.0 94836.0 103034.0 355295.0 347448.0 55164.0 55556.0 120256.0 124165.0 280120.0 273142.0 109970.0 118426.0 312171.0 306451.0 149204.0 149831.0 175118.0 180933.0 54856.0 49713.0 160889.0 163058.0 162524.0 158238.0 52222.0 54308.0 105413.0 107998.0 347363.0 346025.0 55716.0 49642.0 360121.0 357786.0 173835.0 165732.0 178638.0 174711.0 118136.0 125291.0 247922.0 246799.0 45435.0 37153.0 160341.0 156852.0 72234.0 69428.0 76046.0 72611.0 65685.0 57679.0 55523.0 63496.0 46814.0 38794.0 102687.0 110548.0 40039.0 46666.0 0.0 8167.0 39985.0 46790.0 103015.0 95343.0 25702.0 29516.0 134550.0 195588.0 134550.0 134550.0 134550.0 134550.0 134550.0 134550.0 134550.0 195588.0 195588.0 195588.0 195588.0 195588.0 195588.0 195588.0
101767.0 94087.0 29047.0 25382.0 104752.0 103332.0 95975.0 104262.0 326778.0 328402.0 64001.0 56248.0 100117.0 108240.0 363398.0 355546.0 63185.0 63296.0 128404.0 132332.0 288200.0 281204.0 117896.0 126362.0 320318.0 314588.0 149223.0 150290.0 183245.0 189081.0 56682.0 52549.0 169027.0 171219.0 165527.0 160912.0 59521.0 61030.0 105410.0 108581.0 355526.0 354192.0 63764.0 57785.0 368283.0 365939.0 181696.0 173563.0 180731.0 176493.0 126214.0 133376.0 256078.0 254937.0 43832.0 36129.0 168507.0 165019.0 69452.0 65831.0 84210.0 80760.0 73686.0 65683.0 63216.0 71253.0 54908.0 46893.0 110852.0 118715.0 48084.0 54538.0 8167.0 0.0 47032.0 54169.0 104983.0 97178.0 33062.0 37479.0 139846.0 203707.0 139846.0 139846.0 139846.0 139846.0 139846.0 139846.0 139846.0 203707.0 203707.0 203707.0 203707.0 203707.0 203707.0 203707.0
62052.0 54076.0 50726.0 55447.0 68676.0 70174.0 70046.0 78182.0 287347.0 288368.0 55853.0 48486.0 99509.0 107446.0 325895.0 318207.0 23219.0 19016.0 87541.0 92983.0 251682.0 245175.0 88137.0 95938.0 281361.0 276150.0 175051.0 174113.0 140828.0 147344.0 40899.0 32592.0 127091.0 130416.0 175867.0 173251.0 12777.0 14648.0 91506.0 91053.0 315403.0 313580.0 38475.0 30566.0 328289.0 326511.0 150839.0 143395.0 195720.0 193227.0 83405.0 90572.0 216947.0 216747.0 80194.0 71708.0 128214.0 125335.0 107781.0 106487.0 46900.0 47387.0 47232.0 41117.0 18495.0 26468.0 31447.0 27827.0 71938.0 79848.0 15479.0 14063.0 39985.0 47032.0 0.0 8076.0 79936.0 73562.0 14443.0 15306.0 97835.0 160920.0 97835.0 97835.0 97835.0 97835.0 97835.0 97835.0 97835.0 160920.0 160920.0 160920.0 160920.0 160920.0 160920.0 160920.0
54196.0 46241.0 58783.0 63513.0 67932.0 70311.0 64206.0 72146.0 279308.0 280312.0 61711.0 54754.0 97425.0 105166.0 317931.0 310253.0 16283.0 11034.0 79521.0 85051.0 243795.0 237323.0 81373.0 89005.0 273340.0 268151.0 176618.0 175315.0 132752.0 139270.0 46520.0 38263.0 119017.0 122367.0 174672.0 172418.0 5523.0 11261.0 95397.0 94310.0 307342.0 305513.0 34349.0 26901.0 320230.0 318468.0 143580.0 136240.0 195201.0 193029.0 75329.0 82496.0 208931.0 208776.0 84851.0 76475.0 120185.0 117337.0 112331.0 111517.0 39558.0 40788.0 42146.0 36923.0 10452.0 18392.0 28764.0 27229.0 64112.0 71993.0 14166.0 8721.0 46790.0 54169.0 8076.0 0.0 81908.0 76036.0 21121.0 19198.0 94554.0 152851.0 94554.0 94554.0 94554.0 94554.0 94554.0 94554.0 94554.0 152851.0 152851.0 152851.0 152851.0 152851.0 152851.0 152851.0
119385.0 113448.0 82408.0 90428.0 28077.0 20325.0 142143.0 149035.0 321550.0 321759.0 44359.0 50205.0 179213.0 187027.0 362724.0 355500.0 95612.0 87696.0 135400.0 143283.0 292930.0 287816.0 154173.0 160136.0 316408.0 312246.0 251231.0 251173.0 174340.0 182344.0 48315.0 53560.0 164241.0 170558.0 255783.0 253047.0 79829.0 71769.0 25501.0 18722.0 348535.0 346595.0 116010.0 108788.0 361462.0 360333.0 208662.0 202806.0 275293.0 272504.0 126688.0 132007.0 253659.0 255840.0 148345.0 140155.0 170102.0 169242.0 174433.0 170525.0 112971.0 117740.0 122685.0 118506.0 86653.0 88803.0 110594.0 107758.0 128029.0 134069.0 95068.0 90574.0 103015.0 104983.0 79936.0 81908.0 0.0 7927.0 88258.0 93772.0 64505.0 192835.0 64505.0 64505.0 64505.0 64505.0 64505.0 64505.0 64505.0 192835.0 192835.0 192835.0 192835.0 192835.0 192835.0 192835.0
116018.0 109762.0 74484.0 82510.0 29373.0 21744.0 137419.0 144523.0 321467.0 321676.0 36518.0 42278.0 173036.0 180921.0 362640.0 355281.0 90286.0 82457.0 133264.0 141013.0 292584.0 287302.0 150300.0 156529.0 316324.0 312162.0 243803.0 243840.0 174146.0 182074.0 40552.0 46082.0 163574.0 169652.0 249227.0 246356.0 74324.0 66292.0 24576.0 19874.0 348451.0 346511.0 110317.0 102933.0 361378.0 360250.0 206112.0 200038.0 268468.0 265569.0 124857.0 130458.0 253575.0 255592.0 140620.0 132462.0 169011.0 167935.0 166617.0 162660.0 108610.0 112997.0 117358.0 112852.0 81414.0 84128.0 104554.0 101373.0 124940.0 131265.0 88856.0 84746.0 95343.0 97178.0 73562.0 76036.0 7927.0 0.0 81254.0 87029.0 68264.0 192751.0 68264.0 68264.0 68264.0 68264.0 68264.0 68264.0 68264.0 192751.0 192751.0 192751.0 192751.0 192751.0 192751.0 192751.0
71339.0 63412.0 42128.0 45225.0 80421.0 80991.0 73040.0 81452.0 297244.0 298528.0 57367.0 49227.0 94273.0 102442.0 335014.0 327253.0 31667.0 30499.0 97650.0 102373.0 260314.0 253597.0 93143.0 101338.0 291050.0 285613.0 163862.0 163374.0 151910.0 158104.0 43899.0 36255.0 137900.0 140681.0 168528.0 165357.0 26525.0 29032.0 96441.0 97153.0 325621.0 323969.0 39571.0 31833.0 338459.0 336437.0 156885.0 149123.0 187272.0 184315.0 94520.0 101715.0 226634.0 226026.0 66326.0 57798.0 138228.0 135051.0 93910.0 92337.0 54620.0 53062.0 49524.0 42090.0 30329.0 38448.0 30803.0 24159.0 80930.0 88896.0 17654.0 22308.0 25702.0 33062.0 14443.0 21121.0 88258.0 81254.0 0.0 8087.0 111434.0 172222.0 111434.0 111434.0 111434.0 111434.0 111434.0 111434.0 111434.0 172222.0 172222.0 172222.0 172222.0 172222.0 172222.0 172222.0
64866.0 57036.0 49836.0 52439.0 83872.0 85112.0 65037.0 73459.0 290614.0 292015.0 64886.0 56843.0 87145.0 95260.0 328059.0 320273.0 25727.0 26318.0 91389.0 95767.0 253215.0 246432.0 85346.0 93591.0 284333.0 278806.0 159847.0 159012.0 146010.0 152011.0 50989.0 43068.0 131874.0 134365.0 162253.0 159327.0 24666.0 29297.0 103255.0 103588.0 319126.0 317593.0 31524.0 23863.0 331937.0 329806.0 149187.0 141372.0 181523.0 178807.0 88819.0 95995.0 219951.0 219179.0 65678.0 57284.0 131797.0 128493.0 93191.0 92319.0 47723.0 45589.0 41524.0 34027.0 26406.0 34177.0 22718.0 16199.0 74264.0 82209.0 10743.0 17211.0 29516.0 37479.0 15306.0 19198.0 93772.0 87029.0 8087.0 0.0 112936.0 166420.0 112936.0 112936.0 112936.0 112936.0 112936.0 112936.0 112936.0 166420.0 166420.0 166420.0 166420.0 166420.0 166420.0 166420.0
104539.0 101763.0 125530.0 133371.0 40422.0 47048.0 135648.0 140215.0 287186.0 287395.0 96105.0 97414.0 183973.0 190633.0 328359.0 321135.0 100394.0 93350.0 110802.0 118974.0 258629.0 253719.0 139943.0 143565.0 282043.0 277881.0 270462.0 268692.0 140034.0 148135.0 89809.0 88942.0 131325.0 138409.0 262112.0 261115.0 89706.0 83699.0 89757.0 82210.0 314170.0 312230.0 120994.0 116316.0 327097.0 325969.0 183483.0 179018.0 284593.0 283373.0 100929.0 104309.0 219294.0 221494.0 177758.0 169228.0 138719.0 138832.0 205338.0 203519.0 106667.0 113965.0 123436.0 122800.0 92538.0 89435.0 119700.0 120848.0 110237.0 113779.0 108311.0 100915.0 134550.0 139846.0 97835.0 94554.0 64505.0 68264.0 111434.0 112936.0 0.0 158470.0 0.0 0.0 0.0 0.0 0.0 0.0 0.0 158470.0 158470.0 158470.0 158470.0 158470.0 158470.0 158470.0
102177.0 109679.0 211398.0 216364.0 164826.0 172518.0 120401.0 115283.0 129679.0 129575.0 202888.0 198964.0 166018.0 166783.0 171494.0 164411.0 140747.0 142168.0 75595.0 73098.0 104040.0 100037.0 100704.0 94275.0 124850.0 121060.0 261626.0 255959.0 20556.0 16669.0 189257.0 182886.0 34986.0 35028.0 222342.0 226086.0 148561.0 151405.0 217291.0 211476.0 157477.0 155537.0 143177.0 147199.0 170417.0 168223.0 75084.0 78498.0 247775.0 250835.0 77703.0 70508.0 63526.0 67000.0 217268.0 211139.0 38758.0 43398.0 239442.0 242642.0 119965.0 124850.0 135005.0 142135.0 142547.0 134468.0 150783.0 158330.0 93760.0 86341.0 155705.0 149917.0 195588.0 203707.0 160920.0 152851.0 192835.0 192751.0 172222.0 166420.0 158470.0 0.0 158470.0 158470.0 158470.0 158470.0 158470.0 158470.0 158470.0 0.0 0.0 0.0 0.0 0.0 0.0 0.0
104539.0 101763.0 125530.0 133371.0 40422.0 47048.0 135648.0 140215.0 287186.0 287395.0 96105.0 97414.0 183973.0 190633.0 328359.0 321135.0 100394.0 93350.0 110802.0 118974.0 258629.0 253719.0 139943.0 143565.0 282043.0 277881.0 270462.0 268692.0 140034.0 148135.0 89809.0 88942.0 131325.0 138409.0 262112.0 261115.0 89706.0 83699.0 89757.0 82210.0 314170.0 312230.0 120994.0 116316.0 327097.0 325969.0 183483.0 179018.0 284593.0 283373.0 100929.0 104309.0 219294.0 221494.0 177758.0 169228.0 138719.0 138832.0 205338.0 203519.0 106667.0 113965.0 123436.0 122800.0 92538.0 89435.0 119700.0 120848.0 110237.0 113779.0 108311.0 100915.0 134550.0 139846.0 97835.0 94554.0 64505.0 68264.0 111434.0 112936.0 0.0 158470.0 0.0 0.0 0.0 0.0 0.0 0.0 0.0 158470.0 158470.0 158470.0 158470.0 158470.0 158470.0 158470.0
104539.0 101763.0 125530.0 133371.0 40422.0 47048.0 135648.0 140215.0 287186.0 287395.0 96105.0 97414.0 183973.0 190633.0 328359.0 321135.0 100394.0 93350.0 110802.0 118974.0 258629.0 253719.0 139943.0 143565.0 282043.0 277881.0 270462.0 268692.0 140034.0 148135.0 89809.0 88942.0 131325.0 138409.0 262112.0 261115.0 89706.0 83699.0 89757.0 82210.0 314170.0 312230.0 120994.0 116316.0 327097.0 325969.0 183483.0 179018.0 284593.0 283373.0 100929.0 104309.0 219294.0 221494.0 177758.0 169228.0 138719.0 138832.0 205338.0 203519.0 106667.0 113965.0 123436.0 122800.0 92538.0 89435.0 119700.0 120848.0 110237.0 113779.0 108311.0 100915.0 134550.0 139846.0 97835.0 94554.0 64505.0 68264.0 111434.0 112936.0 0.0 158470.0 0.0 0.0 0.0 0.0 0.0 0.0 0.0 158470.0 158470.0 158470.0 158470.0 158470.0 158470.0 158470.0
104539.0 101763.0 125530.0 133371.0 40422.0 47048.0 135648.0 140215.0 287186.0 287395.0 96105.0 97414.0 183973.0 190633.0 328359.0 321135.0 100394.0 93350.0 110802.0 118974.0 258629.0 253719.0 139943.0 143565.0 282043.0 277881.0 270462.0 268692.0 140034.0 148135.0 89809.0 88942.0 131325.0 138409.0 262112.0 261115.0 89706.0 83699.0 89757.0 82210.0 314170.0 312230.0 120994.0 116316.0 327097.0 325969.0 183483.0 179018.0 284593.0 283373.0 100929.0 104309.0 219294.0 221494.0 177758.0 169228.0 138719.0 138832.0 205338.0 203519.0 106667.0 113965.0 123436.0 122800.0 92538.0 89435.0 119700.0 120848.0 110237.0 113779.0 108311.0 100915.0 134550.0 139846.0 97835.0 94554.0 64505.0 68264.0 111434.0 112936.0 0.0 158470.0 0.0 0.0 0.0 0.0 0.0 0.0 0.0 158470.0 158470.0 158470.0 158470.0 158470.0 158470.0 158470.0
104539.0 101763.0 125530.0 133371.0 40422.0 47048.0 135648.0 140215.0 287186.0 287395.0 96105.0 97414.0 183973.0 190633.0 328359.0 321135.0 100394.0 93350.0 110802.0 118974.0 258629.0 253719.0 139943.0 143565.0 282043.0 277881.0 270462.0 268692.0 140034.0 148135.0 89809.0 88942.0 131325.0 138409.0 262112.0 261115.0 89706.0 83699.0 89757.0 82210.0 314170.0 312230.0 120994.0 116316.0 327097.0 325969.0 183483.0 179018.0 284593.0 283373.0 100929.0 104309.0 219294.0 221494.0 177758.0 169228.0 138719.0 138832.0 205338.0 203519.0 106667.0 113965.0 123436.0 122800.0 92538.0 89435.0 119700.0 120848.0 110237.0 113779.0 108311.0 100915.0 134550.0 139846.0 97835.0 94554.0 64505.0 68264.0 111434.0 112936.0 0.0 158470.0 0.0 0.0 0.0 0.0 0.0 0.0 0.0 158470.0 158470.0 158470.0 158470.0 158470.0 158470.0 158470.0
104539.0 101763.0 125530.0 133371.0 40422.0 47048.0 135648.0 140215.0 287186.0 287395.0 96105.0 97414.0 183973.0 190633.0 328359.0 321135.0 100394.0 93350.0 110802.0 118974.0 258629.0 253719.0 139943.0 143565.0 282043.0 277881.0 270462.0 268692.0 140034.0 148135.0 89809.0 88942.0 131325.0 138409.0 262112.0 261115.0 89706.0 83699.0 89757.0 82210.0 314170.0 312230.0 120994.0 116316.0 327097.0 325969.0 183483.0 179018.0 284593.0 283373.0 100929.0 104309.0 219294.0 221494.0 177758.0 169228.0 138719.0 138832.0 205338.0 203519.0 106667.0 113965.0 123436.0 122800.0 92538.0 89435.0 119700.0 120848.0 110237.0 113779.0 108311.0 100915.0 134550.0 139846.0 97835.0 94554.0 64505.0 68264.0 111434.0 112936.0 0.0 158470.0 0.0 0.0 0.0 0.0 0.0 0.0 0.0 158470.0 158470.0 158470.0 158470.0 158470.0 158470.0 158470.0
104539.0 101763.0 125530.0 133371.0 40422.0 47048.0 135648.0 140215.0 287186.0 287395.0 96105.0 97414.0 183973.0 190633.0 328359.0 321135.0 100394.0 93350.0 110802.0 118974.0 258629.0 253719.0 139943.0 143565.0 282043.0 277881.0 270462.0 268692.0 140034.0 148135.0 89809.0 88942.0 131325.0 138409.0 262112.0 261115.0 89706.0 83699.0 89757.0 82210.0 314170.0 312230.0 120994.0 116316.0 327097.0 325969.0 183483.0 179018.0 284593.0 283373.0 100929.0 104309.0 219294.0 221494.0 177758.0 169228.0 138719.0 138832.0 205338.0 203519.0 106667.0 113965.0 123436.0 122800.0 92538.0 89435.0 119700.0 120848.0 110237.0 113779.0 108311.0 100915.0 134550.0 139846.0 97835.0 94554.0 64505.0 68264.0 111434.0 112936.0 0.0 158470.0 0.0 0.0 0.0 0.0 0.0 0.0 0.0 158470.0 158470.0 158470.0 158470.0 158470.0 158470.0 158470.0
104539.0 101763.0 125530.0 133371.0 40422.0 47048.0 135648.0 140215.0 287186.0 287395.0 96105.0 97414.0 183973.0 190633.0 328359.0 321135.0 100394.0 93350.0 110802.0 118974.0 258629.0 253719.0 139943.0 143565.0 282043.0 277881.0 270462.0 268692.0 140034.0 148135.0 89809.0 88942.0 131325.0 138409.0 262112.0 261115.0 89706.0 83699.0 89757.0 82210.0 314170.0 312230.0 120994.0 116316.0 327097.0 325969.0 183483.0 179018.0 284593.0 283373.0 100929.0 104309.0 219294.0 221494.0 177758.0 169228.0 138719.0 138832.0 205338.0 203519.0 106667.0 113965.0 123436.0 122800.0 92538.0 89435.0 119700.0 120848.0 110237.0 113779.0 108311.0 100915.0 134550.0 139846.0 97835.0 94554.0 64505.0 68264.0 111434.0 112936.0 0.0 158470.0 0.0 0.0 0.0 0.0 0.0 0.0 0.0 158470.0 158470.0 158470.0 158470.0 158470.0 158470.0 158470.0
102177.0 109679.0 211398.0 216364.0 164826.0 172518.0 120401.0 115283.0 129679.0 129575.0 202888.0 198964.0 166018.0 166783.0 171494.0 164411.0 140747.0 142168.0 75595.0 73098.0 104040.0 100037.0 100704.0 94275.0 124850.0 121060.0 261626.0 255959.0 20556.0 16669.0 189257.0 182886.0 34986.0 35028.0 222342.0 226086.0 148561.0 151405.0 217291.0 211476.0 157477.0 155537.0 143177.0 147199.0 170417.0 168223.0 75084.0 78498.0 247775.0 250835.0 77703.0 70508.0 63526.0 67000.0 217268.0 211139.0 38758.0 43398.0 239442.0 242642.0 119965.0 124850.0 135005.0 142135.0 142547.0 134468.0 150783.0 158330.0 93760.0 86341.0 155705.0 149917.0 195588.0 203707.0 160920.0 152851.0 192835.0 192751.0 172222.0 166420.0 158470.0 0.0 158470.0 158470.0 158470.0 158470.0 158470.0 158470.0 158470.0 0.0 0.0 0.0 0.0 0.0 0.0 0.0
102177.0 109679.0 211398.0 216364.0 164826.0 172518.0 120401.0 115283.0 129679.0 129575.0 202888.0 198964.0 166018.0 166783.0 171494.0 164411.0 140747.0 142168.0 75595.0 73098.0 104040.0 100037.0 100704.0 94275.0 124850.0 121060.0 261626.0 255959.0 20556.0 16669.0 189257.0 182886.0 34986.0 35028.0 222342.0 226086.0 148561.0 151405.0 217291.0 211476.0 157477.0 155537.0 143177.0 147199.0 170417.0 168223.0 75084.0 78498.0 247775.0 250835.0 77703.0 70508.0 63526.0 67000.0 217268.0 211139.0 38758.0 43398.0 239442.0 242642.0 119965.0 124850.0 135005.0 142135.0 142547.0 134468.0 150783.0 158330.0 93760.0 86341.0 155705.0 149917.0 195588.0 203707.0 160920.0 152851.0 192835.0 192751.0 172222.0 166420.0 158470.0 0.0 158470.0 158470.0 158470.0 158470.0 158470.0 158470.0 158470.0 0.0 0.0 0.0 0.0 0.0 0.0 0.0
102177.0 109679.0 211398.0 216364.0 164826.0 172518.0 120401.0 115283.0 129679.0 129575.0 202888.0 198964.0 166018.0 166783.0 171494.0 164411.0 140747.0 142168.0 75595.0 73098.0 104040.0 100037.0 100704.0 94275.0 124850.0 121060.0 261626.0 255959.0 20556.0 16669.0 189257.0 182886.0 34986.0 35028.0 222342.0 226086.0 148561.0 151405.0 217291.0 211476.0 157477.0 155537.0 143177.0 147199.0 170417.0 168223.0 75084.0 78498.0 247775.0 250835.0 77703.0 70508.0 63526.0 67000.0 217268.0 211139.0 38758.0 43398.0 239442.0 242642.0 119965.0 124850.0 135005.0 142135.0 142547.0 134468.0 150783.0 158330.0 93760.0 86341.0 155705.0 149917.0 195588.0 203707.0 160920.0 152851.0 192835.0 192751.0 172222.0 166420.0 158470.0 0.0 158470.0 158470.0 158470.0 158470.0 158470.0 158470.0 158470.0 0.0 0.0 0.0 0.0 0.0 0.0 0.0
102177.0 109679.0 211398.0 216364.0 164826.0 172518.0 120401.0 115283.0 129679.0 129575.0 202888.0 198964.0 166018.0 166783.0 171494.0 164411.0 140747.0 142168.0 75595.0 73098.0 104040.0 100037.0 100704.0 94275.0 124850.0 121060.0 261626.0 255959.0 20556.0 16669.0 189257.0 182886.0 34986.0 35028.0 222342.0 226086.0 148561.0 151405.0 217291.0 211476.0 157477.0 155537.0 143177.0 147199.0 170417.0 168223.0 75084.0 78498.0 247775.0 250835.0 77703.0 70508.0 63526.0 67000.0 217268.0 211139.0 38758.0 43398.0 239442.0 242642.0 119965.0 124850.0 135005.0 142135.0 142547.0 134468.0 150783.0 158330.0 93760.0 86341.0 155705.0 149917.0 195588.0 203707.0 160920.0 152851.0 192835.0 192751.0 172222.0 166420.0 158470.0 0.0 158470.0 158470.0 158470.0 158470.0 158470.0 158470.0 158470.0 0.0 0.0 0.0 0.0 0.0 0.0 0.0
102177.0 109679.0 211398.0 216364.0 164826.0 172518.0 120401.0 115283.0 129679.0 129575.0 202888.0 198964.0 166018.0 166783.0 171494.0 164411.0 140747.0 142168.0 75595.0 73098.0 104040.0 100037.0 100704.0 94275.0 124850.0 121060.0 261626.0 255959.0 20556.0 16669.0 189257.0 182886.0 34986.0 35028.0 222342.0 226086.0 148561.0 151405.0 217291.0 211476.0 157477.0 155537.0 143177.0 147199.0 170417.0 168223.0 75084.0 78498.0 247775.0 250835.0 77703.0 70508.0 63526.0 67000.0 217268.0 211139.0 38758.0 43398.0 239442.0 242642.0 119965.0 124850.0 135005.0 142135.0 142547.0 134468.0 150783.0 158330.0 93760.0 86341.0 155705.0 149917.0 195588.0 203707.0 160920.0 152851.0 192835.0 192751.0 172222.0 166420.0 158470.0 0.0 158470.0 158470.0 158470.0 158470.0 158470.0 158470.0 158470.0 0.0 0.0 0.0 0.0 0.0 0.0 0.0
102177.0 109679.0 211398.0 216364.0 164826.0 172518.0 120401.0 115283.0 129679.0 129575.0 202888.0 198964.0 166018.0 166783.0 171494.0 164411.0 140747.0 142168.0 75595.0 73098.0 104040.0 100037.0 100704.0 94275.0 124850.0 121060.0 261626.0 255959.0 20556.0 16669.0 189257.0 182886.0 34986.0 35028.0 222342.0 226086.0 148561.0 151405.0 217291.0 211476.0 157477.0 155537.0 143177.0 147199.0 170417.0 168223.0 75084.0 78498.0 247775.0 250835.0 77703.0 70508.0 63526.0 67000.0 217268.0 211139.0 38758.0 43398.0 239442.0 242642.0 119965.0 124850.0 135005.0 142135.0 142547.0 134468.0 150783.0 158330.0 93760.0 86341.0 155705.0 149917.0 195588.0 203707.0 160920.0 152851.0 192835.0 192751.0 172222.0 166420.0 158470.0 0.0 158470.0 158470.0 158470.0 158470.0 158470.0 158470.0 158470.0 0.0 0.0 0.0 0.0 0.0 0.0 0.0
102177.0 109679.0 211398.0 216364.0 164826.0 172518.0 120401.0 115283.0 129679.0 129575.0 202888.0 198964.0 166018.0 166783.0 171494.0 164411.0 140747.0 142168.0 75595.0 73098.0 104040.0 100037.0 100704.0 94275.0 124850.0 121060.0 261626.0 255959.0 20556.0 16669.0 189257.0 182886.0 34986.0 35028.0 222342.0 226086.0 148561.0 151405.0 217291.0 211476.0 157477.0 155537.0 143177.0 147199.0 170417.0 168223.0 75084.0 78498.0 247775.0 250835.0 77703.0 70508.0 63526.0 67000.0 217268.0 211139.0 38758.0 43398.0 239442.0 242642.0 119965.0 124850.0 135005.0 142135.0 142547.0 134468.0 150783.0 158330.0 93760.0 86341.0 155705.0 149917.0 195588.0 203707.0 160920.0 152851.0 192835.0 192751.0 172222.0 166420.0 158470.0 0.0 158470.0 158470.0 158470.0 158470.0 158470.0 158470.0 158470.0 0.0 0.0 0.0 0.0 0.0 0.0 0.0
FIXED_EDGES_SECTION
1 2
3 4
5 6
7 8
9 10
11 12
13 14
15 16
17 18
19 20
21 22
23 24
25 26
27 28
29 30
31 32
33 34
35 36
37 38
39 40
41 42
43 44
45 46
47 48
49 50
51 52
53 54
55 56
57 58
59 60
61 62
63 64
65 66
67 68
69 70
71 72
73 74
75 76
77 78
79 80
-1 
DEMAND_SECTION
1 432
2 432
3 55
4 55
5 618
6 618
7 279
8 279
9 60
10 60
11 375
12 375
13 112
14 112
15 229
16 229
17 119
18 119
19 324
20 324
21 341
22 341
23 421
24 421
25 322
26 322
27 542
28 542
29 235
30 235
31 57
32 57
33 100
34 100
35 234
36 234
37 207
38 207
39 216
40 216
41 71
42 71
43 541
44 541
45 491
46 491
47 68
48 68
49 120
50 120
51 75
52 75
53 563
54 563
55 217
56 217
57 399
58 399
59 68
60 68
61 114
62 114
63 256
64 256
65 171
66 171
67 96
68 96
69 80
70 80
71 341
72 341
73 247
74 247
75 293
76 293
77 247
78 247
79 583
80 583
81 0
82 0
83 0
84 0
85 0
86 0
87 0
88 0
89 0
90 0
91 0
92 0
93 0
94 0
95 0
96 0
DEPOT_SECTION
81 
-1 
CAPACITIES_SECTION
2500 
2750 
3000 
3250 
-1 
EOF