NAME: GFS_20_1
TYPE: GFSP
DIMENSION: 96
VEHICLES: 4
CAPACITY: 2500.0
TRIP_DIST_LIMIT: 750000.0
TOTAL_DIST_LIMIT: 1050000.0
EDGE_WEIGHT_TYPE: EXPLICIT
EDGE_WEIGHT_FORMAT: FULL_MATRIX
EDGE_WEIGHT_SECTION
0.0 8160.0 222995.0 223325.0 119325.0 113991.0 196092.0 187703.0 195389.0 190263.0 86211.0 89417.0 200376.0 205794.0 349823.0 341599.0 155967.0 156254.0 127520.0 127800.0 113096.0 117336.0 381299.0 373283.0 219247.0 223166.0 72234.0 69452.0 196426.0 202318.0 304948.0 312612.0 183241.0 184793.0 136421.0 135839.0 187695.0 183164.0 310458.0 302824.0 156444.0 158925.0 100233.0 108188.0 71470.0 63517.0 36526.0 39237.0 71431.0 67510.0 129391.0 130952.0 180401.0 177226.0 306275.0 298565.0 102427.0 98245.0 126134.0 121726.0 173508.0 177318.0 178907.0 173787.0 164982.0 157722.0 124073.0 129324.0 83725.0 76301.0 154465.0 161604.0 166051.0 166826.0 76898.0 68870.0 162887.0 159051.0 236025.0 242249.0 205338.0 239442.0 205338.0 205338.0 205338.0 205338.0 205338.0 205338.0 205338.0 239442.0 239442.0 239442.0 239442.0 239442.0 239442.0 239442.0
8160.0 0.0 227406.0 227978.0 122996.0 117309.0 201270.0 192857.0 192048.0 186676.0 93535.0 97009.0 196359.0 201997.0 354211.0 346009.0 151473.0 152123.0 130514.0 131260.0 113457.0 117208.0 386655.0 378642.0 222333.0 226490.0 69428.0 65831.0 193471.0 199568.0 310381.0 317995.0 178191.0 180044.0 140203.0 140037.0 183978.0 179218.0 315937.0 308354.0 158750.0 160848.0 100021.0 107952.0 79108.0 71208.0 42823.0 44441.0 77992.0 73588.0 128508.0 129565.0 184722.0 181823.0 311489.0 303827.0 110016.0 105619.0 122346.0 118369.0 168584.0 172668.0 175835.0 170453.0 169730.0 162340.0 124112.0 129740.0 77010.0 69807.0 151830.0 159174.0 168616.0 169763.0 84889.0 76884.0 159189.0 155692.0 239423.0 245798.0 203519.0 242642.0 203519.0 203519.0 203519.0 203519.0 203519.0 203519.0 203519.0 242642.0 242642.0 242642.0 242642.0 242642.0 242642.0 242642.0
222995.0 227406.0 0.0 8049.0 105488.0 112301.0 36140.0 41956.0 201439.0 205581.0 232639.0 226293.0 219997.0 216769.0 126830.0 118613.0 215255.0 207626.0 101793.0 98359.0 139474.0 143151.0 164374.0 156574.0 41056.0 34066.0 191004.0 199127.0 192467.0 189826.0 92263.0 98465.0 238352.0 231577.0 88318.0 87450.0 207777.0 211614.0 98267.0 92352.0 86183.0 90712.0 153157.0 149092.0 170836.0 176810.0 187900.0 183837.0 157629.0 158346.0 148900.0 156329.0 42728.0 46009.0 89653.0 83154.0 229574.0 234909.0 196215.0 188932.0 231129.0 226107.0 190186.0 194762.0 58657.0 65432.0 137681.0 129897.0 236615.0 231214.0 176875.0 173342.0 75623.0 69247.0 210088.0 209201.0 200051.0 192120.0 35058.0 34068.0 176257.0 42206.0 176257.0 176257.0 176257.0 176257.0 176257.0 176257.0 176257.0 42206.0 42206.0 42206.0 42206.0 42206.0 42206.0 42206.0
223325.0 227978.0 8049.0 0.0 107053.0 114136.0 31902.0 38783.0 208149.0 212133.0 229962.0 223452.0 226645.0 223570.0 126851.0 118584.0 220820.0 213265.0 104357.0 100378.0 143221.0 147241.0 161549.0 153670.0 49018.0 42107.0 193823.0 201908.0 199278.0 196684.0 88054.0 94622.0 244391.0 237733.0 90093.0 88513.0 214246.0 217936.0 94037.0 87741.0 90828.0 95814.0 156573.0 152835.0 169198.0 175412.0 187859.0 184099.0 156782.0 157902.0 153676.0 161242.0 44219.0 46165.0 86300.0 79422.0 226317.0 231845.0 201006.0 193594.0 237004.0 232135.0 196581.0 200987.0 58370.0 65639.0 142008.0 134324.0 239751.0 234161.0 182645.0 179346.0 80574.0 73775.0 207627.0 207038.0 205937.0 197952.0 42748.0 41104.0 183114.0 49871.0 183114.0 183114.0 183114.0 183114.0 183114.0 183114.0 183114.0 49871.0 49871.0 49871.0 49871.0 49871.0 49871.0 49871.0
119325.0 122996.0 105488.0 107053.0 0.0 7905.0 84738.0 76558.0 150338.0 150323.0 150017.0 145900.0 165227.0 165928.0 231858.0 223693.0 140591.0 134846.0 13809.0 9113.0 49731.0 57061.0 268263.0 260326.0 100483.0 103982.0 89231.0 97020.0 145088.0 146617.0 193228.0 200371.0 169725.0 165602.0 17275.0 19296.0 150461.0 150787.0 199066.0 192013.0 44110.0 50088.0 57678.0 57615.0 83234.0 86133.0 86414.0 81002.0 64030.0 61182.0 71308.0 79244.0 62906.0 61529.0 192779.0 185517.0 153677.0 156356.0 112185.0 103890.0 160216.0 158269.0 133634.0 134053.0 51169.0 43174.0 56199.0 52360.0 135891.0 129546.0 110241.0 111676.0 50690.0 49195.0 126903.0 123018.0 132283.0 124369.0 116760.0 122924.0 137159.0 120399.0 137159.0 137159.0 137159.0 137159.0 137159.0 137159.0 137159.0 120399.0 120399.0 120399.0 120399.0 120399.0 120399.0 120399.0
113991.0 117309.0 112301.0 114136.0 7905.0 0.0 92442.0 84305.0 144958.0 144627.0 149012.0 145273.0 159424.0 160405.0 238366.0 230197.0 133602.0 128021.0 14367.0 14083.0 42668.0 50216.0 275517.0 267595.0 105285.0 109207.0 81434.0 89260.0 140063.0 141932.0 200672.0 207764.0 162951.0 159022.0 24044.0 27064.0 144609.0 144675.0 206528.0 199525.0 45594.0 50605.0 49934.0 50189.0 82535.0 84724.0 82147.0 76282.0 62607.0 58856.0 65002.0 72791.0 69923.0 68928.0 200063.0 192855.0 153590.0 155875.0 104781.0 96475.0 153350.0 151613.0 128035.0 128123.0 58864.0 50865.0 49954.0 46857.0 128079.0 121788.0 104155.0 105990.0 53501.0 53132.0 126098.0 121774.0 125837.0 118007.0 122118.0 128512.0 133236.0 125451.0 133236.0 133236.0 133236.0 133236.0 133236.0 133236.0 133236.0 125451.0 125451.0 125451.0 125451.0 125451.0 125451.0 125451.0
196092.0 201270.0 36140.0 31902.0 84738.0 92442.0 0.0 8434.0 206650.0 209489.0 198361.0 191760.0 224483.0 222529.0 156563.0 148284.0 212206.0 205140.0 85579.0 79856.0 127620.0 132962.0 185475.0 177472.0 66278.0 62168.0 173835.0 181696.0 198626.0 197005.0 109467.0 116923.0 238166.0 232268.0 69282.0 65444.0 211028.0 213721.0 115168.0 107846.0 81548.0 88388.0 139348.0 136979.0 138700.0 145222.0 160015.0 156936.0 127569.0 129439.0 142294.0 150328.0 29411.0 25472.0 110220.0 102577.0 194461.0 200049.0 188816.0 180915.0 229908.0 225972.0 193126.0 196396.0 33578.0 41577.0 128891.0 121888.0 220431.0 214223.0 175701.0 173797.0 73643.0 65567.0 176193.0 175863.0 199274.0 191100.0 68158.0 69096.0 183483.0 75084.0 183483.0 183483.0 183483.0 183483.0 183483.0 183483.0 183483.0 75084.0 75084.0 75084.0 75084.0 75084.0 75084.0 75084.0
187703.0 192857.0 41956.0 38783.0 76558.0 84305.0 8434.0 0.0 201594.0 204179.0 191182.0 184693.0 219234.0 217525.0 164495.0 156213.0 205715.0 198755.0 77865.0 71921.0 120188.0 125722.0 193906.0 185904.0 67658.0 64468.0 165732.0 173563.0 193780.0 192441.0 117897.0 125357.0 232068.0 226329.0 61377.0 57263.0 205594.0 208075.0 123593.0 116256.0 75717.0 82859.0 131637.0 129475.0 130839.0 137261.0 151660.0 148535.0 119369.0 121132.0 135516.0 143600.0 24618.0 19060.0 118635.0 111003.0 187719.0 193154.0 181755.0 173792.0 223661.0 219911.0 187697.0 190723.0 25497.0 33475.0 121865.0 115020.0 212357.0 206091.0 169627.0 168007.0 68513.0 60343.0 168853.0 168336.0 193181.0 184994.0 71795.0 73559.0 179018.0 78498.0 179018.0 179018.0 179018.0 179018.0 179018.0 179018.0 179018.0 78498.0 78498.0 78498.0 78498.0 78498.0 78498.0 78498.0
195389.0 192048.0 201439.0 208149.0 150338.0 144958.0 206650.0 201594.0 0.0 8263.0 269010.0 268370.0 18763.0 15993.0 306182.0 298014.0 48726.0 43794.0 138771.0 146796.0 105620.0 97684.0 353699.0 346475.0 165374.0 173475.0 123230.0 126218.0 10047.0 17005.0 289269.0 294041.0 47623.0 39084.0 153315.0 161216.0 12504.0 19957.0 295123.0 290535.0 126453.0 118916.0 108466.0 102624.0 212143.0 210170.0 187256.0 179306.0 192192.0 184951.0 81424.0 74901.0 177320.0 182646.0 283969.0 279059.0 279729.0 279150.0 70138.0 73694.0 46900.0 38746.0 17643.0 21604.0 181291.0 175654.0 95694.0 98112.0 131762.0 134217.0 43629.0 39426.0 133103.0 141257.0 249780.0 242920.0 33792.0 36358.0 183940.0 191931.0 46895.0 183810.0 46895.0 46895.0 46895.0 46895.0 46895.0 46895.0 46895.0 183810.0 183810.0 183810.0 183810.0 183810.0 183810.0 183810.0
190263.0 186676.0 205581.0 212133.0 150323.0 144627.0 209489.0 204179.0 8263.0 0.0 265222.0 264808.0 15156.0 16421.0 310831.0 302664.0 41009.0 36630.0 139206.0 147252.0 104275.0 96293.0 358349.0 351125.0 170024.0 178124.0 118312.0 120893.0 17479.0 25009.0 293916.0 298691.0 39827.0 31327.0 154218.0 162030.0 4241.0 11696.0 299761.0 295192.0 128671.0 121331.0 105987.0 100573.0 209510.0 207249.0 183443.0 175536.0 189791.0 182416.0 80232.0 73226.0 180094.0 185163.0 288619.0 283684.0 276337.0 275540.0 64386.0 68604.0 38679.0 30547.0 16822.0 17482.0 183256.0 177370.0 94904.0 97963.0 124766.0 127495.0 41342.0 38652.0 135846.0 143946.0 246381.0 239393.0 27564.0 31558.0 188589.0 196581.0 53539.0 188460.0 53539.0 53539.0 53539.0 53539.0 53539.0 53539.0 53539.0 188460.0 188460.0 188460.0 188460.0 188460.0 188460.0 188460.0
86211.0 93535.0 232639.0 229962.0 150017.0 149012.0 198361.0 191182.0 269010.0 265222.0 0.0 8118.0 277174.0 281459.0 353423.0 345210.0 235586.0 234412.0 162970.0 158920.0 170380.0 177146.0 371164.0 363320.0 243936.0 245095.0 149204.0 149223.0 268011.0 272639.0 296366.0 304417.0 264570.0 264963.0 162909.0 158108.0 263331.0 259954.0 300987.0 292930.0 194080.0 199583.0 162533.0 169652.0 66812.0 64390.0 81782.0 89709.0 86422.0 91022.0 192552.0 196852.0 195047.0 188966.0 300701.0 292669.0 18123.0 12134.0 203729.0 197721.0 254489.0 257199.0 251585.0 247911.0 176422.0 171755.0 182143.0 184399.0 169728.0 162113.0 225736.0 231518.0 200347.0 197558.0 23290.0 27441.0 239008.0 233718.0 256317.0 260513.0 270462.0 261626.0 270462.0 270462.0 270462.0 270462.0 270462.0 270462.0 270462.0 261626.0 261626.0 261626.0 261626.0 261626.0 261626.0 261626.0
89417.0 97009.0 226293.0 223452.0 145900.0 145273.0 191760.0 184693.0 268370.0 264808.0 8118.0 0.0 277033.0 281110.0 346432.0 338233.0 236108.0 234659.0 159057.0 154704.0 168391.0 175344.0 363578.0 355748.0 238523.0 239483.0 149831.0 150290.0 267071.0 271502.0 288931.0 296984.0 265376.0 265508.0 158270.0 153204.0 263034.0 259864.0 293510.0 285449.0 190009.0 195721.0 161174.0 168113.0 62750.0 61216.0 81600.0 89387.0 82912.0 88050.0 190969.0 195552.0 189233.0 183005.0 293381.0 285350.0 13011.0 10896.0 204019.0 197784.0 255241.0 257704.0 250868.0 247428.0 170544.0 166096.0 180104.0 182029.0 172411.0 164674.0 224937.0 230503.0 195945.0 192894.0 19338.0 25463.0 238882.0 233380.0 250543.0 254588.0 268692.0 255959.0 268692.0 268692.0 268692.0 268692.0 268692.0 268692.0 268692.0 255959.0 255959.0 255959.0 255959.0 255959.0 255959.0 255959.0
200376.0 196359.0 219997.0 226645.0 165227.0 159424.0 224483.0 219234.0 18763.0 15156.0 277174.0 277033.0 0.0 8285.0 324862.0 316695.0 46234.0 44279.0 154237.0 162285.0 118662.0 110677.0 372379.0 365156.0 184055.0 192155.0 129057.0 130943.0 28514.0 34156.0 307950.0 312722.0 33853.0 25792.0 169329.0 177125.0 14862.0 17281.0 313803.0 309216.0 143778.0 136403.0 119603.0 114531.0 222768.0 220236.0 195485.0 187650.0 203280.0 195800.0 94774.0 87544.0 195101.0 200230.0 302650.0 297740.0 288749.0 287697.0 74315.0 79578.0 36719.0 28955.0 31958.0 31442.0 198399.0 192525.0 109586.0 112875.0 130889.0 134411.0 55603.0 53580.0 150850.0 158966.0 258814.0 251686.0 38165.0 43996.0 202620.0 210612.0 65346.0 202490.0 65346.0 65346.0 65346.0 65346.0 65346.0 65346.0 65346.0 202490.0 202490.0 202490.0 202490.0 202490.0 202490.0 202490.0
205794.0 201997.0 216769.0 223570.0 165928.0 160405.0 222529.0 217525.0 15993.0 16421.0 281459.0 281110.0 8285.0 0.0 321365.0 313198.0 53171.0 50408.0 154521.0 162555.0 120459.0 112486.0 368883.0 361659.0 180558.0 188658.0 134079.0 136349.0 24303.0 28492.0 304453.0 309225.0 42109.0 34077.0 169196.0 177079.0 18187.0 23060.0 310306.0 305719.0 142438.0 134887.0 122397.0 116929.0 225931.0 223661.0 199689.0 191799.0 206204.0 198835.0 96343.0 89479.0 193219.0 198592.0 299153.0 294243.0 292678.0 291828.0 79676.0 84393.0 44884.0 37008.0 32399.0 33902.0 197283.0 191644.0 110871.0 113615.0 137877.0 141147.0 57676.0 54486.0 149022.0 157183.0 262724.0 255707.0 42937.0 47742.0 199124.0 207115.0 60282.0 198994.0 60282.0 60282.0 60282.0 60282.0 60282.0 60282.0 60282.0 198994.0 198994.0 198994.0 198994.0 198994.0 198994.0 198994.0
349823.0 354211.0 126830.0 126851.0 231858.0 238366.0 156563.0 164495.0 306182.0 310831.0 353423.0 346432.0 324862.0 321365.0 0.0 8282.0 325797.0 317843.0 226904.0 224304.0 260920.0 263225.0 63039.0 59066.0 141915.0 134956.0 314666.0 322833.0 297062.0 294411.0 68957.0 62618.0 345925.0 338592.0 214598.0 214192.0 313401.0 317939.0 67941.0 74217.0 206073.0 208366.0 275475.0 270370.0 295263.0 301753.0 314613.0 310654.0 283560.0 284753.0 265625.0 272073.0 169490.0 172679.0 59713.0 66740.0 347738.0 353965.0 311625.0 305245.0 339663.0 333847.0 296335.0 301765.0 185129.0 192171.0 256905.0 248907.0 358991.0 354230.0 286863.0 281951.0 194940.0 190517.0 331860.0 332003.0 308911.0 301430.0 122474.0 114611.0 280842.0 124149.0 280842.0 280842.0 280842.0 280842.0 280842.0 280842.0 280842.0 124149.0 124149.0 124149.0 124149.0 124149.0 124149.0 124149.0
341599.0 346009.0 118613.0 118584.0 223693.0 230197.0 148284.0 156213.0 298014.0 302664.0 345210.0 338233.0 316695.0 313198.0 8282.0 0.0 317630.0 309676.0 218705.0 216134.0 252753.0 255057.0 66179.0 61365.0 133747.0 126789.0 306498.0 314665.0 288895.0 286244.0 62661.0 56794.0 337758.0 330425.0 206431.0 206001.0 305233.0 309772.0 62160.0 67989.0 197906.0 200199.0 267307.0 262203.0 286984.0 293472.0 306364.0 302424.0 275283.0 276486.0 257458.0 263906.0 161291.0 164437.0 52958.0 59666.0 339589.0 345794.0 303458.0 297078.0 331496.0 325680.0 288167.0 293598.0 176874.0 183932.0 248738.0 240740.0 350824.0 346063.0 278696.0 273784.0 186773.0 182350.0 323622.0 323746.0 300744.0 293263.0 114307.0 106444.0 272674.0 115982.0 272674.0 272674.0 272674.0 272674.0 272674.0 272674.0 272674.0 115982.0 115982.0 115982.0 115982.0 115982.0 115982.0 115982.0
155967.0 151473.0 215255.0 220820.0 140591.0 133602.0 212206.0 205715.0 48726.0 41009.0 235586.0 236108.0 46234.0 53171.0 325797.0 317630.0 0.0 8072.0 132246.0 139998.0 90935.0 83541.0 373322.0 366074.0 184552.0 192329.0 86385.0 87043.0 55234.0 63189.0 306670.0 312146.0 30421.0 29401.0 148871.0 155912.0 37128.0 30433.0 312643.0 307258.0 131189.0 125283.0 86775.0 84025.0 185544.0 182026.0 154690.0 147132.0 167280.0 159457.0 70691.0 62504.0 183247.0 186847.0 302448.0 296901.0 248256.0 246555.0 32589.0 40015.0 20253.0 21613.0 40193.0 32154.0 182191.0 175230.0 85338.0 91250.0 84717.0 88184.0 38935.0 44455.0 140595.0 148026.0 218544.0 211082.0 19196.0 24953.0 203554.0 211547.0 83749.0 203425.0 83749.0 83749.0 83749.0 83749.0 83749.0 83749.0 83749.0 203425.0 203425.0 203425.0 203425.0 203425.0 203425.0 203425.0
156254.0 152123.0 207626.0 213265.0 134846.0 128021.0 205140.0 198755.0 43794.0 36630.0 234412.0 234659.0 44279.0 50408.0 317843.0 309676.0 8072.0 0.0 126059.0 133890.0 85400.0 77817.0 365365.0 358131.0 176631.0 184429.0 85491.0 86903.0 49326.0 57165.0 298916.0 304349.0 34958.0 32042.0 142547.0 149717.0 33135.0 27357.0 304884.0 299545.0 123932.0 117880.0 82318.0 78990.0 182741.0 179527.0 153084.0 145398.0 164075.0 156330.0 64276.0 56101.0 176086.0 179834.0 294623.0 289116.0 246648.0 245202.0 30688.0 37114.0 25396.0 24221.0 33313.0 25339.0 175458.0 168601.0 79141.0 84728.0 88136.0 90968.0 31015.0 36386.0 133184.0 140693.0 216822.0 209482.0 11738.0 16888.0 195601.0 203592.0 76242.0 195471.0 76242.0 76242.0 76242.0 76242.0 76242.0 76242.0 76242.0 195471.0 195471.0 195471.0 195471.0 195471.0 195471.0 195471.0
127520.0 130514.0 101793.0 104357.0 13809.0 14367.0 85579.0 77865.0 138771.0 139206.0 162970.0 159057.0 154237.0 154521.0 226904.0 218705.0 132246.0 126059.0 0.0 8048.0 42879.0 49260.0 265885.0 258018.0 91819.0 96126.0 89497.0 97563.0 133093.0 134255.0 191867.0 198732.0 160679.0 156095.0 16967.0 23667.0 139588.0 140364.0 197790.0 191029.0 31289.0 36668.0 53778.0 51865.0 96314.0 98799.0 96319.0 90279.0 76659.0 73144.0 61835.0 69979.0 60410.0 60795.0 190640.0 183646.0 167083.0 169589.0 105483.0 97303.0 151444.0 148965.0 122420.0 123365.0 52570.0 44831.0 46928.0 41797.0 135672.0 129889.0 99938.0 100684.0 39201.0 39306.0 139959.0 135815.0 122594.0 114537.0 109139.0 115783.0 124185.0 112154.0 124185.0 124185.0 124185.0 124185.0 124185.0 124185.0 124185.0 112154.0 112154.0 112154.0 112154.0 112154.0 112154.0 112154.0
127800.0 131260.0 98359.0 100378.0 9113.0 14083.0 79856.0 71921.0 146796.0 147252.0 158920.0 154704.0 162285.0 162555.0 224304.0 216134.0 139998.0 133890.0 8048.0 0.0 50079.0 56761.0 261870.0 253965.0 91673.0 95371.0 94190.0 102149.0 141067.0 142153.0 187306.0 194313.0 168565.0 164045.0 10588.0 16056.0 147635.0 148396.0 193191.0 186284.0 35423.0 41798.0 60050.0 58776.0 92113.0 95153.0 95302.0 89738.0 73072.0 70294.0 69726.0 77848.0 56169.0 55667.0 186468.0 179333.0 162300.0 165111.0 112825.0 104601.0 159283.0 156886.0 130465.0 131407.0 46443.0 38526.0 54752.0 49798.0 140676.0 134629.0 107955.0 108732.0 41616.0 40116.0 135767.0 131985.0 130557.0 122514.0 108227.0 114538.0 131866.0 111706.0 131866.0 131866.0 131866.0 131866.0 131866.0 131866.0 131866.0 111706.0 111706.0 111706.0 111706.0 111706.0 111706.0 111706.0
113096.0 113457.0 139474.0 143221.0 49731.0 42668.0 127620.0 120188.0 105620.0 104275.0 170380.0 168391.0 118662.0 120459.0 260920.0 252753.0 90935.0 85400.0 42879.0 50079.0 0.0 7986.0 303622.0 295889.0 120371.0 126479.0 55164.0 63185.0 102072.0 105235.0 231274.0 237776.0 120350.0 116619.0 59845.0 66132.0 103803.0 103185.0 237256.0 230852.0 54851.0 53399.0 15137.0 9620.0 108579.0 107834.0 91638.0 83865.0 88060.0 81409.0 24205.0 31124.0 100711.0 102358.0 229123.0 222512.0 178685.0 179287.0 62762.0 54526.0 110701.0 109125.0 88170.0 87221.0 95182.0 87580.0 11794.0 16286.0 98071.0 93486.0 63060.0 66194.0 65984.0 70797.0 149182.0 143183.0 83708.0 76078.0 139437.0 146937.0 100394.0 140747.0 100394.0 100394.0 100394.0 100394.0 100394.0 100394.0 100394.0 140747.0 140747.0 140747.0 140747.0 140747.0 140747.0 140747.0
117336.0 117208.0 143151.0 147241.0 57061.0 50216.0 132962.0 125722.0 97684.0 96293.0 177146.0 175344.0 110677.0 112486.0 263225.0 255057.0 83541.0 77817.0 49260.0 56761.0 7986.0 0.0 306903.0 299223.0 121991.0 128424.0 55556.0 63296.0 94257.0 97560.0 235239.0 241598.0 112737.0 108861.0 66171.0 72795.0 95817.0 95228.0 241234.0 234975.0 57471.0 54930.0 17193.0 9326.0 116018.0 115047.0 97637.0 89765.0 95582.0 88793.0 16322.0 23142.0 105458.0 107566.0 232763.0 226298.0 185805.0 186240.0 56291.0 48182.0 103169.0 101414.0 80213.0 79235.0 101003.0 93556.0 7257.0 14765.0 96223.0 92205.0 55075.0 58263.0 68525.0 74017.0 156194.0 150053.0 75844.0 68167.0 141249.0 148888.0 93350.0 142168.0 93350.0 93350.0 93350.0 93350.0 93350.0 93350.0 93350.0 142168.0 142168.0 142168.0 142168.0 142168.0 142168.0 142168.0
381299.0 386655.0 164374.0 161549.0 268263.0 275517.0 185475.0 193906.0 353699.0 358349.0 371164.0 363578.0 372379.0 368883.0 63039.0 66179.0 373322.0 365365.0 265885.0 261870.0 303622.0 306903.0 0.0 8018.0 188862.0 181240.0 355295.0 363398.0 344580.0 341929.0 76439.0 68694.0 393443.0 386110.0 251503.0 249352.0 360918.0 365456.0 71127.0 79010.0 249474.0 252942.0 317488.0 313227.0 319759.0 327017.0 344996.0 342255.0 311493.0 314142.0 311171.0 318108.0 205708.0 206776.0 75502.0 82941.0 362649.0 369669.0 358024.0 351204.0 387180.0 381365.0 343852.0 349283.0 217965.0 225751.0 301080.0 293158.0 400988.0 395563.0 334388.0 329390.0 238514.0 232929.0 351420.0 352968.0 356310.0 348915.0 169769.0 161775.0 328359.0 171494.0 328359.0 328359.0 328359.0 328359.0 328359.0 328359.0 328359.0 171494.0 171494.0 171494.0 171494.0 171494.0 171494.0 171494.0
373283.0 378642.0 156574.0 153670.0 260326.0 267595.0 177472.0 185904.0 346475.0 351125.0 363320.0 355748.0 365156.0 361659.0 59066.0 61365.0 366074.0 358131.0 258018.0 253965.0 295889.0 299223.0 8018.0 0.0 181555.0 173883.0 347448.0 355546.0 337356.0 334705.0 68423.0 60676.0 386219.0 378886.0 243587.0 241400.0 353694.0 358232.0 63125.0 71022.0 241815.0 245355.0 309714.0 305497.0 311768.0 319020.0 336979.0 334241.0 303477.0 306124.0 303619.0 310594.0 197809.0 198830.0 67550.0 74954.0 354886.0 361884.0 350527.0 343670.0 379956.0 374141.0 336628.0 342059.0 209991.0 217783.0 293433.0 285522.0 393185.0 387733.0 327140.0 322214.0 230875.0 225230.0 343523.0 345042.0 349150.0 341719.0 162536.0 154548.0 321135.0 164411.0 321135.0 321135.0 321135.0 321135.0 321135.0 321135.0 321135.0 164411.0 164411.0 164411.0 164411.0 164411.0 164411.0 164411.0
219247.0 222333.0 41056.0 49018.0 100483.0 105285.0 66278.0 67658.0 165374.0 170024.0 243936.0 238523.0 184055.0 180558.0 141915.0 133747.0 184552.0 176631.0 91819.0 91673.0 120371.0 121991.0 188862.0 181555.0 0.0 8150.0 175118.0 183245.0 156255.0 153604.0 123909.0 128669.0 205059.0 197759.0 84120.0 87024.0 172590.0 177127.0 129756.0 125257.0 65968.0 67101.0 135284.0 129602.0 178369.0 182967.0 186893.0 181410.0 161700.0 160373.0 123724.0 130169.0 51250.0 58768.0 118612.0 113692.0 243839.0 248117.0 169806.0 163347.0 198704.0 192961.0 155523.0 160916.0 69686.0 72790.0 115445.0 107457.0 218164.0 213831.0 145624.0 140905.0 55045.0 52642.0 220716.0 218357.0 167879.0 160324.0 19441.0 27343.0 140034.0 20556.0 140034.0 140034.0 140034.0 140034.0 140034.0 140034.0 140034.0 20556.0 20556.0 20556.0 20556.0 20556.0 20556.0 20556.0
223166.0 226490.0 34066.0 42107.0 103982.0 109207.0 62168.0 64468.0 173475.0 178124.0 245095.0 239483.0 192155.0 188658.0 134956.0 126789.0 192329.0 184429.0 96126.0 95371.0 126479.0 128424.0 181240.0 173883.0 8150.0 0.0 180933.0 189081.0 164355.0 161704.0 115795.0 120606.0 213061.0 205793.0 87231.0 89462.0 180691.0 185194.0 121650.0 117117.0 71752.0 73501.0 141269.0 135814.0 180069.0 184950.0 190226.0 184980.0 163985.0 163036.0 130745.0 137342.0 50715.0 57786.0 110587.0 105600.0 244397.0 248900.0 177095.0 170522.0 206640.0 200948.0 163591.0 168935.0 69463.0 73388.0 122010.0 114011.0 224458.0 219960.0 153415.0 148801.0 60677.0 57422.0 221952.0 219877.0 175775.0 168181.0 13099.0 20470.0 148135.0 16669.0 148135.0 148135.0 148135.0 148135.0 148135.0 148135.0 148135.0 16669.0 16669.0 16669.0 16669.0 16669.0 16669.0 16669.0
72234.0 69428.0 191004.0 193823.0 89231.0 81434.0 173835.0 165732.0 123230.0 118312.0 149204.0 149831.0 129057.0 134079.0 314666.0 306498.0 86385.0 85491.0 89497.0 94190.0 55164.0 55556.0 355295.0 347448.0 175118.0 180933.0 0.0 8167.0 124204.0 130183.0 281330.0 288225.0 115563.0 115760.0 104764.0 108496.0 115911.0 111778.0 287241.0 280412.0 109203.0 108437.0 40039.0 46666.0 102900.0 98211.0 68760.0 61512.0 87257.0 79316.0 62600.0 61940.0 149895.0 149848.0 280120.0 273142.0 162102.0 160219.0 54856.0 49713.0 105413.0 107998.0 106673.0 101640.0 140268.0 132272.0 62794.0 70108.0 46669.0 40441.0 82406.0 89768.0 120256.0 124165.0 132565.0 124968.0 91154.0 86939.0 193976.0 201322.0 134550.0 195588.0 134550.0 134550.0 134550.0 134550.0 134550.0 134550.0 134550.0 195588.0 195588.0 195588.0 195588.0 195588.0 195588.0 195588.0
69452.0 65831.0 199127.0 201908.0 97020.0 89260.0 181696.0 173563.0 126218.0 120893.0 149223.0 150290.0 130943.0 136349.0 322833.0 314665.0 87043.0 86903.0 97563.0 102149.0 63185.0 63296.0 363398.0 355546.0 183245.0 189081.0 8167.0 0.0 127786.0 134054.0 289358.0 296274.0 115422.0 116221.0 112712.0 116305.0 118267.0 113718.0 295263.0 288411.0 117345.0 116512.0 48084.0 54538.0 106099.0 100936.0 70211.0 63428.0 91519.0 83659.0 69503.0 68249.0 157943.0 157815.0 288200.0 281204.0 162771.0 160491.0 56682.0 52549.0 105410.0 108581.0 110089.0 104623.0 148120.0 140122.0 70506.0 77931.0 39078.0 32528.0 86596.0 94244.0 128404.0 132332.0 133554.0 125797.0 93460.0 89862.0 202120.0 209475.0 139846.0 203707.0 139846.0 139846.0 139846.0 139846.0 139846.0 139846.0 139846.0 203707.0 203707.0 203707.0 203707.0 203707.0 203707.0 203707.0
196426.0 193471.0 192467.0 199278.0 145088.0 140063.0 198626.0 193780.0 10047.0 17479.0 268011.0 267071.0 28514.0 24303.0 297062.0 288895.0 55234.0 49326.0 133093.0 141067.0 102072.0 94257.0 344580.0 337356.0 156255.0 164355.0 124204.0 127786.0 0.0 7995.0 280150.0 284922.0 57298.0 48785.0 147117.0 155087.0 21521.0 28723.0 286003.0 281416.0 119100.0 111416.0 106261.0 99940.0 209734.0 208127.0 186435.0 178445.0 189539.0 182480.0 77938.0 72083.0 169382.0 174914.0 274850.0 269940.0 278191.0 277901.0 72853.0 75370.0 55855.0 47817.0 17818.0 24629.0 174037.0 168634.0 91591.0 93274.0 136157.0 138081.0 42429.0 36608.0 125275.0 133454.0 248289.0 241609.0 38250.0 38749.0 174821.0 182812.0 36893.0 174691.0 36893.0 36893.0 36893.0 36893.0 36893.0 36893.0 36893.0 174691.0 174691.0 174691.0 174691.0 174691.0 174691.0 174691.0
202318.0 199568.0 189826.0 196684.0 146617.0 141932.0 197005.0 192441.0 17005.0 25009.0 272639.0 271502.0 34156.0 28492.0 294411.0 286244.0 63189.0 57165.0 134255.0 142153.0 105235.0 97560.0 341929.0 334705.0 153604.0 161704.0 130183.0 134054.0 7995.0 0.0 277499.0 282271.0 64628.0 56088.0 147717.0 155735.0 29168.0 36493.0 283353.0 278765.0 118517.0 110686.0 110390.0 103764.0 213455.0 212110.0 191261.0 183260.0 193110.0 186197.0 81327.0 76025.0 167923.0 173709.0 272199.0 267289.0 282454.0 282358.0 79801.0 81873.0 63619.0 55527.0 24893.0 32199.0 173414.0 168292.0 94375.0 95418.0 143559.0 145302.0 47880.0 41240.0 124074.0 132259.0 252608.0 246053.0 45942.0 45873.0 172170.0 180161.0 31861.0 172040.0 31861.0 31861.0 31861.0 31861.0 31861.0 31861.0 31861.0 172040.0 172040.0 172040.0 172040.0 172040.0 172040.0 172040.0
304948.0 310381.0 92263.0 88054.0 193228.0 200672.0 109467.0 117897.0 289269.0 293916.0 296366.0 288931.0 307950.0 304453.0 68957.0 62661.0 306670.0 298916.0 191867.0 187306.0 231274.0 235239.0 76439.0 68423.0 123909.0 115795.0 281330.0 289358.0 280150.0 277499.0 0.0 8055.0 328548.0 321410.0 176805.0 174110.0 296481.0 300920.0 6004.0 5370.0 178444.0 182879.0 244556.0 240888.0 243507.0 250704.0 268607.0 265958.0 235054.0 237730.0 241144.0 248524.0 131460.0 131744.0 10953.0 10620.0 288722.0 295495.0 288443.0 281191.0 321820.0 316377.0 279326.0 284520.0 142423.0 150314.0 229889.0 222134.0 327508.0 321748.0 267978.0 263890.0 167864.0 161482.0 276089.0 277330.0 290808.0 283035.0 106678.0 99180.0 263929.0 110557.0 263929.0 263929.0 263929.0 263929.0 263929.0 263929.0 263929.0 110557.0 110557.0 110557.0 110557.0 110557.0 110557.0 110557.0
312612.0 317995.0 98465.0 94622.0 200371.0 207764.0 116923.0 125357.0 294041.0 298691.0 304417.0 296984.0 312722.0 309225.0 62618.0 56794.0 312146.0 304349.0 198732.0 194313.0 237776.0 241598.0 68694.0 60676.0 128669.0 120606.0 288225.0 296274.0 284922.0 282271.0 8055.0 0.0 333617.0 326390.0 183843.0 181308.0 301228.0 305795.0 5370.0 12310.0 184605.0 188844.0 251196.0 247394.0 251432.0 258608.0 276303.0 273584.0 242843.0 245451.0 247176.0 254478.0 138331.0 138850.0 10620.0 15330.0 296775.0 303550.0 294430.0 287255.0 327037.0 321477.0 284191.0 289522.0 149706.0 157564.0 236144.0 228348.0 334305.0 328620.0 273373.0 269121.0 173926.0 167707.0 284124.0 285347.0 296071.0 288354.0 110953.0 103290.0 268701.0 114448.0 268701.0 268701.0 268701.0 268701.0 268701.0 268701.0 268701.0 114448.0 114448.0 114448.0 114448.0 114448.0 114448.0 114448.0
183241.0 178191.0 238352.0 244391.0 169725.0 162951.0 238166.0 232068.0 47623.0 39827.0 264570.0 265376.0 33853.0 42109.0 345925.0 337758.0 30421.0 34958.0 160679.0 168565.0 120350.0 112737.0 393443.0 386219.0 205059.0 213061.0 115563.0 115422.0 57298.0 64628.0 328548.0 333617.0 0.0 8543.0 177015.0 184303.0 35920.0 29382.0 334467.0 329486.0 156640.0 150112.0 116996.0 113902.0 215791.0 212135.0 184223.0 176785.0 197655.0 189817.0 98845.0 90719.0 208898.0 213052.0 323647.0 318518.0 277664.0 275715.0 62876.0 70430.0 10258.0 12261.0 50293.0 44189.0 209293.0 202626.0 113835.0 119102.0 106609.0 111530.0 62465.0 65047.0 165290.0 173059.0 248082.0 240522.0 38893.0 47075.0 223683.0 231675.0 92852.0 223554.0 92852.0 92852.0 92852.0 92852.0 92852.0 92852.0 92852.0 223554.0 223554.0 223554.0 223554.0 223554.0 223554.0 223554.0
184793.0 180044.0 231577.0 237733.0 165602.0 159022.0 232268.0 226329.0 39084.0 31327.0 264963.0 265508.0 25792.0 34077.0 338592.0 330425.0 29401.0 32042.0 156095.0 164045.0 116619.0 108861.0 386110.0 378886.0 197759.0 205793.0 115760.0 116221.0 48785.0 56088.0 321410.0 326390.0 8543.0 0.0 172218.0 179638.0 27475.0 21190.0 327315.0 322426.0 150724.0 144011.0 114268.0 110668.0 214583.0 211214.0 184086.0 176516.0 196053.0 188285.0 94388.0 86368.0 202931.0 207284.0 316370.0 311330.0 277656.0 275950.0 61806.0 68855.0 12311.0 7888.0 42494.0 36896.0 203906.0 197389.0 109475.0 114350.0 110230.0 114681.0 56824.0 58606.0 159100.0 166956.0 247936.0 240481.0 33534.0 41674.0 216351.0 224342.0 84514.0 216221.0 84514.0 84514.0 84514.0 84514.0 84514.0 84514.0 84514.0 216221.0 216221.0 216221.0 216221.0 216221.0 216221.0 216221.0
136421.0 140203.0 88318.0 90093.0 17275.0 24044.0 69282.0 61377.0 153315.0 154218.0 162909.0 158270.0 169329.0 169196.0 214598.0 206431.0 148871.0 142547.0 16967.0 10588.0 59845.0 66171.0 251503.0 243587.0 84120.0 87231.0 104764.0 112712.0 147117.0 147717.0 176805.0 183843.0 177015.0 172218.0 0.0 8048.0 154821.0 155953.0 182681.0 175749.0 34674.0 42148.0 70406.0 68787.0 96248.0 100016.0 102999.0 97868.0 78242.0 76383.0 78271.0 86450.0 45879.0 45114.0 176068.0 168894.0 165186.0 168457.0 122427.0 114257.0 167901.0 165199.0 137396.0 138799.0 35926.0 28058.0 63545.0 57915.0 151262.0 145201.0 115739.0 115961.0 38087.0 34649.0 139640.0 136381.0 138686.0 130572.0 99886.0 105896.0 136518.0 103757.0 136518.0 136518.0 136518.0 136518.0 136518.0 136518.0 136518.0 103757.0 103757.0 103757.0 103757.0 103757.0 103757.0 103757.0
135839.0 140037.0 87450.0 88513.0 19296.0 27064.0 65444.0 57263.0 161216.0 162030.0 158108.0 153204.0 177125.0 177079.0 214192.0 206001.0 155912.0 149717.0 23667.0 16056.0 66132.0 72795.0 249352.0 241400.0 87024.0 89462.0 108496.0 116305.0 155087.0 155735.0 174110.0 181308.0 184303.0 179638.0 8048.0 0.0 162578.0 163602.0 179928.0 172827.0 42167.0 49818.0 75774.0 74772.0 91781.0 96046.0 101498.0 96873.0 74677.0 73582.0 85472.0 93627.0 44723.0 42591.0 173851.0 166522.0 159694.0 163235.0 128881.0 120656.0 175098.0 172553.0 145211.0 146494.0 31883.0 23896.0 70594.0 65288.0 155144.0 148833.0 123297.0 123693.0 44517.0 40089.0 134817.0 131921.0 146116.0 138029.0 101796.0 107389.0 144566.0 106109.0 144566.0 144566.0 144566.0 144566.0 144566.0 144566.0 144566.0 106109.0 106109.0 106109.0 106109.0 106109.0 106109.0 106109.0
187695.0 183978.0 207777.0 214246.0 150461.0 144609.0 211028.0 205594.0 12504.0 4241.0 263331.0 263034.0 14862.0 18187.0 313401.0 305233.0 37128.0 33135.0 139588.0 147635.0 103803.0 95817.0 360918.0 353694.0 172590.0 180691.0 115911.0 118267.0 21521.0 29168.0 296481.0 301228.0 35920.0 27475.0 154821.0 162578.0 0.0 7456.0 302341.0 297696.0 129970.0 122739.0 104915.0 99740.0 208244.0 205834.0 181573.0 173695.0 188658.0 181219.0 79916.0 72686.0 181619.0 186555.0 291188.0 286282.0 274649.0 273738.0 61632.0 66214.0 34471.0 26360.0 17902.0 16582.0 184372.0 178364.0 94745.0 98127.0 121220.0 124098.0 40743.0 38906.0 137397.0 145461.0 244699.0 237646.0 24808.0 29663.0 191159.0 199150.0 57108.0 191029.0 57108.0 57108.0 57108.0 57108.0 57108.0 57108.0 57108.0 191029.0 191029.0 191029.0 191029.0 191029.0 191029.0 191029.0
183164.0 179218.0 211614.0 217936.0 150787.0 144675.0 213721.0 208075.0 19957.0 11696.0 259954.0 259864.0 17281.0 23060.0 317939.0 309772.0 30433.0 27357.0 140364.0 148396.0 103185.0 95228.0 365456.0 358232.0 177127.0 185194.0 111778.0 113718.0 28723.0 36493.0 300920.0 305795.0 29382.0 21190.0 155953.0 163602.0 7456.0 0.0 306805.0 302030.0 132360.0 125335.0 103224.0 98497.0 206012.0 203340.0 178295.0 170477.0 186683.0 179138.0 79698.0 72127.0 184317.0 189016.0 295721.0 290784.0 271624.0 270513.0 57063.0 62310.0 27135.0 19108.0 21604.0 17363.0 186354.0 180142.0 94721.0 98652.0 114982.0 118130.0 40547.0 40243.0 140207.0 148193.0 241701.0 234539.0 20997.0 27424.0 195697.0 203689.0 63495.0 195567.0 63495.0 63495.0 63495.0 63495.0 63495.0 63495.0 63495.0 195567.0 195567.0 195567.0 195567.0 195567.0 195567.0 195567.0
310458.0 315937.0 98267.0 94037.0 199066.0 206528.0 115168.0 123593.0 295123.0 299761.0 300987.0 293510.0 313803.0 310306.0 67941.0 62160.0 312643.0 304884.0 197790.0 193191.0 237256.0 241234.0 71127.0 63125.0 129756.0 121650.0 287241.0 295263.0 286003.0 283353.0 6004.0 5370.0 334467.0 327315.0 182681.0 179928.0 302341.0 306805.0 0.0 8065.0 184448.0 188882.0 250519.0 246869.0 248656.0 255897.0 274087.0 271505.0 240429.0 243186.0 247148.0 254528.0 137386.0 137604.0 14001.0 16149.0 293124.0 299957.0 294447.0 287195.0 327761.0 322301.0 285208.0 290427.0 148209.0 156113.0 235889.0 228136.0 333441.0 327663.0 273941.0 269832.0 173868.0 167484.0 280860.0 282204.0 296755.0 288989.0 112405.0 104859.0 269783.0 116178.0 269783.0 269783.0 269783.0 269783.0 269783.0 269783.0 269783.0 116178.0 116178.0 116178.0 116178.0 116178.0 116178.0 116178.0
302824.0 308354.0 92352.0 87741.0 192013.0 199525.0 107846.0 116256.0 290535.0 295192.0 292930.0 285449.0 309216.0 305719.0 74217.0 67989.0 307258.0 299545.0 191029.0 186284.0 230852.0 234975.0 79010.0 71022.0 125257.0 117117.0 280412.0 288411.0 281416.0 278765.0 5370.0 12310.0 329486.0 322426.0 175749.0 172827.0 297696.0 302030.0 8065.0 0.0 178430.0 183062.0 243967.0 240456.0 240748.0 248012.0 266424.0 263916.0 232672.0 235502.0 241222.0 248678.0 130673.0 130639.0 16149.0 14001.0 285059.0 291892.0 288547.0 281219.0 322633.0 317293.0 280451.0 285530.0 141041.0 148973.0 229740.0 222033.0 326701.0 320848.0 268653.0 264711.0 167962.0 161417.0 272824.0 274191.0 291591.0 283771.0 108441.0 101088.0 265195.0 112592.0 265195.0 265195.0 265195.0 265195.0 265195.0 265195.0 265195.0 112592.0 112592.0 112592.0 112592.0 112592.0 112592.0 112592.0
156444.0 158750.0 86183.0 90828.0 44110.0 45594.0 81548.0 75717.0 126453.0 128671.0 194080.0 190009.0 143778.0 142438.0 206073.0 197906.0 131189.0 123932.0 31289.0 35423.0 54851.0 57471.0 249474.0 241815.0 65968.0 71752.0 109203.0 117345.0 119100.0 118517.0 178444.0 184605.0 156640.0 150724.0 34674.0 42167.0 129970.0 132360.0 184448.0 178430.0 0.0 8047.0 69533.0 64304.0 127327.0 130022.0 126786.0 120380.0 107881.0 104429.0 62851.0 70478.0 52260.0 56657.0 175587.0 169281.0 197715.0 200462.0 110178.0 102791.0 148489.0 144436.0 112091.0 115006.0 54942.0 49858.0 51634.0 43768.0 152921.0 148268.0 94182.0 92305.0 11133.0 17067.0 170996.0 167001.0 117756.0 109592.0 84777.0 92178.0 105814.0 86491.0 105814.0 105814.0 105814.0 105814.0 105814.0 105814.0 105814.0 86491.0 86491.0 86491.0 86491.0 86491.0 86491.0 86491.0
158925.0 160848.0 90712.0 95814.0 50088.0 50605.0 88388.0 82859.0 118916.0 121331.0 199583.0 195721.0 136403.0 134887.0 208366.0 200199.0 125283.0 117880.0 36668.0 41798.0 53399.0 54930.0 252942.0 245355.0 67101.0 73501.0 108437.0 116512.0 111416.0 110686.0 182879.0 188844.0 150112.0 144011.0 42148.0 49818.0 122739.0 125335.0 188882.0 183062.0 8047.0 0.0 68435.0 62527.0 132974.0 135327.0 130421.0 123748.0 113204.0 109347.0 58364.0 65647.0 58988.0 63833.0 179620.0 173516.0 203718.0 206257.0 105586.0 98459.0 142167.0 137877.0 104840.0 108009.0 62728.0 57822.0 48541.0 40544.0 151064.0 146767.0 87741.0 85457.0 15313.0 22950.0 176608.0 172374.0 111281.0 103155.0 86323.0 93961.0 97865.0 87390.0 97865.0 97865.0 97865.0 97865.0 97865.0 97865.0 97865.0 87390.0 87390.0 87390.0 87390.0 87390.0 87390.0 87390.0
100233.0 100021.0 153157.0 156573.0 57678.0 49934.0 139348.0 131637.0 108466.0 105987.0 162533.0 161174.0 119603.0 122397.0 275475.0 267307.0 86775.0 82318.0 53778.0 60050.0 15137.0 17193.0 317488.0 309714.0 135284.0 141269.0 40039.0 48084.0 106261.0 110390.0 244556.0 251196.0 116996.0 114268.0 70406.0 75774.0 104915.0 103224.0 250519.0 243967.0 69533.0 68435.0 0.0 7955.0 103677.0 101870.0 81942.0 73979.0 83809.0 76494.0 30323.0 34382.0 113402.0 114417.0 242721.0 235980.0 172065.0 172045.0 55965.0 47707.0 106977.0 106513.0 90823.0 88542.0 106286.0 98461.0 24225.0 30701.0 83651.0 78762.0 64873.0 69665.0 80646.0 85062.0 142228.0 135748.0 82730.0 75805.0 154267.0 161707.0 108311.0 155705.0 108311.0 108311.0 108311.0 108311.0 108311.0 108311.0 108311.0 155705.0 155705.0 155705.0 155705.0 155705.0 155705.0 155705.0
108188.0 107952.0 149092.0 152835.0 57615.0 50189.0 136979.0 129475.0 102624.0 100573.0 169652.0 168113.0 114531.0 116929.0 270370.0 262203.0 84025.0 78990.0 51865.0 58776.0 9620.0 9326.0 313227.0 305497.0 129602.0 135814.0 46666.0 54538.0 99940.0 103764.0 240888.0 247394.0 113902.0 110668.0 68787.0 74772.0 99740.0 98497.0 246869.0 240456.0 64304.0 62527.0 7955.0 0.0 109795.0 108348.0 89449.0 81515.0 89639.0 82540.0 22906.0 27860.0 110249.0 111778.0 238742.0 232131.0 178832.0 178998.0 54594.0 46290.0 104053.0 103023.0 85005.0 83232.0 104356.0 96680.0 16497.0 23458.0 88653.0 84239.0 59254.0 63464.0 75434.0 80371.0 149074.0 142731.0 78387.0 71115.0 148737.0 156281.0 100915.0 149917.0 100915.0 100915.0 100915.0 100915.0 100915.0 100915.0 100915.0 149917.0 149917.0 149917.0 149917.0 149917.0 149917.0 149917.0
71470.0 79108.0 170836.0 169198.0 83234.0 82535.0 138700.0 130839.0 212143.0 209510.0 66812.0 62750.0 222768.0 225931.0 295263.0 286984.0 185544.0 182741.0 96314.0 92113.0 108579.0 116018.0 319759.0 311768.0 178369.0 180069.0 102900.0 106099.0 209734.0 213455.0 243507.0 251432.0 215791.0 214583.0 96248.0 91781.0 208244.0 206012.0 248656.0 240748.0 127327.0 132974.0 103677.0 109795.0 0.0 8039.0 39880.0 44148.0 20705.0 27261.0 132150.0 137652.0 131010.0 125627.0 246316.0 238364.0 71331.0 73343.0 152960.0 145729.0 205534.0 206696.0 194501.0 192032.0 112858.0 107338.0 120008.0 121058.0 137945.0 129825.0 168539.0 173218.0 133543.0 130880.0 43670.0 40154.0 185139.0 178776.0 191768.0 196503.0 208797.0 196710.0 208797.0 208797.0 208797.0 208797.0 208797.0 208797.0 208797.0 196710.0 196710.0 196710.0 196710.0 196710.0 196710.0 196710.0
63517.0 71208.0 176810.0 175412.0 86133.0 84724.0 145222.0 137261.0 210170.0 207249.0 64390.0 61216.0 220236.0 223661.0 301753.0 293472.0 182026.0 179527.0 98799.0 95153.0 107834.0 115047.0 327017.0 319020.0 182967.0 184950.0 98211.0 100936.0 208127.0 212110.0 250704.0 258608.0 212135.0 211214.0 100016.0 96046.0 205834.0 203340.0 255897.0 248012.0 130022.0 135327.0 101870.0 108348.0 8039.0 0.0 32974.0 38031.0 22142.0 26843.0 130985.0 136119.0 136437.0 131316.0 253354.0 245421.0 70908.0 72035.0 149449.0 142429.0 201880.0 203329.0 192544.0 189769.0 118529.0 112717.0 119440.0 121017.0 131669.0 123543.0 166542.0 171534.0 136752.0 134513.0 41879.0 37058.0 182394.0 176254.0 196841.0 201775.0 208225.0 201614.0 208225.0 208225.0 208225.0 208225.0 208225.0 208225.0 208225.0 201614.0 201614.0 201614.0 201614.0 201614.0 201614.0 201614.0
36526.0 42823.0 187900.0 187859.0 86414.0 82147.0 160015.0 151660.0 187256.0 183443.0 81782.0 81600.0 195485.0 199689.0 314613.0 306364.0 154690.0 153084.0 96319.0 95302.0 91638.0 97637.0 344996.0 336979.0 186893.0 190226.0 68760.0 70211.0 186435.0 191261.0 268607.0 276303.0 184223.0 184086.0 102999.0 101498.0 181573.0 178295.0 274087.0 266424.0 126786.0 130421.0 81942.0 89449.0 39880.0 32974.0 0.0 8004.0 35191.0 30990.0 112253.0 115901.0 145574.0 141944.0 270098.0 262351.0 93584.0 92219.0 122472.0 116183.0 174034.0 176257.0 169868.0 166130.0 129502.0 122472.0 103379.0 106929.0 98901.0 90780.0 144081.0 150052.0 135497.0 135227.0 63868.0 56409.0 157324.0 151947.0 202868.0 208741.0 190251.0 206726.0 190251.0 190251.0 190251.0 190251.0 190251.0 190251.0 190251.0 206726.0 206726.0 206726.0 206726.0 206726.0 206726.0 206726.0
39237.0 44441.0 183837.0 184099.0 81002.0 76282.0 156936.0 148535.0 179306.0 175536.0 89709.0 89387.0 187650.0 191799.0 310654.0 302424.0 147132.0 145398.0 90279.0 89738.0 83865.0 89765.0 342255.0 334241.0 181410.0 184980.0 61512.0 63428.0 178445.0 183260.0 265958.0 273584.0 176785.0 176516.0 97868.0 96873.0 173695.0 170477.0 271505.0 263916.0 120380.0 123748.0 73979.0 81515.0 44148.0 38031.0 8004.0 0.0 35575.0 29860.0 104296.0 107904.0 141304.0 138019.0 267145.0 259460.0 101253.0 100052.0 114829.0 108437.0 166578.0 168674.0 161903.0 158207.0 125749.0 118515.0 95581.0 99278.0 93802.0 85681.0 136101.0 142053.0 129353.0 129412.0 71436.0 64101.0 149496.0 144058.0 197723.0 203758.0 182282.0 201399.0 182282.0 182282.0 182282.0 182282.0 182282.0 182282.0 182282.0 201399.0 201399.0 201399.0 201399.0 201399.0 201399.0 201399.0
71431.0 77992.0 157629.0 156782.0 64030.0 62607.0 127569.0 119369.0 192192.0 189791.0 86422.0 82912.0 203280.0 206204.0 283560.0 275283.0 167280.0 164075.0 76659.0 73072.0 88060.0 95582.0 311493.0 303477.0 161700.0 163985.0 87257.0 91519.0 189539.0 193110.0 235054.0 242843.0 197655.0 196053.0 78242.0 74677.0 188658.0 186683.0 240429.0 232672.0 107881.0 113204.0 83809.0 89639.0 20705.0 22142.0 35191.0 35575.0 0.0 7971.0 111784.0 117489.0 116370.0 111747.0 237032.0 229192.0 91924.0 93633.0 134791.0 127294.0 187414.0 188177.0 174554.0 172336.0 99004.0 92699.0 99417.0 100364.0 126212.0 118208.0 148656.0 153103.0 114685.0 112606.0 63636.0 59170.0 165920.0 159341.0 176092.0 181291.0 188170.0 180652.0 188170.0 188170.0 188170.0 188170.0 188170.0 188170.0 188170.0 180652.0 180652.0 180652.0 180652.0 180652.0 180652.0 180652.0
67510.0 73588.0 158346.0 157902.0 61182.0 58856.0 129439.0 121132.0 184951.0 182416.0 91022.0 88050.0 195800.0 198835.0 284753.0 276486.0 159457.0 156330.0 73144.0 70294.0 81409.0 88793.0 314142.0 306124.0 160373.0 163036.0 79316.0 83659.0 182480.0 186197.0 237730.0 245451.0 189817.0 188285.0 76383.0 73582.0 181219.0 179138.0 243186.0 235502.0 104429.0 109347.0 76494.0 82540.0 27261.0 26843.0 30990.0 29860.0 7971.0 0.0 104900.0 110398.0 116507.0 112342.0 239363.0 231584.0 97651.0 98877.0 126944.0 119490.0 179572.0 180406.0 167308.0 164947.0 99716.0 93025.0 92910.0 94257.0 118693.0 110723.0 141367.0 145976.0 111805.0 110262.0 68712.0 63592.0 158332.0 151832.0 175363.0 180827.0 181724.0 179673.0 181724.0 181724.0 181724.0 181724.0 181724.0 181724.0 181724.0 179673.0 179673.0 179673.0 179673.0 179673.0 179673.0 179673.0
129391.0 128508.0 148900.0 153676.0 71308.0 65002.0 142294.0 135516.0 81424.0 80232.0 192552.0 190969.0 94774.0 96343.0 265625.0 257458.0 70691.0 64276.0 61835.0 69726.0 24205.0 16322.0 311171.0 303619.0 123724.0 130745.0 62600.0 69503.0 77938.0 81327.0 241144.0 247176.0 98845.0 94388.0 78271.0 85472.0 79916.0 79698.0 247148.0 241222.0 62851.0 58364.0 30323.0 22906.0 132150.0 130985.0 112253.0 104296.0 111784.0 104900.0 0.0 8189.0 113800.0 116834.0 237982.0 231847.0 201607.0 201857.0 47332.0 40095.0 89639.0 87171.0 64009.0 63352.0 111617.0 104570.0 15109.0 20587.0 97643.0 94881.0 39247.0 41999.0 73280.0 79914.0 171896.0 165604.0 60989.0 53062.0 143163.0 151016.0 78028.0 143376.0 78028.0 78028.0 78028.0 78028.0 78028.0 78028.0 78028.0 143376.0 143376.0 143376.0 143376.0 143376.0 143376.0 143376.0
130952.0 129565.0 156329.0 161242.0 79244.0 72791.0 150328.0 143600.0 74901.0 73226.0 196852.0 195552.0 87544.0 89479.0 272073.0 263906.0 62504.0 56101.0 69979.0 77848.0 31124.0 23142.0 318108.0 310594.0 130169.0 137342.0 61940.0 68249.0 72083.0 76025.0 248524.0 254478.0 90719.0 86368.0 86450.0 93627.0 72686.0 72127.0 254528.0 248678.0 70478.0 65647.0 34382.0 27860.0 137652.0 136119.0 115901.0 107904.0 117489.0 110398.0 8189.0 0.0 121735.0 124879.0 245203.0 239151.0 206437.0 206420.0 39973.0 33181.0 81473.0 79097.0 57331.0 56105.0 119773.0 112747.0 23127.0 28758.0 93676.0 91514.0 31946.0 35624.0 80723.0 87542.0 176609.0 170121.0 53057.0 45223.0 149605.0 157503.0 74759.0 149722.0 74759.0 74759.0 74759.0 74759.0 74759.0 74759.0 74759.0 149722.0 149722.0 149722.0 149722.0 149722.0 149722.0 149722.0
180401.0 184722.0 42728.0 44219.0 62906.0 69923.0 29411.0 24618.0 177320.0 180094.0 195047.0 189233.0 195101.0 193219.0 169490.0 161291.0 183247.0 176086.0 60410.0 56169.0 100711.0 105458.0 205708.0 197809.0 51250.0 50715.0 149895.0 157943.0 169382.0 167923.0 131460.0 138331.0 208898.0 202931.0 45879.0 44723.0 181619.0 184317.0 137386.0 130673.0 52260.0 58988.0 113402.0 110249.0 131010.0 136437.0 145574.0 141304.0 116370.0 116507.0 113800.0 121735.0 0.0 7909.0 130338.0 123272.0 193841.0 198490.0 160723.0 152968.0 200733.0 196689.0 163717.0 166996.0 18774.0 23723.0 100899.0 93617.0 196056.0 190298.0 146442.0 144424.0 44251.0 36158.0 172032.0 170360.0 170015.0 161852.0 61315.0 65563.0 154464.0 66901.0 154464.0 154464.0 154464.0 154464.0 154464.0 154464.0 154464.0 66901.0 66901.0 66901.0 66901.0 66901.0 66901.0 66901.0
177226.0 181823.0 46009.0 46165.0 61529.0 68928.0 25472.0 19060.0 182646.0 185163.0 188966.0 183005.0 200230.0 198592.0 172679.0 164437.0 186847.0 179834.0 60795.0 55667.0 102358.0 107566.0 206776.0 198830.0 58768.0 57786.0 149848.0 157815.0 174914.0 173709.0 131744.0 138850.0 213052.0 207284.0 45114.0 42591.0 186555.0 189016.0 137604.0 130639.0 56657.0 63833.0 114417.0 111778.0 125627.0 131316.0 141944.0 138019.0 111747.0 112342.0 116834.0 124879.0 7909.0 0.0 131280.0 123991.0 187310.0 192115.0 163354.0 155466.0 204688.0 200887.0 168661.0 171663.0 12788.0 19504.0 103427.0 96417.0 196277.0 190289.0 150601.0 148947.0 49655.0 41469.0 166062.0 164641.0 174162.0 165977.0 67839.0 71586.0 160365.0 73696.0 160365.0 160365.0 160365.0 160365.0 160365.0 160365.0 160365.0 73696.0 73696.0 73696.0 73696.0 73696.0 73696.0 73696.0
306275.0 311489.0 89653.0 86300.0 192779.0 200063.0 110220.0 118635.0 283969.0 288619.0 300701.0 293381.0 302650.0 299153.0 59713.0 52958.0 302448.0 294623.0 190640.0 186468.0 229123.0 232763.0 75502.0 67550.0 118612.0 110587.0 280120.0 288200.0 274850.0 272199.0 10953.0 10620.0 323647.0 316370.0 176068.0 173851.0 291188.0 295721.0 14001.0 16149.0 175587.0 179620.0 242721.0 238742.0 246316.0 253354.0 270098.0 267145.0 237032.0 239363.0 237982.0 245203.0 130338.0 131280.0 0.0 8032.0 293615.0 300235.0 285172.0 278075.0 317158.0 311527.0 274116.0 279520.0 142487.0 150257.0 227193.0 219354.0 326026.0 320461.0 263627.0 259265.0 164814.0 158777.0 280033.0 280979.0 286229.0 278552.0 100688.0 92968.0 258629.0 104040.0 258629.0 258629.0 258629.0 258629.0 258629.0 258629.0 258629.0 104040.0 104040.0 104040.0 104040.0 104040.0 104040.0 104040.0
298565.0 303827.0 83154.0 79422.0 185517.0 192855.0 102577.0 111003.0 279059.0 283684.0 292669.0 285350.0 297740.0 294243.0 66740.0 59666.0 296901.0 289116.0 183646.0 179333.0 222512.0 226298.0 82941.0 74954.0 113692.0 105600.0 273142.0 281204.0 269940.0 267289.0 10620.0 15330.0 318518.0 311330.0 168894.0 166522.0 286282.0 290784.0 16149.0 14001.0 169281.0 173516.0 235980.0 232131.0 238364.0 245421.0 262351.0 259460.0 229192.0 231584.0 231847.0 239151.0 123272.0 123991.0 8032.0 0.0 285598.0 292212.0 279102.0 271925.0 311877.0 306364.0 269183.0 274450.0 135047.0 142856.0 220828.0 213027.0 319159.0 313518.0 258150.0 253953.0 158597.0 152390.0 272006.0 272963.0 280893.0 273157.0 96261.0 88710.0 253719.0 100037.0 253719.0 253719.0 253719.0 253719.0 253719.0 253719.0 253719.0 100037.0 100037.0 100037.0 100037.0 100037.0 100037.0 100037.0
102427.0 110016.0 229574.0 226317.0 153677.0 153590.0 194461.0 187719.0 279729.0 276337.0 18123.0 13011.0 288749.0 292678.0 347738.0 339589.0 248256.0 246648.0 167083.0 162300.0 178685.0 185805.0 362649.0 354886.0 243839.0 244397.0 162102.0 162771.0 278191.0 282454.0 288722.0 296775.0 277664.0 277656.0 165186.0 159694.0 274649.0 271624.0 293124.0 285059.0 197715.0 203718.0 172065.0 178832.0 71331.0 70908.0 93584.0 101253.0 91924.0 97651.0 201607.0 206437.0 193841.0 187310.0 293615.0 285598.0 0.0 8111.0 216053.0 209685.0 267505.0 269833.0 262179.0 258918.0 175075.0 171109.0 190323.0 191902.0 185364.0 177608.0 236205.0 241591.0 203131.0 199664.0 29957.0 37176.0 250630.0 244985.0 255101.0 258809.0 279075.0 260732.0 279075.0 279075.0 279075.0 279075.0 279075.0 279075.0 279075.0 260732.0 260732.0 260732.0 260732.0 260732.0 260732.0 260732.0
98245.0 105619.0 234909.0 231845.0 156356.0 155875.0 200049.0 193154.0 279150.0 275540.0 12134.0 10896.0 287697.0 291828.0 353965.0 345794.0 246555.0 245202.0 169589.0 165111.0 179287.0 186240.0 369669.0 361884.0 248117.0 248900.0 160219.0 160491.0 277901.0 282358.0 295495.0 303550.0 275715.0 275950.0 168457.0 163235.0 273738.0 270513.0 299957.0 291892.0 200462.0 206257.0 172045.0 178998.0 73343.0 72035.0 92219.0 100052.0 93633.0 98877.0 201857.0 206420.0 198490.0 192115.0 300235.0 292212.0 8111.0 0.0 214544.0 208380.0 265601.0 268160.0 261661.0 258174.0 179754.0 175526.0 190998.0 192905.0 181668.0 174016.0 235742.0 241341.0 206239.0 203045.0 30184.0 36304.0 249539.0 244091.0 259800.0 263687.0 279587.0 265317.0 279587.0 279587.0 279587.0 279587.0 279587.0 279587.0 279587.0 265317.0 265317.0 265317.0 265317.0 265317.0 265317.0 265317.0
126134.0 122346.0 196215.0 201006.0 112185.0 104781.0 188816.0 181755.0 70138.0 64386.0 203729.0 204019.0 74315.0 79676.0 311625.0 303458.0 32589.0 30688.0 105483.0 112825.0 62762.0 56291.0 358024.0 350527.0 169806.0 177095.0 54856.0 56682.0 72853.0 79801.0 288443.0 294430.0 62876.0 61806.0 122427.0 128881.0 61632.0 57063.0 294447.0 288547.0 110178.0 105586.0 55965.0 54594.0 152960.0 149449.0 122472.0 114829.0 134791.0 126944.0 47332.0 39973.0 160723.0 163354.0 285172.0 279102.0 216053.0 214544.0 0.0 8311.0 52628.0 53932.0 55050.0 48742.0 157230.0 149832.0 59926.0 67110.0 64939.0 65821.0 35870.0 44211.0 120591.0 127237.0 186264.0 178880.0 36852.0 34136.0 189216.0 197149.0 89809.0 189257.0 89809.0 89809.0 89809.0 89809.0 89809.0 89809.0 89809.0 189257.0 189257.0 189257.0 189257.0 189257.0 189257.0 189257.0
121726.0 118369.0 188932.0 193594.0 103890.0 96475.0 180915.0 173792.0 73694.0 68604.0 197721.0 197784.0 79578.0 84393.0 305245.0 297078.0 40015.0 37114.0 97303.0 104601.0 54526.0 48182.0 351204.0 343670.0 163347.0 170522.0 49713.0 52549.0 75370.0 81873.0 281191.0 287255.0 70430.0 68855.0 114257.0 120656.0 66214.0 62310.0 287195.0 281219.0 102791.0 98459.0 47707.0 46290.0 145729.0 142429.0 116183.0 108437.0 127294.0 119490.0 40095.0 33181.0 152968.0 155466.0 278075.0 271925.0 209685.0 208380.0 8311.0 0.0 60223.0 60967.0 57609.0 52092.0 149175.0 141738.0 52079.0 59430.0 65921.0 65777.0 35541.0 43742.0 113336.0 119823.0 179821.0 172538.0 41508.0 37338.0 182781.0 190683.0 88942.0 182886.0 88942.0 88942.0 88942.0 88942.0 88942.0 88942.0 88942.0 182886.0 182886.0 182886.0 182886.0 182886.0 182886.0 182886.0
173508.0 168584.0 231129.0 237004.0 160216.0 153350.0 229908.0 223661.0 46900.0 38679.0 254489.0 255241.0 36719.0 44884.0 339663.0 331496.0 20253.0 25396.0 151444.0 159283.0 110701.0 103169.0 387180.0 379956.0 198704.0 206640.0 105413.0 105410.0 55855.0 63619.0 321820.0 327037.0 10258.0 12311.0 167901.0 175098.0 34471.0 27135.0 327761.0 322633.0 148489.0 142167.0 106977.0 104053.0 205534.0 201880.0 174034.0 166578.0 187414.0 179572.0 89639.0 81473.0 200733.0 204688.0 317158.0 311877.0 267505.0 265601.0 52628.0 60223.0 0.0 8198.0 45902.0 38869.0 200594.0 193813.0 104532.0 110040.0 98037.0 102620.0 54450.0 57930.0 157417.0 165078.0 237899.0 230355.0 31077.0 39070.0 217421.0 225413.0 89757.0 217291.0 89757.0 89757.0 89757.0 89757.0 89757.0 89757.0 89757.0 217291.0 217291.0 217291.0 217291.0 217291.0 217291.0 217291.0
177318.0 172668.0 226107.0 232135.0 158269.0 151613.0 225972.0 219911.0 38746.0 30547.0 257199.0 257704.0 28955.0 37008.0 333847.0 325680.0 21613.0 24221.0 148965.0 156886.0 109125.0 101414.0 381365.0 374141.0 192961.0 200948.0 107998.0 108581.0 47817.0 55527.0 316377.0 321477.0 12261.0 7888.0 165199.0 172553.0 26360.0 19108.0 322301.0 317293.0 144436.0 137877.0 106513.0 103023.0 206696.0 203329.0 176257.0 168674.0 188177.0 180406.0 87171.0 79097.0 196689.0 200887.0 311527.0 306364.0 269833.0 268160.0 53932.0 60967.0 8198.0 0.0 38795.0 32259.0 197240.0 190627.0 102223.0 107290.0 103749.0 107929.0 50285.0 52789.0 153045.0 160825.0 240099.0 232658.0 26741.0 34934.0 211605.0 219597.0 82210.0 211476.0 82210.0 82210.0 82210.0 82210.0 82210.0 82210.0 82210.0 211476.0 211476.0 211476.0 211476.0 211476.0 211476.0 211476.0
178907.0 175835.0 190186.0 196581.0 133634.0 128035.0 193126.0 187697.0 17643.0 16822.0 251585.0 250868.0 31958.0 32399.0 296335.0 288167.0 40193.0 33313.0 122420.0 130465.0 88170.0 80213.0 343852.0 336628.0 155523.0 163591.0 106673.0 110089.0 17818.0 24893.0 279326.0 284191.0 50293.0 42494.0 137396.0 145211.0 17902.0 21604.0 285208.0 280451.0 112091.0 104840.0 90823.0 85005.0 194501.0 192544.0 169868.0 161903.0 174554.0 167308.0 64009.0 57331.0 163717.0 168661.0 274116.0 269183.0 262179.0 261661.0 55050.0 57609.0 45902.0 38795.0 0.0 8039.0 166562.0 160619.0 78475.0 81287.0 118678.0 120421.0 26005.0 22088.0 119497.0 127559.0 232236.0 225412.0 21669.0 20999.0 174093.0 182084.0 44275.0 173963.0 44275.0 44275.0 44275.0 44275.0 44275.0 44275.0 44275.0 173963.0 173963.0 173963.0 173963.0 173963.0 173963.0 173963.0
173787.0 170453.0 194762.0 200987.0 134053.0 128123.0 196396.0 190723.0 21604.0 17482.0 247911.0 247428.0 31442.0 33902.0 301765.0 293598.0 32154.0 25339.0 123365.0 131407.0 87221.0 79235.0 349283.0 342059.0 160916.0 168935.0 101640.0 104623.0 24629.0 32199.0 284520.0 289522.0 44189.0 36896.0 138799.0 146494.0 16582.0 17363.0 290427.0 285530.0 115006.0 108009.0 88542.0 83232.0 192032.0 189769.0 166130.0 158207.0 172336.0 164947.0 63352.0 56105.0 166996.0 171663.0 279520.0 274450.0 258918.0 258174.0 48742.0 52092.0 38869.0 32259.0 8039.0 0.0 169002.0 162815.0 78220.0 81770.0 111535.0 113547.0 24161.0 22919.0 122922.0 130887.0 228962.0 222002.0 13805.0 14763.0 179524.0 187515.0 52073.0 179394.0 52073.0 52073.0 52073.0 52073.0 52073.0 52073.0 52073.0 179394.0 179394.0 179394.0 179394.0 179394.0 179394.0 179394.0
164982.0 169730.0 58657.0 58370.0 51169.0 58864.0 33578.0 25497.0 181291.0 183256.0 176422.0 170544.0 198399.0 197283.0 185129.0 176874.0 182191.0 175458.0 52570.0 46443.0 95182.0 101003.0 217965.0 209991.0 69686.0 69463.0 140268.0 148120.0 174037.0 173414.0 142423.0 149706.0 209293.0 203906.0 35926.0 31883.0 184372.0 186354.0 148209.0 141041.0 54942.0 62728.0 106286.0 104356.0 112858.0 118529.0 129502.0 125749.0 99004.0 99716.0 111617.0 119773.0 18774.0 12788.0 142487.0 135047.0 175075.0 179754.0 157230.0 149175.0 200594.0 197240.0 166562.0 169002.0 0.0 7999.0 97539.0 91032.0 186878.0 180648.0 147082.0 146117.0 50224.0 42326.0 153462.0 151948.0 170512.0 162322.0 80048.0 84094.0 160498.0 85675.0 160498.0 160498.0 160498.0 160498.0 160498.0 160498.0 160498.0 85675.0 85675.0 85675.0 85675.0 85675.0 85675.0 85675.0
157722.0 162340.0 65432.0 65639.0 43174.0 50865.0 41577.0 33475.0 175654.0 177370.0 171755.0 166096.0 192525.0 191644.0 192171.0 183932.0 175230.0 168601.0 44831.0 38526.0 87580.0 93556.0 225751.0 217783.0 72790.0 73388.0 132272.0 140122.0 168634.0 168292.0 150314.0 157564.0 202626.0 197389.0 28058.0 23896.0 178364.0 180142.0 156113.0 148973.0 49858.0 57822.0 98461.0 96680.0 107338.0 112717.0 122472.0 118515.0 92699.0 93025.0 104570.0 112747.0 23723.0 19504.0 150257.0 142856.0 171109.0 175526.0 149832.0 141738.0 193813.0 190627.0 160619.0 162815.0 7999.0 0.0 90305.0 83989.0 178887.0 172650.0 140586.0 139902.0 46515.0 39069.0 148658.0 146813.0 163929.0 155748.0 84613.0 89168.0 155671.0 89876.0 155671.0 155671.0 155671.0 155671.0 155671.0 155671.0 155671.0 89876.0 89876.0 89876.0 89876.0 89876.0 89876.0 89876.0
124073.0 124112.0 137681.0 142008.0 56199.0 49954.0 128891.0 121865.0 95694.0 94904.0 182143.0 180104.0 109586.0 110871.0 256905.0 248738.0 85338.0 79141.0 46928.0 54752.0 11794.0 7257.0 301080.0 293433.0 115445.0 122010.0 62794.0 70506.0 91591.0 94375.0 229889.0 236144.0 113835.0 109475.0 63545.0 70594.0 94745.0 94721.0 235889.0 229740.0 51634.0 48541.0 24225.0 16497.0 120008.0 119440.0 103379.0 95581.0 99417.0 92910.0 15109.0 23127.0 100899.0 103427.0 227193.0 220828.0 190323.0 190998.0 59926.0 52079.0 104532.0 102223.0 78475.0 78220.0 97539.0 90305.0 0.0 7999.0 102970.0 99130.0 54205.0 56388.0 62567.0 68438.0 160875.0 154924.0 76096.0 68170.0 134764.0 142455.0 88814.0 135524.0 88814.0 88814.0 88814.0 88814.0 88814.0 88814.0 88814.0 135524.0 135524.0 135524.0 135524.0 135524.0 135524.0 135524.0
129324.0 129740.0 129897.0 134324.0 52360.0 46857.0 121888.0 115020.0 98112.0 97963.0 184399.0 182029.0 112875.0 113615.0 248907.0 240740.0 91250.0 84728.0 41797.0 49798.0 16286.0 14765.0 293158.0 285522.0 107457.0 114011.0 70108.0 77931.0 93274.0 95418.0 222134.0 228348.0 119102.0 114350.0 57915.0 65288.0 98127.0 98652.0 228136.0 222033.0 43768.0 40544.0 30701.0 23458.0 121058.0 121017.0 106929.0 99278.0 100364.0 94257.0 20587.0 28758.0 93617.0 96417.0 219354.0 213027.0 191902.0 192905.0 67110.0 59430.0 110040.0 107290.0 81287.0 81770.0 91032.0 83989.0 7999.0 0.0 110891.0 106956.0 58167.0 59316.0 54647.0 60653.0 162727.0 157050.0 80829.0 72752.0 126769.0 134458.0 88170.0 127556.0 88170.0 88170.0 88170.0 88170.0 88170.0 88170.0 88170.0 127556.0 127556.0 127556.0 127556.0 127556.0 127556.0 127556.0
83725.0 77010.0 236615.0 239751.0 135891.0 128079.0 220431.0 212357.0 131762.0 124766.0 169728.0 172411.0 130889.0 137877.0 358991.0 350824.0 84717.0 88136.0 135672.0 140676.0 98071.0 96223.0 400988.0 393185.0 218164.0 224458.0 46669.0 39078.0 136157.0 143559.0 327508.0 334305.0 106609.0 110230.0 151262.0 155144.0 121220.0 114982.0 333441.0 326701.0 152921.0 151064.0 83651.0 88653.0 137945.0 131669.0 98901.0 93802.0 126212.0 118693.0 97643.0 93676.0 196056.0 196277.0 326026.0 319159.0 185364.0 181668.0 64939.0 65921.0 98037.0 103749.0 118678.0 111535.0 186878.0 178887.0 102970.0 110891.0 0.0 8126.0 100692.0 109030.0 164054.0 168700.0 158004.0 149933.0 98148.0 97782.0 237358.0 244926.0 154576.0 238386.0 154576.0 154576.0 154576.0 154576.0 154576.0 154576.0 154576.0 238386.0 238386.0 238386.0 238386.0 238386.0 238386.0 238386.0
76301.0 69807.0 231214.0 234161.0 129546.0 121788.0 214223.0 206091.0 134217.0 127495.0 162113.0 164674.0 134411.0 141147.0 354230.0 346063.0 88184.0 90968.0 129889.0 134629.0 93486.0 92205.0 395563.0 387733.0 213831.0 219960.0 40441.0 32528.0 138081.0 145302.0 321748.0 328620.0 111530.0 114681.0 145201.0 148833.0 124098.0 118130.0 327663.0 320848.0 148268.0 146767.0 78762.0 84239.0 129825.0 123543.0 90780.0 85681.0 118208.0 110723.0 94881.0 91514.0 190298.0 190289.0 320461.0 313518.0 177608.0 174016.0 65821.0 65777.0 102620.0 107929.0 120421.0 113547.0 180648.0 172650.0 99130.0 106956.0 8126.0 0.0 101108.0 109398.0 159391.0 163763.0 150094.0 142031.0 100446.0 99429.0 232923.0 240415.0 154719.0 234156.0 154719.0 154719.0 154719.0 154719.0 154719.0 154719.0 154719.0 234156.0 234156.0 234156.0 234156.0 234156.0 234156.0 234156.0
154465.0 151830.0 176875.0 182645.0 110241.0 104155.0 175701.0 169627.0 43629.0 41342.0 225736.0 224937.0 55603.0 57676.0 286863.0 278696.0 38935.0 31015.0 99938.0 107955.0 63060.0 55075.0 334388.0 327140.0 145624.0 153415.0 82406.0 86596.0 42429.0 47880.0 267978.0 273373.0 62465.0 56824.0 115739.0 123297.0 40743.0 40547.0 273941.0 268653.0 94182.0 87741.0 64873.0 59254.0 168539.0 166542.0 144081.0 136101.0 148656.0 141367.0 39247.0 31946.0 146442.0 150601.0 263627.0 258150.0 236205.0 235742.0 35870.0 35541.0 54450.0 50285.0 26005.0 24161.0 147082.0 140586.0 54205.0 58167.0 100692.0 101108.0 0.0 8344.0 102976.0 110671.0 206267.0 199477.0 23574.0 15417.0 164620.0 172613.0 53939.0 164492.0 53939.0 53939.0 53939.0 53939.0 53939.0 53939.0 53939.0 164492.0 164492.0 164492.0 164492.0 164492.0 164492.0 164492.0
161604.0 159174.0 173342.0 179346.0 111676.0 105990.0 173797.0 168007.0 39426.0 38652.0 231518.0 230503.0 53580.0 54486.0 281951.0 273784.0 44455.0 36386.0 100684.0 108732.0 66194.0 58263.0 329390.0 322214.0 140905.0 148801.0 89768.0 94244.0 36608.0 41240.0 263890.0 269121.0 65047.0 58606.0 115961.0 123693.0 38906.0 40243.0 269832.0 264711.0 92305.0 85457.0 69665.0 63464.0 173218.0 171534.0 150052.0 142053.0 153103.0 145976.0 41999.0 35624.0 144424.0 148947.0 259265.0 253953.0 241591.0 241341.0 44211.0 43742.0 57930.0 52789.0 22088.0 22919.0 146117.0 139902.0 56388.0 59316.0 109030.0 109398.0 8344.0 0.0 100504.0 108389.0 211695.0 205043.0 26974.0 19598.0 159709.0 167701.0 45598.0 159580.0 45598.0 45598.0 45598.0 45598.0 45598.0 45598.0 45598.0 159580.0 159580.0 159580.0 159580.0 159580.0 159580.0 159580.0
166051.0 168616.0 75623.0 80574.0 50690.0 53501.0 73643.0 68513.0 133103.0 135846.0 200347.0 195945.0 150850.0 149022.0 194940.0 186773.0 140595.0 133184.0 39201.0 41616.0 65984.0 68525.0 238514.0 230875.0 55045.0 60677.0 120256.0 128404.0 125275.0 124074.0 167864.0 173926.0 165290.0 159100.0 38087.0 44517.0 137397.0 140207.0 173868.0 167962.0 11133.0 15313.0 80646.0 75434.0 133543.0 136752.0 135497.0 129353.0 114685.0 111805.0 73280.0 80723.0 44251.0 49655.0 164814.0 158597.0 203131.0 206239.0 120591.0 113336.0 157417.0 153045.0 119497.0 122922.0 50224.0 46515.0 62567.0 54647.0 164054.0 159391.0 102976.0 100504.0 0.0 8186.0 177137.0 173522.0 126494.0 118384.0 73724.0 81083.0 110802.0 75595.0 110802.0 110802.0 110802.0 110802.0 110802.0 110802.0 110802.0 75595.0 75595.0 75595.0 75595.0 75595.0 75595.0 75595.0
166826.0 169763.0 69247.0 73775.0 49195.0 53132.0 65567.0 60343.0 141257.0 143946.0 197558.0 192894.0 158966.0 157183.0 190517.0 182350.0 148026.0 140693.0 39306.0 40116.0 70797.0 74017.0 232929.0 225230.0 52642.0 57422.0 124165.0 132332.0 133454.0 132259.0 161482.0 167707.0 173059.0 166956.0 34649.0 40089.0 145461.0 148193.0 167484.0 161417.0 17067.0 22950.0 85062.0 80371.0 130880.0 134513.0 135227.0 129412.0 112606.0 110262.0 79914.0 87542.0 36158.0 41469.0 158777.0 152390.0 199664.0 203045.0 127237.0 119823.0 165078.0 160825.0 127559.0 130887.0 42326.0 39069.0 68438.0 60653.0 168700.0 163763.0 110671.0 108389.0 8186.0 0.0 174288.0 170998.0 134220.0 126086.0 70516.0 77531.0 118974.0 73098.0 118974.0 118974.0 118974.0 118974.0 118974.0 118974.0 118974.0 73098.0 73098.0 73098.0 73098.0 73098.0 73098.0 73098.0
76898.0 84889.0 210088.0 207627.0 126903.0 126098.0 176193.0 168853.0 249780.0 246381.0 23290.0 19338.0 258814.0 262724.0 331860.0 323622.0 218544.0 216822.0 139959.0 135767.0 149182.0 156194.0 351420.0 343523.0 220716.0 221952.0 132565.0 133554.0 248289.0 252608.0 276089.0 284124.0 248082.0 247936.0 139640.0 134817.0 244699.0 241701.0 280860.0 272824.0 170996.0 176608.0 142228.0 149074.0 43670.0 41879.0 63868.0 71436.0 63636.0 68712.0 171896.0 176609.0 172032.0 166062.0 280033.0 272006.0 29957.0 30184.0 186264.0 179821.0 237899.0 240099.0 232236.0 228962.0 153462.0 148658.0 160875.0 162727.0 158004.0 150094.0 206267.0 211695.0 177137.0 174288.0 0.0 8092.0 220705.0 215035.0 233256.0 237550.0 249526.0 238506.0 249526.0 249526.0 249526.0 249526.0 249526.0 249526.0 249526.0 238506.0 238506.0 238506.0 238506.0 238506.0 238506.0 238506.0
68870.0 76884.0 209201.0 207038.0 123018.0 121774.0 175863.0 168336.0 242920.0 239393.0 27441.0 25463.0 251686.0 255707.0 332003.0 323746.0 211082.0 209482.0 135815.0 131985.0 143183.0 150053.0 352968.0 345042.0 218357.0 219877.0 124968.0 125797.0 241609.0 246053.0 277330.0 285347.0 240522.0 240481.0 136381.0 131921.0 237646.0 234539.0 282204.0 274191.0 167001.0 172374.0 135748.0 142731.0 40154.0 37058.0 56409.0 64101.0 59170.0 63592.0 165604.0 170121.0 170360.0 164641.0 280979.0 272963.0 37176.0 36304.0 178880.0 172538.0 230355.0 232658.0 225412.0 222002.0 151948.0 146813.0 154924.0 157050.0 149933.0 142031.0 199477.0 205043.0 173522.0 170998.0 8092.0 0.0 213549.0 207987.0 231403.0 235922.0 243402.0 236487.0 243402.0 243402.0 243402.0 243402.0 243402.0 243402.0 243402.0 236487.0 236487.0 236487.0 236487.0 236487.0 236487.0 236487.0
162887.0 159189.0 200051.0 205937.0 132283.0 125837.0 199274.0 193181.0 33792.0 27564.0 239008.0 238882.0 38165.0 42937.0 308911.0 300744.0 19196.0 11738.0 122594.0 130557.0 83708.0 75844.0 356310.0 349150.0 167879.0 175775.0 91154.0 93460.0 38250.0 45942.0 290808.0 296071.0 38893.0 33534.0 138686.0 146116.0 24808.0 20997.0 296755.0 291591.0 117756.0 111281.0 82730.0 78387.0 185139.0 182394.0 157324.0 149496.0 165920.0 158332.0 60989.0 53057.0 170015.0 174162.0 286229.0 280893.0 250630.0 249539.0 36852.0 41508.0 31077.0 26741.0 21669.0 13805.0 170512.0 163929.0 76096.0 80829.0 98148.0 100446.0 23574.0 26974.0 126494.0 134220.0 220705.0 213549.0 0.0 8193.0 186669.0 194661.0 64593.0 186539.0 64593.0 64593.0 64593.0 64593.0 64593.0 64593.0 64593.0 186539.0 186539.0 186539.0 186539.0 186539.0 186539.0 186539.0
159051.0 155692.0 192120.0 197952.0 124369.0 118007.0 191100.0 184994.0 36358.0 31558.0 233718.0 233380.0 43996.0 47742.0 301430.0 293263.0 24953.0 16888.0 114537.0 122514.0 76078.0 68167.0 348915.0 341719.0 160324.0 168181.0 86939.0 89862.0 38749.0 45873.0 283035.0 288354.0 47075.0 41674.0 130572.0 138029.0 29663.0 27424.0 288989.0 283771.0 109592.0 103155.0 75805.0 71115.0 178776.0 176254.0 151947.0 144058.0 159341.0 151832.0 53062.0 45223.0 161852.0 165977.0 278552.0 273157.0 244985.0 244091.0 34136.0 37338.0 39070.0 34934.0 20999.0 14763.0 162322.0 155748.0 68170.0 72752.0 97782.0 99429.0 15417.0 19598.0 118384.0 126086.0 215035.0 207987.0 8193.0 0.0 179188.0 187173.0 60608.0 179059.0 60608.0 60608.0 60608.0 60608.0 60608.0 60608.0 60608.0 179059.0 179059.0 179059.0 179059.0 179059.0 179059.0 179059.0
236025.0 239423.0 35058.0 42748.0 116760.0 122118.0 68158.0 71795.0 183940.0 188589.0 256317.0 250543.0 202620.0 199124.0 122474.0 114307.0 203554.0 195601.0 109139.0 108227.0 139437.0 141249.0 169769.0 162536.0 19441.0 13099.0 193976.0 202120.0 174821.0 172170.0 106678.0 110953.0 223683.0 216351.0 99886.0 101796.0 191159.0 195697.0 112405.0 108441.0 84777.0 86323.0 154267.0 148737.0 191768.0 196841.0 202868.0 197723.0 176092.0 175363.0 143163.0 149605.0 61315.0 67839.0 100688.0 96261.0 255101.0 259800.0 189216.0 182781.0 217421.0 211605.0 174093.0 179524.0 80048.0 84613.0 134764.0 126769.0 237358.0 232923.0 164620.0 159709.0 73724.0 70516.0 233256.0 231403.0 186669.0 179188.0 0.0 7995.0 158600.0 7151.0 158600.0 158600.0 158600.0 158600.0 158600.0 158600.0 158600.0 7151.0 7151.0 7151.0 7151.0 7151.0 7151.0 7151.0
242249.0 245798.0 34068.0 41104.0 122924.0 128512.0 69096.0 73559.0 191931.0 196581.0 260513.0 254588.0 210612.0 207115.0 114611.0 106444.0 211547.0 203592.0 115783.0 114538.0 146937.0 148888.0 161775.0 154548.0 27343.0 20470.0 201322.0 209475.0 182812.0 180161.0 99180.0 103290.0 231675.0 224342.0 105896.0 107389.0 199150.0 203689.0 104859.0 101088.0 92178.0 93961.0 161707.0 156281.0 196503.0 201775.0 208741.0 203758.0 181291.0 180827.0 151016.0 157503.0 65563.0 71586.0 92968.0 88710.0 258809.0 263687.0 197149.0 190683.0 225413.0 219597.0 182084.0 187515.0 84094.0 89168.0 142455.0 134458.0 244926.0 240415.0 172613.0 167701.0 81083.0 77531.0 237550.0 235922.0 194661.0 187173.0 7995.0 0.0 166591.0 11757.0 166591.0 166591.0 166591.0 166591.0 166591.0 166591.0 166591.0 11757.0 11757.0 11757.0 11757.0 11757.0 11757.0 11757.0
205338.0 203519.0 176257.0 183114.0 137159.0 133236.0 183483.0 179018.0 46895.0 53539.0 270462.0 268692.0 65346.0 60282.0 280842.0 272674.0 83749.0 76242.0 124185.0 131866.0 100394.0 93350.0 328359.0 321135.0 140034.0 148135.0 134550.0 139846.0 36893.0 31861.0 263929.0 268701.0 92852.0 84514.0 136518.0 144566.0 57108.0 63495.0 269783.0 265195.0 105814.0 97865.0 108311.0 100915.0 208797.0 208225.0 190251.0 182282.0 188170.0 181724.0 78028.0 74759.0 154464.0 160365.0 258629.0 253719.0 279075.0 279587.0 89809.0 88942.0 89757.0 82210.0 44275.0 52073.0 160498.0 155671.0 88814.0 88170.0 154576.0 154719.0 53939.0 45598.0 110802.0 118974.0 249526.0 243402.0 64593.0 60608.0 158600.0 166591.0 0.0 158470.0 0.0 0.0 0.0 0.0 0.0 0.0 0.0 158470.0 158470.0 158470.0 158470.0 158470.0 158470.0 158470.0
239442.0 242642.0 42206.0 49871.0 120399.0 125451.0 75084.0 78498.0 183810.0 188460.0 261626.0 255959.0 202490.0 198994.0 124149.0 115982.0 203425.0 195471.0 112154.0 111706.0 140747.0 142168.0 171494.0 164411.0 20556.0 16669.0 195588.0 203707.0 174691.0 172040.0 110557.0 114448.0 223554.0 216221.0 103757.0 106109.0 191029.0 195567.0 116178.0 112592.0 86491.0 87390.0 155705.0 149917.0 196710.0 201614.0 206726.0 201399.0 180652.0 179673.0 143376.0 149722.0 66901.0 73696.0 104040.0 100037.0 260732.0 265317.0 189257.0 182886.0 217291.0 211476.0 173963.0 179394.0 85675.0 89876.0 135524.0 127556.0 238386.0 234156.0 164492.0 159580.0 75595.0 73098.0 238506.0 236487.0 186539.0 179059.0 7151.0 11757.0 158470.0 0.0 158470.0 158470.0 158470.0 158470.0 158470.0 158470.0 158470.0 0.0 0.0 0.0 0.0 0.0 0.0 0.0
205338.0 203519.0 176257.0 183114.0 137159.0 133236.0 183483.0 179018.0 46895.0 53539.0 270462.0 268692.0 65346.0 60282.0 280842.0 272674.0 83749.0 76242.0 124185.0 131866.0 100394.0 93350.0 328359.0 321135.0 140034.0 148135.0 134550.0 139846.0 36893.0 31861.0 263929.0 268701.0 92852.0 84514.0 136518.0 144566.0 57108.0 63495.0 269783.0 265195.0 105814.0 97865.0 108311.0 100915.0 208797.0 208225.0 190251.0 182282.0 188170.0 181724.0 78028.0 74759.0 154464.0 160365.0 258629.0 253719.0 279075.0 279587.0 89809.0 88942.0 89757.0 82210.0 44275.0 52073.0 160498.0 155671.0 88814.0 88170.0 154576.0 154719.0 53939.0 45598.0 110802.0 118974.0 249526.0 243402.0 64593.0 60608.0 158600.0 166591.0 0.0 158470.0 0.0 0.0 0.0 0.0 0.0 0.0 0.0 158470.0 158470.0 158470.0 158470.0 158470.0 158470.0 158470.0
205338.0 203519.0 176257.0 183114.0 137159.0 133236.0 183483.0 179018.0 46895.0 53539.0 270462.0 268692.0 65346.0 60282.0 280842.0 272674.0 83749.0 76242.0 124185.0 131866.0 100394.0 93350.0 328359.0 321135.0 140034.0 148135.0 134550.0 139846.0 36893.0 31861.0 263929.0 268701.0 92852.0 84514.0 136518.0 144566.0 57108.0 63495.0 269783.0 265195.0 105814.0 97865.0 108311.0 100915.0 208797.0 208225.0 190251.0 182282.0 188170.0 181724.0 78028.0 74759.0 154464.0 160365.0 258629.0 253719.0 279075.0 279587.0 89809.0 88942.0 89757.0 82210.0 44275.0 52073.0 160498.0 155671.0 88814.0 88170.0 154576.0 154719.0 53939.0 45598.0 110802.0 118974.0 249526.0 243402.0 64593.0 60608.0 158600.0 166591.0 0.0 158470.0 0.0 0.0 0.0 0.0 0.0 0.0 0.0 158470.0 158470.0 158470.0 158470.0 158470.0 158470.0 158470.0
205338.0 203519.0 176257.0 183114.0 137159.0 133236.0 183483.0 179018.0 46895.0 53539.0 270462.0 268692.0 65346.0 60282.0 280842.0 272674.0 83749.0 76242.0 124185.0 131866.0 100394.0 93350.0 328359.0 321135.0 140034.0 148135.0 134550.0 139846.0 36893.0 31861.0 263929.0 268701.0 92852.0 84514.0 136518.0 144566.0 57108.0 63495.0 269783.0 265195.0 105814.0 97865.0 108311.0 100915.0 208797.0 208225.0 190251.0 182282.0 188170.0 181724.0 78028.0 74759.0 154464.0 160365.0 258629.0 253719.0 279075.0 279587.0 89809.0 88942.0 89757.0 82210.0 44275.0 52073.0 160498.0 155671.0 88814.0 88170.0 154576.0 154719.0 53939.0 45598.0 110802.0 118974.0 249526.0 243402.0 64593.0 60608.0 158600.0 166591.0 0.0 158470.0 0.0 0.0 0.0 0.0 0.0 0.0 0.0 158470.0 158470.0 158470.0 158470.0 158470.0 158470.0 158470.0
205338.0 203519.0 176257.0 183114.0 137159.0 133236.0 183483.0 179018.0 46895.0 53539.0 270462.0 268692.0 65346.0 60282.0 280842.0 272674.0 83749.0 76242.0 124185.0 131866.0 100394.0 93350.0 328359.0 321135.0 140034.0 148135.0 134550.0 139846.0 36893.0 31861.0 263929.0 268701.0 92852.0 84514.0 136518.0 144566.0 57108.0 63495.0 269783.0 265195.0 105814.0 97865.0 108311.0 100915.0 208797.0 208225.0 190251.0 182282.0 188170.0 181724.0 78028.0 74759.0 154464.0 160365.0 258629.0 253719.0 279075.0 279587.0 89809.0 88942.0 89757.0 82210.0 44275.0 52073.0 160498.0 155671.0 88814.0 88170.0 154576.0 154719.0 53939.0 45598.0 110802.0 118974.0 249526.0 243402.0 64593.0 60608.0 158600.0 166591.0 0.0 158470.0 0.0 0.0 0.0 0.0 0.0 0.0 0.0 158470.0 158470.0 158470.0 158470.0 158470.0 158470.0 158470.0
205338.0 203519.0 176257.0 183114.0 137159.0 133236.0 183483.0 179018.0 46895.0 53539.0 270462.0 268692.0 65346.0 60282.0 280842.0 272674.0 83749.0 76242.0 124185.0 131866.0 100394.0 93350.0 328359.0 321135.0 140034.0 148135.0 134550.0 139846.0 36893.0 31861.0 263929.0 268701.0 92852.0 84514.0 136518.0 144566.0 57108.0 63495.0 269783.0 265195.0 105814.0 97865.0 108311.0 100915.0 208797.0 208225.0 190251.0 182282.0 188170.0 181724.0 78028.0 74759.0 154464.0 160365.0 258629.0 253719.0 279075.0 279587.0 89809.0 88942.0 89757.0 82210.0 44275.0 52073.0 160498.0 155671.0 88814.0 88170.0 154576.0 154719.0 53939.0 45598.0 110802.0 118974.0 249526.0 243402.0 64593.0 60608.0 158600.0 166591.0 0.0 158470.0 0.0 0.0 0.0 0.0 0.0 0.0 0.0 158470.0 158470.0 158470.0 158470.0 158470.0 158470.0 158470.0
205338.0 203519.0 176257.0 183114.0 137159.0 133236.0 183483.0 179018.0 46895.0 53539.0 270462.0 268692.0 65346.0 60282.0 280842.0 272674.0 83749.0 76242.0 124185.0 131866.0 100394.0 93350.0 328359.0 321135.0 140034.0 148135.0 134550.0 139846.0 36893.0 31861.0 263929.0 268701.0 92852.0 84514.0 136518.0 144566.0 57108.0 63495.0 269783.0 265195.0 105814.0 97865.0 108311.0 100915.0 208797.0 208225.0 190251.0 182282.0 188170.0 181724.0 78028.0 74759.0 154464.0 160365.0 258629.0 253719.0 279075.0 279587.0 89809.0 88942.0 89757.0 82210.0 44275.0 52073.0 160498.0 155671.0 88814.0 88170.0 154576.0 154719.0 53939.0 45598.0 110802.0 118974.0 249526.0 243402.0 64593.0 60608.0 158600.0 166591.0 0.0 158470.0 0.0 0.0 0.0 0.0 0.0 0.0 0.0 158470.0 158470.0 158470.0 158470.0 158470.0 158470.0 158470.0
205338.0 203519.0 176257.0 183114.0 137159.0 133236.0 183483.0 179018.0 46895.0 53539.0 270462.0 268692.0 65346.0 60282.0 280842.0 272674.0 83749.0 76242.0 124185.0 131866.0 100394.0 93350.0 328359.0 321135.0 140034.0 148135.0 134550.0 139846.0 36893.0 31861.0 263929.0 268701.0 92852.0 84514.0 136518.0 144566.0 57108.0 63495.0 269783.0 265195.0 105814.0 97865.0 108311.0 100915.0 208797.0 208225.0 190251.0 182282.0 188170.0 181724.0 78028.0 74759.0 154464.0 160365.0 258629.0 253719.0 279075.0 279587.0 89809.0 88942.0 89757.0 82210.0 44275.0 52073.0 160498.0 155671.0 88814.0 88170.0 154576.0 154719.0 53939.0 45598.0 110802.0 118974.0 249526.0 243402.0 64593.0 60608.0 158600.0 166591.0 0.0 158470.0 0.0 0.0 0.0 0.0 0.0 0.0 0.0 158470.0 158470.0 158470.0 158470.0 158470.0 158470.0 158470.0
239442.0 242642.0 42206.0 49871.0 120399.0 125451.0 75084.0 78498.0 183810.0 188460.0 261626.0 255959.0 202490.0 198994.0 124149.0 115982.0 203425.0 195471.0 112154.0 111706.0 140747.0 142168.0 171494.0 164411.0 20556.0 16669.0 195588.0 203707.0 174691.0 172040.0 110557.0 114448.0 223554.0 216221.0 103757.0 106109.0 191029.0 195567.0 116178.0 112592.0 86491.0 87390.0 155705.0 149917.0 196710.0 201614.0 206726.0 201399.0 180652.0 179673.0 143376.0 149722.0 66901.0 73696.0 104040.0 100037.0 260732.0 265317.0 189257.0 182886.0 217291.0 211476.0 173963.0 179394.0 85675.0 89876.0 135524.0 127556.0 238386.0 234156.0 164492.0 159580.0 75595.0 73098.0 238506.0 236487.0 186539.0 179059.0 7151.0 11757.0 158470.0 0.0 158470.0 158470.0 158470.0 158470.0 158470.0 158470.0 158470.0 0.0 0.0 0.0 0.0 0.0 0.0 0.0
239442.0 242642.0 42206.0 49871.0 120399.0 125451.0 75084.0 78498.0 183810.0 188460.0 261626.0 255959.0 202490.0 198994.0 124149.0 115982.0 203425.0 195471.0 112154.0 111706.0 140747.0 142168.0 171494.0 164411.0 20556.0 16669.0 195588.0 203707.0 174691.0 172040.0 110557.0 114448.0 223554.0 216221.0 103757.0 106109.0 191029.0 195567.0 116178.0 112592.0 86491.0 87390.0 155705.0 149917.0 196710.0 201614.0 206726.0 201399.0 180652.0 179673.0 143376.0 149722.0 66901.0 73696.0 104040.0 100037.0 260732.0 265317.0 189257.0 182886.0 217291.0 211476.0 173963.0 179394.0 85675.0 89876.0 135524.0 127556.0 238386.0 234156.0 164492.0 159580.0 75595.0 73098.0 238506.0 236487.0 186539.0 179059.0 7151.0 11757.0 158470.0 0.0 158470.0 158470.0 158470.0 158470.0 158470.0 158470.0 158470.0 0.0 0.0 0.0 0.0 0.0 0.0 0.0
239442.0 242642.0 42206.0 49871.0 120399.0 125451.0 75084.0 78498.0 183810.0 188460.0 261626.0 255959.0 202490.0 198994.0 124149.0 115982.0 203425.0 195471.0 112154.0 111706.0 140747.0 142168.0 171494.0 164411.0 20556.0 16669.0 195588.0 203707.0 174691.0 172040.0 110557.0 114448.0 223554.0 216221.0 103757.0 106109.0 191029.0 195567.0 116178.0 112592.0 86491.0 87390.0 155705.0 149917.0 196710.0 201614.0 206726.0 201399.0 180652.0 179673.0 143376.0 149722.0 66901.0 73696.0 104040.0 100037.0 260732.0 265317.0 189257.0 182886.0 217291.0 211476.0 173963.0 179394.0 85675.0 89876.0 135524.0 127556.0 238386.0 234156.0 164492.0 159580.0 75595.0 73098.0 238506.0 236487.0 186539.0 179059.0 7151.0 11757.0 158470.0 0.0 158470.0 158470.0 158470.0 158470.0 158470.0 158470.0 158470.0 0.0 0.0 0.0 0.0 0.0 0.0 0.0
239442.0 242642.0 42206.0 49871.0 120399.0 125451.0 75084.0 78498.0 183810.0 188460.0 261626.0 255959.0 202490.0 198994.0 124149.0 115982.0 203425.0 195471.0 112154.0 111706.0 140747.0 142168.0 171494.0 164411.0 20556.0 16669.0 195588.0 203707.0 174691.0 172040.0 110557.0 114448.0 223554.0 216221.0 103757.0 106109.0 191029.0 195567.0 116178.0 112592.0 86491.0 87390.0 155705.0 149917.0 196710.0 201614.0 206726.0 201399.0 180652.0 179673.0 143376.0 149722.0 66901.0 73696.0 104040.0 100037.0 260732.0 265317.0 189257.0 182886.0 217291.0 211476.0 173963.0 179394.0 85675.0 89876.0 135524.0 127556.0 238386.0 234156.0 164492.0 159580.0 75595.0 73098.0 238506.0 236487.0 186539.0 179059.0 7151.0 11757.0 158470.0 0.0 158470.0 158470.0 158470.0 158470.0 158470.0 158470.0 158470.0 0.0 0.0 0.0 0.0 0.0 0.0 0.0
239442.0 242642.0 42206.0 49871.0 120399.0 125451.0 75084.0 78498.0 183810.0 188460.0 261626.0 255959.0 202490.0 198994.0 124149.0 115982.0 203425.0 195471.0 112154.0 111706.0 140747.0 142168.0 171494.0 164411.0 20556.0 16669.0 195588.0 203707.0 174691.0 172040.0 110557.0 114448.0 223554.0 216221.0 103757.0 106109.0 191029.0 195567.0 116178.0 112592.0 86491.0 87390.0 155705.0 149917.0 196710.0 201614.0 206726.0 201399.0 180652.0 179673.0 143376.0 149722.0 66901.0 73696.0 104040.0 100037.0 260732.0 265317.0 189257.0 182886.0 217291.0 211476.0 173963.0 179394.0 85675.0 89876.0 135524.0 127556.0 238386.0 234156.0 164492.0 159580.0 75595.0 73098.0 238506.0 236487.0 186539.0 179059.0 7151.0 11757.0 158470.0 0.0 158470.0 158470.0 158470.0 158470.0 158470.0 158470.0 158470.0 0.0 0.0 0.0 0.0 0.0 0.0 0.0
239442.0 242642.0 42206.0 49871.0 120399.0 125451.0 75084.0 78498.0 183810.0 188460.0 261626.0 255959.0 202490.0 198994.0 124149.0 115982.0 203425.0 195471.0 112154.0 111706.0 140747.0 142168.0 171494.0 164411.0 20556.0 16669.0 195588.0 203707.0 174691.0 172040.0 110557.0 114448.0 223554.0 216221.0 103757.0 106109.0 191029.0 195567.0 116178.0 112592.0 86491.0 87390.0 155705.0 149917.0 196710.0 201614.0 206726.0 201399.0 180652.0 179673.0 143376.0 149722.0 66901.0 73696.0 104040.0 100037.0 260732.0 265317.0 189257.0 182886.0 217291.0 211476.0 173963.0 179394.0 85675.0 89876.0 135524.0 127556.0 238386.0 234156.0 164492.0 159580.0 75595.0 73098.0 238506.0 236487.0 186539.0 179059.0 7151.0 11757.0 158470.0 0.0 158470.0 158470.0 158470.0 158470.0 158470.0 158470.0 158470.0 0.0 0.0 0.0 0.0 0.0 0.0 0.0
239442.0 242642.0 42206.0 49871.0 120399.0 125451.0 75084.0 78498.0 183810.0 188460.0 261626.0 255959.0 202490.0 198994.0 124149.0 115982.0 203425.0 195471.0 112154.0 111706.0 140747.0 142168.0 171494.0 164411.0 20556.0 16669.0 195588.0 203707.0 174691.0 172040.0 110557.0 114448.0 223554.0 216221.0 103757.0 106109.0 191029.0 195567.0 116178.0 112592.0 86491.0 87390.0 155705.0 149917.0 196710.0 201614.0 206726.0 201399.0 180652.0 179673.0 143376.0 149722.0 66901.0 73696.0 104040.0 100037.0 260732.0 265317.0 189257.0 182886.0 217291.0 211476.0 173963.0 179394.0 85675.0 89876.0 135524.0 127556.0 238386.0 234156.0 164492.0 159580.0 75595.0 73098.0 238506.0 236487.0 186539.0 179059.0 7151.0 11757.0 158470.0 0.0 158470.0 158470.0 158470.0 158470.0 158470.0 158470.0 158470.0 0.0 0.0 0.0 0.0 0.0 0.0 0.0
FIXED_EDGES_SECTION
1 2
3 4
5 6
7 8
9 10
11 12
13 14
15 16
17 18
19 20
21 22
23 24
25 26
27 28
29 30
31 32
33 34
35 36
37 38
39 40
41 42
43 44
45 46
47 48
49 50
51 52
53 54
55 56
57 58
59 60
61 62
63 64
65 66
67 68
69 70
71 72
73 74
75 76
77 78
79 80
-1 
DEMAND_SECTION
1 68
2 68
3 313
4 313
5 90
6 90
7 68
8 68
9 292
10 292
11 542
12 542
13 369
14 369
15 224
16 224
17 379
18 379
19 380
20 380
21 119
22 119
23 229
24 229
25 235
26 235
27 247
28 247
29 97
30 97
31 350
32 350
33 251
34 251
35 177
36 177
37 219
38 219
39 268
40 268
41 373
42 373
43 341
44 341
45 157
46 157
47 186
48 186
49 180
50 180
51 394
52 394
53 342
54 342
55 341
56 341
57 138
58 138
59 57
60 57
61 216
62 216
63 104
64 104
65 130
66 130
67 277
68 277
69 497
70 497
71 100
72 100
73 324
74 324
75 380
76 380
77 396
78 396
79 37
80 37
81 0
82 0
83 0
84 0
85 0
86 0
87 0
88 0
89 0
90 0
91 0
92 0
93 0
94 0
95 0
96 0
DEPOT_SECTION
81 
-1 
CAPACITIES_SECTION
2500 
2750 
3000 
3250 
-1 
EOF