NAME: GFS_20_1
TYPE: GFSP
DIMENSION: 96
VEHICLES: 4
CAPACITY: 2500.0
TRIP_DIST_LIMIT: 750000.0
TOTAL_DIST_LIMIT: 1050000.0
EDGE_WEIGHT_TYPE: EXPLICIT
EDGE_WEIGHT_FORMAT: FULL_MATRIX
EDGE_WEIGHT_SECTION
0.0 8425.0 117147.0 123036.0 153327.0 145372.0 263632.0 256001.0 66671.0 69700.0 284801.0 292645.0 111567.0 115469.0 137419.0 140763.0 224945.0 230477.0 204883.0 205387.0 89679.0 89506.0 96856.0 91183.0 53230.0 58324.0 120352.0 118625.0 38017.0 35672.0 163101.0 168779.0 234771.0 226903.0 195734.0 200672.0 25555.0 33288.0 103914.0 101710.0 333868.0 325592.0 351489.0 343509.0 23321.0 22833.0 132136.0 124309.0 59719.0 61167.0 190391.0 185759.0 134134.0 138615.0 109869.0 114026.0 358460.0 364478.0 88535.0 81748.0 232827.0 224975.0 180190.0 174423.0 218249.0 222831.0 148388.0 156137.0 324527.0 317487.0 45004.0 48038.0 99949.0 101770.0 293787.0 301040.0 201894.0 200010.0 290948.0 288924.0 215326.0 229147.0 215326.0 215326.0 215326.0 215326.0 215326.0 215326.0 215326.0 229147.0 229147.0 229147.0 229147.0 229147.0 229147.0 229147.0
8425.0 0.0 113855.0 119382.0 146526.0 138660.0 267531.0 259865.0 70147.0 73977.0 288698.0 296492.0 107093.0 110553.0 133291.0 136235.0 226084.0 231823.0 197976.0 198690.0 83211.0 82558.0 105255.0 99530.0 46166.0 50757.0 120035.0 118867.0 38385.0 37848.0 162303.0 168198.0 238467.0 230651.0 188601.0 193400.0 23743.0 30561.0 102958.0 100115.0 336538.0 328271.0 355457.0 347435.0 24940.0 21661.0 133756.0 125882.0 67004.0 68919.0 191329.0 186756.0 135011.0 139044.0 110092.0 114788.0 361253.0 367384.0 96835.0 90113.0 236138.0 228340.0 173384.0 167466.0 212133.0 216901.0 148118.0 155658.0 327808.0 320860.0 40314.0 44545.0 97635.0 98823.0 296571.0 303732.0 205045.0 203463.0 293515.0 291716.0 210954.0 230070.0 210954.0 210954.0 210954.0 210954.0 210954.0 210954.0 210954.0 230070.0 230070.0 230070.0 230070.0 230070.0 230070.0 230070.0
117147.0 113855.0 0.0 7986.0 77971.0 71035.0 211928.0 204479.0 85566.0 92926.0 231274.0 237776.0 18826.0 25384.0 24205.0 31124.0 139437.0 146937.0 120350.0 116619.0 55164.0 63185.0 185163.0 183533.0 79333.0 82427.0 42879.0 50079.0 82809.0 89557.0 63105.0 70287.0 182988.0 176932.0 117641.0 125126.0 91638.0 83865.0 33574.0 27007.0 260920.0 252753.0 294987.0 286776.0 96718.0 94482.0 74692.0 70472.0 170380.0 168391.0 106570.0 103431.0 65233.0 61401.0 48172.0 55988.0 286037.0 292889.0 163637.0 161966.0 175491.0 169440.0 97712.0 96543.0 118662.0 120459.0 58164.0 61226.0 259475.0 254097.0 74135.0 69332.0 21268.0 15938.0 223701.0 229304.0 146585.0 149583.0 218176.0 219260.0 100394.0 140747.0 100394.0 100394.0 100394.0 100394.0 100394.0 100394.0 100394.0 140747.0 140747.0 140747.0 140747.0 140747.0 140747.0 140747.0
123036.0 119382.0 7986.0 0.0 71534.0 64933.0 216166.0 208789.0 93448.0 100853.0 235239.0 241598.0 17468.0 21973.0 16322.0 23142.0 141249.0 148888.0 112737.0 108861.0 55556.0 63296.0 192826.0 191094.0 82880.0 85314.0 49260.0 56761.0 89521.0 96483.0 64538.0 71722.0 187474.0 181610.0 110349.0 117900.0 97637.0 89765.0 41333.0 34962.0 263225.0 255057.0 298389.0 290195.0 103150.0 100534.0 80957.0 77156.0 177146.0 175344.0 109200.0 106323.0 70988.0 66504.0 55480.0 63084.0 288341.0 295194.0 171451.0 169691.0 179635.0 173790.0 90387.0 89514.0 110677.0 112486.0 61681.0 63761.0 262346.0 257138.0 79308.0 75032.0 29148.0 23219.0 226336.0 231746.0 151249.0 154561.0 220594.0 221965.0 93350.0 142168.0 93350.0 93350.0 93350.0 93350.0 93350.0 93350.0 93350.0 142168.0 142168.0 142168.0 142168.0 142168.0 142168.0 142168.0
153327.0 146526.0 77971.0 71534.0 0.0 8322.0 284782.0 277623.0 151556.0 159749.0 303020.0 308924.0 63111.0 55196.0 62156.0 54532.0 202911.0 210872.0 51643.0 52242.0 63920.0 64001.0 241768.0 238151.0 100378.0 96724.0 120721.0 128044.0 132698.0 140944.0 128672.0 135304.0 256822.0 251394.0 43887.0 50258.0 132606.0 125210.0 110218.0 102472.0 325182.0 317014.0 364054.0 355962.0 141546.0 135551.0 152476.0 148443.0 212984.0 213737.0 174592.0 172557.0 142457.0 137570.0 125784.0 133815.0 350298.0 357151.0 224395.0 220675.0 248213.0 242902.0 26864.0 21636.0 69149.0 75633.0 130703.0 130725.0 326272.0 321747.0 110873.0 111953.0 94123.0 86133.0 289674.0 294266.0 221145.0 225001.0 283145.0 285618.0 96105.0 202888.0 96105.0 96105.0 96105.0 96105.0 96105.0 96105.0 96105.0 202888.0 202888.0 202888.0 202888.0 202888.0 202888.0 202888.0
145372.0 138660.0 71035.0 64933.0 8322.0 0.0 279470.0 272244.0 143333.0 151535.0 297943.0 303966.0 55505.0 47582.0 56800.0 49580.0 198919.0 206850.0 59788.0 60031.0 55827.0 56248.0 233477.0 229886.0 92556.0 89138.0 113897.0 121087.0 124395.0 132639.0 123894.0 130664.0 251277.0 245707.0 52209.0 58542.0 124435.0 117004.0 102805.0 94963.0 321333.0 313166.0 359523.0 351403.0 133328.0 127389.0 145701.0 141454.0 204987.0 205657.0 169837.0 167632.0 135918.0 131303.0 118530.0 126642.0 346449.0 353302.0 216073.0 212359.0 242883.0 237417.0 34900.0 29951.0 75643.0 81739.0 125041.0 125481.0 322081.0 317411.0 102689.0 103679.0 86496.0 78492.0 285558.0 290313.0 215400.0 219063.0 279170.0 281435.0 97414.0 198964.0 97414.0 97414.0 97414.0 97414.0 97414.0 97414.0 97414.0 198964.0 198964.0 198964.0 198964.0 198964.0 198964.0 198964.0
263632.0 267531.0 211928.0 216166.0 284782.0 279470.0 0.0 7751.0 197394.0 193941.0 21170.0 29054.0 230539.0 237289.0 222718.0 230250.0 93181.0 86271.0 312053.0 305120.0 261237.0 269226.0 244184.0 249904.0 265554.0 272533.0 171893.0 167089.0 231716.0 230025.0 156612.0 150441.0 29752.0 37139.0 315110.0 322958.0 247481.0 244881.0 189062.0 196910.0 84170.0 76892.0 87943.0 79904.0 242833.0 248141.0 143187.0 150270.0 275705.0 268326.0 111481.0 112791.0 148945.0 150966.0 173664.0 165658.0 104152.0 108085.0 221755.0 228269.0 36588.0 42561.0 296350.0 298419.0 292467.0 288969.0 154640.0 154059.0 65112.0 57260.0 248119.0 240034.0 205551.0 212099.0 50080.0 57474.0 66146.0 65290.0 54664.0 46836.0 248445.0 97988.0 248445.0 248445.0 248445.0 248445.0 248445.0 248445.0 248445.0 97988.0 97988.0 97988.0 97988.0 97988.0 97988.0 97988.0
256001.0 259865.0 204479.0 208789.0 277623.0 272244.0 7751.0 0.0 189722.0 186319.0 28846.0 36644.0 223062.0 229849.0 215523.0 223097.0 87963.0 81340.0 305412.0 298546.0 253601.0 261582.0 237610.0 243235.0 257806.0 264789.0 164295.0 159437.0 223998.0 222337.0 149642.0 143558.0 22018.0 29395.0 308308.0 316162.0 239767.0 237147.0 181404.0 189269.0 89529.0 81997.0 95641.0 87582.0 235151.0 240436.0 135482.0 142548.0 268555.0 261215.0 104773.0 105924.0 141325.0 143437.0 165974.0 157953.0 110307.0 114526.0 214976.0 221406.0 29453.0 35043.0 289467.0 291445.0 286226.0 282740.0 147330.0 146906.0 71733.0 63976.0 240368.0 232283.0 197927.0 204508.0 53568.0 61277.0 58488.0 57541.0 57164.0 49846.0 242216.0 93095.0 242216.0 242216.0 242216.0 242216.0 242216.0 242216.0 242216.0 93095.0 93095.0 93095.0 93095.0 93095.0 93095.0 93095.0
66671.0 70147.0 85566.0 93448.0 151556.0 143333.0 197394.0 189722.0 0.0 8254.0 218559.0 226347.0 91479.0 98686.0 109758.0 116249.0 161224.0 166174.0 200528.0 198242.0 94836.0 100117.0 100784.0 100135.0 78260.0 86183.0 66467.0 61647.0 35972.0 32794.0 108848.0 113090.0 168325.0 160504.0 195082.0 201772.0 51035.0 50272.0 56892.0 59962.0 267337.0 259057.0 285327.0 277297.0 45476.0 51249.0 68258.0 60822.0 97637.0 93143.0 127622.0 122860.0 72976.0 79265.0 53972.0 54674.0 291860.0 297836.0 78244.0 77190.0 166172.0 158334.0 176120.0 172808.0 203411.0 205701.0 92033.0 100491.0 257872.0 250857.0 58540.0 51563.0 64305.0 70791.0 227204.0 234506.0 135224.0 133399.0 224505.0 222338.0 183973.0 166018.0 183973.0 183973.0 183973.0 183973.0 183973.0 183973.0 183973.0 166018.0 166018.0 166018.0 166018.0 166018.0 166018.0 166018.0
69700.0 73977.0 92926.0 100853.0 159749.0 151535.0 193941.0 186319.0 8254.0 0.0 215109.0 222962.0 99419.0 106695.0 117131.0 123771.0 161729.0 166356.0 208594.0 206230.0 103034.0 108240.0 94723.0 94558.0 85535.0 93473.0 71228.0 65758.0 42191.0 37821.0 112770.0 116624.0 165163.0 157270.0 203238.0 209953.0 56516.0 56611.0 63223.0 66890.0 265445.0 257163.0 281789.0 273810.0 49933.0 56372.0 69479.0 62428.0 95322.0 90280.0 128744.0 123956.0 75410.0 82234.0 58631.0 58263.0 289787.0 295616.0 71500.0 71011.0 163564.0 155658.0 184231.0 180974.0 211081.0 213249.0 95668.0 104186.0 255209.0 248082.0 65803.0 59095.0 71714.0 78417.0 225222.0 232632.0 132921.0 130635.0 222812.0 220352.0 190633.0 166783.0 190633.0 190633.0 190633.0 190633.0 190633.0 190633.0 190633.0 166783.0 166783.0 166783.0 166783.0 166783.0 166783.0 166783.0
284801.0 288698.0 231274.0 235239.0 303020.0 297943.0 21170.0 28846.0 218559.0 215109.0 0.0 8055.0 249977.0 256577.0 241144.0 248524.0 106678.0 99180.0 328548.0 321410.0 281330.0 289358.0 263910.0 269794.0 286368.0 293292.0 191867.0 187306.0 252834.0 251181.0 174442.0 168021.0 50621.0 58200.0 332124.0 339942.0 268607.0 265958.0 209292.0 217059.0 68957.0 62661.0 66796.0 58739.0 263993.0 269281.0 163687.0 170879.0 296366.0 288931.0 128746.0 130505.0 169036.0 170685.0 194070.0 186149.0 86327.0 89458.0 241850.0 248500.0 55953.0 62682.0 313649.0 316017.0 307950.0 304453.0 173573.0 172475.0 46516.0 38558.0 269056.0 260968.0 225615.0 232012.0 42740.0 48387.0 86555.0 86183.0 49819.0 41402.0 263929.0 110557.0 263929.0 263929.0 263929.0 263929.0 263929.0 263929.0 263929.0 110557.0 110557.0 110557.0 110557.0 110557.0 110557.0 110557.0
292645.0 296492.0 237776.0 241598.0 308924.0 303966.0 29054.0 36644.0 226347.0 222962.0 8055.0 0.0 256517.0 263034.0 247176.0 254478.0 110953.0 103290.0 333617.0 326390.0 288225.0 296274.0 271915.0 277816.0 293743.0 300623.0 198732.0 194313.0 260519.0 258938.0 180266.0 173744.0 58200.0 65887.0 337429.0 345230.0 276303.0 273584.0 216295.0 224009.0 62618.0 56794.0 59138.0 51018.0 271762.0 277002.0 170879.0 178137.0 304417.0 296984.0 134424.0 136370.0 175983.0 177428.0 201187.0 193323.0 78936.0 81813.0 249890.0 256548.0 62869.0 69855.0 319098.0 321607.0 312722.0 309225.0 179916.0 178573.0 39065.0 31153.0 276537.0 268448.0 232513.0 238821.0 40514.0 45112.0 93785.0 93702.0 48298.0 40091.0 268701.0 114448.0 268701.0 268701.0 268701.0 268701.0 268701.0 268701.0 268701.0 114448.0 114448.0 114448.0 114448.0 114448.0 114448.0 114448.0
111567.0 107093.0 18826.0 17468.0 63111.0 55505.0 230539.0 223062.0 91479.0 99419.0 249977.0 256517.0 0.0 7924.0 26677.0 29196.0 157982.0 165537.0 109464.0 106834.0 38148.0 45835.0 187867.0 185447.0 67596.0 69255.0 60171.0 66754.0 80952.0 88579.0 81416.0 88611.0 201498.0 195340.0 105084.0 112221.0 86742.0 78741.0 47409.0 39477.0 279643.0 271475.0 313798.0 305585.0 93419.0 89741.0 91774.0 86869.0 167906.0 166804.0 125339.0 122237.0 83023.0 79746.0 63375.0 71640.0 304759.0 311612.0 167896.0 165334.0 194150.0 188019.0 85546.0 83191.0 112709.0 115730.0 76990.0 79942.0 278292.0 272922.0 66793.0 63820.0 31013.0 23022.0 242490.0 248058.0 165022.0 167816.0 236924.0 238058.0 103862.0 159119.0 103862.0 103862.0 103862.0 103862.0 103862.0 103862.0 103862.0 159119.0 159119.0 159119.0 159119.0 159119.0 159119.0 159119.0
115469.0 110553.0 25384.0 21973.0 55196.0 47582.0 237289.0 229849.0 98686.0 106695.0 256577.0 263034.0 7924.0 0.0 26221.0 26432.0 163216.0 170860.0 101966.0 99559.0 36383.0 43420.0 194133.0 191512.0 69126.0 69891.0 67630.0 74376.0 86394.0 94210.0 86497.0 93676.0 208372.0 202313.0 97331.0 104419.0 91109.0 83115.0 55294.0 47391.0 285190.0 277023.0 320067.0 311864.0 98283.0 94134.0 99334.0 94571.0 172688.0 171880.0 131102.0 128157.0 90341.0 86758.0 71199.0 79430.0 310307.0 317159.0 174570.0 171804.0 200832.0 194812.0 77880.0 75370.0 106368.0 109731.0 83216.0 85651.0 284218.0 278959.0 70476.0 68277.0 38933.0 30938.0 248259.0 253699.0 171967.0 174924.0 242549.0 243873.0 100912.0 164086.0 100912.0 100912.0 100912.0 100912.0 100912.0 100912.0 100912.0 164086.0 164086.0 164086.0 164086.0 164086.0 164086.0 164086.0
137419.0 133291.0 24205.0 16322.0 62156.0 56800.0 222718.0 215523.0 109758.0 117131.0 241144.0 247176.0 26677.0 26221.0 0.0 8189.0 143163.0 151016.0 98845.0 94388.0 62600.0 69503.0 209095.0 207299.0 94227.0 95608.0 61835.0 69726.0 104994.0 112164.0 67283.0 74179.0 194670.0 189245.0 97645.0 105375.0 112253.0 104296.0 56672.0 50868.0 265625.0 257458.0 302930.0 294791.0 118271.0 115205.0 92717.0 89825.0 192552.0 190969.0 113173.0 110874.0 81884.0 76242.0 69702.0 76773.0 290742.0 297595.0 187772.0 185991.0 186136.0 180761.0 77721.0 77882.0 94774.0 96343.0 68571.0 68689.0 265843.0 261011.0 92990.0 89415.0 45453.0 39434.0 229448.0 234435.0 159014.0 162978.0 223274.0 225240.0 78028.0 143376.0 78028.0 78028.0 78028.0 78028.0 78028.0 78028.0 78028.0 143376.0 143376.0 143376.0 143376.0 143376.0 143376.0 143376.0
140763.0 136235.0 31124.0 23142.0 54532.0 49580.0 230250.0 223097.0 116249.0 123771.0 248524.0 254478.0 29196.0 26432.0 8189.0 0.0 149605.0 157503.0 90719.0 86368.0 61940.0 68249.0 214935.0 212921.0 95548.0 96258.0 69979.0 77848.0 109557.0 116962.0 74321.0 81086.0 202347.0 197005.0 89457.0 97190.0 115901.0 107904.0 64242.0 58093.0 272073.0 263906.0 309944.0 301823.0 122395.0 118892.0 100906.0 97983.0 196852.0 195552.0 120267.0 118114.0 90064.0 84370.0 77641.0 84816.0 297189.0 304042.0 194005.0 191993.0 193683.0 188406.0 69537.0 69777.0 87544.0 89479.0 76410.0 76194.0 272590.0 267867.0 95958.0 92981.0 52090.0 45512.0 236112.0 240970.0 166818.0 170880.0 229817.0 231956.0 74759.0 149722.0 74759.0 74759.0 74759.0 74759.0 74759.0 74759.0 74759.0 149722.0 149722.0 149722.0 149722.0 149722.0 149722.0 149722.0
224945.0 226084.0 139437.0 141249.0 202911.0 198919.0 93181.0 87963.0 161224.0 161729.0 106678.0 110953.0 157982.0 163216.0 143163.0 149605.0 0.0 7995.0 223683.0 216351.0 193976.0 202120.0 241626.0 244800.0 209248.0 214740.0 109139.0 108227.0 187699.0 189294.0 76725.0 69560.0 74070.0 73664.0 228058.0 235786.0 202868.0 197723.0 127897.0 133928.0 122474.0 114307.0 162168.0 154244.0 201751.0 204549.0 93134.0 100833.0 256317.0 250543.0 35019.0 39419.0 91131.0 87993.0 116845.0 111381.0 147591.0 154443.0 216227.0 220096.0 62146.0 62063.0 210352.0 213534.0 202620.0 199124.0 83126.0 78411.0 123475.0 119291.0 195803.0 188134.0 140829.0 145173.0 86809.0 91394.0 57329.0 65403.0 80254.0 82861.0 158600.0 7151.0 158600.0 158600.0 158600.0 158600.0 158600.0 158600.0 158600.0 7151.0 7151.0 7151.0 7151.0 7151.0 7151.0 7151.0
230477.0 231823.0 146937.0 148888.0 210872.0 206850.0 86271.0 81340.0 166174.0 166356.0 99180.0 103290.0 165537.0 170860.0 151016.0 157503.0 7995.0 0.0 231675.0 224342.0 201322.0 209475.0 244402.0 247801.0 215961.0 221565.0 115783.0 114538.0 193451.0 194806.0 84406.0 77262.0 68620.0 68904.0 236050.0 243778.0 208741.0 203758.0 134571.0 140777.0 114611.0 106444.0 154187.0 146271.0 207356.0 210353.0 98401.0 106188.0 260513.0 254588.0 41585.0 45732.0 97110.0 94404.0 123076.0 117334.0 139727.0 146580.0 219090.0 223203.0 56622.0 57363.0 218343.0 221529.0 210612.0 207115.0 90228.0 85801.0 115486.0 111298.0 202198.0 194468.0 147839.0 152351.0 78827.0 83470.0 55609.0 63584.0 72322.0 74868.0 166591.0 11757.0 166591.0 166591.0 166591.0 166591.0 166591.0 166591.0 166591.0 11757.0 11757.0 11757.0 11757.0 11757.0 11757.0 11757.0
204883.0 197976.0 120350.0 112737.0 51643.0 59788.0 312053.0 305412.0 200528.0 208594.0 328548.0 333617.0 109464.0 101966.0 98845.0 90719.0 223683.0 231675.0 0.0 8543.0 115563.0 115422.0 293006.0 289548.0 151810.0 147804.0 160679.0 168565.0 183884.0 192100.0 156809.0 162311.0 285960.0 281526.0 13306.0 16595.0 184223.0 176785.0 153911.0 146933.0 345925.0 337758.0 385848.0 377913.0 193099.0 187175.0 191281.0 188652.0 264570.0 265376.0 200641.0 199687.0 180095.0 173767.0 168132.0 175481.0 371042.0 377894.0 275041.0 271602.0 276117.0 271869.0 24949.0 30550.0 33853.0 42109.0 163699.0 161363.0 347127.0 342964.0 162478.0 163346.0 139500.0 131814.0 310449.0 314934.0 252128.0 257140.0 303812.0 306527.0 92852.0 223554.0 92852.0 92852.0 92852.0 92852.0 92852.0 92852.0 92852.0 223554.0 223554.0 223554.0 223554.0 223554.0 223554.0 223554.0
205387.0 198690.0 116619.0 108861.0 52242.0 60031.0 305120.0 298546.0 198242.0 206230.0 321410.0 326390.0 106834.0 99559.0 94388.0 86368.0 216351.0 224342.0 8543.0 0.0 115760.0 116221.0 292056.0 288812.0 152572.0 148959.0 156095.0 164045.0 183013.0 191182.0 150430.0 155763.0 279281.0 274976.0 20429.0 24950.0 184086.0 176516.0 150177.0 143436.0 338592.0 330425.0 378515.0 370580.0 192750.0 187067.0 186315.0 183967.0 264963.0 265508.0 193812.0 192983.0 174971.0 168431.0 164000.0 171161.0 363709.0 370562.0 273558.0 270352.0 269310.0 265194.0 25582.0 32605.0 25792.0 34077.0 157926.0 155276.0 339794.0 335632.0 162323.0 162768.0 136298.0 128758.0 303116.0 307602.0 245746.0 250902.0 296479.0 299194.0 84514.0 216221.0 84514.0 84514.0 84514.0 84514.0 84514.0 84514.0 84514.0 216221.0 216221.0 216221.0 216221.0 216221.0 216221.0 216221.0
89679.0 83211.0 55164.0 55556.0 63920.0 55827.0 261237.0 253601.0 94836.0 103034.0 281330.0 288225.0 38148.0 36383.0 62600.0 61940.0 193976.0 201322.0 115563.0 115760.0 0.0 8167.0 178638.0 174711.0 37591.0 35906.0 89497.0 94190.0 70221.0 78462.0 118136.0 125291.0 231695.0 225007.0 107151.0 112713.0 68760.0 61512.0 72282.0 64336.0 314666.0 306498.0 346379.0 338145.0 77883.0 71682.0 118672.0 112277.0 149204.0 149831.0 160341.0 156852.0 112307.0 111007.0 88155.0 96480.0 339782.0 346555.0 162524.0 158238.0 225396.0 218748.0 90722.0 85326.0 129057.0 134079.0 111374.0 115565.0 312171.0 306451.0 47101.0 49028.0 55716.0 49642.0 276932.0 282840.0 195117.0 196878.0 271776.0 272380.0 134550.0 195588.0 134550.0 134550.0 134550.0 134550.0 134550.0 134550.0 134550.0 195588.0 195588.0 195588.0 195588.0 195588.0 195588.0 195588.0
89506.0 82558.0 63185.0 63296.0 64001.0 56248.0 269226.0 261582.0 100117.0 108240.0 289358.0 296274.0 45835.0 43420.0 69503.0 68249.0 202120.0 209475.0 115422.0 116221.0 8167.0 0.0 180731.0 176493.0 36393.0 33041.0 97563.0 102149.0 73408.0 81548.0 126214.0 133376.0 239661.0 232937.0 106276.0 111411.0 70211.0 63428.0 80205.0 72317.0 322833.0 314665.0 354469.0 346235.0 79708.0 73022.0 126524.0 120038.0 149223.0 150290.0 168507.0 165019.0 120323.0 119115.0 95975.0 104262.0 347949.0 354722.0 165527.0 160912.0 233434.0 226755.0 90845.0 84929.0 130943.0 136349.0 119540.0 123709.0 320318.0 314588.0 49054.0 52189.0 63764.0 57785.0 285094.0 291006.0 203095.0 204780.0 279942.0 280540.0 139846.0 203707.0 139846.0 139846.0 139846.0 139846.0 139846.0 139846.0 139846.0 203707.0 203707.0 203707.0 203707.0 203707.0 203707.0 203707.0
96856.0 105255.0 185163.0 192826.0 241768.0 233477.0 244184.0 237610.0 100784.0 94723.0 263910.0 271915.0 187867.0 194133.0 209095.0 214935.0 241626.0 244402.0 293006.0 292056.0 178638.0 180731.0 0.0 8088.0 146606.0 153058.0 165592.0 159551.0 109123.0 100910.0 205647.0 208660.0 220411.0 212631.0 285506.0 291292.0 110635.0 117320.0 157666.0 160533.0 325725.0 317723.0 326258.0 319152.0 101025.0 107936.0 157321.0 151810.0 51844.0 44542.0 212817.0 208137.0 166019.0 173782.0 153017.0 151565.0 347760.0 352135.0 25501.0 23734.0 223525.0 215766.0 268070.0 263393.0 300489.0 303585.0 188245.0 196744.0 309277.0 301443.0 131737.0 129852.0 164017.0 169665.0 286371.0 294316.0 197982.0 192604.0 286327.0 281700.0 284593.0 247775.0 284593.0 284593.0 284593.0 284593.0 284593.0 284593.0 284593.0 247775.0 247775.0 247775.0 247775.0 247775.0 247775.0 247775.0
91183.0 99530.0 183533.0 191094.0 238151.0 229886.0 249904.0 243235.0 100135.0 94558.0 269794.0 277816.0 185447.0 191512.0 207299.0 212921.0 244800.0 247801.0 289548.0 288812.0 174711.0 176493.0 8088.0 0.0 141868.0 148110.0 165741.0 159971.0 105813.0 97687.0 206472.0 209736.0 225686.0 217856.0 281773.0 287424.0 106284.0 113228.0 156971.0 159443.0 330993.0 322952.0 332561.0 325391.0 96864.0 103502.0 159005.0 153213.0 43951.0 36825.0 215347.0 210632.0 167285.0 174884.0 153143.0 152134.0 353243.0 357730.0 28965.0 24880.0 228476.0 220664.0 264600.0 259747.0 297866.0 301157.0 189128.0 197650.0 314951.0 307144.0 127660.0 126211.0 162513.0 167883.0 291473.0 299400.0 202382.0 197213.0 291243.0 286774.0 283373.0 250835.0 283373.0 283373.0 283373.0 283373.0 283373.0 283373.0 283373.0 250835.0 250835.0 250835.0 250835.0 250835.0 250835.0 250835.0
53230.0 46166.0 79333.0 82880.0 100378.0 92556.0 265554.0 257806.0 78260.0 85535.0 286368.0 293743.0 67596.0 69126.0 94227.0 95548.0 209248.0 215961.0 151810.0 152572.0 37591.0 36393.0 146606.0 141868.0 0.0 7940.0 100183.0 102114.0 44697.0 51828.0 137457.0 144209.0 235817.0 228502.0 142516.0 147448.0 36514.0 31472.0 81391.0 75459.0 326384.0 318223.0 352752.0 344555.0 46449.0 38942.0 123338.0 115817.0 112937.0 114245.0 174381.0 170278.0 120429.0 121772.0 94098.0 101248.0 351507.0 358239.0 133436.0 128083.0 231242.0 223953.0 127231.0 121303.0 166606.0 171670.0 126627.0 132712.0 321256.0 314931.0 19735.0 26995.0 69451.0 67213.0 287519.0 294057.0 200016.0 200265.0 283271.0 282782.0 169876.0 212006.0 169876.0 169876.0 169876.0 169876.0 169876.0 169876.0 169876.0 212006.0 212006.0 212006.0 212006.0 212006.0 212006.0 212006.0
58324.0 50757.0 82427.0 85314.0 96724.0 89138.0 272533.0 264789.0 86183.0 93473.0 293292.0 300623.0 69255.0 69891.0 95608.0 96258.0 214740.0 221565.0 147804.0 148959.0 35906.0 33041.0 153058.0 148110.0 7940.0 0.0 105907.0 108232.0 52560.0 59574.0 142031.0 148888.0 242785.0 235523.0 138079.0 142727.0 43685.0 39119.0 87130.0 80812.0 332523.0 324349.0 359579.0 351373.0 53625.0 45947.0 129984.0 122551.0 117761.0 119491.0 179984.0 175962.0 126645.0 127640.0 100401.0 107752.0 357631.0 364424.0 140521.0 134995.0 238025.0 230795.0 123472.0 117254.0 163979.0 169332.0 131847.0 137650.0 327752.0 321495.0 27671.0 34826.0 74279.0 71337.0 293797.0 300257.0 206855.0 207258.0 289423.0 289080.0 169977.0 217317.0 169977.0 169977.0 169977.0 169977.0 169977.0 169977.0 169977.0 217317.0 217317.0 217317.0 217317.0 217317.0 217317.0 217317.0
120352.0 120035.0 42879.0 49260.0 120721.0 113897.0 171893.0 164295.0 66467.0 71228.0 191867.0 198732.0 60171.0 67630.0 61835.0 69979.0 109139.0 115783.0 160679.0 156095.0 89497.0 97563.0 165592.0 165741.0 100183.0 105907.0 0.0 8048.0 82336.0 85907.0 43273.0 48522.0 142477.0 135998.0 159173.0 166817.0 96319.0 90279.0 18794.0 25598.0 226904.0 218705.0 256922.0 248687.0 97150.0 98413.0 31813.0 28032.0 162970.0 159057.0 74212.0 70097.0 23075.0 21876.0 12599.0 16095.0 252020.0 258865.0 141516.0 141863.0 135921.0 129355.0 139200.0 138673.0 154237.0 154521.0 28084.0 35819.0 223236.0 217327.0 86923.0 79451.0 33806.0 40218.0 188541.0 194785.0 105876.0 108132.0 183856.0 183892.0 124185.0 112154.0 124185.0 124185.0 124185.0 124185.0 124185.0 124185.0 124185.0 112154.0 112154.0 112154.0 112154.0 112154.0 112154.0 112154.0
118625.0 118867.0 50079.0 56761.0 128044.0 121087.0 167089.0 159437.0 61647.0 65758.0 187306.0 194313.0 66754.0 74376.0 69726.0 77848.0 108227.0 114538.0 168565.0 164045.0 94190.0 102149.0 159551.0 159971.0 102114.0 108232.0 8048.0 0.0 80709.0 83567.0 47201.0 51644.0 137513.0 130825.0 166904.0 174522.0 95302.0 89738.0 21986.0 29863.0 224304.0 216134.0 252797.0 244565.0 95314.0 97208.0 25090.0 20407.0 158920.0 154704.0 73214.0 68851.0 18501.0 20297.0 8775.0 8418.0 249417.0 256192.0 135200.0 135854.0 131443.0 124654.0 146928.0 146265.0 162285.0 162555.0 30600.0 38949.0 219827.0 213744.0 87668.0 79933.0 38665.0 45745.0 185589.0 192025.0 100949.0 102743.0 181197.0 180886.0 131866.0 111706.0 131866.0 131866.0 131866.0 131866.0 131866.0 131866.0 131866.0 111706.0 111706.0 111706.0 111706.0 111706.0 111706.0 111706.0
38017.0 38385.0 82809.0 89521.0 132698.0 124395.0 231716.0 223998.0 35972.0 42191.0 252834.0 260519.0 80952.0 86394.0 104994.0 109557.0 187699.0 193451.0 183884.0 183013.0 70221.0 73408.0 109123.0 105813.0 44697.0 52560.0 82336.0 80709.0 0.0 8262.0 125155.0 130780.0 202335.0 194642.0 176502.0 182435.0 15831.0 14420.0 66125.0 64507.0 298855.0 290603.0 319626.0 311534.0 14913.0 16982.0 95504.0 87621.0 87626.0 86009.0 152954.0 148375.0 96635.0 100798.0 71940.0 76423.0 323680.0 329932.0 92305.0 88110.0 199364.0 191670.0 158947.0 154332.0 192449.0 196077.0 110373.0 118128.0 290859.0 284050.0 25560.0 21249.0 63842.0 66937.0 259030.0 266091.0 168106.0 167007.0 255761.0 254189.0 182844.0 191700.0 182844.0 182844.0 182844.0 182844.0 182844.0 182844.0 182844.0 191700.0 191700.0 191700.0 191700.0 191700.0 191700.0 191700.0
35672.0 37848.0 89557.0 96483.0 140944.0 132639.0 230025.0 222337.0 32794.0 37821.0 251181.0 258938.0 88579.0 94210.0 112164.0 116962.0 189294.0 194806.0 192100.0 191182.0 78462.0 81548.0 100910.0 97687.0 51828.0 59574.0 85907.0 83567.0 8262.0 0.0 129063.0 134425.0 200841.0 193062.0 184756.0 190696.0 18776.0 20534.0 70670.0 69848.0 298718.0 290449.0 317968.0 309918.0 12910.0 18567.0 96469.0 88638.0 80904.0 78862.0 154796.0 150148.0 98600.0 103335.0 74873.0 78587.0 323415.0 329538.0 84076.0 79848.0 198346.0 190568.0 167168.0 162579.0 200399.0 203936.0 113735.0 121704.0 289997.0 283073.0 33244.0 29455.0 69981.0 73626.0 258732.0 265907.0 167221.0 165732.0 255716.0 253876.0 189830.0 193544.0 189830.0 189830.0 189830.0 189830.0 189830.0 189830.0 189830.0 193544.0 193544.0 193544.0 193544.0 193544.0 193544.0 193544.0
163101.0 162303.0 63105.0 64538.0 128672.0 123894.0 156612.0 149642.0 108848.0 112770.0 174442.0 180266.0 81416.0 86497.0 67283.0 74321.0 76725.0 84406.0 156809.0 150430.0 118136.0 126214.0 205647.0 206472.0 137457.0 142031.0 43273.0 47201.0 125155.0 129063.0 0.0 7195.0 129510.0 124802.0 158922.0 166790.0 138567.0 132072.0 59348.0 63026.0 198891.0 190723.0 235661.0 227529.0 140041.0 140824.0 51677.0 55059.0 206003.0 201881.0 45947.0 43938.0 40710.0 32395.0 55182.0 54517.0 224007.0 230860.0 180850.0 182069.0 120192.0 115438.0 139885.0 141809.0 141490.0 139481.0 17433.0 9094.0 198647.0 193746.0 126928.0 120027.0 68031.0 70823.0 162355.0 167535.0 95327.0 100528.0 156371.0 158088.0 100929.0 77703.0 100929.0 100929.0 100929.0 100929.0 100929.0 100929.0 100929.0 77703.0 77703.0 77703.0 77703.0 77703.0 77703.0 77703.0
168779.0 168198.0 70287.0 71722.0 135304.0 130664.0 150441.0 143558.0 113090.0 116624.0 168021.0 173744.0 88611.0 93676.0 74179.0 81086.0 69560.0 77262.0 162311.0 155763.0 125291.0 133376.0 208660.0 209736.0 144209.0 148888.0 48522.0 51644.0 130780.0 134425.0 7195.0 0.0 123700.0 119224.0 164784.0 172644.0 144455.0 138099.0 65353.0 69440.0 191783.0 183616.0 228859.0 220741.0 145628.0 146651.0 52894.0 57166.0 210540.0 206228.0 39322.0 37650.0 42786.0 34878.0 59959.0 58454.0 216900.0 223753.0 183676.0 185186.0 114135.0 109611.0 145914.0 148040.0 145972.0 143640.0 21068.0 12746.0 191675.0 186836.0 133324.0 126313.0 74758.0 77777.0 155332.0 160458.0 90104.0 95629.0 149294.0 151091.0 104309.0 70508.0 104309.0 104309.0 104309.0 104309.0 104309.0 104309.0 104309.0 70508.0 70508.0 70508.0 70508.0 70508.0 70508.0 70508.0
234771.0 238467.0 182988.0 187474.0 256822.0 251277.0 29752.0 22018.0 168325.0 165163.0 50621.0 58200.0 201498.0 208372.0 194670.0 202347.0 74070.0 68620.0 285960.0 279281.0 231695.0 239661.0 220411.0 225686.0 235817.0 242785.0 142477.0 137513.0 202335.0 200841.0 129510.0 123700.0 0.0 8013.0 288422.0 296288.0 218127.0 215384.0 159467.0 167360.0 105318.0 97317.0 117335.0 109217.0 213687.0 218851.0 113480.0 120531.0 249232.0 242043.0 85665.0 86298.0 119468.0 121787.0 143987.0 135949.0 127821.0 132740.0 197100.0 203205.0 12001.0 14091.0 269377.0 271114.0 267886.0 264627.0 126243.0 126257.0 90801.0 83370.0 218440.0 210353.0 176049.0 182695.0 66258.0 74243.0 36602.0 35570.0 67330.0 61739.0 224102.0 80125.0 224102.0 224102.0 224102.0 224102.0 224102.0 224102.0 224102.0 80125.0 80125.0 80125.0 80125.0 80125.0 80125.0 80125.0
226903.0 230651.0 176932.0 181610.0 251394.0 245707.0 37139.0 29395.0 160504.0 157270.0 58200.0 65887.0 195340.0 202313.0 189245.0 197005.0 73664.0 68904.0 281526.0 274976.0 225007.0 232937.0 212631.0 217856.0 228502.0 235523.0 135998.0 130825.0 194642.0 193062.0 124802.0 119224.0 8013.0 0.0 283685.0 291555.0 210421.0 207761.0 152733.0 160688.0 113139.0 105102.0 124984.0 116895.0 205896.0 211115.0 106556.0 113480.0 241231.0 234050.0 81959.0 82194.0 112940.0 115594.0 137112.0 129001.0 135771.0 140729.0 189233.0 195299.0 14422.0 11601.0 264506.0 266059.0 264177.0 261125.0 120699.0 121125.0 98814.0 91377.0 210996.0 202913.0 169437.0 176198.0 73847.0 81822.0 30363.0 28300.0 74557.0 69260.0 220667.0 80081.0 220667.0 220667.0 220667.0 220667.0 220667.0 220667.0 220667.0 80081.0 80081.0 80081.0 80081.0 80081.0 80081.0 80081.0
195734.0 188601.0 117641.0 110349.0 43887.0 52209.0 315110.0 308308.0 195082.0 203238.0 332124.0 337429.0 105084.0 97331.0 97645.0 89457.0 228058.0 236050.0 13306.0 20429.0 107151.0 106276.0 285506.0 281773.0 142516.0 138079.0 159173.0 166904.0 176502.0 184756.0 158922.0 164784.0 288422.0 283685.0 0.0 7871.0 175898.0 168648.0 150957.0 143625.0 350300.0 342133.0 390186.0 382275.0 185014.0 178804.0 190346.0 187203.0 255451.0 256560.0 203644.0 202389.0 179505.0 173615.0 165784.0 173430.0 375416.0 382269.0 268280.0 264529.0 278906.0 274342.0 19976.0 22318.0 46195.0 54476.0 164474.0 162812.0 351501.0 347339.0 154249.0 155655.0 135761.0 127897.0 314823.0 319309.0 253949.0 258627.0 308186.0 310902.0 101167.0 227928.0 101167.0 101167.0 101167.0 101167.0 101167.0 101167.0 101167.0 227928.0 227928.0 227928.0 227928.0 227928.0 227928.0 227928.0
200672.0 193400.0 125126.0 117900.0 50258.0 58542.0 322958.0 316162.0 201772.0 209953.0 339942.0 345230.0 112221.0 104419.0 105375.0 97190.0 235786.0 243778.0 16595.0 24950.0 112713.0 111411.0 291292.0 287424.0 147448.0 142727.0 166817.0 174522.0 182435.0 190696.0 166790.0 172644.0 296288.0 291555.0 7871.0 0.0 181351.0 174214.0 158359.0 150959.0 358028.0 349861.0 397890.0 389988.0 190585.0 184229.0 198050.0 194842.0 260350.0 261649.0 211487.0 210245.0 187251.0 181404.0 173290.0 180983.0 383144.0 389997.0 274414.0 270528.0 286763.0 282208.0 27654.0 29070.0 50440.0 58687.0 172323.0 170680.0 359230.0 355067.0 159790.0 161470.0 143006.0 135109.0 322552.0 327037.0 261820.0 266493.0 315914.0 318630.0 107939.0 235656.0 107939.0 107939.0 107939.0 107939.0 107939.0 107939.0 107939.0 235656.0 235656.0 235656.0 235656.0 235656.0 235656.0 235656.0
25555.0 23743.0 91638.0 97637.0 132606.0 124435.0 247481.0 239767.0 51035.0 56516.0 268607.0 276303.0 86742.0 91109.0 112253.0 115901.0 202868.0 208741.0 184223.0 184086.0 68760.0 70211.0 110635.0 106284.0 36514.0 43685.0 96319.0 95302.0 15831.0 18776.0 138567.0 144455.0 218127.0 210421.0 175898.0 181351.0 0.0 8004.0 79226.0 76538.0 314613.0 306364.0 335401.0 327316.0 9945.0 3036.0 111055.0 103169.0 81782.0 81600.0 168020.0 163486.0 111739.0 115531.0 86533.0 91490.0 339457.0 345727.0 96924.0 91613.0 215193.0 207496.0 159321.0 154074.0 195485.0 199689.0 124400.0 131918.0 306689.0 299881.0 21764.0 22922.0 74461.0 76219.0 274817.0 281860.0 183936.0 182819.0 271506.0 269978.0 190251.0 206726.0 190251.0 190251.0 190251.0 190251.0 190251.0 190251.0 190251.0 206726.0 206726.0 206726.0 206726.0 206726.0 206726.0 206726.0
33288.0 30561.0 83865.0 89765.0 125210.0 117004.0 244881.0 237147.0 50272.0 56611.0 265958.0 273584.0 78741.0 83115.0 104296.0 107904.0 197723.0 203758.0 176785.0 176516.0 61512.0 63428.0 117320.0 113228.0 31472.0 39119.0 90279.0 89738.0 14420.0 20534.0 132072.0 138099.0 215384.0 207761.0 168648.0 174214.0 8004.0 0.0 72753.0 69614.0 310654.0 302424.0 332718.0 324599.0 16371.0 11021.0 106677.0 98807.0 89709.0 89387.0 162779.0 158306.0 106650.0 110028.0 81009.0 86429.0 335587.0 341959.0 102607.0 97658.0 212049.0 204433.0 151860.0 146734.0 187650.0 191799.0 118307.0 125655.0 303333.0 296627.0 14433.0 14923.0 67101.0 68559.0 271019.0 277964.0 180729.0 179939.0 267507.0 266195.0 182282.0 201399.0 182282.0 182282.0 182282.0 182282.0 182282.0 182282.0 182282.0 201399.0 201399.0 201399.0 201399.0 201399.0 201399.0 201399.0
103914.0 102958.0 33574.0 41333.0 110218.0 102805.0 189062.0 181404.0 56892.0 63223.0 209292.0 216295.0 47409.0 55294.0 56672.0 64242.0 127897.0 134571.0 153911.0 150177.0 72282.0 80205.0 157666.0 156971.0 81391.0 87130.0 18794.0 21986.0 66125.0 70670.0 59348.0 65353.0 159467.0 152733.0 150957.0 158359.0 79226.0 72753.0 0.0 8237.0 245552.0 237365.0 274748.0 266515.0 81038.0 81510.0 46469.0 40479.0 150003.0 146746.0 92994.0 88891.0 40376.0 40534.0 16317.0 24753.0 270634.0 277499.0 134722.0 134036.0 153426.0 146639.0 131082.0 129575.0 151401.0 152689.0 45970.0 52984.0 241550.0 235539.0 68479.0 61188.0 17247.0 24938.0 207066.0 213382.0 122918.0 124596.0 202484.0 202394.0 127471.0 130820.0 127471.0 127471.0 127471.0 127471.0 127471.0 127471.0 127471.0 130820.0 130820.0 130820.0 130820.0 130820.0 130820.0 130820.0
101710.0 100115.0 27007.0 34962.0 102472.0 94963.0 196910.0 189269.0 59962.0 66890.0 217059.0 224009.0 39477.0 47391.0 50868.0 58093.0 133928.0 140777.0 146933.0 143436.0 64336.0 72317.0 160533.0 159443.0 75459.0 80812.0 25598.0 29863.0 64507.0 69848.0 63026.0 69440.0 167360.0 160688.0 143625.0 150959.0 76538.0 69614.0 8237.0 0.0 252427.0 244215.0 282347.0 274113.0 79322.0 79008.0 54598.0 48705.0 150197.0 147356.0 99208.0 95251.0 48027.0 47460.0 24553.0 32989.0 277543.0 284393.0 138194.0 137051.0 161151.0 154440.0 123814.0 122082.0 145585.0 147200.0 51174.0 57507.0 248827.0 242898.0 63905.0 57050.0 9010.0 16766.0 214125.0 220341.0 130783.0 132597.0 209394.0 209482.0 124066.0 136565.0 124066.0 124066.0 124066.0 124066.0 124066.0 124066.0 124066.0 136565.0 136565.0 136565.0 136565.0 136565.0 136565.0 136565.0
333868.0 336538.0 260920.0 263225.0 325182.0 321333.0 84170.0 89529.0 267337.0 265445.0 68957.0 62618.0 279643.0 285190.0 265625.0 272073.0 122474.0 114611.0 345925.0 338592.0 314666.0 322833.0 325725.0 330993.0 326384.0 332523.0 226904.0 224304.0 298855.0 298718.0 198891.0 191783.0 105318.0 113139.0 350300.0 358028.0 314613.0 310654.0 245552.0 252427.0 0.0 8282.0 60542.0 56123.0 311609.0 315794.0 204117.0 211943.0 353423.0 346432.0 154408.0 157814.0 205963.0 205042.0 232314.0 225444.0 25228.0 32458.0 302363.0 308365.0 103285.0 111265.0 332594.0 335785.0 324862.0 321365.0 203308.0 199703.0 27211.0 33350.0 311089.0 303115.0 260088.0 265228.0 40278.0 32831.0 132704.0 135981.0 43162.0 45141.0 280842.0 124149.0 280842.0 280842.0 280842.0 280842.0 280842.0 280842.0 280842.0 124149.0 124149.0 124149.0 124149.0 124149.0 124149.0 124149.0
325592.0 328271.0 252753.0 255057.0 317014.0 313166.0 76892.0 81997.0 259057.0 257163.0 62661.0 56794.0 271475.0 277023.0 257458.0 263906.0 114307.0 106444.0 337758.0 330425.0 306498.0 314665.0 317723.0 322952.0 318223.0 324349.0 218705.0 216134.0 290603.0 290449.0 190723.0 183616.0 97317.0 105102.0 342133.0 349861.0 306364.0 302424.0 237365.0 244215.0 8282.0 0.0 62504.0 57170.0 303341.0 307539.0 195910.0 203731.0 345210.0 338233.0 146241.0 149646.0 197796.0 196848.0 224146.0 217279.0 33284.0 40238.0 294295.0 300263.0 95087.0 103062.0 324427.0 327618.0 316695.0 313198.0 195140.0 191536.0 24960.0 29523.0 302911.0 294931.0 251921.0 257060.0 32013.0 24552.0 124431.0 127743.0 34974.0 36872.0 272674.0 115982.0 272674.0 272674.0 272674.0 272674.0 272674.0 272674.0 272674.0 115982.0 115982.0 115982.0 115982.0 115982.0 115982.0 115982.0
351489.0 355457.0 294987.0 298389.0 364054.0 359523.0 87943.0 95641.0 285327.0 281789.0 66796.0 59138.0 313798.0 320067.0 302930.0 309944.0 162168.0 154187.0 385848.0 378515.0 346379.0 354469.0 326258.0 332561.0 352752.0 359579.0 256922.0 252797.0 319626.0 317968.0 235661.0 228859.0 117335.0 124984.0 390186.0 397890.0 335401.0 332718.0 274748.0 282347.0 60542.0 62504.0 0.0 8235.0 330773.0 336077.0 229697.0 237039.0 361249.0 353661.0 189764.0 192242.0 234376.0 235389.0 259862.0 252097.0 54703.0 51147.0 305284.0 312277.0 121574.0 128799.0 372490.0 375535.0 364784.0 361288.0 236861.0 234821.0 41035.0 43250.0 335638.0 327549.0 290727.0 296825.0 76524.0 74284.0 152736.0 152836.0 84356.0 79828.0 320764.0 164164.0 320764.0 320764.0 320764.0 320764.0 320764.0 320764.0 320764.0 164164.0 164164.0 164164.0 164164.0 164164.0 164164.0 164164.0
343509.0 347435.0 286776.0 290195.0 355962.0 351403.0 79904.0 87582.0 277297.0 273810.0 58739.0 51018.0 305585.0 311864.0 294791.0 301823.0 154244.0 146271.0 377913.0 370580.0 338145.0 346235.0 319152.0 325391.0 344555.0 351373.0 248687.0 244565.0 311534.0 309918.0 227529.0 220741.0 109217.0 116895.0 382275.0 389988.0 327316.0 324599.0 266515.0 274113.0 56123.0 57170.0 8235.0 0.0 322732.0 328006.0 221480.0 228830.0 353718.0 346158.0 181620.0 184074.0 226143.0 227155.0 251636.0 243877.0 53717.0 51322.0 297994.0 304932.0 113360.0 120605.0 364525.0 367530.0 356850.0 353353.0 228655.0 226645.0 34353.0 35737.0 327468.0 319378.0 282493.0 288592.0 68999.0 67162.0 144539.0 144693.0 76973.0 72147.0 312829.0 156343.0 312829.0 312829.0 312829.0 312829.0 312829.0 312829.0 312829.0 156343.0 156343.0 156343.0 156343.0 156343.0 156343.0 156343.0
23321.0 24940.0 96718.0 103150.0 141546.0 133328.0 242833.0 235151.0 45476.0 49933.0 263993.0 271762.0 93419.0 98283.0 118271.0 122395.0 201751.0 207356.0 193099.0 192750.0 77883.0 79708.0 101025.0 96864.0 46449.0 53625.0 97150.0 95314.0 14913.0 12910.0 140041.0 145628.0 213687.0 205896.0 185014.0 190585.0 9945.0 16371.0 81038.0 79322.0 311609.0 303341.0 330773.0 322732.0 0.0 7913.0 109108.0 101255.0 74488.0 73643.0 167138.0 162519.0 110856.0 115294.0 86562.0 90724.0 336316.0 342445.0 86988.0 81732.0 211245.0 203461.0 168166.0 163084.0 203500.0 207489.0 125153.0 132960.0 302901.0 295971.0 30798.0 30251.0 78323.0 80972.0 271633.0 278801.0 180128.0 178611.0 268597.0 266778.0 196277.0 205896.0 196277.0 196277.0 196277.0 196277.0 196277.0 196277.0 196277.0 205896.0 205896.0 205896.0 205896.0 205896.0 205896.0 205896.0
22833.0 21661.0 94482.0 100534.0 135551.0 127389.0 248141.0 240436.0 51249.0 56372.0 269281.0 277002.0 89741.0 94134.0 115205.0 118892.0 204549.0 210353.0 187175.0 187067.0 71682.0 73022.0 107936.0 103502.0 38942.0 45947.0 98413.0 97208.0 16982.0 18567.0 140824.0 146651.0 218851.0 211115.0 178804.0 184229.0 3036.0 11021.0 81510.0 79008.0 315794.0 307539.0 336077.0 328006.0 7913.0 0.0 112479.0 104595.0 78746.0 78584.0 169750.0 165193.0 113441.0 117394.0 88433.0 93203.0 340601.0 346829.0 94577.0 89142.0 216074.0 208348.0 162280.0 157005.0 198513.0 202724.0 126496.0 134081.0 307633.0 300786.0 24747.0 25923.0 77117.0 79010.0 275941.0 283022.0 184854.0 183610.0 272710.0 271096.0 193212.0 208479.0 193212.0 193212.0 193212.0 193212.0 193212.0 193212.0 193212.0 208479.0 208479.0 208479.0 208479.0 208479.0 208479.0 208479.0
132136.0 133756.0 74692.0 80957.0 152476.0 145701.0 143187.0 135482.0 68258.0 69479.0 163687.0 170879.0 91774.0 99334.0 92717.0 100906.0 93134.0 98401.0 191281.0 186315.0 118672.0 126524.0 157321.0 159005.0 123338.0 129984.0 31813.0 25090.0 95504.0 96469.0 51677.0 52894.0 113480.0 106556.0 190346.0 198050.0 111055.0 106677.0 46469.0 54598.0 204117.0 195910.0 229697.0 221480.0 109108.0 112479.0 0.0 7886.0 164775.0 159545.0 59382.0 54612.0 12021.0 20213.0 30572.0 22472.0 229133.0 235638.0 132035.0 134199.0 108123.0 101031.0 170399.0 170152.0 182608.0 182146.0 35101.0 42654.0 197974.0 191600.0 107154.0 99127.0 63531.0 70779.0 164726.0 171519.0 77131.0 78317.0 160954.0 159937.0 147836.0 97785.0 147836.0 147836.0 147836.0 147836.0 147836.0 147836.0 147836.0 97785.0 97785.0 97785.0 97785.0 97785.0 97785.0 97785.0
124309.0 125882.0 70472.0 77156.0 148443.0 141454.0 150270.0 142548.0 60822.0 62428.0 170879.0 178137.0 86869.0 94571.0 89825.0 97983.0 100833.0 106188.0 188652.0 183967.0 112277.0 120038.0 151810.0 153213.0 115817.0 122551.0 28032.0 20407.0 87621.0 88638.0 55059.0 57166.0 120531.0 113480.0 187203.0 194842.0 103169.0 98807.0 40479.0 48705.0 211943.0 203731.0 237039.0 228830.0 101255.0 104595.0 7886.0 0.0 157743.0 152660.0 66838.0 62091.0 14403.0 22673.0 24220.0 15813.0 236944.0 243425.0 126678.0 128497.0 115476.0 108285.0 167229.0 166645.0 181330.0 181224.0 37822.0 45967.0 205610.0 199187.0 99433.0 91391.0 57709.0 65220.0 172502.0 179324.0 84352.0 85189.0 168782.0 167706.0 148365.0 105378.0 148365.0 148365.0 148365.0 148365.0 148365.0 148365.0 148365.0 105378.0 105378.0 105378.0 105378.0 105378.0 105378.0 105378.0
59719.0 67004.0 170380.0 177146.0 212984.0 204987.0 275705.0 268555.0 97637.0 95322.0 296366.0 304417.0 167906.0 172688.0 192552.0 196852.0 256317.0 260513.0 264570.0 264963.0 149204.0 149223.0 51844.0 43951.0 112937.0 117761.0 162970.0 158920.0 87626.0 80904.0 206003.0 210540.0 249232.0 241231.0 255451.0 260350.0 81782.0 89709.0 150003.0 150197.0 353423.0 345210.0 361249.0 353718.0 74488.0 78746.0 164775.0 157743.0 0.0 8118.0 223912.0 219119.0 170481.0 176901.0 150824.0 152252.0 376808.0 381939.0 60045.0 51925.0 250144.0 242160.0 239841.0 234129.0 277174.0 281459.0 189474.0 197868.0 339908.0 332325.0 103247.0 104433.0 150849.0 154470.0 313261.0 321004.0 221448.0 217529.0 311953.0 308438.0 270462.0 261626.0 270462.0 270462.0 270462.0 270462.0 270462.0 270462.0 270462.0 261626.0 261626.0 261626.0 261626.0 261626.0 261626.0 261626.0
61167.0 68919.0 168391.0 175344.0 213737.0 205657.0 268326.0 261215.0 93143.0 90280.0 288931.0 296984.0 166804.0 171880.0 190969.0 195552.0 250543.0 254588.0 265376.0 265508.0 149831.0 150290.0 44542.0 36825.0 114245.0 119491.0 159057.0 154704.0 86009.0 78862.0 201881.0 206228.0 242043.0 234050.0 256560.0 261649.0 81600.0 89387.0 146746.0 147356.0 346432.0 338233.0 353661.0 346158.0 73643.0 78584.0 159545.0 152660.0 8118.0 0.0 218478.0 213684.0 165656.0 172283.0 146771.0 147813.0 369709.0 374777.0 51929.0 43817.0 243148.0 235171.0 240553.0 235033.0 277033.0 281110.0 185166.0 193609.0 332650.0 325041.0 103299.0 103856.0 148471.0 152455.0 306312.0 314080.0 214690.0 210628.0 305120.0 301498.0 268692.0 255959.0 268692.0 268692.0 268692.0 268692.0 268692.0 268692.0 268692.0 255959.0 255959.0 255959.0 255959.0 255959.0 255959.0 255959.0
190391.0 191329.0 106570.0 109200.0 174592.0 169837.0 111481.0 104773.0 127622.0 128744.0 128746.0 134424.0 125339.0 131102.0 113173.0 120267.0 35019.0 41585.0 200641.0 193812.0 160341.0 168507.0 212817.0 215347.0 174381.0 179984.0 74212.0 73214.0 152954.0 154796.0 45947.0 39322.0 85665.0 81959.0 203644.0 211487.0 168020.0 162779.0 92994.0 99208.0 154408.0 146241.0 189764.0 181620.0 167138.0 169750.0 59382.0 66838.0 223912.0 218478.0 0.0 4794.0 56319.0 52975.0 81847.0 76547.0 179525.0 186377.0 187316.0 190480.0 75497.0 71629.0 184981.0 187272.0 182271.0 179165.0 48980.0 45452.0 153158.0 148054.0 160789.0 153116.0 106364.0 111085.0 117168.0 122737.0 54855.0 61685.0 111617.0 112771.0 138719.0 38758.0 138719.0 138719.0 138719.0 138719.0 138719.0 138719.0 138719.0 38758.0 38758.0 38758.0 38758.0 38758.0 38758.0 38758.0
185759.0 186756.0 103431.0 106323.0 172557.0 167632.0 112791.0 105924.0 122860.0 123956.0 130505.0 136370.0 122237.0 128157.0 110874.0 118114.0 39419.0 45732.0 199687.0 192983.0 156852.0 165019.0 208137.0 210632.0 170278.0 175962.0 70097.0 68851.0 148375.0 150148.0 43938.0 37650.0 86298.0 82194.0 202389.0 210245.0 163486.0 158306.0 88891.0 95251.0 157814.0 149646.0 192242.0 184074.0 162519.0 165193.0 54612.0 62091.0 219119.0 213684.0 4794.0 0.0 51753.0 48677.0 77441.0 71997.0 182930.0 189783.0 182637.0 185762.0 76519.0 72212.0 183562.0 185665.0 182031.0 179130.0 45509.0 42604.0 156073.0 150815.0 156488.0 148781.0 102557.0 107460.0 120294.0 126028.0 54180.0 60636.0 114942.0 115834.0 138832.0 43398.0 138832.0 138832.0 138832.0 138832.0 138832.0 138832.0 138832.0 43398.0 43398.0 43398.0 43398.0 43398.0 43398.0 43398.0
134134.0 135011.0 65233.0 70988.0 142457.0 135918.0 148945.0 141325.0 72976.0 75410.0 169036.0 175983.0 83023.0 90341.0 81884.0 90064.0 91131.0 97110.0 180095.0 174971.0 112307.0 120323.0 166019.0 167285.0 120429.0 126645.0 23075.0 18501.0 96635.0 98600.0 40710.0 42786.0 119468.0 112940.0 179505.0 187251.0 111739.0 106650.0 40376.0 48027.0 205963.0 197796.0 234376.0 226143.0 110856.0 113441.0 12021.0 14403.0 170481.0 165656.0 56319.0 51753.0 0.0 8448.0 26366.0 20250.0 231080.0 237814.0 140952.0 142631.0 113124.0 106441.0 159600.0 159620.0 170813.0 170256.0 23619.0 31617.0 201328.0 195244.0 105502.0 97646.0 56607.0 63258.0 167153.0 173636.0 82867.0 85057.0 162842.0 162439.0 135822.0 95068.0 135822.0 135822.0 135822.0 135822.0 135822.0 135822.0 135822.0 95068.0 95068.0 95068.0 95068.0 95068.0 95068.0 95068.0
138615.0 139044.0 61401.0 66504.0 137570.0 131303.0 150966.0 143437.0 79265.0 82234.0 170685.0 177428.0 79746.0 86758.0 76242.0 84370.0 87993.0 94404.0 173767.0 168431.0 111007.0 119115.0 173782.0 174884.0 121772.0 127640.0 21876.0 20297.0 100798.0 103335.0 32395.0 34878.0 121787.0 115594.0 173615.0 181404.0 115531.0 110028.0 40534.0 47460.0 205042.0 196848.0 235389.0 227155.0 115294.0 117394.0 20213.0 22673.0 176901.0 172283.0 52975.0 48677.0 8448.0 0.0 29023.0 24939.0 230159.0 236999.0 148817.0 150312.0 114746.0 108408.0 153785.0 154124.0 163547.0 162785.0 15185.0 23308.0 201422.0 195563.0 107820.0 100141.0 55480.0 61440.0 166667.0 172911.0 85279.0 88186.0 161988.0 162022.0 127741.0 91411.0 127741.0 127741.0 127741.0 127741.0 127741.0 127741.0 127741.0 91411.0 91411.0 91411.0 91411.0 91411.0 91411.0 91411.0
109869.0 110092.0 48172.0 55480.0 125784.0 118530.0 173664.0 165974.0 53972.0 58631.0 194070.0 201187.0 63375.0 71199.0 69702.0 77641.0 116845.0 123076.0 168132.0 164000.0 88155.0 95975.0 153017.0 153143.0 94098.0 100401.0 12599.0 8775.0 71940.0 74873.0 55182.0 59959.0 143987.0 137112.0 165784.0 173290.0 86533.0 81009.0 16317.0 24553.0 232314.0 224146.0 259862.0 251636.0 86562.0 88433.0 30572.0 24220.0 150824.0 146771.0 81847.0 77441.0 26366.0 29023.0 0.0 8440.0 257429.0 264143.0 129005.0 129285.0 138349.0 131388.0 145837.0 144703.0 163620.0 164328.0 39015.0 47220.0 227392.0 221205.0 79218.0 71419.0 33563.0 41211.0 193431.0 199960.0 107547.0 108885.0 189186.0 188701.0 135648.0 120401.0 135648.0 135648.0 135648.0 135648.0 135648.0 135648.0 135648.0 120401.0 120401.0 120401.0 120401.0 120401.0 120401.0 120401.0
114026.0 114788.0 55988.0 63084.0 133815.0 126642.0 165658.0 157953.0 54674.0 58263.0 186149.0 193323.0 71640.0 79430.0 76773.0 84816.0 111381.0 117334.0 175481.0 171161.0 96480.0 104262.0 151565.0 152134.0 101248.0 107752.0 16095.0 8418.0 76423.0 78587.0 54517.0 58454.0 135949.0 129001.0 173430.0 180983.0 91490.0 86429.0 24753.0 32989.0 225444.0 217279.0 252097.0 243877.0 90724.0 93203.0 22472.0 15813.0 152252.0 147813.0 76547.0 71997.0 20250.0 24939.0 8440.0 0.0 250549.0 257179.0 127087.0 127898.0 130535.0 123484.0 153464.0 152511.0 170008.0 170436.0 37433.0 45938.0 220021.0 213743.0 85672.0 77741.0 41999.0 49619.0 186362.0 193001.0 99596.0 100741.0 182305.0 181606.0 140215.0 115283.0 140215.0 140215.0 140215.0 140215.0 140215.0 140215.0 140215.0 115283.0 115283.0 115283.0 115283.0 115283.0 115283.0 115283.0
358460.0 361253.0 286037.0 288341.0 350298.0 346449.0 104152.0 110307.0 291860.0 289787.0 86327.0 78936.0 304759.0 310307.0 290742.0 297189.0 147591.0 139727.0 371042.0 363709.0 339782.0 347949.0 347760.0 353243.0 351507.0 357631.0 252020.0 249417.0 323680.0 323415.0 224007.0 216900.0 127821.0 135771.0 375416.0 383144.0 339457.0 335587.0 270634.0 277543.0 25228.0 33284.0 54703.0 53717.0 336316.0 340601.0 229133.0 236944.0 376808.0 369709.0 179525.0 182930.0 231080.0 230159.0 257429.0 250549.0 0.0 8022.0 324789.0 330990.0 126844.0 134839.0 357711.0 360902.0 349978.0 346482.0 228424.0 224819.0 39872.0 47798.0 336169.0 328183.0 285205.0 290344.0 64683.0 57626.0 156887.0 159764.0 68247.0 69542.0 305958.0 149265.0 305958.0 305958.0 305958.0 305958.0 305958.0 305958.0 305958.0 149265.0 149265.0 149265.0 149265.0 149265.0 149265.0 149265.0
364478.0 367384.0 292889.0 295194.0 357151.0 353302.0 108085.0 114526.0 297836.0 295616.0 89458.0 81813.0 311612.0 317159.0 297595.0 304042.0 154443.0 146580.0 377894.0 370562.0 346555.0 354722.0 352135.0 357730.0 358239.0 364424.0 258865.0 256192.0 329932.0 329538.0 230860.0 223753.0 132740.0 140729.0 382269.0 389997.0 345727.0 341959.0 277499.0 284393.0 32458.0 40238.0 51147.0 51322.0 342445.0 346829.0 235638.0 243425.0 381939.0 374777.0 186377.0 189783.0 237814.0 236999.0 264143.0 257179.0 8022.0 0.0 329386.0 335693.0 132327.0 140309.0 364564.0 367755.0 356831.0 353335.0 235277.0 231672.0 43059.0 51003.0 342742.0 334739.0 292054.0 297161.0 70942.0 64184.0 162699.0 165308.0 75015.0 75764.0 312811.0 156118.0 312811.0 312811.0 312811.0 312811.0 312811.0 312811.0 312811.0 156118.0 156118.0 156118.0 156118.0 156118.0 156118.0 156118.0
88535.0 96835.0 163637.0 171451.0 224395.0 216073.0 221755.0 214976.0 78244.0 71500.0 241850.0 249890.0 167896.0 174570.0 187772.0 194005.0 216227.0 219090.0 275041.0 273558.0 162524.0 165527.0 25501.0 28965.0 133436.0 140521.0 141516.0 135200.0 92305.0 84076.0 180850.0 183676.0 197100.0 189233.0 268280.0 274414.0 96924.0 102607.0 134722.0 138194.0 302363.0 294295.0 305284.0 297994.0 86988.0 94577.0 132035.0 126678.0 60045.0 51929.0 187316.0 182637.0 140952.0 148817.0 129005.0 127087.0 324789.0 329386.0 0.0 8242.0 199675.0 191841.0 250212.0 246009.0 280552.0 283232.0 163424.0 171894.0 286709.0 278939.0 116675.0 113531.0 142375.0 148505.0 262741.0 270654.0 173423.0 168290.0 262412.0 258025.0 262112.0 222342.0 262112.0 262112.0 262112.0 262112.0 262112.0 262112.0 262112.0 222342.0 222342.0 222342.0 222342.0 222342.0 222342.0 222342.0
81748.0 90113.0 161966.0 169691.0 220675.0 212359.0 228269.0 221406.0 77190.0 71011.0 248500.0 256548.0 165334.0 171804.0 185991.0 191993.0 220096.0 223203.0 271602.0 270352.0 158238.0 160912.0 23734.0 24880.0 128083.0 134995.0 141863.0 135854.0 88110.0 79848.0 182069.0 185186.0 203205.0 195299.0 264529.0 270528.0 91613.0 97658.0 134036.0 137051.0 308365.0 300263.0 312277.0 304932.0 81732.0 89142.0 134199.0 128497.0 51925.0 43817.0 190480.0 185762.0 142631.0 150312.0 129285.0 127898.0 330990.0 335693.0 8242.0 0.0 205448.0 197569.0 246714.0 242310.0 278041.0 280939.0 164685.0 173195.0 293119.0 285382.0 111900.0 109215.0 140761.0 146594.0 268605.0 276493.0 178654.0 173749.0 268088.0 263864.0 261115.0 226086.0 261115.0 261115.0 261115.0 261115.0 261115.0 261115.0 261115.0 226086.0 226086.0 226086.0 226086.0 226086.0 226086.0 226086.0
232827.0 236138.0 175491.0 179635.0 248213.0 242883.0 36588.0 29453.0 166172.0 163564.0 55953.0 62869.0 194150.0 200832.0 186136.0 193683.0 62146.0 56622.0 276117.0 269310.0 225396.0 233434.0 223525.0 228476.0 231242.0 238025.0 135921.0 131443.0 199364.0 198346.0 120192.0 114135.0 12001.0 14422.0 278906.0 286763.0 215193.0 212049.0 153426.0 161151.0 103285.0 95087.0 121574.0 113360.0 211245.0 216074.0 108123.0 115476.0 250144.0 243148.0 75497.0 76519.0 113124.0 114746.0 138349.0 130535.0 126844.0 132327.0 199675.0 205448.0 0.0 7996.0 260032.0 261992.0 257380.0 253956.0 118069.0 117489.0 91700.0 84728.0 214353.0 206266.0 169681.0 176060.0 63223.0 71069.0 31341.0 32994.0 62806.0 58446.0 213451.0 68145.0 213451.0 213451.0 213451.0 213451.0 213451.0 213451.0 213451.0 68145.0 68145.0 68145.0 68145.0 68145.0 68145.0 68145.0
224975.0 228340.0 169440.0 173790.0 242902.0 237417.0 42561.0 35043.0 158334.0 155658.0 62682.0 69855.0 188019.0 194812.0 180761.0 188406.0 62063.0 57363.0 271869.0 265194.0 218748.0 226755.0 215766.0 220664.0 223953.0 230795.0 129355.0 124654.0 191670.0 190568.0 115438.0 109611.0 14091.0 11601.0 274342.0 282208.0 207496.0 204433.0 146639.0 154440.0 111265.0 103062.0 128799.0 120605.0 203461.0 208348.0 101031.0 108285.0 242160.0 235171.0 71629.0 72212.0 106441.0 108408.0 131388.0 123484.0 134839.0 140309.0 191841.0 197569.0 7996.0 0.0 255314.0 257083.0 253883.0 250677.0 112418.0 112272.0 99564.0 92526.0 206919.0 198830.0 163045.0 169552.0 71170.0 78996.0 23940.0 25041.0 70579.0 66381.0 210164.0 68493.0 210164.0 210164.0 210164.0 210164.0 210164.0 210164.0 210164.0 68493.0 68493.0 68493.0 68493.0 68493.0 68493.0 68493.0
180190.0 173384.0 97712.0 90387.0 26864.0 34900.0 296350.0 289467.0 176120.0 184231.0 313649.0 319098.0 85546.0 77880.0 77721.0 69537.0 210352.0 218343.0 24949.0 25582.0 90722.0 90845.0 268070.0 264600.0 127231.0 123472.0 139200.0 146928.0 158947.0 167168.0 139885.0 145914.0 269377.0 264506.0 19976.0 27654.0 159321.0 151860.0 131082.0 123814.0 332594.0 324427.0 372490.0 364525.0 168166.0 162280.0 170399.0 167229.0 239841.0 240553.0 184981.0 183562.0 159600.0 153785.0 145837.0 153464.0 357711.0 364564.0 250212.0 246714.0 260032.0 255314.0 0.0 7962.0 45809.0 53323.0 144889.0 143471.0 333796.0 329635.0 137568.0 138397.0 116051.0 108231.0 297118.0 301604.0 234649.0 239195.0 290481.0 293131.0 88720.0 210223.0 88720.0 88720.0 88720.0 88720.0 88720.0 88720.0 88720.0 210223.0 210223.0 210223.0 210223.0 210223.0 210223.0 210223.0
174423.0 167466.0 96543.0 89514.0 21636.0 29951.0 298419.0 291445.0 172808.0 180974.0 316017.0 321607.0 83191.0 75370.0 77882.0 69777.0 213534.0 221529.0 30550.0 32605.0 85326.0 84929.0 263393.0 259747.0 121303.0 117254.0 138673.0 146265.0 154332.0 162579.0 141809.0 148040.0 271114.0 266059.0 22318.0 29070.0 154074.0 146734.0 129575.0 122082.0 335785.0 327618.0 375535.0 367530.0 163084.0 157005.0 170152.0 166645.0 234129.0 235033.0 187272.0 185665.0 159620.0 154124.0 144703.0 152511.0 360902.0 367755.0 246009.0 242310.0 261992.0 257083.0 7962.0 0.0 53745.0 61284.0 145893.0 144934.0 336957.0 332811.0 132369.0 133565.0 114038.0 106118.0 300260.0 304794.0 236044.0 240367.0 293672.0 296385.0 94953.0 213414.0 94953.0 94953.0 94953.0 94953.0 94953.0 94953.0 94953.0 213414.0 213414.0 213414.0 213414.0 213414.0 213414.0 213414.0
218249.0 212133.0 118662.0 110677.0 69149.0 75643.0 292467.0 286226.0 203411.0 211081.0 307950.0 312722.0 112709.0 106368.0 94774.0 87544.0 202620.0 210612.0 33853.0 25792.0 129057.0 130943.0 300489.0 297866.0 166606.0 163979.0 154237.0 162285.0 192449.0 200399.0 141490.0 145972.0 267886.0 264177.0 46195.0 50440.0 195485.0 187650.0 151401.0 145585.0 324862.0 316695.0 364784.0 356850.0 203500.0 198513.0 182608.0 181330.0 277174.0 277033.0 182271.0 182031.0 170813.0 163547.0 163620.0 170008.0 349978.0 356831.0 280552.0 278041.0 257380.0 253883.0 45809.0 53745.0 0.0 8285.0 151455.0 147529.0 326064.0 321901.0 173926.0 173249.0 139559.0 132665.0 289386.0 293871.0 235834.0 241575.0 282748.0 285464.0 65346.0 202490.0 65346.0 65346.0 65346.0 65346.0 65346.0 65346.0 65346.0 202490.0 202490.0 202490.0 202490.0 202490.0 202490.0 202490.0
222831.0 216901.0 120459.0 112486.0 75633.0 81739.0 288969.0 282740.0 205701.0 213249.0 304453.0 309225.0 115730.0 109731.0 96343.0 89479.0 199124.0 207115.0 42109.0 34077.0 134079.0 136349.0 303585.0 301157.0 171670.0 169332.0 154521.0 162555.0 196077.0 203936.0 139481.0 143640.0 264627.0 261125.0 54476.0 58687.0 199689.0 191799.0 152689.0 147200.0 321365.0 313198.0 361288.0 353353.0 207489.0 202724.0 182146.0 181224.0 281459.0 281110.0 179165.0 179130.0 170256.0 162785.0 164328.0 170436.0 346482.0 353335.0 283232.0 280939.0 253956.0 250677.0 53323.0 61284.0 8285.0 0.0 150229.0 145893.0 322567.0 318405.0 178260.0 177255.0 141561.0 134916.0 285889.0 290374.0 233136.0 239063.0 279252.0 281967.0 60282.0 198994.0 60282.0 60282.0 60282.0 60282.0 60282.0 60282.0 60282.0 198994.0 198994.0 198994.0 198994.0 198994.0 198994.0 198994.0
148388.0 148118.0 58164.0 61681.0 130703.0 125041.0 154640.0 147330.0 92033.0 95668.0 173573.0 179916.0 76990.0 83216.0 68571.0 76410.0 83126.0 90228.0 163699.0 157926.0 111374.0 119540.0 188245.0 189128.0 126627.0 131847.0 28084.0 30600.0 110373.0 113735.0 17433.0 21068.0 126243.0 120699.0 164474.0 172323.0 124400.0 118307.0 45970.0 51174.0 203308.0 195140.0 236861.0 228655.0 125153.0 126496.0 35101.0 37822.0 189474.0 185166.0 48980.0 45509.0 23619.0 15185.0 39015.0 37433.0 228424.0 235277.0 163424.0 164685.0 118069.0 112418.0 144889.0 145893.0 151455.0 150229.0 0.0 8532.0 201376.0 195946.0 114442.0 107146.0 57729.0 62139.0 165763.0 171537.0 90444.0 94495.0 160449.0 161273.0 113808.0 85477.0 113808.0 113808.0 113808.0 113808.0 113808.0 113808.0 113808.0 85477.0 85477.0 85477.0 85477.0 85477.0 85477.0 85477.0
156137.0 155658.0 61226.0 63761.0 130725.0 125481.0 154059.0 146906.0 100491.0 104186.0 172475.0 178573.0 79942.0 85651.0 68689.0 76194.0 78411.0 85801.0 161363.0 155276.0 115565.0 123709.0 196744.0 197650.0 132712.0 137650.0 35819.0 38949.0 118128.0 121704.0 9094.0 12746.0 126257.0 121125.0 162812.0 170680.0 131918.0 125655.0 52984.0 57507.0 199703.0 191536.0 234821.0 226645.0 132960.0 134081.0 42654.0 45967.0 197868.0 193609.0 45452.0 42604.0 31617.0 23308.0 47220.0 45938.0 224819.0 231672.0 171894.0 173195.0 117489.0 112272.0 143471.0 144934.0 147529.0 145893.0 8532.0 0.0 198585.0 193399.0 121241.0 114106.0 63372.0 67041.0 162615.0 168122.0 91179.0 95848.0 156985.0 158223.0 108260.0 80183.0 108260.0 108260.0 108260.0 108260.0 108260.0 108260.0 108260.0 80183.0 80183.0 80183.0 80183.0 80183.0 80183.0 80183.0
324527.0 327808.0 259475.0 262346.0 326272.0 322081.0 65112.0 71733.0 257872.0 255209.0 46516.0 39065.0 278292.0 284218.0 265843.0 272590.0 123475.0 115486.0 347127.0 339794.0 312171.0 320318.0 309277.0 314951.0 321256.0 327752.0 223236.0 219827.0 290859.0 289997.0 198647.0 191675.0 90801.0 98814.0 351501.0 359230.0 306689.0 303333.0 241550.0 248827.0 27211.0 24960.0 41035.0 34353.0 302901.0 307633.0 197974.0 205610.0 339908.0 332650.0 153158.0 156073.0 201328.0 201422.0 227392.0 220021.0 39872.0 43059.0 286709.0 293119.0 91700.0 99564.0 333796.0 336957.0 326064.0 322567.0 201376.0 198585.0 0.0 7962.0 305002.0 296940.0 256887.0 262534.0 36701.0 33444.0 122787.0 124575.0 43952.0 40655.0 282043.0 124850.0 282043.0 282043.0 282043.0 282043.0 282043.0 282043.0 282043.0 124850.0 124850.0 124850.0 124850.0 124850.0 124850.0 124850.0
317487.0 320860.0 254097.0 257138.0 321747.0 317411.0 57260.0 63976.0 250857.0 248082.0 38558.0 31153.0 272922.0 278959.0 261011.0 267867.0 119291.0 111298.0 342964.0 335632.0 306451.0 314588.0 301443.0 307144.0 314931.0 321495.0 217327.0 213744.0 284050.0 283073.0 193746.0 186836.0 83370.0 91377.0 347339.0 355067.0 299881.0 296627.0 235539.0 242898.0 33350.0 29523.0 43250.0 35737.0 295971.0 300786.0 191600.0 199187.0 332325.0 325041.0 148054.0 150815.0 195244.0 195563.0 221205.0 213743.0 47798.0 51003.0 278939.0 285382.0 84728.0 92526.0 329635.0 332811.0 321901.0 318405.0 195946.0 193399.0 7962.0 0.0 298508.0 290436.0 251043.0 256809.0 33285.0 31726.0 115945.0 117480.0 41243.0 36623.0 277881.0 121060.0 277881.0 277881.0 277881.0 277881.0 277881.0 277881.0 277881.0 121060.0 121060.0 121060.0 121060.0 121060.0 121060.0 121060.0
45004.0 40314.0 74135.0 79308.0 110873.0 102689.0 248119.0 240368.0 58540.0 65803.0 269056.0 276537.0 66793.0 70476.0 92990.0 95958.0 195803.0 202198.0 162478.0 162323.0 47101.0 49054.0 131737.0 127660.0 19735.0 27671.0 86923.0 87668.0 25560.0 33244.0 126928.0 133324.0 218440.0 210996.0 154249.0 159790.0 21764.0 14433.0 68479.0 63905.0 311089.0 302911.0 335638.0 327468.0 30798.0 24747.0 107154.0 99433.0 103247.0 103299.0 160789.0 156488.0 105502.0 107820.0 79218.0 85672.0 336169.0 342742.0 116675.0 111900.0 214353.0 206919.0 137568.0 132369.0 173926.0 178260.0 114442.0 121241.0 305002.0 298508.0 0.0 8090.0 59738.0 59701.0 271858.0 278587.0 183033.0 182873.0 267938.0 267077.0 170653.0 199028.0 170653.0 170653.0 170653.0 170653.0 170653.0 170653.0 170653.0 199028.0 199028.0 199028.0 199028.0 199028.0 199028.0 199028.0
48038.0 44545.0 69332.0 75032.0 111953.0 103679.0 240034.0 232283.0 51563.0 59095.0 260968.0 268448.0 63820.0 68277.0 89415.0 92981.0 188134.0 194468.0 163346.0 162768.0 49028.0 52189.0 129852.0 126211.0 26995.0 34826.0 79451.0 79933.0 21249.0 29455.0 120027.0 126313.0 210353.0 202913.0 155655.0 161470.0 22922.0 14923.0 61188.0 57050.0 303115.0 294931.0 327549.0 319378.0 30251.0 25923.0 99127.0 91391.0 104433.0 103856.0 153116.0 148781.0 97646.0 100141.0 71419.0 77741.0 328183.0 334739.0 113531.0 109215.0 206266.0 198830.0 138397.0 133565.0 173249.0 177255.0 107146.0 114106.0 296940.0 290436.0 8090.0 0.0 53548.0 54305.0 263845.0 270592.0 174945.0 174785.0 259959.0 259060.0 167380.0 191448.0 167380.0 167380.0 167380.0 167380.0 167380.0 167380.0 167380.0 191448.0 191448.0 191448.0 191448.0 191448.0 191448.0 191448.0
99949.0 97635.0 21268.0 29148.0 94123.0 86496.0 205551.0 197927.0 64305.0 71714.0 225615.0 232513.0 31013.0 38933.0 45453.0 52090.0 140829.0 147839.0 139500.0 136298.0 55716.0 63764.0 164017.0 162513.0 69451.0 74279.0 33806.0 38665.0 63842.0 69981.0 68031.0 74758.0 176049.0 169437.0 135761.0 143006.0 74461.0 67101.0 17247.0 9010.0 260088.0 251921.0 290727.0 282493.0 78323.0 77117.0 63531.0 57709.0 150849.0 148471.0 106364.0 102557.0 56607.0 55480.0 33563.0 41999.0 285205.0 292054.0 142375.0 140761.0 169681.0 163045.0 116051.0 114038.0 139559.0 141561.0 57729.0 63372.0 256887.0 251043.0 59738.0 53548.0 0.0 8006.0 221975.0 228088.0 139456.0 141396.0 217097.0 217363.0 120994.0 143177.0 120994.0 120994.0 120994.0 120994.0 120994.0 120994.0 120994.0 143177.0 143177.0 143177.0 143177.0 143177.0 143177.0 143177.0
101770.0 98823.0 15938.0 23219.0 86133.0 78492.0 212099.0 204508.0 70791.0 78417.0 232012.0 238821.0 23022.0 30938.0 39434.0 45512.0 145173.0 152351.0 131814.0 128758.0 49642.0 57785.0 169665.0 167883.0 67213.0 71337.0 40218.0 45745.0 66937.0 73626.0 70823.0 77777.0 182695.0 176198.0 127897.0 135109.0 76219.0 68559.0 24938.0 16766.0 265228.0 257060.0 296825.0 288592.0 80972.0 79010.0 70779.0 65220.0 154470.0 152455.0 111085.0 107460.0 63258.0 61440.0 41211.0 49619.0 290344.0 297161.0 148505.0 146594.0 176060.0 169552.0 108231.0 106118.0 132665.0 134916.0 62139.0 67041.0 262534.0 256809.0 59701.0 54305.0 8006.0 0.0 227361.0 233336.0 146094.0 148268.0 222296.0 222792.0 116316.0 147199.0 116316.0 116316.0 116316.0 116316.0 116316.0 116316.0 116316.0 147199.0 147199.0 147199.0 147199.0 147199.0 147199.0 147199.0
293787.0 296571.0 223701.0 226336.0 289674.0 285558.0 50080.0 53568.0 227204.0 225222.0 42740.0 40514.0 242490.0 248259.0 229448.0 236112.0 86809.0 78827.0 310449.0 303116.0 276932.0 285094.0 286371.0 291473.0 287519.0 293797.0 188541.0 185589.0 259030.0 258732.0 162355.0 155332.0 66258.0 73847.0 314823.0 322552.0 274817.0 271019.0 207066.0 214125.0 40278.0 32013.0 76524.0 68999.0 271633.0 275941.0 164726.0 172502.0 313261.0 306312.0 117168.0 120294.0 167153.0 166667.0 193431.0 186362.0 64683.0 70942.0 262741.0 268605.0 63223.0 71170.0 297118.0 300260.0 289386.0 285889.0 165763.0 162615.0 36701.0 33285.0 271858.0 263845.0 221975.0 227361.0 0.0 7987.0 92430.0 95757.0 8493.0 4870.0 245365.0 88159.0 245365.0 245365.0 245365.0 245365.0 245365.0 245365.0 245365.0 88159.0 88159.0 88159.0 88159.0 88159.0 88159.0 88159.0
301040.0 303732.0 229304.0 231746.0 294266.0 290313.0 57474.0 61277.0 234506.0 232632.0 48387.0 45112.0 248058.0 253699.0 234435.0 240970.0 91394.0 83470.0 314934.0 307602.0 282840.0 291006.0 294316.0 299400.0 294057.0 300257.0 194785.0 192025.0 266091.0 265907.0 167535.0 160458.0 74243.0 81822.0 319309.0 327037.0 281860.0 277964.0 213382.0 220341.0 32831.0 24552.0 74284.0 67162.0 278801.0 283022.0 171519.0 179324.0 321004.0 314080.0 122737.0 126028.0 173636.0 172911.0 199960.0 193001.0 57626.0 64184.0 270654.0 276493.0 71069.0 78996.0 301604.0 304794.0 293871.0 290374.0 171537.0 168122.0 33444.0 31726.0 278587.0 270592.0 228088.0 233336.0 7987.0 0.0 99974.0 103476.0 11165.0 12630.0 249851.0 92214.0 249851.0 249851.0 249851.0 249851.0 249851.0 249851.0 249851.0 92214.0 92214.0 92214.0 92214.0 92214.0 92214.0 92214.0
201894.0 205045.0 146585.0 151249.0 221145.0 215400.0 66146.0 58488.0 135224.0 132921.0 86555.0 93785.0 165022.0 171967.0 159014.0 166818.0 57329.0 55609.0 252128.0 245746.0 195117.0 203095.0 197982.0 202382.0 200016.0 206855.0 105876.0 100949.0 168106.0 167221.0 95327.0 90104.0 36602.0 30363.0 253949.0 261820.0 183936.0 180729.0 122918.0 130783.0 132704.0 124431.0 152736.0 144539.0 180128.0 184854.0 77131.0 84352.0 221448.0 214690.0 54855.0 54180.0 82867.0 85279.0 107547.0 99596.0 156887.0 162699.0 173423.0 178654.0 31341.0 23940.0 234649.0 236044.0 235834.0 233136.0 90444.0 91179.0 122787.0 115945.0 183033.0 174945.0 139456.0 146094.0 92430.0 99974.0 0.0 8078.0 90576.0 87564.0 192960.0 64459.0 192960.0 192960.0 192960.0 192960.0 192960.0 192960.0 192960.0 64459.0 64459.0 64459.0 64459.0 64459.0 64459.0 64459.0
200010.0 203463.0 149583.0 154561.0 225001.0 219063.0 65290.0 57541.0 133399.0 130635.0 86183.0 93702.0 167816.0 174924.0 162978.0 170880.0 65403.0 63584.0 257140.0 250902.0 196878.0 204780.0 192604.0 197213.0 200265.0 207258.0 108132.0 102743.0 167007.0 165732.0 100528.0 95629.0 35570.0 28300.0 258627.0 266493.0 182819.0 179939.0 124596.0 132597.0 135981.0 127743.0 152836.0 144693.0 178611.0 183610.0 78317.0 85189.0 217529.0 210628.0 61685.0 60636.0 85057.0 88186.0 108885.0 100741.0 159764.0 165308.0 168290.0 173749.0 32994.0 25041.0 239195.0 240367.0 241575.0 239063.0 94495.0 95848.0 124575.0 117480.0 182873.0 174785.0 141396.0 148268.0 95757.0 103476.0 8078.0 0.0 94548.0 90923.0 199086.0 72531.0 199086.0 199086.0 199086.0 199086.0 199086.0 199086.0 199086.0 72531.0 72531.0 72531.0 72531.0 72531.0 72531.0 72531.0
290948.0 293515.0 218176.0 220594.0 283145.0 279170.0 54664.0 57164.0 224505.0 222812.0 49819.0 48298.0 236924.0 242549.0 223274.0 229817.0 80254.0 72322.0 303812.0 296479.0 271776.0 279942.0 286327.0 291243.0 283271.0 289423.0 183856.0 181197.0 255761.0 255716.0 156371.0 149294.0 67330.0 74557.0 308186.0 315914.0 271506.0 267507.0 202484.0 209394.0 43162.0 34974.0 84356.0 76973.0 268597.0 272710.0 160954.0 168782.0 311953.0 305120.0 111617.0 114942.0 162842.0 161988.0 189186.0 182305.0 68247.0 75015.0 262412.0 268088.0 62806.0 70579.0 290481.0 293672.0 282748.0 279252.0 160449.0 156985.0 43952.0 41243.0 267938.0 259959.0 217097.0 222296.0 8493.0 11165.0 90576.0 94548.0 0.0 8428.0 238728.0 81174.0 238728.0 238728.0 238728.0 238728.0 238728.0 238728.0 238728.0 81174.0 81174.0 81174.0 81174.0 81174.0 81174.0 81174.0
288924.0 291716.0 219260.0 221965.0 285618.0 281435.0 46836.0 49846.0 222338.0 220352.0 41402.0 40091.0 238058.0 243873.0 225240.0 231956.0 82861.0 74868.0 306527.0 299194.0 272380.0 280540.0 281700.0 286774.0 282782.0 289080.0 183892.0 180886.0 254189.0 253876.0 158088.0 151091.0 61739.0 69260.0 310902.0 318630.0 269978.0 266195.0 202394.0 209482.0 45141.0 36872.0 79828.0 72147.0 266778.0 271096.0 159937.0 167706.0 308438.0 301498.0 112771.0 115834.0 162439.0 162022.0 188701.0 181606.0 69542.0 75764.0 258025.0 263864.0 58446.0 66381.0 293131.0 296385.0 285464.0 281967.0 161273.0 158223.0 40655.0 36623.0 267077.0 259060.0 217363.0 222792.0 4870.0 12630.0 87564.0 90923.0 8428.0 0.0 241444.0 84457.0 241444.0 241444.0 241444.0 241444.0 241444.0 241444.0 241444.0 84457.0 84457.0 84457.0 84457.0 84457.0 84457.0 84457.0
215326.0 210954.0 100394.0 93350.0 96105.0 97414.0 248445.0 242216.0 183973.0 190633.0 263929.0 268701.0 103862.0 100912.0 78028.0 74759.0 158600.0 166591.0 92852.0 84514.0 134550.0 139846.0 284593.0 283373.0 169876.0 169977.0 124185.0 131866.0 182844.0 189830.0 100929.0 104309.0 224102.0 220667.0 101167.0 107939.0 190251.0 182282.0 127471.0 124066.0 280842.0 272674.0 320764.0 312829.0 196277.0 193212.0 147836.0 148365.0 270462.0 268692.0 138719.0 138832.0 135822.0 127741.0 135648.0 140215.0 305958.0 312811.0 262112.0 261115.0 213451.0 210164.0 88720.0 94953.0 65346.0 60282.0 113808.0 108260.0 282043.0 277881.0 170653.0 167380.0 120994.0 116316.0 245365.0 249851.0 192960.0 199086.0 238728.0 241444.0 0.0 158470.0 0.0 0.0 0.0 0.0 0.0 0.0 0.0 158470.0 158470.0 158470.0 158470.0 158470.0 158470.0 158470.0
229147.0 230070.0 140747.0 142168.0 202888.0 198964.0 97988.0 93095.0 166018.0 166783.0 110557.0 114448.0 159119.0 164086.0 143376.0 149722.0 7151.0 11757.0 223554.0 216221.0 195588.0 203707.0 247775.0 250835.0 212006.0 217317.0 112154.0 111706.0 191700.0 193544.0 77703.0 70508.0 80125.0 80081.0 227928.0 235656.0 206726.0 201399.0 130820.0 136565.0 124149.0 115982.0 164164.0 156343.0 205896.0 208479.0 97785.0 105378.0 261626.0 255959.0 38758.0 43398.0 95068.0 91411.0 120401.0 115283.0 149265.0 156118.0 222342.0 226086.0 68145.0 68493.0 210223.0 213414.0 202490.0 198994.0 85477.0 80183.0 124850.0 121060.0 199028.0 191448.0 143177.0 147199.0 88159.0 92214.0 64459.0 72531.0 81174.0 84457.0 158470.0 0.0 158470.0 158470.0 158470.0 158470.0 158470.0 158470.0 158470.0 0.0 0.0 0.0 0.0 0.0 0.0 0.0
215326.0 210954.0 100394.0 93350.0 96105.0 97414.0 248445.0 242216.0 183973.0 190633.0 263929.0 268701.0 103862.0 100912.0 78028.0 74759.0 158600.0 166591.0 92852.0 84514.0 134550.0 139846.0 284593.0 283373.0 169876.0 169977.0 124185.0 131866.0 182844.0 189830.0 100929.0 104309.0 224102.0 220667.0 101167.0 107939.0 190251.0 182282.0 127471.0 124066.0 280842.0 272674.0 320764.0 312829.0 196277.0 193212.0 147836.0 148365.0 270462.0 268692.0 138719.0 138832.0 135822.0 127741.0 135648.0 140215.0 305958.0 312811.0 262112.0 261115.0 213451.0 210164.0 88720.0 94953.0 65346.0 60282.0 113808.0 108260.0 282043.0 277881.0 170653.0 167380.0 120994.0 116316.0 245365.0 249851.0 192960.0 199086.0 238728.0 241444.0 0.0 158470.0 0.0 0.0 0.0 0.0 0.0 0.0 0.0 158470.0 158470.0 158470.0 158470.0 158470.0 158470.0 158470.0
215326.0 210954.0 100394.0 93350.0 96105.0 97414.0 248445.0 242216.0 183973.0 190633.0 263929.0 268701.0 103862.0 100912.0 78028.0 74759.0 158600.0 166591.0 92852.0 84514.0 134550.0 139846.0 284593.0 283373.0 169876.0 169977.0 124185.0 131866.0 182844.0 189830.0 100929.0 104309.0 224102.0 220667.0 101167.0 107939.0 190251.0 182282.0 127471.0 124066.0 280842.0 272674.0 320764.0 312829.0 196277.0 193212.0 147836.0 148365.0 270462.0 268692.0 138719.0 138832.0 135822.0 127741.0 135648.0 140215.0 305958.0 312811.0 262112.0 261115.0 213451.0 210164.0 88720.0 94953.0 65346.0 60282.0 113808.0 108260.0 282043.0 277881.0 170653.0 167380.0 120994.0 116316.0 245365.0 249851.0 192960.0 199086.0 238728.0 241444.0 0.0 158470.0 0.0 0.0 0.0 0.0 0.0 0.0 0.0 158470.0 158470.0 158470.0 158470.0 158470.0 158470.0 158470.0
215326.0 210954.0 100394.0 93350.0 96105.0 97414.0 248445.0 242216.0 183973.0 190633.0 263929.0 268701.0 103862.0 100912.0 78028.0 74759.0 158600.0 166591.0 92852.0 84514.0 134550.0 139846.0 284593.0 283373.0 169876.0 169977.0 124185.0 131866.0 182844.0 189830.0 100929.0 104309.0 224102.0 220667.0 101167.0 107939.0 190251.0 182282.0 127471.0 124066.0 280842.0 272674.0 320764.0 312829.0 196277.0 193212.0 147836.0 148365.0 270462.0 268692.0 138719.0 138832.0 135822.0 127741.0 135648.0 140215.0 305958.0 312811.0 262112.0 261115.0 213451.0 210164.0 88720.0 94953.0 65346.0 60282.0 113808.0 108260.0 282043.0 277881.0 170653.0 167380.0 120994.0 116316.0 245365.0 249851.0 192960.0 199086.0 238728.0 241444.0 0.0 158470.0 0.0 0.0 0.0 0.0 0.0 0.0 0.0 158470.0 158470.0 158470.0 158470.0 158470.0 158470.0 158470.0
215326.0 210954.0 100394.0 93350.0 96105.0 97414.0 248445.0 242216.0 183973.0 190633.0 263929.0 268701.0 103862.0 100912.0 78028.0 74759.0 158600.0 166591.0 92852.0 84514.0 134550.0 139846.0 284593.0 283373.0 169876.0 169977.0 124185.0 131866.0 182844.0 189830.0 100929.0 104309.0 224102.0 220667.0 101167.0 107939.0 190251.0 182282.0 127471.0 124066.0 280842.0 272674.0 320764.0 312829.0 196277.0 193212.0 147836.0 148365.0 270462.0 268692.0 138719.0 138832.0 135822.0 127741.0 135648.0 140215.0 305958.0 312811.0 262112.0 261115.0 213451.0 210164.0 88720.0 94953.0 65346.0 60282.0 113808.0 108260.0 282043.0 277881.0 170653.0 167380.0 120994.0 116316.0 245365.0 249851.0 192960.0 199086.0 238728.0 241444.0 0.0 158470.0 0.0 0.0 0.0 0.0 0.0 0.0 0.0 158470.0 158470.0 158470.0 158470.0 158470.0 158470.0 158470.0
215326.0 210954.0 100394.0 93350.0 96105.0 97414.0 248445.0 242216.0 183973.0 190633.0 263929.0 268701.0 103862.0 100912.0 78028.0 74759.0 158600.0 166591.0 92852.0 84514.0 134550.0 139846.0 284593.0 283373.0 169876.0 169977.0 124185.0 131866.0 182844.0 189830.0 100929.0 104309.0 224102.0 220667.0 101167.0 107939.0 190251.0 182282.0 127471.0 124066.0 280842.0 272674.0 320764.0 312829.0 196277.0 193212.0 147836.0 148365.0 270462.0 268692.0 138719.0 138832.0 135822.0 127741.0 135648.0 140215.0 305958.0 312811.0 262112.0 261115.0 213451.0 210164.0 88720.0 94953.0 65346.0 60282.0 113808.0 108260.0 282043.0 277881.0 170653.0 167380.0 120994.0 116316.0 245365.0 249851.0 192960.0 199086.0 238728.0 241444.0 0.0 158470.0 0.0 0.0 0.0 0.0 0.0 0.0 0.0 158470.0 158470.0 158470.0 158470.0 158470.0 158470.0 158470.0
215326.0 210954.0 100394.0 93350.0 96105.0 97414.0 248445.0 242216.0 183973.0 190633.0 263929.0 268701.0 103862.0 100912.0 78028.0 74759.0 158600.0 166591.0 92852.0 84514.0 134550.0 139846.0 284593.0 283373.0 169876.0 169977.0 124185.0 131866.0 182844.0 189830.0 100929.0 104309.0 224102.0 220667.0 101167.0 107939.0 190251.0 182282.0 127471.0 124066.0 280842.0 272674.0 320764.0 312829.0 196277.0 193212.0 147836.0 148365.0 270462.0 268692.0 138719.0 138832.0 135822.0 127741.0 135648.0 140215.0 305958.0 312811.0 262112.0 261115.0 213451.0 210164.0 88720.0 94953.0 65346.0 60282.0 113808.0 108260.0 282043.0 277881.0 170653.0 167380.0 120994.0 116316.0 245365.0 249851.0 192960.0 199086.0 238728.0 241444.0 0.0 158470.0 0.0 0.0 0.0 0.0 0.0 0.0 0.0 158470.0 158470.0 158470.0 158470.0 158470.0 158470.0 158470.0
215326.0 210954.0 100394.0 93350.0 96105.0 97414.0 248445.0 242216.0 183973.0 190633.0 263929.0 268701.0 103862.0 100912.0 78028.0 74759.0 158600.0 166591.0 92852.0 84514.0 134550.0 139846.0 284593.0 283373.0 169876.0 169977.0 124185.0 131866.0 182844.0 189830.0 100929.0 104309.0 224102.0 220667.0 101167.0 107939.0 190251.0 182282.0 127471.0 124066.0 280842.0 272674.0 320764.0 312829.0 196277.0 193212.0 147836.0 148365.0 270462.0 268692.0 138719.0 138832.0 135822.0 127741.0 135648.0 140215.0 305958.0 312811.0 262112.0 261115.0 213451.0 210164.0 88720.0 94953.0 65346.0 60282.0 113808.0 108260.0 282043.0 277881.0 170653.0 167380.0 120994.0 116316.0 245365.0 249851.0 192960.0 199086.0 238728.0 241444.0 0.0 158470.0 0.0 0.0 0.0 0.0 0.0 0.0 0.0 158470.0 158470.0 158470.0 158470.0 158470.0 158470.0 158470.0
229147.0 230070.0 140747.0 142168.0 202888.0 198964.0 97988.0 93095.0 166018.0 166783.0 110557.0 114448.0 159119.0 164086.0 143376.0 149722.0 7151.0 11757.0 223554.0 216221.0 195588.0 203707.0 247775.0 250835.0 212006.0 217317.0 112154.0 111706.0 191700.0 193544.0 77703.0 70508.0 80125.0 80081.0 227928.0 235656.0 206726.0 201399.0 130820.0 136565.0 124149.0 115982.0 164164.0 156343.0 205896.0 208479.0 97785.0 105378.0 261626.0 255959.0 38758.0 43398.0 95068.0 91411.0 120401.0 115283.0 149265.0 156118.0 222342.0 226086.0 68145.0 68493.0 210223.0 213414.0 202490.0 198994.0 85477.0 80183.0 124850.0 121060.0 199028.0 191448.0 143177.0 147199.0 88159.0 92214.0 64459.0 72531.0 81174.0 84457.0 158470.0 0.0 158470.0 158470.0 158470.0 158470.0 158470.0 158470.0 158470.0 0.0 0.0 0.0 0.0 0.0 0.0 0.0
229147.0 230070.0 140747.0 142168.0 202888.0 198964.0 97988.0 93095.0 166018.0 166783.0 110557.0 114448.0 159119.0 164086.0 143376.0 149722.0 7151.0 11757.0 223554.0 216221.0 195588.0 203707.0 247775.0 250835.0 212006.0 217317.0 112154.0 111706.0 191700.0 193544.0 77703.0 70508.0 80125.0 80081.0 227928.0 235656.0 206726.0 201399.0 130820.0 136565.0 124149.0 115982.0 164164.0 156343.0 205896.0 208479.0 97785.0 105378.0 261626.0 255959.0 38758.0 43398.0 95068.0 91411.0 120401.0 115283.0 149265.0 156118.0 222342.0 226086.0 68145.0 68493.0 210223.0 213414.0 202490.0 198994.0 85477.0 80183.0 124850.0 121060.0 199028.0 191448.0 143177.0 147199.0 88159.0 92214.0 64459.0 72531.0 81174.0 84457.0 158470.0 0.0 158470.0 158470.0 158470.0 158470.0 158470.0 158470.0 158470.0 0.0 0.0 0.0 0.0 0.0 0.0 0.0
229147.0 230070.0 140747.0 142168.0 202888.0 198964.0 97988.0 93095.0 166018.0 166783.0 110557.0 114448.0 159119.0 164086.0 143376.0 149722.0 7151.0 11757.0 223554.0 216221.0 195588.0 203707.0 247775.0 250835.0 212006.0 217317.0 112154.0 111706.0 191700.0 193544.0 77703.0 70508.0 80125.0 80081.0 227928.0 235656.0 206726.0 201399.0 130820.0 136565.0 124149.0 115982.0 164164.0 156343.0 205896.0 208479.0 97785.0 105378.0 261626.0 255959.0 38758.0 43398.0 95068.0 91411.0 120401.0 115283.0 149265.0 156118.0 222342.0 226086.0 68145.0 68493.0 210223.0 213414.0 202490.0 198994.0 85477.0 80183.0 124850.0 121060.0 199028.0 191448.0 143177.0 147199.0 88159.0 92214.0 64459.0 72531.0 81174.0 84457.0 158470.0 0.0 158470.0 158470.0 158470.0 158470.0 158470.0 158470.0 158470.0 0.0 0.0 0.0 0.0 0.0 0.0 0.0
229147.0 230070.0 140747.0 142168.0 202888.0 198964.0 97988.0 93095.0 166018.0 166783.0 110557.0 114448.0 159119.0 164086.0 143376.0 149722.0 7151.0 11757.0 223554.0 216221.0 195588.0 203707.0 247775.0 250835.0 212006.0 217317.0 112154.0 111706.0 191700.0 193544.0 77703.0 70508.0 80125.0 80081.0 227928.0 235656.0 206726.0 201399.0 130820.0 136565.0 124149.0 115982.0 164164.0 156343.0 205896.0 208479.0 97785.0 105378.0 261626.0 255959.0 38758.0 43398.0 95068.0 91411.0 120401.0 115283.0 149265.0 156118.0 222342.0 226086.0 68145.0 68493.0 210223.0 213414.0 202490.0 198994.0 85477.0 80183.0 124850.0 121060.0 199028.0 191448.0 143177.0 147199.0 88159.0 92214.0 64459.0 72531.0 81174.0 84457.0 158470.0 0.0 158470.0 158470.0 158470.0 158470.0 158470.0 158470.0 158470.0 0.0 0.0 0.0 0.0 0.0 0.0 0.0
229147.0 230070.0 140747.0 142168.0 202888.0 198964.0 97988.0 93095.0 166018.0 166783.0 110557.0 114448.0 159119.0 164086.0 143376.0 149722.0 7151.0 11757.0 223554.0 216221.0 195588.0 203707.0 247775.0 250835.0 212006.0 217317.0 112154.0 111706.0 191700.0 193544.0 77703.0 70508.0 80125.0 80081.0 227928.0 235656.0 206726.0 201399.0 130820.0 136565.0 124149.0 115982.0 164164.0 156343.0 205896.0 208479.0 97785.0 105378.0 261626.0 255959.0 38758.0 43398.0 95068.0 91411.0 120401.0 115283.0 149265.0 156118.0 222342.0 226086.0 68145.0 68493.0 210223.0 213414.0 202490.0 198994.0 85477.0 80183.0 124850.0 121060.0 199028.0 191448.0 143177.0 147199.0 88159.0 92214.0 64459.0 72531.0 81174.0 84457.0 158470.0 0.0 158470.0 158470.0 158470.0 158470.0 158470.0 158470.0 158470.0 0.0 0.0 0.0 0.0 0.0 0.0 0.0
229147.0 230070.0 140747.0 142168.0 202888.0 198964.0 97988.0 93095.0 166018.0 166783.0 110557.0 114448.0 159119.0 164086.0 143376.0 149722.0 7151.0 11757.0 223554.0 216221.0 195588.0 203707.0 247775.0 250835.0 212006.0 217317.0 112154.0 111706.0 191700.0 193544.0 77703.0 70508.0 80125.0 80081.0 227928.0 235656.0 206726.0 201399.0 130820.0 136565.0 124149.0 115982.0 164164.0 156343.0 205896.0 208479.0 97785.0 105378.0 261626.0 255959.0 38758.0 43398.0 95068.0 91411.0 120401.0 115283.0 149265.0 156118.0 222342.0 226086.0 68145.0 68493.0 210223.0 213414.0 202490.0 198994.0 85477.0 80183.0 124850.0 121060.0 199028.0 191448.0 143177.0 147199.0 88159.0 92214.0 64459.0 72531.0 81174.0 84457.0 158470.0 0.0 158470.0 158470.0 158470.0 158470.0 158470.0 158470.0 158470.0 0.0 0.0 0.0 0.0 0.0 0.0 0.0
229147.0 230070.0 140747.0 142168.0 202888.0 198964.0 97988.0 93095.0 166018.0 166783.0 110557.0 114448.0 159119.0 164086.0 143376.0 149722.0 7151.0 11757.0 223554.0 216221.0 195588.0 203707.0 247775.0 250835.0 212006.0 217317.0 112154.0 111706.0 191700.0 193544.0 77703.0 70508.0 80125.0 80081.0 227928.0 235656.0 206726.0 201399.0 130820.0 136565.0 124149.0 115982.0 164164.0 156343.0 205896.0 208479.0 97785.0 105378.0 261626.0 255959.0 38758.0 43398.0 95068.0 91411.0 120401.0 115283.0 149265.0 156118.0 222342.0 226086.0 68145.0 68493.0 210223.0 213414.0 202490.0 198994.0 85477.0 80183.0 124850.0 121060.0 199028.0 191448.0 143177.0 147199.0 88159.0 92214.0 64459.0 72531.0 81174.0 84457.0 158470.0 0.0 158470.0 158470.0 158470.0 158470.0 158470.0 158470.0 158470.0 0.0 0.0 0.0 0.0 0.0 0.0 0.0
FIXED_EDGES_SECTION
1 2
3 4
5 6
7 8
9 10
11 12
13 14
15 16
17 18
19 20
21 22
23 24
25 26
27 28
29 30
31 32
33 34
35 36
37 38
39 40
41 42
43 44
45 46
47 48
49 50
51 52
53 54
55 56
57 58
59 60
61 62
63 64
65 66
67 68
69 70
71 72
73 74
75 76
77 78
79 80
-1 
DEMAND_SECTION
1 76
2 76
3 119
4 119
5 375
6 375
7 244
8 244
9 112
10 112
11 350
12 350
13 353
14 353
15 394
16 394
17 37
18 37
19 251
20 251
21 247
22 247
23 120
24 120
25 224
26 224
27 380
28 380
29 74
30 74
31 75
32 75
33 336
34 336
35 316
36 316
37 186
38 186
39 89
40 89
41 224
42 224
43 421
44 421
45 72
46 72
47 291
48 291
49 542
50 542
51 399
52 399
53 119
54 119
55 279
56 279
57 280
58 280
59 234
60 234
61 319
62 319
63 274
64 274
65 369
66 369
67 358
68 358
69 322
70 322
71 479
72 479
73 541
74 541
75 184
76 184
77 84
78 84
79 534
80 534
81 0
82 0
83 0
84 0
85 0
86 0
87 0
88 0
89 0
90 0
91 0
92 0
93 0
94 0
95 0
96 0
DEPOT_SECTION
81 
-1 
CAPACITIES_SECTION
2500 
2750 
3000 
3250 
-1 
EOF