NAME: GFS_20_1
TYPE: GFSP
DIMENSION: 54
VEHICLES: 3
CAPACITY: 1250.0
TRIP_DIST_LIMIT: 600000.0
TOTAL_DIST_LIMIT: 1400000.0
EDGE_WEIGHT_TYPE: EXPLICIT
EDGE_WEIGHT_FORMAT: FULL_MATRIX
EDGE_WEIGHT_SECTION
0.0 8030.0 223871.0 221688.0 158540.0 161219.0 253761.0 253178.0 150875.0 156641.0 146002.0 141731.0 345738.0 347586.0 262840.0 266372.0 41968.0 42802.0 161836.0 163013.0 138735.0 140452.0 134772.0 132179.0 191373.0 184577.0 162910.0 154439.0 135138.0 129713.0 102784.0 109242.0 214328.0 215108.0 245843.0 251443.0 281630.0 289383.0 100349.0 105878.0 250648.0 231534.0 250648.0 250648.0 250648.0 250648.0 250648.0 250648.0 231534.0 231534.0 231534.0 231534.0 231534.0 231534.0
8030.0 0.0 221955.0 219502.0 154658.0 156996.0 252015.0 251169.0 147738.0 153763.0 138535.0 134416.0 337709.0 339561.0 260112.0 263429.0 37740.0 39976.0 157664.0 158507.0 137562.0 139734.0 130070.0 127123.0 189388.0 182400.0 158267.0 149854.0 128642.0 123010.0 100609.0 107421.0 207104.0 207755.0 244439.0 250213.0 273648.0 281407.0 100918.0 105925.0 246410.0 224138.0 246410.0 246410.0 246410.0 246410.0 246410.0 246410.0 224138.0 224138.0 224138.0 224138.0 224138.0 224138.0
223871.0 221955.0 0.0 8072.0 82529.0 86681.0 30421.0 29401.0 79211.0 71636.0 182191.0 175230.0 359125.0 357185.0 46234.0 53171.0 185544.0 182026.0 85338.0 91250.0 86385.0 87043.0 111816.0 119190.0 32589.0 40015.0 94212.0 97578.0 148871.0 155912.0 121360.0 114634.0 184552.0 192329.0 26955.0 34698.0 290320.0 294806.0 130869.0 123007.0 83749.0 203425.0 83749.0 83749.0 83749.0 83749.0 83749.0 83749.0 203425.0 203425.0 203425.0 203425.0 203425.0 203425.0
221688.0 219502.0 8072.0 0.0 76789.0 80466.0 34958.0 32042.0 74848.0 67525.0 175458.0 168601.0 351171.0 349231.0 44279.0 50408.0 182741.0 179527.0 79141.0 84728.0 85491.0 86903.0 106360.0 113595.0 30688.0 37114.0 87604.0 91381.0 142547.0 149717.0 118938.0 112535.0 176631.0 184429.0 33823.0 41680.0 282366.0 286852.0 130548.0 122490.0 76242.0 195471.0 76242.0 76242.0 76242.0 76242.0 76242.0 76242.0 195471.0 195471.0 195471.0 195471.0 195471.0 195471.0
158540.0 154658.0 82529.0 76789.0 0.0 8151.0 111706.0 107822.0 17385.0 21545.0 101887.0 94456.0 296908.0 295089.0 109645.0 111468.0 116924.0 115915.0 7295.0 15040.0 55523.0 63216.0 29792.0 36829.0 55380.0 47290.0 18189.0 16529.0 67109.0 73761.0 62114.0 60115.0 122399.0 128871.0 109345.0 116901.0 226851.0 232238.0 90617.0 82458.0 92538.0 142547.0 92538.0 92538.0 92538.0 92538.0 92538.0 92538.0 142547.0 142547.0 142547.0 142547.0 142547.0 142547.0
161219.0 156996.0 86681.0 80466.0 8151.0 0.0 115145.0 110757.0 25430.0 29626.0 96176.0 88943.0 289005.0 287158.0 110726.0 111953.0 119363.0 118877.0 1363.0 6914.0 63496.0 71253.0 28652.0 34663.0 61281.0 53425.0 10149.0 10915.0 62198.0 69261.0 67486.0 66212.0 114360.0 120892.0 113624.0 121299.0 219013.0 224343.0 97305.0 89286.0 89435.0 134468.0 89435.0 89435.0 89435.0 89435.0 89435.0 89435.0 134468.0 134468.0 134468.0 134468.0 134468.0 134468.0
253761.0 252015.0 30421.0 34958.0 111706.0 115145.0 0.0 8543.0 109464.0 101966.0 209293.0 202626.0 379254.0 377313.0 33853.0 42109.0 215791.0 212135.0 113835.0 119102.0 115563.0 115422.0 141313.0 148526.0 62876.0 70430.0 121859.0 126049.0 177015.0 184303.0 151494.0 144607.0 205059.0 213061.0 13306.0 16595.0 310449.0 314934.0 159129.0 151551.0 92852.0 223554.0 92852.0 92852.0 92852.0 92852.0 92852.0 92852.0 223554.0 223554.0 223554.0 223554.0 223554.0 223554.0
253178.0 251169.0 29401.0 32042.0 107822.0 110757.0 8543.0 0.0 106834.0 99559.0 203906.0 197389.0 371921.0 369981.0 25792.0 34077.0 214583.0 211214.0 109475.0 114350.0 115760.0 116221.0 137577.0 144624.0 61806.0 68855.0 116988.0 121610.0 172218.0 179638.0 150560.0 143938.0 197759.0 205793.0 20429.0 24950.0 303116.0 307602.0 160049.0 152267.0 84514.0 216221.0 84514.0 84514.0 84514.0 84514.0 84514.0 84514.0 216221.0 216221.0 216221.0 216221.0 216221.0 216221.0
150875.0 147738.0 79211.0 74848.0 17385.0 25430.0 109464.0 106834.0 0.0 7924.0 112741.0 104984.0 312725.0 311017.0 112709.0 115730.0 110202.0 108089.0 24671.0 32174.0 38148.0 45835.0 35697.0 43474.0 48370.0 40105.0 35122.0 31185.0 76975.0 82618.0 50138.0 46485.0 138827.0 145069.0 105084.0 112221.0 242490.0 248058.0 75234.0 66863.0 103862.0 159119.0 103862.0 103862.0 103862.0 103862.0 103862.0 103862.0 159119.0 159119.0 159119.0 159119.0 159119.0 159119.0
156641.0 153763.0 71636.0 67525.0 21545.0 29626.0 101966.0 99559.0 7924.0 0.0 120169.0 112460.0 318372.0 316525.0 106368.0 109731.0 116406.0 113940.0 28608.0 36540.0 36383.0 43420.0 43464.0 51240.0 40506.0 32267.0 39729.0 37098.0 84507.0 90299.0 54772.0 50174.0 143944.0 150397.0 97331.0 104419.0 248259.0 253699.0 76955.0 68450.0 100912.0 164086.0 100912.0 100912.0 100912.0 100912.0 100912.0 100912.0 164086.0 164086.0 164086.0 164086.0 164086.0 164086.0
146002.0 138535.0 182191.0 175458.0 101887.0 96176.0 209293.0 203906.0 112741.0 120169.0 0.0 7999.0 214654.0 214693.0 198399.0 197283.0 112858.0 118529.0 97539.0 91032.0 140268.0 148120.0 77610.0 70059.0 157230.0 149175.0 88000.0 85589.0 35926.0 31883.0 114216.0 120115.0 69686.0 69463.0 209110.0 216888.0 145324.0 152361.0 147454.0 143281.0 160498.0 85675.0 160498.0 160498.0 160498.0 160498.0 160498.0 160498.0 85675.0 85675.0 85675.0 85675.0 85675.0 85675.0
141731.0 134416.0 175230.0 168601.0 94456.0 88943.0 202626.0 197389.0 104984.0 112460.0 7999.0 0.0 222055.0 221979.0 192525.0 191644.0 107338.0 112717.0 90305.0 83989.0 132272.0 140122.0 69739.0 62154.0 149832.0 141738.0 81023.0 78263.0 28058.0 23896.0 106403.0 112226.0 72790.0 73388.0 202172.0 209926.0 152509.0 159455.0 139799.0 135515.0 155671.0 89876.0 155671.0 155671.0 155671.0 155671.0 155671.0 155671.0 89876.0 89876.0 89876.0 89876.0 89876.0 89876.0
345738.0 337709.0 359125.0 351171.0 296908.0 289005.0 379254.0 371921.0 312725.0 318372.0 214654.0 222055.0 0.0 7961.0 358191.0 354694.0 321983.0 328830.0 290151.0 282155.0 347363.0 355526.0 283243.0 277082.0 344912.0 338563.0 278861.0 281549.0 245908.0 244852.0 327552.0 332620.0 175242.0 168264.0 383628.0 391357.0 70449.0 64675.0 361582.0 356821.0 314170.0 157477.0 314170.0 314170.0 314170.0 314170.0 314170.0 314170.0 157477.0 157477.0 157477.0 157477.0 157477.0 157477.0
347586.0 339561.0 357185.0 349231.0 295089.0 287158.0 377313.0 369981.0 311017.0 316525.0 214693.0 221979.0 7961.0 0.0 356250.0 352754.0 323027.0 329770.0 288294.0 280295.0 346025.0 354192.0 282076.0 276051.0 343013.0 336634.0 277010.0 279832.0 245315.0 244518.0 327022.0 331933.0 173303.0 166344.0 381688.0 389416.0 69625.0 63242.0 361205.0 356289.0 312230.0 155537.0 312230.0 312230.0 312230.0 312230.0 312230.0 312230.0 155537.0 155537.0 155537.0 155537.0 155537.0 155537.0
262840.0 260112.0 46234.0 44279.0 109645.0 110726.0 33853.0 25792.0 112709.0 106368.0 198399.0 192525.0 358191.0 356250.0 0.0 8285.0 222768.0 220236.0 109586.0 112875.0 129057.0 130943.0 139052.0 145387.0 74315.0 79578.0 114985.0 121052.0 169329.0 177125.0 160259.0 154462.0 184055.0 192155.0 46195.0 50440.0 289386.0 293871.0 174373.0 166194.0 65346.0 202490.0 65346.0 65346.0 65346.0 65346.0 65346.0 65346.0 202490.0 202490.0 202490.0 202490.0 202490.0 202490.0
266372.0 263429.0 53171.0 50408.0 111468.0 111953.0 42109.0 34077.0 115730.0 109731.0 197283.0 191644.0 354694.0 352754.0 8285.0 0.0 225931.0 223661.0 110871.0 113615.0 134079.0 136349.0 140501.0 146566.0 79676.0 84393.0 115532.0 122004.0 169196.0 177079.0 164087.0 158560.0 180558.0 188658.0 54476.0 58687.0 285889.0 290374.0 179494.0 171228.0 60282.0 198994.0 60282.0 60282.0 60282.0 60282.0 60282.0 60282.0 198994.0 198994.0 198994.0 198994.0 198994.0 198994.0
41968.0 37740.0 185544.0 182741.0 116924.0 119363.0 215791.0 214583.0 110202.0 116406.0 112858.0 107338.0 321983.0 323027.0 222768.0 225931.0 0.0 8039.0 120008.0 121058.0 102900.0 106099.0 92808.0 90348.0 152960.0 145729.0 120942.0 112474.0 96248.0 91781.0 64443.0 71814.0 178369.0 180069.0 208771.0 214834.0 255006.0 262476.0 72280.0 75277.0 208797.0 196710.0 208797.0 208797.0 208797.0 208797.0 208797.0 208797.0 196710.0 196710.0 196710.0 196710.0 196710.0 196710.0
42802.0 39976.0 182026.0 179527.0 115915.0 118877.0 212135.0 211214.0 108089.0 113940.0 118529.0 112717.0 328830.0 329770.0 220236.0 223661.0 8039.0 0.0 119440.0 121017.0 98211.0 100936.0 93221.0 91411.0 149449.0 142429.0 121123.0 112591.0 100016.0 96046.0 60666.0 67621.0 182967.0 184950.0 204739.0 210633.0 261524.0 268943.0 65444.0 68958.0 208225.0 201614.0 208225.0 208225.0 208225.0 208225.0 208225.0 208225.0 201614.0 201614.0 201614.0 201614.0 201614.0 201614.0
161836.0 157664.0 85338.0 79141.0 7295.0 1363.0 113835.0 109475.0 24671.0 28608.0 97539.0 90305.0 290151.0 288294.0 109586.0 110871.0 120008.0 119440.0 0.0 7999.0 62794.0 70506.0 29667.0 35804.0 59926.0 52079.0 11298.0 12245.0 63545.0 70594.0 67580.0 66141.0 115445.0 122010.0 112279.0 119951.0 220181.0 225493.0 97095.0 89034.0 88814.0 135524.0 88814.0 88814.0 88814.0 88814.0 88814.0 88814.0 135524.0 135524.0 135524.0 135524.0 135524.0 135524.0
163013.0 158507.0 91250.0 84728.0 15040.0 6914.0 119102.0 114350.0 32174.0 36540.0 91032.0 83989.0 282155.0 280295.0 112875.0 113615.0 121058.0 121017.0 7999.0 0.0 70108.0 77931.0 28676.0 33460.0 67110.0 59430.0 3353.0 8819.0 57915.0 65288.0 71876.0 71198.0 107457.0 114011.0 118199.0 125942.0 212196.0 217498.0 102686.0 94804.0 88170.0 127556.0 88170.0 88170.0 88170.0 88170.0 88170.0 88170.0 127556.0 127556.0 127556.0 127556.0 127556.0 127556.0
138735.0 137562.0 86385.0 85491.0 55523.0 63496.0 115563.0 115760.0 38148.0 36383.0 140268.0 132272.0 347363.0 346025.0 129057.0 134079.0 102900.0 98211.0 62794.0 70108.0 0.0 8167.0 64400.0 71167.0 54856.0 49713.0 72889.0 67722.0 104764.0 108496.0 39479.0 31479.0 175118.0 180933.0 107151.0 112713.0 276932.0 282840.0 45435.0 37153.0 134550.0 195588.0 134550.0 134550.0 134550.0 134550.0 134550.0 134550.0 195588.0 195588.0 195588.0 195588.0 195588.0 195588.0
140452.0 139734.0 87043.0 86903.0 63216.0 71253.0 115422.0 116221.0 45835.0 43420.0 148120.0 140122.0 355526.0 354192.0 130943.0 136349.0 106099.0 100936.0 70506.0 77931.0 8167.0 0.0 72520.0 79227.0 56682.0 52549.0 80767.0 75766.0 112712.0 116305.0 44272.0 36102.0 183245.0 189081.0 106276.0 111411.0 285094.0 291006.0 43832.0 36129.0 139846.0 203707.0 139846.0 139846.0 139846.0 139846.0 139846.0 139846.0 203707.0 203707.0 203707.0 203707.0 203707.0 203707.0
134772.0 130070.0 111816.0 106360.0 29792.0 28652.0 141313.0 137577.0 35697.0 43464.0 77610.0 69739.0 283243.0 282076.0 139052.0 140501.0 92808.0 93221.0 29667.0 28676.0 64400.0 72520.0 0.0 7778.0 82931.0 74630.0 28204.0 19890.0 41687.0 46969.0 50883.0 52996.0 113043.0 118193.0 138442.0 145873.0 212794.0 218842.0 84949.0 78161.0 116844.0 133594.0 116844.0 116844.0 116844.0 116844.0 116844.0 116844.0 133594.0 133594.0 133594.0 133594.0 133594.0 133594.0
132179.0 127123.0 119190.0 113595.0 36829.0 34663.0 148526.0 144624.0 43474.0 51240.0 70059.0 62154.0 277082.0 276051.0 145387.0 146566.0 90348.0 91411.0 35804.0 33460.0 71167.0 79227.0 7778.0 0.0 90597.0 82303.0 32309.0 24737.0 34141.0 39224.0 54158.0 57250.0 108265.0 113073.0 145889.0 153358.0 206645.0 212810.0 88751.0 82397.0 121091.0 128765.0 121091.0 121091.0 121091.0 121091.0 121091.0 121091.0 128765.0 128765.0 128765.0 128765.0 128765.0 128765.0
191373.0 189388.0 32589.0 30688.0 55380.0 61281.0 62876.0 61806.0 48370.0 40506.0 157230.0 149832.0 344912.0 343013.0 74315.0 79676.0 152960.0 149449.0 59926.0 67110.0 54856.0 56682.0 82931.0 90597.0 0.0 8311.0 70389.0 71658.0 122427.0 128881.0 88784.0 82135.0 169806.0 177095.0 57056.0 63989.0 275867.0 280610.0 100071.0 91934.0 89809.0 189257.0 89809.0 89809.0 89809.0 89809.0 89809.0 89809.0 189257.0 189257.0 189257.0 189257.0 189257.0 189257.0
184577.0 182400.0 40015.0 37114.0 47290.0 53425.0 70430.0 68855.0 40105.0 32267.0 149175.0 141738.0 338563.0 336634.0 79578.0 84393.0 145729.0 142429.0 52079.0 59430.0 49713.0 52549.0 74630.0 82303.0 8311.0 0.0 62739.0 63659.0 114257.0 120656.0 81825.0 75463.0 163347.0 170522.0 65128.0 72160.0 269289.0 274151.0 95147.0 86847.0 88942.0 182886.0 88942.0 88942.0 88942.0 88942.0 88942.0 88942.0 182886.0 182886.0 182886.0 182886.0 182886.0 182886.0
162910.0 158267.0 94212.0 87604.0 18189.0 10149.0 121859.0 116988.0 35122.0 39729.0 88000.0 81023.0 278861.0 277010.0 114985.0 115532.0 120942.0 121123.0 11298.0 3353.0 72889.0 80767.0 28204.0 32309.0 70389.0 62739.0 0.0 8555.0 55231.0 62710.0 73253.0 72910.0 104225.0 110743.0 121150.0 128910.0 208883.0 214200.0 104587.0 96798.0 88850.0 124359.0 88850.0 88850.0 88850.0 88850.0 88850.0 88850.0 124359.0 124359.0 124359.0 124359.0 124359.0 124359.0
154439.0 149854.0 97578.0 91381.0 16529.0 10915.0 126049.0 121610.0 31185.0 37098.0 85589.0 78263.0 281549.0 279832.0 121052.0 122004.0 112474.0 112591.0 12245.0 8819.0 67722.0 75766.0 19890.0 24737.0 71658.0 63659.0 8555.0 0.0 51326.0 58349.0 65211.0 65269.0 107774.0 113923.0 124515.0 132179.0 211338.0 216880.0 97164.0 89542.0 96959.0 128140.0 96959.0 96959.0 96959.0 96959.0 96959.0 96959.0 128140.0 128140.0 128140.0 128140.0 128140.0 128140.0
135138.0 128642.0 148871.0 142547.0 67109.0 62198.0 177015.0 172218.0 76975.0 84507.0 35926.0 28058.0 245908.0 245315.0 169329.0 169196.0 96248.0 100016.0 63545.0 57915.0 104764.0 112712.0 41687.0 34141.0 122427.0 114257.0 55231.0 51326.0 0.0 8048.0 81714.0 86739.0 84120.0 87231.0 175819.0 183496.0 175696.0 182231.0 116077.0 110977.0 136518.0 103757.0 136518.0 136518.0 136518.0 136518.0 136518.0 136518.0 103757.0 103757.0 103757.0 103757.0 103757.0 103757.0
129713.0 123010.0 155912.0 149717.0 73761.0 69261.0 184303.0 179638.0 82618.0 90299.0 31883.0 23896.0 244852.0 244518.0 177125.0 177079.0 91781.0 96046.0 70594.0 65288.0 108496.0 116305.0 46969.0 39224.0 128881.0 120656.0 62710.0 58349.0 8048.0 0.0 82906.0 88509.0 87024.0 89462.0 182837.0 190475.0 174915.0 181650.0 116729.0 112122.0 144566.0 106109.0 144566.0 144566.0 144566.0 144566.0 144566.0 144566.0 106109.0 106109.0 106109.0 106109.0 106109.0 106109.0
102784.0 100609.0 121360.0 118938.0 62114.0 67486.0 151494.0 150560.0 50138.0 54772.0 114216.0 106403.0 327552.0 327022.0 160259.0 164087.0 64443.0 60666.0 67580.0 71876.0 39479.0 44272.0 50883.0 54158.0 88784.0 81825.0 73253.0 65211.0 81714.0 82906.0 0.0 8174.0 162105.0 166554.0 144328.0 150410.0 257399.0 263944.0 34757.0 29270.0 153675.0 182518.0 153675.0 153675.0 153675.0 153675.0 153675.0 153675.0 182518.0 182518.0 182518.0 182518.0 182518.0 182518.0
109242.0 107421.0 114634.0 112535.0 60115.0 66212.0 144607.0 143938.0 46485.0 50174.0 120115.0 112226.0 332620.0 331933.0 154462.0 158560.0 71814.0 67621.0 66141.0 71198.0 31479.0 36102.0 52996.0 57250.0 82135.0 75463.0 72910.0 65269.0 86739.0 88509.0 8174.0 0.0 165515.0 170262.0 137123.0 143073.0 262342.0 268770.0 32111.0 25187.0 150345.0 186013.0 150345.0 150345.0 150345.0 150345.0 150345.0 150345.0 186013.0 186013.0 186013.0 186013.0 186013.0 186013.0
214328.0 207104.0 184552.0 176631.0 122399.0 114360.0 205059.0 197759.0 138827.0 143944.0 69686.0 72790.0 175242.0 173303.0 184055.0 180558.0 178369.0 182967.0 115445.0 107457.0 175118.0 183245.0 113043.0 108265.0 169806.0 163347.0 104225.0 107774.0 84120.0 87024.0 162105.0 165515.0 0.0 8150.0 209277.0 217027.0 106123.0 110812.0 196844.0 190655.0 140034.0 20556.0 140034.0 140034.0 140034.0 140034.0 140034.0 140034.0 20556.0 20556.0 20556.0 20556.0 20556.0 20556.0
215108.0 207755.0 192329.0 184429.0 128871.0 120892.0 213061.0 205793.0 145069.0 150397.0 69463.0 73388.0 168264.0 166344.0 192155.0 188658.0 180069.0 184950.0 122010.0 114011.0 180933.0 189081.0 118193.0 113073.0 177095.0 170522.0 110743.0 113923.0 87231.0 89462.0 166554.0 170262.0 8150.0 0.0 217172.0 224935.0 98776.0 103694.0 201311.0 195329.0 148135.0 16669.0 148135.0 148135.0 148135.0 148135.0 148135.0 148135.0 16669.0 16669.0 16669.0 16669.0 16669.0 16669.0
245843.0 244439.0 26955.0 33823.0 109345.0 113624.0 13306.0 20429.0 105084.0 97331.0 209110.0 202172.0 383628.0 381688.0 46195.0 54476.0 208771.0 204739.0 112279.0 118199.0 107151.0 106276.0 138442.0 145889.0 57056.0 65128.0 121150.0 124515.0 175819.0 182837.0 144328.0 137123.0 209277.0 217172.0 0.0 7871.0 314823.0 319309.0 149628.0 142311.0 101167.0 227928.0 101167.0 101167.0 101167.0 101167.0 101167.0 101167.0 227928.0 227928.0 227928.0 227928.0 227928.0 227928.0
251443.0 250213.0 34698.0 41680.0 116901.0 121299.0 16595.0 24950.0 112221.0 104419.0 216888.0 209926.0 391357.0 389416.0 50440.0 58687.0 214834.0 210633.0 119951.0 125942.0 112713.0 111411.0 145873.0 153358.0 63989.0 72160.0 128910.0 132179.0 183496.0 190475.0 150410.0 143073.0 217027.0 224935.0 7871.0 0.0 322552.0 327037.0 154407.0 147279.0 107939.0 235656.0 107939.0 107939.0 107939.0 107939.0 107939.0 107939.0 235656.0 235656.0 235656.0 235656.0 235656.0 235656.0
281630.0 273648.0 290320.0 282366.0 226851.0 219013.0 310449.0 303116.0 242490.0 248259.0 145324.0 152509.0 70449.0 69625.0 289386.0 285889.0 255006.0 261524.0 220181.0 212196.0 276932.0 285094.0 212794.0 206645.0 275867.0 269289.0 208883.0 211338.0 175696.0 174915.0 257399.0 262342.0 106123.0 98776.0 314823.0 322552.0 0.0 7987.0 291585.0 286668.0 245365.0 88159.0 245365.0 245365.0 245365.0 245365.0 245365.0 245365.0 88159.0 88159.0 88159.0 88159.0 88159.0 88159.0
289383.0 281407.0 294806.0 286852.0 232238.0 224343.0 314934.0 307602.0 248058.0 253699.0 152361.0 159455.0 64675.0 63242.0 293871.0 290374.0 262476.0 268943.0 225493.0 217498.0 282840.0 291006.0 218842.0 212810.0 280610.0 274151.0 214200.0 216880.0 182231.0 181650.0 263944.0 268770.0 110812.0 103694.0 319309.0 327037.0 7987.0 0.0 298228.0 293203.0 249851.0 92214.0 249851.0 249851.0 249851.0 249851.0 249851.0 249851.0 92214.0 92214.0 92214.0 92214.0 92214.0 92214.0
100349.0 100918.0 130869.0 130548.0 90617.0 97305.0 159129.0 160049.0 75234.0 76955.0 147454.0 139799.0 361582.0 361205.0 174373.0 179494.0 72280.0 65444.0 97095.0 102686.0 45435.0 43832.0 84949.0 88751.0 100071.0 95147.0 104587.0 97164.0 116077.0 116729.0 34757.0 32111.0 196844.0 201311.0 149628.0 154407.0 291585.0 298228.0 0.0 8540.0 177758.0 217268.0 177758.0 177758.0 177758.0 177758.0 177758.0 177758.0 217268.0 217268.0 217268.0 217268.0 217268.0 217268.0
105878.0 105925.0 123007.0 122490.0 82458.0 89286.0 151551.0 152267.0 66863.0 68450.0 143281.0 135515.0 356821.0 356289.0 166194.0 171228.0 75277.0 68958.0 89034.0 94804.0 37153.0 36129.0 78161.0 82397.0 91934.0 86847.0 96798.0 89542.0 110977.0 112122.0 29270.0 25187.0 190655.0 195329.0 142311.0 147279.0 286668.0 293203.0 8540.0 0.0 169228.0 211139.0 169228.0 169228.0 169228.0 169228.0 169228.0 169228.0 211139.0 211139.0 211139.0 211139.0 211139.0 211139.0
250648.0 246410.0 83749.0 76242.0 92538.0 89435.0 92852.0 84514.0 103862.0 100912.0 160498.0 155671.0 314170.0 312230.0 65346.0 60282.0 208797.0 208225.0 88814.0 88170.0 134550.0 139846.0 116844.0 121091.0 89809.0 88942.0 88850.0 96959.0 136518.0 144566.0 153675.0 150345.0 140034.0 148135.0 101167.0 107939.0 245365.0 249851.0 177758.0 169228.0 0.0 158470.0 0.0 0.0 0.0 0.0 0.0 0.0 158470.0 158470.0 158470.0 158470.0 158470.0 158470.0
231534.0 224138.0 203425.0 195471.0 142547.0 134468.0 223554.0 216221.0 159119.0 164086.0 85675.0 89876.0 157477.0 155537.0 202490.0 198994.0 196710.0 201614.0 135524.0 127556.0 195588.0 203707.0 133594.0 128765.0 189257.0 182886.0 124359.0 128140.0 103757.0 106109.0 182518.0 186013.0 20556.0 16669.0 227928.0 235656.0 88159.0 92214.0 217268.0 211139.0 158470.0 0.0 158470.0 158470.0 158470.0 158470.0 158470.0 158470.0 0.0 0.0 0.0 0.0 0.0 0.0
250648.0 246410.0 83749.0 76242.0 92538.0 89435.0 92852.0 84514.0 103862.0 100912.0 160498.0 155671.0 314170.0 312230.0 65346.0 60282.0 208797.0 208225.0 88814.0 88170.0 134550.0 139846.0 116844.0 121091.0 89809.0 88942.0 88850.0 96959.0 136518.0 144566.0 153675.0 150345.0 140034.0 148135.0 101167.0 107939.0 245365.0 249851.0 177758.0 169228.0 0.0 158470.0 0.0 0.0 0.0 0.0 0.0 0.0 158470.0 158470.0 158470.0 158470.0 158470.0 158470.0
250648.0 246410.0 83749.0 76242.0 92538.0 89435.0 92852.0 84514.0 103862.0 100912.0 160498.0 155671.0 314170.0 312230.0 65346.0 60282.0 208797.0 208225.0 88814.0 88170.0 134550.0 139846.0 116844.0 121091.0 89809.0 88942.0 88850.0 96959.0 136518.0 144566.0 153675.0 150345.0 140034.0 148135.0 101167.0 107939.0 245365.0 249851.0 177758.0 169228.0 0.0 158470.0 0.0 0.0 0.0 0.0 0.0 0.0 158470.0 158470.0 158470.0 158470.0 158470.0 158470.0
250648.0 246410.0 83749.0 76242.0 92538.0 89435.0 92852.0 84514.0 103862.0 100912.0 160498.0 155671.0 314170.0 312230.0 65346.0 60282.0 208797.0 208225.0 88814.0 88170.0 134550.0 139846.0 116844.0 121091.0 89809.0 88942.0 88850.0 96959.0 136518.0 144566.0 153675.0 150345.0 140034.0 148135.0 101167.0 107939.0 245365.0 249851.0 177758.0 169228.0 0.0 158470.0 0.0 0.0 0.0 0.0 0.0 0.0 158470.0 158470.0 158470.0 158470.0 158470.0 158470.0
250648.0 246410.0 83749.0 76242.0 92538.0 89435.0 92852.0 84514.0 103862.0 100912.0 160498.0 155671.0 314170.0 312230.0 65346.0 60282.0 208797.0 208225.0 88814.0 88170.0 134550.0 139846.0 116844.0 121091.0 89809.0 88942.0 88850.0 96959.0 136518.0 144566.0 153675.0 150345.0 140034.0 148135.0 101167.0 107939.0 245365.0 249851.0 177758.0 169228.0 0.0 158470.0 0.0 0.0 0.0 0.0 0.0 0.0 158470.0 158470.0 158470.0 158470.0 158470.0 158470.0
250648.0 246410.0 83749.0 76242.0 92538.0 89435.0 92852.0 84514.0 103862.0 100912.0 160498.0 155671.0 314170.0 312230.0 65346.0 60282.0 208797.0 208225.0 88814.0 88170.0 134550.0 139846.0 116844.0 121091.0 89809.0 88942.0 88850.0 96959.0 136518.0 144566.0 153675.0 150345.0 140034.0 148135.0 101167.0 107939.0 245365.0 249851.0 177758.0 169228.0 0.0 158470.0 0.0 0.0 0.0 0.0 0.0 0.0 158470.0 158470.0 158470.0 158470.0 158470.0 158470.0
250648.0 246410.0 83749.0 76242.0 92538.0 89435.0 92852.0 84514.0 103862.0 100912.0 160498.0 155671.0 314170.0 312230.0 65346.0 60282.0 208797.0 208225.0 88814.0 88170.0 134550.0 139846.0 116844.0 121091.0 89809.0 88942.0 88850.0 96959.0 136518.0 144566.0 153675.0 150345.0 140034.0 148135.0 101167.0 107939.0 245365.0 249851.0 177758.0 169228.0 0.0 158470.0 0.0 0.0 0.0 0.0 0.0 0.0 158470.0 158470.0 158470.0 158470.0 158470.0 158470.0
231534.0 224138.0 203425.0 195471.0 142547.0 134468.0 223554.0 216221.0 159119.0 164086.0 85675.0 89876.0 157477.0 155537.0 202490.0 198994.0 196710.0 201614.0 135524.0 127556.0 195588.0 203707.0 133594.0 128765.0 189257.0 182886.0 124359.0 128140.0 103757.0 106109.0 182518.0 186013.0 20556.0 16669.0 227928.0 235656.0 88159.0 92214.0 217268.0 211139.0 158470.0 0.0 158470.0 158470.0 158470.0 158470.0 158470.0 158470.0 0.0 0.0 0.0 0.0 0.0 0.0
231534.0 224138.0 203425.0 195471.0 142547.0 134468.0 223554.0 216221.0 159119.0 164086.0 85675.0 89876.0 157477.0 155537.0 202490.0 198994.0 196710.0 201614.0 135524.0 127556.0 195588.0 203707.0 133594.0 128765.0 189257.0 182886.0 124359.0 128140.0 103757.0 106109.0 182518.0 186013.0 20556.0 16669.0 227928.0 235656.0 88159.0 92214.0 217268.0 211139.0 158470.0 0.0 158470.0 158470.0 158470.0 158470.0 158470.0 158470.0 0.0 0.0 0.0 0.0 0.0 0.0
231534.0 224138.0 203425.0 195471.0 142547.0 134468.0 223554.0 216221.0 159119.0 164086.0 85675.0 89876.0 157477.0 155537.0 202490.0 198994.0 196710.0 201614.0 135524.0 127556.0 195588.0 203707.0 133594.0 128765.0 189257.0 182886.0 124359.0 128140.0 103757.0 106109.0 182518.0 186013.0 20556.0 16669.0 227928.0 235656.0 88159.0 92214.0 217268.0 211139.0 158470.0 0.0 158470.0 158470.0 158470.0 158470.0 158470.0 158470.0 0.0 0.0 0.0 0.0 0.0 0.0
231534.0 224138.0 203425.0 195471.0 142547.0 134468.0 223554.0 216221.0 159119.0 164086.0 85675.0 89876.0 157477.0 155537.0 202490.0 198994.0 196710.0 201614.0 135524.0 127556.0 195588.0 203707.0 133594.0 128765.0 189257.0 182886.0 124359.0 128140.0 103757.0 106109.0 182518.0 186013.0 20556.0 16669.0 227928.0 235656.0 88159.0 92214.0 217268.0 211139.0 158470.0 0.0 158470.0 158470.0 158470.0 158470.0 158470.0 158470.0 0.0 0.0 0.0 0.0 0.0 0.0
231534.0 224138.0 203425.0 195471.0 142547.0 134468.0 223554.0 216221.0 159119.0 164086.0 85675.0 89876.0 157477.0 155537.0 202490.0 198994.0 196710.0 201614.0 135524.0 127556.0 195588.0 203707.0 133594.0 128765.0 189257.0 182886.0 124359.0 128140.0 103757.0 106109.0 182518.0 186013.0 20556.0 16669.0 227928.0 235656.0 88159.0 92214.0 217268.0 211139.0 158470.0 0.0 158470.0 158470.0 158470.0 158470.0 158470.0 158470.0 0.0 0.0 0.0 0.0 0.0 0.0
231534.0 224138.0 203425.0 195471.0 142547.0 134468.0 223554.0 216221.0 159119.0 164086.0 85675.0 89876.0 157477.0 155537.0 202490.0 198994.0 196710.0 201614.0 135524.0 127556.0 195588.0 203707.0 133594.0 128765.0 189257.0 182886.0 124359.0 128140.0 103757.0 106109.0 182518.0 186013.0 20556.0 16669.0 227928.0 235656.0 88159.0 92214.0 217268.0 211139.0 158470.0 0.0 158470.0 158470.0 158470.0 158470.0 158470.0 158470.0 0.0 0.0 0.0 0.0 0.0 0.0
FIXED_EDGES_SECTION
1 2
3 4
5 6
7 8
9 10
11 12
13 14
15 16
17 18
19 20
21 22
23 24
25 26
27 28
29 30
31 32
33 34
35 36
37 38
39 40
-1 
DEMAND_SECTION
1 258
2 258
3 379
4 379
5 171
6 171
7 251
8 251
9 353
10 353
11 130
12 130
13 71
14 71
15 369
16 369
17 157
18 157
19 277
20 277
21 247
22 247
23 191
24 191
25 57
26 57
27 94
28 94
29 177
30 177
31 211
32 211
33 235
34 235
35 316
36 316
37 184
38 184
39 217
40 217
41 0
42 0
43 0
44 0
45 0
46 0
47 0
48 0
49 0
50 0
51 0
52 0
53 0
54 0
DEPOT_SECTION
41 
-1 
CAPACITIES_SECTION
1250 
1375 
1500 
-1 
EOF