NAME: GFS_20_1
TYPE: GFSP
DIMENSION: 56
VEHICLES: 3
CAPACITY: 1250.0
TRIP_DIST_LIMIT: 600000.0
TOTAL_DIST_LIMIT: 1400000.0
EDGE_WEIGHT_TYPE: EXPLICIT
EDGE_WEIGHT_FORMAT: FULL_MATRIX
EDGE_WEIGHT_SECTION
0.0 7968.0 61192.0 66624.0 35170.0 36494.0 130461.0 123475.0 41766.0 48517.0 31702.0 33315.0 140737.0 136775.0 37253.0 37481.0 69263.0 73539.0 60659.0 68619.0 139581.0 133443.0 188840.0 191515.0 142993.0 142834.0 122672.0 116850.0 122268.0 122243.0 113732.0 106723.0 145388.0 145921.0 90120.0 94137.0 49436.0 53105.0 37576.0 34698.0 110237.0 93760.0 110237.0 110237.0 110237.0 110237.0 110237.0 110237.0 110237.0 93760.0 93760.0 93760.0 93760.0 93760.0 93760.0 93760.0
7968.0 0.0 68970.0 74218.0 38881.0 41544.0 137310.0 130198.0 48745.0 55794.0 37469.0 37651.0 142768.0 139184.0 44811.0 45397.0 76958.0 81396.0 67994.0 75854.0 147097.0 141055.0 191858.0 194823.0 150127.0 150157.0 130113.0 124421.0 126829.0 126376.0 121640.0 114656.0 145503.0 145608.0 82199.0 86309.0 57401.0 60973.0 37306.0 36245.0 113779.0 86341.0 113779.0 113779.0 113779.0 113779.0 113779.0 113779.0 113779.0 86341.0 86341.0 86341.0 86341.0 86341.0 86341.0 86341.0
61192.0 68970.0 0.0 8061.0 65720.0 58746.0 74879.0 69305.0 43067.0 38699.0 53946.0 62143.0 153563.0 147176.0 24642.0 24257.0 33796.0 29859.0 11809.0 16264.0 79115.0 72584.0 190395.0 190501.0 84849.0 83427.0 62750.0 56240.0 88331.0 92154.0 53260.0 46834.0 170883.0 174049.0 151011.0 155278.0 16095.0 8818.0 82644.0 74672.0 89706.0 148561.0 89706.0 89706.0 89706.0 89706.0 89706.0 89706.0 89706.0 148561.0 148561.0 148561.0 148561.0 148561.0 148561.0 148561.0
66624.0 74218.0 8061.0 0.0 73412.0 66564.0 67220.0 61461.0 51072.0 46755.0 61615.0 69813.0 161324.0 154869.0 29407.0 30807.0 40424.0 35411.0 8746.0 9037.0 72989.0 66837.0 197488.0 197428.0 77725.0 76720.0 56243.0 50226.0 80874.0 84967.0 50151.0 44493.0 178911.0 182100.0 155804.0 160346.0 24024.0 16358.0 89997.0 82153.0 83699.0 151405.0 83699.0 83699.0 83699.0 83699.0 83699.0 83699.0 83699.0 151405.0 151405.0 151405.0 151405.0 151405.0 151405.0 151405.0
35170.0 38881.0 65720.0 73412.0 0.0 7905.0 140591.0 134846.0 24872.0 32440.0 11801.0 3638.0 106137.0 101877.0 50408.0 44278.0 55060.0 62337.0 71308.0 79244.0 142616.0 135336.0 153677.0 156356.0 150195.0 148101.0 127297.0 120025.0 145088.0 146617.0 110100.0 102360.0 113816.0 115334.0 105488.0 107053.0 49731.0 57061.0 19087.0 10548.0 137159.0 120399.0 137159.0 137159.0 137159.0 137159.0 137159.0 137159.0 137159.0 120399.0 120399.0 120399.0 120399.0 120399.0 120399.0 120399.0
36494.0 41544.0 58746.0 66564.0 7905.0 0.0 133602.0 128021.0 17052.0 24540.0 6326.0 5435.0 107599.0 102857.0 45245.0 38407.0 47184.0 54432.0 65002.0 72791.0 135010.0 127676.0 153590.0 155875.0 142886.0 140638.0 119843.0 112487.0 140063.0 141932.0 102249.0 94501.0 117552.0 119518.0 112301.0 114136.0 42668.0 50216.0 26973.0 18410.0 133236.0 125451.0 133236.0 133236.0 133236.0 133236.0 133236.0 133236.0 133236.0 125451.0 125451.0 125451.0 125451.0 125451.0 125451.0 125451.0
130461.0 137310.0 74879.0 67220.0 140591.0 133602.0 0.0 8072.0 117547.0 112145.0 128806.0 137004.0 220059.0 212901.0 94212.0 97578.0 98033.0 90004.0 70691.0 62504.0 28947.0 32100.0 248256.0 246555.0 16455.0 22272.0 23386.0 30795.0 55234.0 63189.0 53955.0 58332.0 241790.0 245732.0 215255.0 220820.0 90935.0 83541.0 157127.0 149358.0 83749.0 203425.0 83749.0 83749.0 83749.0 83749.0 83749.0 83749.0 83749.0 203425.0 203425.0 203425.0 203425.0 203425.0 203425.0 203425.0
123475.0 130198.0 69305.0 61461.0 134846.0 128021.0 8072.0 0.0 112264.0 107200.0 123045.0 131237.0 216970.0 209930.0 87604.0 91381.0 94329.0 86520.0 64276.0 56101.0 34833.0 36536.0 246648.0 245202.0 24377.0 29482.0 25370.0 31382.0 49326.0 57165.0 54467.0 57872.0 237819.0 241565.0 207626.0 213265.0 85400.0 77817.0 151012.0 143377.0 76242.0 195471.0 76242.0 76242.0 76242.0 76242.0 76242.0 76242.0 76242.0 195471.0 195471.0 195471.0 195471.0 195471.0 195471.0 195471.0
41766.0 48745.0 43067.0 51072.0 24872.0 17052.0 117547.0 112264.0 0.0 8006.0 14737.0 21783.0 115320.0 109738.0 34696.0 26479.0 31084.0 37806.0 50752.0 58085.0 118067.0 110686.0 157750.0 159197.0 126313.0 123856.0 103083.0 95627.0 127804.0 130367.0 85229.0 77494.0 129201.0 131893.0 125904.0 128375.0 27083.0 34992.0 43732.0 35171.0 123436.0 135005.0 123436.0 123436.0 123436.0 123436.0 123436.0 123436.0 123436.0 135005.0 135005.0 135005.0 135005.0 135005.0 135005.0 135005.0
48517.0 55794.0 38699.0 46755.0 32440.0 24540.0 112145.0 107200.0 8006.0 0.0 22732.0 29528.0 116389.0 110430.0 35229.0 26675.0 23081.0 29943.0 47701.0 54460.0 111358.0 103853.0 156848.0 157892.0 120249.0 117470.0 96768.0 89136.0 125520.0 128536.0 77819.0 70048.0 132263.0 135356.0 133804.0 136337.0 23497.0 31434.0 51451.0 42877.0 122800.0 142135.0 122800.0 122800.0 122800.0 122800.0 122800.0 122800.0 122800.0 142135.0 142135.0 142135.0 142135.0 142135.0 142135.0 142135.0
31702.0 37469.0 53946.0 61615.0 11801.0 6326.0 128806.0 123045.0 14737.0 22732.0 0.0 8199.0 113853.0 109046.0 39187.0 32657.0 45812.0 52486.0 59566.0 67472.0 131225.0 124034.0 159522.0 161691.0 138521.0 136541.0 115737.0 108555.0 134015.0 135790.0 99382.0 91703.0 123814.0 125712.0 111612.0 113882.0 37997.0 45269.0 29566.0 21150.0 126955.0 122677.0 126955.0 126955.0 126955.0 126955.0 126955.0 126955.0 126955.0 122677.0 122677.0 122677.0 122677.0 122677.0 122677.0 122677.0
33315.0 37651.0 62143.0 69813.0 3638.0 5435.0 137004.0 131237.0 21783.0 29528.0 8199.0 0.0 108746.0 104323.0 46820.0 40643.0 52373.0 59471.0 67671.0 75611.0 139230.0 131986.0 155765.0 158295.0 146680.0 144642.0 123837.0 116604.0 141542.0 143121.0 106968.0 99248.0 117070.0 118689.0 106897.0 108705.0 46179.0 53467.0 21950.0 13389.0 133796.0 120562.0 133796.0 133796.0 133796.0 133796.0 133796.0 133796.0 133796.0 120562.0 120562.0 120562.0 120562.0 120562.0 120562.0 120562.0
140737.0 142768.0 153563.0 161324.0 106137.0 107599.0 220059.0 216970.0 115320.0 116389.0 113853.0 108746.0 0.0 7871.0 149981.0 141792.0 122977.0 130510.0 163727.0 169806.0 209504.0 201395.0 53141.0 58642.0 223491.0 218235.0 199767.0 191445.0 241660.0 244893.0 171617.0 164861.0 35042.0 42716.0 176440.0 173250.0 139668.0 147417.0 106586.0 106532.0 238750.0 207941.0 238750.0 238750.0 238750.0 238750.0 238750.0 238750.0 238750.0 207941.0 207941.0 207941.0 207941.0 207941.0 207941.0 207941.0
136775.0 139184.0 147176.0 154869.0 101877.0 102857.0 212901.0 209930.0 109738.0 110430.0 109046.0 104323.0 7871.0 0.0 144434.0 136155.0 116149.0 123563.0 157518.0 163436.0 201988.0 193883.0 54019.0 58633.0 216111.0 210779.0 192438.0 184116.0 235405.0 238786.0 164111.0 157415.0 41985.0 49488.0 176455.0 173600.0 133561.0 141237.0 103599.0 102960.0 233058.0 206777.0 233058.0 233058.0 233058.0 233058.0 233058.0 233058.0 233058.0 206777.0 206777.0 206777.0 206777.0 206777.0 206777.0 206777.0
37253.0 44811.0 24642.0 29407.0 50408.0 45245.0 94212.0 87604.0 34696.0 35229.0 39187.0 46820.0 149981.0 144434.0 0.0 8555.0 44964.0 45498.0 23651.0 31780.0 102329.0 96244.0 191952.0 193095.0 106095.0 105676.0 85432.0 79617.0 94831.0 96728.0 77889.0 71344.0 162541.0 164701.0 126545.0 130981.0 18400.0 17838.0 64263.0 57301.0 88850.0 124359.0 88850.0 88850.0 88850.0 88850.0 88850.0 88850.0 88850.0 124359.0 124359.0 124359.0 124359.0 124359.0 124359.0 124359.0
37481.0 45397.0 24257.0 30807.0 44278.0 38407.0 97578.0 91381.0 26479.0 26675.0 32657.0 40643.0 141792.0 136155.0 8555.0 0.0 37756.0 39350.0 27229.0 35329.0 103357.0 96835.0 183435.0 184552.0 108521.0 107465.0 86879.0 80487.0 101939.0 104184.0 76251.0 69266.0 155065.0 157428.0 127594.0 131579.0 12612.0 15754.0 59634.0 52121.0 96959.0 128140.0 96959.0 96959.0 96959.0 96959.0 96959.0 96959.0 96959.0 128140.0 128140.0 128140.0 128140.0 128140.0 128140.0 128140.0
69263.0 76958.0 33796.0 40424.0 55060.0 47184.0 98033.0 94329.0 31084.0 23081.0 45812.0 52373.0 122977.0 116149.0 44964.0 37756.0 0.0 8408.0 45489.0 49436.0 92752.0 84895.0 157159.0 157015.0 103759.0 99912.0 79788.0 71678.0 121040.0 125348.0 57022.0 49231.0 143775.0 147849.0 156547.0 159254.0 26800.0 31413.0 74147.0 65593.0 123494.0 162894.0 123494.0 123494.0 123494.0 123494.0 123494.0 123494.0 123494.0 162894.0 162894.0 162894.0 162894.0 162894.0 162894.0 162894.0
73539.0 81396.0 29859.0 35411.0 62337.0 54432.0 90004.0 86520.0 37806.0 29943.0 52486.0 59471.0 130510.0 123563.0 45498.0 39350.0 8408.0 0.0 41647.0 44415.0 84344.0 76492.0 163306.0 162863.0 95434.0 91522.0 71450.0 63316.0 115052.0 119695.0 48782.0 40979.0 151911.0 156070.0 162077.0 165075.0 27157.0 29691.0 81382.0 72808.0 119091.0 166617.0 119091.0 119091.0 119091.0 119091.0 119091.0 119091.0 119091.0 166617.0 166617.0 166617.0 166617.0 166617.0 166617.0 166617.0
60659.0 67994.0 11809.0 8746.0 71308.0 65002.0 70691.0 64276.0 50752.0 47701.0 59566.0 67671.0 163727.0 157518.0 23651.0 27229.0 45489.0 41647.0 0.0 8189.0 79250.0 73542.0 201607.0 201857.0 82453.0 82180.0 62156.0 56800.0 77938.0 81327.0 58543.0 53101.0 179767.0 182608.0 148900.0 153676.0 24205.0 16322.0 86820.0 79349.0 78028.0 143376.0 78028.0 78028.0 78028.0 78028.0 78028.0 78028.0 78028.0 143376.0 143376.0 143376.0 143376.0 143376.0 143376.0 143376.0
68619.0 75854.0 16264.0 9037.0 79244.0 72791.0 62504.0 56101.0 58085.0 54460.0 67472.0 75611.0 169806.0 163436.0 31780.0 35329.0 49436.0 44415.0 8189.0 0.0 71745.0 66329.0 206437.0 206420.0 74395.0 74320.0 54532.0 49580.0 72083.0 76025.0 53567.0 48876.0 186718.0 189724.0 156329.0 161242.0 31124.0 23142.0 94954.0 87428.0 74759.0 149722.0 74759.0 74759.0 74759.0 74759.0 74759.0 74759.0 74759.0 149722.0 149722.0 149722.0 149722.0 149722.0 149722.0 149722.0
139581.0 147097.0 79115.0 72989.0 142616.0 135010.0 28947.0 34833.0 118067.0 111358.0 131225.0 139230.0 209504.0 201988.0 102329.0 103357.0 92752.0 84344.0 79250.0 71745.0 0.0 8114.0 232425.0 229938.0 18091.0 10159.0 17342.0 22878.0 83978.0 91881.0 37892.0 44915.0 234414.0 239118.0 228072.0 232922.0 93857.0 87811.0 160670.0 152364.0 110171.0 220209.0 110171.0 110171.0 110171.0 110171.0 110171.0 110171.0 110171.0 220209.0 220209.0 220209.0 220209.0 220209.0 220209.0 220209.0
133443.0 141055.0 72584.0 66837.0 135336.0 127676.0 32100.0 36536.0 110686.0 103853.0 124034.0 131986.0 201395.0 193883.0 96244.0 96835.0 84895.0 76492.0 73542.0 66329.0 8114.0 0.0 224581.0 222170.0 24653.0 17505.0 13869.0 16755.0 85778.0 93542.0 29781.0 36819.0 226323.0 231046.0 222431.0 227118.0 86950.0 81178.0 153540.0 145184.0 109736.0 215591.0 109736.0 109736.0 109736.0 109736.0 109736.0 109736.0 109736.0 215591.0 215591.0 215591.0 215591.0 215591.0 215591.0 215591.0
188840.0 191858.0 190395.0 197488.0 153677.0 153590.0 248256.0 246648.0 157750.0 156848.0 159522.0 155765.0 53141.0 54019.0 191952.0 183435.0 157159.0 163306.0 201607.0 206437.0 232425.0 224581.0 0.0 8111.0 248483.0 242055.0 226022.0 217903.0 278191.0 282454.0 195748.0 190235.0 76466.0 83598.0 229574.0 226317.0 178685.0 185805.0 157106.0 155850.0 279075.0 260732.0 279075.0 279075.0 279075.0 279075.0 279075.0 279075.0 279075.0 260732.0 260732.0 260732.0 260732.0 260732.0 260732.0 260732.0
191515.0 194823.0 190501.0 197428.0 156356.0 155875.0 246555.0 245202.0 159197.0 157892.0 161691.0 158295.0 58642.0 58633.0 193095.0 184552.0 157015.0 162863.0 201857.0 206420.0 229938.0 222170.0 8111.0 0.0 246258.0 239669.0 224090.0 216042.0 277901.0 282358.0 193635.0 188353.0 83788.0 91043.0 234909.0 231845.0 179287.0 186240.0 160676.0 159027.0 279587.0 265317.0 279587.0 279587.0 279587.0 279587.0 279587.0 279587.0 279587.0 265317.0 265317.0 265317.0 265317.0 265317.0 265317.0 265317.0
142993.0 150127.0 84849.0 77725.0 150195.0 142886.0 16455.0 24377.0 126313.0 120249.0 138521.0 146680.0 223491.0 216111.0 106095.0 108521.0 103759.0 95434.0 82453.0 74395.0 18091.0 24653.0 248483.0 246258.0 0.0 8242.0 23998.0 32241.0 70345.0 78341.0 52781.0 58850.0 247045.0 251404.0 229342.0 234678.0 100549.0 93662.0 167483.0 159444.0 100102.0 218659.0 100102.0 100102.0 100102.0 100102.0 100102.0 100102.0 100102.0 218659.0 218659.0 218659.0 218659.0 218659.0 218659.0 218659.0
142834.0 150157.0 83427.0 76720.0 148101.0 140638.0 22272.0 29482.0 123856.0 117470.0 136541.0 144642.0 218235.0 210779.0 105676.0 107465.0 99912.0 91522.0 82180.0 74320.0 10159.0 17505.0 242055.0 239669.0 8242.0 0.0 20805.0 28383.0 77313.0 85293.0 46796.0 53376.0 242520.0 247060.0 230266.0 235386.0 98753.0 92230.0 165777.0 157601.0 105724.0 220823.0 105724.0 105724.0 105724.0 105724.0 105724.0 105724.0 105724.0 220823.0 220823.0 220823.0 220823.0 220823.0 220823.0 220823.0
122672.0 130113.0 62750.0 56243.0 127297.0 119843.0 23386.0 25370.0 103083.0 96768.0 115737.0 123837.0 199767.0 192438.0 85432.0 86879.0 79788.0 71450.0 62156.0 54532.0 17342.0 13869.0 226022.0 224090.0 23998.0 20805.0 0.0 8322.0 73610.0 81202.0 30752.0 35792.0 223060.0 227406.0 210852.0 215768.0 77971.0 71534.0 144989.0 136801.0 96105.0 202888.0 96105.0 96105.0 96105.0 96105.0 96105.0 96105.0 96105.0 202888.0 202888.0 202888.0 202888.0 202888.0 202888.0 202888.0
116850.0 124421.0 56240.0 50226.0 120025.0 112487.0 30795.0 31382.0 95627.0 89136.0 108555.0 116604.0 191445.0 184116.0 79617.0 80487.0 71678.0 63316.0 56800.0 49580.0 22878.0 16755.0 217903.0 216042.0 32241.0 28383.0 8322.0 0.0 77671.0 84998.0 23237.0 27689.0 214805.0 219185.0 205697.0 210416.0 71035.0 64933.0 137937.0 129673.0 97414.0 198964.0 97414.0 97414.0 97414.0 97414.0 97414.0 97414.0 97414.0 198964.0 198964.0 198964.0 198964.0 198964.0 198964.0 198964.0
122268.0 126829.0 88331.0 80874.0 145088.0 140063.0 55234.0 49326.0 127804.0 125520.0 134015.0 141542.0 241660.0 235405.0 94831.0 101939.0 121040.0 115052.0 77938.0 72083.0 83978.0 85778.0 278191.0 277901.0 70345.0 77313.0 73610.0 77671.0 0.0 7995.0 98712.0 99711.0 256941.0 259367.0 192467.0 199278.0 102072.0 94257.0 157049.0 151065.0 36893.0 174691.0 36893.0 36893.0 36893.0 36893.0 36893.0 36893.0 36893.0 174691.0 174691.0 174691.0 174691.0 174691.0 174691.0 174691.0
122243.0 126376.0 92154.0 84967.0 146617.0 141932.0 63189.0 57165.0 130367.0 128536.0 135790.0 143121.0 244893.0 238786.0 96728.0 104184.0 125348.0 119695.0 81327.0 76025.0 91881.0 93542.0 282454.0 282358.0 78341.0 85293.0 81202.0 84998.0 7995.0 0.0 105632.0 106309.0 259223.0 261427.0 189826.0 196684.0 105235.0 97560.0 157785.0 152125.0 31861.0 172040.0 31861.0 31861.0 31861.0 31861.0 31861.0 31861.0 31861.0 172040.0 172040.0 172040.0 172040.0 172040.0 172040.0 172040.0
113732.0 121640.0 53260.0 50151.0 110100.0 102249.0 53955.0 54467.0 85229.0 77819.0 99382.0 106968.0 171617.0 164111.0 77889.0 76251.0 57022.0 48782.0 58543.0 53567.0 37892.0 29781.0 195748.0 193635.0 52781.0 46796.0 30752.0 23237.0 98712.0 105632.0 0.0 7807.0 196732.0 201564.0 203838.0 207800.0 64694.0 60719.0 128875.0 120347.0 114021.0 201470.0 114021.0 114021.0 114021.0 114021.0 114021.0 114021.0 114021.0 201470.0 201470.0 201470.0 201470.0 201470.0 201470.0 201470.0
106723.0 114656.0 46834.0 44493.0 102360.0 94501.0 58332.0 57872.0 77494.0 70048.0 91703.0 99248.0 164861.0 157415.0 71344.0 69266.0 49231.0 40979.0 53101.0 48876.0 44915.0 36819.0 190235.0 188353.0 58850.0 53376.0 35792.0 27689.0 99711.0 106309.0 7807.0 0.0 189505.0 194247.0 196841.0 200687.0 57477.0 53908.0 121168.0 112632.0 112529.0 195359.0 112529.0 112529.0 112529.0 112529.0 112529.0 112529.0 112529.0 195359.0 195359.0 195359.0 195359.0 195359.0 195359.0 195359.0
145388.0 145503.0 170883.0 178911.0 113816.0 117552.0 241790.0 237819.0 129201.0 132263.0 123814.0 117070.0 35042.0 41985.0 162541.0 155065.0 143775.0 151911.0 179767.0 186718.0 234414.0 226323.0 76466.0 83788.0 247045.0 242520.0 223060.0 214805.0 256941.0 259223.0 196732.0 189505.0 0.0 7817.0 161878.0 157355.0 155653.0 163633.0 108221.0 110904.0 250760.0 197841.0 250760.0 250760.0 250760.0 250760.0 250760.0 250760.0 250760.0 197841.0 197841.0 197841.0 197841.0 197841.0 197841.0 197841.0
145921.0 145608.0 174049.0 182100.0 115334.0 119518.0 245732.0 241565.0 131893.0 135356.0 125712.0 118689.0 42716.0 49488.0 164701.0 157428.0 147849.0 156070.0 182608.0 189724.0 239118.0 231046.0 83598.0 91043.0 251404.0 247060.0 227406.0 219185.0 259367.0 261427.0 201564.0 194247.0 7817.0 0.0 157971.0 153169.0 158606.0 166591.0 108482.0 111736.0 252484.0 194778.0 252484.0 252484.0 252484.0 252484.0 252484.0 252484.0 252484.0 194778.0 194778.0 194778.0 194778.0 194778.0 194778.0 194778.0
90120.0 82199.0 151011.0 155804.0 105488.0 112301.0 215255.0 207626.0 125904.0 133804.0 111612.0 106897.0 176440.0 176455.0 126545.0 127594.0 156547.0 162077.0 148900.0 156329.0 228072.0 222431.0 229574.0 234909.0 229342.0 230266.0 210852.0 205697.0 192467.0 189826.0 203838.0 196841.0 161878.0 157971.0 0.0 8049.0 139474.0 143151.0 88864.0 95921.0 176257.0 42206.0 176257.0 176257.0 176257.0 176257.0 176257.0 176257.0 176257.0 42206.0 42206.0 42206.0 42206.0 42206.0 42206.0 42206.0
94137.0 86309.0 155278.0 160346.0 107053.0 114136.0 220820.0 213265.0 128375.0 136337.0 113882.0 108705.0 173250.0 173600.0 130981.0 131579.0 159254.0 165075.0 153676.0 161242.0 232922.0 227118.0 226317.0 231845.0 234678.0 235386.0 215768.0 210416.0 199278.0 196684.0 207800.0 200687.0 157355.0 153169.0 8049.0 0.0 143221.0 147241.0 89719.0 97168.0 183114.0 49871.0 183114.0 183114.0 183114.0 183114.0 183114.0 183114.0 183114.0 49871.0 49871.0 49871.0 49871.0 49871.0 49871.0 49871.0
49436.0 57401.0 16095.0 24024.0 49731.0 42668.0 90935.0 85400.0 27083.0 23497.0 37997.0 46179.0 139668.0 133561.0 18400.0 12612.0 26800.0 27157.0 24205.0 31124.0 93857.0 86950.0 178685.0 179287.0 100549.0 98753.0 77971.0 71035.0 102072.0 105235.0 64694.0 57477.0 155653.0 158606.0 139474.0 143221.0 0.0 7986.0 67028.0 58906.0 100394.0 140747.0 100394.0 100394.0 100394.0 100394.0 100394.0 100394.0 100394.0 140747.0 140747.0 140747.0 140747.0 140747.0 140747.0 140747.0
53105.0 60973.0 8818.0 16358.0 57061.0 50216.0 83541.0 77817.0 34992.0 31434.0 45269.0 53467.0 147417.0 141237.0 17838.0 15754.0 31413.0 29691.0 16322.0 23142.0 87811.0 81178.0 185805.0 186240.0 93662.0 92230.0 71534.0 64933.0 94257.0 97560.0 60719.0 53908.0 163633.0 166591.0 143151.0 147241.0 7986.0 0.0 73842.0 65902.0 93350.0 142168.0 93350.0 93350.0 93350.0 93350.0 93350.0 93350.0 93350.0 142168.0 142168.0 142168.0 142168.0 142168.0 142168.0 142168.0
37576.0 37306.0 82644.0 89997.0 19087.0 26973.0 157127.0 151012.0 43732.0 51451.0 29566.0 21950.0 106586.0 103599.0 64263.0 59634.0 74147.0 81382.0 86820.0 94954.0 160670.0 153540.0 157106.0 160676.0 167483.0 165777.0 144989.0 137937.0 157049.0 157785.0 128875.0 121168.0 108221.0 108482.0 88864.0 89719.0 67028.0 73842.0 0.0 8574.0 146755.0 108273.0 146755.0 146755.0 146755.0 146755.0 146755.0 146755.0 146755.0 108273.0 108273.0 108273.0 108273.0 108273.0 108273.0 108273.0
34698.0 36245.0 74672.0 82153.0 10548.0 18410.0 149358.0 143377.0 35171.0 42877.0 21150.0 13389.0 106532.0 102960.0 57301.0 52121.0 65593.0 72808.0 79349.0 87428.0 152364.0 145184.0 155850.0 159027.0 159444.0 157601.0 136801.0 129673.0 151065.0 152125.0 120347.0 112632.0 110904.0 111736.0 95921.0 97168.0 58906.0 65902.0 8574.0 0.0 141709.0 113029.0 141709.0 141709.0 141709.0 141709.0 141709.0 141709.0 141709.0 113029.0 113029.0 113029.0 113029.0 113029.0 113029.0 113029.0
110237.0 113779.0 89706.0 83699.0 137159.0 133236.0 83749.0 76242.0 123436.0 122800.0 126955.0 133796.0 238750.0 233058.0 88850.0 96959.0 123494.0 119091.0 78028.0 74759.0 110171.0 109736.0 279075.0 279587.0 100102.0 105724.0 96105.0 97414.0 36893.0 31861.0 114021.0 112529.0 250760.0 252484.0 176257.0 183114.0 100394.0 93350.0 146755.0 141709.0 0.0 158470.0 0.0 0.0 0.0 0.0 0.0 0.0 0.0 158470.0 158470.0 158470.0 158470.0 158470.0 158470.0 158470.0
93760.0 86341.0 148561.0 151405.0 120399.0 125451.0 203425.0 195471.0 135005.0 142135.0 122677.0 120562.0 207941.0 206777.0 124359.0 128140.0 162894.0 166617.0 143376.0 149722.0 220209.0 215591.0 260732.0 265317.0 218659.0 220823.0 202888.0 198964.0 174691.0 172040.0 201470.0 195359.0 197841.0 194778.0 42206.0 49871.0 140747.0 142168.0 108273.0 113029.0 158470.0 0.0 158470.0 158470.0 158470.0 158470.0 158470.0 158470.0 158470.0 0.0 0.0 0.0 0.0 0.0 0.0 0.0
110237.0 113779.0 89706.0 83699.0 137159.0 133236.0 83749.0 76242.0 123436.0 122800.0 126955.0 133796.0 238750.0 233058.0 88850.0 96959.0 123494.0 119091.0 78028.0 74759.0 110171.0 109736.0 279075.0 279587.0 100102.0 105724.0 96105.0 97414.0 36893.0 31861.0 114021.0 112529.0 250760.0 252484.0 176257.0 183114.0 100394.0 93350.0 146755.0 141709.0 0.0 158470.0 0.0 0.0 0.0 0.0 0.0 0.0 0.0 158470.0 158470.0 158470.0 158470.0 158470.0 158470.0 158470.0
110237.0 113779.0 89706.0 83699.0 137159.0 133236.0 83749.0 76242.0 123436.0 122800.0 126955.0 133796.0 238750.0 233058.0 88850.0 96959.0 123494.0 119091.0 78028.0 74759.0 110171.0 109736.0 279075.0 279587.0 100102.0 105724.0 96105.0 97414.0 36893.0 31861.0 114021.0 112529.0 250760.0 252484.0 176257.0 183114.0 100394.0 93350.0 146755.0 141709.0 0.0 158470.0 0.0 0.0 0.0 0.0 0.0 0.0 0.0 158470.0 158470.0 158470.0 158470.0 158470.0 158470.0 158470.0
110237.0 113779.0 89706.0 83699.0 137159.0 133236.0 83749.0 76242.0 123436.0 122800.0 126955.0 133796.0 238750.0 233058.0 88850.0 96959.0 123494.0 119091.0 78028.0 74759.0 110171.0 109736.0 279075.0 279587.0 100102.0 105724.0 96105.0 97414.0 36893.0 31861.0 114021.0 112529.0 250760.0 252484.0 176257.0 183114.0 100394.0 93350.0 146755.0 141709.0 0.0 158470.0 0.0 0.0 0.0 0.0 0.0 0.0 0.0 158470.0 158470.0 158470.0 158470.0 158470.0 158470.0 158470.0
110237.0 113779.0 89706.0 83699.0 137159.0 133236.0 83749.0 76242.0 123436.0 122800.0 126955.0 133796.0 238750.0 233058.0 88850.0 96959.0 123494.0 119091.0 78028.0 74759.0 110171.0 109736.0 279075.0 279587.0 100102.0 105724.0 96105.0 97414.0 36893.0 31861.0 114021.0 112529.0 250760.0 252484.0 176257.0 183114.0 100394.0 93350.0 146755.0 141709.0 0.0 158470.0 0.0 0.0 0.0 0.0 0.0 0.0 0.0 158470.0 158470.0 158470.0 158470.0 158470.0 158470.0 158470.0
110237.0 113779.0 89706.0 83699.0 137159.0 133236.0 83749.0 76242.0 123436.0 122800.0 126955.0 133796.0 238750.0 233058.0 88850.0 96959.0 123494.0 119091.0 78028.0 74759.0 110171.0 109736.0 279075.0 279587.0 100102.0 105724.0 96105.0 97414.0 36893.0 31861.0 114021.0 112529.0 250760.0 252484.0 176257.0 183114.0 100394.0 93350.0 146755.0 141709.0 0.0 158470.0 0.0 0.0 0.0 0.0 0.0 0.0 0.0 158470.0 158470.0 158470.0 158470.0 158470.0 158470.0 158470.0
110237.0 113779.0 89706.0 83699.0 137159.0 133236.0 83749.0 76242.0 123436.0 122800.0 126955.0 133796.0 238750.0 233058.0 88850.0 96959.0 123494.0 119091.0 78028.0 74759.0 110171.0 109736.0 279075.0 279587.0 100102.0 105724.0 96105.0 97414.0 36893.0 31861.0 114021.0 112529.0 250760.0 252484.0 176257.0 183114.0 100394.0 93350.0 146755.0 141709.0 0.0 158470.0 0.0 0.0 0.0 0.0 0.0 0.0 0.0 158470.0 158470.0 158470.0 158470.0 158470.0 158470.0 158470.0
110237.0 113779.0 89706.0 83699.0 137159.0 133236.0 83749.0 76242.0 123436.0 122800.0 126955.0 133796.0 238750.0 233058.0 88850.0 96959.0 123494.0 119091.0 78028.0 74759.0 110171.0 109736.0 279075.0 279587.0 100102.0 105724.0 96105.0 97414.0 36893.0 31861.0 114021.0 112529.0 250760.0 252484.0 176257.0 183114.0 100394.0 93350.0 146755.0 141709.0 0.0 158470.0 0.0 0.0 0.0 0.0 0.0 0.0 0.0 158470.0 158470.0 158470.0 158470.0 158470.0 158470.0 158470.0
93760.0 86341.0 148561.0 151405.0 120399.0 125451.0 203425.0 195471.0 135005.0 142135.0 122677.0 120562.0 207941.0 206777.0 124359.0 128140.0 162894.0 166617.0 143376.0 149722.0 220209.0 215591.0 260732.0 265317.0 218659.0 220823.0 202888.0 198964.0 174691.0 172040.0 201470.0 195359.0 197841.0 194778.0 42206.0 49871.0 140747.0 142168.0 108273.0 113029.0 158470.0 0.0 158470.0 158470.0 158470.0 158470.0 158470.0 158470.0 158470.0 0.0 0.0 0.0 0.0 0.0 0.0 0.0
93760.0 86341.0 148561.0 151405.0 120399.0 125451.0 203425.0 195471.0 135005.0 142135.0 122677.0 120562.0 207941.0 206777.0 124359.0 128140.0 162894.0 166617.0 143376.0 149722.0 220209.0 215591.0 260732.0 265317.0 218659.0 220823.0 202888.0 198964.0 174691.0 172040.0 201470.0 195359.0 197841.0 194778.0 42206.0 49871.0 140747.0 142168.0 108273.0 113029.0 158470.0 0.0 158470.0 158470.0 158470.0 158470.0 158470.0 158470.0 158470.0 0.0 0.0 0.0 0.0 0.0 0.0 0.0
93760.0 86341.0 148561.0 151405.0 120399.0 125451.0 203425.0 195471.0 135005.0 142135.0 122677.0 120562.0 207941.0 206777.0 124359.0 128140.0 162894.0 166617.0 143376.0 149722.0 220209.0 215591.0 260732.0 265317.0 218659.0 220823.0 202888.0 198964.0 174691.0 172040.0 201470.0 195359.0 197841.0 194778.0 42206.0 49871.0 140747.0 142168.0 108273.0 113029.0 158470.0 0.0 158470.0 158470.0 158470.0 158470.0 158470.0 158470.0 158470.0 0.0 0.0 0.0 0.0 0.0 0.0 0.0
93760.0 86341.0 148561.0 151405.0 120399.0 125451.0 203425.0 195471.0 135005.0 142135.0 122677.0 120562.0 207941.0 206777.0 124359.0 128140.0 162894.0 166617.0 143376.0 149722.0 220209.0 215591.0 260732.0 265317.0 218659.0 220823.0 202888.0 198964.0 174691.0 172040.0 201470.0 195359.0 197841.0 194778.0 42206.0 49871.0 140747.0 142168.0 108273.0 113029.0 158470.0 0.0 158470.0 158470.0 158470.0 158470.0 158470.0 158470.0 158470.0 0.0 0.0 0.0 0.0 0.0 0.0 0.0
93760.0 86341.0 148561.0 151405.0 120399.0 125451.0 203425.0 195471.0 135005.0 142135.0 122677.0 120562.0 207941.0 206777.0 124359.0 128140.0 162894.0 166617.0 143376.0 149722.0 220209.0 215591.0 260732.0 265317.0 218659.0 220823.0 202888.0 198964.0 174691.0 172040.0 201470.0 195359.0 197841.0 194778.0 42206.0 49871.0 140747.0 142168.0 108273.0 113029.0 158470.0 0.0 158470.0 158470.0 158470.0 158470.0 158470.0 158470.0 158470.0 0.0 0.0 0.0 0.0 0.0 0.0 0.0
93760.0 86341.0 148561.0 151405.0 120399.0 125451.0 203425.0 195471.0 135005.0 142135.0 122677.0 120562.0 207941.0 206777.0 124359.0 128140.0 162894.0 166617.0 143376.0 149722.0 220209.0 215591.0 260732.0 265317.0 218659.0 220823.0 202888.0 198964.0 174691.0 172040.0 201470.0 195359.0 197841.0 194778.0 42206.0 49871.0 140747.0 142168.0 108273.0 113029.0 158470.0 0.0 158470.0 158470.0 158470.0 158470.0 158470.0 158470.0 158470.0 0.0 0.0 0.0 0.0 0.0 0.0 0.0
93760.0 86341.0 148561.0 151405.0 120399.0 125451.0 203425.0 195471.0 135005.0 142135.0 122677.0 120562.0 207941.0 206777.0 124359.0 128140.0 162894.0 166617.0 143376.0 149722.0 220209.0 215591.0 260732.0 265317.0 218659.0 220823.0 202888.0 198964.0 174691.0 172040.0 201470.0 195359.0 197841.0 194778.0 42206.0 49871.0 140747.0 142168.0 108273.0 113029.0 158470.0 0.0 158470.0 158470.0 158470.0 158470.0 158470.0 158470.0 158470.0 0.0 0.0 0.0 0.0 0.0 0.0 0.0
FIXED_EDGES_SECTION
1 2
3 4
5 6
7 8
9 10
11 12
13 14
15 16
17 18
19 20
21 22
23 24
25 26
27 28
29 30
31 32
33 34
35 36
37 38
39 40
-1 
DEMAND_SECTION
1 80
2 80
3 207
4 207
5 90
6 90
7 379
8 379
9 256
10 256
11 94
12 94
13 277
14 277
15 94
16 94
17 349
18 349
19 394
20 394
21 265
22 265
23 138
24 138
25 500
26 500
27 375
28 375
29 97
30 97
31 497
32 497
33 321
34 321
35 313
36 313
37 119
38 119
39 271
40 271
41 0
42 0
43 0
44 0
45 0
46 0
47 0
48 0
49 0
50 0
51 0
52 0
53 0
54 0
55 0
56 0
DEPOT_SECTION
41 
-1 
CAPACITIES_SECTION
1250 
1375 
1500 
-1 
EOF