NAME: GFS_20_1
TYPE: GFSP
DIMENSION: 58
VEHICLES: 3
CAPACITY: 1250.0
TRIP_DIST_LIMIT: 600000.0
TOTAL_DIST_LIMIT: 1400000.0
EDGE_WEIGHT_TYPE: EXPLICIT
EDGE_WEIGHT_FORMAT: FULL_MATRIX
EDGE_WEIGHT_SECTION
0.0 8532.0 81477.0 85629.0 124400.0 118307.0 171111.0 164618.0 137556.0 139802.0 45465.0 49363.0 90444.0 94495.0 126627.0 131847.0 189474.0 185166.0 45970.0 51174.0 125153.0 126496.0 17433.0 21068.0 145930.0 145994.0 173573.0 179916.0 109235.0 115732.0 72316.0 67762.0 97414.0 100598.0 28053.0 35141.0 228424.0 235277.0 123137.0 121681.0 113808.0 85477.0 113808.0 113808.0 113808.0 113808.0 113808.0 113808.0 113808.0 113808.0 85477.0 85477.0 85477.0 85477.0 85477.0 85477.0 85477.0 85477.0
8532.0 0.0 80218.0 85052.0 131918.0 125655.0 169492.0 163244.0 133932.0 136580.0 47737.0 52714.0 91179.0 95848.0 132712.0 137650.0 197868.0 193609.0 52984.0 57507.0 132960.0 134081.0 9094.0 12746.0 154164.0 154100.0 172475.0 178573.0 105663.0 112449.0 75912.0 70668.0 103907.0 106660.0 36540.0 43476.0 224819.0 231672.0 129134.0 128057.0 108260.0 80183.0 108260.0 108260.0 108260.0 108260.0 108260.0 108260.0 108260.0 108260.0 80183.0 80183.0 80183.0 80183.0 80183.0 80183.0 80183.0 80183.0
81477.0 80218.0 0.0 8049.0 187900.0 183837.0 89653.0 83154.0 207777.0 211614.0 42728.0 46009.0 22372.0 30444.0 200091.0 206445.0 232639.0 226293.0 120057.0 127368.0 185209.0 189152.0 82518.0 76377.0 161878.0 157971.0 92263.0 98465.0 180409.0 187823.0 153157.0 149092.0 169972.0 175045.0 88318.0 87450.0 151827.0 158349.0 197116.0 193838.0 176257.0 42206.0 176257.0 176257.0 176257.0 176257.0 176257.0 176257.0 176257.0 176257.0 42206.0 42206.0 42206.0 42206.0 42206.0 42206.0 42206.0 42206.0
85629.0 85052.0 8049.0 0.0 187859.0 184099.0 86300.0 79422.0 214246.0 217936.0 44219.0 46165.0 14598.0 22661.0 201462.0 207995.0 229962.0 223452.0 122273.0 129804.0 184758.0 188992.0 87993.0 82130.0 157355.0 153169.0 88054.0 94622.0 186705.0 194051.0 156573.0 152835.0 171379.0 176739.0 90093.0 88513.0 151608.0 157880.0 198595.0 195016.0 183114.0 49871.0 183114.0 183114.0 183114.0 183114.0 183114.0 183114.0 183114.0 183114.0 49871.0 49871.0 49871.0 49871.0 49871.0 49871.0 49871.0 49871.0
124400.0 131918.0 187900.0 187859.0 0.0 8004.0 270098.0 262351.0 181573.0 178295.0 145574.0 141944.0 183936.0 182819.0 36514.0 43685.0 81782.0 81600.0 79226.0 76538.0 9945.0 3036.0 138567.0 144455.0 104854.0 111392.0 268607.0 276303.0 162159.0 163058.0 81942.0 89449.0 36620.0 41168.0 102999.0 101498.0 339457.0 345727.0 37885.0 29741.0 190251.0 206726.0 190251.0 190251.0 190251.0 190251.0 190251.0 190251.0 190251.0 190251.0 206726.0 206726.0 206726.0 206726.0 206726.0 206726.0 206726.0 206726.0
118307.0 125655.0 183837.0 184099.0 8004.0 0.0 267145.0 259460.0 173695.0 170477.0 141304.0 138019.0 180729.0 179939.0 31472.0 39119.0 89709.0 89387.0 72753.0 69614.0 16371.0 11021.0 132072.0 138099.0 108815.0 115066.0 265958.0 273584.0 154167.0 155097.0 73979.0 81515.0 28627.0 33244.0 97868.0 96873.0 335587.0 341959.0 32177.0 24017.0 182282.0 201399.0 182282.0 182282.0 182282.0 182282.0 182282.0 182282.0 182282.0 182282.0 201399.0 201399.0 201399.0 201399.0 201399.0 201399.0 201399.0 201399.0
171111.0 169492.0 89653.0 86300.0 270098.0 267145.0 0.0 8032.0 291188.0 295721.0 130338.0 131280.0 86635.0 87282.0 286592.0 293363.0 300701.0 293381.0 208423.0 216038.0 265845.0 270891.0 170915.0 164308.0 218418.0 212268.0 10953.0 10620.0 264960.0 272629.0 242721.0 238742.0 256657.0 262358.0 176068.0 173851.0 78747.0 82585.0 283889.0 279865.0 258629.0 104040.0 258629.0 258629.0 258629.0 258629.0 258629.0 258629.0 258629.0 258629.0 104040.0 104040.0 104040.0 104040.0 104040.0 104040.0 104040.0 104040.0
164618.0 163244.0 83154.0 79422.0 262351.0 259460.0 8032.0 0.0 286282.0 290784.0 123272.0 123991.0 79135.0 79539.0 279149.0 285965.0 292669.0 285350.0 201306.0 208977.0 258030.0 263121.0 164947.0 158438.0 210441.0 204314.0 10620.0 15330.0 259908.0 267542.0 235980.0 232131.0 249254.0 255028.0 168894.0 166522.0 86463.0 90459.0 276479.0 272378.0 253719.0 100037.0 253719.0 253719.0 253719.0 253719.0 253719.0 253719.0 253719.0 253719.0 100037.0 100037.0 100037.0 100037.0 100037.0 100037.0 100037.0 100037.0
137556.0 133932.0 207777.0 214246.0 181573.0 173695.0 291188.0 286282.0 0.0 7456.0 181619.0 186555.0 223032.0 228589.0 153502.0 151223.0 263331.0 263034.0 136552.0 130723.0 189432.0 184606.0 128212.0 132974.0 259380.0 262408.0 296481.0 301228.0 28321.0 22332.0 104915.0 99740.0 146076.0 140464.0 154821.0 162578.0 338517.0 345370.0 150012.0 156135.0 57108.0 191029.0 57108.0 57108.0 57108.0 57108.0 57108.0 57108.0 57108.0 57108.0 191029.0 191029.0 191029.0 191029.0 191029.0 191029.0 191029.0 191029.0
139802.0 136580.0 211614.0 217936.0 178295.0 170477.0 295721.0 290784.0 7456.0 0.0 184317.0 189016.0 226370.0 231752.0 149332.0 146748.0 259954.0 259864.0 136333.0 130188.0 186373.0 181322.0 131236.0 136267.0 258383.0 261615.0 300920.0 305795.0 31237.0 24133.0 103224.0 98497.0 143209.0 137316.0 155953.0 163602.0 343055.0 349908.0 145926.0 152272.0 63495.0 195567.0 63495.0 63495.0 63495.0 63495.0 63495.0 63495.0 63495.0 63495.0 195567.0 195567.0 195567.0 195567.0 195567.0 195567.0 195567.0 195567.0
45465.0 47737.0 42728.0 44219.0 145574.0 141304.0 130338.0 123272.0 181619.0 184317.0 0.0 7909.0 45875.0 49215.0 157451.0 163890.0 195047.0 189233.0 78094.0 85708.0 143300.0 146929.0 53755.0 50259.0 132499.0 130159.0 131460.0 138331.0 153376.0 160185.0 113402.0 110249.0 127340.0 132573.0 45879.0 44723.0 194528.0 201076.0 154523.0 151137.0 154464.0 66901.0 154464.0 154464.0 154464.0 154464.0 154464.0 154464.0 154464.0 154464.0 66901.0 66901.0 66901.0 66901.0 66901.0 66901.0 66901.0 66901.0
49363.0 52714.0 46009.0 46165.0 141944.0 138019.0 131280.0 123991.0 186555.0 189016.0 7909.0 0.0 45288.0 47361.0 155508.0 162164.0 188966.0 183005.0 77631.0 85513.0 139203.0 143165.0 59442.0 56551.0 124969.0 122501.0 131744.0 138850.0 158254.0 164908.0 114417.0 111778.0 125482.0 131082.0 45114.0 42591.0 197574.0 203947.0 152719.0 148962.0 160365.0 73696.0 160365.0 160365.0 160365.0 160365.0 160365.0 160365.0 160365.0 160365.0 73696.0 73696.0 73696.0 73696.0 73696.0 73696.0 73696.0 73696.0
90444.0 91179.0 22372.0 14598.0 183936.0 180729.0 86635.0 79135.0 223032.0 226370.0 45875.0 45288.0 0.0 8078.0 200016.0 206855.0 221448.0 214690.0 122918.0 130783.0 180128.0 184854.0 95327.0 90104.0 146184.0 141601.0 86555.0 93785.0 195156.0 202327.0 159205.0 156124.0 170144.0 176003.0 90401.0 87555.0 156887.0 162699.0 197361.0 193247.0 192960.0 64459.0 192960.0 192960.0 192960.0 192960.0 192960.0 192960.0 192960.0 192960.0 64459.0 64459.0 64459.0 64459.0 64459.0 64459.0 64459.0 64459.0
94495.0 95848.0 30444.0 22661.0 182819.0 179939.0 87282.0 79539.0 228589.0 231752.0 49215.0 47361.0 8078.0 0.0 200265.0 207258.0 217529.0 210628.0 124596.0 132597.0 178611.0 183610.0 100528.0 95629.0 140702.0 135863.0 86183.0 93702.0 200584.0 207660.0 161777.0 159050.0 170590.0 176708.0 92155.0 88653.0 159764.0 165308.0 197734.0 193330.0 199086.0 72531.0 199086.0 199086.0 199086.0 199086.0 199086.0 199086.0 199086.0 199086.0 72531.0 72531.0 72531.0 72531.0 72531.0 72531.0 72531.0 72531.0
126627.0 132712.0 200091.0 201462.0 36514.0 31472.0 286592.0 279149.0 153502.0 149332.0 157451.0 155508.0 200016.0 200265.0 0.0 7940.0 112937.0 114245.0 81391.0 75459.0 46449.0 38942.0 137457.0 144209.0 140271.0 146462.0 286368.0 293743.0 137624.0 137147.0 65687.0 73609.0 30121.0 26053.0 111830.0 112962.0 351507.0 358239.0 4004.0 7946.0 169876.0 212006.0 169876.0 169876.0 169876.0 169876.0 169876.0 169876.0 169876.0 169876.0 212006.0 212006.0 212006.0 212006.0 212006.0 212006.0 212006.0 212006.0
131847.0 137650.0 206445.0 207995.0 43685.0 39119.0 293363.0 285965.0 151223.0 146748.0 163890.0 162164.0 206855.0 207258.0 7940.0 0.0 117761.0 119491.0 87130.0 80812.0 53625.0 45947.0 142031.0 148888.0 147925.0 154180.0 293292.0 300623.0 136628.0 135705.0 68190.0 75989.0 36711.0 31527.0 118128.0 119577.0 357631.0 364424.0 9542.0 15885.0 169977.0 217317.0 169977.0 169977.0 169977.0 169977.0 169977.0 169977.0 169977.0 169977.0 217317.0 217317.0 217317.0 217317.0 217317.0 217317.0 217317.0 217317.0
189474.0 197868.0 232639.0 229962.0 81782.0 89709.0 300701.0 292669.0 263331.0 259954.0 195047.0 188966.0 221448.0 217529.0 112937.0 117761.0 0.0 8118.0 150003.0 150197.0 74488.0 78746.0 206003.0 210540.0 87051.0 94623.0 296366.0 304417.0 243715.0 244788.0 162533.0 169652.0 117930.0 122945.0 162909.0 158108.0 376808.0 381939.0 115720.0 108494.0 270462.0 261626.0 270462.0 270462.0 270462.0 270462.0 270462.0 270462.0 270462.0 270462.0 261626.0 261626.0 261626.0 261626.0 261626.0 261626.0 261626.0 261626.0
185166.0 193609.0 226293.0 223452.0 81600.0 89387.0 293381.0 285350.0 263034.0 259864.0 189233.0 183005.0 214690.0 210628.0 114245.0 119491.0 8118.0 0.0 146746.0 147356.0 73643.0 78584.0 201881.0 206228.0 79047.0 86590.0 288931.0 296984.0 242774.0 244103.0 161174.0 168113.0 117141.0 122580.0 158270.0 153204.0 369709.0 374777.0 116820.0 109337.0 268692.0 255959.0 268692.0 268692.0 268692.0 268692.0 268692.0 268692.0 268692.0 268692.0 255959.0 255959.0 255959.0 255959.0 255959.0 255959.0 255959.0 255959.0
45970.0 52984.0 120057.0 122273.0 79226.0 72753.0 208423.0 201306.0 136552.0 136333.0 78094.0 77631.0 122918.0 124596.0 81391.0 87130.0 150003.0 146746.0 0.0 8237.0 81038.0 81510.0 59348.0 65353.0 124033.0 126439.0 209292.0 216295.0 110259.0 114485.0 40150.0 40648.0 51701.0 55609.0 32517.0 36478.0 270634.0 277499.0 78085.0 76030.0 127471.0 130820.0 127471.0 127471.0 127471.0 127471.0 127471.0 127471.0 127471.0 127471.0 130820.0 130820.0 130820.0 130820.0 130820.0 130820.0 130820.0 130820.0
51174.0 57507.0 127368.0 129804.0 76538.0 69614.0 216038.0 208977.0 130723.0 130188.0 85708.0 85513.0 130783.0 132597.0 75459.0 80812.0 150197.0 147356.0 8237.0 0.0 79322.0 79008.0 63026.0 69440.0 128962.0 131740.0 217059.0 224009.0 104997.0 108847.0 32112.0 33190.0 46401.0 49448.0 40446.0 44679.0 277543.0 284393.0 71995.0 70574.0 124066.0 136565.0 124066.0 124066.0 124066.0 124066.0 124066.0 124066.0 124066.0 124066.0 136565.0 136565.0 136565.0 136565.0 136565.0 136565.0 136565.0 136565.0
125153.0 132960.0 185209.0 184758.0 9945.0 16371.0 265845.0 258030.0 189432.0 186373.0 143300.0 139203.0 180128.0 178611.0 46449.0 53625.0 74488.0 73643.0 81038.0 79322.0 0.0 7913.0 140041.0 145628.0 95211.0 101857.0 263993.0 271762.0 169263.0 170478.0 88125.0 95368.0 43516.0 49068.0 102242.0 99981.0 336316.0 342445.0 47741.0 39572.0 196277.0 205896.0 196277.0 196277.0 196277.0 196277.0 196277.0 196277.0 196277.0 196277.0 205896.0 205896.0 205896.0 205896.0 205896.0 205896.0 205896.0 205896.0
126496.0 134081.0 189152.0 188992.0 3036.0 11021.0 270891.0 263121.0 184606.0 181322.0 146929.0 143165.0 184854.0 183610.0 38942.0 45947.0 78746.0 78584.0 81510.0 79008.0 7913.0 0.0 140824.0 146651.0 103125.0 109762.0 269281.0 277002.0 165186.0 166093.0 84901.0 92386.0 39609.0 44204.0 104725.0 103028.0 340601.0 346829.0 40478.0 32380.0 193212.0 208479.0 193212.0 193212.0 193212.0 193212.0 193212.0 193212.0 193212.0 193212.0 208479.0 208479.0 208479.0 208479.0 208479.0 208479.0 208479.0 208479.0
17433.0 9094.0 82518.0 87993.0 138567.0 132072.0 170915.0 164947.0 128212.0 131236.0 53755.0 59442.0 95327.0 100528.0 137457.0 142031.0 206003.0 201881.0 59348.0 63026.0 140041.0 140824.0 0.0 7195.0 163251.0 163193.0 174442.0 180266.0 100102.0 107135.0 78140.0 72217.0 109263.0 111472.0 45479.0 52530.0 224007.0 230860.0 133780.0 133180.0 100929.0 77703.0 100929.0 100929.0 100929.0 100929.0 100929.0 100929.0 100929.0 100929.0 77703.0 77703.0 77703.0 77703.0 77703.0 77703.0 77703.0 77703.0
21068.0 12746.0 76377.0 82130.0 144455.0 138099.0 164308.0 158438.0 132974.0 136267.0 50259.0 56551.0 90104.0 95629.0 144209.0 148888.0 210540.0 206228.0 65353.0 69440.0 145628.0 146651.0 7195.0 0.0 165194.0 164805.0 168021.0 173744.0 105052.0 112240.0 85309.0 79411.0 115789.0 118192.0 48615.0 55096.0 216900.0 223753.0 140560.0 139804.0 104309.0 70508.0 104309.0 104309.0 104309.0 104309.0 104309.0 104309.0 104309.0 104309.0 70508.0 70508.0 70508.0 70508.0 70508.0 70508.0 70508.0 70508.0
145930.0 154164.0 161878.0 157355.0 104854.0 108815.0 218418.0 210441.0 259380.0 258383.0 132499.0 124969.0 146184.0 140702.0 140271.0 147925.0 87051.0 79047.0 124033.0 128962.0 95211.0 103125.0 163251.0 165194.0 0.0 7817.0 213045.0 221082.0 233958.0 237705.0 155628.0 159895.0 124837.0 132849.0 118291.0 110815.0 296224.0 300743.0 140674.0 132650.0 250760.0 197841.0 250760.0 250760.0 250760.0 250760.0 250760.0 250760.0 250760.0 250760.0 197841.0 197841.0 197841.0 197841.0 197841.0 197841.0 197841.0 197841.0
145994.0 154100.0 157971.0 153169.0 111392.0 115066.0 212268.0 204314.0 262408.0 261615.0 130159.0 122501.0 141601.0 135863.0 146462.0 154180.0 94623.0 86590.0 126439.0 131740.0 101857.0 109762.0 163193.0 164805.0 7817.0 0.0 206686.0 214709.0 236631.0 240587.0 159263.0 163232.0 130019.0 138096.0 118690.0 111028.0 290298.0 294704.0 146731.0 138768.0 252484.0 194778.0 252484.0 252484.0 252484.0 252484.0 252484.0 252484.0 252484.0 252484.0 194778.0 194778.0 194778.0 194778.0 194778.0 194778.0 194778.0 194778.0
173573.0 172475.0 92263.0 88054.0 268607.0 265958.0 10953.0 10620.0 296481.0 300920.0 131460.0 131744.0 86555.0 86183.0 286368.0 293292.0 296366.0 288931.0 209292.0 217059.0 263993.0 269281.0 174442.0 168021.0 213045.0 206686.0 0.0 8055.0 269992.0 277605.0 244556.0 240888.0 256592.0 262536.0 176805.0 174110.0 86327.0 89458.0 283781.0 279483.0 263929.0 110557.0 263929.0 263929.0 263929.0 263929.0 263929.0 263929.0 263929.0 263929.0 110557.0 110557.0 110557.0 110557.0 110557.0 110557.0 110557.0 110557.0
179916.0 178573.0 98465.0 94622.0 276303.0 273584.0 10620.0 15330.0 301228.0 305795.0 138331.0 138850.0 93785.0 93702.0 293743.0 300623.0 304417.0 296984.0 216295.0 224009.0 271762.0 277002.0 180266.0 173744.0 221082.0 214709.0 8055.0 0.0 274971.0 282621.0 251196.0 247394.0 263915.0 269785.0 183843.0 181308.0 78936.0 81813.0 291122.0 286903.0 268701.0 114448.0 268701.0 268701.0 268701.0 268701.0 268701.0 268701.0 268701.0 268701.0 114448.0 114448.0 114448.0 114448.0 114448.0 114448.0 114448.0 114448.0
109235.0 105663.0 180409.0 186705.0 162159.0 154167.0 264960.0 259908.0 28321.0 31237.0 153376.0 158254.0 195156.0 200584.0 137624.0 136628.0 243715.0 242774.0 110259.0 104997.0 169263.0 165186.0 100102.0 105052.0 233958.0 236631.0 269992.0 274971.0 0.0 7799.0 82059.0 75894.0 125785.0 121139.0 126914.0 134741.0 312314.0 319167.0 133862.0 139049.0 40422.0 164826.0 40422.0 40422.0 40422.0 40422.0 40422.0 40422.0 40422.0 40422.0 164826.0 164826.0 164826.0 164826.0 164826.0 164826.0 164826.0 164826.0
115732.0 112449.0 187823.0 194051.0 163058.0 155097.0 272629.0 267542.0 22332.0 24133.0 160185.0 164908.0 202327.0 207660.0 137147.0 135705.0 244788.0 244103.0 114485.0 108847.0 170478.0 166093.0 107135.0 112240.0 237705.0 240587.0 277605.0 282621.0 7799.0 0.0 84266.0 78591.0 126965.0 121908.0 132514.0 140258.0 320006.0 326859.0 133469.0 139010.0 47048.0 172518.0 47048.0 47048.0 47048.0 47048.0 47048.0 47048.0 47048.0 47048.0 172518.0 172518.0 172518.0 172518.0 172518.0 172518.0 172518.0 172518.0
72316.0 75912.0 153157.0 156573.0 81942.0 73979.0 242721.0 235980.0 104915.0 103224.0 113402.0 114417.0 159205.0 161777.0 65687.0 68190.0 162533.0 161174.0 40150.0 32112.0 88125.0 84901.0 78140.0 85309.0 155628.0 159263.0 244556.0 251196.0 82059.0 84266.0 0.0 7955.0 45399.0 42780.0 70406.0 75774.0 300591.0 307444.0 61695.0 64057.0 108311.0 155705.0 108311.0 108311.0 108311.0 108311.0 108311.0 108311.0 108311.0 108311.0 155705.0 155705.0 155705.0 155705.0 155705.0 155705.0 155705.0 155705.0
67762.0 70668.0 149092.0 152835.0 89449.0 81515.0 238742.0 232131.0 99740.0 98497.0 110249.0 111778.0 156124.0 159050.0 73609.0 75989.0 169652.0 168113.0 40648.0 33190.0 95368.0 92386.0 72217.0 79411.0 159895.0 163232.0 240888.0 247394.0 75894.0 78591.0 7955.0 0.0 53022.0 50671.0 68787.0 74772.0 295486.0 302339.0 69614.0 72009.0 100915.0 149917.0 100915.0 100915.0 100915.0 100915.0 100915.0 100915.0 100915.0 100915.0 149917.0 149917.0 149917.0 149917.0 149917.0 149917.0 149917.0 149917.0
97414.0 103907.0 169972.0 171379.0 36620.0 28627.0 256657.0 249254.0 146076.0 143209.0 127340.0 125482.0 170144.0 170590.0 30121.0 36711.0 117930.0 117141.0 51701.0 46401.0 43516.0 39609.0 109263.0 115789.0 124837.0 130019.0 256592.0 263915.0 125785.0 126965.0 45399.0 53022.0 0.0 8174.0 81714.0 82906.0 321407.0 328127.0 27238.0 24330.0 153675.0 182518.0 153675.0 153675.0 153675.0 153675.0 153675.0 153675.0 153675.0 153675.0 182518.0 182518.0 182518.0 182518.0 182518.0 182518.0 182518.0 182518.0
100598.0 106660.0 175045.0 176739.0 41168.0 33244.0 262358.0 255028.0 140464.0 137316.0 132573.0 131082.0 176003.0 176708.0 26053.0 31527.0 122945.0 122580.0 55609.0 49448.0 49068.0 44204.0 111472.0 118192.0 132849.0 138096.0 262536.0 269785.0 121139.0 121908.0 42780.0 50671.0 8174.0 0.0 86739.0 88509.0 326120.0 332929.0 22548.0 22106.0 150345.0 186013.0 150345.0 150345.0 150345.0 150345.0 150345.0 150345.0 150345.0 150345.0 186013.0 186013.0 186013.0 186013.0 186013.0 186013.0 186013.0 186013.0
28053.0 36540.0 88318.0 90093.0 102999.0 97868.0 176068.0 168894.0 154821.0 155953.0 45879.0 45114.0 90401.0 92155.0 111830.0 118128.0 162909.0 158270.0 32517.0 40446.0 102242.0 104725.0 45479.0 48615.0 118291.0 118690.0 176805.0 183843.0 126914.0 132514.0 70406.0 68787.0 81714.0 86739.0 0.0 8048.0 239712.0 246415.0 108812.0 105736.0 136518.0 103757.0 136518.0 136518.0 136518.0 136518.0 136518.0 136518.0 136518.0 136518.0 103757.0 103757.0 103757.0 103757.0 103757.0 103757.0 103757.0 103757.0
35141.0 43476.0 87450.0 88513.0 101498.0 96873.0 173851.0 166522.0 162578.0 163602.0 44723.0 42591.0 87555.0 88653.0 112962.0 119577.0 158108.0 153204.0 36478.0 44679.0 99981.0 103028.0 52530.0 55096.0 110815.0 111028.0 174110.0 181308.0 134741.0 140258.0 75774.0 74772.0 82906.0 88509.0 8048.0 0.0 239245.0 245799.0 110140.0 106511.0 144566.0 106109.0 144566.0 144566.0 144566.0 144566.0 144566.0 144566.0 144566.0 144566.0 106109.0 106109.0 106109.0 106109.0 106109.0 106109.0 106109.0 106109.0
228424.0 224819.0 151827.0 151608.0 339457.0 335587.0 78747.0 86463.0 338517.0 343055.0 194528.0 197574.0 156887.0 159764.0 351507.0 357631.0 376808.0 369709.0 270634.0 277543.0 336316.0 340601.0 224007.0 216900.0 296224.0 290298.0 86327.0 78936.0 312314.0 320006.0 300591.0 295486.0 321407.0 326120.0 239712.0 239245.0 0.0 8022.0 348413.0 345439.0 305958.0 149265.0 305958.0 305958.0 305958.0 305958.0 305958.0 305958.0 305958.0 305958.0 149265.0 149265.0 149265.0 149265.0 149265.0 149265.0 149265.0 149265.0
235277.0 231672.0 158349.0 157880.0 345727.0 341959.0 82585.0 90459.0 345370.0 349908.0 201076.0 203947.0 162699.0 165308.0 358239.0 364424.0 381939.0 374777.0 277499.0 284393.0 342445.0 346829.0 230860.0 223753.0 300743.0 294704.0 89458.0 81813.0 319167.0 326859.0 307444.0 302339.0 328127.0 332929.0 246415.0 245799.0 8022.0 0.0 355177.0 352108.0 312811.0 156118.0 312811.0 312811.0 312811.0 312811.0 312811.0 312811.0 312811.0 312811.0 156118.0 156118.0 156118.0 156118.0 156118.0 156118.0 156118.0 156118.0
123137.0 129134.0 197116.0 198595.0 37885.0 32177.0 283889.0 276479.0 150012.0 145926.0 154523.0 152719.0 197361.0 197734.0 4004.0 9542.0 115720.0 116820.0 78085.0 71995.0 47741.0 40478.0 133780.0 140560.0 140674.0 146731.0 283781.0 291122.0 133862.0 133469.0 61695.0 69614.0 27238.0 22548.0 108812.0 110140.0 348413.0 355177.0 0.0 8186.0 165956.0 208560.0 165956.0 165956.0 165956.0 165956.0 165956.0 165956.0 165956.0 165956.0 208560.0 208560.0 208560.0 208560.0 208560.0 208560.0 208560.0 208560.0
121681.0 128057.0 193838.0 195016.0 29741.0 24017.0 279865.0 272378.0 156135.0 152272.0 151137.0 148962.0 193247.0 193330.0 7946.0 15885.0 108494.0 109337.0 76030.0 70574.0 39572.0 32380.0 133180.0 139804.0 132650.0 138768.0 279483.0 286903.0 139049.0 139010.0 64057.0 72009.0 24330.0 22106.0 105736.0 106511.0 345439.0 352108.0 8186.0 0.0 170149.0 206844.0 170149.0 170149.0 170149.0 170149.0 170149.0 170149.0 170149.0 170149.0 206844.0 206844.0 206844.0 206844.0 206844.0 206844.0 206844.0 206844.0
113808.0 108260.0 176257.0 183114.0 190251.0 182282.0 258629.0 253719.0 57108.0 63495.0 154464.0 160365.0 192960.0 199086.0 169876.0 169977.0 270462.0 268692.0 127471.0 124066.0 196277.0 193212.0 100929.0 104309.0 250760.0 252484.0 263929.0 268701.0 40422.0 47048.0 108311.0 100915.0 153675.0 150345.0 136518.0 144566.0 305958.0 312811.0 165956.0 170149.0 0.0 158470.0 0.0 0.0 0.0 0.0 0.0 0.0 0.0 0.0 158470.0 158470.0 158470.0 158470.0 158470.0 158470.0 158470.0 158470.0
85477.0 80183.0 42206.0 49871.0 206726.0 201399.0 104040.0 100037.0 191029.0 195567.0 66901.0 73696.0 64459.0 72531.0 212006.0 217317.0 261626.0 255959.0 130820.0 136565.0 205896.0 208479.0 77703.0 70508.0 197841.0 194778.0 110557.0 114448.0 164826.0 172518.0 155705.0 149917.0 182518.0 186013.0 103757.0 106109.0 149265.0 156118.0 208560.0 206844.0 158470.0 0.0 158470.0 158470.0 158470.0 158470.0 158470.0 158470.0 158470.0 158470.0 0.0 0.0 0.0 0.0 0.0 0.0 0.0 0.0
113808.0 108260.0 176257.0 183114.0 190251.0 182282.0 258629.0 253719.0 57108.0 63495.0 154464.0 160365.0 192960.0 199086.0 169876.0 169977.0 270462.0 268692.0 127471.0 124066.0 196277.0 193212.0 100929.0 104309.0 250760.0 252484.0 263929.0 268701.0 40422.0 47048.0 108311.0 100915.0 153675.0 150345.0 136518.0 144566.0 305958.0 312811.0 165956.0 170149.0 0.0 158470.0 0.0 0.0 0.0 0.0 0.0 0.0 0.0 0.0 158470.0 158470.0 158470.0 158470.0 158470.0 158470.0 158470.0 158470.0
113808.0 108260.0 176257.0 183114.0 190251.0 182282.0 258629.0 253719.0 57108.0 63495.0 154464.0 160365.0 192960.0 199086.0 169876.0 169977.0 270462.0 268692.0 127471.0 124066.0 196277.0 193212.0 100929.0 104309.0 250760.0 252484.0 263929.0 268701.0 40422.0 47048.0 108311.0 100915.0 153675.0 150345.0 136518.0 144566.0 305958.0 312811.0 165956.0 170149.0 0.0 158470.0 0.0 0.0 0.0 0.0 0.0 0.0 0.0 0.0 158470.0 158470.0 158470.0 158470.0 158470.0 158470.0 158470.0 158470.0
113808.0 108260.0 176257.0 183114.0 190251.0 182282.0 258629.0 253719.0 57108.0 63495.0 154464.0 160365.0 192960.0 199086.0 169876.0 169977.0 270462.0 268692.0 127471.0 124066.0 196277.0 193212.0 100929.0 104309.0 250760.0 252484.0 263929.0 268701.0 40422.0 47048.0 108311.0 100915.0 153675.0 150345.0 136518.0 144566.0 305958.0 312811.0 165956.0 170149.0 0.0 158470.0 0.0 0.0 0.0 0.0 0.0 0.0 0.0 0.0 158470.0 158470.0 158470.0 158470.0 158470.0 158470.0 158470.0 158470.0
113808.0 108260.0 176257.0 183114.0 190251.0 182282.0 258629.0 253719.0 57108.0 63495.0 154464.0 160365.0 192960.0 199086.0 169876.0 169977.0 270462.0 268692.0 127471.0 124066.0 196277.0 193212.0 100929.0 104309.0 250760.0 252484.0 263929.0 268701.0 40422.0 47048.0 108311.0 100915.0 153675.0 150345.0 136518.0 144566.0 305958.0 312811.0 165956.0 170149.0 0.0 158470.0 0.0 0.0 0.0 0.0 0.0 0.0 0.0 0.0 158470.0 158470.0 158470.0 158470.0 158470.0 158470.0 158470.0 158470.0
113808.0 108260.0 176257.0 183114.0 190251.0 182282.0 258629.0 253719.0 57108.0 63495.0 154464.0 160365.0 192960.0 199086.0 169876.0 169977.0 270462.0 268692.0 127471.0 124066.0 196277.0 193212.0 100929.0 104309.0 250760.0 252484.0 263929.0 268701.0 40422.0 47048.0 108311.0 100915.0 153675.0 150345.0 136518.0 144566.0 305958.0 312811.0 165956.0 170149.0 0.0 158470.0 0.0 0.0 0.0 0.0 0.0 0.0 0.0 0.0 158470.0 158470.0 158470.0 158470.0 158470.0 158470.0 158470.0 158470.0
113808.0 108260.0 176257.0 183114.0 190251.0 182282.0 258629.0 253719.0 57108.0 63495.0 154464.0 160365.0 192960.0 199086.0 169876.0 169977.0 270462.0 268692.0 127471.0 124066.0 196277.0 193212.0 100929.0 104309.0 250760.0 252484.0 263929.0 268701.0 40422.0 47048.0 108311.0 100915.0 153675.0 150345.0 136518.0 144566.0 305958.0 312811.0 165956.0 170149.0 0.0 158470.0 0.0 0.0 0.0 0.0 0.0 0.0 0.0 0.0 158470.0 158470.0 158470.0 158470.0 158470.0 158470.0 158470.0 158470.0
113808.0 108260.0 176257.0 183114.0 190251.0 182282.0 258629.0 253719.0 57108.0 63495.0 154464.0 160365.0 192960.0 199086.0 169876.0 169977.0 270462.0 268692.0 127471.0 124066.0 196277.0 193212.0 100929.0 104309.0 250760.0 252484.0 263929.0 268701.0 40422.0 47048.0 108311.0 100915.0 153675.0 150345.0 136518.0 144566.0 305958.0 312811.0 165956.0 170149.0 0.0 158470.0 0.0 0.0 0.0 0.0 0.0 0.0 0.0 0.0 158470.0 158470.0 158470.0 158470.0 158470.0 158470.0 158470.0 158470.0
113808.0 108260.0 176257.0 183114.0 190251.0 182282.0 258629.0 253719.0 57108.0 63495.0 154464.0 160365.0 192960.0 199086.0 169876.0 169977.0 270462.0 268692.0 127471.0 124066.0 196277.0 193212.0 100929.0 104309.0 250760.0 252484.0 263929.0 268701.0 40422.0 47048.0 108311.0 100915.0 153675.0 150345.0 136518.0 144566.0 305958.0 312811.0 165956.0 170149.0 0.0 158470.0 0.0 0.0 0.0 0.0 0.0 0.0 0.0 0.0 158470.0 158470.0 158470.0 158470.0 158470.0 158470.0 158470.0 158470.0
85477.0 80183.0 42206.0 49871.0 206726.0 201399.0 104040.0 100037.0 191029.0 195567.0 66901.0 73696.0 64459.0 72531.0 212006.0 217317.0 261626.0 255959.0 130820.0 136565.0 205896.0 208479.0 77703.0 70508.0 197841.0 194778.0 110557.0 114448.0 164826.0 172518.0 155705.0 149917.0 182518.0 186013.0 103757.0 106109.0 149265.0 156118.0 208560.0 206844.0 158470.0 0.0 158470.0 158470.0 158470.0 158470.0 158470.0 158470.0 158470.0 158470.0 0.0 0.0 0.0 0.0 0.0 0.0 0.0 0.0
85477.0 80183.0 42206.0 49871.0 206726.0 201399.0 104040.0 100037.0 191029.0 195567.0 66901.0 73696.0 64459.0 72531.0 212006.0 217317.0 261626.0 255959.0 130820.0 136565.0 205896.0 208479.0 77703.0 70508.0 197841.0 194778.0 110557.0 114448.0 164826.0 172518.0 155705.0 149917.0 182518.0 186013.0 103757.0 106109.0 149265.0 156118.0 208560.0 206844.0 158470.0 0.0 158470.0 158470.0 158470.0 158470.0 158470.0 158470.0 158470.0 158470.0 0.0 0.0 0.0 0.0 0.0 0.0 0.0 0.0
85477.0 80183.0 42206.0 49871.0 206726.0 201399.0 104040.0 100037.0 191029.0 195567.0 66901.0 73696.0 64459.0 72531.0 212006.0 217317.0 261626.0 255959.0 130820.0 136565.0 205896.0 208479.0 77703.0 70508.0 197841.0 194778.0 110557.0 114448.0 164826.0 172518.0 155705.0 149917.0 182518.0 186013.0 103757.0 106109.0 149265.0 156118.0 208560.0 206844.0 158470.0 0.0 158470.0 158470.0 158470.0 158470.0 158470.0 158470.0 158470.0 158470.0 0.0 0.0 0.0 0.0 0.0 0.0 0.0 0.0
85477.0 80183.0 42206.0 49871.0 206726.0 201399.0 104040.0 100037.0 191029.0 195567.0 66901.0 73696.0 64459.0 72531.0 212006.0 217317.0 261626.0 255959.0 130820.0 136565.0 205896.0 208479.0 77703.0 70508.0 197841.0 194778.0 110557.0 114448.0 164826.0 172518.0 155705.0 149917.0 182518.0 186013.0 103757.0 106109.0 149265.0 156118.0 208560.0 206844.0 158470.0 0.0 158470.0 158470.0 158470.0 158470.0 158470.0 158470.0 158470.0 158470.0 0.0 0.0 0.0 0.0 0.0 0.0 0.0 0.0
85477.0 80183.0 42206.0 49871.0 206726.0 201399.0 104040.0 100037.0 191029.0 195567.0 66901.0 73696.0 64459.0 72531.0 212006.0 217317.0 261626.0 255959.0 130820.0 136565.0 205896.0 208479.0 77703.0 70508.0 197841.0 194778.0 110557.0 114448.0 164826.0 172518.0 155705.0 149917.0 182518.0 186013.0 103757.0 106109.0 149265.0 156118.0 208560.0 206844.0 158470.0 0.0 158470.0 158470.0 158470.0 158470.0 158470.0 158470.0 158470.0 158470.0 0.0 0.0 0.0 0.0 0.0 0.0 0.0 0.0
85477.0 80183.0 42206.0 49871.0 206726.0 201399.0 104040.0 100037.0 191029.0 195567.0 66901.0 73696.0 64459.0 72531.0 212006.0 217317.0 261626.0 255959.0 130820.0 136565.0 205896.0 208479.0 77703.0 70508.0 197841.0 194778.0 110557.0 114448.0 164826.0 172518.0 155705.0 149917.0 182518.0 186013.0 103757.0 106109.0 149265.0 156118.0 208560.0 206844.0 158470.0 0.0 158470.0 158470.0 158470.0 158470.0 158470.0 158470.0 158470.0 158470.0 0.0 0.0 0.0 0.0 0.0 0.0 0.0 0.0
85477.0 80183.0 42206.0 49871.0 206726.0 201399.0 104040.0 100037.0 191029.0 195567.0 66901.0 73696.0 64459.0 72531.0 212006.0 217317.0 261626.0 255959.0 130820.0 136565.0 205896.0 208479.0 77703.0 70508.0 197841.0 194778.0 110557.0 114448.0 164826.0 172518.0 155705.0 149917.0 182518.0 186013.0 103757.0 106109.0 149265.0 156118.0 208560.0 206844.0 158470.0 0.0 158470.0 158470.0 158470.0 158470.0 158470.0 158470.0 158470.0 158470.0 0.0 0.0 0.0 0.0 0.0 0.0 0.0 0.0
85477.0 80183.0 42206.0 49871.0 206726.0 201399.0 104040.0 100037.0 191029.0 195567.0 66901.0 73696.0 64459.0 72531.0 212006.0 217317.0 261626.0 255959.0 130820.0 136565.0 205896.0 208479.0 77703.0 70508.0 197841.0 194778.0 110557.0 114448.0 164826.0 172518.0 155705.0 149917.0 182518.0 186013.0 103757.0 106109.0 149265.0 156118.0 208560.0 206844.0 158470.0 0.0 158470.0 158470.0 158470.0 158470.0 158470.0 158470.0 158470.0 158470.0 0.0 0.0 0.0 0.0 0.0 0.0 0.0 0.0
FIXED_EDGES_SECTION
1 2
3 4
5 6
7 8
9 10
11 12
13 14
15 16
17 18
19 20
21 22
23 24
25 26
27 28
29 30
31 32
33 34
35 36
37 38
39 40
-1 
DEMAND_SECTION
1 358
2 358
3 313
4 313
5 186
6 186
7 341
8 341
9 219
10 219
11 342
12 342
13 84
14 84
15 224
16 224
17 542
18 542
19 89
20 89
21 72
22 72
23 75
24 75
25 321
26 321
27 350
28 350
29 618
30 618
31 341
32 341
33 211
34 211
35 177
36 177
37 280
38 280
39 211
40 211
41 0
42 0
43 0
44 0
45 0
46 0
47 0
48 0
49 0
50 0
51 0
52 0
53 0
54 0
55 0
56 0
57 0
58 0
DEPOT_SECTION
41 
-1 
CAPACITIES_SECTION
1250 
1375 
1500 
-1 
EOF