NAME: GFS_20_1
TYPE: GFSP
DIMENSION: 166
VEHICLES: 4
CAPACITY: 20000.0
TRIP_DIST_LIMIT: 1050000.0
TOTAL_DIST_LIMIT: 1050000.0
EDGE_WEIGHT_TYPE: EXPLICIT
EDGE_WEIGHT_FORMAT: FULL_MATRIX
EDGE_WEIGHT_SECTION
0.0 7469.0 70330.0 63927.0 241499.0 237428.0 172762.0 180758.0 219204.0 211943.0 174174.0 167226.0 242769.0 238309.0 178520.0 175711.0 42998.0 49860.0 201562.0 197935.0 132428.0 140342.0 93172.0 86621.0 151355.0 143531.0 214272.0 220045.0 203777.0 209816.0 247436.0 243351.0 24302.0 17897.0 132361.0 126157.0 203145.0 204872.0 191607.0 199627.0 204904.0 211784.0 158134.0 152492.0 252930.0 245799.0 268373.0 264880.0 228054.0 221658.0 128690.0 124520.0 13010.0 20324.0 239138.0 243976.0 176070.0 176717.0 111451.0 119478.0 135825.0 140536.0 249639.0 241756.0 87382.0 91543.0 164722.0 166399.0 188325.0 192381.0 13028.0 20470.0 263911.0 269076.0 255067.0 261379.0 280710.0 275541.0 48957.0 42617.0 272060.0 274158.0 226561.0 222840.0 260650.0 255413.0 49849.0 45140.0 249695.0 254203.0 227214.0 219125.0 88498.0 89026.0 211156.0 203380.0 223705.0 228636.0 233074.0 238263.0 200405.0 205409.0 279183.0 280109.0 290809.0 298656.0 115679.0 120850.0 42452.0 34985.0 59167.0 54433.0 125397.0 118804.0 133986.0 131540.0 240577.0 237927.0 100071.0 107872.0 287766.0 280851.0 229535.0 237039.0 149212.0 157144.0 140984.0 140481.0 79539.0 72372.0 239920.0 240453.0 166435.0 174155.0 121110.0 128439.0 265036.0 257375.0 53379.0 61356.0 69817.0 62710.0 87180.0 88508.0 150555.0 157920.0 139277.0 131442.0 194985.0 197135.0 117896.0 109920.0 44185.0 45121.0 208713.0 201217.0 227473.0 235455.0 238390.0 246431.0 224357.0 75676.0 224357.0 224357.0 75676.0 75676.0
7469.0 0.0 75135.0 69134.0 239761.0 235477.0 172017.0 180022.0 219084.0 211704.0 173707.0 166613.0 245447.0 241166.0 175288.0 172187.0 44020.0 51456.0 201430.0 198070.0 130903.0 138984.0 96065.0 89183.0 150185.0 142212.0 212574.0 218539.0 203090.0 209336.0 245393.0 241532.0 23540.0 15995.0 133946.0 127956.0 198274.0 200220.0 191007.0 199014.0 201089.0 208095.0 157323.0 151402.0 253167.0 245945.0 271326.0 267889.0 229529.0 222966.0 132540.0 128027.0 13949.0 19050.0 241751.0 246401.0 176801.0 177087.0 110225.0 118289.0 136779.0 141830.0 251700.0 243754.0 91704.0 96258.0 164797.0 166115.0 188485.0 192806.0 7123.0 15136.0 261246.0 266575.0 249903.0 256321.0 282776.0 277772.0 49785.0 42722.0 273819.0 275712.0 228487.0 225005.0 261746.0 256326.0 51665.0 46017.0 252702.0 257020.0 225084.0 216995.0 88054.0 87918.0 211458.0 203764.0 220623.0 225739.0 227343.0 232661.0 200963.0 206195.0 280687.0 281398.0 292739.0 300598.0 120759.0 125641.0 45282.0 37412.0 66595.0 61902.0 126587.0 119714.0 133026.0 130157.0 243592.0 240959.0 98424.0 106330.0 290017.0 283229.0 232024.0 239461.0 149721.0 157598.0 141305.0 141220.0 83679.0 76255.0 235356.0 236093.0 165540.0 173378.0 119742.0 126887.0 266770.0 259182.0 59599.0 67585.0 72334.0 65648.0 89421.0 90373.0 149317.0 156812.0 139772.0 132028.0 191779.0 194197.0 120080.0 112068.0 42641.0 42254.0 206719.0 199309.0 225949.0 233915.0 237701.0 245695.0 227389.0 80817.0 227389.0 227389.0 80817.0 80817.0
70330.0 75135.0 0.0 7995.0 205868.0 203898.0 132373.0 139672.0 171037.0 165006.0 131292.0 126154.0 177522.0 172664.0 161224.0 161729.0 106678.0 110953.0 154267.0 148737.0 103874.0 109003.0 33140.0 31610.0 116845.0 111381.0 179571.0 183328.0 160864.0 164901.0 214325.0 208381.0 93181.0 87963.0 76725.0 69560.0 202205.0 201207.0 148659.0 156320.0 191768.0 196841.0 119645.0 117113.0 201049.0 194766.0 202620.0 199124.0 168653.0 163424.0 168743.0 167516.0 62146.0 62063.0 174093.0 179524.0 123521.0 126864.0 84281.0 90135.0 84777.0 86323.0 186669.0 179188.0 128674.0 128981.0 118066.0 122581.0 139437.0 141249.0 74070.0 73664.0 236025.0 239423.0 255101.0 259800.0 217421.0 211605.0 112405.0 108441.0 210352.0 213534.0 164620.0 159709.0 202911.0 198919.0 35058.0 42748.0 183940.0 188589.0 195803.0 188134.0 61315.0 67839.0 160129.0 152054.0 201751.0 204549.0 241626.0 244800.0 147932.0 151117.0 218777.0 220912.0 228058.0 235786.0 147591.0 154443.0 100688.0 96261.0 51499.0 57003.0 73724.0 70516.0 99886.0 101796.0 174821.0 172170.0 80048.0 84613.0 223683.0 216351.0 164956.0 172648.0 100373.0 108040.0 94573.0 90654.0 123475.0 119291.0 233256.0 231403.0 127897.0 133928.0 93134.0 100833.0 203554.0 195601.0 86809.0 91394.0 25448.0 21799.0 35019.0 39419.0 116760.0 122118.0 91601.0 83982.0 176092.0 175363.0 169769.0 162536.0 57329.0 65403.0 177042.0 169203.0 190558.0 198328.0 193976.0 202120.0 158600.0 7151.0 158600.0 158600.0 7151.0 7151.0
63927.0 69134.0 7995.0 0.0 212626.0 210488.0 139227.0 146618.0 178568.0 172450.0 138338.0 133029.0 185513.0 180656.0 166174.0 166356.0 99180.0 103290.0 161707.0 156281.0 109372.0 114849.0 40714.0 38453.0 123076.0 117334.0 186176.0 190104.0 168028.0 172214.0 220911.0 215095.0 86271.0 81340.0 84406.0 77262.0 205781.0 205055.0 155784.0 163497.0 196503.0 201775.0 126259.0 123427.0 208813.0 202485.0 210612.0 207115.0 176633.0 171381.0 160874.0 159588.0 56622.0 57363.0 182084.0 187515.0 131195.0 134387.0 89278.0 95495.0 92178.0 93961.0 194661.0 187173.0 120714.0 121080.0 125334.0 129655.0 146937.0 148888.0 68620.0 68904.0 242249.0 245798.0 258809.0 263687.0 225413.0 219597.0 104859.0 101088.0 218343.0 221529.0 172613.0 167701.0 210872.0 206850.0 34068.0 41104.0 191931.0 196581.0 202198.0 194468.0 65563.0 71586.0 167800.0 159725.0 207356.0 210353.0 244402.0 247801.0 155656.0 158931.0 226771.0 228899.0 236050.0 243778.0 139727.0 146580.0 92968.0 88710.0 44114.0 49302.0 81083.0 77531.0 105896.0 107389.0 182812.0 180161.0 84094.0 89168.0 231675.0 224342.0 172947.0 180639.0 107708.0 115436.0 101673.0 98001.0 115486.0 111298.0 237550.0 235922.0 134571.0 140777.0 98401.0 106188.0 211547.0 203592.0 78827.0 83470.0 29526.0 23958.0 41585.0 45732.0 122924.0 128512.0 98783.0 91078.0 181291.0 180827.0 161775.0 154548.0 55609.0 63584.0 183389.0 175545.0 197371.0 205178.0 201322.0 209475.0 166591.0 11757.0 166591.0 166591.0 11757.0 11757.0
241499.0 239761.0 205868.0 212626.0 0.0 8186.0 73555.0 66582.0 54524.0 54013.0 75405.0 79796.0 143586.0 148153.0 77336.0 84790.0 283781.0 291122.0 61695.0 69614.0 109111.0 101433.0 173608.0 174277.0 91078.0 98351.0 27238.0 22548.0 48763.0 49248.0 11804.0 3281.0 263012.0 255267.0 133780.0 140560.0 110975.0 103143.0 59389.0 53119.0 76280.0 70179.0 86463.0 90293.0 66731.0 61882.0 163205.0 168188.0 101596.0 96085.0 367200.0 364163.0 228547.0 221301.0 140314.0 135545.0 93687.0 86487.0 130323.0 122432.0 123118.0 124477.0 125277.0 120900.0 325340.0 327702.0 90116.0 84125.0 75387.0 78888.0 233266.0 225995.0 39388.0 38364.0 129351.0 126990.0 138833.0 141793.0 289524.0 282231.0 124223.0 118414.0 115485.0 122461.0 97359.0 89463.0 197116.0 198595.0 157097.0 152353.0 19246.0 25785.0 154523.0 152719.0 68426.0 73206.0 47741.0 40478.0 148385.0 143808.0 78646.0 82993.0 119269.0 112720.0 139774.0 144832.0 348413.0 355177.0 283889.0 276479.0 256445.0 260573.0 133458.0 135472.0 108812.0 110140.0 157670.0 163364.0 141435.0 133633.0 148881.0 149494.0 133862.0 133469.0 107650.0 101081.0 111816.0 117064.0 318370.0 312088.0 100314.0 92482.0 78085.0 71995.0 120539.0 113078.0 120200.0 119576.0 284505.0 291001.0 185293.0 193010.0 171041.0 166971.0 91633.0 84936.0 115093.0 122270.0 65220.0 58067.0 359384.0 351415.0 197361.0 197734.0 33864.0 40703.0 15509.0 8763.0 34148.0 33507.0 165956.0 208560.0 165956.0 165956.0 208560.0 208560.0
237428.0 235477.0 203898.0 210488.0 8186.0 0.0 72131.0 65663.0 58946.0 57409.0 74669.0 78361.0 149247.0 153563.0 70333.0 77591.0 279483.0 286903.0 64057.0 72009.0 105318.0 97931.0 171989.0 172289.0 88043.0 94946.0 24330.0 22106.0 50121.0 51928.0 10427.0 7406.0 258616.0 250865.0 133180.0 139804.0 102797.0 94963.0 59687.0 54203.0 68149.0 61999.0 84254.0 87421.0 74027.0 68822.0 169549.0 174322.0 106992.0 101109.0 363769.0 360581.0 224520.0 217170.0 145862.0 141368.0 94952.0 87367.0 126669.0 118892.0 122191.0 124071.0 131493.0 126818.0 321884.0 324407.0 89740.0 83266.0 76917.0 81132.0 228897.0 221528.0 36216.0 36891.0 121770.0 119617.0 146005.0 148744.0 285181.0 277807.0 131349.0 125712.0 120694.0 127418.0 104496.0 96495.0 193838.0 195016.0 162845.0 158349.0 11796.0 19244.0 151137.0 148962.0 72326.0 76420.0 39572.0 32380.0 140314.0 135811.0 81741.0 86683.0 126720.0 120308.0 147237.0 152426.0 345439.0 352108.0 279865.0 272378.0 254109.0 258024.0 132248.0 133781.0 105736.0 106511.0 163041.0 168516.0 137393.0 129695.0 156104.0 156490.0 139049.0 139010.0 106953.0 100760.0 110506.0 116164.0 314810.0 308415.0 92551.0 84782.0 76030.0 70574.0 116836.0 109229.0 127132.0 126210.0 281308.0 287925.0 182733.0 190353.0 168947.0 164762.0 88468.0 82166.0 113891.0 120814.0 57626.0 50687.0 355317.0 347332.0 193247.0 193330.0 28771.0 36217.0 16737.0 13449.0 40765.0 41016.0 170149.0 206844.0 170149.0 170149.0 206844.0 206844.0
172762.0 172017.0 132373.0 139227.0 73555.0 72131.0 0.0 8006.0 49524.0 41524.0 6654.0 6245.0 118913.0 119806.0 60543.0 67365.0 215676.0 222614.0 32901.0 33636.0 43732.0 35171.0 100056.0 100814.0 23517.0 31935.0 47951.0 51009.0 31084.0 37806.0 82516.0 76152.0 195552.0 187916.0 61508.0 67906.0 115320.0 109738.0 19251.0 27139.0 86533.0 87167.0 14737.0 21783.0 85229.0 77494.0 145513.0 147042.0 81700.0 73438.0 295707.0 293087.0 159761.0 153070.0 114664.0 114079.0 34696.0 26479.0 62226.0 54206.0 50194.0 52838.0 110790.0 103154.0 254011.0 255949.0 20035.0 12156.0 27083.0 34992.0 166017.0 159367.0 106281.0 108572.0 157750.0 159197.0 137474.0 136109.0 221579.0 214730.0 124209.0 122572.0 89936.0 92590.0 103083.0 95627.0 125904.0 128375.0 131944.0 130978.0 65429.0 58548.0 84300.0 84174.0 47232.0 42146.0 80619.0 80385.0 161198.0 160178.0 43067.0 51072.0 126313.0 123856.0 144048.0 151411.0 276028.0 282879.0 214621.0 207572.0 183176.0 187545.0 60117.0 61922.0 39141.0 43530.0 127804.0 130367.0 74900.0 66938.0 147221.0 143642.0 104771.0 108720.0 35391.0 30418.0 38378.0 44218.0 247353.0 241436.0 129045.0 123841.0 7256.0 1561.0 53379.0 47594.0 117547.0 112264.0 212627.0 218833.0 112460.0 120317.0 97659.0 93709.0 24872.0 17052.0 41766.0 48745.0 65852.0 60338.0 289922.0 282044.0 129433.0 131296.0 47795.0 40507.0 58192.0 65959.0 65685.0 73686.0 123436.0 135005.0 123436.0 123436.0 135005.0 135005.0
180758.0 180022.0 139672.0 146618.0 66582.0 65663.0 8006.0 0.0 42090.0 34027.0 9070.0 13770.0 115843.0 117213.0 62098.0 69430.0 223676.0 230607.0 26141.0 28213.0 51451.0 42877.0 107153.0 108173.0 31168.0 39608.0 41818.0 44102.0 23081.0 29943.0 75969.0 69288.0 203557.0 195921.0 67521.0 74151.0 116389.0 110430.0 11428.0 19190.0 86073.0 85967.0 22732.0 29528.0 77819.0 70048.0 141968.0 143905.0 77233.0 69012.0 303523.0 300944.0 167757.0 161074.0 111647.0 110544.0 35229.0 26675.0 70206.0 62176.0 56590.0 58489.0 106418.0 98989.0 261852.0 263742.0 24384.0 17608.0 23497.0 31434.0 174022.0 167366.0 100483.0 102374.0 156848.0 157892.0 132224.0 131233.0 229580.0 222735.0 118678.0 116680.0 86397.0 89688.0 96768.0 89136.0 133804.0 136337.0 129113.0 127682.0 59751.0 53324.0 92286.0 92178.0 41117.0 36923.0 77385.0 76434.0 162030.0 160614.0 38699.0 46755.0 120249.0 117470.0 138396.0 145645.0 283732.0 290585.0 222596.0 215558.0 190630.0 195099.0 66878.0 69158.0 47132.0 51355.0 125520.0 128536.0 82843.0 74871.0 142101.0 138867.0 102024.0 105488.0 41291.0 35352.0 45279.0 50547.0 255225.0 249337.0 127709.0 122128.0 14880.0 6700.0 61296.0 55357.0 112145.0 107200.0 220415.0 226576.0 120119.0 128005.0 105094.0 101223.0 32440.0 24540.0 48517.0 55794.0 65403.0 59203.0 297880.0 290006.0 137439.0 139286.0 42994.0 36255.0 51116.0 58751.0 57679.0 65683.0 122800.0 142135.0 122800.0 122800.0 142135.0 142135.0
219204.0 219084.0 171037.0 178568.0 54524.0 58946.0 49524.0 42090.0 0.0 8087.0 46116.0 53745.0 91436.0 95213.0 94273.0 102442.0 262196.0 268820.0 17654.0 22308.0 93219.0 84674.0 137900.0 140681.0 73040.0 81452.0 46390.0 40928.0 22465.0 14089.0 66326.0 57798.0 242591.0 235070.0 94520.0 101715.0 143891.0 136820.0 30803.0 24159.0 109642.0 106611.0 63801.0 71287.0 35731.0 27974.0 113870.0 117745.0 48959.0 42441.0 338459.0 336437.0 206301.0 200038.0 87814.0 84068.0 48235.0 44182.0 110790.0 102932.0 86517.0 84833.0 75857.0 70039.0 297244.0 298528.0 54620.0 53062.0 31667.0 30499.0 213401.0 207103.0 93910.0 92337.0 174946.0 174109.0 96441.0 97153.0 268161.0 261618.0 82012.0 78535.0 62171.0 68588.0 57367.0 49227.0 170722.0 174199.0 105164.0 101434.0 60990.0 59520.0 131055.0 132021.0 14443.0 21121.0 89745.0 85130.0 187272.0 184315.0 26525.0 29032.0 81356.0 77448.0 100812.0 107517.0 317703.0 324556.0 260314.0 253597.0 222533.0 227837.0 97650.0 102373.0 87802.0 92894.0 104598.0 109788.0 123720.0 115855.0 106664.0 105034.0 80421.0 80991.0 71339.0 63412.0 78704.0 80884.0 291050.0 285613.0 144996.0 137963.0 56749.0 48535.0 102445.0 97035.0 76261.0 73115.0 255338.0 260964.0 154713.0 162738.0 138228.0 135051.0 74387.0 66527.0 80930.0 88896.0 91044.0 83255.0 335014.0 327253.0 176851.0 179381.0 55283.0 54028.0 42824.0 46078.0 25702.0 33062.0 111434.0 172222.0 111434.0 111434.0 172222.0 172222.0
211943.0 211704.0 165006.0 172450.0 54013.0 57409.0 41524.0 34027.0 8087.0 0.0 38342.0 45894.0 95650.0 98929.0 87145.0 95260.0 254941.0 261628.0 10743.0 17211.0 85246.0 76692.0 131874.0 134365.0 65037.0 73459.0 41919.0 37567.0 15036.0 7169.0 65678.0 57284.0 235227.0 227680.0 88819.0 95995.0 137655.0 130722.0 22718.0 16199.0 103798.0 101181.0 55897.0 63302.0 43794.0 36022.0 119062.0 122537.0 53444.0 46257.0 331937.0 329806.0 199013.0 192666.0 91862.0 88679.0 43392.0 38330.0 103046.0 95150.0 80276.0 79113.0 81341.0 75074.0 290614.0 292015.0 47723.0 45589.0 25727.0 26318.0 205956.0 199585.0 93191.0 92319.0 170335.0 169815.0 103255.0 103588.0 260896.0 254291.0 88975.0 85826.0 65928.0 71725.0 64886.0 56843.0 163701.0 167012.0 109395.0 106143.0 57908.0 55464.0 123651.0 124431.0 15306.0 19198.0 85423.0 81350.0 181523.0 178807.0 24666.0 29297.0 88826.0 85161.0 108036.0 114871.0 311321.0 318174.0 253215.0 246432.0 216497.0 221653.0 91389.0 95767.0 80010.0 84965.0 108166.0 112933.0 115936.0 108045.0 113434.0 111445.0 83872.0 85112.0 64866.0 57036.0 71872.0 74513.0 284333.0 278806.0 140385.0 133554.0 48731.0 40507.0 94594.0 89082.0 83015.0 79420.0 248772.0 254503.0 148076.0 156093.0 131797.0 128493.0 66369.0 58497.0 74264.0 82209.0 84728.0 77056.0 328059.0 320273.0 169379.0 171780.0 50028.0 47922.0 40777.0 45301.0 29516.0 37479.0 112936.0 166420.0 112936.0 112936.0 166420.0 166420.0
174174.0 173707.0 131292.0 138338.0 75405.0 74669.0 6654.0 9070.0 46116.0 38342.0 0.0 7778.0 112370.0 113198.0 67156.0 74013.0 217154.0 223968.0 28814.0 28342.0 47496.0 39072.0 98609.0 99887.0 27787.0 35967.0 50883.0 52996.0 30016.0 35644.0 84949.0 78161.0 197246.0 189658.0 58515.0 65197.0 121905.0 116270.0 17672.0 25644.0 92808.0 93221.0 17932.0 25871.0 81559.0 73917.0 139052.0 140501.0 75577.0 67316.0 295959.0 293511.0 161202.0 154697.0 108113.0 107630.0 28204.0 19890.0 64704.0 56821.0 47714.0 49435.0 104591.0 96890.0 254373.0 256122.0 15340.0 8753.0 20970.0 28749.0 167856.0 161385.0 109553.0 111416.0 163934.0 165252.0 131641.0 130093.0 223087.0 216367.0 118547.0 117148.0 83506.0 86032.0 98023.0 90743.0 126607.0 129471.0 125360.0 124471.0 68815.0 62334.0 85705.0 86176.0 42258.0 36590.0 85778.0 85121.0 167762.0 166681.0 37059.0 44987.0 121011.0 118825.0 138442.0 145873.0 275913.0 282753.0 215770.0 208843.0 182407.0 187017.0 58157.0 60808.0 41687.0 46969.0 121168.0 123714.0 77610.0 69739.0 141313.0 137577.0 98186.0 102210.0 32300.0 26285.0 36734.0 41660.0 247850.0 242080.0 135079.0 129735.0 12604.0 7238.0 56349.0 51194.0 111816.0 106360.0 212794.0 218842.0 112271.0 120208.0 96905.0 93153.0 29283.0 21878.0 39850.0 47313.0 72108.0 66378.0 290901.0 283059.0 131257.0 133497.0 51901.0 44976.0 59909.0 67441.0 64400.0 72520.0 116844.0 133594.0 116844.0 116844.0 133594.0 133594.0
167226.0 166613.0 126154.0 133029.0 79796.0 78361.0 6245.0 13770.0 53745.0 45894.0 7778.0 0.0 118451.0 118949.0 63205.0 69591.0 210177.0 217059.0 36551.0 36038.0 39722.0 31295.0 93813.0 94605.0 20068.0 28197.0 54158.0 57250.0 36566.0 42796.0 88751.0 82397.0 190153.0 182541.0 55458.0 61781.0 118036.0 112731.0 24395.0 32408.0 90348.0 91411.0 10156.0 18128.0 89269.0 81606.0 145387.0 146566.0 82607.0 74362.0 289755.0 287186.0 154236.0 147631.0 114170.0 114024.0 32309.0 24737.0 57220.0 49280.0 44048.0 46939.0 111483.0 103687.0 248089.0 249972.0 15440.0 7401.0 28256.0 35795.0 160688.0 154132.0 112397.0 114762.0 161671.0 163354.0 138925.0 137201.0 216094.0 209306.0 125966.0 124702.0 89984.0 92090.0 105716.0 98477.0 120073.0 122693.0 131247.0 130672.0 71546.0 64570.0 78729.0 78903.0 50000.0 44166.0 85898.0 85957.0 163987.0 163241.0 44324.0 52139.0 128618.0 126520.0 145889.0 153358.0 269975.0 276828.0 208977.0 201979.0 176998.0 181405.0 53892.0 55688.0 34141.0 39224.0 126675.0 128876.0 70059.0 62154.0 148526.0 144624.0 104091.0 108426.0 29463.0 25050.0 32145.0 38101.0 241473.0 235604.0 133262.0 128277.0 6381.0 7806.0 48705.0 43434.0 119190.0 113595.0 206645.0 212810.0 106374.0 114251.0 91471.0 87548.0 21588.0 14426.0 35552.0 42500.0 69772.0 64686.0 284216.0 276352.0 124087.0 126159.0 53735.0 46323.0 64423.0 72174.0 71167.0 79227.0 121091.0 128765.0 121091.0 121091.0 128765.0 128765.0
242769.0 245447.0 177522.0 185513.0 143586.0 149247.0 118913.0 115843.0 91436.0 95650.0 112370.0 118451.0 0.0 7611.0 177728.0 185229.0 282812.0 287619.0 94821.0 89094.0 151288.0 144741.0 149603.0 156269.0 136335.0 142568.0 137482.0 132363.0 109185.0 102691.0 155142.0 146722.0 266971.0 260558.0 114334.0 119072.0 231141.0 224656.0 109390.0 107885.0 198489.0 196465.0 126506.0 134329.0 83300.0 84627.0 27693.0 28131.0 42481.0 49403.0 346019.0 344890.0 231501.0 227726.0 4308.0 8891.0 87583.0 93923.0 158861.0 153449.0 116238.0 108950.0 22537.0 23343.0 306107.0 306316.0 106577.0 112317.0 92376.0 84412.0 241777.0 237821.0 182031.0 178831.0 265985.0 265403.0 43917.0 36469.0 288684.0 283984.0 44000.0 51001.0 29951.0 26362.0 57865.0 61981.0 193918.0 200365.0 13747.0 12542.0 152365.0 150856.0 167786.0 172779.0 80736.0 80848.0 180991.0 176558.0 276038.0 273774.0 77639.0 69819.0 55819.0 62391.0 55327.0 62179.0 324880.0 331733.0 277514.0 272641.0 228258.0 234114.0 123552.0 131630.0 141688.0 149507.0 15748.0 23411.0 170763.0 164849.0 47583.0 39551.0 14782.0 10567.0 110388.0 105312.0 119095.0 114500.0 300965.0 296803.0 236035.0 229173.0 124564.0 119078.0 154920.0 153698.0 40146.0 33806.0 264287.0 268773.0 173120.0 180059.0 156116.0 155629.0 137939.0 132329.0 118279.0 123619.0 178590.0 171315.0 347281.0 340057.0 209128.0 214690.0 145614.0 142821.0 133875.0 135881.0 109819.0 113028.0 45843.0 177392.0 45843.0 45843.0 177392.0 177392.0
238309.0 241166.0 172664.0 180656.0 148153.0 153563.0 119806.0 117213.0 95213.0 98929.0 113198.0 118949.0 7611.0 0.0 179282.0 186635.0 277978.0 282766.0 97323.0 91183.0 150462.0 144207.0 145159.0 152002.0 136256.0 142169.0 140848.0 136049.0 111993.0 105861.0 159796.0 151327.0 262450.0 256141.0 111259.0 115665.0 233112.0 226773.0 111392.0 110411.0 200924.0 199182.0 126604.0 134271.0 89320.0 90210.0 30325.0 28618.0 46580.0 52809.0 341162.0 340033.0 227217.0 223641.0 8458.0 15949.0 87455.0 94253.0 157053.0 151934.0 113898.0 106404.0 29754.0 29454.0 301250.0 301459.0 106434.0 112555.0 93722.0 85836.0 237658.0 233892.0 186885.0 183923.0 269096.0 268723.0 51110.0 43460.0 283822.0 279260.0 51609.0 58602.0 33059.0 27718.0 64844.0 68560.0 189769.0 196371.0 12650.0 15940.0 156200.0 154347.0 164933.0 170180.0 83793.0 83207.0 184350.0 180166.0 278273.0 276214.0 79603.0 72012.0 63430.0 69971.0 62510.0 69185.0 320022.0 326875.0 272694.0 267744.0 223401.0 229257.0 120693.0 128832.0 140676.0 148584.0 9548.0 16438.0 168701.0 163030.0 54146.0 45892.0 15289.0 14943.0 109017.0 104386.0 117533.0 112534.0 296108.0 291945.0 239176.0 232443.0 125163.0 120068.0 153548.0 152708.0 47712.0 41218.0 259430.0 263915.0 168842.0 175632.0 152016.0 151729.0 137849.0 132562.0 116494.0 121462.0 180821.0 173686.0 342423.0 335200.0 205509.0 211256.0 148662.0 145518.0 137914.0 140275.0 114661.0 118242.0 38771.0 172534.0 38771.0 38771.0 172534.0 172534.0
178520.0 175288.0 161224.0 166174.0 77336.0 70333.0 60543.0 62098.0 94273.0 87145.0 67156.0 63205.0 177728.0 179282.0 0.0 8254.0 218559.0 226347.0 84183.0 88880.0 58337.0 55740.0 134308.0 131558.0 53972.0 54674.0 55882.0 64053.0 72110.0 80270.0 78079.0 77651.0 197394.0 189722.0 108848.0 113090.0 54841.0 49634.0 68664.0 71807.0 31032.0 35617.0 59471.0 55149.0 126033.0 118611.0 203411.0 205701.0 137884.0 129841.0 307114.0 303039.0 166172.0 158334.0 173569.0 172096.0 95163.0 87022.0 76952.0 71388.0 97042.0 103055.0 166900.0 159861.0 265506.0 269022.0 78364.0 70543.0 85566.0 93448.0 168325.0 160504.0 87509.0 93815.0 100686.0 103485.0 190374.0 190431.0 223938.0 216185.0 176120.0 172808.0 148048.0 151696.0 151556.0 143333.0 141696.0 140643.0 191098.0 189390.0 58540.0 51563.0 100907.0 95970.0 99509.0 97425.0 45476.0 51249.0 100784.0 100135.0 100148.0 108088.0 175553.0 171238.0 195082.0 201772.0 291860.0 297836.0 220544.0 212700.0 206671.0 208925.0 102805.0 99926.0 65278.0 60757.0 187618.0 190563.0 83189.0 77185.0 200528.0 198242.0 164066.0 167297.0 87342.0 86134.0 84642.0 92534.0 257872.0 250857.0 74380.0 71185.0 56892.0 59962.0 68258.0 60822.0 170124.0 166211.0 227204.0 234506.0 136664.0 143070.0 127622.0 122860.0 52992.0 53334.0 88154.0 91340.0 16497.0 20413.0 294998.0 286982.0 135224.0 133399.0 45826.0 42537.0 69414.0 75601.0 94836.0 100117.0 183973.0 166018.0 183973.0 183973.0 166018.0 166018.0
175711.0 172187.0 161729.0 166356.0 84790.0 77591.0 67365.0 69430.0 102442.0 95260.0 74013.0 69591.0 185229.0 186635.0 8254.0 0.0 215109.0 222962.0 92070.0 96572.0 60387.0 58907.0 135924.0 132722.0 58631.0 58263.0 63977.0 72151.0 80224.0 88418.0 84941.0 84957.0 193941.0 186319.0 112770.0 116624.0 48827.0 44380.0 76435.0 79814.0 30242.0 36314.0 65037.0 59996.0 134287.0 126864.0 211081.0 213249.0 145675.0 137596.0 304399.0 300148.0 163564.0 155658.0 181049.0 179725.0 101784.0 93789.0 77598.0 72709.0 101134.0 107502.0 174741.0 167636.0 262940.0 266650.0 84495.0 76834.0 92926.0 100853.0 165163.0 157270.0 92662.0 99303.0 96957.0 100317.0 198452.0 198431.0 220394.0 212570.0 184231.0 180974.0 155635.0 159115.0 159749.0 151535.0 140639.0 139125.0 198537.0 196971.0 65803.0 59095.0 100826.0 95387.0 107446.0 105166.0 49933.0 56372.0 94723.0 94558.0 107745.0 115722.0 183747.0 179465.0 203238.0 209953.0 289787.0 295616.0 217468.0 209568.0 206034.0 207978.0 106193.0 102753.0 68230.0 62930.0 194874.0 197661.0 82620.0 77192.0 208594.0 206230.0 171454.0 174832.0 92359.0 91713.0 88999.0 96933.0 255209.0 248082.0 72051.0 69705.0 63223.0 66890.0 69479.0 62428.0 178200.0 174211.0 225222.0 232632.0 136837.0 142946.0 128744.0 123956.0 57502.0 58774.0 92418.0 95019.0 21327.0 27019.0 291514.0 283505.0 132921.0 130635.0 53849.0 50760.0 77373.0 83392.0 103034.0 108240.0 190633.0 166783.0 190633.0 190633.0 166783.0 166783.0
42998.0 44020.0 106678.0 99180.0 283781.0 279483.0 215676.0 223676.0 262196.0 254941.0 217154.0 210177.0 282812.0 277978.0 218559.0 215109.0 0.0 8055.0 244556.0 240888.0 174891.0 182932.0 133677.0 127748.0 194070.0 186149.0 256592.0 262536.0 246713.0 252798.0 289382.0 285550.0 21170.0 28846.0 174442.0 168021.0 238281.0 240837.0 234564.0 242582.0 243507.0 250704.0 201022.0 195252.0 295842.0 288740.0 307950.0 304453.0 270062.0 263856.0 92301.0 86816.0 55953.0 62682.0 279326.0 284520.0 218783.0 219604.0 154117.0 162170.0 178444.0 182879.0 290808.0 283035.0 54816.0 61101.0 207694.0 209396.0 231274.0 235239.0 50621.0 58200.0 304948.0 310381.0 288722.0 295495.0 321820.0 316377.0 6004.0 5370.0 313649.0 316017.0 267978.0 263890.0 303020.0 297943.0 92263.0 88054.0 289269.0 293916.0 269056.0 260968.0 131460.0 131744.0 254056.0 246250.0 263993.0 269281.0 263910.0 269794.0 243198.0 248064.0 321101.0 322273.0 332124.0 339942.0 86327.0 89458.0 10953.0 10620.0 75191.0 67449.0 167864.0 161482.0 176805.0 174110.0 280150.0 277499.0 142423.0 150314.0 328548.0 321410.0 269992.0 277605.0 192060.0 200009.0 183906.0 183224.0 46516.0 38558.0 276089.0 277330.0 209292.0 217059.0 163687.0 170879.0 306670.0 298916.0 42740.0 48387.0 111234.0 103659.0 128746.0 130505.0 193228.0 200672.0 182138.0 174272.0 235054.0 237730.0 76439.0 68423.0 86555.0 86183.0 250721.0 243323.0 269950.0 277918.0 281330.0 289358.0 263929.0 110557.0 263929.0 263929.0 110557.0 110557.0
49860.0 51456.0 110953.0 103290.0 291122.0 286903.0 222614.0 230607.0 268820.0 261628.0 223968.0 217059.0 287619.0 282766.0 226347.0 222962.0 8055.0 0.0 251196.0 247394.0 182139.0 190121.0 138937.0 133255.0 201187.0 193323.0 263915.0 269785.0 253616.0 259602.0 296837.0 292922.0 29054.0 36644.0 180266.0 173744.0 246331.0 248874.0 241431.0 249452.0 251432.0 258608.0 207992.0 202337.0 302259.0 295212.0 312722.0 309225.0 275757.0 269668.0 84272.0 78762.0 62869.0 69855.0 284191.0 289522.0 224995.0 226007.0 161259.0 169297.0 184605.0 188844.0 296071.0 288354.0 47301.0 53812.0 214258.0 216129.0 237776.0 241598.0 58200.0 65887.0 312612.0 317995.0 296775.0 303550.0 327037.0 321477.0 5370.0 12310.0 319098.0 321607.0 273373.0 269121.0 308924.0 303966.0 98465.0 94622.0 294041.0 298691.0 276537.0 268448.0 138331.0 138850.0 260465.0 252621.0 271762.0 277002.0 271915.0 277816.0 249476.0 254209.0 326720.0 328035.0 337429.0 345230.0 78936.0 81813.0 10620.0 15330.0 76170.0 68209.0 173926.0 167707.0 183843.0 181308.0 284922.0 282271.0 149706.0 157564.0 333617.0 326390.0 274971.0 282621.0 198427.0 206393.0 190378.0 189487.0 39065.0 31153.0 284124.0 285347.0 216295.0 224009.0 170879.0 178137.0 312146.0 304349.0 40514.0 45112.0 116919.0 109215.0 134424.0 136370.0 200371.0 207764.0 188527.0 180629.0 242843.0 245451.0 68694.0 60676.0 93785.0 93702.0 258151.0 250721.0 277206.0 285182.0 288225.0 296274.0 268701.0 114448.0 268701.0 268701.0 114448.0 114448.0
201562.0 201430.0 154267.0 161707.0 61695.0 64057.0 32901.0 26141.0 17654.0 10743.0 28814.0 36551.0 94821.0 97323.0 84183.0 92070.0 244556.0 251196.0 0.0 7955.0 76242.0 67758.0 121137.0 123625.0 56261.0 64592.0 45399.0 42780.0 15185.0 12531.0 73056.0 64907.0 224938.0 217416.0 78140.0 85309.0 136530.0 129917.0 15984.0 13089.0 103677.0 101870.0 46691.0 54427.0 52756.0 45147.0 119603.0 122397.0 53816.0 45921.0 321228.0 319120.0 188654.0 182384.0 90823.0 88542.0 33214.0 27684.0 93314.0 85509.0 69533.0 68435.0 82730.0 75805.0 279928.0 281304.0 37090.0 35441.0 15137.0 17193.0 195750.0 189466.0 100233.0 100021.0 172065.0 172045.0 106977.0 106513.0 250519.0 243967.0 93135.0 90797.0 64873.0 69665.0 70662.0 62997.0 153157.0 156573.0 108466.0 105987.0 62792.0 59092.0 113402.0 114417.0 15479.0 14166.0 88125.0 84901.0 181227.0 178971.0 18611.0 25426.0 94244.0 91339.0 112688.0 119828.0 300591.0 307444.0 242721.0 235980.0 205757.0 210910.0 80646.0 85062.0 70406.0 75774.0 106261.0 110390.0 106286.0 98461.0 116996.0 114268.0 82059.0 84266.0 54132.0 46294.0 61226.0 63774.0 273670.0 268172.0 142228.0 135748.0 40150.0 32112.0 85132.0 79981.0 86775.0 82318.0 238070.0 243783.0 137385.0 145404.0 121068.0 117783.0 57678.0 49934.0 63567.0 71521.0 83809.0 76494.0 317488.0 309714.0 159205.0 161777.0 51905.0 48227.0 47343.0 52937.0 40039.0 48084.0 108311.0 155705.0 108311.0 108311.0 155705.0 155705.0
197935.0 198070.0 148737.0 156281.0 69614.0 72009.0 33636.0 28213.0 22308.0 17211.0 28342.0 36038.0 89094.0 91183.0 88880.0 96572.0 240888.0 247394.0 7955.0 0.0 75511.0 67217.0 115603.0 118462.0 56104.0 64185.0 53022.0 50671.0 22761.0 20384.0 81000.0 72833.0 221522.0 214065.0 72217.0 79411.0 142053.0 135622.0 20301.0 19940.0 109795.0 108348.0 46097.0 54165.0 55139.0 47877.0 114531.0 116929.0 49219.0 41067.0 316303.0 314349.0 185096.0 179024.0 85005.0 83232.0 26231.0 21913.0 91301.0 83705.0 64304.0 62527.0 78387.0 71115.0 275161.0 276370.0 33283.0 33340.0 9620.0 9326.0 192553.0 186463.0 108188.0 107952.0 178832.0 178998.0 104053.0 103023.0 246869.0 240456.0 90630.0 88940.0 59254.0 63464.0 69683.0 62458.0 149092.0 152835.0 102624.0 100573.0 70593.0 66675.0 110249.0 111778.0 14063.0 8721.0 95368.0 92386.0 187094.0 185061.0 11617.0 19277.0 92722.0 90486.0 110435.0 117779.0 295486.0 302339.0 238742.0 232131.0 200231.0 205559.0 75434.0 80371.0 68787.0 74772.0 99940.0 103764.0 104356.0 96680.0 113902.0 110668.0 75894.0 78591.0 49307.0 41334.0 57024.0 58749.0 269033.0 263677.0 149074.0 142731.0 40648.0 33190.0 83632.0 79077.0 84025.0 78990.0 233219.0 238784.0 132680.0 140705.0 116066.0 112972.0 57615.0 50189.0 59040.0 67002.0 89639.0 82540.0 313227.0 305497.0 156124.0 159050.0 59077.0 54903.0 55298.0 60853.0 46666.0 54538.0 100915.0 149917.0 100915.0 100915.0 149917.0 149917.0
132428.0 130903.0 103874.0 109372.0 109111.0 105318.0 43732.0 51451.0 93219.0 85246.0 47496.0 39722.0 151288.0 150462.0 58337.0 60387.0 174891.0 182139.0 76242.0 75511.0 0.0 8574.0 75984.0 73495.0 20287.0 11854.0 81874.0 87648.0 74147.0 81382.0 115490.0 111035.0 154293.0 146572.0 55161.0 57754.0 106586.0 103599.0 62874.0 70564.0 89347.0 93697.0 29566.0 21950.0 128875.0 121168.0 178879.0 178924.0 119565.0 111497.0 258498.0 255265.0 119459.0 112286.0 146988.0 148162.0 64263.0 59634.0 21407.0 14012.0 44732.0 52341.0 147582.0 139517.0 216607.0 219245.0 45831.0 42557.0 67028.0 73842.0 124555.0 117512.0 134240.0 138547.0 157106.0 160676.0 176403.0 173960.0 180687.0 173532.0 164055.0 163355.0 124862.0 125398.0 144989.0 137937.0 88864.0 89719.0 163085.0 163800.0 95595.0 87566.0 46180.0 43648.0 89555.0 83278.0 97987.0 101167.0 150922.0 152119.0 82644.0 89997.0 167483.0 165777.0 184032.0 191645.0 240689.0 247199.0 174790.0 167413.0 151470.0 154584.0 47175.0 42722.0 10339.0 2658.0 157049.0 157785.0 32491.0 24578.0 185665.0 181088.0 136533.0 141969.0 42227.0 46076.0 35100.0 42357.0 209498.0 203099.0 132315.0 129474.0 36583.0 44816.0 11562.0 4035.0 157127.0 151012.0 176289.0 183077.0 80181.0 87220.0 69617.0 64904.0 19087.0 26973.0 37576.0 37306.0 72422.0 71493.0 250290.0 242327.0 88356.0 89222.0 76816.0 69146.0 95067.0 103043.0 108275.0 116026.0 146755.0 108273.0 146755.0 146755.0 108273.0 108273.0
140342.0 138984.0 109003.0 114849.0 101433.0 97931.0 35171.0 42877.0 84674.0 76692.0 39072.0 31295.0 144741.0 144207.0 55740.0 58907.0 182932.0 190121.0 67758.0 67217.0 8574.0 0.0 79765.0 78030.0 11714.0 3298.0 74211.0 79725.0 65593.0 72808.0 108189.0 103454.0 162421.0 154713.0 54148.0 57730.0 106532.0 102960.0 54301.0 61993.0 86679.0 90408.0 21150.0 13389.0 120347.0 112632.0 172236.0 172543.0 112000.0 103874.0 265859.0 262748.0 127351.0 120276.0 140434.0 141312.0 57301.0 52121.0 28923.0 20999.0 42858.0 49893.0 140272.0 132257.0 223980.0 226476.0 38517.0 34560.0 58906.0 65902.0 132706.0 125741.0 127772.0 131791.0 155850.0 159027.0 168773.0 166517.0 188753.0 181657.0 156249.0 155382.0 117787.0 118671.0 136801.0 129673.0 95921.0 97168.0 156791.0 157215.0 88537.0 80576.0 53207.0 51358.0 81236.0 75106.0 92875.0 95548.0 151584.0 152328.0 74672.0 82153.0 159444.0 157601.0 176220.0 183794.0 247639.0 254242.0 182634.0 175321.0 157533.0 160928.0 47286.0 44201.0 9609.0 8830.0 151065.0 152125.0 40702.0 32721.0 178132.0 173727.0 130032.0 135240.0 37483.0 40153.0 31671.0 39449.0 216959.0 210655.0 130117.0 126801.0 28010.0 36245.0 19246.0 12518.0 149358.0 143377.0 183398.0 190072.0 86018.0 93314.0 74272.0 69676.0 10548.0 18410.0 34698.0 36245.0 68639.0 66869.0 258133.0 250184.0 96377.0 97475.0 69676.0 61912.0 87159.0 95147.0 99777.0 107557.0 141709.0 113029.0 141709.0 141709.0 113029.0 113029.0
93172.0 96065.0 33140.0 40714.0 173608.0 171989.0 100056.0 107153.0 137900.0 131874.0 98609.0 93813.0 149603.0 145159.0 134308.0 135924.0 133677.0 138937.0 121137.0 115603.0 75984.0 79765.0 0.0 8000.0 86251.0 81746.0 147675.0 151063.0 127969.0 131844.0 182408.0 176205.0 117369.0 110986.0 43716.0 36602.0 179700.0 177731.0 115828.0 123411.0 165291.0 169662.0 87949.0 86268.0 168180.0 161801.0 175277.0 171836.0 137358.0 131703.0 201390.0 199887.0 82126.0 78999.0 145992.0 150957.0 90490.0 93725.0 59143.0 63223.0 51688.0 53248.0 157150.0 149418.0 160844.0 161520.0 85079.0 89866.0 106297.0 108174.0 92857.0 89770.0 204914.0 207944.0 231704.0 235760.0 188147.0 182720.0 139615.0 134584.0 180204.0 182887.0 134453.0 130218.0 171191.0 166848.0 45165.0 52424.0 156639.0 161042.0 164360.0 156862.0 41911.0 49787.0 127091.0 119017.0 172441.0 174643.0 221688.0 224008.0 114982.0 118414.0 188051.0 189721.0 198496.0 206302.0 180298.0 187151.0 129176.0 123744.0 84639.0 90016.0 40692.0 38210.0 70263.0 73616.0 147536.0 144895.0 59318.0 61330.0 194906.0 187851.0 136469.0 144028.0 67330.0 74940.0 61892.0 57607.0 155254.0 150577.0 207974.0 205377.0 96005.0 101617.0 66473.0 73564.0 173276.0 165447.0 118816.0 123867.0 23979.0 30473.0 10588.0 14329.0 86374.0 90999.0 58783.0 51361.0 148205.0 146632.0 200905.0 193464.0 63979.0 71136.0 145769.0 137969.0 158210.0 165900.0 160889.0 169027.0 131325.0 34986.0 131325.0 131325.0 34986.0 34986.0
86621.0 89183.0 31610.0 38453.0 174277.0 172289.0 100814.0 108173.0 140681.0 134365.0 99887.0 94605.0 156269.0 152002.0 131558.0 132722.0 127748.0 133255.0 123625.0 118462.0 73495.0 78030.0 8000.0 0.0 85421.0 80259.0 147961.0 151741.0 129610.0 133922.0 182716.0 176780.0 110896.0 104336.0 47612.0 40772.0 175461.0 173790.0 117351.0 125088.0 162412.0 167085.0 88037.0 85626.0 171829.0 165262.0 182199.0 178924.0 142558.0 136636.0 197892.0 196107.0 75235.0 71755.0 152590.0 157358.0 93948.0 96551.0 55279.0 60173.0 54165.0 56792.0 163152.0 155331.0 156959.0 157964.0 87018.0 91210.0 109014.0 111416.0 85709.0 82347.0 204542.0 207863.0 227808.0 232075.0 194202.0 188944.0 133717.0 128441.0 185903.0 188352.0 140237.0 136291.0 176043.0 171436.0 37848.0 44864.0 163618.0 167844.0 164241.0 156601.0 35838.0 43570.0 130416.0 122367.0 170905.0 173452.0 216803.0 219348.0 118569.0 122428.0 193469.0 194885.0 204418.0 212247.0 177025.0 183878.0 123686.0 117987.0 82530.0 87349.0 43032.0 39083.0 68731.0 71265.0 154622.0 151979.0 53959.0 56800.0 201162.0 194231.0 142929.0 150421.0 69511.0 77336.0 63244.0 59852.0 151100.0 146140.0 204691.0 202370.0 96287.0 102367.0 63333.0 70756.0 178929.0 171169.0 114938.0 120347.0 16851.0 24092.0 4016.0 8801.0 85395.0 90579.0 60409.0 52652.0 145917.0 144759.0 196280.0 188744.0 56086.0 63179.0 145505.0 137670.0 158985.0 166772.0 163058.0 171219.0 138409.0 35028.0 138409.0 138409.0 35028.0 35028.0
151355.0 150185.0 116845.0 123076.0 91078.0 88043.0 23517.0 31168.0 73040.0 65037.0 27787.0 20068.0 136335.0 136256.0 53972.0 58631.0 194070.0 201187.0 56261.0 56104.0 20287.0 11714.0 86251.0 85421.0 0.0 8440.0 63985.0 69039.0 53897.0 61095.0 98401.0 93245.0 173664.0 165974.0 55182.0 59959.0 107323.0 102992.0 42595.0 50279.0 84070.0 86845.0 10213.0 2030.0 108741.0 101010.0 163620.0 164328.0 102058.0 93857.0 276147.0 273187.0 138349.0 131388.0 132031.0 132444.0 48812.0 42669.0 39960.0 31900.0 43259.0 49083.0 130678.0 122762.0 234303.0 236624.0 29823.0 24423.0 48172.0 55480.0 143987.0 137112.0 119189.0 122763.0 154640.0 157255.0 158629.0 156671.0 199917.0 192891.0 145837.0 144703.0 108631.0 110070.0 125784.0 118530.0 106045.0 107720.0 148742.0 148718.0 79218.0 71419.0 63535.0 62337.0 70046.0 64206.0 86562.0 88433.0 153017.0 153143.0 64148.0 71828.0 148655.0 146588.0 165784.0 173290.0 257429.0 264143.0 193542.0 186305.0 166334.0 170064.0 50112.0 48867.0 17734.0 20341.0 143507.0 145055.0 52157.0 44158.0 168132.0 164000.0 121746.0 126578.0 33800.0 34169.0 30708.0 38573.0 227392.0 221205.0 127739.0 123775.0 16317.0 24553.0 30572.0 24220.0 139015.0 133257.0 193431.0 199960.0 94826.0 102367.0 81847.0 77441.0 1610.0 6723.0 34265.0 38246.0 64720.0 61697.0 269013.0 261083.0 107547.0 108885.0 60362.0 52521.0 76476.0 84464.0 88155.0 95975.0 135648.0 120401.0 135648.0 135648.0 120401.0 120401.0
143531.0 142212.0 111381.0 117334.0 98351.0 94946.0 31935.0 39608.0 81452.0 73459.0 35967.0 28197.0 142568.0 142169.0 54674.0 58263.0 186149.0 193323.0 64592.0 64185.0 11854.0 3298.0 81746.0 80259.0 8440.0 0.0 71145.0 76570.0 62300.0 69533.0 105230.0 100403.0 165658.0 157953.0 54517.0 58454.0 106292.0 102502.0 51035.0 58711.0 85473.0 88956.0 18087.0 10172.0 117139.0 109416.0 170008.0 170436.0 109353.0 101200.0 268889.0 265813.0 130535.0 123484.0 138261.0 139000.0 55025.0 49564.0 32086.0 24108.0 42980.0 49718.0 137740.0 129753.0 227017.0 229471.0 36119.0 31765.0 55988.0 63084.0 135949.0 129001.0 125095.0 129011.0 155093.0 158117.0 166075.0 163913.0 191976.0 184893.0 153464.0 152511.0 115380.0 116430.0 133815.0 126642.0 98892.0 100245.0 154728.0 155019.0 85672.0 77741.0 56208.0 54523.0 78182.0 72146.0 90724.0 93203.0 151565.0 152134.0 71829.0 79375.0 156537.0 154618.0 173430.0 180983.0 250549.0 257179.0 185802.0 178505.0 160182.0 163664.0 48132.0 45562.0 11529.0 12088.0 149145.0 150348.0 43970.0 35983.0 175481.0 171161.0 127889.0 132988.0 36415.0 38485.0 31289.0 39180.0 220021.0 213743.0 129024.0 125532.0 24753.0 32989.0 22472.0 15813.0 146594.0 140682.0 186362.0 193001.0 88641.0 96007.0 76547.0 71997.0 7250.0 15120.0 34505.0 36770.0 67050.0 64957.0 261297.0 253353.0 99596.0 100741.0 66797.0 59008.0 84008.0 91998.0 96480.0 104262.0 140215.0 115283.0 140215.0 140215.0 115283.0 115283.0
214272.0 212574.0 179571.0 186176.0 27238.0 24330.0 47951.0 41818.0 46390.0 41919.0 50883.0 54158.0 137482.0 140848.0 55882.0 63977.0 256592.0 263915.0 45399.0 53022.0 81874.0 74211.0 147675.0 147961.0 63985.0 71145.0 0.0 8174.0 30266.0 35072.0 34757.0 29270.0 235853.0 228111.0 109263.0 115789.0 99416.0 92011.0 37321.0 33455.0 64443.0 60666.0 59929.0 63278.0 72331.0 65457.0 160259.0 164087.0 95117.0 88133.0 340025.0 336955.0 201316.0 194084.0 133737.0 130330.0 73253.0 65211.0 103090.0 95211.0 98115.0 100302.0 122216.0 116414.0 298157.0 300565.0 66134.0 59338.0 56022.0 61485.0 206103.0 198868.0 58698.0 60637.0 128593.0 127925.0 141237.0 142676.0 262346.0 255079.0 126570.0 122096.0 107835.0 113603.0 100463.0 92146.0 169972.0 171379.0 151229.0 147744.0 18279.0 13709.0 127340.0 125482.0 57130.0 59170.0 43516.0 39609.0 141534.0 138268.0 63979.0 70246.0 124099.0 118833.0 144328.0 150410.0 321407.0 328127.0 256657.0 249254.0 229835.0 233807.0 108044.0 109466.0 81714.0 82906.0 150081.0 154767.0 114216.0 106403.0 151494.0 150560.0 125785.0 126965.0 83036.0 77139.0 86290.0 92112.0 291165.0 284864.0 98638.0 91694.0 51701.0 46401.0 93302.0 85844.0 121360.0 118938.0 257399.0 263944.0 158509.0 166164.0 144626.0 140455.0 64489.0 57973.0 89709.0 96547.0 47826.0 39868.0 332153.0 324186.0 170144.0 170590.0 10336.0 14459.0 14291.0 21812.0 39479.0 44272.0 153675.0 182518.0 153675.0 153675.0 182518.0 182518.0
220045.0 218539.0 183328.0 190104.0 22548.0 22106.0 51009.0 44102.0 40928.0 37567.0 52996.0 57250.0 132363.0 136049.0 64053.0 72151.0 262536.0 269785.0 42780.0 50671.0 87648.0 79725.0 151063.0 151741.0 69039.0 76570.0 8174.0 0.0 28282.0 31263.0 32111.0 25187.0 241896.0 234166.0 111472.0 118192.0 106923.0 99433.0 37593.0 32207.0 71814.0 67621.0 64018.0 68148.0 64694.0 58008.0 154462.0 158560.0 89888.0 83240.0 345157.0 342225.0 207061.0 199930.0 128724.0 124966.0 72910.0 65269.0 108646.0 100677.0 100683.0 102257.0 116325.0 110820.0 303326.0 305582.0 67886.0 61684.0 54996.0 59600.0 212147.0 205006.0 58137.0 58974.0 134313.0 133274.0 134359.0 136067.0 268324.0 261133.0 119660.0 114961.0 102990.0 109120.0 93329.0 85032.0 175045.0 176739.0 146093.0 142293.0 20343.0 18863.0 132573.0 131082.0 52863.0 55891.0 49068.0 44204.0 148447.0 144948.0 61003.0 66650.0 116803.0 111351.0 137123.0 143073.0 326120.0 332929.0 262358.0 255028.0 233953.0 238135.0 110956.0 112925.0 86739.0 88509.0 145385.0 150359.0 120115.0 112226.0 144607.0 143938.0 121139.0 121908.0 85287.0 78891.0 89291.0 94635.0 296430.0 290235.0 104407.0 97225.0 55609.0 49448.0 98939.0 91657.0 114634.0 112535.0 262342.0 268770.0 162879.0 170627.0 148520.0 144470.0 69687.0 62749.0 92587.0 99731.0 55781.0 47847.0 337857.0 329907.0 176003.0 176708.0 18434.0 22276.0 7440.0 15430.0 31479.0 36102.0 150345.0 186013.0 150345.0 150345.0 186013.0 186013.0
203777.0 203090.0 160864.0 168028.0 48763.0 50121.0 31084.0 23081.0 22465.0 15036.0 30016.0 36566.0 109185.0 111993.0 72110.0 80224.0 246713.0 253616.0 15185.0 22761.0 74147.0 65593.0 127969.0 129610.0 53897.0 62300.0 30266.0 28282.0 0.0 8408.0 59633.0 51850.0 226626.0 218995.0 86363.0 93361.0 122977.0 116149.0 12345.0 4579.0 89480.0 87280.0 45812.0 52373.0 57022.0 49231.0 133309.0 136473.0 67471.0 59898.0 325974.0 323520.0 190782.0 184132.0 105269.0 102572.0 44964.0 37756.0 93267.0 85226.0 76469.0 76820.0 95860.0 89332.0 284386.0 286135.0 42959.0 38494.0 26800.0 31413.0 197100.0 190446.0 86313.0 86686.0 157159.0 157015.0 118278.0 118523.0 252623.0 245798.0 104011.0 100826.0 79265.0 84435.0 79788.0 71678.0 156547.0 159254.0 122891.0 120053.0 47905.0 43938.0 115285.0 115258.0 28546.0 29200.0 72976.0 69720.0 167185.0 164684.0 33796.0 40424.0 103759.0 99912.0 123054.0 129856.0 305889.0 312721.0 245542.0 238543.0 212133.0 216865.0 87300.0 90544.0 70206.0 74212.0 121040.0 125348.0 105849.0 97865.0 128449.0 126368.0 96776.0 98619.0 60772.0 53569.0 66367.0 70455.0 277849.0 272051.0 127278.0 120711.0 37806.0 29760.0 84272.0 78110.0 98033.0 94329.0 242808.0 248841.0 142255.0 150204.0 126722.0 123054.0 55060.0 47184.0 69263.0 76958.0 70060.0 62503.0 320763.0 312905.0 160515.0 162355.0 36822.0 33652.0 33672.0 40166.0 34617.0 42661.0 123494.0 162894.0 123494.0 123494.0 162894.0 162894.0
209816.0 209336.0 164901.0 172214.0 49248.0 51928.0 37806.0 29943.0 14089.0 7169.0 35644.0 42796.0 102691.0 105861.0 80270.0 88418.0 252798.0 259602.0 12531.0 20384.0 81382.0 72808.0 131844.0 133922.0 61095.0 69533.0 35072.0 31263.0 8408.0 0.0 60697.0 52477.0 232876.0 225280.0 89383.0 96498.0 130510.0 123563.0 18555.0 10884.0 96628.0 94033.0 52486.0 59471.0 48782.0 40979.0 126220.0 129658.0 60561.0 53288.0 331000.0 328702.0 196845.0 190332.0 98873.0 95787.0 45498.0 39350.0 99951.0 91961.0 80159.0 79715.0 88511.0 82229.0 289531.0 291110.0 46904.0 43606.0 27157.0 29691.0 203455.0 196926.0 88007.0 87602.0 163306.0 162863.0 110230.0 110669.0 258730.0 252004.0 95887.0 92564.0 72906.0 78541.0 71450.0 63316.0 162077.0 165075.0 116432.0 113257.0 51562.0 48706.0 121348.0 121696.0 22077.0 24650.0 78511.0 74626.0 174353.0 171646.0 29859.0 35411.0 95434.0 91522.0 114820.0 121571.0 310631.0 317484.0 251367.0 244467.0 216321.0 221270.0 91177.0 95013.0 76850.0 81295.0 115052.0 119695.0 112690.0 104736.0 120426.0 118533.0 90753.0 92142.0 64528.0 56939.0 70887.0 74248.0 283116.0 277447.0 133364.0 126584.0 44823.0 36617.0 91184.0 85297.0 90004.0 86520.0 247810.0 253697.0 147119.0 155110.0 131192.0 127701.0 62337.0 54432.0 73539.0 81396.0 77587.0 69901.0 326430.0 318604.0 166853.0 168949.0 42934.0 40755.0 35192.0 40485.0 29152.0 37319.0 119091.0 166617.0 119091.0 119091.0 166617.0 166617.0
247436.0 245393.0 214325.0 220911.0 11804.0 10427.0 82516.0 75969.0 66326.0 65678.0 84949.0 88751.0 155142.0 159796.0 78079.0 84941.0 289382.0 296837.0 73056.0 81000.0 115490.0 108189.0 182408.0 182716.0 98401.0 105230.0 34757.0 32111.0 59633.0 60697.0 0.0 8540.0 268473.0 260722.0 143464.0 150120.0 105988.0 98117.0 69662.0 63855.0 72280.0 65444.0 94680.0 97802.0 77077.0 72700.0 174373.0 179494.0 113264.0 107839.0 373979.0 370747.0 234548.0 227158.0 151913.0 147035.0 104587.0 97164.0 136866.0 129125.0 132531.0 134310.0 136561.0 132355.0 332090.0 334657.0 99953.0 93577.0 86403.0 90228.0 238776.0 231361.0 27594.0 27054.0 120296.0 117481.0 149169.0 152413.0 295058.0 287645.0 134645.0 128594.0 127194.0 134216.0 107819.0 100077.0 204109.0 205207.0 168610.0 163747.0 20468.0 28497.0 161395.0 159115.0 80194.0 84851.0 42334.0 34516.0 141133.0 136137.0 90265.0 94739.0 129183.0 122370.0 149628.0 154407.0 355759.0 362408.0 289883.0 282366.0 264519.0 268413.0 142630.0 144201.0 116077.0 116729.0 169321.0 175073.0 147454.0 139799.0 159129.0 160049.0 145570.0 145074.0 117246.0 110967.0 120894.0 126498.0 324986.0 318556.0 91867.0 83885.0 86456.0 80958.0 127025.0 119379.0 130869.0 130548.0 291585.0 298228.0 193127.0 200735.0 179372.0 175184.0 98805.0 92561.0 124268.0 131218.0 64274.0 57928.0 365307.0 357316.0 203250.0 203206.0 38733.0 46344.0 25962.0 20386.0 45435.0 43832.0 177758.0 217268.0 177758.0 177758.0 217268.0 217268.0
243351.0 241532.0 208381.0 215095.0 3281.0 7406.0 76152.0 69288.0 57798.0 57284.0 78161.0 82397.0 146722.0 151327.0 77651.0 84957.0 285550.0 292922.0 64907.0 72833.0 111035.0 103454.0 176205.0 176780.0 93245.0 100403.0 29270.0 25187.0 51850.0 52477.0 8540.0 0.0 264741.0 256993.0 136597.0 143346.0 109749.0 101898.0 62327.0 56175.0 75277.0 68958.0 88870.0 92510.0 69406.0 64724.0 166194.0 171228.0 104779.0 99312.0 369290.0 366201.0 230415.0 223128.0 143468.0 138654.0 96798.0 89542.0 132305.0 124451.0 125862.0 127329.0 128306.0 123994.0 327419.0 329835.0 92958.0 86862.0 78522.0 82098.0 235002.0 227692.0 36112.0 35126.0 126982.0 124486.0 141531.0 144588.0 291276.0 283950.0 126947.0 121055.0 118688.0 125689.0 100089.0 92243.0 199242.0 200620.0 160216.0 155425.0 19156.0 26320.0 156604.0 154672.0 71708.0 76475.0 46255.0 38799.0 146543.0 141844.0 81911.0 86274.0 121821.0 115182.0 142311.0 147279.0 350650.0 357385.0 285763.0 278324.0 258865.0 262932.0 136142.0 138041.0 110977.0 112122.0 160847.0 166568.0 143281.0 135515.0 151551.0 152267.0 137065.0 136626.0 110437.0 103940.0 114468.0 119811.0 320413.0 314091.0 98104.0 90223.0 80525.0 74591.0 122500.0 114984.0 123007.0 122490.0 286668.0 293203.0 187639.0 195329.0 173515.0 169413.0 93759.0 87179.0 117772.0 124892.0 65032.0 58077.0 361246.0 353271.0 199192.0 199452.0 35153.0 42271.0 18387.0 12006.0 37153.0 36129.0 169228.0 211139.0 169228.0 169228.0 211139.0 211139.0
24302.0 23540.0 93181.0 86271.0 263012.0 258616.0 195552.0 203557.0 242591.0 235227.0 197246.0 190153.0 266971.0 262450.0 197394.0 193941.0 21170.0 29054.0 224938.0 221522.0 154293.0 162421.0 117369.0 110896.0 173664.0 165658.0 235853.0 241896.0 226626.0 232876.0 268473.0 264741.0 0.0 7751.0 156612.0 150441.0 217594.0 220014.0 214547.0 222554.0 222378.0 229558.0 180854.0 174897.0 276597.0 269399.0 292467.0 288969.0 252296.0 245857.0 112594.0 107439.0 36588.0 42561.0 263359.0 268240.0 200027.0 200464.0 133708.0 141776.0 159876.0 164715.0 273941.0 266058.0 73415.0 78967.0 188258.0 189640.0 211928.0 216166.0 29752.0 37139.0 283841.0 289312.0 268367.0 275049.0 305011.0 299831.0 26625.0 19238.0 296350.0 298419.0 250862.0 247137.0 284782.0 279470.0 74095.0 69056.0 273769.0 278356.0 248119.0 240034.0 111581.0 111433.0 234863.0 227140.0 242833.0 248141.0 244184.0 249904.0 224272.0 229400.0 303435.0 304308.0 315110.0 322958.0 104152.0 108085.0 25501.0 17690.0 71600.0 64916.0 149537.0 142829.0 156546.0 153591.0 264666.0 262015.0 121802.0 129735.0 312053.0 305120.0 253787.0 261304.0 173038.0 180939.0 164689.0 164432.0 65112.0 57260.0 255256.0 256394.0 189062.0 196910.0 143187.0 150270.0 289324.0 281670.0 50080.0 57474.0 94107.0 86936.0 111481.0 112791.0 172781.0 180302.0 163092.0 155307.0 213889.0 216590.0 97606.0 89590.0 66146.0 65290.0 229846.0 222489.0 249298.0 257255.0 261237.0 269226.0 248445.0 97988.0 248445.0 248445.0 97988.0 97988.0
17897.0 15995.0 87963.0 81340.0 255267.0 250865.0 187916.0 195921.0 235070.0 227680.0 189658.0 182541.0 260558.0 256141.0 189722.0 186319.0 28846.0 36644.0 217416.0 214065.0 146572.0 154713.0 110986.0 104336.0 165974.0 157953.0 228111.0 234166.0 218995.0 225280.0 260722.0 256993.0 7751.0 0.0 149642.0 143558.0 210437.0 212758.0 206932.0 214936.0 214835.0 221987.0 173211.0 167216.0 269162.0 261940.0 286226.0 282740.0 245286.0 238780.0 119702.0 114706.0 29453.0 35043.0 256908.0 261685.0 192745.0 193073.0 126023.0 134092.0 152673.0 157633.0 267199.0 259285.0 79983.0 85255.0 180791.0 182091.0 204479.0 208789.0 22018.0 29395.0 276118.0 281576.0 261416.0 268040.0 298275.0 293178.0 34366.0 26969.0 289467.0 291445.0 244052.0 240444.0 277623.0 272244.0 67183.0 61855.0 267556.0 272027.0 240368.0 232283.0 104029.0 103773.0 227449.0 219751.0 235151.0 240436.0 237610.0 243235.0 216934.0 222134.0 296439.0 297223.0 308308.0 316162.0 110307.0 114526.0 32199.0 24186.0 70555.0 64434.0 142416.0 135613.0 148887.0 145883.0 258437.0 255786.0 114081.0 122019.0 305412.0 298546.0 247265.0 254747.0 165693.0 173576.0 157292.0 157158.0 71733.0 63976.0 247987.0 249042.0 181404.0 189269.0 135482.0 142548.0 282428.0 274807.0 53568.0 61277.0 87502.0 80513.0 104773.0 105924.0 165084.0 172617.0 155744.0 147988.0 206218.0 208885.0 105280.0 97262.0 58488.0 57541.0 222096.0 214740.0 241565.0 249521.0 253601.0 261582.0 242216.0 93095.0 242216.0 242216.0 93095.0 93095.0
132361.0 133946.0 76725.0 84406.0 133780.0 133180.0 61508.0 67521.0 94520.0 88819.0 58515.0 55458.0 114334.0 111259.0 108848.0 112770.0 174442.0 180266.0 78140.0 72217.0 55161.0 54148.0 43716.0 47612.0 55182.0 54517.0 109263.0 111472.0 86363.0 89383.0 143464.0 136597.0 156612.0 149642.0 0.0 7195.0 160679.0 157013.0 74663.0 81786.0 139229.0 141984.0 52658.0 54325.0 124479.0 118086.0 141490.0 139481.0 95695.0 89417.0 245077.0 243490.0 120192.0 115438.0 110330.0 114019.0 46797.0 50493.0 50910.0 48880.0 11984.0 9706.0 118147.0 110100.0 204393.0 205189.0 43686.0 49935.0 63105.0 64538.0 129510.0 124802.0 167773.0 169878.0 209484.0 212307.0 149171.0 144550.0 180439.0 174773.0 139885.0 141809.0 94742.0 91838.0 128672.0 123894.0 82518.0 87993.0 123600.0 126547.0 126928.0 120027.0 53755.0 59442.0 83405.0 75329.0 140041.0 140824.0 205647.0 206472.0 71267.0 74850.0 146824.0 147834.0 158922.0 166790.0 224007.0 230860.0 170915.0 164947.0 128155.0 133698.0 10000.0 18084.0 45479.0 52530.0 115629.0 114275.0 60221.0 56387.0 156809.0 150430.0 100102.0 107135.0 26233.0 32820.0 24737.0 17487.0 198647.0 193746.0 182898.0 178949.0 59348.0 63026.0 51677.0 55059.0 132829.0 125276.0 162355.0 167535.0 63387.0 71224.0 45947.0 43938.0 55995.0 57574.0 21083.0 17962.0 119845.0 116413.0 243887.0 236339.0 95327.0 100528.0 109179.0 101695.0 118272.0 125634.0 118136.0 126214.0 100929.0 77703.0 100929.0 100929.0 77703.0 77703.0
126157.0 127956.0 69560.0 77262.0 140560.0 139804.0 67906.0 74151.0 101715.0 95995.0 65197.0 61781.0 119072.0 115665.0 113090.0 116624.0 168021.0 173744.0 85309.0 79411.0 57754.0 57730.0 36602.0 40772.0 59959.0 58454.0 115789.0 118192.0 93361.0 96498.0 150120.0 143346.0 150441.0 143558.0 7195.0 0.0 164054.0 160663.0 81577.0 88782.0 143728.0 146772.0 58309.0 59276.0 131578.0 125223.0 145972.0 143640.0 102041.0 95946.0 237989.0 236447.0 114135.0 109611.0 115148.0 119156.0 53965.0 57675.0 50772.0 49879.0 17751.0 16891.0 123807.0 115825.0 197370.0 198112.0 50558.0 56543.0 70287.0 71722.0 123700.0 119224.0 174177.0 176425.0 213531.0 216563.0 154874.0 150051.0 174012.0 168457.0 145914.0 148040.0 100535.0 97267.0 135304.0 130664.0 76377.0 82130.0 127858.0 131146.0 133324.0 126313.0 50259.0 56551.0 90572.0 82496.0 145628.0 146651.0 208660.0 209736.0 78395.0 81853.0 153098.0 154291.0 164784.0 172644.0 216900.0 223753.0 164308.0 158438.0 120973.0 126545.0 10579.0 16824.0 48615.0 55096.0 119599.0 117834.0 58814.0 55874.0 162311.0 155763.0 105052.0 112240.0 32911.0 39792.0 30262.0 23688.0 191675.0 186836.0 187361.0 183628.0 65353.0 69440.0 52894.0 57166.0 138884.0 131249.0 155332.0 160458.0 56826.0 64578.0 39322.0 37650.0 60638.0 62889.0 26627.0 21785.0 124664.0 121545.0 237032.0 229509.0 90104.0 95629.0 115399.0 107839.0 125053.0 132472.0 125291.0 133376.0 104309.0 70508.0 104309.0 104309.0 70508.0 70508.0
203145.0 198274.0 202205.0 205781.0 110975.0 102797.0 115320.0 116389.0 143891.0 137655.0 121905.0 118036.0 231141.0 233112.0 54841.0 48827.0 238281.0 246331.0 136530.0 142053.0 106586.0 106532.0 179700.0 175461.0 107323.0 106292.0 99416.0 106923.0 122977.0 130510.0 105988.0 109749.0 217594.0 210437.0 160679.0 164054.0 0.0 7871.0 121769.0 123609.0 35210.0 40800.0 113853.0 108746.0 171617.0 164861.0 256106.0 258887.0 190255.0 182444.0 330138.0 325019.0 192297.0 184326.0 227058.0 225063.0 149981.0 141792.0 120565.0 117262.0 149268.0 155909.0 218835.0 212204.0 289912.0 294522.0 133133.0 125359.0 139668.0 147417.0 191164.0 183168.0 100271.0 108358.0 53141.0 58642.0 240141.0 241043.0 242937.0 234884.0 225564.0 221377.0 201255.0 205417.0 199767.0 191445.0 176440.0 173250.0 244673.0 242490.0 92654.0 89174.0 141046.0 134371.0 151364.0 150330.0 63688.0 71472.0 45960.0 45856.0 153563.0 161324.0 223491.0 218235.0 243654.0 249812.0 318823.0 323894.0 242582.0 234550.0 242074.0 242821.0 153507.0 149296.0 115443.0 109230.0 241660.0 244893.0 122273.0 118663.0 250392.0 248924.0 217837.0 220623.0 141106.0 140536.0 137403.0 145338.0 281803.0 274212.0 38714.0 42115.0 111710.0 114686.0 113959.0 107864.0 220059.0 216970.0 255483.0 263268.0 176782.0 181847.0 171445.0 166682.0 106137.0 107599.0 140737.0 142768.0 52931.0 60640.0 313258.0 305391.0 164080.0 159855.0 89411.0 89866.0 109690.0 113183.0 138094.0 141291.0 238750.0 207941.0 238750.0 238750.0 207941.0 207941.0
204872.0 200220.0 201207.0 205055.0 103143.0 94963.0 109738.0 110430.0 136820.0 130722.0 116270.0 112731.0 224656.0 226773.0 49634.0 44380.0 240837.0 248874.0 129917.0 135622.0 103599.0 102960.0 177731.0 173790.0 102992.0 102502.0 92011.0 99433.0 116149.0 123563.0 98117.0 101898.0 220014.0 212758.0 157013.0 160663.0 7871.0 0.0 115381.0 116933.0 27625.0 32965.0 109046.0 104323.0 164111.0 157415.0 249402.0 252313.0 183539.0 175792.0 332421.0 327445.0 193754.0 185764.0 220601.0 218453.0 144434.0 136155.0 118627.0 114858.0 145448.0 151877.0 211996.0 205457.0 291922.0 296377.0 127966.0 120098.0 133561.0 141237.0 193099.0 185088.0 92695.0 100758.0 54019.0 58633.0 232944.0 233960.0 245607.0 237572.0 218340.0 214061.0 194735.0 199060.0 192438.0 184116.0 176455.0 173600.0 238232.0 235903.0 84886.0 81541.0 139911.0 133489.0 144613.0 143809.0 55818.0 63600.0 51607.0 50515.0 147176.0 154869.0 216111.0 210779.0 236318.0 242420.0 320498.0 325715.0 244823.0 236794.0 242211.0 243219.0 150165.0 146296.0 112086.0 106218.0 235405.0 238786.0 121160.0 117096.0 243199.0 241844.0 211488.0 214120.0 136667.0 135731.0 133371.0 141306.0 283866.0 276343.0 35253.0 37323.0 106457.0 109035.0 111560.0 105139.0 212901.0 209930.0 256827.0 264555.0 175853.0 181185.0 169775.0 164992.0 101877.0 102857.0 136775.0 139184.0 46124.0 53669.0 316187.0 308285.0 164968.0 161079.0 82091.0 82839.0 102056.0 105437.0 130514.0 133604.0 233058.0 206777.0 233058.0 233058.0 206777.0 206777.0
191607.0 191007.0 148659.0 155784.0 59389.0 59687.0 19251.0 11428.0 30803.0 22718.0 17672.0 24395.0 109390.0 111392.0 68664.0 76435.0 234564.0 241431.0 15984.0 20301.0 62874.0 54301.0 115828.0 117351.0 42595.0 51035.0 37321.0 37593.0 12345.0 18555.0 69662.0 62327.0 214547.0 206932.0 74663.0 81577.0 121769.0 115381.0 0.0 8022.0 89780.0 88671.0 33946.0 40942.0 66499.0 58714.0 134772.0 137228.0 69241.0 61178.0 313630.0 311181.0 178620.0 172026.0 105294.0 103511.0 35949.0 27908.0 81430.0 73428.0 64470.0 65230.0 98322.0 91207.0 272044.0 273790.0 31028.0 26175.0 19520.0 26386.0 185071.0 178487.0 95494.0 96566.0 159419.0 159893.0 122952.0 122410.0 240484.0 233700.0 109117.0 106716.0 79554.0 83679.0 86395.0 78599.0 144239.0 147009.0 122905.0 120867.0 55594.0 50264.0 103110.0 103263.0 31447.0 28764.0 77206.0 75098.0 166895.0 164973.0 31799.0 39577.0 110090.0 106980.0 128651.0 135763.0 293553.0 300388.0 233306.0 226336.0 199880.0 204571.0 75203.0 78272.0 58332.0 62751.0 120064.0 123676.0 94143.0 86185.0 132958.0 130143.0 96106.0 98891.0 48804.0 41852.0 54111.0 58432.0 265516.0 259730.0 129826.0 123742.0 26295.0 18072.0 72630.0 66773.0 102756.0 98235.0 230463.0 236499.0 129916.0 137862.0 114433.0 110739.0 43868.0 35967.0 57068.0 64706.0 69479.0 62525.0 308490.0 300639.0 148473.0 150466.0 41194.0 35901.0 43941.0 51065.0 46814.0 54908.0 119700.0 150783.0 119700.0 119700.0 150783.0 150783.0
199627.0 199014.0 156320.0 163497.0 53119.0 54203.0 27139.0 19190.0 24159.0 16199.0 25644.0 32408.0 107885.0 110411.0 71807.0 79814.0 242582.0 249452.0 13089.0 19940.0 70564.0 61993.0 123411.0 125088.0 50279.0 58711.0 33455.0 32207.0 4579.0 10884.0 63855.0 56175.0 222554.0 214936.0 81786.0 88782.0 123609.0 116933.0 8022.0 0.0 90605.0 88788.0 41870.0 48685.0 59507.0 51701.0 132497.0 135404.0 66647.0 58858.0 321570.0 319146.0 186639.0 180037.0 103898.0 101527.0 40756.0 33369.0 89362.0 81344.0 71895.0 72248.0 95374.0 88610.0 280003.0 281720.0 38386.0 34033.0 22811.0 28049.0 193067.0 186464.0 90336.0 90893.0 159056.0 159122.0 118697.0 118626.0 248501.0 241711.0 104589.0 101728.0 77935.0 82748.0 80965.0 72978.0 152241.0 155029.0 121540.0 118988.0 51415.0 46983.0 111129.0 111247.0 27827.0 27229.0 75431.0 72550.0 168189.0 165894.0 31379.0 38479.0 104854.0 101323.0 123858.0 130796.0 301433.0 308258.0 241327.0 234358.0 207605.0 212361.0 82737.0 86031.0 66271.0 70526.0 119339.0 123413.0 102030.0 94060.0 128811.0 126435.0 95145.0 97325.0 56199.0 48990.0 61851.0 65885.0 273492.0 267722.0 129249.0 122840.0 34050.0 25888.0 80486.0 74495.0 98446.0 94405.0 238396.0 244403.0 137809.0 145766.0 122217.0 118572.0 51501.0 43598.0 64723.0 72437.0 70812.0 63443.0 316506.0 308656.0 156471.0 158422.0 39137.0 35164.0 37907.0 44575.0 38794.0 46893.0 120848.0 158330.0 120848.0 120848.0 158330.0 158330.0
204904.0 201089.0 191768.0 196503.0 76280.0 68149.0 86533.0 86073.0 109642.0 103798.0 92808.0 90348.0 198489.0 200924.0 31032.0 30242.0 243507.0 251432.0 103677.0 109795.0 89347.0 86679.0 165291.0 162412.0 84070.0 85473.0 64443.0 71814.0 89480.0 96628.0 72280.0 75277.0 222378.0 214835.0 139229.0 143728.0 35210.0 27625.0 89780.0 90605.0 0.0 8039.0 88354.0 85046.0 136487.0 129807.0 222768.0 225931.0 156949.0 149344.0 333545.0 329114.0 192957.0 185008.0 194501.0 192032.0 120942.0 112474.0 107522.0 102250.0 127327.0 132974.0 185139.0 178776.0 292257.0 296130.0 105787.0 97736.0 108579.0 116018.0 194015.0 186060.0 71470.0 79108.0 71331.0 73343.0 205534.0 206696.0 248656.0 240748.0 190903.0 186532.0 168539.0 173218.0 164901.0 156582.0 170836.0 169198.0 212143.0 209510.0 57642.0 53964.0 131010.0 125627.0 118024.0 117734.0 30315.0 38215.0 77729.0 75296.0 121408.0 128913.0 188533.0 183164.0 208771.0 214834.0 319479.0 325198.0 246316.0 238364.0 236271.0 238179.0 133543.0 130880.0 96248.0 91781.0 209734.0 213455.0 112858.0 107338.0 215791.0 214583.0 185640.0 187928.0 116671.0 114583.0 114751.0 122557.0 284442.0 277212.0 43670.0 40154.0 84356.0 85625.0 99079.0 91752.0 185544.0 182741.0 255006.0 262476.0 166977.0 173152.0 158459.0 153685.0 83234.0 82535.0 118329.0 121945.0 20705.0 27261.0 319759.0 311768.0 162602.0 159968.0 54625.0 55894.0 74480.0 78084.0 102900.0 106099.0 208797.0 196710.0 208797.0 208797.0 196710.0 196710.0
211784.0 208095.0 196841.0 201775.0 70179.0 61999.0 87167.0 85967.0 106611.0 101181.0 93221.0 91411.0 196465.0 199182.0 35617.0 36314.0 250704.0 258608.0 101870.0 108348.0 93697.0 90408.0 169662.0 167085.0 86845.0 88956.0 60666.0 67621.0 87280.0 94033.0 65444.0 68958.0 229558.0 221987.0 141984.0 146772.0 40800.0 32965.0 88671.0 88788.0 8039.0 0.0 90298.0 87660.0 132020.0 125557.0 220236.0 223661.0 154573.0 147142.0 340464.0 336115.0 199731.0 191804.0 192544.0 189769.0 121123.0 112591.0 112568.0 106941.0 130022.0 135327.0 182394.0 176254.0 299086.0 302866.0 106815.0 98737.0 107834.0 115047.0 201040.0 193106.0 63517.0 71208.0 70908.0 72035.0 201880.0 203329.0 255897.0 248012.0 187201.0 182581.0 166542.0 171534.0 160948.0 152648.0 176810.0 175412.0 210170.0 207249.0 52028.0 49204.0 136437.0 131316.0 115767.0 116016.0 23144.0 31042.0 80873.0 77705.0 119956.0 127259.0 184395.0 178797.0 204739.0 210633.0 326073.0 331870.0 253354.0 245421.0 242040.0 244127.0 136752.0 134513.0 100016.0 96046.0 208127.0 212110.0 118529.0 112717.0 212135.0 211214.0 183925.0 185898.0 118667.0 116065.0 117337.0 125036.0 291314.0 284133.0 41879.0 37058.0 85642.0 86146.0 103835.0 96329.0 182026.0 179527.0 261524.0 268943.0 172259.0 178608.0 163163.0 158411.0 86133.0 84724.0 120958.0 125006.0 22142.0 26843.0 327017.0 319020.0 169192.0 166766.0 51328.0 53668.0 69625.0 72621.0 98211.0 100936.0 208225.0 201614.0 208225.0 208225.0 201614.0 201614.0
158134.0 157323.0 119645.0 126259.0 86463.0 84254.0 14737.0 22732.0 63801.0 55897.0 17932.0 10156.0 126506.0 126604.0 59471.0 65037.0 201022.0 207992.0 46691.0 46097.0 29566.0 21150.0 87949.0 88037.0 10213.0 18087.0 59929.0 64018.0 45812.0 52486.0 94680.0 88870.0 180854.0 173211.0 52658.0 58309.0 113853.0 109046.0 33946.0 41870.0 88354.0 90298.0 0.0 8199.0 99382.0 91703.0 153700.0 154548.0 91860.0 83653.0 281594.0 278867.0 145128.0 138393.0 122206.0 122463.0 39187.0 32657.0 47493.0 39482.0 40743.0 45225.0 120521.0 112626.0 239840.0 241902.0 20395.0 14296.0 37997.0 45269.0 151300.0 144634.0 117041.0 119996.0 159522.0 161691.0 148416.0 146476.0 206917.0 200041.0 135633.0 134540.0 98582.0 100196.0 115737.0 108555.0 111612.0 113882.0 139038.0 138847.0 76413.0 68969.0 69731.0 69453.0 60099.0 54093.0 87389.0 88354.0 159759.0 159479.0 53946.0 61615.0 138521.0 136541.0 155583.0 163098.0 262182.0 269042.0 200069.0 192979.0 169995.0 174119.0 49353.0 49794.0 24404.0 29103.0 134015.0 135790.0 60205.0 52259.0 157924.0 153818.0 111975.0 116666.0 28372.0 26692.0 28052.0 35255.0 233104.0 227106.0 131830.0 127354.0 8462.0 16060.0 38736.0 33290.0 128806.0 123045.0 198605.0 204923.0 98862.0 106625.0 84699.0 80552.0 11801.0 6326.0 31702.0 37469.0 68238.0 64138.0 275423.0 267531.0 114725.0 116559.0 57895.0 50143.0 71372.0 79282.0 80395.0 88372.0 126955.0 122677.0 126955.0 126955.0 122677.0 122677.0
152492.0 151402.0 117113.0 123427.0 90293.0 87421.0 21783.0 29528.0 71287.0 63302.0 25871.0 18128.0 134329.0 134271.0 55149.0 59996.0 195252.0 202337.0 54427.0 54165.0 21950.0 13389.0 86268.0 85626.0 2030.0 10172.0 63278.0 68148.0 52373.0 59471.0 97802.0 92510.0 174897.0 167216.0 54325.0 59276.0 108746.0 104323.0 40942.0 48685.0 85046.0 87660.0 8199.0 0.0 106968.0 99248.0 161604.0 162327.0 100032.0 91832.0 277008.0 274098.0 139483.0 132571.0 130025.0 130423.0 46820.0 40643.0 41196.0 33126.0 42364.0 47969.0 128648.0 120732.0 235180.0 237445.0 27840.0 22393.0 46179.0 53467.0 145243.0 138414.0 118919.0 122371.0 155765.0 158295.0 156610.0 154644.0 201111.0 194118.0 143831.0 142717.0 106605.0 108058.0 123837.0 116604.0 106897.0 108705.0 146751.0 146707.0 78783.0 71043.0 64493.0 63508.0 68124.0 62236.0 86858.0 88551.0 154491.0 154542.0 62143.0 69813.0 146680.0 144642.0 163780.0 171291.0 258141.0 264886.0 194630.0 187424.0 166800.0 170614.0 49572.0 48655.0 18615.0 21845.0 141542.0 143121.0 53543.0 45547.0 166109.0 161971.0 119746.0 124563.0 32365.0 32432.0 29715.0 37514.0 228305.0 222159.0 128704.0 124639.0 14649.0 22874.0 31946.0 25832.0 137004.0 131237.0 194224.0 200708.0 95339.0 102933.0 82098.0 77740.0 3638.0 5435.0 33315.0 37651.0 65520.0 62276.0 270082.0 262160.0 108762.0 110216.0 59962.0 52118.0 75579.0 83558.0 86726.0 94582.0 133796.0 120562.0 133796.0 133796.0 120562.0 120562.0
252930.0 253167.0 201049.0 208813.0 66731.0 74027.0 85229.0 77819.0 35731.0 43794.0 81559.0 89269.0 83300.0 89320.0 126033.0 134287.0 295842.0 302259.0 52756.0 55139.0 128875.0 120347.0 168180.0 171829.0 108741.0 117139.0 72331.0 64694.0 57022.0 48782.0 77077.0 69406.0 276597.0 269162.0 124479.0 131578.0 171617.0 164111.0 66499.0 59507.0 136487.0 132020.0 99382.0 106968.0 0.0 7807.0 98742.0 104629.0 46883.0 45962.0 369555.0 367917.0 240128.0 234125.0 80908.0 74544.0 77889.0 76251.0 146000.0 138238.0 118129.0 115072.0 62245.0 59989.0 328784.0 329662.0 88416.0 87977.0 64694.0 60719.0 247682.0 241601.0 102030.0 97696.0 195748.0 193635.0 72126.0 75404.0 301830.0 295489.0 57569.0 51695.0 60461.0 68729.0 30752.0 23237.0 203838.0 207800.0 95830.0 89793.0 81019.0 82817.0 165388.0 166829.0 41794.0 49685.0 111810.0 105521.0 212555.0 208647.0 53260.0 50151.0 52781.0 46796.0 73291.0 78777.0 348478.0 355331.0 293468.0 286969.0 252268.0 258051.0 129127.0 134736.0 123151.0 128484.0 98712.0 105632.0 159001.0 151199.0 82151.0 82994.0 77379.0 74462.0 103843.0 95869.0 111946.0 112939.0 322895.0 317770.0 166338.0 158673.0 92465.0 84260.0 137888.0 132661.0 53955.0 54467.0 286755.0 292010.0 186743.0 194746.0 169744.0 166975.0 110100.0 102249.0 113732.0 121640.0 120032.0 112062.0 367600.0 359930.0 211263.0 214143.0 82549.0 83791.0 62507.0 61030.0 33936.0 33284.0 114021.0 201470.0 114021.0 114021.0 201470.0 201470.0
245799.0 245945.0 194766.0 202485.0 61882.0 68822.0 77494.0 70048.0 27974.0 36022.0 73917.0 81606.0 84627.0 90210.0 118611.0 126864.0 288740.0 295212.0 45147.0 47877.0 121168.0 112632.0 161801.0 165262.0 101010.0 109416.0 65457.0 58008.0 49231.0 40979.0 72700.0 64724.0 269399.0 261940.0 118086.0 125223.0 164861.0 157415.0 58714.0 51701.0 129807.0 125557.0 91703.0 99248.0 7807.0 0.0 101889.0 107353.0 45763.0 43489.0 363099.0 361368.0 232968.0 226897.0 81912.0 76061.0 71344.0 69266.0 138448.0 130655.0 111379.0 108596.0 64522.0 61320.0 322211.0 323187.0 81149.0 80471.0 57477.0 53908.0 240406.0 234267.0 98492.0 94668.0 190235.0 188353.0 77273.0 79937.0 294724.0 288329.0 62581.0 57275.0 59803.0 67873.0 35792.0 27689.0 196841.0 200687.0 97592.0 92028.0 75100.0 76415.0 158075.0 159394.0 34895.0 42908.0 105811.0 99762.0 206264.0 202519.0 46834.0 44493.0 58850.0 53376.0 79258.0 85078.0 342076.0 348929.0 286491.0 279936.0 246087.0 251763.0 122428.0 127855.0 115552.0 120805.0 99711.0 106309.0 151430.0 143608.0 87431.0 87670.0 77429.0 75268.0 96875.0 88889.0 104840.0 106084.0 316247.0 311045.0 160664.0 153092.0 84722.0 76510.0 130263.0 124968.0 58332.0 57872.0 280199.0 285543.0 179991.0 188005.0 163094.0 160230.0 102360.0 94501.0 106723.0 114656.0 112985.0 105019.0 360779.0 353085.0 203945.0 206731.0 75586.0 76518.0 56347.0 55571.0 28141.0 29056.0 112529.0 195359.0 112529.0 112529.0 195359.0 195359.0
268373.0 271326.0 202620.0 210612.0 163205.0 169549.0 145513.0 141968.0 113870.0 119062.0 139052.0 145387.0 27693.0 30325.0 203411.0 211081.0 307950.0 312722.0 119603.0 114531.0 178879.0 172236.0 175277.0 182199.0 163620.0 170008.0 160259.0 154462.0 133309.0 126220.0 174373.0 166194.0 292467.0 286226.0 141490.0 145972.0 256106.0 249402.0 134772.0 132497.0 222768.0 220236.0 153700.0 161604.0 98742.0 101889.0 0.0 8285.0 65863.0 73686.0 371118.0 369989.0 257380.0 253883.0 31958.0 31442.0 114985.0 121052.0 186538.0 181142.0 143778.0 136403.0 38165.0 43996.0 331206.0 331415.0 133943.0 139452.0 118662.0 110677.0 267886.0 264177.0 200376.0 196359.0 288749.0 287697.0 36719.0 28955.0 313803.0 309216.0 45809.0 53745.0 55603.0 53580.0 69149.0 75643.0 219997.0 226645.0 18763.0 15156.0 173926.0 173249.0 195101.0 200230.0 104796.0 106012.0 203500.0 198513.0 300489.0 297866.0 103363.0 95362.0 56786.0 64892.0 46195.0 50440.0 349978.0 356831.0 302650.0 297740.0 253357.0 259213.0 150850.0 158966.0 169329.0 177125.0 28514.0 34156.0 198399.0 192525.0 33853.0 25792.0 42468.0 37042.0 138079.0 132953.0 146787.0 142143.0 326064.0 321901.0 258814.0 251686.0 151401.0 145585.0 182608.0 181330.0 46234.0 44279.0 289386.0 293871.0 199027.0 205741.0 182271.0 182031.0 165227.0 159424.0 145953.0 151220.0 203280.0 195800.0 372379.0 365156.0 235834.0 241575.0 168988.0 166880.0 155090.0 156101.0 129057.0 130943.0 65346.0 202490.0 65346.0 65346.0 202490.0 202490.0
264880.0 267889.0 199124.0 207115.0 168188.0 174322.0 147042.0 143905.0 117745.0 122537.0 140501.0 146566.0 28131.0 28618.0 205701.0 213249.0 304453.0 309225.0 122397.0 116929.0 178924.0 172543.0 171836.0 178924.0 164328.0 170436.0 164087.0 158560.0 136473.0 129658.0 179494.0 171228.0 288969.0 282740.0 139481.0 143640.0 258887.0 252313.0 137228.0 135404.0 225931.0 223661.0 154548.0 162327.0 104629.0 107353.0 8285.0 0.0 69097.0 76587.0 367621.0 366492.0 253956.0 250677.0 32399.0 33902.0 115532.0 122004.0 185668.0 180547.0 142438.0 134887.0 42937.0 47742.0 327709.0 327918.0 134533.0 140387.0 120459.0 112486.0 264627.0 261125.0 205794.0 201997.0 292678.0 291828.0 44884.0 37008.0 310306.0 305719.0 53323.0 61284.0 57676.0 54486.0 75633.0 81739.0 216769.0 223570.0 15993.0 16421.0 178260.0 177255.0 193219.0 198592.0 107931.0 108563.0 207489.0 202724.0 303585.0 301157.0 105558.0 97661.0 64557.0 72585.0 54476.0 58687.0 346482.0 353335.0 299153.0 294243.0 249860.0 255716.0 149022.0 157183.0 169196.0 177079.0 24303.0 28492.0 197283.0 191644.0 42109.0 34077.0 42582.0 38419.0 137607.0 132864.0 146146.0 141141.0 322567.0 318405.0 262724.0 255707.0 152689.0 147200.0 182146.0 181224.0 53171.0 50408.0 285889.0 290374.0 195702.0 202285.0 179165.0 179130.0 165928.0 160405.0 145112.0 150039.0 206204.0 198835.0 368883.0 361659.0 233136.0 239063.0 172562.0 170119.0 159523.0 160879.0 134079.0 136349.0 60282.0 198994.0 60282.0 60282.0 198994.0 198994.0
228054.0 229529.0 168653.0 176633.0 101596.0 106992.0 81700.0 77233.0 48959.0 53444.0 75577.0 82607.0 42481.0 46580.0 137884.0 145675.0 270062.0 275757.0 53816.0 49219.0 119565.0 112000.0 137358.0 142558.0 102058.0 109353.0 95117.0 89888.0 67471.0 60561.0 113264.0 104779.0 252296.0 245286.0 95695.0 102041.0 190255.0 183539.0 69241.0 66647.0 156949.0 154573.0 91860.0 100032.0 46883.0 45763.0 65863.0 69097.0 0.0 8263.0 337211.0 335990.0 215833.0 210872.0 38925.0 35239.0 56141.0 59933.0 131294.0 124681.0 93348.0 87738.0 29186.0 21990.0 297295.0 297509.0 73758.0 77672.0 54637.0 46846.0 224896.0 219831.0 140450.0 137715.0 223693.0 223002.0 56858.0 54618.0 276053.0 270457.0 45216.0 46229.0 14198.0 22113.0 34771.0 32765.0 178207.0 183519.0 56205.0 52699.0 109888.0 108423.0 145249.0 148747.0 38938.0 40545.0 138598.0 134088.0 234655.0 232118.0 38659.0 30629.0 51159.0 52363.0 65030.0 72816.0 316072.0 322925.0 266243.0 260461.0 219450.0 225307.0 103033.0 110289.0 111049.0 118243.0 56080.0 61878.0 144080.0 137161.0 66132.0 62019.0 32420.0 32081.0 82928.0 76071.0 92019.0 89754.0 292110.0 287732.0 193737.0 186804.0 88172.0 81545.0 125461.0 122599.0 38131.0 31500.0 255461.0 259914.0 158854.0 166547.0 141342.0 139607.0 103655.0 97010.0 92362.0 99291.0 137417.0 129943.0 338149.0 330766.0 189828.0 194208.0 103472.0 101084.0 91445.0 93695.0 68309.0 72404.0 67138.0 168584.0 67138.0 67138.0 168584.0 168584.0
221658.0 222966.0 163424.0 171381.0 96085.0 101109.0 73438.0 69012.0 42441.0 46257.0 67316.0 74362.0 49403.0 52809.0 129841.0 137596.0 263856.0 269668.0 45921.0 41067.0 111497.0 103874.0 131703.0 136636.0 93857.0 101200.0 88133.0 83240.0 59898.0 53288.0 107839.0 99312.0 245857.0 238780.0 89417.0 95946.0 182444.0 175792.0 61178.0 58858.0 149344.0 147142.0 83653.0 91832.0 45962.0 43489.0 73686.0 76587.0 8263.0 0.0 331939.0 330910.0 209335.0 204227.0 45608.0 42689.0 48418.0 51869.0 123574.0 116858.0 86434.0 81148.0 37413.0 30049.0 292095.0 292319.0 65730.0 69490.0 46374.0 38590.0 218216.0 213016.0 135231.0 132868.0 216586.0 216055.0 64910.0 62844.0 269855.0 264144.0 52867.0 53280.0 19750.0 26378.0 39504.0 35905.0 171816.0 176951.0 63145.0 60166.0 103407.0 101577.0 138064.0 141368.0 31374.0 32430.0 131649.0 127368.0 227007.0 224578.0 30404.0 22368.0 58012.0 58451.0 72786.0 80519.0 310854.0 317707.0 260255.0 254353.0 214279.0 220135.0 96381.0 103453.0 103088.0 110213.0 62164.0 67413.0 136417.0 129413.0 74288.0 70271.0 37989.0 38857.0 75463.0 68432.0 84533.0 82605.0 286769.0 282248.0 186639.0 179804.0 79913.0 73286.0 117570.0 114573.0 45832.0 39516.0 250175.0 254794.0 152756.0 160524.0 135264.0 133352.0 95452.0 88770.0 85027.0 92118.0 129669.0 122261.0 332605.0 325165.0 182914.0 187135.0 96213.0 93549.0 85226.0 87959.0 63515.0 68311.0 69266.0 163413.0 69266.0 69266.0 163413.0 163413.0
128690.0 132540.0 168743.0 160874.0 367200.0 363769.0 295707.0 303523.0 338459.0 331937.0 295959.0 289755.0 346019.0 341162.0 307114.0 304399.0 92301.0 84272.0 321228.0 316303.0 258498.0 265859.0 201390.0 197892.0 276147.0 268889.0 340025.0 345157.0 325974.0 331000.0 373979.0 369290.0 112594.0 119702.0 245077.0 237989.0 330138.0 332421.0 313630.0 321570.0 333545.0 340464.0 281594.0 277008.0 369555.0 363099.0 371118.0 367621.0 337211.0 331939.0 0.0 8049.0 140943.0 148788.0 342590.0 348021.0 291756.0 294405.0 237113.0 244880.0 252006.0 254510.0 355166.0 347686.0 41892.0 39932.0 284277.0 287561.0 306807.0 309299.0 139646.0 147643.0 391770.0 396618.0 380929.0 387638.0 385918.0 380103.0 88254.0 96259.0 378850.0 382041.0 333119.0 328207.0 371356.0 367573.0 170111.0 168781.0 352437.0 357087.0 354059.0 346006.0 212685.0 214922.0 328289.0 320230.0 352158.0 356884.0 356165.0 362087.0 316323.0 319779.0 387287.0 389450.0 396555.0 404284.0 28460.0 20951.0 87599.0 95627.0 119290.0 112209.0 240884.0 236169.0 258426.0 257258.0 343318.0 340667.0 226890.0 234347.0 392181.0 384848.0 333453.0 341145.0 267134.0 275048.0 260160.0 257577.0 49257.0 56333.0 367632.0 368548.0 290053.0 297197.0 246955.0 254633.0 372053.0 364098.0 83190.0 77556.0 183896.0 175895.0 200238.0 203445.0 275568.0 282412.0 257676.0 249740.0 323553.0 325472.0 32595.0 35851.0 172044.0 173777.0 335312.0 327638.0 352586.0 360564.0 360121.0 368283.0 327097.0 170417.0 327097.0 327097.0 170417.0 170417.0
124520.0 128027.0 167516.0 159588.0 364163.0 360581.0 293087.0 300944.0 336437.0 329806.0 293511.0 287186.0 344890.0 340033.0 303039.0 300148.0 86816.0 78762.0 319120.0 314349.0 255265.0 262748.0 199887.0 196107.0 273187.0 265813.0 336955.0 342225.0 323520.0 328702.0 370747.0 366201.0 107439.0 114706.0 243490.0 236447.0 325019.0 327445.0 311181.0 319146.0 329114.0 336115.0 278867.0 274098.0 367917.0 361368.0 369989.0 366492.0 335990.0 330910.0 8049.0 0.0 136986.0 144746.0 341462.0 346892.0 290050.0 292480.0 233920.0 241751.0 250105.0 252846.0 354038.0 346557.0 39193.0 38674.0 282099.0 285182.0 304818.0 307503.0 135100.0 143065.0 388131.0 393100.0 375532.0 382312.0 384790.0 378974.0 82487.0 90537.0 377721.0 380912.0 331990.0 327078.0 370377.0 366435.0 167264.0 165583.0 351308.0 355958.0 350736.0 342668.0 209661.0 211632.0 326511.0 318468.0 348207.0 353059.0 350383.0 356391.0 314659.0 318295.0 386158.0 388321.0 395427.0 403155.0 32603.0 26016.0 82828.0 90817.0 118287.0 111207.0 239004.0 234072.0 255492.0 254093.0 342189.0 339538.0 223443.0 230988.0 391052.0 383719.0 332324.0 340017.0 265099.0 273041.0 257956.0 255601.0 45796.0 52291.0 362682.0 363738.0 287316.0 294565.0 243747.0 251368.0 370924.0 362970.0 81170.0 76123.0 181736.0 173716.0 198322.0 201389.0 272567.0 279515.0 255554.0 247600.0 319505.0 321592.0 24611.0 27857.0 168231.0 169640.0 332041.0 324405.0 349661.0 357647.0 357786.0 365939.0 325969.0 168223.0 325969.0 325969.0 168223.0 168223.0
13010.0 13949.0 62146.0 56622.0 228547.0 224520.0 159761.0 167757.0 206301.0 199013.0 161202.0 154236.0 231501.0 227217.0 166172.0 163564.0 55953.0 62869.0 188654.0 185096.0 119459.0 127351.0 82126.0 75235.0 138349.0 130535.0 201316.0 207061.0 190782.0 196845.0 234548.0 230415.0 36588.0 29453.0 120192.0 114135.0 192297.0 193754.0 178620.0 186639.0 192957.0 199731.0 145128.0 139483.0 240128.0 232968.0 257380.0 253956.0 215833.0 209335.0 140943.0 136986.0 0.0 7996.0 227808.0 232474.0 163443.0 163949.0 98453.0 106475.0 123291.0 128188.0 237834.0 229901.0 99379.0 103180.0 151859.0 153455.0 175491.0 179635.0 12001.0 14422.0 251233.0 256330.0 244569.0 250725.0 268911.0 263875.0 61891.0 55362.0 260032.0 261992.0 214651.0 211116.0 248213.0 242883.0 37782.0 32468.0 238759.0 243071.0 214353.0 206266.0 75511.0 76024.0 198370.0 190621.0 211245.0 216074.0 223525.0 228476.0 187711.0 192813.0 266985.0 267782.0 278906.0 286763.0 126844.0 132327.0 55350.0 47970.0 61164.0 57972.0 112984.0 106241.0 120976.0 118553.0 229658.0 227021.0 87137.0 94914.0 276117.0 269310.0 218090.0 225534.0 136488.0 144401.0 128190.0 127848.0 91700.0 84728.0 228667.0 228982.0 153426.0 161151.0 108123.0 115476.0 252990.0 245380.0 63223.0 71069.0 58385.0 51728.0 75497.0 76519.0 137553.0 144911.0 126544.0 118742.0 182610.0 184607.0 130837.0 122870.0 31341.0 32994.0 195820.0 188305.0 214491.0 222474.0 225396.0 233434.0 213451.0 68145.0 213451.0 213451.0 68145.0 68145.0
20324.0 19050.0 62063.0 57363.0 221301.0 217170.0 153070.0 161074.0 200038.0 192666.0 154697.0 147631.0 227726.0 223641.0 158334.0 155658.0 62682.0 69855.0 182384.0 179024.0 112286.0 120276.0 78999.0 71755.0 131388.0 123484.0 194084.0 199930.0 184132.0 190332.0 227158.0 223128.0 42561.0 35043.0 115438.0 109611.0 184326.0 185764.0 172026.0 180037.0 185008.0 191804.0 138393.0 132571.0 234125.0 226897.0 253883.0 250677.0 210872.0 204227.0 148788.0 144746.0 7996.0 0.0 223966.0 228431.0 157856.0 158065.0 91438.0 99489.0 117932.0 123137.0 233417.0 225430.0 107286.0 111144.0 145749.0 147079.0 169440.0 173790.0 14091.0 11601.0 243592.0 248752.0 236634.0 242771.0 264484.0 259613.0 68544.0 61675.0 255314.0 257083.0 210118.0 206825.0 242902.0 237417.0 33908.0 27481.0 235338.0 239436.0 206919.0 198830.0 69021.0 69063.0 192423.0 184741.0 203461.0 208348.0 215766.0 220664.0 181971.0 187258.0 262028.0 262632.0 274342.0 282208.0 134839.0 140309.0 62761.0 55209.0 67063.0 64480.0 107858.0 100865.0 114138.0 111459.0 226375.0 223734.0 79868.0 87712.0 271869.0 265194.0 214127.0 221494.0 130730.0 138593.0 122282.0 122294.0 99564.0 92526.0 220673.0 220989.0 146639.0 154440.0 101031.0 108285.0 248251.0 240714.0 71170.0 78996.0 55033.0 49060.0 71629.0 72212.0 130552.0 137990.0 120781.0 113063.0 174784.0 176859.0 138150.0 130163.0 23940.0 25041.0 188442.0 180966.0 207352.0 215328.0 218748.0 226755.0 210164.0 68493.0 210164.0 210164.0 68493.0 68493.0
239138.0 241751.0 174093.0 182084.0 140314.0 145862.0 114664.0 111647.0 87814.0 91862.0 108113.0 114170.0 4308.0 8458.0 173569.0 181049.0 279326.0 284191.0 90823.0 85005.0 146988.0 140434.0 145992.0 152590.0 132031.0 138261.0 133737.0 128724.0 105269.0 98873.0 151913.0 143468.0 263359.0 256908.0 110330.0 115148.0 227058.0 220601.0 105294.0 103898.0 194501.0 192544.0 122206.0 130025.0 80908.0 81912.0 31958.0 32399.0 38925.0 45608.0 342590.0 341462.0 227808.0 223966.0 0.0 8039.0 83276.0 89629.0 154631.0 149191.0 112091.0 104840.0 21669.0 20999.0 302679.0 302888.0 102270.0 108021.0 88170.0 80213.0 238027.0 234010.0 178907.0 175835.0 262179.0 261661.0 45902.0 38795.0 285208.0 280451.0 44634.0 51266.0 26005.0 22088.0 56489.0 60108.0 190186.0 196581.0 17643.0 16822.0 148786.0 147155.0 163717.0 168661.0 76872.0 76810.0 177253.0 172902.0 272011.0 269793.0 73521.0 65738.0 56256.0 62449.0 57273.0 64357.0 321451.0 328304.0 274116.0 269183.0 224829.0 230685.0 119497.0 127559.0 137396.0 145211.0 17818.0 24893.0 166562.0 160619.0 50293.0 42494.0 10515.0 6852.0 106124.0 101020.0 114847.0 110298.0 297536.0 293374.0 232236.0 225412.0 120290.0 114838.0 150650.0 149404.0 40193.0 33313.0 260858.0 265344.0 169440.0 176430.0 152381.0 151828.0 133634.0 128035.0 114054.0 119441.0 174554.0 167308.0 343852.0 336628.0 205232.0 210744.0 141774.0 138886.0 130370.0 132527.0 106673.0 110089.0 44275.0 173963.0 44275.0 44275.0 173963.0 173963.0
243976.0 246401.0 179524.0 187515.0 135545.0 141368.0 114079.0 110544.0 84068.0 88679.0 107630.0 114024.0 8891.0 15949.0 172096.0 179725.0 284520.0 289522.0 88542.0 83232.0 148162.0 141312.0 150957.0 157358.0 132444.0 139000.0 130330.0 124966.0 102572.0 95787.0 147035.0 138654.0 268240.0 261685.0 114019.0 119156.0 225063.0 218453.0 103511.0 101527.0 192032.0 189769.0 122463.0 130423.0 74544.0 76061.0 31442.0 33902.0 35239.0 42689.0 348021.0 346892.0 232474.0 228431.0 8039.0 0.0 84011.0 89807.0 156830.0 151094.0 115006.0 108009.0 13805.0 14763.0 308109.0 308318.0 102887.0 108189.0 87221.0 79235.0 242512.0 238301.0 173787.0 170453.0 258918.0 258174.0 38869.0 32259.0 290427.0 285530.0 36686.0 43236.0 24161.0 22919.0 49012.0 53097.0 194762.0 200987.0 21604.0 17482.0 144827.0 143583.0 166996.0 171663.0 74030.0 74785.0 173787.0 169166.0 269695.0 267256.0 71981.0 64010.0 48248.0 54411.0 50130.0 57431.0 326882.0 333735.0 279520.0 274450.0 230260.0 236116.0 122922.0 130887.0 138799.0 146494.0 24629.0 32199.0 169002.0 162815.0 44189.0 36896.0 14574.0 6940.0 108046.0 102494.0 116927.0 112829.0 302967.0 298805.0 228962.0 222002.0 120006.0 114144.0 152398.0 150747.0 32154.0 25339.0 266289.0 270775.0 174184.0 181315.0 156979.0 156222.0 134053.0 128123.0 116376.0 122131.0 172336.0 164947.0 349283.0 342059.0 209236.0 214547.0 138707.0 136217.0 126212.0 127964.0 101640.0 104623.0 52073.0 179394.0 52073.0 52073.0 179394.0 179394.0
176070.0 176801.0 123521.0 131195.0 93687.0 94952.0 34696.0 35229.0 48235.0 43392.0 28204.0 32309.0 87583.0 87455.0 95163.0 101784.0 218783.0 224995.0 33214.0 26231.0 64263.0 57301.0 90490.0 93948.0 48812.0 55025.0 73253.0 72910.0 44964.0 45498.0 104587.0 96798.0 200027.0 192745.0 46797.0 53965.0 149981.0 144434.0 35949.0 40756.0 120942.0 121123.0 39187.0 46820.0 77889.0 71344.0 114985.0 115532.0 56141.0 48418.0 291756.0 290050.0 163443.0 157856.0 83276.0 84011.0 0.0 8555.0 75167.0 68559.0 40415.0 37256.0 83455.0 75343.0 250906.0 251845.0 19002.0 25389.0 18400.0 17838.0 171684.0 166091.0 131043.0 131635.0 191952.0 193095.0 112875.0 109992.0 224785.0 218687.0 101268.0 101533.0 60599.0 61406.0 85432.0 79617.0 126545.0 130981.0 99931.0 100011.0 91510.0 86176.0 90357.0 93228.0 36609.0 28533.0 112185.0 110648.0 195880.0 194869.0 24642.0 29407.0 106095.0 105676.0 121150.0 128910.0 270738.0 277591.0 216001.0 209674.0 174932.0 180492.0 51301.0 57302.0 55231.0 62710.0 94831.0 96728.0 88000.0 81023.0 121859.0 116988.0 72953.0 77963.0 27406.0 20049.0 36352.0 35595.0 245007.0 239906.0 162911.0 157356.0 38685.0 35438.0 69424.0 67020.0 94212.0 87604.0 208883.0 214200.0 108928.0 116916.0 91862.0 89164.0 50408.0 45245.0 37253.0 44811.0 100238.0 94310.0 289814.0 282175.0 135791.0 139568.0 76756.0 70743.0 78626.0 85031.0 72889.0 80767.0 88850.0 124359.0 88850.0 88850.0 124359.0 124359.0
176717.0 177087.0 126864.0 134387.0 86487.0 87367.0 26479.0 26675.0 44182.0 38330.0 19890.0 24737.0 93923.0 94253.0 87022.0 93789.0 219604.0 226007.0 27684.0 21913.0 59634.0 52121.0 93725.0 96551.0 42669.0 49564.0 65211.0 65269.0 37756.0 39350.0 97164.0 89542.0 200464.0 193073.0 50493.0 57675.0 141792.0 136155.0 27908.0 33369.0 112474.0 112591.0 32657.0 40643.0 76251.0 69266.0 121052.0 122004.0 59933.0 51869.0 294405.0 292480.0 163949.0 158065.0 89629.0 89807.0 8555.0 0.0 72572.0 65477.0 42399.0 40787.0 88176.0 80196.0 253294.0 254472.0 13899.0 18403.0 12612.0 15754.0 171733.0 165857.0 123328.0 124171.0 183435.0 184552.0 116770.0 114399.0 225596.0 219299.0 104546.0 104190.0 65963.0 67584.0 86879.0 80487.0 127594.0 131579.0 106597.0 106226.0 83489.0 77964.0 89707.0 91880.0 34458.0 26678.0 103689.0 102247.0 187652.0 186550.0 24257.0 30807.0 108521.0 107465.0 124515.0 132179.0 273574.0 280427.0 217237.0 210718.0 178362.0 183657.0 53526.0 58615.0 51326.0 58349.0 101939.0 104184.0 85589.0 78263.0 126049.0 121610.0 79469.0 84025.0 27609.0 19625.0 35783.0 36902.0 247203.0 241897.0 154368.0 148802.0 31033.0 27121.0 65962.0 62711.0 97578.0 91381.0 211338.0 216880.0 110861.0 118884.0 94175.0 91130.0 44278.0 38407.0 37481.0 45397.0 91771.0 85787.0 291541.0 283835.0 135495.0 138822.0 68389.0 62269.0 71247.0 77920.0 67722.0 75766.0 96959.0 128140.0 96959.0 96959.0 128140.0 128140.0
111451.0 110225.0 84281.0 89278.0 130323.0 126669.0 62226.0 70206.0 110790.0 103046.0 64704.0 57220.0 158861.0 157053.0 76952.0 77598.0 154117.0 161259.0 93314.0 91301.0 21407.0 28923.0 59143.0 55279.0 39960.0 32086.0 103090.0 108646.0 93267.0 99951.0 136866.0 132305.0 133708.0 126023.0 50910.0 50772.0 120565.0 118627.0 81430.0 89362.0 107522.0 112568.0 47493.0 41196.0 146000.0 138448.0 186538.0 185668.0 131294.0 123574.0 237113.0 233920.0 98453.0 91438.0 154631.0 156830.0 75167.0 72572.0 0.0 8071.0 44011.0 52002.0 157985.0 149802.0 195225.0 197840.0 58884.0 58055.0 82116.0 87952.0 104047.0 97241.0 155548.0 159928.0 172627.0 176813.0 187910.0 184689.0 159960.0 152933.0 176433.0 176537.0 134627.0 133918.0 159428.0 152877.0 67479.0 68347.0 169678.0 171383.0 117001.0 108973.0 24870.0 22438.0 105279.0 98275.0 118579.0 122098.0 163005.0 165074.0 96695.0 103351.0 180977.0 180037.0 196315.0 204077.0 219305.0 225799.0 153717.0 146422.0 130631.0 133515.0 41135.0 33952.0 23100.0 20184.0 162681.0 162379.0 13067.0 5989.0 196699.0 191436.0 144121.0 150280.0 48887.0 55247.0 39914.0 44550.0 188143.0 181786.0 149462.0 147302.0 55504.0 63512.0 9847.0 17644.0 169379.0 162718.0 154884.0 161688.0 59816.0 66512.0 51276.0 46483.0 39115.0 46594.0 40587.0 36044.0 92030.0 91846.0 229214.0 221268.0 67587.0 69093.0 98213.0 90525.0 116082.0 124070.0 127786.0 135700.0 149818.0 89199.0 149818.0 149818.0 89199.0 89199.0
119478.0 118289.0 90135.0 95495.0 122432.0 118892.0 54206.0 62176.0 102932.0 95150.0 56821.0 49280.0 153449.0 151934.0 71388.0 72709.0 162170.0 169297.0 85509.0 83705.0 14012.0 20999.0 63223.0 60173.0 31900.0 24108.0 95211.0 100677.0 85226.0 91961.0 129125.0 124451.0 141776.0 134092.0 48880.0 49879.0 117262.0 114858.0 73428.0 81344.0 102250.0 106941.0 39482.0 33126.0 138238.0 130655.0 181142.0 180547.0 124681.0 116858.0 244880.0 241751.0 106475.0 99489.0 149191.0 151094.0 68559.0 65477.0 8071.0 0.0 40463.0 48504.0 151765.0 143602.0 202998.0 205533.0 51668.0 50388.0 74625.0 80675.0 112117.0 105308.0 148208.0 152445.0 168717.0 172619.0 181431.0 178414.0 168017.0 161000.0 169719.0 169623.0 128540.0 128179.0 152206.0 145539.0 75032.0 76170.0 164581.0 165989.0 109362.0 101361.0 32305.0 30451.0 97723.0 90846.0 111913.0 115166.0 160598.0 162298.0 89457.0 96284.0 173992.0 172872.0 189642.0 197372.0 226827.0 233380.0 161714.0 154441.0 137464.0 140576.0 39623.0 33458.0 15140.0 12419.0 157869.0 157896.0 20788.0 12978.0 190354.0 185272.0 138676.0 144636.0 43079.0 48880.0 34401.0 40002.0 195964.0 189656.0 144756.0 142255.0 47449.0 55479.0 3303.0 10701.0 162689.0 156159.0 162500.0 169231.0 66227.0 73219.0 56234.0 51474.0 31077.0 38526.0 35653.0 32426.0 85970.0 85332.0 237204.0 229263.0 75649.0 77147.0 90534.0 82807.0 108115.0 116105.0 119730.0 127637.0 145762.0 94711.0 145762.0 145762.0 94711.0 94711.0
135825.0 136779.0 84777.0 92178.0 123118.0 122191.0 50194.0 56590.0 86517.0 80276.0 47714.0 44048.0 116238.0 113898.0 97042.0 101134.0 178444.0 184605.0 69533.0 64304.0 44732.0 42858.0 51688.0 54165.0 43259.0 42980.0 98115.0 100683.0 76469.0 80159.0 132531.0 125862.0 159876.0 152673.0 11984.0 17751.0 149268.0 145448.0 64470.0 71895.0 127327.0 130022.0 40743.0 42364.0 118129.0 111379.0 143778.0 142438.0 93348.0 86434.0 252006.0 250105.0 123291.0 117932.0 112091.0 115006.0 40415.0 42399.0 44011.0 40463.0 0.0 8047.0 117756.0 109592.0 210925.0 212074.0 33509.0 39000.0 54851.0 57471.0 131870.0 126585.0 156444.0 158750.0 197715.0 200462.0 148489.0 144436.0 184448.0 178430.0 138289.0 139553.0 94182.0 92305.0 124973.0 119596.0 86183.0 90828.0 126453.0 128671.0 115593.0 108563.0 52260.0 56657.0 76485.0 68484.0 128130.0 129010.0 194437.0 195101.0 64998.0 69620.0 144396.0 144750.0 157750.0 165612.0 231189.0 238042.0 175587.0 169281.0 136246.0 141382.0 11133.0 17067.0 34674.0 42167.0 119100.0 118517.0 54942.0 49858.0 156640.0 150724.0 101654.0 108256.0 15698.0 23263.0 12758.0 6057.0 204887.0 199668.0 170996.0 167001.0 47626.0 51734.0 42895.0 45143.0 131189.0 123932.0 168953.0 174481.0 68620.0 76629.0 51785.0 48854.0 44110.0 45594.0 9100.0 8047.0 107881.0 104429.0 249474.0 241815.0 96495.0 100906.0 97648.0 90093.0 107622.0 115126.0 109203.0 117345.0 105814.0 86491.0 105814.0 105814.0 86491.0 86491.0
140536.0 141830.0 86323.0 93961.0 124477.0 124071.0 52838.0 58489.0 84833.0 79113.0 49435.0 46939.0 108950.0 106404.0 103055.0 107502.0 182879.0 188844.0 68435.0 62527.0 52341.0 49893.0 53248.0 56792.0 49083.0 49718.0 100302.0 102257.0 76820.0 79715.0 134310.0 127329.0 164715.0 157633.0 9706.0 16891.0 155909.0 151877.0 65230.0 72248.0 132974.0 135327.0 45225.0 47969.0 115072.0 108596.0 136403.0 134887.0 87738.0 81148.0 254510.0 252846.0 128188.0 123137.0 104840.0 108009.0 37256.0 40787.0 52002.0 48504.0 8047.0 0.0 111281.0 103155.0 213720.0 214605.0 34374.0 41004.0 53399.0 54930.0 137159.0 132151.0 158925.0 160848.0 203718.0 206257.0 142167.0 137877.0 188882.0 183062.0 132369.0 133957.0 87741.0 85457.0 120149.0 115128.0 90712.0 95814.0 118916.0 121331.0 118118.0 111372.0 58988.0 63833.0 73845.0 65773.0 132299.0 132756.0 201279.0 201765.0 61819.0 65687.0 138891.0 139595.0 151650.0 159520.0 233482.0 240335.0 179620.0 173516.0 137782.0 143263.0 15313.0 22950.0 42148.0 49818.0 111416.0 110686.0 62728.0 57822.0 150112.0 144011.0 94454.0 101205.0 17477.0 23398.0 18511.0 10574.0 207892.0 202895.0 176608.0 172374.0 51291.0 54325.0 50909.0 52941.0 125283.0 117880.0 171687.0 176956.0 72173.0 80095.0 54881.0 52510.0 50088.0 50605.0 15218.0 16094.0 113204.0 109347.0 252942.0 245355.0 102302.0 107065.0 100629.0 93262.0 108974.0 116264.0 108437.0 116512.0 97865.0 87390.0 97865.0 97865.0 87390.0 87390.0
249639.0 251700.0 186669.0 194661.0 125277.0 131493.0 110790.0 106418.0 75857.0 81341.0 104591.0 111483.0 22537.0 29754.0 166900.0 174741.0 290808.0 296071.0 82730.0 78387.0 147582.0 140272.0 157150.0 163152.0 130678.0 137740.0 122216.0 116325.0 95860.0 88511.0 136561.0 128306.0 273941.0 267199.0 118147.0 123807.0 218835.0 211996.0 98322.0 95374.0 185139.0 182394.0 120521.0 128648.0 62245.0 64522.0 38165.0 42937.0 29186.0 37413.0 355166.0 354038.0 237834.0 233417.0 21669.0 13805.0 83455.0 88176.0 157985.0 151765.0 117756.0 111281.0 0.0 8193.0 315255.0 315464.0 101796.0 106255.0 83708.0 75844.0 247507.0 242938.0 162887.0 159189.0 250630.0 249539.0 31077.0 26741.0 296755.0 291591.0 24795.0 30407.0 23574.0 26974.0 35402.0 40038.0 200051.0 205937.0 33792.0 27564.0 135761.0 135131.0 170015.0 174162.0 67548.0 69696.0 165378.0 160352.0 262862.0 260080.0 67807.0 59757.0 35632.0 41171.0 41398.0 49167.0 334027.0 340880.0 286229.0 280893.0 237406.0 243262.0 126494.0 134220.0 138686.0 146116.0 38250.0 45942.0 170512.0 163929.0 38893.0 33534.0 24611.0 17546.0 109139.0 102886.0 118193.0 114928.0 310112.0 305950.0 220705.0 213549.0 117164.0 110670.0 152789.0 150443.0 19196.0 11738.0 273434.0 277920.0 179862.0 187231.0 162460.0 161326.0 132283.0 125837.0 118068.0 124412.0 165920.0 158332.0 356310.0 349150.0 213413.0 218338.0 131087.0 129258.0 116930.0 118044.0 91154.0 93460.0 64593.0 186539.0 64593.0 64593.0 186539.0 186539.0
241756.0 243754.0 179188.0 187173.0 120900.0 126818.0 103154.0 98989.0 70039.0 75074.0 96890.0 103687.0 23343.0 29454.0 159861.0 167636.0 283035.0 288354.0 75805.0 71115.0 139517.0 132257.0 149418.0 155331.0 122762.0 129753.0 116414.0 110820.0 89332.0 82229.0 132355.0 123994.0 266058.0 259285.0 110100.0 115825.0 212204.0 205457.0 91207.0 88610.0 178776.0 176254.0 112626.0 120732.0 59989.0 61320.0 43996.0 47742.0 21990.0 30049.0 347686.0 346557.0 229901.0 225430.0 20999.0 14763.0 75343.0 80196.0 149802.0 143602.0 109592.0 103155.0 8193.0 0.0 307774.0 307983.0 93760.0 98345.0 76078.0 68167.0 239517.0 234902.0 159051.0 155692.0 244985.0 244091.0 39070.0 34934.0 288989.0 283771.0 31366.0 35859.0 15417.0 19598.0 36164.0 39195.0 192120.0 197952.0 36358.0 31558.0 130534.0 129530.0 161852.0 165977.0 60847.0 62476.0 159772.0 154981.0 256500.0 253872.0 60303.0 52243.0 41209.0 45721.0 49089.0 56916.0 326547.0 333400.0 278552.0 273157.0 229925.0 235781.0 118384.0 126086.0 130572.0 138029.0 38749.0 45873.0 162322.0 155748.0 47075.0 41674.0 20220.0 14953.0 100950.0 94722.0 110003.0 106740.0 302632.0 298440.0 215035.0 207987.0 109436.0 103077.0 144641.0 142350.0 24953.0 16888.0 265954.0 270440.0 172008.0 179419.0 154581.0 153384.0 124369.0 118007.0 109874.0 116227.0 159341.0 151832.0 348915.0 341719.0 205330.0 210219.0 125033.0 122886.0 111831.0 113396.0 86939.0 89862.0 60608.0 179059.0 60608.0 60608.0 179059.0 179059.0
87382.0 91704.0 128674.0 120714.0 325340.0 321884.0 254011.0 261852.0 297244.0 290614.0 254373.0 248089.0 306107.0 301250.0 265506.0 262940.0 54816.0 47301.0 279928.0 275161.0 216607.0 223980.0 160844.0 156959.0 234303.0 227017.0 298157.0 303326.0 284386.0 289531.0 332090.0 327419.0 73415.0 79983.0 204393.0 197370.0 289912.0 291922.0 272044.0 280003.0 292257.0 299086.0 239840.0 235180.0 328784.0 322211.0 331206.0 327709.0 297295.0 292095.0 41892.0 39193.0 99379.0 107286.0 302679.0 308109.0 250906.0 253294.0 195225.0 202998.0 210925.0 213720.0 315255.0 307774.0 0.0 7469.0 242910.0 246025.0 265627.0 268336.0 98826.0 106838.0 349924.0 354745.0 341256.0 347795.0 346007.0 340191.0 52203.0 59589.0 338938.0 342129.0 293207.0 288295.0 331585.0 327534.0 128290.0 126889.0 312526.0 317175.0 312168.0 304115.0 170819.0 173031.0 287347.0 279308.0 310455.0 315113.0 317559.0 323215.0 275524.0 279223.0 347375.0 349497.0 356644.0 364372.0 31693.0 34728.0 47916.0 55842.0 80262.0 72997.0 199828.0 194879.0 216588.0 215373.0 303406.0 300755.0 185014.0 192459.0 352269.0 344936.0 293541.0 301234.0 225907.0 233850.0 218769.0 216412.0 8332.0 16285.0 327059.0 327744.0 248295.0 255494.0 205066.0 212741.0 332141.0 324187.0 42039.0 37500.0 142544.0 134523.0 159146.0 162197.0 233713.0 240588.0 216361.0 208408.0 281920.0 283734.0 44180.0 38769.0 130329.0 132321.0 293421.0 285749.0 310758.0 318738.0 318623.0 326778.0 287186.0 129679.0 287186.0 287186.0 129679.0 129679.0
91543.0 96258.0 128981.0 121080.0 327702.0 324407.0 255949.0 263742.0 298528.0 292015.0 256122.0 249972.0 306316.0 301459.0 269022.0 266650.0 61101.0 53812.0 281304.0 276370.0 219245.0 226476.0 161520.0 157964.0 236624.0 229471.0 300565.0 305582.0 286135.0 291110.0 334657.0 329835.0 78967.0 85255.0 205189.0 198112.0 294522.0 296377.0 273790.0 281720.0 296130.0 302866.0 241902.0 237445.0 329662.0 323187.0 331415.0 327918.0 297509.0 292319.0 39932.0 38674.0 103180.0 111144.0 302888.0 308318.0 251845.0 254472.0 197840.0 205533.0 212074.0 214605.0 315464.0 307983.0 7469.0 0.0 244366.0 247702.0 266875.0 269376.0 103361.0 111353.0 352914.0 357605.0 346107.0 352566.0 346216.0 340400.0 58849.0 66024.0 339147.0 342338.0 293416.0 288504.0 331771.0 327887.0 130593.0 129627.0 312734.0 317384.0 314840.0 306807.0 173270.0 175787.0 288368.0 280312.0 313801.0 318321.0 322836.0 328395.0 276422.0 279928.0 347584.0 349747.0 356853.0 364581.0 25269.0 29390.0 53519.0 61291.0 79626.0 72546.0 200952.0 196249.0 218892.0 217936.0 303615.0 300964.0 187932.0 195266.0 352478.0 345145.0 293750.0 301443.0 227205.0 235117.0 220256.0 217646.0 14879.0 22671.0 331452.0 331987.0 250363.0 257445.0 207687.0 215419.0 332350.0 324396.0 43330.0 37654.0 143995.0 136001.0 160306.0 163523.0 236079.0 242835.0 217757.0 209826.0 285391.0 287023.0 47731.0 43234.0 133802.0 136174.0 296047.0 288338.0 313005.0 320974.0 320239.0 328402.0 287395.0 129575.0 287395.0 287395.0 129575.0 129575.0
164722.0 164797.0 118066.0 125334.0 90116.0 89740.0 20035.0 24384.0 54620.0 47723.0 15340.0 15440.0 106577.0 106434.0 78364.0 84495.0 207694.0 214258.0 37090.0 33283.0 45831.0 38517.0 85079.0 87018.0 29823.0 36119.0 66134.0 67886.0 42959.0 46904.0 99953.0 92958.0 188258.0 180791.0 43686.0 50558.0 133133.0 127966.0 31028.0 38386.0 105787.0 106815.0 20395.0 27840.0 88416.0 81149.0 133943.0 134533.0 73758.0 65730.0 284277.0 282099.0 151859.0 145749.0 102270.0 102887.0 19002.0 13899.0 58884.0 51668.0 33509.0 34374.0 101796.0 93760.0 242910.0 244366.0 0.0 8078.0 23735.0 29071.0 159270.0 153198.0 124828.0 126561.0 177111.0 178780.0 130612.0 128132.0 213669.0 207213.0 118442.0 118071.0 79278.0 80366.0 100560.0 94003.0 116101.0 119655.0 118925.0 118992.0 84131.0 77674.0 76978.0 78696.0 46900.0 39558.0 100635.0 100249.0 179092.0 178480.0 37814.0 44652.0 122376.0 121207.0 138410.0 146077.0 263782.0 270635.0 205704.0 199018.0 169446.0 174366.0 44387.0 48149.0 37427.0 44487.0 113718.0 115407.0 71933.0 64511.0 139838.0 135281.0 91954.0 96909.0 17813.0 11022.0 24149.0 27504.0 236611.0 231089.0 148676.0 143635.0 21542.0 21314.0 52086.0 48845.0 111469.0 105231.0 201097.0 206896.0 100388.0 108399.0 84300.0 80869.0 31416.0 26609.0 26648.0 34546.0 85210.0 80055.0 280407.0 272638.0 122852.0 125871.0 67206.0 60182.0 74610.0 81948.0 76046.0 84210.0 106667.0 119965.0 106667.0 106667.0 119965.0 119965.0
166399.0 166115.0 122581.0 129655.0 84125.0 83266.0 12156.0 17608.0 53062.0 45589.0 8753.0 7401.0 112317.0 112555.0 70543.0 76834.0 209396.0 216129.0 35441.0 33340.0 42557.0 34560.0 89866.0 91210.0 24423.0 31765.0 59338.0 61684.0 38494.0 43606.0 93577.0 86862.0 189640.0 182091.0 49935.0 56543.0 125359.0 120098.0 26175.0 34033.0 97736.0 98737.0 14296.0 22393.0 87977.0 80471.0 139452.0 140387.0 77672.0 69490.0 287561.0 285182.0 153455.0 147079.0 108021.0 108189.0 25389.0 18403.0 58055.0 50388.0 39000.0 41004.0 106255.0 98345.0 246025.0 247702.0 8078.0 0.0 24509.0 31342.0 160375.0 154043.0 117924.0 119944.0 169055.0 170705.0 134331.0 132274.0 215344.0 208712.0 121704.0 120836.0 84289.0 85984.0 102476.0 95528.0 118472.0 121545.0 124940.0 124628.0 77114.0 70427.0 78062.0 78977.0 47387.0 40788.0 92751.0 92536.0 171316.0 170611.0 40118.0 47611.0 124932.0 123251.0 141673.0 149237.0 267401.0 274229.0 207814.0 200962.0 173738.0 178399.0 49405.0 52126.0 35448.0 41624.0 120110.0 122112.0 71088.0 63366.0 143778.0 139586.0 97835.0 102427.0 23702.0 18274.0 28009.0 32950.0 239560.0 233856.0 140599.0 135561.0 13650.0 13535.0 50294.0 45967.0 114830.0 108943.0 204381.0 210372.0 103776.0 111735.0 88265.0 84564.0 26028.0 20020.0 31099.0 38598.0 77146.0 71978.0 282830.0 275010.0 123807.0 126336.0 59789.0 52598.0 68636.0 76187.0 72611.0 80760.0 113965.0 124850.0 113965.0 113965.0 124850.0 124850.0
188325.0 188485.0 139437.0 146937.0 75387.0 76917.0 27083.0 23497.0 31667.0 25727.0 20970.0 28256.0 92376.0 93722.0 85566.0 92926.0 231274.0 237776.0 15137.0 9620.0 67028.0 58906.0 106297.0 109014.0 48172.0 55988.0 56022.0 54996.0 26800.0 27157.0 86403.0 78522.0 211928.0 204479.0 63105.0 70287.0 139668.0 133561.0 19520.0 22811.0 108579.0 107834.0 37997.0 46179.0 64694.0 57477.0 118662.0 120459.0 54637.0 46374.0 306807.0 304818.0 175491.0 169440.0 88170.0 87221.0 18400.0 12612.0 82116.0 74625.0 54851.0 53399.0 83708.0 76078.0 265627.0 266875.0 23735.0 24509.0 0.0 7986.0 182988.0 176932.0 113096.0 113457.0 178685.0 179287.0 110701.0 109125.0 237256.0 230852.0 97712.0 96543.0 63060.0 66194.0 77971.0 71035.0 139474.0 143221.0 105620.0 104275.0 74135.0 69332.0 100711.0 102358.0 23219.0 16283.0 96718.0 94482.0 185163.0 183533.0 16095.0 24024.0 100549.0 98753.0 117641.0 125126.0 286037.0 292889.0 229123.0 222512.0 190936.0 196192.0 65984.0 70797.0 59845.0 66132.0 102072.0 105235.0 95182.0 87580.0 120350.0 116619.0 78528.0 82053.0 39735.0 31778.0 47404.0 49230.0 259475.0 254097.0 149182.0 143183.0 33574.0 27007.0 74692.0 70472.0 90935.0 85400.0 223701.0 229304.0 123122.0 131147.0 106570.0 103431.0 49731.0 42668.0 49436.0 57401.0 88060.0 81409.0 303622.0 295889.0 146585.0 149583.0 60629.0 55412.0 60450.0 66703.0 55164.0 63185.0 100394.0 140747.0 100394.0 100394.0 140747.0 140747.0
192381.0 192806.0 141249.0 148888.0 78888.0 81132.0 34992.0 31434.0 30499.0 26318.0 28749.0 35795.0 84412.0 85836.0 93448.0 100853.0 235239.0 241598.0 17193.0 9326.0 73842.0 65902.0 108174.0 111416.0 55480.0 63084.0 61485.0 59600.0 31413.0 29691.0 90228.0 82098.0 216166.0 208789.0 64538.0 71722.0 147417.0 141237.0 26386.0 28049.0 116018.0 115047.0 45269.0 53467.0 60719.0 53908.0 110677.0 112486.0 46846.0 38590.0 309299.0 307503.0 179635.0 173790.0 80213.0 79235.0 17838.0 15754.0 87952.0 80675.0 57471.0 54930.0 75844.0 68167.0 268336.0 269376.0 29071.0 31342.0 7986.0 0.0 187474.0 181610.0 117336.0 117208.0 185805.0 186240.0 103169.0 101414.0 241234.0 234975.0 90387.0 89514.0 55075.0 58263.0 71534.0 64933.0 143151.0 147241.0 97684.0 96293.0 79308.0 75032.0 105458.0 107566.0 19016.0 11034.0 103150.0 100534.0 192826.0 191094.0 8818.0 16358.0 93662.0 92230.0 110349.0 117900.0 288341.0 295194.0 232763.0 226298.0 192692.0 198190.0 68525.0 74017.0 66171.0 72795.0 94257.0 97560.0 101003.0 93556.0 112737.0 108861.0 70619.0 74076.0 43179.0 35237.0 51514.0 52221.0 262346.0 257138.0 156194.0 150053.0 41333.0 34962.0 80957.0 77156.0 83541.0 77817.0 226336.0 231746.0 126086.0 134099.0 109200.0 106323.0 57061.0 50216.0 53105.0 60973.0 95582.0 88793.0 306903.0 299223.0 151249.0 154561.0 66892.0 62134.0 64452.0 70131.0 55556.0 63296.0 93350.0 142168.0 93350.0 93350.0 142168.0 142168.0
13028.0 7123.0 74070.0 68620.0 233266.0 228897.0 166017.0 174022.0 213401.0 205956.0 167856.0 160688.0 241777.0 237658.0 168325.0 165163.0 50621.0 58200.0 195750.0 192553.0 124555.0 132706.0 92857.0 85709.0 143987.0 135949.0 206103.0 212147.0 197100.0 203455.0 238776.0 235002.0 29752.0 22018.0 129510.0 123700.0 191164.0 193099.0 185071.0 193067.0 194015.0 201040.0 151300.0 145243.0 247682.0 240406.0 267886.0 264627.0 224896.0 218216.0 139646.0 135100.0 12001.0 14091.0 238027.0 242512.0 171684.0 171733.0 104047.0 112117.0 131870.0 137159.0 247507.0 239517.0 98826.0 103361.0 159270.0 160375.0 182988.0 187474.0 0.0 8013.0 254417.0 259796.0 242830.0 249233.0 278572.0 273705.0 56284.0 48986.0 269377.0 271114.0 224202.0 220916.0 256822.0 251277.0 47890.0 41572.0 249322.0 253466.0 218440.0 210353.0 82356.0 81848.0 206034.0 198398.0 213687.0 218851.0 220411.0 225686.0 195711.0 201091.0 276048.0 276603.0 288422.0 296288.0 127821.0 132740.0 52316.0 44405.0 70507.0 66403.0 121869.0 114808.0 126951.0 123876.0 240324.0 237672.0 92064.0 100006.0 285960.0 279281.0 228201.0 235575.0 144488.0 152318.0 135961.0 136155.0 90801.0 83370.0 228234.0 228973.0 159467.0 167360.0 113480.0 120531.0 262311.0 254784.0 66258.0 74243.0 68931.0 62695.0 85665.0 86298.0 143087.0 150639.0 134544.0 126875.0 184819.0 187303.0 126882.0 118866.0 36602.0 35570.0 200130.0 192757.0 219548.0 227504.0 231695.0 239661.0 224102.0 80125.0 224102.0 224102.0 80125.0 80125.0
20470.0 15136.0 73664.0 68904.0 225995.0 221528.0 159367.0 167366.0 207103.0 199585.0 161385.0 154132.0 237821.0 233892.0 160504.0 157270.0 58200.0 65887.0 189466.0 186463.0 117512.0 125741.0 89770.0 82347.0 137112.0 129001.0 198868.0 205006.0 190446.0 196926.0 231361.0 227692.0 37139.0 29395.0 124802.0 119224.0 183168.0 185088.0 178487.0 186464.0 186060.0 193106.0 144634.0 138414.0 241601.0 234267.0 264177.0 261125.0 219831.0 213016.0 147643.0 143065.0 14422.0 11601.0 234010.0 238301.0 166091.0 165857.0 97241.0 105308.0 126585.0 132151.0 242938.0 234902.0 106838.0 111353.0 153198.0 154043.0 176932.0 181610.0 8013.0 0.0 246750.0 252187.0 234878.0 241263.0 273972.0 269265.0 63761.0 56284.0 264506.0 266059.0 219543.0 216488.0 251394.0 245707.0 44614.0 37555.0 245696.0 249634.0 210996.0 202913.0 76222.0 75230.0 200047.0 192485.0 205896.0 211115.0 212631.0 217856.0 189936.0 195486.0 270945.0 271316.0 283685.0 291555.0 135771.0 140729.0 60256.0 52316.0 75457.0 71962.0 116838.0 109567.0 120244.0 116915.0 236833.0 234236.0 85046.0 93021.0 281526.0 274976.0 224077.0 231372.0 138789.0 146553.0 130141.0 130673.0 98814.0 91377.0 220221.0 220962.0 152733.0 160688.0 106556.0 113480.0 257425.0 249973.0 73847.0 81822.0 65800.0 60195.0 81959.0 82194.0 136174.0 143789.0 128867.0 121302.0 177001.0 179564.0 134580.0 126561.0 30363.0 28300.0 192757.0 185429.0 212392.0 220336.0 225007.0 232937.0 220667.0 80081.0 220667.0 220667.0 80081.0 80081.0
263911.0 261246.0 236025.0 242249.0 39388.0 36216.0 106281.0 100483.0 93910.0 93191.0 109553.0 112397.0 182031.0 186885.0 87509.0 92662.0 304948.0 312612.0 100233.0 108188.0 134240.0 127772.0 204914.0 204542.0 119189.0 125095.0 58698.0 58137.0 86313.0 88007.0 27594.0 36112.0 283841.0 276118.0 167773.0 174177.0 100271.0 92695.0 95494.0 90336.0 71470.0 63517.0 117041.0 118919.0 102030.0 98492.0 200376.0 205794.0 140450.0 135231.0 391770.0 388131.0 251233.0 243592.0 178907.0 173787.0 131043.0 123328.0 155548.0 148208.0 156444.0 158925.0 162887.0 159051.0 349924.0 352914.0 124828.0 117924.0 113096.0 117336.0 254417.0 246750.0 0.0 8160.0 102427.0 98245.0 173508.0 177318.0 310458.0 302824.0 159232.0 152738.0 154465.0 161604.0 132656.0 125259.0 222995.0 223325.0 195389.0 190263.0 40853.0 48073.0 180401.0 177226.0 107781.0 112331.0 42977.0 36315.0 128083.0 122015.0 117715.0 122312.0 152801.0 145532.0 172984.0 177161.0 374779.0 381173.0 306275.0 298565.0 285277.0 288688.0 166051.0 166826.0 136421.0 135839.0 196426.0 202318.0 164982.0 157722.0 183241.0 184793.0 172827.0 172087.0 141584.0 135826.0 144332.0 150492.0 342561.0 335840.0 76898.0 68870.0 109230.0 104755.0 145758.0 137906.0 155967.0 156254.0 310231.0 317154.0 213734.0 221083.0 201014.0 196629.0 119325.0 113991.0 147839.0 154339.0 71431.0 67510.0 381299.0 373283.0 219924.0 219028.0 59153.0 66945.0 52891.0 47954.0 72234.0 69452.0 205338.0 239442.0 205338.0 205338.0 239442.0 239442.0
269076.0 266575.0 239423.0 245798.0 38364.0 36891.0 108572.0 102374.0 92337.0 92319.0 111416.0 114762.0 178831.0 183923.0 93815.0 99303.0 310381.0 317995.0 100021.0 107952.0 138547.0 131791.0 207944.0 207863.0 122763.0 129011.0 60637.0 58974.0 86686.0 87602.0 27054.0 35126.0 289312.0 281576.0 169878.0 176425.0 108358.0 100758.0 96566.0 90893.0 79108.0 71208.0 119996.0 122371.0 97696.0 94668.0 196359.0 201997.0 137715.0 132868.0 396618.0 393100.0 256330.0 248752.0 175835.0 170453.0 131635.0 124171.0 159928.0 152445.0 158750.0 160848.0 159189.0 155692.0 354745.0 357605.0 126561.0 119944.0 113457.0 117208.0 259796.0 252187.0 8160.0 0.0 110016.0 105619.0 168584.0 172668.0 315937.0 308354.0 154462.0 147778.0 151830.0 159174.0 128099.0 120919.0 227406.0 227978.0 192048.0 186676.0 43622.0 51345.0 184722.0 181823.0 106487.0 111517.0 50055.0 42992.0 136112.0 129977.0 116974.0 121112.0 147613.0 140185.0 167637.0 171577.0 379233.0 385713.0 311489.0 303827.0 289077.0 292670.0 168616.0 169763.0 140203.0 140037.0 193471.0 199568.0 169730.0 162340.0 178191.0 180044.0 170135.0 169050.0 143646.0 137582.0 146860.0 152749.0 347456.0 340818.0 84889.0 76884.0 111985.0 107026.0 150101.0 142293.0 151473.0 152123.0 314781.0 321616.0 217541.0 224992.0 204407.0 200097.0 122996.0 117309.0 150308.0 157033.0 77992.0 73588.0 386655.0 378642.0 224994.0 224326.0 62411.0 70254.0 53014.0 47125.0 69428.0 65831.0 203519.0 242642.0 203519.0 203519.0 242642.0 242642.0
255067.0 249903.0 255101.0 258809.0 129351.0 121770.0 157750.0 156848.0 174946.0 170335.0 163934.0 161671.0 265985.0 269096.0 100686.0 96957.0 288722.0 296775.0 172065.0 178832.0 157106.0 155850.0 231704.0 227808.0 154640.0 155093.0 128593.0 134313.0 157159.0 163306.0 120296.0 126982.0 268367.0 261416.0 209484.0 213531.0 53141.0 54019.0 159419.0 159056.0 71331.0 70908.0 159522.0 155765.0 195748.0 190235.0 288749.0 292678.0 223693.0 216586.0 380929.0 375532.0 244569.0 236634.0 262179.0 258918.0 191952.0 183435.0 172627.0 168717.0 197715.0 203718.0 250630.0 244985.0 341256.0 346107.0 177111.0 169055.0 178685.0 185805.0 242830.0 234878.0 102427.0 110016.0 0.0 8111.0 267505.0 269833.0 293124.0 285059.0 252803.0 247384.0 236205.0 241591.0 226022.0 217903.0 229574.0 226317.0 279729.0 276337.0 115341.0 115500.0 193841.0 187310.0 185330.0 186228.0 85252.0 90593.0 34815.0 26743.0 190395.0 197488.0 248483.0 242055.0 269001.0 274172.0 370649.0 375496.0 293615.0 285598.0 295181.0 295847.0 203131.0 199664.0 165186.0 159694.0 278191.0 282454.0 175075.0 171109.0 277664.0 277656.0 253912.0 255443.0 187741.0 185876.0 185326.0 193211.0 333070.0 325374.0 29957.0 37176.0 155687.0 156795.0 165425.0 158837.0 248256.0 246648.0 307791.0 315630.0 229710.0 234895.0 223793.0 219009.0 153677.0 153590.0 188840.0 191858.0 91924.0 97651.0 362649.0 354886.0 216894.0 212419.0 120434.0 123930.0 134271.0 134741.0 162102.0 162771.0 279075.0 260732.0 279075.0 279075.0 260732.0 260732.0
261379.0 256321.0 259800.0 263687.0 126990.0 119617.0 159197.0 157892.0 174109.0 169815.0 165252.0 163354.0 265403.0 268723.0 103485.0 100317.0 295495.0 303550.0 172045.0 178998.0 160676.0 159027.0 235760.0 232075.0 157255.0 158117.0 127925.0 133274.0 157015.0 162863.0 117481.0 124486.0 275049.0 268040.0 212307.0 216563.0 58642.0 58633.0 159893.0 159122.0 73343.0 72035.0 161691.0 158295.0 193635.0 188353.0 287697.0 291828.0 223002.0 216055.0 387638.0 382312.0 250725.0 242771.0 261661.0 258174.0 193095.0 184552.0 176813.0 172619.0 200462.0 206257.0 249539.0 244091.0 347795.0 352566.0 178780.0 170705.0 179287.0 186240.0 249233.0 241263.0 98245.0 105619.0 8111.0 0.0 265601.0 268160.0 299957.0 291892.0 250927.0 245326.0 235742.0 241341.0 224090.0 216042.0 234909.0 231845.0 279150.0 275540.0 113867.0 114591.0 198490.0 192115.0 184935.0 186182.0 84412.0 89195.0 42858.0 34774.0 190501.0 197428.0 246258.0 239669.0 266764.0 271762.0 377022.0 381954.0 300235.0 292212.0 300610.0 301436.0 206239.0 203045.0 168457.0 163235.0 277901.0 282358.0 179754.0 175526.0 275715.0 275950.0 253603.0 254889.0 190014.0 187827.0 187962.0 195804.0 339631.0 331965.0 30184.0 36304.0 157487.0 158181.0 169342.0 162571.0 246555.0 245202.0 313941.0 321753.0 234465.0 239818.0 228065.0 223274.0 156356.0 155875.0 191515.0 194823.0 93633.0 98877.0 369669.0 361884.0 222713.0 218412.0 120196.0 124151.0 132786.0 132782.0 160219.0 160491.0 279587.0 265317.0 279587.0 279587.0 265317.0 265317.0
280710.0 282776.0 217421.0 225413.0 138833.0 146005.0 137474.0 132224.0 96441.0 103255.0 131641.0 138925.0 43917.0 51110.0 190374.0 198452.0 321820.0 327037.0 106977.0 104053.0 176403.0 168773.0 188147.0 194202.0 158629.0 166075.0 141237.0 134359.0 118278.0 110230.0 149169.0 141531.0 305011.0 298275.0 149171.0 154874.0 240141.0 232944.0 122952.0 118697.0 205534.0 201880.0 148416.0 156610.0 72126.0 77273.0 36719.0 44884.0 56858.0 64910.0 385918.0 384790.0 268911.0 264484.0 45902.0 38869.0 112875.0 116770.0 187910.0 181431.0 148489.0 142167.0 31077.0 39070.0 346007.0 346216.0 130612.0 134331.0 110701.0 103169.0 278572.0 273972.0 173508.0 168584.0 267505.0 265601.0 0.0 8198.0 327761.0 322633.0 14718.0 20811.0 54450.0 57930.0 41511.0 49604.0 231129.0 237004.0 46900.0 38679.0 152283.0 153107.0 200733.0 204688.0 91506.0 95397.0 182884.0 176991.0 282752.0 279304.0 94609.0 86812.0 21864.0 30056.0 11410.0 18572.0 364779.0 371632.0 317158.0 311877.0 268157.0 274014.0 157417.0 165078.0 167901.0 175098.0 55855.0 63619.0 200594.0 193813.0 10258.0 12311.0 53170.0 45373.0 139248.0 132667.0 148339.0 145448.0 340864.0 336702.0 237899.0 230355.0 144226.0 137152.0 182273.0 179455.0 20253.0 25396.0 304186.0 308672.0 210925.0 218274.0 193531.0 192403.0 160216.0 153350.0 148411.0 154968.0 187414.0 179572.0 387180.0 379956.0 244386.0 249229.0 150909.0 150375.0 133427.0 132826.0 105413.0 105410.0 89757.0 217291.0 89757.0 89757.0 217291.0 217291.0
275541.0 277772.0 211605.0 219597.0 141793.0 148744.0 136109.0 131233.0 97153.0 103588.0 130093.0 137201.0 36469.0 43460.0 190431.0 198431.0 316377.0 321477.0 106513.0 103023.0 173960.0 166517.0 182720.0 188944.0 156671.0 163913.0 142676.0 136067.0 118523.0 110669.0 152413.0 144588.0 299831.0 293178.0 144550.0 150051.0 241043.0 233960.0 122410.0 118626.0 206696.0 203329.0 146476.0 154644.0 75404.0 79937.0 28955.0 37008.0 54618.0 62844.0 380103.0 378974.0 263875.0 259613.0 38795.0 32259.0 109992.0 114399.0 184689.0 178414.0 144436.0 137877.0 26741.0 34934.0 340191.0 340400.0 128132.0 132274.0 109125.0 101414.0 273705.0 269265.0 177318.0 172668.0 269833.0 268160.0 8198.0 0.0 322301.0 317293.0 18392.0 25889.0 50285.0 52789.0 44676.0 52346.0 226107.0 232135.0 38746.0 30547.0 154495.0 154901.0 196689.0 200887.0 91053.0 94310.0 184898.0 179241.0 284169.0 280931.0 93056.0 85107.0 28184.0 36404.0 19257.0 25729.0 358964.0 365816.0 311527.0 306364.0 262342.0 268198.0 153045.0 160825.0 165199.0 172553.0 47817.0 55527.0 197240.0 190627.0 12261.0 7888.0 46792.0 39022.0 135861.0 129544.0 144921.0 141660.0 335049.0 330886.0 240099.0 232658.0 142697.0 135878.0 179391.0 176893.0 21613.0 24221.0 298371.0 302856.0 205725.0 212975.0 188405.0 187436.0 158269.0 151613.0 144808.0 151137.0 188177.0 180406.0 381365.0 374141.0 239870.0 244893.0 152133.0 151178.0 135572.0 135438.0 107998.0 108581.0 82210.0 211476.0 82210.0 82210.0 211476.0 211476.0
48957.0 49785.0 112405.0 104859.0 289524.0 285181.0 221579.0 229580.0 268161.0 260896.0 223087.0 216094.0 288684.0 283822.0 223938.0 220394.0 6004.0 5370.0 250519.0 246869.0 180687.0 188753.0 139615.0 133717.0 199917.0 191976.0 262346.0 268324.0 252623.0 258730.0 295058.0 291276.0 26625.0 34366.0 180439.0 174012.0 242937.0 245607.0 240484.0 248501.0 248656.0 255897.0 206917.0 201111.0 301830.0 294724.0 313803.0 310306.0 276053.0 269855.0 88254.0 82487.0 61891.0 68544.0 285208.0 290427.0 224785.0 225596.0 159960.0 168017.0 184448.0 188882.0 296755.0 288989.0 52203.0 58849.0 213669.0 215344.0 237256.0 241234.0 56284.0 63761.0 310458.0 315937.0 293124.0 299957.0 327761.0 322301.0 0.0 8065.0 319619.0 322001.0 273941.0 269832.0 309022.0 303947.0 98267.0 94037.0 295123.0 299761.0 274715.0 266629.0 137386.0 137604.0 260046.0 252244.0 269391.0 274734.0 267939.0 273914.0 249197.0 254068.0 327087.0 328269.0 338077.0 345893.0 83884.0 86551.0 14001.0 16149.0 79602.0 71737.0 173868.0 167484.0 182681.0 179928.0 286003.0 283353.0 148209.0 156113.0 334467.0 327315.0 275894.0 283514.0 198055.0 206003.0 189892.0 189225.0 44034.0 36180.0 280860.0 282204.0 215176.0 222957.0 169509.0 176671.0 312643.0 304884.0 45194.0 50118.0 117218.0 109630.0 134732.0 136503.0 199066.0 206528.0 188132.0 180267.0 240429.0 243186.0 71127.0 63125.0 92381.0 91854.0 256414.0 249036.0 275735.0 283700.0 287241.0 295263.0 269783.0 116178.0 269783.0 269783.0 116178.0 116178.0
42617.0 42722.0 108441.0 101088.0 282231.0 277807.0 214730.0 222735.0 261618.0 254291.0 216367.0 209306.0 283984.0 279260.0 216185.0 212570.0 5370.0 12310.0 243967.0 240456.0 173532.0 181657.0 134584.0 128441.0 192891.0 184893.0 255079.0 261133.0 245798.0 252004.0 287645.0 283950.0 19238.0 26969.0 174773.0 168457.0 234884.0 237572.0 233700.0 241711.0 240748.0 248012.0 200041.0 194118.0 295489.0 288329.0 309216.0 305719.0 270457.0 264144.0 96259.0 90537.0 55362.0 61675.0 280451.0 285530.0 218687.0 219299.0 152933.0 161000.0 178430.0 183062.0 291591.0 283771.0 59589.0 66024.0 207213.0 208712.0 230852.0 234975.0 48986.0 56284.0 302824.0 308354.0 285059.0 291892.0 322633.0 317293.0 8065.0 0.0 314258.0 316497.0 268653.0 264711.0 303203.0 298009.0 92352.0 87741.0 290535.0 295192.0 267278.0 259196.0 130673.0 130639.0 253728.0 245968.0 261649.0 267044.0 259915.0 265874.0 243017.0 248023.0 321552.0 322588.0 332856.0 340687.0 91195.0 94124.0 16149.0 14001.0 79023.0 71411.0 167962.0 161417.0 175749.0 172827.0 281416.0 278765.0 141041.0 148973.0 329486.0 322426.0 271026.0 278605.0 191814.0 199739.0 183548.0 183098.0 51331.0 43397.0 272824.0 274191.0 208262.0 216094.0 162421.0 169509.0 307258.0 299545.0 47802.0 53622.0 111794.0 104360.0 129278.0 130851.0 192013.0 199525.0 181875.0 174050.0 232672.0 235502.0 79010.0 71022.0 85358.0 84499.0 249036.0 241693.0 268533.0 276490.0 280412.0 288411.0 265195.0 112592.0 265195.0 265195.0 112592.0 112592.0
272060.0 273819.0 210352.0 218343.0 124223.0 131349.0 124209.0 118678.0 82012.0 88975.0 118547.0 125966.0 44000.0 51609.0 176120.0 184231.0 313649.0 319098.0 93135.0 90630.0 164055.0 156249.0 180204.0 185903.0 145837.0 153464.0 126570.0 119660.0 104011.0 95887.0 134645.0 126947.0 296350.0 289467.0 139885.0 145914.0 225564.0 218340.0 109117.0 104589.0 190903.0 187201.0 135633.0 143831.0 57569.0 62581.0 45809.0 53323.0 45216.0 52867.0 378850.0 377721.0 260032.0 255314.0 44634.0 36686.0 101268.0 104546.0 176433.0 169719.0 138289.0 132369.0 24795.0 31366.0 338938.0 339147.0 118442.0 121704.0 97712.0 90387.0 269377.0 264506.0 159232.0 154462.0 252803.0 250927.0 14718.0 18392.0 319619.0 314258.0 0.0 7962.0 45780.0 50961.0 26864.0 34900.0 222290.0 227878.0 50999.0 42930.0 137568.0 138397.0 190350.0 193944.0 77714.0 82063.0 168166.0 162280.0 268070.0 264600.0 81689.0 74096.0 11955.0 19443.0 19976.0 27654.0 357711.0 364564.0 309380.0 303861.0 261089.0 266945.0 147681.0 155121.0 155856.0 162863.0 58400.0 66395.0 189256.0 182278.0 24949.0 25582.0 49312.0 41930.0 128143.0 121251.0 137235.0 134872.0 333796.0 329635.0 223187.0 215649.0 131082.0 123814.0 170399.0 167229.0 7103.0 14764.0 297118.0 301604.0 202468.0 209990.0 184981.0 183562.0 147409.0 140365.0 137558.0 144412.0 172890.0 165030.0 380114.0 372885.0 234649.0 239195.0 136280.0 135856.0 118709.0 118146.0 90722.0 90845.0 88720.0 210223.0 88720.0 88720.0 210223.0 210223.0
274158.0 275712.0 213534.0 221529.0 118414.0 125712.0 122572.0 116680.0 78535.0 85826.0 117148.0 124702.0 51001.0 58602.0 172808.0 180974.0 316017.0 321607.0 90797.0 88940.0 163355.0 155382.0 182887.0 188352.0 144703.0 152511.0 122096.0 114961.0 100826.0 92564.0 128594.0 121055.0 298419.0 291445.0 141809.0 148040.0 221377.0 214061.0 106716.0 101728.0 186532.0 182581.0 134540.0 142717.0 51695.0 57275.0 53745.0 61284.0 46229.0 53280.0 382041.0 380912.0 261992.0 257083.0 51266.0 43236.0 101533.0 104190.0 176537.0 169623.0 139553.0 133957.0 30407.0 35859.0 342129.0 342338.0 118071.0 120836.0 96543.0 89514.0 271114.0 266059.0 152738.0 147778.0 247384.0 245326.0 20811.0 25889.0 322001.0 316497.0 7962.0 0.0 49109.0 55152.0 21636.0 29951.0 224324.0 229712.0 58678.0 50684.0 132369.0 133565.0 191333.0 194634.0 75563.0 80559.0 163084.0 157005.0 263393.0 259747.0 80719.0 73442.0 5358.0 11616.0 22318.0 29070.0 360902.0 367755.0 311993.0 306333.0 264280.0 270136.0 149257.0 156512.0 155480.0 162280.0 65773.0 73761.0 189457.0 182318.0 30550.0 32605.0 54972.0 47920.0 128717.0 121581.0 137774.0 135854.0 336957.0 332811.0 217890.0 210275.0 129575.0 122082.0 170152.0 166645.0 11212.0 19049.0 300260.0 304794.0 204784.0 212404.0 187272.0 185665.0 146254.0 139024.0 138306.0 145377.0 168917.0 161009.0 383280.0 375985.0 236044.0 240367.0 131975.0 131950.0 113615.0 112643.0 85326.0 84929.0 94953.0 213414.0 94953.0 94953.0 213414.0 213414.0
226561.0 228487.0 164620.0 172613.0 115485.0 120694.0 89936.0 86397.0 62171.0 65928.0 83506.0 89984.0 29951.0 33059.0 148048.0 155635.0 267978.0 273373.0 64873.0 59254.0 124862.0 117787.0 134453.0 140237.0 108631.0 115380.0 107835.0 102990.0 79265.0 72906.0 127194.0 118688.0 250862.0 244052.0 94742.0 100535.0 201255.0 194735.0 79554.0 77935.0 168539.0 166542.0 98582.0 106605.0 60461.0 59803.0 55603.0 57676.0 14198.0 19750.0 333119.0 331990.0 214651.0 210118.0 26005.0 24161.0 60599.0 65963.0 134627.0 128540.0 94182.0 87741.0 23574.0 15417.0 293207.0 293416.0 79278.0 84289.0 63060.0 55075.0 224202.0 219543.0 154465.0 151830.0 236205.0 235742.0 54450.0 50285.0 273941.0 268653.0 45780.0 49109.0 0.0 8344.0 43578.0 43753.0 176875.0 182645.0 43629.0 41342.0 123150.0 121307.0 146442.0 150601.0 50880.0 50930.0 151347.0 147112.0 246096.0 243824.0 47900.0 39985.0 54425.0 57625.0 64256.0 72112.0 311980.0 318832.0 263627.0 258150.0 215358.0 221214.0 102976.0 110671.0 115739.0 123297.0 42429.0 47880.0 147082.0 140586.0 62465.0 56824.0 18377.0 19393.0 85746.0 79686.0 94773.0 91378.0 288065.0 283911.0 206267.0 199477.0 95919.0 89989.0 129659.0 127594.0 38935.0 31015.0 251387.0 255872.0 156864.0 164330.0 139408.0 138133.0 110241.0 104155.0 94569.0 100852.0 148656.0 141367.0 334388.0 327140.0 189936.0 194806.0 115786.0 112887.0 104918.0 107473.0 82406.0 86596.0 53939.0 164492.0 53939.0 53939.0 164492.0 164492.0
222840.0 225005.0 159709.0 167701.0 122461.0 127418.0 92590.0 89688.0 68588.0 71725.0 86032.0 92090.0 26362.0 27718.0 151696.0 159115.0 263890.0 269121.0 69665.0 63464.0 125398.0 118671.0 130218.0 136291.0 110070.0 116430.0 113603.0 109120.0 84435.0 78541.0 134216.0 125689.0 247137.0 240444.0 91838.0 97267.0 205417.0 199060.0 83679.0 82748.0 173218.0 171534.0 100196.0 108058.0 68729.0 67873.0 53580.0 54486.0 22113.0 26378.0 328207.0 327078.0 211116.0 206825.0 22088.0 22919.0 61406.0 67584.0 133918.0 128179.0 92305.0 85457.0 26974.0 19598.0 288295.0 288504.0 80366.0 85984.0 66194.0 58263.0 220916.0 216488.0 161604.0 159174.0 241591.0 241341.0 57930.0 52789.0 269832.0 264711.0 50961.0 55152.0 8344.0 0.0 51467.0 51995.0 173342.0 179346.0 39426.0 38652.0 129388.0 127187.0 144424.0 148947.0 56473.0 55526.0 157044.0 153074.0 250555.0 248503.0 51886.0 44309.0 60509.0 64378.0 68372.0 76137.0 307068.0 313920.0 259265.0 253953.0 210446.0 216302.0 100504.0 108389.0 115961.0 123693.0 36608.0 41240.0 146117.0 139902.0 65047.0 58606.0 12430.0 16574.0 85127.0 79624.0 94011.0 89989.0 283153.0 278990.0 211695.0 205043.0 98204.0 92778.0 129496.0 127929.0 44455.0 36386.0 246475.0 250960.0 153035.0 160355.0 135674.0 134655.0 111676.0 105990.0 93486.0 99331.0 153103.0 145976.0 329390.0 322214.0 187163.0 192296.0 121185.0 117884.0 111412.0 114310.0 89768.0 94244.0 45598.0 159580.0 45598.0 45598.0 159580.0 159580.0
260650.0 261746.0 202911.0 210872.0 97359.0 104496.0 103083.0 96768.0 57367.0 64886.0 98023.0 105716.0 57865.0 64844.0 151556.0 159749.0 303020.0 308924.0 70662.0 69683.0 144989.0 136801.0 171191.0 176043.0 125784.0 133815.0 100463.0 93329.0 79788.0 71450.0 107819.0 100089.0 284782.0 277623.0 128672.0 135304.0 199767.0 192438.0 86395.0 80965.0 164901.0 160948.0 115737.0 123837.0 30752.0 35792.0 69149.0 75633.0 34771.0 39504.0 371356.0 370377.0 248213.0 242902.0 56489.0 49012.0 85432.0 86879.0 159428.0 152206.0 124973.0 120149.0 35402.0 36164.0 331585.0 331771.0 100560.0 102476.0 77971.0 71534.0 256822.0 251394.0 132656.0 128099.0 226022.0 224090.0 41511.0 44676.0 309022.0 303203.0 26864.0 21636.0 43578.0 51467.0 0.0 8322.0 210852.0 215768.0 68903.0 61955.0 110873.0 111953.0 175789.0 178507.0 55853.0 61711.0 141546.0 135551.0 241768.0 238151.0 62750.0 56243.0 23998.0 20805.0 43887.0 50258.0 350298.0 357151.0 299583.0 293601.0 253754.0 259610.0 135254.0 142040.0 137667.0 144100.0 73610.0 81202.0 172460.0 165071.0 51643.0 52242.0 56137.0 51019.0 112837.0 105312.0 121732.0 120722.0 326272.0 321747.0 196455.0 188882.0 110218.0 102472.0 152476.0 148443.0 23386.0 25370.0 289674.0 294266.0 192057.0 199867.0 174592.0 172557.0 127297.0 119843.0 122672.0 130113.0 147366.0 139446.0 372095.0 364645.0 221145.0 225001.0 110358.0 110439.0 92070.0 91320.0 63920.0 64001.0 96105.0 202888.0 96105.0 96105.0 202888.0 202888.0
255413.0 256326.0 198919.0 206850.0 89463.0 96495.0 95627.0 89136.0 49227.0 56843.0 90743.0 98477.0 61981.0 68560.0 143333.0 151535.0 297943.0 303966.0 62997.0 62458.0 137937.0 129673.0 166848.0 171436.0 118530.0 126642.0 92146.0 85032.0 71678.0 63316.0 100077.0 92243.0 279470.0 272244.0 123894.0 130664.0 191445.0 184116.0 78599.0 72978.0 156582.0 152648.0 108555.0 116604.0 23237.0 27689.0 75643.0 81739.0 32765.0 35905.0 367573.0 366435.0 242883.0 237417.0 60108.0 53097.0 79617.0 80487.0 152877.0 145539.0 119596.0 115128.0 40038.0 39195.0 327534.0 327887.0 94003.0 95528.0 71035.0 64933.0 251277.0 245707.0 125259.0 120919.0 217903.0 216042.0 49604.0 52346.0 303947.0 298009.0 34900.0 29951.0 43753.0 51995.0 8322.0 0.0 205697.0 210416.0 73830.0 67344.0 102689.0 103679.0 169855.0 172328.0 48486.0 54754.0 133328.0 127389.0 233477.0 229886.0 56240.0 50226.0 32241.0 28383.0 52209.0 58542.0 346449.0 353302.0 294739.0 288636.0 249830.0 255687.0 130080.0 136641.0 130863.0 137128.0 77671.0 84998.0 165933.0 158453.0 59788.0 60031.0 58344.0 54123.0 106950.0 99290.0 115738.0 115126.0 322081.0 317411.0 188297.0 180751.0 102805.0 94963.0 145701.0 141454.0 30795.0 31382.0 285558.0 290313.0 187240.0 195111.0 169837.0 167632.0 120025.0 112487.0 116850.0 124421.0 139052.0 131131.0 367674.0 360169.0 215400.0 219063.0 102036.0 102136.0 83856.0 83260.0 55827.0 56248.0 97414.0 198964.0 97414.0 97414.0 198964.0 198964.0
49849.0 51665.0 35058.0 34068.0 197116.0 193838.0 125904.0 133804.0 170722.0 163701.0 126607.0 120073.0 193918.0 189769.0 141696.0 140639.0 92263.0 98465.0 153157.0 149092.0 88864.0 95921.0 45165.0 37848.0 106045.0 98892.0 169972.0 175045.0 156547.0 162077.0 204109.0 199242.0 74095.0 67183.0 82518.0 76377.0 176440.0 176455.0 144239.0 152241.0 170836.0 176810.0 111612.0 106897.0 203838.0 196841.0 219997.0 216769.0 178207.0 171816.0 170111.0 167264.0 37782.0 33908.0 190186.0 194762.0 126545.0 127594.0 67479.0 75032.0 86183.0 90712.0 200051.0 192120.0 128290.0 130593.0 116101.0 118472.0 139474.0 143151.0 47890.0 44614.0 222995.0 227406.0 229574.0 234909.0 231129.0 226107.0 98267.0 92352.0 222290.0 224324.0 176875.0 173342.0 210852.0 205697.0 0.0 8049.0 201439.0 205581.0 184394.0 176390.0 42728.0 46009.0 162046.0 154178.0 185209.0 189152.0 213113.0 216952.0 151011.0 155804.0 229342.0 230266.0 241131.0 248987.0 151827.0 158349.0 89653.0 83154.0 65785.0 67343.0 75623.0 69247.0 88318.0 87450.0 192467.0 189826.0 58657.0 65432.0 238352.0 231577.0 180409.0 187823.0 99995.0 107971.0 92079.0 91022.0 121493.0 115534.0 210088.0 209201.0 120057.0 127368.0 77306.0 85119.0 215255.0 207626.0 87478.0 94213.0 21188.0 16205.0 37806.0 38742.0 105488.0 112301.0 90120.0 82199.0 157629.0 158346.0 164374.0 156574.0 22372.0 30444.0 165562.0 157821.0 182475.0 190453.0 191004.0 199127.0 176257.0 42206.0 176257.0 176257.0 42206.0 42206.0
45140.0 46017.0 42748.0 41104.0 198595.0 195016.0 128375.0 136337.0 174199.0 167012.0 129471.0 122693.0 200365.0 196371.0 140643.0 139125.0 88054.0 94622.0 156573.0 152835.0 89719.0 97168.0 52424.0 44864.0 107720.0 100245.0 171379.0 176739.0 159254.0 165075.0 205207.0 200620.0 69056.0 61855.0 87993.0 82130.0 173250.0 173600.0 147009.0 155029.0 169198.0 175412.0 113882.0 108705.0 207800.0 200687.0 226645.0 223570.0 183519.0 176951.0 168781.0 165583.0 32468.0 27481.0 196581.0 200987.0 130981.0 131579.0 68347.0 76170.0 90828.0 95814.0 205937.0 197952.0 126889.0 129627.0 119655.0 121545.0 143221.0 147241.0 41572.0 37555.0 223325.0 227978.0 226317.0 231845.0 237004.0 232135.0 94037.0 87741.0 227878.0 229712.0 182645.0 179346.0 215768.0 210416.0 8049.0 0.0 208149.0 212133.0 185283.0 177235.0 44219.0 46165.0 166022.0 158240.0 184758.0 188992.0 208869.0 212937.0 155278.0 160346.0 234678.0 235386.0 246876.0 254740.0 151608.0 157880.0 86300.0 79422.0 68955.0 69619.0 80574.0 73775.0 90093.0 88513.0 199278.0 196684.0 58370.0 65639.0 244391.0 237733.0 186705.0 194051.0 104074.0 112004.0 95857.0 95386.0 119799.0 113502.0 207627.0 207038.0 122273.0 129804.0 78183.0 85853.0 220820.0 213265.0 86958.0 94047.0 28591.0 24207.0 44405.0 44768.0 107053.0 114136.0 94137.0 86309.0 156782.0 157902.0 161549.0 153670.0 14598.0 22661.0 166532.0 158864.0 184179.0 192169.0 193823.0 201908.0 183114.0 49871.0 183114.0 183114.0 49871.0 49871.0
249695.0 252702.0 183940.0 191931.0 157097.0 162845.0 131944.0 129113.0 105164.0 109395.0 125360.0 131247.0 13747.0 12650.0 191098.0 198537.0 289269.0 294041.0 108466.0 102624.0 163085.0 156791.0 156639.0 163618.0 148742.0 154728.0 151229.0 146093.0 122891.0 116432.0 168610.0 160216.0 273769.0 267556.0 123600.0 127858.0 244673.0 238232.0 122905.0 121540.0 212143.0 210170.0 139038.0 146751.0 95830.0 97592.0 18763.0 15993.0 56205.0 63145.0 352437.0 351308.0 238759.0 235338.0 17643.0 21604.0 99931.0 106597.0 169678.0 164581.0 126453.0 118916.0 33792.0 36358.0 312526.0 312734.0 118925.0 124940.0 105620.0 97684.0 249322.0 245696.0 195389.0 192048.0 279729.0 279150.0 46900.0 38746.0 295123.0 290535.0 50999.0 58678.0 43629.0 39426.0 68903.0 73830.0 201439.0 208149.0 0.0 8263.0 166073.0 164599.0 177320.0 182646.0 94463.0 94450.0 194738.0 190291.0 289651.0 287435.0 91118.0 83364.0 62922.0 70293.0 57925.0 63724.0 331298.0 338151.0 283969.0 279059.0 234676.0 240532.0 133103.0 141257.0 153315.0 161216.0 10047.0 17005.0 181291.0 175654.0 47623.0 39084.0 27175.0 24291.0 121667.0 117013.0 130180.0 125150.0 307383.0 303221.0 249780.0 242920.0 137426.0 132161.0 166198.0 165346.0 48726.0 43794.0 270705.0 275191.0 180431.0 187092.0 163755.0 163606.0 150338.0 144958.0 129127.0 134047.0 192192.0 184951.0 353699.0 346475.0 217522.0 223369.0 159351.0 156517.0 147551.0 149460.0 123230.0 126218.0 46895.0 183810.0 46895.0 46895.0 183810.0 183810.0
254203.0 257020.0 188589.0 196581.0 152353.0 158349.0 130978.0 127682.0 101434.0 106143.0 124471.0 130672.0 12542.0 15940.0 189390.0 196971.0 293916.0 298691.0 105987.0 100573.0 163800.0 157215.0 161042.0 167844.0 148718.0 155019.0 147744.0 142293.0 120053.0 113257.0 163747.0 155425.0 278356.0 272027.0 126547.0 131146.0 242490.0 235903.0 120867.0 118988.0 209510.0 207249.0 138847.0 146707.0 89793.0 92028.0 15156.0 16421.0 52699.0 60166.0 357087.0 355958.0 243071.0 239436.0 16822.0 17482.0 100011.0 106226.0 171383.0 165989.0 128671.0 121331.0 27564.0 31558.0 317175.0 317384.0 118992.0 124628.0 104275.0 96293.0 253466.0 249634.0 190263.0 186676.0 276337.0 275540.0 38679.0 30547.0 299761.0 295192.0 42930.0 50684.0 41342.0 38652.0 61955.0 67344.0 205581.0 212133.0 8263.0 0.0 162070.0 160953.0 180094.0 185163.0 91512.0 92178.0 191175.0 186478.0 287165.0 284737.0 89242.0 81317.0 54819.0 62296.0 49766.0 55721.0 335948.0 342800.0 288619.0 283684.0 239326.0 245182.0 135846.0 143946.0 154218.0 162030.0 17479.0 25009.0 183256.0 177370.0 39827.0 31327.0 27323.0 22261.0 122929.0 117842.0 131631.0 126997.0 312033.0 307870.0 246381.0 239393.0 136741.0 131099.0 167462.0 166225.0 41009.0 36630.0 275355.0 279840.0 184689.0 191515.0 167807.0 167449.0 150323.0 144627.0 130798.0 136090.0 189791.0 182416.0 358349.0 351125.0 221117.0 226773.0 156170.0 153699.0 143385.0 144919.0 118312.0 120893.0 53539.0 188460.0 53539.0 53539.0 188460.0 188460.0
227214.0 225084.0 195803.0 202198.0 19246.0 11796.0 65429.0 59751.0 60990.0 57908.0 68815.0 71546.0 152365.0 156200.0 58540.0 65803.0 269056.0 276537.0 62792.0 70593.0 95595.0 88537.0 164360.0 164241.0 79218.0 85672.0 18279.0 20343.0 47905.0 51562.0 20468.0 19156.0 248119.0 240368.0 126928.0 133324.0 92654.0 84886.0 55594.0 51415.0 57642.0 52028.0 76413.0 78783.0 81019.0 75100.0 173926.0 178260.0 109888.0 103407.0 354059.0 350736.0 214353.0 206919.0 148786.0 144827.0 91510.0 83489.0 117001.0 109362.0 115593.0 118118.0 135761.0 130534.0 312168.0 314840.0 84131.0 77114.0 74135.0 79308.0 218440.0 210996.0 40853.0 43622.0 115341.0 113867.0 152283.0 154495.0 274715.0 267278.0 137568.0 132369.0 123150.0 129388.0 110873.0 102689.0 184394.0 185283.0 166073.0 162070.0 0.0 8090.0 141667.0 139138.0 73200.0 76144.0 30798.0 24747.0 131737.0 127660.0 81185.0 86969.0 133764.0 127748.0 154249.0 159790.0 336169.0 342742.0 269666.0 262118.0 245552.0 249239.0 125248.0 126200.0 96746.0 96945.0 165570.0 170628.0 127331.0 119748.0 162478.0 162323.0 141355.0 141954.0 100751.0 95100.0 103513.0 109639.0 305002.0 298508.0 85628.0 78165.0 68479.0 63905.0 107154.0 99433.0 132926.0 131360.0 271858.0 278587.0 174039.0 181542.0 160789.0 156488.0 79498.0 73695.0 107008.0 113580.0 45986.0 38931.0 345053.0 337057.0 183033.0 182873.0 18881.0 26706.0 18936.0 20607.0 47101.0 49054.0 170653.0 199028.0 170653.0 170653.0 199028.0 199028.0
219125.0 216995.0 188134.0 194468.0 25785.0 19244.0 58548.0 53324.0 59520.0 55464.0 62334.0 64570.0 150856.0 154347.0 51563.0 59095.0 260968.0 268448.0 59092.0 66675.0 87566.0 80576.0 156862.0 156601.0 71419.0 77741.0 13709.0 18863.0 43938.0 48706.0 28497.0 26320.0 240034.0 232283.0 120027.0 126313.0 89174.0 81541.0 50264.0 46983.0 53964.0 49204.0 68969.0 71043.0 82817.0 76415.0 173249.0 177255.0 108423.0 101577.0 346006.0 342668.0 206266.0 198830.0 147155.0 143583.0 86176.0 77964.0 108973.0 101361.0 108563.0 111372.0 135131.0 129530.0 304115.0 306807.0 77674.0 70427.0 69332.0 75032.0 210353.0 202913.0 48073.0 51345.0 115500.0 114591.0 153107.0 154901.0 266629.0 259196.0 138397.0 133565.0 121307.0 127187.0 111953.0 103679.0 176390.0 177235.0 164599.0 160953.0 8090.0 0.0 133666.0 131084.0 70725.0 72878.0 30251.0 25923.0 129852.0 126211.0 77680.0 83945.0 135265.0 129599.0 155655.0 161470.0 328183.0 334739.0 261577.0 254028.0 237736.0 241364.0 118031.0 118756.0 88877.0 88942.0 163616.0 168379.0 119254.0 111682.0 163346.0 162768.0 139328.0 140362.0 93938.0 88567.0 96341.0 102655.0 296940.0 290436.0 85576.0 78457.0 61188.0 57050.0 99127.0 91391.0 133444.0 131397.0 263845.0 270592.0 166204.0 173675.0 153116.0 148781.0 71655.0 66023.0 99874.0 106287.0 40146.0 32651.0 336963.0 328967.0 174945.0 174785.0 11099.0 18932.0 20516.0 24825.0 49028.0 52189.0 167380.0 191448.0 167380.0 167380.0 191448.0 191448.0
88498.0 88054.0 61315.0 65563.0 154523.0 151137.0 84300.0 92286.0 131055.0 123651.0 85705.0 78729.0 167786.0 164933.0 100907.0 100826.0 131460.0 138331.0 113402.0 110249.0 46180.0 53207.0 41911.0 35838.0 63535.0 56208.0 127340.0 132573.0 115285.0 121348.0 161395.0 156604.0 111581.0 104029.0 53755.0 50259.0 141046.0 139911.0 103110.0 111129.0 131010.0 136437.0 69731.0 64493.0 165388.0 158075.0 195101.0 193219.0 145249.0 138064.0 212685.0 209661.0 75511.0 69021.0 163717.0 166996.0 90357.0 89707.0 24870.0 32305.0 52260.0 58988.0 170015.0 161852.0 170819.0 173270.0 76978.0 78062.0 100711.0 105458.0 82356.0 76222.0 180401.0 184722.0 193841.0 198490.0 200733.0 196689.0 137386.0 130673.0 190350.0 191333.0 146442.0 144424.0 175789.0 169855.0 42728.0 44219.0 177320.0 180094.0 141667.0 133666.0 0.0 7909.0 123829.0 116296.0 143300.0 146929.0 181445.0 184239.0 113862.0 119650.0 196067.0 195976.0 209908.0 217762.0 194528.0 201076.0 130338.0 123272.0 105975.0 108701.0 44251.0 36158.0 45879.0 44723.0 169382.0 167923.0 18774.0 23723.0 208898.0 202931.0 153376.0 160185.0 62953.0 70567.0 54119.0 55495.0 163865.0 157672.0 172032.0 170360.0 78094.0 85708.0 34643.0 42499.0 183247.0 176086.0 130203.0 136927.0 36088.0 42171.0 31987.0 27628.0 62906.0 69923.0 53143.0 45961.0 116370.0 116507.0 205708.0 197809.0 45875.0 49215.0 122833.0 115096.0 140011.0 147999.0 149895.0 157943.0 154464.0 66901.0 154464.0 154464.0 66901.0 66901.0
89026.0 87918.0 67839.0 71586.0 152719.0 148962.0 84174.0 92178.0 132021.0 124431.0 86176.0 78903.0 172779.0 170180.0 95970.0 95387.0 131744.0 138850.0 114417.0 111778.0 43648.0 51358.0 49787.0 43570.0 62337.0 54523.0 125482.0 131082.0 115258.0 121696.0 159115.0 154672.0 111433.0 103773.0 59442.0 56551.0 134371.0 133489.0 103263.0 111247.0 125627.0 131316.0 69453.0 63508.0 166829.0 159394.0 200230.0 198592.0 148747.0 141368.0 214922.0 211632.0 76024.0 69063.0 168661.0 171663.0 93228.0 91880.0 22438.0 30451.0 56657.0 63833.0 174162.0 165977.0 173031.0 175787.0 78696.0 78977.0 102358.0 107566.0 81848.0 75230.0 177226.0 181823.0 187310.0 192115.0 204688.0 200887.0 137604.0 130639.0 193944.0 194634.0 150601.0 148947.0 178507.0 172328.0 46009.0 46165.0 182646.0 185163.0 139138.0 131084.0 7909.0 0.0 125569.0 118236.0 139203.0 143165.0 174232.0 177170.0 116133.0 122267.0 199273.0 198878.0 213632.0 221465.0 197574.0 203947.0 131280.0 123991.0 110725.0 112995.0 49655.0 41469.0 45114.0 42591.0 174914.0 173709.0 12788.0 19504.0 213052.0 207284.0 158254.0 164908.0 65920.0 73228.0 56887.0 59248.0 165876.0 159453.0 166062.0 164641.0 77631.0 85513.0 32180.0 39737.0 186847.0 179834.0 133005.0 139955.0 42411.0 47804.0 39768.0 35482.0 61529.0 68928.0 56386.0 49750.0 111747.0 112342.0 206776.0 198830.0 45288.0 47361.0 120413.0 112775.0 138517.0 146504.0 149848.0 157815.0 160365.0 73696.0 160365.0 160365.0 73696.0 73696.0
211156.0 211458.0 160129.0 167800.0 68426.0 72326.0 47232.0 41117.0 14443.0 15306.0 42258.0 50000.0 80736.0 83793.0 99509.0 107446.0 254056.0 260465.0 15479.0 14063.0 89555.0 81236.0 127091.0 130416.0 70046.0 78182.0 57130.0 52863.0 28546.0 22077.0 80194.0 71708.0 234863.0 227449.0 83405.0 90572.0 151364.0 144613.0 31447.0 27827.0 118024.0 115767.0 60099.0 68124.0 41794.0 34895.0 104796.0 107931.0 38938.0 31374.0 328289.0 326511.0 198370.0 192423.0 76872.0 74030.0 36609.0 34458.0 105279.0 97723.0 76485.0 73845.0 67548.0 60847.0 287347.0 288368.0 46900.0 47387.0 23219.0 19016.0 206034.0 200047.0 107781.0 106487.0 185330.0 184935.0 91506.0 91053.0 260046.0 253728.0 77714.0 75563.0 50880.0 56473.0 55853.0 48486.0 162046.0 166022.0 94463.0 91512.0 73200.0 70725.0 123829.0 125569.0 0.0 8076.0 100589.0 96628.0 195720.0 193227.0 12777.0 14648.0 79159.0 76635.0 97337.0 104544.0 307308.0 314161.0 251682.0 245175.0 211534.0 217098.0 87541.0 92983.0 82834.0 88832.0 92975.0 97654.0 118341.0 110693.0 101517.0 98821.0 68676.0 70174.0 62052.0 54076.0 70180.0 71201.0 281361.0 276150.0 155398.0 148650.0 54368.0 46644.0 97681.0 93134.0 71314.0 66850.0 245343.0 250733.0 145097.0 153110.0 128214.0 125335.0 71538.0 64016.0 71938.0 79848.0 98495.0 91005.0 325895.0 318207.0 169690.0 172770.0 64906.0 62188.0 55825.0 59831.0 39985.0 47032.0 97835.0 160920.0 97835.0 97835.0 160920.0 160920.0
203380.0 203764.0 152054.0 159725.0 73206.0 76420.0 42146.0 36923.0 21121.0 19198.0 36590.0 44166.0 80848.0 83207.0 97425.0 105166.0 246250.0 252621.0 14166.0 8721.0 83278.0 75106.0 119017.0 122367.0 64206.0 72146.0 59170.0 55891.0 29200.0 24650.0 84851.0 76475.0 227140.0 219751.0 75329.0 82496.0 150330.0 143809.0 28764.0 27229.0 117734.0 116016.0 54093.0 62236.0 49685.0 42908.0 106012.0 108563.0 40545.0 32430.0 320230.0 318468.0 190621.0 184741.0 76810.0 74785.0 28533.0 26678.0 98275.0 90846.0 68484.0 65773.0 69696.0 62476.0 279308.0 280312.0 39558.0 40788.0 16283.0 11034.0 198398.0 192485.0 112331.0 111517.0 186228.0 186182.0 95397.0 94310.0 252244.0 245968.0 82063.0 80559.0 50930.0 55526.0 61711.0 54754.0 154178.0 158240.0 94450.0 92178.0 76144.0 72878.0 116296.0 118236.0 8076.0 0.0 102171.0 98763.0 195201.0 193029.0 5523.0 11261.0 84452.0 82503.0 101913.0 109306.0 299241.0 306094.0 243795.0 237323.0 203459.0 209023.0 79521.0 85051.0 76114.0 82408.0 92111.0 96226.0 111342.0 103786.0 105220.0 101949.0 67932.0 70311.0 54196.0 46241.0 62459.0 63254.0 273340.0 268151.0 156386.0 149882.0 49053.0 41770.0 90957.0 86745.0 75412.0 70294.0 237299.0 242674.0 137103.0 145113.0 120185.0 117337.0 65743.0 58466.0 64112.0 71993.0 97745.0 90515.0 317931.0 310253.0 162123.0 165336.0 66009.0 62387.0 59714.0 64484.0 46790.0 54169.0 94554.0 152851.0 94554.0 94554.0 152851.0 152851.0
223705.0 220623.0 201751.0 207356.0 47741.0 39572.0 80619.0 77385.0 89745.0 85423.0 85778.0 85898.0 180991.0 184350.0 45476.0 49933.0 263993.0 271762.0 88125.0 95368.0 97987.0 92875.0 172441.0 170905.0 86562.0 90724.0 43516.0 49068.0 72976.0 78511.0 42334.0 46255.0 242833.0 235151.0 140041.0 145628.0 63688.0 55818.0 77206.0 75431.0 30315.0 23144.0 87389.0 86858.0 111810.0 105811.0 203500.0 207489.0 138598.0 131649.0 352158.0 348207.0 211245.0 203461.0 177253.0 173787.0 112185.0 103689.0 118579.0 111913.0 128130.0 132299.0 165378.0 159772.0 310455.0 313801.0 100635.0 92751.0 96718.0 103150.0 213687.0 205896.0 42977.0 50055.0 85252.0 84412.0 182884.0 184898.0 269391.0 261649.0 168166.0 163084.0 151347.0 157044.0 141546.0 133328.0 185209.0 184758.0 194738.0 191175.0 30798.0 30251.0 143300.0 139203.0 100589.0 102171.0 0.0 7913.0 101025.0 96864.0 106707.0 113368.0 164539.0 158546.0 185014.0 190585.0 336316.0 342445.0 265845.0 258030.0 249209.0 251982.0 136297.0 135428.0 102242.0 99981.0 193562.0 198152.0 126583.0 119866.0 193099.0 192750.0 169263.0 170478.0 114955.0 110921.0 115415.0 122603.0 302901.0 295971.0 55339.0 48218.0 81038.0 79322.0 109108.0 101255.0 163380.0 161523.0 271633.0 278801.0 178139.0 185051.0 167138.0 162519.0 86259.0 82805.0 119073.0 124340.0 29028.0 26868.0 340431.0 332413.0 180128.0 178611.0 36298.0 41469.0 49476.0 51186.0 77883.0 79708.0 196277.0 205896.0 196277.0 196277.0 205896.0 205896.0
228636.0 225739.0 204549.0 210353.0 40478.0 32380.0 80385.0 76434.0 85130.0 81350.0 85121.0 85957.0 176558.0 180166.0 51249.0 56372.0 269281.0 277002.0 84901.0 92386.0 101167.0 95548.0 174643.0 173452.0 88433.0 93203.0 39609.0 44204.0 69720.0 74626.0 34516.0 38799.0 248141.0 240436.0 140824.0 146651.0 71472.0 63600.0 75098.0 72550.0 38215.0 31042.0 88354.0 88551.0 105521.0 99762.0 198513.0 202724.0 134088.0 127368.0 356884.0 353059.0 216074.0 208348.0 172902.0 169166.0 110648.0 102247.0 122098.0 115166.0 129010.0 132756.0 160352.0 154981.0 315113.0 318321.0 100249.0 92536.0 94482.0 100534.0 218851.0 211115.0 36315.0 42992.0 90593.0 89195.0 176991.0 179241.0 274734.0 267044.0 162280.0 157005.0 147112.0 153074.0 135551.0 127389.0 189152.0 188992.0 190291.0 186478.0 24747.0 25923.0 146929.0 143165.0 96628.0 98763.0 7913.0 0.0 107936.0 103502.0 103508.0 109855.0 158300.0 152140.0 178804.0 184229.0 340601.0 346829.0 270891.0 263121.0 252627.0 255612.0 137609.0 137204.0 104725.0 103028.0 189463.0 194280.0 130665.0 123721.0 187175.0 187067.0 165186.0 166093.0 115309.0 110802.0 116389.0 123339.0 307633.0 300786.0 60908.0 53417.0 81510.0 79008.0 112479.0 104595.0 157670.0 156090.0 275941.0 283022.0 181318.0 188385.0 169750.0 165193.0 88270.0 84187.0 120026.0 125665.0 35117.0 31551.0 345694.0 337675.0 184854.0 183610.0 33922.0 40180.0 43680.0 44572.0 71682.0 73022.0 193212.0 208479.0 193212.0 193212.0 208479.0 208479.0
233074.0 227343.0 241626.0 244402.0 148385.0 140314.0 161198.0 162030.0 187272.0 181523.0 167762.0 163987.0 276038.0 278273.0 100784.0 94723.0 263910.0 271915.0 181227.0 187094.0 150922.0 151584.0 221688.0 216803.0 153017.0 151565.0 141534.0 148447.0 167185.0 174353.0 141133.0 146543.0 244184.0 237610.0 205647.0 208660.0 45960.0 51607.0 166895.0 168189.0 77729.0 80873.0 159759.0 154491.0 212555.0 206264.0 300489.0 303585.0 234655.0 227007.0 356165.0 350383.0 223525.0 215766.0 272011.0 269695.0 195880.0 187652.0 163005.0 160598.0 194437.0 201279.0 262862.0 256500.0 317559.0 322836.0 179092.0 171316.0 185163.0 192826.0 220411.0 212631.0 128083.0 136112.0 34815.0 42858.0 282752.0 284169.0 267939.0 259915.0 268070.0 263393.0 246096.0 250555.0 241768.0 233477.0 213113.0 208869.0 289651.0 287165.0 131737.0 129852.0 181445.0 174232.0 195720.0 195201.0 101025.0 107936.0 0.0 8088.0 198671.0 206312.0 265113.0 259348.0 285506.0 291292.0 347760.0 352135.0 269657.0 261718.0 277659.0 277480.0 198082.0 193388.0 160204.0 153580.0 286951.0 290382.0 162896.0 160366.0 293006.0 292056.0 262985.0 265488.0 186817.0 186426.0 182809.0 190727.0 309277.0 301443.0 51266.0 59230.0 157666.0 160533.0 157321.0 151810.0 262893.0 260309.0 286371.0 294316.0 216239.0 220506.0 212817.0 208137.0 151788.0 153488.0 186069.0 187688.0 97463.0 104749.0 336153.0 328539.0 197982.0 192604.0 132057.0 133623.0 150048.0 152209.0 178638.0 180731.0 284593.0 247775.0 284593.0 284593.0 247775.0 247775.0
238263.0 232661.0 244800.0 247801.0 143808.0 135811.0 160178.0 160614.0 184315.0 178807.0 166681.0 163241.0 273774.0 276214.0 100135.0 94558.0 269794.0 277816.0 178971.0 185061.0 152119.0 152328.0 224008.0 219348.0 153143.0 152134.0 138268.0 144948.0 164684.0 171646.0 136137.0 141844.0 249904.0 243235.0 206472.0 209736.0 45856.0 50515.0 164973.0 165894.0 75296.0 77705.0 159479.0 154542.0 208647.0 202519.0 297866.0 301157.0 232118.0 224578.0 362087.0 356391.0 228476.0 220664.0 269793.0 267256.0 194869.0 186550.0 165074.0 162298.0 195101.0 201765.0 260080.0 253872.0 323215.0 328395.0 178480.0 170611.0 183533.0 191094.0 225686.0 217856.0 122015.0 129977.0 26743.0 34774.0 279304.0 280931.0 273914.0 265874.0 264600.0 259747.0 243824.0 248503.0 238151.0 229886.0 216952.0 212937.0 287435.0 284737.0 127660.0 126211.0 184239.0 177170.0 193227.0 193029.0 96864.0 103502.0 8088.0 0.0 196668.0 204203.0 261327.0 255404.0 281773.0 287424.0 353243.0 357730.0 275344.0 267381.0 281835.0 281856.0 199173.0 194756.0 161155.0 154772.0 284999.0 288626.0 165581.0 162695.0 289548.0 288812.0 260928.0 263211.0 186907.0 186171.0 183259.0 191194.0 314951.0 307144.0 45137.0 53206.0 156971.0 159443.0 159005.0 153213.0 259560.0 257196.0 291473.0 299400.0 219370.0 223863.0 215347.0 210632.0 151970.0 153259.0 186590.0 188543.0 95516.0 102528.0 342466.0 334815.0 202382.0 197213.0 129033.0 131040.0 146192.0 147989.0 174711.0 176493.0 283373.0 250835.0 283373.0 283373.0 250835.0 250835.0
200405.0 200963.0 147932.0 155656.0 78646.0 81741.0 43067.0 38699.0 26525.0 24666.0 37059.0 44324.0 77639.0 79603.0 100148.0 107745.0 243198.0 249476.0 18611.0 11617.0 82644.0 74672.0 114982.0 118569.0 64148.0 71829.0 63979.0 61003.0 33796.0 29859.0 90265.0 81911.0 224272.0 216934.0 71267.0 78395.0 153563.0 147176.0 31799.0 31379.0 121408.0 119956.0 53946.0 62143.0 53260.0 46834.0 103363.0 105558.0 38659.0 30404.0 316323.0 314659.0 187711.0 181971.0 73521.0 71981.0 24642.0 24257.0 96695.0 89457.0 64998.0 61819.0 67807.0 60303.0 275524.0 276422.0 37814.0 40118.0 16095.0 8818.0 195711.0 189936.0 117715.0 116974.0 190395.0 190501.0 94609.0 93056.0 249197.0 243017.0 81689.0 80719.0 47900.0 51886.0 62750.0 56240.0 151011.0 155278.0 91118.0 89242.0 81185.0 77680.0 113862.0 116133.0 12777.0 5523.0 106707.0 103508.0 198671.0 196668.0 0.0 8061.0 84849.0 83427.0 101638.0 109162.0 295271.0 302124.0 240544.0 234163.0 199262.0 204930.0 75931.0 81777.0 74984.0 81609.0 88331.0 92154.0 109738.0 102322.0 104256.0 100576.0 64315.0 67169.0 51243.0 43395.0 59795.0 59989.0 269643.0 264548.0 160613.0 154219.0 49660.0 42888.0 89763.0 85970.0 74879.0 69305.0 233495.0 238772.0 133561.0 141552.0 116503.0 113794.0 65720.0 58746.0 61192.0 68970.0 101226.0 94151.0 314445.0 306799.0 159583.0 163021.0 70452.0 66466.0 65017.0 69913.0 52222.0 59521.0 89706.0 148561.0 89706.0 89706.0 148561.0 148561.0
205409.0 206195.0 151117.0 158931.0 82993.0 86683.0 51072.0 46755.0 29032.0 29297.0 44987.0 52139.0 69819.0 72012.0 108088.0 115722.0 248064.0 254209.0 25426.0 19277.0 89997.0 82153.0 118414.0 122428.0 71828.0 79375.0 70246.0 66650.0 40424.0 35411.0 94739.0 86274.0 229400.0 222134.0 74850.0 81853.0 161324.0 154869.0 39577.0 38479.0 128913.0 127259.0 61615.0 69813.0 50151.0 44493.0 95362.0 97661.0 30629.0 22368.0 319779.0 318295.0 192813.0 187258.0 65738.0 64010.0 29407.0 30807.0 103351.0 96284.0 69620.0 65687.0 59757.0 52243.0 279223.0 279928.0 44652.0 47611.0 24024.0 16358.0 201091.0 195486.0 122312.0 121112.0 197488.0 197428.0 86812.0 85107.0 254068.0 248023.0 74096.0 73442.0 39985.0 44309.0 56243.0 50226.0 155804.0 160346.0 83364.0 81317.0 86969.0 83945.0 119650.0 122267.0 14648.0 11261.0 113368.0 109855.0 206312.0 204203.0 8061.0 0.0 77725.0 76720.0 94068.0 101654.0 298650.0 305503.0 245127.0 238882.0 202271.0 208096.0 80314.0 86607.0 82040.0 88866.0 80874.0 84967.0 116348.0 109062.0 96387.0 92594.0 56728.0 59314.0 56726.0 49103.0 65544.0 64976.0 273496.0 268563.0 167643.0 161126.0 57591.0 50919.0 96737.0 93232.0 67220.0 61461.0 237185.0 242277.0 137816.0 145762.0 120568.0 118096.0 73412.0 66564.0 66624.0 74218.0 108849.0 101677.0 318629.0 311038.0 165175.0 168864.0 77244.0 73641.0 70073.0 74359.0 54308.0 61030.0 83699.0 151405.0 83699.0 83699.0 151405.0 151405.0
279183.0 280687.0 218777.0 226771.0 119269.0 126720.0 126313.0 120249.0 81356.0 88826.0 121011.0 128618.0 55819.0 63430.0 175553.0 183747.0 321101.0 326720.0 94244.0 92722.0 167483.0 159444.0 188051.0 193469.0 148655.0 156537.0 124099.0 116803.0 103759.0 95434.0 129183.0 121821.0 303435.0 296439.0 146824.0 153098.0 223491.0 216111.0 110090.0 104854.0 188533.0 184395.0 138521.0 146680.0 52781.0 58850.0 56786.0 64557.0 51159.0 58012.0 387287.0 386158.0 266985.0 262028.0 56256.0 48248.0 106095.0 108521.0 180977.0 173992.0 144396.0 138891.0 35632.0 41209.0 347375.0 347584.0 122376.0 124932.0 100549.0 93662.0 276048.0 270945.0 152801.0 147613.0 248483.0 246258.0 21864.0 28184.0 327087.0 321552.0 11955.0 5358.0 54425.0 60509.0 23998.0 32241.0 229342.0 234678.0 62922.0 54819.0 133764.0 135265.0 196067.0 199273.0 79159.0 84452.0 164539.0 158300.0 265113.0 261327.0 84849.0 77725.0 0.0 8242.0 20518.0 26335.0 366147.0 373000.0 317129.0 311440.0 269526.0 275382.0 154181.0 161382.0 159747.0 166457.0 70345.0 78341.0 193927.0 186731.0 30724.0 34118.0 60227.0 53103.0 133354.0 126142.0 142392.0 140616.0 342213.0 338045.0 219114.0 211435.0 133369.0 125777.0 174461.0 170819.0 16455.0 24377.0 305518.0 310040.0 209869.0 217509.0 192356.0 190707.0 150195.0 142886.0 142993.0 150127.0 171224.0 163290.0 388511.0 381206.0 240891.0 245146.0 134088.0 134350.0 115135.0 113803.0 86663.0 85767.0 100102.0 218659.0 100102.0 100102.0 218659.0 218659.0
280109.0 281398.0 220912.0 228899.0 112720.0 120308.0 123856.0 117470.0 77448.0 85161.0 118825.0 126520.0 62391.0 69971.0 171238.0 179465.0 322273.0 328035.0 91339.0 90486.0 165777.0 157601.0 189721.0 194885.0 146588.0 154618.0 118833.0 111351.0 99912.0 91522.0 122370.0 115182.0 304308.0 297223.0 147834.0 154291.0 218235.0 210779.0 106980.0 101323.0 183164.0 178797.0 136541.0 144642.0 46796.0 53376.0 64892.0 72585.0 52363.0 58451.0 389450.0 388321.0 267782.0 262632.0 62449.0 54411.0 105676.0 107465.0 180037.0 172872.0 144750.0 139595.0 41171.0 45721.0 349497.0 349747.0 121207.0 123251.0 98753.0 92230.0 276603.0 271316.0 145532.0 140185.0 242055.0 239669.0 30056.0 36404.0 328269.0 322588.0 19443.0 11616.0 57625.0 64378.0 20805.0 28383.0 230266.0 235386.0 70293.0 62296.0 127748.0 129599.0 195976.0 198878.0 76635.0 82503.0 158546.0 152140.0 259348.0 255404.0 83427.0 76720.0 8242.0 0.0 27458.0 32119.0 368311.0 375164.0 318562.0 312728.0 271689.0 277545.0 154812.0 161801.0 158392.0 164872.0 77313.0 85293.0 193050.0 185710.0 38616.0 42335.0 65458.0 58704.0 133065.0 125650.0 142025.0 140703.0 344385.0 340060.0 212827.0 205087.0 131003.0 123229.0 173187.0 169218.0 22272.0 29482.0 307717.0 312204.0 211117.0 218844.0 193611.0 191773.0 148101.0 140638.0 142834.0 150157.0 166278.0 158320.0 390489.0 383117.0 241138.0 245159.0 128943.0 129597.0 109301.0 107574.0 80714.0 79292.0 105724.0 220823.0 105724.0 105724.0 220823.0 220823.0
290809.0 292739.0 228058.0 236050.0 139774.0 147237.0 144048.0 138396.0 100812.0 108036.0 138442.0 145889.0 55327.0 62510.0 195082.0 203238.0 332124.0 337429.0 112688.0 110435.0 184032.0 176220.0 198496.0 204418.0 165784.0 173430.0 144328.0 137123.0 123054.0 114820.0 149628.0 142311.0 315110.0 308308.0 158922.0 164784.0 243654.0 236318.0 128651.0 123858.0 208771.0 204739.0 155583.0 163780.0 73291.0 79258.0 46195.0 54476.0 65030.0 72786.0 396555.0 395427.0 278906.0 274342.0 57273.0 50130.0 121150.0 124515.0 196315.0 189642.0 157750.0 151650.0 41398.0 49089.0 356644.0 356853.0 138410.0 141673.0 117641.0 110349.0 288422.0 283685.0 172984.0 167637.0 269001.0 266764.0 11410.0 19257.0 338077.0 332856.0 19976.0 22318.0 64256.0 68372.0 43887.0 52209.0 241131.0 246876.0 57925.0 49766.0 154249.0 155655.0 209908.0 213632.0 97337.0 101913.0 185014.0 178804.0 285506.0 281773.0 101638.0 94068.0 20518.0 27458.0 0.0 7871.0 375416.0 382269.0 327607.0 322238.0 278794.0 284651.0 166945.0 174489.0 175819.0 182837.0 67073.0 74765.0 209110.0 202172.0 13306.0 20429.0 64297.0 56518.0 147917.0 141102.0 157012.0 154477.0 351501.0 347339.0 239628.0 231952.0 150957.0 143625.0 190346.0 187203.0 26955.0 33823.0 314823.0 319309.0 221084.0 228506.0 203644.0 202389.0 167353.0 160278.0 157259.0 164015.0 191228.0 183316.0 397652.0 390511.0 253949.0 258627.0 154244.0 154267.0 135585.0 134318.0 107151.0 106276.0 101167.0 227928.0 101167.0 101167.0 227928.0 227928.0
298656.0 300598.0 235786.0 243778.0 144832.0 152426.0 151411.0 145645.0 107517.0 114871.0 145873.0 153358.0 62179.0 69185.0 201772.0 209953.0 339942.0 345230.0 119828.0 117779.0 191645.0 183794.0 206302.0 212247.0 173290.0 180983.0 150410.0 143073.0 129856.0 121571.0 154407.0 147279.0 322958.0 316162.0 166790.0 172644.0 249812.0 242420.0 135763.0 130796.0 214834.0 210633.0 163098.0 171291.0 78777.0 85078.0 50440.0 58687.0 72816.0 80519.0 404284.0 403155.0 286763.0 282208.0 64357.0 57431.0 128910.0 132179.0 204077.0 197372.0 165612.0 159520.0 49167.0 56916.0 364372.0 364581.0 146077.0 149237.0 125126.0 117900.0 296288.0 291555.0 177161.0 171577.0 274172.0 271762.0 18572.0 25729.0 345893.0 340687.0 27654.0 29070.0 72112.0 76137.0 50258.0 58542.0 248987.0 254740.0 63724.0 55721.0 159790.0 161470.0 217762.0 221465.0 104544.0 109306.0 190585.0 184229.0 291292.0 287424.0 109162.0 101654.0 26335.0 32119.0 7871.0 0.0 383144.0 389997.0 335395.0 330045.0 286523.0 292379.0 174815.0 182357.0 183496.0 190475.0 73172.0 80696.0 216888.0 209926.0 16595.0 24950.0 71739.0 63944.0 155725.0 148879.0 164820.0 162323.0 359230.0 355067.0 244941.0 237205.0 158359.0 150959.0 198050.0 194842.0 34698.0 41680.0 322552.0 327037.0 228922.0 236334.0 211487.0 210245.0 174854.0 167728.0 165087.0 171862.0 197558.0 189625.0 405328.0 398203.0 261820.0 266493.0 160415.0 160673.0 141259.0 139671.0 112713.0 111411.0 107939.0 235656.0 107939.0 107939.0 235656.0 235656.0
115679.0 120759.0 147591.0 139727.0 348413.0 345439.0 276028.0 283732.0 317703.0 311321.0 275913.0 269975.0 324880.0 320022.0 291860.0 289787.0 86327.0 78936.0 300591.0 295486.0 240689.0 247639.0 180298.0 177025.0 257429.0 250549.0 321407.0 326120.0 305889.0 310631.0 355759.0 350650.0 104152.0 110307.0 224007.0 216900.0 318823.0 320498.0 293553.0 301433.0 319479.0 326073.0 262182.0 258141.0 348478.0 342076.0 349978.0 346482.0 316072.0 310854.0 28460.0 32603.0 126844.0 134839.0 321451.0 326882.0 270738.0 273574.0 219305.0 226827.0 231189.0 233482.0 334027.0 326547.0 31693.0 25269.0 263782.0 267401.0 286037.0 288341.0 127821.0 135771.0 374779.0 379233.0 370649.0 377022.0 364779.0 358964.0 83884.0 91195.0 357711.0 360902.0 311980.0 307068.0 350298.0 346449.0 151827.0 151608.0 331298.0 335948.0 336169.0 328183.0 194528.0 197574.0 307308.0 299241.0 336316.0 340601.0 347760.0 353243.0 295271.0 298650.0 366147.0 368311.0 375416.0 383144.0 0.0 8022.0 78747.0 86463.0 98138.0 91057.0 220057.0 215634.0 239712.0 239245.0 322179.0 319528.0 209956.0 217076.0 371042.0 363709.0 312314.0 320006.0 246459.0 254328.0 239746.0 236842.0 39872.0 47798.0 355480.0 355825.0 270634.0 277543.0 229133.0 236944.0 350913.0 342959.0 64683.0 57626.0 163643.0 155729.0 179525.0 182930.0 256973.0 263481.0 237138.0 229245.0 308141.0 309475.0 53086.0 52321.0 156887.0 159764.0 317315.0 309548.0 333512.0 341446.0 339782.0 347949.0 305958.0 149265.0 305958.0 305958.0 149265.0 149265.0
120850.0 125641.0 154443.0 146580.0 355177.0 352108.0 282879.0 290585.0 324556.0 318174.0 282753.0 276828.0 331733.0 326875.0 297836.0 295616.0 89458.0 81813.0 307444.0 302339.0 247199.0 254242.0 187151.0 183878.0 264143.0 257179.0 328127.0 332929.0 312721.0 317484.0 362408.0 357385.0 108085.0 114526.0 230860.0 223753.0 323894.0 325715.0 300388.0 308258.0 325198.0 331870.0 269042.0 264886.0 355331.0 348929.0 356831.0 353335.0 322925.0 317707.0 20951.0 26016.0 132327.0 140309.0 328304.0 333735.0 277591.0 280427.0 225799.0 233380.0 238042.0 240335.0 340880.0 333400.0 34728.0 29390.0 270635.0 274229.0 292889.0 295194.0 132740.0 140729.0 381173.0 385713.0 375496.0 381954.0 371632.0 365816.0 86551.0 94124.0 364564.0 367755.0 318832.0 313920.0 357151.0 353302.0 158349.0 157880.0 338151.0 342800.0 342742.0 334739.0 201076.0 203947.0 314161.0 306094.0 342445.0 346829.0 352135.0 357730.0 302124.0 305503.0 373000.0 375164.0 382269.0 389997.0 8022.0 0.0 82585.0 90459.0 104990.0 97910.0 226910.0 222487.0 246415.0 245799.0 329032.0 326381.0 216249.0 223451.0 377894.0 370562.0 319167.0 326859.0 253312.0 261181.0 246598.0 243695.0 43059.0 51003.0 360769.0 361249.0 277499.0 284393.0 235638.0 243425.0 357766.0 349812.0 70942.0 64184.0 170489.0 162581.0 186377.0 189783.0 263660.0 270242.0 243990.0 236097.0 314161.0 315627.0 48255.0 48564.0 162699.0 165308.0 323904.0 316153.0 340330.0 348276.0 346555.0 354722.0 312811.0 156118.0 312811.0 312811.0 156118.0 156118.0
42452.0 45282.0 100688.0 92968.0 283889.0 279865.0 214621.0 222596.0 260314.0 253215.0 215770.0 208977.0 277514.0 272694.0 220544.0 217468.0 10953.0 10620.0 242721.0 238742.0 174790.0 182634.0 129176.0 123686.0 193542.0 185802.0 256657.0 262358.0 245542.0 251367.0 289883.0 285763.0 25501.0 32199.0 170915.0 164308.0 242582.0 244823.0 233306.0 241327.0 246316.0 253354.0 200069.0 194630.0 293468.0 286491.0 302650.0 299153.0 266243.0 260255.0 87599.0 82828.0 55350.0 62761.0 274116.0 279520.0 216001.0 217237.0 153717.0 161714.0 175587.0 179620.0 286229.0 278552.0 47916.0 53519.0 205704.0 207814.0 229123.0 232763.0 52316.0 60256.0 306275.0 311489.0 293615.0 300235.0 317158.0 311527.0 14001.0 16149.0 309380.0 311993.0 263627.0 259265.0 299583.0 294739.0 89653.0 86300.0 283969.0 288619.0 269666.0 261577.0 130338.0 131280.0 251682.0 243795.0 265845.0 270891.0 269657.0 275344.0 240544.0 245127.0 317129.0 318562.0 327607.0 335395.0 78747.0 82585.0 0.0 8032.0 65726.0 57816.0 164814.0 158777.0 176068.0 173851.0 274850.0 272199.0 142487.0 150257.0 323647.0 316370.0 264960.0 272629.0 189632.0 197612.0 181722.0 180579.0 39621.0 31803.0 280033.0 280979.0 208423.0 216038.0 163424.0 170813.0 302448.0 294623.0 31804.0 37473.0 107528.0 99731.0 124996.0 127110.0 192779.0 200063.0 179769.0 171840.0 237032.0 239363.0 75502.0 67550.0 86635.0 87282.0 251158.0 243651.0 269791.0 277777.0 280120.0 288200.0 258629.0 104040.0 258629.0 258629.0 104040.0 104040.0
34985.0 37412.0 96261.0 88710.0 276479.0 272378.0 207572.0 215558.0 253597.0 246432.0 208843.0 201979.0 272641.0 267744.0 212700.0 209568.0 10620.0 15330.0 235980.0 232131.0 167413.0 175321.0 123744.0 117987.0 186305.0 178505.0 249254.0 255028.0 238543.0 244467.0 282366.0 278324.0 17690.0 24186.0 164947.0 158438.0 234550.0 236794.0 226336.0 234358.0 238364.0 245421.0 192979.0 187424.0 286969.0 279936.0 297740.0 294243.0 260461.0 254353.0 95627.0 90817.0 47970.0 55209.0 269183.0 274450.0 209674.0 210718.0 146422.0 154441.0 169281.0 173516.0 280893.0 273157.0 55842.0 61291.0 199018.0 200962.0 222512.0 226298.0 44405.0 52316.0 298565.0 303827.0 285598.0 292212.0 311877.0 306364.0 16149.0 14001.0 303861.0 306333.0 258150.0 253953.0 293601.0 288636.0 83154.0 79422.0 279059.0 283684.0 262118.0 254028.0 123272.0 123991.0 245175.0 237323.0 258030.0 263121.0 261718.0 267381.0 234163.0 238882.0 311440.0 312728.0 322238.0 330045.0 86463.0 90459.0 8032.0 0.0 65027.0 57412.0 158597.0 152390.0 168894.0 166522.0 269940.0 267289.0 135047.0 142856.0 318518.0 311330.0 259908.0 267542.0 183131.0 191100.0 175110.0 174174.0 47570.0 39792.0 272006.0 272963.0 201306.0 208977.0 156091.0 163424.0 296901.0 289116.0 35399.0 42028.0 101612.0 93931.0 119121.0 121045.0 185517.0 192855.0 173238.0 165333.0 229192.0 231584.0 82941.0 74954.0 79135.0 79539.0 243651.0 236173.0 262457.0 270439.0 273142.0 281204.0 253719.0 100037.0 253719.0 253719.0 100037.0 100037.0
59167.0 66595.0 51499.0 44114.0 256445.0 254109.0 183176.0 190630.0 222533.0 216497.0 182407.0 176998.0 228258.0 223401.0 206671.0 206034.0 75191.0 76170.0 205757.0 200231.0 151470.0 157533.0 84639.0 82530.0 166334.0 160182.0 229835.0 233953.0 212133.0 216321.0 264519.0 258865.0 71600.0 70555.0 128155.0 120973.0 242074.0 242211.0 199880.0 207605.0 236271.0 242040.0 169995.0 166800.0 252268.0 246087.0 253357.0 249860.0 219450.0 214279.0 119290.0 118287.0 61164.0 67063.0 224829.0 230260.0 174932.0 178362.0 130631.0 137464.0 136246.0 137782.0 237406.0 229925.0 80262.0 79626.0 169446.0 173738.0 190936.0 192692.0 70507.0 75457.0 285277.0 289077.0 295181.0 300610.0 268157.0 262342.0 79602.0 79023.0 261089.0 264280.0 215358.0 210446.0 253754.0 249830.0 65785.0 68955.0 234676.0 239326.0 245552.0 237736.0 105975.0 110725.0 211534.0 203459.0 249209.0 252627.0 277659.0 281835.0 199262.0 202271.0 269526.0 271689.0 278794.0 286523.0 98138.0 104990.0 65726.0 65027.0 0.0 8101.0 125169.0 121612.0 148891.0 149675.0 225557.0 222906.0 123513.0 129608.0 274420.0 267087.0 215692.0 223384.0 151806.0 159509.0 145771.0 142094.0 76416.0 73948.0 275863.0 274900.0 178360.0 184722.0 140161.0 148040.0 254292.0 246337.0 40827.0 42998.0 71547.0 64259.0 85536.0 89488.0 166082.0 171980.0 142895.0 135177.0 222307.0 222456.0 123469.0 116900.0 79946.0 86136.0 226693.0 218853.0 241253.0 249092.0 245421.0 253571.0 209336.0 50865.0 209336.0 209336.0 50865.0 50865.0
54433.0 61902.0 57003.0 49302.0 260573.0 258024.0 187545.0 195099.0 227837.0 221653.0 187017.0 181405.0 234114.0 229257.0 208925.0 207978.0 67449.0 68209.0 210910.0 205559.0 154584.0 160928.0 90016.0 87349.0 170064.0 163664.0 233807.0 238135.0 216865.0 221270.0 268413.0 262932.0 64916.0 64434.0 133698.0 126545.0 242821.0 243219.0 204571.0 212361.0 238179.0 244127.0 174119.0 170614.0 258051.0 251763.0 259213.0 255716.0 225307.0 220135.0 112209.0 111207.0 57972.0 64480.0 230685.0 236116.0 180492.0 183657.0 133515.0 140576.0 141382.0 143263.0 243262.0 235781.0 72997.0 72546.0 174366.0 178399.0 196192.0 198190.0 66403.0 71962.0 288688.0 292670.0 295847.0 301436.0 274014.0 268198.0 71737.0 71411.0 266945.0 270136.0 221214.0 216302.0 259610.0 255687.0 67343.0 69619.0 240532.0 245182.0 249239.0 241364.0 108701.0 112995.0 217098.0 209023.0 251982.0 255612.0 277480.0 281856.0 204930.0 208096.0 275382.0 277545.0 284651.0 292379.0 91057.0 97910.0 57816.0 57412.0 8101.0 0.0 130264.0 126335.0 152493.0 152887.0 231413.0 228762.0 125754.0 132151.0 280276.0 272943.0 221548.0 229241.0 156837.0 164619.0 150517.0 147153.0 68834.0 66108.0 277180.0 276450.0 182528.0 189081.0 143167.0 151053.0 260148.0 252194.0 32890.0 35545.0 75298.0 67699.0 90144.0 93881.0 169744.0 175858.0 147745.0 139944.0 224740.0 225163.0 115871.0 109199.0 79499.0 85153.0 230361.0 222534.0 245473.0 253353.0 250407.0 258568.0 215192.0 57106.0 215192.0 215192.0 57106.0 57106.0
125397.0 126587.0 73724.0 81083.0 133458.0 132248.0 60117.0 66878.0 97650.0 91389.0 58157.0 53892.0 123552.0 120693.0 102805.0 106193.0 167864.0 173926.0 80646.0 75434.0 47175.0 47286.0 40692.0 43032.0 50112.0 48132.0 108044.0 110956.0 87300.0 91177.0 142630.0 136142.0 149537.0 142416.0 10000.0 10579.0 153507.0 150165.0 75203.0 82737.0 133543.0 136752.0 49353.0 49572.0 129127.0 122428.0 150850.0 149022.0 103033.0 96381.0 240884.0 239004.0 112984.0 107858.0 119497.0 122922.0 51301.0 53526.0 41135.0 39623.0 11133.0 15313.0 126494.0 118384.0 199828.0 200952.0 44387.0 49405.0 65984.0 68525.0 121869.0 116838.0 166051.0 168616.0 203131.0 206239.0 157417.0 153045.0 173868.0 167962.0 147681.0 149257.0 102976.0 100504.0 135254.0 130080.0 75623.0 80574.0 133103.0 135846.0 125248.0 118031.0 44251.0 49655.0 87541.0 79521.0 136297.0 137609.0 198082.0 199173.0 75931.0 80314.0 154181.0 154812.0 166945.0 174815.0 220057.0 226910.0 164814.0 158597.0 125169.0 130264.0 0.0 8186.0 38087.0 44517.0 125275.0 124074.0 50224.0 46515.0 165290.0 159100.0 109185.0 116077.0 26650.0 34357.0 21756.0 16929.0 193821.0 188643.0 177137.0 173522.0 56847.0 61674.0 42562.0 46622.0 140595.0 133184.0 157846.0 163354.0 57630.0 65623.0 40683.0 37864.0 50690.0 53501.0 18371.0 11958.0 114685.0 111805.0 238514.0 230875.0 87005.0 91850.0 107021.0 99350.0 117993.0 125585.0 120256.0 128404.0 110802.0 75595.0 110802.0 110802.0 75595.0 75595.0
118804.0 119714.0 70516.0 77531.0 135472.0 133781.0 61922.0 69158.0 102373.0 95767.0 60808.0 55688.0 131630.0 128832.0 99926.0 102753.0 161482.0 167707.0 85062.0 80371.0 42722.0 44201.0 38210.0 39083.0 48867.0 45562.0 109466.0 112925.0 90544.0 95013.0 144201.0 138041.0 142829.0 135613.0 18084.0 16824.0 149296.0 146296.0 78272.0 86031.0 130880.0 134513.0 49794.0 48655.0 134736.0 127855.0 158966.0 157183.0 110289.0 103453.0 236169.0 234072.0 106241.0 100865.0 127559.0 130887.0 57302.0 58615.0 33952.0 33458.0 17067.0 22950.0 134220.0 126086.0 194879.0 196249.0 48149.0 52126.0 70797.0 74017.0 114808.0 109567.0 166826.0 169763.0 199664.0 203045.0 165078.0 160825.0 167484.0 161417.0 155121.0 156512.0 110671.0 108389.0 142040.0 136641.0 69247.0 73775.0 141257.0 143946.0 126200.0 118756.0 36158.0 41469.0 92983.0 85051.0 135428.0 137204.0 193388.0 194756.0 81777.0 86607.0 161382.0 161801.0 174489.0 182357.0 215634.0 222487.0 158777.0 152390.0 121612.0 126335.0 8186.0 0.0 34649.0 40089.0 133454.0 132259.0 42326.0 39069.0 173059.0 166956.0 117222.0 124061.0 31064.0 39039.0 24182.0 21803.0 188683.0 183307.0 174288.0 170998.0 57800.0 63481.0 36584.0 41578.0 148026.0 140693.0 153007.0 158755.0 52341.0 60365.0 36197.0 32729.0 49195.0 53132.0 21511.0 13619.0 112606.0 110262.0 232929.0 225230.0 79547.0 84155.0 107673.0 99897.0 120110.0 127847.0 124165.0 132332.0 118974.0 73098.0 118974.0 118974.0 73098.0 73098.0
133986.0 133026.0 99886.0 105896.0 108812.0 105736.0 39141.0 47132.0 87802.0 80010.0 41687.0 34141.0 141688.0 140676.0 65278.0 68230.0 176805.0 183843.0 70406.0 68787.0 10339.0 9609.0 70263.0 68731.0 17734.0 11529.0 81714.0 86739.0 70206.0 76850.0 116077.0 110977.0 156546.0 148887.0 45479.0 48615.0 115443.0 112086.0 58332.0 66271.0 96248.0 100016.0 24404.0 18615.0 123151.0 115552.0 169329.0 169196.0 111049.0 103088.0 258426.0 255492.0 120976.0 114138.0 137396.0 138799.0 55231.0 51326.0 23100.0 15140.0 34674.0 42148.0 138686.0 130572.0 216588.0 218892.0 37427.0 35448.0 59845.0 66171.0 126951.0 120244.0 136421.0 140203.0 165186.0 168457.0 167901.0 165199.0 182681.0 175749.0 155856.0 155480.0 115739.0 115961.0 137667.0 130863.0 88318.0 90093.0 153315.0 154218.0 96746.0 88877.0 45879.0 45114.0 82834.0 76114.0 102242.0 104725.0 160204.0 161155.0 74984.0 82040.0 159747.0 158392.0 175819.0 183496.0 239712.0 246415.0 176068.0 168894.0 148891.0 152493.0 38087.0 34649.0 0.0 8048.0 147117.0 147717.0 35926.0 28058.0 177015.0 172218.0 126914.0 132514.0 32049.0 36377.0 24762.0 32059.0 209698.0 203544.0 139640.0 136381.0 32517.0 40446.0 14850.0 12032.0 148871.0 142547.0 175696.0 182231.0 77345.0 84799.0 65026.0 60489.0 17275.0 24044.0 27270.0 27521.0 78242.0 76383.0 251503.0 243587.0 90401.0 92155.0 77868.0 70043.0 94173.0 102156.0 104764.0 112712.0 136518.0 103757.0 136518.0 136518.0 103757.0 103757.0
131540.0 130157.0 101796.0 107389.0 110140.0 106511.0 43530.0 51355.0 92894.0 84965.0 46969.0 39224.0 149507.0 148584.0 60757.0 62930.0 174110.0 181308.0 75774.0 74772.0 2658.0 8830.0 73616.0 71265.0 20341.0 12088.0 82906.0 88509.0 74212.0 81295.0 116729.0 112122.0 153591.0 145883.0 52530.0 55096.0 109230.0 106218.0 62751.0 70526.0 91781.0 96046.0 29103.0 21845.0 128484.0 120805.0 177125.0 177079.0 118243.0 110213.0 257258.0 254093.0 118553.0 111459.0 145211.0 146494.0 62710.0 58349.0 20184.0 12419.0 42167.0 49818.0 146116.0 138029.0 215373.0 217936.0 44487.0 41624.0 66132.0 72795.0 123876.0 116915.0 135839.0 140037.0 159694.0 163235.0 175098.0 172553.0 179928.0 172827.0 162863.0 162280.0 123297.0 123693.0 144100.0 137128.0 87450.0 88513.0 161216.0 162030.0 96945.0 88942.0 44723.0 42591.0 88832.0 82408.0 99981.0 103028.0 153580.0 154772.0 81609.0 88866.0 166457.0 164872.0 182837.0 190475.0 239245.0 245799.0 173851.0 166522.0 149675.0 152887.0 44517.0 40089.0 8048.0 0.0 155087.0 155735.0 31883.0 23896.0 184303.0 179638.0 134741.0 140258.0 40087.0 44216.0 32751.0 39907.0 208313.0 201969.0 134817.0 131921.0 36478.0 44679.0 10431.0 4367.0 155912.0 149717.0 174915.0 181650.0 78290.0 85416.0 67409.0 62718.0 19296.0 27064.0 35138.0 34695.0 74677.0 73582.0 249352.0 241400.0 87555.0 88653.0 78121.0 70402.0 95941.0 103926.0 108496.0 116305.0 144566.0 106109.0 144566.0 144566.0 106109.0 106109.0
240577.0 243592.0 174821.0 182812.0 157670.0 163041.0 127804.0 125520.0 104598.0 108166.0 121168.0 126675.0 15748.0 9548.0 187618.0 194874.0 280150.0 284922.0 106261.0 99940.0 157049.0 151065.0 147536.0 154622.0 143507.0 149145.0 150081.0 145385.0 121040.0 115052.0 169321.0 160847.0 264666.0 258437.0 115629.0 119599.0 241660.0 235405.0 120064.0 119339.0 209734.0 208127.0 134015.0 141542.0 98712.0 99711.0 28514.0 24303.0 56080.0 62164.0 343318.0 342189.0 229658.0 226375.0 17818.0 24629.0 94831.0 101939.0 162681.0 157869.0 119100.0 111416.0 38250.0 38749.0 303406.0 303615.0 113718.0 120110.0 102072.0 94257.0 240324.0 236833.0 196426.0 193471.0 278191.0 277901.0 55855.0 47817.0 286003.0 281416.0 58400.0 65773.0 42429.0 36608.0 73610.0 77671.0 192467.0 199278.0 10047.0 17479.0 165570.0 163616.0 169382.0 174914.0 92975.0 92111.0 193562.0 189463.0 286951.0 284999.0 88331.0 80874.0 70345.0 77313.0 67073.0 73172.0 322179.0 329032.0 274850.0 269940.0 225557.0 231413.0 125275.0 133454.0 147117.0 155087.0 0.0 7995.0 174037.0 168634.0 57298.0 48785.0 24300.0 24466.0 115228.0 111025.0 123525.0 118140.0 298264.0 294102.0 248289.0 241609.0 132948.0 128130.0 159618.0 159142.0 55234.0 49326.0 261586.0 266072.0 171398.0 177982.0 154874.0 154871.0 145088.0 140063.0 122268.0 126829.0 189539.0 182480.0 344580.0 337356.0 208913.0 214895.0 157774.0 154485.0 147339.0 149768.0 124204.0 127786.0 36893.0 174691.0 36893.0 36893.0 174691.0 174691.0
237927.0 240959.0 172170.0 180161.0 163364.0 168516.0 130367.0 128536.0 109788.0 112933.0 123714.0 128876.0 23411.0 16438.0 190563.0 197661.0 277499.0 282271.0 110390.0 103764.0 157785.0 152125.0 144895.0 151979.0 145055.0 150348.0 154767.0 150359.0 125348.0 119695.0 175073.0 166568.0 262015.0 255786.0 114275.0 117834.0 244893.0 238786.0 123676.0 123413.0 213455.0 212110.0 135790.0 143121.0 105632.0 106309.0 34156.0 28492.0 61878.0 67413.0 340667.0 339538.0 227021.0 223734.0 24893.0 32199.0 96728.0 104184.0 162379.0 157896.0 118517.0 110686.0 45942.0 45873.0 300755.0 300964.0 115407.0 122112.0 105235.0 97560.0 237672.0 234236.0 202318.0 199568.0 282454.0 282358.0 63619.0 55527.0 283353.0 278765.0 66395.0 73761.0 47880.0 41240.0 81202.0 84998.0 189826.0 196684.0 17005.0 25009.0 170628.0 168379.0 167923.0 173709.0 97654.0 96226.0 198152.0 194280.0 290382.0 288626.0 92154.0 84967.0 78341.0 85293.0 74765.0 80696.0 319528.0 326381.0 272199.0 267289.0 222906.0 228762.0 124074.0 132259.0 147717.0 155735.0 7995.0 0.0 173414.0 168292.0 64628.0 56088.0 29503.0 31170.0 115692.0 111976.0 123722.0 117962.0 295613.0 291451.0 252608.0 246053.0 135206.0 130782.0 159784.0 159702.0 63189.0 57165.0 258935.0 263421.0 168748.0 175331.0 152289.0 152402.0 146617.0 141932.0 122243.0 126376.0 193110.0 186197.0 341929.0 334705.0 206530.0 212656.0 162162.0 158571.0 152607.0 155331.0 130183.0 134054.0 31861.0 172040.0 31861.0 31861.0 172040.0 172040.0
100071.0 98424.0 80048.0 84094.0 141435.0 137393.0 74900.0 82843.0 123720.0 115936.0 77610.0 70059.0 170763.0 168701.0 83189.0 82620.0 142423.0 149706.0 106286.0 104356.0 32491.0 40702.0 59318.0 53959.0 52157.0 43970.0 114216.0 120115.0 105849.0 112690.0 147454.0 143281.0 121802.0 114081.0 60221.0 58814.0 122273.0 121160.0 94143.0 102030.0 112858.0 118529.0 60205.0 53543.0 159001.0 151430.0 198399.0 197283.0 144080.0 136417.0 226890.0 223443.0 87137.0 79868.0 166562.0 169002.0 88000.0 85589.0 13067.0 20788.0 54942.0 62728.0 170512.0 162322.0 185014.0 187932.0 71933.0 71088.0 95182.0 101003.0 92064.0 85046.0 164982.0 169730.0 175075.0 179754.0 200594.0 197240.0 148209.0 141041.0 189256.0 189457.0 147082.0 146117.0 172460.0 165933.0 58657.0 58370.0 181291.0 183256.0 127331.0 119254.0 18774.0 12788.0 118341.0 111342.0 126583.0 130665.0 162896.0 165581.0 109738.0 116348.0 193927.0 193050.0 209110.0 216888.0 209956.0 216249.0 142487.0 135047.0 123513.0 125754.0 50224.0 42326.0 35926.0 31883.0 174037.0 173414.0 0.0 7999.0 209293.0 203906.0 156070.0 162385.0 61382.0 68009.0 52319.0 56264.0 177750.0 171192.0 153462.0 151948.0 68044.0 76144.0 21597.0 28468.0 182191.0 175458.0 145324.0 152361.0 54729.0 60432.0 49998.0 45388.0 51169.0 58864.0 52631.0 47244.0 99004.0 99716.0 217965.0 209991.0 55928.0 56773.0 108721.0 101176.0 127527.0 135495.0 140268.0 148120.0 160498.0 85675.0 160498.0 160498.0 85675.0 85675.0
107872.0 106330.0 84613.0 89168.0 133633.0 129695.0 66938.0 74871.0 115855.0 108045.0 69739.0 62154.0 164849.0 163030.0 77185.0 77192.0 150314.0 157564.0 98461.0 96680.0 24578.0 32721.0 61330.0 56800.0 44158.0 35983.0 106403.0 112226.0 97865.0 104736.0 139799.0 135515.0 129735.0 122019.0 56387.0 55874.0 118663.0 117096.0 86185.0 94060.0 107338.0 112717.0 52259.0 45547.0 151199.0 143608.0 192525.0 191644.0 137161.0 129413.0 234347.0 230988.0 94914.0 87712.0 160619.0 162815.0 81023.0 78263.0 5989.0 12978.0 49858.0 57822.0 163929.0 155748.0 192459.0 195266.0 64511.0 63366.0 87580.0 93556.0 100006.0 93021.0 157722.0 162340.0 171109.0 175526.0 193813.0 190627.0 156113.0 148973.0 182278.0 182318.0 140586.0 139902.0 165071.0 158453.0 65432.0 65639.0 175654.0 177370.0 119748.0 111682.0 23723.0 19504.0 110693.0 103786.0 119866.0 123721.0 160366.0 162695.0 102322.0 109062.0 186731.0 185710.0 202172.0 209926.0 217076.0 223451.0 150257.0 142856.0 129608.0 132151.0 46515.0 39069.0 28058.0 23896.0 168634.0 168292.0 7999.0 0.0 202626.0 197389.0 150110.0 156268.0 54854.0 61145.0 45894.0 50515.0 185258.0 178768.0 148658.0 146813.0 60060.0 68172.0 13601.0 20573.0 175230.0 168601.0 152509.0 159455.0 59646.0 65891.0 52784.0 48027.0 43174.0 50865.0 46574.0 41926.0 92699.0 93025.0 225751.0 217783.0 63779.0 64758.0 101074.0 93483.0 119644.0 127618.0 132272.0 140122.0 155671.0 89876.0 155671.0 155671.0 89876.0 89876.0
287766.0 290017.0 223683.0 231675.0 148881.0 156104.0 147221.0 142101.0 106664.0 113434.0 141313.0 148526.0 47583.0 54146.0 200528.0 208594.0 328548.0 333617.0 116996.0 113902.0 185665.0 178132.0 194906.0 201162.0 168132.0 175481.0 151494.0 144607.0 128449.0 120426.0 159129.0 151551.0 312053.0 305412.0 156809.0 162311.0 250392.0 243199.0 132958.0 128811.0 215791.0 212135.0 157924.0 166109.0 82151.0 87431.0 33853.0 42109.0 66132.0 74288.0 392181.0 391052.0 276117.0 271869.0 50293.0 44189.0 121859.0 126049.0 196699.0 190354.0 156640.0 150112.0 38893.0 47075.0 352269.0 352478.0 139838.0 143778.0 120350.0 112737.0 285960.0 281526.0 183241.0 178191.0 277664.0 275715.0 10258.0 12261.0 334467.0 329486.0 24949.0 30550.0 62465.0 65047.0 51643.0 59788.0 238352.0 244391.0 47623.0 39827.0 162478.0 163346.0 208898.0 213052.0 101517.0 105220.0 193099.0 187175.0 293006.0 289548.0 104256.0 96387.0 30724.0 38616.0 13306.0 16595.0 371042.0 377894.0 323647.0 318518.0 274420.0 280276.0 165290.0 173059.0 177015.0 184303.0 57298.0 64628.0 209293.0 202626.0 0.0 8543.0 58761.0 51038.0 147910.0 141507.0 156982.0 153813.0 347127.0 342964.0 248082.0 240522.0 153911.0 146933.0 191281.0 188652.0 30421.0 34958.0 310449.0 314934.0 217949.0 225183.0 200641.0 199687.0 169725.0 162951.0 156919.0 163302.0 197655.0 189817.0 393443.0 386219.0 252128.0 257140.0 161167.0 160615.0 143634.0 142958.0 115563.0 115422.0 92852.0 223554.0 92852.0 92852.0 223554.0 223554.0
280851.0 283229.0 216351.0 224342.0 149494.0 156490.0 143642.0 138867.0 105034.0 111445.0 137577.0 144624.0 39551.0 45892.0 198242.0 206230.0 321410.0 326390.0 114268.0 110668.0 181088.0 173727.0 187851.0 194231.0 164000.0 171161.0 150560.0 143938.0 126368.0 118533.0 160049.0 152267.0 305120.0 298546.0 150430.0 155763.0 248924.0 241844.0 130143.0 126435.0 214583.0 211214.0 153818.0 161971.0 82994.0 87670.0 25792.0 34077.0 62019.0 70271.0 384848.0 383719.0 269310.0 265194.0 42494.0 36896.0 116988.0 121610.0 191436.0 185272.0 150724.0 144011.0 33534.0 41674.0 344936.0 345145.0 135281.0 139586.0 116619.0 108861.0 279281.0 274976.0 184793.0 180044.0 277656.0 275950.0 12311.0 7888.0 327315.0 322426.0 25582.0 32605.0 56824.0 58606.0 52242.0 60031.0 231577.0 237733.0 39084.0 31327.0 162323.0 162768.0 202931.0 207284.0 98821.0 101949.0 192750.0 187067.0 292056.0 288812.0 100576.0 92594.0 34118.0 42335.0 20429.0 24950.0 363709.0 370562.0 316370.0 311330.0 267087.0 272943.0 159100.0 166956.0 172218.0 179638.0 48785.0 56088.0 203906.0 197389.0 8543.0 0.0 51422.0 43823.0 142562.0 136393.0 151596.0 148120.0 339794.0 335632.0 247936.0 240481.0 150177.0 143436.0 186315.0 183967.0 29401.0 32042.0 303116.0 307602.0 211049.0 218201.0 193812.0 192983.0 165602.0 159022.0 151377.0 157560.0 196053.0 188285.0 386110.0 378886.0 245746.0 250902.0 160021.0 159058.0 143404.0 143204.0 115760.0 116221.0 84514.0 216221.0 84514.0 84514.0 216221.0 216221.0
229535.0 232024.0 164956.0 172947.0 133862.0 139049.0 104771.0 102024.0 80421.0 83872.0 98186.0 104091.0 14782.0 15289.0 164066.0 171454.0 269992.0 274971.0 82059.0 75894.0 136533.0 130032.0 136469.0 142929.0 121746.0 127889.0 125785.0 121139.0 96776.0 90753.0 145570.0 137065.0 253787.0 247265.0 100102.0 105052.0 217837.0 211488.0 96106.0 95145.0 185640.0 183925.0 111975.0 119746.0 77379.0 77429.0 42468.0 42582.0 32420.0 37989.0 333453.0 332324.0 218090.0 214127.0 10515.0 14574.0 72953.0 79469.0 144121.0 138676.0 101654.0 94454.0 24611.0 20220.0 293541.0 293750.0 91954.0 97835.0 78528.0 70619.0 228201.0 224077.0 172827.0 170135.0 253912.0 253603.0 53170.0 46792.0 275894.0 271026.0 49312.0 54972.0 18377.0 12430.0 56137.0 58344.0 180409.0 186705.0 27175.0 27323.0 141355.0 139328.0 153376.0 158254.0 68676.0 67932.0 169263.0 165186.0 262985.0 260928.0 64315.0 56728.0 60227.0 65458.0 64297.0 71739.0 312314.0 319167.0 264960.0 259908.0 215692.0 221548.0 109185.0 117222.0 126914.0 134741.0 24300.0 29503.0 156070.0 150110.0 58761.0 51422.0 0.0 7799.0 95611.0 90540.0 104332.0 99807.0 288399.0 284237.0 224004.0 217312.0 110259.0 104997.0 140140.0 138926.0 43775.0 36032.0 251721.0 256207.0 159766.0 166853.0 142610.0 141938.0 123346.0 117855.0 103548.0 108971.0 165532.0 158400.0 334715.0 327491.0 195156.0 200584.0 133487.0 130267.0 123214.0 125843.0 100725.0 104752.0 40422.0 164826.0 40422.0 40422.0 164826.0 164826.0
237039.0 239461.0 172648.0 180639.0 133469.0 139010.0 108720.0 105488.0 80991.0 85112.0 102210.0 108426.0 10567.0 14943.0 167297.0 174832.0 277605.0 282621.0 84266.0 78591.0 141969.0 135240.0 144028.0 150421.0 126578.0 132988.0 126965.0 121908.0 98619.0 92142.0 145074.0 136626.0 261304.0 254747.0 107135.0 112240.0 220623.0 214120.0 98891.0 97325.0 187928.0 185898.0 116666.0 124563.0 74462.0 75268.0 37042.0 38419.0 32081.0 38857.0 341145.0 340017.0 225534.0 221494.0 6852.0 6940.0 77963.0 84025.0 150280.0 144636.0 108256.0 101205.0 17546.0 14953.0 301234.0 301443.0 96909.0 102427.0 82053.0 74076.0 235575.0 231372.0 172087.0 169050.0 255443.0 254889.0 45373.0 39022.0 283514.0 278605.0 41930.0 47920.0 19393.0 16574.0 51019.0 54123.0 187823.0 194051.0 24291.0 22261.0 141954.0 140362.0 160185.0 164908.0 70174.0 70311.0 170478.0 166093.0 265488.0 263211.0 67169.0 59314.0 53103.0 58704.0 56518.0 63944.0 320006.0 326859.0 272629.0 267542.0 223384.0 229241.0 116077.0 124061.0 132514.0 140258.0 24466.0 31170.0 162385.0 156268.0 51038.0 43823.0 7799.0 0.0 101564.0 96163.0 110399.0 106171.0 296091.0 291929.0 225496.0 218650.0 114485.0 108847.0 145993.0 144489.0 36711.0 29230.0 259413.0 263899.0 167245.0 174381.0 150040.0 149286.0 128185.0 122412.0 109776.0 115436.0 168045.0 160759.0 342407.0 335183.0 202327.0 207660.0 135060.0 132254.0 123525.0 125676.0 99853.0 103332.0 47048.0 172518.0 47048.0 47048.0 172518.0 172518.0
149212.0 149721.0 100373.0 107708.0 107650.0 106953.0 35391.0 41291.0 71339.0 64866.0 32300.0 29463.0 110388.0 109017.0 87342.0 92359.0 192060.0 198427.0 54132.0 49307.0 42227.0 37483.0 67330.0 69511.0 33800.0 36415.0 83036.0 85287.0 60772.0 64528.0 117246.0 110437.0 173038.0 165693.0 26233.0 32911.0 141106.0 136667.0 48804.0 56199.0 116671.0 118667.0 28372.0 32365.0 103843.0 96875.0 138079.0 137607.0 82928.0 75463.0 267134.0 265099.0 136488.0 130730.0 106124.0 108046.0 27406.0 27609.0 48887.0 43079.0 15698.0 17477.0 109139.0 100950.0 225907.0 227205.0 17813.0 23702.0 39735.0 43179.0 144488.0 138789.0 141584.0 143646.0 187741.0 190014.0 139248.0 135861.0 198055.0 191814.0 128143.0 128717.0 85746.0 85127.0 112837.0 106950.0 99995.0 104074.0 121667.0 122929.0 100751.0 93938.0 62953.0 65920.0 62052.0 54196.0 114955.0 115309.0 186817.0 186907.0 51243.0 56726.0 133354.0 133065.0 147917.0 155725.0 246459.0 253312.0 189632.0 183131.0 151806.0 156837.0 26650.0 31064.0 32049.0 40087.0 115228.0 115692.0 61382.0 54854.0 147910.0 142562.0 95611.0 101564.0 0.0 7988.0 9096.0 9723.0 219740.0 214370.0 160189.0 155722.0 33917.0 36889.0 44550.0 44011.0 121056.0 114186.0 184000.0 189663.0 83388.0 91414.0 66937.0 63712.0 35046.0 34155.0 9949.0 17798.0 96609.0 92422.0 263955.0 256240.0 108461.0 112166.0 83168.0 75786.0 92144.0 99582.0 93615.0 101767.0 104539.0 102177.0 104539.0 104539.0 102177.0 102177.0
157144.0 157598.0 108040.0 115436.0 101081.0 100760.0 30418.0 35352.0 63412.0 57036.0 26285.0 25050.0 105312.0 104386.0 86134.0 91713.0 200009.0 206393.0 46294.0 41334.0 46076.0 40153.0 74940.0 77336.0 34169.0 38485.0 77139.0 78891.0 53569.0 56939.0 110967.0 103940.0 180939.0 173576.0 32820.0 39792.0 140536.0 135731.0 41852.0 48990.0 114583.0 116065.0 26692.0 32432.0 95869.0 88889.0 132953.0 132864.0 76071.0 68432.0 275048.0 273041.0 144401.0 138593.0 101020.0 102494.0 20049.0 19625.0 55247.0 48880.0 23263.0 23398.0 102886.0 94722.0 233850.0 235117.0 11022.0 18274.0 31778.0 35237.0 152318.0 146553.0 135826.0 137582.0 185876.0 187827.0 132667.0 129544.0 206003.0 199739.0 121251.0 121581.0 79686.0 79624.0 105312.0 99290.0 107971.0 112004.0 117013.0 117842.0 95100.0 88567.0 70567.0 73228.0 54076.0 46241.0 110921.0 110802.0 186426.0 186171.0 43395.0 49103.0 126142.0 125650.0 141102.0 148879.0 254328.0 261181.0 197612.0 191100.0 159509.0 164619.0 34357.0 39039.0 36377.0 44216.0 111025.0 111976.0 68009.0 61145.0 141507.0 136393.0 90540.0 96163.0 7988.0 0.0 16448.0 17487.0 227701.0 222346.0 157826.0 153038.0 30448.0 31809.0 49980.0 48387.0 114183.0 107473.0 191929.0 197560.0 91348.0 99373.0 74824.0 71653.0 35615.0 32939.0 17871.0 25772.0 94201.0 89480.0 271941.0 264228.0 116207.0 119773.0 78010.0 70866.0 85580.0 92869.0 85949.0 94087.0 101763.0 109679.0 101763.0 101763.0 109679.0 109679.0
140984.0 141305.0 94573.0 101673.0 111816.0 110506.0 38378.0 45279.0 78704.0 71872.0 36734.0 32145.0 119095.0 117533.0 84642.0 88999.0 183906.0 190378.0 61226.0 57024.0 35100.0 31671.0 61892.0 63244.0 30708.0 31289.0 86290.0 89291.0 66367.0 70887.0 120894.0 114468.0 164689.0 157292.0 24737.0 30262.0 137403.0 133371.0 54111.0 61851.0 114751.0 117337.0 28052.0 29715.0 111946.0 104840.0 146787.0 146146.0 92019.0 84533.0 260160.0 257956.0 128190.0 122282.0 114847.0 116927.0 36352.0 35783.0 39914.0 34401.0 12758.0 18511.0 118193.0 110003.0 218769.0 220256.0 24149.0 28009.0 47404.0 51514.0 135961.0 130141.0 144332.0 146860.0 185326.0 187962.0 148339.0 144921.0 189892.0 183548.0 137235.0 137774.0 94773.0 94011.0 121732.0 115738.0 92079.0 95857.0 130180.0 131631.0 103513.0 96341.0 54119.0 56887.0 70180.0 62459.0 115415.0 116389.0 182809.0 183259.0 59795.0 65544.0 142392.0 142025.0 157012.0 164820.0 239746.0 246598.0 181722.0 175110.0 145771.0 150517.0 21756.0 24182.0 24762.0 32751.0 123525.0 123722.0 52319.0 45894.0 156982.0 151596.0 104332.0 110399.0 9096.0 16448.0 0.0 7938.0 212462.0 206946.0 158413.0 154339.0 35202.0 39936.0 36096.0 36379.0 130149.0 123282.0 176975.0 182815.0 76265.0 84270.0 60376.0 56816.0 31650.0 32837.0 3661.0 10596.0 95195.0 91679.0 256313.0 248558.0 99787.0 103326.0 85360.0 77731.0 96378.0 104030.0 100037.0 108204.0 112043.0 96878.0 112043.0 112043.0 96878.0 96878.0
140481.0 141220.0 90654.0 98001.0 117064.0 116164.0 44218.0 50547.0 80884.0 74513.0 41660.0 38101.0 114500.0 112534.0 92534.0 96933.0 183224.0 189487.0 63774.0 58749.0 42357.0 39449.0 57607.0 59852.0 38573.0 39180.0 92112.0 94635.0 70455.0 74248.0 126498.0 119811.0 164432.0 157158.0 17487.0 23688.0 145338.0 141306.0 58432.0 65885.0 122557.0 125036.0 35255.0 37514.0 112939.0 106084.0 142143.0 141141.0 89754.0 82605.0 257577.0 255601.0 127848.0 122294.0 110298.0 112829.0 35595.0 36902.0 44550.0 40002.0 6057.0 10574.0 114928.0 106740.0 216412.0 217646.0 27504.0 32950.0 49230.0 52221.0 136155.0 130673.0 150492.0 152749.0 193211.0 195804.0 145448.0 141660.0 189225.0 183098.0 134872.0 135854.0 91378.0 89989.0 120722.0 115126.0 91022.0 95386.0 125150.0 126997.0 109639.0 102655.0 55495.0 59248.0 71201.0 63254.0 122603.0 123339.0 190727.0 191194.0 59989.0 64976.0 140616.0 140703.0 154477.0 162323.0 236842.0 243695.0 180579.0 174174.0 142094.0 147153.0 16929.0 21803.0 32059.0 39907.0 118140.0 117962.0 56264.0 50515.0 153813.0 148120.0 99807.0 106171.0 9723.0 17487.0 7938.0 0.0 210302.0 205002.0 166209.0 162062.0 41863.0 45753.0 42083.0 43282.0 127769.0 120660.0 174474.0 180081.0 73960.0 81982.0 57344.0 54230.0 39549.0 40378.0 4795.0 9541.0 102898.0 99221.0 254696.0 247007.0 100443.0 104532.0 91768.0 84250.0 101567.0 109069.0 103328.0 111478.0 105770.0 92464.0 105770.0 105770.0 92464.0 92464.0
79539.0 83679.0 123475.0 115486.0 318370.0 314810.0 247353.0 255225.0 291050.0 284333.0 247850.0 241473.0 300965.0 296108.0 257872.0 255209.0 46516.0 39065.0 273670.0 269033.0 209498.0 216959.0 155254.0 151100.0 227392.0 220021.0 291165.0 296430.0 277849.0 283116.0 324986.0 320413.0 65112.0 71733.0 198647.0 191675.0 281803.0 283866.0 265516.0 273492.0 284442.0 291314.0 233104.0 228305.0 322895.0 316247.0 326064.0 322567.0 292110.0 286769.0 49257.0 45796.0 91700.0 99564.0 297536.0 302967.0 245007.0 247203.0 188143.0 195964.0 204887.0 207892.0 310112.0 302632.0 8332.0 14879.0 236611.0 239560.0 259475.0 262346.0 90801.0 98814.0 342561.0 347456.0 333070.0 339631.0 340864.0 335049.0 44034.0 51331.0 333796.0 336957.0 288065.0 283153.0 326272.0 322081.0 121493.0 119799.0 307383.0 312033.0 305002.0 296940.0 163865.0 165876.0 281361.0 273340.0 302901.0 307633.0 309277.0 314951.0 269643.0 273496.0 342213.0 344385.0 351501.0 359230.0 39872.0 43059.0 39621.0 47570.0 76416.0 68834.0 193821.0 188683.0 209698.0 208313.0 298264.0 295613.0 177750.0 185258.0 347127.0 339794.0 288399.0 296091.0 219740.0 227701.0 212462.0 210302.0 0.0 7962.0 319023.0 319765.0 241550.0 248827.0 197974.0 205610.0 326886.0 319044.0 36701.0 33444.0 136354.0 128328.0 153158.0 156073.0 226771.0 233723.0 210126.0 202163.0 274305.0 276216.0 47053.0 40632.0 122787.0 124575.0 286290.0 278643.0 303867.0 311852.0 312171.0 320318.0 282043.0 124850.0 282043.0 282043.0 124850.0 124850.0
72372.0 76255.0 119291.0 111298.0 312088.0 308415.0 241436.0 249337.0 285613.0 278806.0 242080.0 235604.0 296803.0 291945.0 250857.0 248082.0 38558.0 31153.0 268172.0 263677.0 203099.0 210655.0 150577.0 146140.0 221205.0 213743.0 284864.0 290235.0 272051.0 277447.0 318556.0 314091.0 57260.0 63976.0 193746.0 186836.0 274212.0 276343.0 259730.0 267722.0 277212.0 284133.0 227106.0 222159.0 317770.0 311045.0 321901.0 318405.0 287732.0 282248.0 56333.0 52291.0 84728.0 92526.0 293374.0 298805.0 239906.0 241897.0 181786.0 189656.0 199668.0 202895.0 305950.0 298440.0 16285.0 22671.0 231089.0 233856.0 254097.0 257138.0 83370.0 91377.0 335840.0 340818.0 325374.0 331965.0 336702.0 330886.0 36180.0 43397.0 329635.0 332811.0 283911.0 278990.0 321747.0 317411.0 115534.0 113502.0 303221.0 307870.0 298508.0 290436.0 157672.0 159453.0 276150.0 268151.0 295971.0 300786.0 301443.0 307144.0 264548.0 268563.0 338045.0 340060.0 347339.0 355067.0 47798.0 51003.0 31803.0 39792.0 73948.0 66108.0 188643.0 183307.0 203544.0 201969.0 294102.0 291451.0 171192.0 178768.0 342964.0 335632.0 284237.0 291929.0 214370.0 222346.0 206946.0 205002.0 7962.0 0.0 311521.0 312334.0 235539.0 242898.0 191600.0 199187.0 322844.0 314887.0 33285.0 31726.0 131055.0 123040.0 148054.0 150815.0 220551.0 227585.0 204689.0 196721.0 267309.0 269331.0 50478.0 43364.0 115945.0 117480.0 279838.0 272221.0 297674.0 305664.0 306451.0 314588.0 277881.0 121060.0 277881.0 277881.0 121060.0 121060.0
239920.0 235356.0 233256.0 237550.0 100314.0 92551.0 129045.0 127709.0 144996.0 140385.0 135079.0 133262.0 236035.0 239176.0 74380.0 72051.0 276089.0 284124.0 142228.0 149074.0 132315.0 130117.0 207974.0 204691.0 127739.0 129024.0 98638.0 104407.0 127278.0 133364.0 91867.0 98104.0 255256.0 247987.0 182898.0 187361.0 38714.0 35253.0 129826.0 129249.0 43670.0 41879.0 131830.0 128704.0 166338.0 160664.0 258814.0 262724.0 193737.0 186639.0 367632.0 362682.0 228667.0 220673.0 232236.0 228962.0 162911.0 154368.0 149462.0 144756.0 170996.0 176608.0 220705.0 215035.0 327059.0 331452.0 148676.0 140599.0 149182.0 156194.0 228234.0 220221.0 76898.0 84889.0 29957.0 30184.0 237899.0 240099.0 280860.0 272824.0 223187.0 217890.0 206267.0 211695.0 196455.0 188297.0 210088.0 207627.0 249780.0 246381.0 85628.0 85576.0 172032.0 166062.0 155398.0 156386.0 55339.0 60908.0 51266.0 45137.0 160613.0 167643.0 219114.0 212827.0 239628.0 244941.0 355480.0 360769.0 280033.0 272006.0 275863.0 277180.0 177137.0 174288.0 139640.0 134817.0 248289.0 252608.0 153462.0 148658.0 248082.0 247936.0 224004.0 225496.0 160189.0 157826.0 158413.0 166209.0 319023.0 311521.0 0.0 8092.0 127441.0 128018.0 141519.0 134464.0 218544.0 216822.0 291630.0 299314.0 208119.0 213862.0 200702.0 195910.0 126903.0 126098.0 161995.0 165583.0 63636.0 68712.0 351420.0 343523.0 199517.0 195880.0 90517.0 94179.0 104532.0 105311.0 132565.0 133554.0 249526.0 238506.0 249526.0 249526.0 238506.0 238506.0
240453.0 236093.0 231403.0 235922.0 92482.0 84782.0 123841.0 122128.0 137963.0 133554.0 129735.0 128277.0 229173.0 232443.0 71185.0 69705.0 277330.0 285347.0 135748.0 142731.0 129474.0 126801.0 205377.0 202370.0 123775.0 125532.0 91694.0 97225.0 120711.0 126584.0 83885.0 90223.0 256394.0 249042.0 178949.0 183628.0 42115.0 37323.0 123742.0 122840.0 40154.0 37058.0 127354.0 124639.0 158673.0 153092.0 251686.0 255707.0 186804.0 179804.0 368548.0 363738.0 228982.0 220989.0 225412.0 222002.0 157356.0 148802.0 147302.0 142255.0 167001.0 172374.0 213549.0 207987.0 327744.0 331987.0 143635.0 135561.0 143183.0 150053.0 228973.0 220962.0 68870.0 76884.0 37176.0 36304.0 230355.0 232658.0 282204.0 274191.0 215649.0 210275.0 199477.0 205043.0 188882.0 180751.0 209201.0 207038.0 242920.0 239393.0 78165.0 78457.0 170360.0 164641.0 148650.0 149882.0 48218.0 53417.0 59230.0 53206.0 154219.0 161126.0 211435.0 205087.0 231952.0 237205.0 355825.0 361249.0 280979.0 272963.0 274900.0 276450.0 173522.0 170998.0 136381.0 131921.0 241609.0 246053.0 151948.0 146813.0 240522.0 240481.0 217312.0 218650.0 155722.0 153038.0 154339.0 162062.0 319765.0 312334.0 8092.0 0.0 122595.0 122757.0 139058.0 131816.0 211082.0 209482.0 291735.0 299357.0 206425.0 212376.0 198402.0 193618.0 123018.0 121774.0 157951.0 161847.0 59170.0 63592.0 352968.0 345042.0 199418.0 196078.0 83892.0 87929.0 97095.0 97646.0 124968.0 125797.0 243402.0 236487.0 243402.0 243402.0 236487.0 236487.0
166435.0 165540.0 127897.0 134571.0 78085.0 76030.0 7256.0 14880.0 56749.0 48731.0 12604.0 6381.0 124564.0 125163.0 56892.0 63223.0 209292.0 216295.0 40150.0 40648.0 36583.0 28010.0 96005.0 96287.0 16317.0 24753.0 51701.0 55609.0 37806.0 44823.0 86456.0 80525.0 189062.0 181404.0 59348.0 65353.0 111710.0 106457.0 26295.0 34050.0 84356.0 85642.0 8462.0 14649.0 92465.0 84722.0 151401.0 152689.0 88172.0 79913.0 290053.0 287316.0 153426.0 146639.0 120290.0 120006.0 38685.0 31033.0 55504.0 47449.0 47626.0 51291.0 117164.0 109436.0 248295.0 250363.0 21542.0 13650.0 33574.0 41333.0 159467.0 152733.0 109230.0 111985.0 155687.0 157487.0 144226.0 142697.0 215176.0 208262.0 131082.0 129575.0 95919.0 98204.0 110218.0 102805.0 120057.0 122273.0 137426.0 136741.0 68479.0 61188.0 78094.0 77631.0 54368.0 49053.0 81038.0 81510.0 157666.0 156971.0 49660.0 57591.0 133369.0 131003.0 150957.0 158359.0 270634.0 277499.0 208423.0 201306.0 178360.0 182528.0 56847.0 57800.0 32517.0 36478.0 132948.0 135206.0 68044.0 60060.0 153911.0 150177.0 110259.0 114485.0 33917.0 30448.0 35202.0 41863.0 241550.0 235539.0 127441.0 122595.0 0.0 8237.0 46469.0 40479.0 124373.0 118956.0 207066.0 213382.0 107288.0 115064.0 92994.0 88891.0 17639.0 9797.0 38777.0 45110.0 63858.0 59033.0 283800.0 275903.0 122918.0 124596.0 50175.0 42529.0 62948.0 70845.0 72282.0 80205.0 127471.0 130820.0 127471.0 127471.0 130820.0 130820.0
174155.0 173378.0 133928.0 140777.0 71995.0 70574.0 1561.0 6700.0 48535.0 40507.0 7238.0 7806.0 119078.0 120068.0 59962.0 66890.0 217059.0 224009.0 32112.0 33190.0 44816.0 36245.0 101617.0 102367.0 24553.0 32989.0 46401.0 49448.0 29760.0 36617.0 80958.0 74591.0 196910.0 189269.0 63026.0 69440.0 114686.0 109035.0 18072.0 25888.0 85625.0 86146.0 16060.0 22874.0 84260.0 76510.0 145585.0 147200.0 81545.0 73286.0 297197.0 294565.0 161151.0 154440.0 114838.0 114144.0 35438.0 27121.0 63512.0 55479.0 51734.0 54325.0 110670.0 103077.0 255494.0 257445.0 21314.0 13535.0 27007.0 34962.0 167360.0 160688.0 104755.0 107026.0 156795.0 158181.0 137152.0 135878.0 222957.0 216094.0 123814.0 122082.0 89989.0 92778.0 102472.0 94963.0 127368.0 129804.0 132161.0 131099.0 63905.0 57050.0 85708.0 85513.0 46644.0 41770.0 79322.0 79008.0 160533.0 159443.0 42888.0 50919.0 125777.0 123229.0 143625.0 150959.0 277543.0 284393.0 216038.0 208977.0 184722.0 189081.0 61674.0 63481.0 40446.0 44679.0 128130.0 130782.0 76144.0 68172.0 146933.0 143436.0 104997.0 108847.0 36889.0 31809.0 39936.0 45753.0 248827.0 242898.0 128018.0 122757.0 8237.0 0.0 54598.0 48705.0 117182.0 111982.0 214125.0 220341.0 113985.0 121837.0 99208.0 95251.0 25865.0 17992.0 43320.0 50306.0 64930.0 59306.0 291353.0 283472.0 130783.0 132597.0 46323.0 39074.0 56635.0 64405.0 64336.0 72317.0 124066.0 136565.0 124066.0 124066.0 136565.0 136565.0
121110.0 119742.0 93134.0 98401.0 120539.0 116836.0 53379.0 61296.0 102445.0 94594.0 56349.0 48705.0 154920.0 153548.0 68258.0 69479.0 163687.0 170879.0 85132.0 83632.0 11562.0 19246.0 66473.0 63333.0 30572.0 22472.0 93302.0 98939.0 84272.0 91184.0 127025.0 122500.0 143187.0 135482.0 51677.0 52894.0 113959.0 111560.0 72630.0 80486.0 99079.0 103835.0 38736.0 31946.0 137888.0 130263.0 182608.0 182146.0 125461.0 117570.0 246955.0 243747.0 108123.0 101031.0 150650.0 152398.0 69424.0 65962.0 9847.0 3303.0 42895.0 50909.0 152789.0 144641.0 205066.0 207687.0 52086.0 50294.0 74692.0 80957.0 113480.0 106556.0 145758.0 150101.0 165425.0 169342.0 182273.0 179391.0 169509.0 162421.0 170399.0 170152.0 129659.0 129496.0 152476.0 145701.0 77306.0 78183.0 166198.0 167462.0 107154.0 99127.0 34643.0 32180.0 97681.0 90957.0 109108.0 112479.0 157321.0 159005.0 89763.0 96737.0 174461.0 173187.0 190346.0 198050.0 229133.0 235638.0 163424.0 156091.0 140161.0 143167.0 42562.0 36584.0 14850.0 10431.0 159618.0 159784.0 21597.0 13601.0 191281.0 186315.0 140140.0 145993.0 44550.0 49980.0 36096.0 42083.0 197974.0 191600.0 141519.0 139058.0 46469.0 54598.0 0.0 7886.0 163391.0 156958.0 164726.0 171519.0 69059.0 75951.0 59382.0 54612.0 29618.0 37272.0 37608.0 34895.0 82959.0 82463.0 238926.0 230972.0 77131.0 78317.0 88367.0 80683.0 106369.0 114354.0 118672.0 126524.0 147836.0 97785.0 147836.0 147836.0 97785.0 97785.0
128439.0 126887.0 100833.0 106188.0 113078.0 109229.0 47594.0 55357.0 97035.0 89082.0 51194.0 43434.0 153698.0 152708.0 60822.0 62428.0 170879.0 178137.0 79981.0 79077.0 4035.0 12518.0 73564.0 70756.0 24220.0 15813.0 85844.0 91657.0 78110.0 85297.0 119379.0 114984.0 150270.0 142548.0 55059.0 57166.0 107864.0 105139.0 66773.0 74495.0 91752.0 96329.0 33290.0 25832.0 132661.0 124968.0 181330.0 181224.0 122599.0 114573.0 254633.0 251368.0 115476.0 108285.0 149404.0 150747.0 67020.0 62711.0 17644.0 10701.0 45143.0 52941.0 150443.0 142350.0 212741.0 215419.0 48845.0 45967.0 70472.0 77156.0 120531.0 113480.0 137906.0 142293.0 158837.0 162571.0 179455.0 176893.0 176671.0 169509.0 167229.0 166645.0 127594.0 127929.0 148443.0 141454.0 85119.0 85853.0 165346.0 166225.0 99433.0 91391.0 42499.0 39737.0 93134.0 86745.0 101255.0 104595.0 151810.0 153213.0 85970.0 93232.0 170819.0 169218.0 187203.0 194842.0 236944.0 243425.0 170813.0 163424.0 148040.0 151053.0 46622.0 41578.0 12032.0 4367.0 159142.0 159702.0 28468.0 20573.0 188652.0 183967.0 138926.0 144489.0 44011.0 48387.0 36379.0 43282.0 205610.0 199187.0 134464.0 131816.0 40479.0 48705.0 7886.0 0.0 160277.0 154075.0 172502.0 179324.0 76891.0 83821.0 66838.0 62091.0 23061.0 30926.0 38559.0 37448.0 75283.0 74644.0 246311.0 238346.0 84352.0 85189.0 80683.0 73038.0 99073.0 107046.0 112277.0 120038.0 148365.0 105378.0 148365.0 148365.0 105378.0 105378.0
265036.0 266770.0 203554.0 211547.0 120200.0 127132.0 117547.0 112145.0 76261.0 83015.0 111816.0 119190.0 40146.0 47712.0 170124.0 178200.0 306670.0 312146.0 86775.0 84025.0 157127.0 149358.0 173276.0 178929.0 139015.0 146594.0 121360.0 114634.0 98033.0 90004.0 130869.0 123007.0 289324.0 282428.0 132829.0 138884.0 220059.0 212901.0 102756.0 98446.0 185544.0 182026.0 128806.0 137004.0 53955.0 58332.0 46234.0 53171.0 38131.0 45832.0 372053.0 370924.0 252990.0 248251.0 40193.0 32154.0 94212.0 97578.0 169379.0 162689.0 131189.0 125283.0 19196.0 24953.0 332141.0 332350.0 111469.0 114830.0 90935.0 83541.0 262311.0 257425.0 155967.0 151473.0 248256.0 246555.0 20253.0 21613.0 312643.0 307258.0 7103.0 11212.0 38935.0 44455.0 23386.0 30795.0 215255.0 220820.0 48726.0 41009.0 132926.0 133444.0 183247.0 186847.0 71314.0 75412.0 163380.0 157670.0 262893.0 259560.0 74879.0 67220.0 16455.0 22272.0 26955.0 34698.0 350913.0 357766.0 302448.0 296901.0 254292.0 260148.0 140595.0 148026.0 148871.0 155912.0 55234.0 63189.0 182191.0 175230.0 30421.0 29401.0 43775.0 36711.0 121056.0 114183.0 130149.0 127769.0 326886.0 322844.0 218544.0 211082.0 124373.0 117182.0 163391.0 160277.0 0.0 8072.0 290320.0 294806.0 195473.0 203013.0 177981.0 176533.0 140591.0 133602.0 130461.0 137310.0 167280.0 159457.0 373322.0 366074.0 227557.0 232095.0 130932.0 130243.0 114012.0 113825.0 86385.0 87043.0 83749.0 203425.0 83749.0 83749.0 203425.0 203425.0
257375.0 259182.0 195601.0 203592.0 119576.0 126210.0 112264.0 107200.0 73115.0 79420.0 106360.0 113595.0 33806.0 41218.0 166211.0 174211.0 298916.0 304349.0 82318.0 78990.0 151012.0 143377.0 165447.0 171169.0 133257.0 140682.0 118938.0 112535.0 94329.0 86520.0 130548.0 122490.0 281670.0 274807.0 125276.0 131249.0 216970.0 209930.0 98235.0 94405.0 182741.0 179527.0 123045.0 131237.0 54467.0 57872.0 44279.0 50408.0 31500.0 39516.0 364098.0 362970.0 245380.0 240714.0 33313.0 25339.0 87604.0 91381.0 162718.0 156159.0 123932.0 117880.0 11738.0 16888.0 324187.0 324396.0 105231.0 108943.0 85400.0 77817.0 254784.0 249973.0 156254.0 152123.0 246648.0 245202.0 25396.0 24221.0 304884.0 299545.0 14764.0 19049.0 31015.0 36386.0 25370.0 31382.0 207626.0 213265.0 43794.0 36630.0 131360.0 131397.0 176086.0 179834.0 66850.0 70294.0 161523.0 156090.0 260309.0 257196.0 69305.0 61461.0 24377.0 29482.0 33823.0 41680.0 342959.0 349812.0 294623.0 289116.0 246337.0 252194.0 133184.0 140693.0 142547.0 149717.0 49326.0 57165.0 175458.0 168601.0 34958.0 32042.0 36032.0 29230.0 114186.0 107473.0 123282.0 120660.0 319044.0 314887.0 216822.0 209482.0 118956.0 111982.0 156958.0 154075.0 8072.0 0.0 282366.0 286852.0 187751.0 195258.0 170272.0 168890.0 134846.0 128021.0 123475.0 130198.0 164075.0 156330.0 365365.0 358131.0 220181.0 224819.0 128253.0 127110.0 112427.0 112803.0 85491.0 86903.0 76242.0 195471.0 76242.0 76242.0 195471.0 195471.0
53379.0 59599.0 86809.0 78827.0 284505.0 281308.0 212627.0 220415.0 255338.0 248772.0 212794.0 206645.0 264287.0 259430.0 227204.0 225222.0 42740.0 40514.0 238070.0 233219.0 176289.0 183398.0 118816.0 114938.0 193431.0 186362.0 257399.0 262342.0 242808.0 247810.0 291585.0 286668.0 50080.0 53568.0 162355.0 155332.0 255483.0 256827.0 230463.0 238396.0 255006.0 261524.0 198605.0 194224.0 286755.0 280199.0 289386.0 285889.0 255461.0 250175.0 83190.0 81170.0 63223.0 71170.0 260858.0 266289.0 208883.0 211338.0 154884.0 162500.0 168953.0 171687.0 273434.0 265954.0 42039.0 43330.0 201097.0 204381.0 223701.0 226336.0 66258.0 73847.0 310231.0 314781.0 307791.0 313941.0 304186.0 298371.0 45194.0 47802.0 297118.0 300260.0 251387.0 246475.0 289674.0 285558.0 87478.0 86958.0 270705.0 275355.0 271858.0 263845.0 130203.0 133005.0 245343.0 237299.0 271633.0 275941.0 286371.0 291473.0 233495.0 237185.0 305518.0 307717.0 314823.0 322552.0 64683.0 70942.0 31804.0 35399.0 40827.0 32890.0 157846.0 153007.0 175696.0 174915.0 261586.0 258935.0 145324.0 152509.0 310449.0 303116.0 251721.0 259413.0 184000.0 191929.0 176975.0 174474.0 36701.0 33285.0 291630.0 291735.0 207066.0 214125.0 164726.0 172502.0 290320.0 282366.0 0.0 7987.0 100710.0 92706.0 117168.0 120294.0 192911.0 199604.0 174508.0 166567.0 243469.0 244795.0 83440.0 76554.0 92430.0 95757.0 253034.0 245298.0 269759.0 277722.0 276932.0 285094.0 245365.0 88159.0 245365.0 245365.0 88159.0 88159.0
61356.0 67585.0 91394.0 83470.0 291001.0 287925.0 218833.0 226576.0 260964.0 254503.0 218842.0 212810.0 268773.0 263915.0 234506.0 232632.0 48387.0 45112.0 243783.0 238784.0 183077.0 190072.0 123867.0 120347.0 199960.0 193001.0 263944.0 268770.0 248841.0 253697.0 298228.0 293203.0 57474.0 61277.0 167535.0 160458.0 263268.0 264555.0 236499.0 244403.0 262476.0 268943.0 204923.0 200708.0 292010.0 285543.0 293871.0 290374.0 259914.0 254794.0 77556.0 76123.0 71069.0 78996.0 265344.0 270775.0 214200.0 216880.0 161688.0 169231.0 174481.0 176956.0 277920.0 270440.0 37500.0 37654.0 206896.0 210372.0 229304.0 231746.0 74243.0 81822.0 317154.0 321616.0 315630.0 321753.0 308672.0 302856.0 50118.0 53622.0 301604.0 304794.0 255872.0 250960.0 294266.0 290313.0 94213.0 94047.0 275191.0 279840.0 278587.0 270592.0 136927.0 139955.0 250733.0 242674.0 278801.0 283022.0 294316.0 299400.0 238772.0 242277.0 310040.0 312204.0 319309.0 327037.0 57626.0 64184.0 37473.0 42028.0 42998.0 35545.0 163354.0 158755.0 182231.0 181650.0 266072.0 263421.0 152361.0 159455.0 314934.0 307602.0 256207.0 263899.0 189663.0 197560.0 182815.0 180081.0 33444.0 31726.0 299314.0 299357.0 213382.0 220341.0 171519.0 179324.0 294806.0 286852.0 7987.0 0.0 106599.0 98638.0 122737.0 126028.0 199476.0 206069.0 180267.0 172350.0 250731.0 251948.0 80486.0 74023.0 99974.0 103476.0 259741.0 251984.0 276176.0 284127.0 282840.0 291006.0 249851.0 92214.0 249851.0 249851.0 92214.0 92214.0
69817.0 72334.0 25448.0 29526.0 185293.0 182733.0 112460.0 120119.0 154713.0 148076.0 112271.0 106374.0 173120.0 168842.0 136664.0 136837.0 111234.0 116919.0 137385.0 132680.0 80181.0 86018.0 23979.0 16851.0 94826.0 88641.0 158509.0 162879.0 142255.0 147119.0 193127.0 187639.0 94107.0 87502.0 63387.0 56826.0 176782.0 175853.0 129916.0 137809.0 166977.0 172259.0 98862.0 95339.0 186743.0 179991.0 199027.0 195702.0 158854.0 152756.0 183896.0 181736.0 58385.0 55033.0 169440.0 174184.0 108928.0 110861.0 59816.0 66227.0 68620.0 72173.0 179862.0 172008.0 142544.0 143995.0 100388.0 103776.0 123122.0 126086.0 68931.0 65800.0 213734.0 217541.0 229710.0 234465.0 210925.0 205725.0 117218.0 111794.0 202468.0 204784.0 156864.0 153035.0 192057.0 187240.0 21188.0 28591.0 180431.0 184689.0 174039.0 166204.0 36088.0 42411.0 145097.0 137103.0 178139.0 181318.0 216239.0 219370.0 133561.0 137816.0 209869.0 211117.0 221084.0 228922.0 163643.0 170489.0 107528.0 101612.0 71547.0 75298.0 57630.0 52341.0 77345.0 78290.0 171398.0 168748.0 54729.0 59646.0 217949.0 211049.0 159766.0 167245.0 83388.0 91348.0 76265.0 73960.0 136354.0 131055.0 208119.0 206425.0 107288.0 113985.0 69059.0 76891.0 195473.0 187751.0 100710.0 106599.0 0.0 8025.0 17514.0 19769.0 94550.0 100567.0 73818.0 65867.0 151847.0 151523.0 180886.0 173255.0 41046.0 48655.0 155171.0 147335.0 170233.0 178131.0 176254.0 184419.0 155178.0 31579.0 155178.0 155178.0 31579.0 31579.0
62710.0 65648.0 21799.0 23958.0 193010.0 190353.0 120317.0 128005.0 162738.0 156093.0 120208.0 114251.0 180059.0 175632.0 143070.0 142946.0 103659.0 109215.0 145404.0 140705.0 87220.0 93314.0 30473.0 24092.0 102367.0 96007.0 166164.0 170627.0 150204.0 155110.0 200735.0 195329.0 86936.0 80513.0 71224.0 64578.0 181847.0 181185.0 137862.0 145766.0 173152.0 178608.0 106625.0 102933.0 194746.0 188005.0 205741.0 202285.0 166547.0 160524.0 175895.0 173716.0 51728.0 49060.0 176430.0 181315.0 116916.0 118884.0 66512.0 73219.0 76629.0 80095.0 187231.0 179419.0 134523.0 136001.0 108399.0 111735.0 131147.0 134099.0 62695.0 60195.0 221083.0 224992.0 234895.0 239818.0 218274.0 212975.0 109630.0 104360.0 209990.0 212404.0 164330.0 160355.0 199867.0 195111.0 16205.0 24207.0 187092.0 191515.0 181542.0 173675.0 42171.0 47804.0 153110.0 145113.0 185051.0 188385.0 220506.0 223863.0 141552.0 145762.0 217509.0 218844.0 228506.0 236334.0 155729.0 162581.0 99731.0 93931.0 64259.0 67699.0 65623.0 60365.0 84799.0 85416.0 177982.0 175331.0 60432.0 65891.0 225183.0 218201.0 166853.0 174381.0 91414.0 99373.0 84270.0 81982.0 128328.0 123040.0 213862.0 212376.0 115064.0 121837.0 75951.0 83821.0 203013.0 195258.0 92706.0 98638.0 8025.0 0.0 25279.0 27776.0 102046.0 108196.0 81838.0 73885.0 158450.0 158352.0 172904.0 165286.0 38028.0 45992.0 162665.0 154837.0 177994.0 185906.0 184240.0 192404.0 161762.0 28701.0 161762.0 161762.0 28701.0 28701.0
87180.0 89421.0 35019.0 41585.0 171041.0 168947.0 97659.0 105094.0 138228.0 131797.0 96905.0 91471.0 156116.0 152016.0 127622.0 128744.0 128746.0 134424.0 121068.0 116066.0 69617.0 74272.0 10588.0 4016.0 81847.0 76547.0 144626.0 148520.0 126722.0 131192.0 179372.0 173515.0 111481.0 104773.0 45947.0 39322.0 171445.0 169775.0 114433.0 122217.0 158459.0 163163.0 84699.0 82098.0 169744.0 163094.0 182271.0 179165.0 141342.0 135264.0 200238.0 198322.0 75497.0 71629.0 152381.0 156979.0 91862.0 94175.0 51276.0 56234.0 51785.0 54881.0 162460.0 154581.0 159146.0 160306.0 84300.0 88265.0 106570.0 109200.0 85665.0 81959.0 201014.0 204407.0 223793.0 228065.0 193531.0 188405.0 134732.0 129278.0 184981.0 187272.0 139408.0 135674.0 174592.0 169837.0 37806.0 44405.0 163755.0 167807.0 160789.0 153116.0 31987.0 39768.0 128214.0 120185.0 167138.0 169750.0 212817.0 215347.0 116503.0 120568.0 192356.0 193611.0 203644.0 211487.0 179525.0 186377.0 124996.0 119121.0 85536.0 90144.0 40683.0 36197.0 65026.0 67409.0 154874.0 152289.0 49998.0 52784.0 200641.0 193812.0 142610.0 150040.0 66937.0 74824.0 60376.0 57344.0 153158.0 148054.0 200702.0 198402.0 92994.0 99208.0 59382.0 66838.0 177981.0 170272.0 117168.0 122737.0 17514.0 25279.0 0.0 4794.0 81787.0 87100.0 57655.0 49813.0 142036.0 140941.0 198061.0 190475.0 54855.0 61685.0 142023.0 134184.0 155789.0 163602.0 160341.0 168507.0 138719.0 38758.0 138719.0 138719.0 38758.0 38758.0
88508.0 90373.0 39419.0 45732.0 166971.0 164762.0 93709.0 101223.0 135051.0 128493.0 93153.0 87548.0 155629.0 151729.0 122860.0 123956.0 130505.0 136370.0 117783.0 112972.0 64904.0 69676.0 14329.0 8801.0 77441.0 71997.0 140455.0 144470.0 123054.0 127701.0 175184.0 169413.0 112791.0 105924.0 43938.0 37650.0 166682.0 164992.0 110739.0 118572.0 153685.0 158411.0 80552.0 77740.0 166975.0 160230.0 182031.0 179130.0 139607.0 133352.0 203445.0 201389.0 76519.0 72212.0 151828.0 156222.0 89164.0 91130.0 46483.0 51474.0 48854.0 52510.0 161326.0 153384.0 162197.0 163523.0 80869.0 84564.0 103431.0 106323.0 86298.0 82194.0 196629.0 200097.0 219009.0 223274.0 192403.0 187436.0 136503.0 130851.0 183562.0 185665.0 138133.0 134655.0 172557.0 167632.0 38742.0 44768.0 163606.0 167449.0 156488.0 148781.0 27628.0 35482.0 125335.0 117337.0 162519.0 165193.0 208137.0 210632.0 113794.0 118096.0 190707.0 191773.0 202389.0 210245.0 182930.0 189783.0 127110.0 121045.0 89488.0 93881.0 37864.0 32729.0 60489.0 62718.0 154871.0 152402.0 45388.0 48027.0 199687.0 192983.0 141938.0 149286.0 63712.0 71653.0 56816.0 54230.0 156073.0 150815.0 195910.0 193618.0 88891.0 95251.0 54612.0 62091.0 176533.0 168890.0 120294.0 126028.0 19769.0 27776.0 4794.0 0.0 77343.0 82794.0 54240.0 46323.0 137316.0 136275.0 200651.0 193013.0 54180.0 60636.0 137695.0 129853.0 151765.0 159605.0 156852.0 165019.0 138832.0 43398.0 138832.0 138832.0 43398.0 43398.0
150555.0 149317.0 116760.0 122924.0 91633.0 88468.0 24872.0 32440.0 74387.0 66369.0 29283.0 21588.0 137939.0 137849.0 52992.0 57502.0 193228.0 200371.0 57678.0 57615.0 19087.0 10548.0 86374.0 85395.0 1610.0 7250.0 64489.0 69687.0 55060.0 62337.0 98805.0 93759.0 172781.0 165084.0 55995.0 60638.0 106137.0 101877.0 43868.0 51501.0 83234.0 86133.0 11801.0 3638.0 110100.0 102360.0 165227.0 165928.0 103655.0 95452.0 275568.0 272567.0 137553.0 130552.0 133634.0 134053.0 50408.0 44278.0 39115.0 31077.0 44110.0 50088.0 132283.0 124369.0 233713.0 236079.0 31416.0 26028.0 49731.0 57061.0 143087.0 136174.0 119325.0 122996.0 153677.0 156356.0 160216.0 158269.0 199066.0 192013.0 147409.0 146254.0 110241.0 111676.0 127297.0 120025.0 105488.0 107053.0 150338.0 150323.0 79498.0 71655.0 62906.0 61529.0 71538.0 65743.0 86259.0 88270.0 151788.0 151970.0 65720.0 73412.0 150195.0 148101.0 167353.0 174854.0 256973.0 263660.0 192779.0 185517.0 166082.0 169744.0 50690.0 49195.0 17275.0 19296.0 145088.0 146617.0 51169.0 43174.0 169725.0 165602.0 123346.0 128185.0 35046.0 35615.0 31650.0 39549.0 226771.0 220551.0 126903.0 123018.0 17639.0 25865.0 29618.0 23061.0 140591.0 134846.0 192911.0 199476.0 94550.0 102046.0 81787.0 77343.0 0.0 7905.0 35170.0 38881.0 64030.0 61182.0 268263.0 260326.0 106687.0 107927.0 60624.0 52792.0 77126.0 85116.0 89231.0 97020.0 137159.0 120399.0 137159.0 137159.0 120399.0 120399.0
157920.0 156812.0 122118.0 128512.0 84936.0 82166.0 17052.0 24540.0 66527.0 58497.0 21878.0 14426.0 132329.0 132562.0 53334.0 58774.0 200672.0 207764.0 49934.0 50189.0 26973.0 18410.0 90999.0 90579.0 6723.0 15120.0 57973.0 62749.0 47184.0 54432.0 92561.0 87179.0 180302.0 172617.0 57574.0 62889.0 107599.0 102857.0 35967.0 43598.0 82535.0 84724.0 6326.0 5435.0 102249.0 94501.0 159424.0 160405.0 97010.0 88770.0 282412.0 279515.0 144911.0 137990.0 128035.0 128123.0 45245.0 38407.0 46594.0 38526.0 45594.0 50605.0 125837.0 118007.0 240588.0 242835.0 26609.0 20020.0 42668.0 50216.0 150639.0 143789.0 113991.0 117309.0 153590.0 155875.0 153350.0 151613.0 206528.0 199525.0 140365.0 139024.0 104155.0 105990.0 119843.0 112487.0 112301.0 114136.0 144958.0 144627.0 73695.0 66023.0 69923.0 68928.0 64016.0 58466.0 82805.0 84187.0 153488.0 153259.0 58746.0 66564.0 142886.0 140638.0 160278.0 167728.0 263481.0 270242.0 200063.0 192855.0 171980.0 175858.0 53501.0 53132.0 24044.0 27064.0 140063.0 141932.0 58864.0 50865.0 162951.0 159022.0 117855.0 122412.0 34155.0 32939.0 32837.0 40378.0 233723.0 227585.0 126098.0 121774.0 9797.0 17992.0 37272.0 30926.0 133602.0 128021.0 199604.0 206069.0 100567.0 108196.0 87100.0 82794.0 7905.0 0.0 36494.0 41544.0 62607.0 58856.0 275517.0 267595.0 114171.0 115575.0 54927.0 47092.0 70176.0 78152.0 81434.0 89260.0 133236.0 125451.0 133236.0 133236.0 125451.0 125451.0
139277.0 139772.0 91601.0 98783.0 115093.0 113891.0 41766.0 48517.0 80930.0 74264.0 39850.0 35552.0 118279.0 116494.0 88154.0 92418.0 182138.0 188527.0 63567.0 59040.0 37576.0 34698.0 58783.0 60409.0 34265.0 34505.0 89709.0 92587.0 69263.0 73539.0 124268.0 117772.0 163092.0 155744.0 21083.0 26627.0 140737.0 136775.0 57068.0 64723.0 118329.0 120958.0 31702.0 33315.0 113732.0 106723.0 145953.0 145112.0 92362.0 85027.0 257676.0 255554.0 126544.0 120781.0 114054.0 116376.0 37253.0 37481.0 40587.0 35653.0 9100.0 15218.0 118068.0 109874.0 216361.0 217757.0 26648.0 31099.0 49436.0 53105.0 134544.0 128867.0 147839.0 150308.0 188840.0 191515.0 148411.0 144808.0 188132.0 181875.0 137558.0 138306.0 94569.0 93486.0 122672.0 116850.0 90120.0 94137.0 129127.0 130798.0 107008.0 99874.0 53143.0 56386.0 71938.0 64112.0 119073.0 120026.0 186069.0 186590.0 61192.0 66624.0 142993.0 142834.0 157259.0 165087.0 237138.0 243990.0 179769.0 173238.0 142895.0 147745.0 18371.0 21511.0 27270.0 35138.0 122268.0 122243.0 52631.0 46574.0 156919.0 151377.0 103548.0 109776.0 9949.0 17871.0 3661.0 4795.0 210126.0 204689.0 161995.0 157951.0 38777.0 43320.0 37608.0 38559.0 130461.0 123475.0 174508.0 180267.0 73818.0 81838.0 57655.0 54240.0 35170.0 36494.0 0.0 7968.0 98816.0 95330.0 254187.0 246457.0 98550.0 102338.0 88909.0 81300.0 99634.0 107245.0 102687.0 110852.0 110237.0 93760.0 110237.0 110237.0 93760.0 93760.0
131442.0 132028.0 83982.0 91078.0 122270.0 120814.0 48745.0 55794.0 88896.0 82209.0 47313.0 42500.0 123619.0 121462.0 91340.0 95019.0 174272.0 180629.0 71521.0 67002.0 37306.0 36245.0 51361.0 52652.0 38246.0 36770.0 96547.0 99731.0 76958.0 81396.0 131218.0 124892.0 155307.0 147988.0 17962.0 21785.0 142768.0 139184.0 64706.0 72437.0 121945.0 125006.0 37469.0 37651.0 121640.0 114656.0 151220.0 150039.0 99291.0 92118.0 249740.0 247600.0 118742.0 113063.0 119441.0 122131.0 44811.0 45397.0 36044.0 32426.0 8047.0 16094.0 124412.0 116227.0 208408.0 209826.0 34546.0 38598.0 57401.0 60973.0 126875.0 121302.0 154339.0 157033.0 191858.0 194823.0 154968.0 151137.0 180267.0 174050.0 144412.0 145377.0 100852.0 99331.0 130113.0 124421.0 82199.0 86309.0 134047.0 136090.0 113580.0 106287.0 45961.0 49750.0 79848.0 71993.0 124340.0 125665.0 187688.0 188543.0 68970.0 74218.0 150127.0 150157.0 164015.0 171862.0 229245.0 236097.0 171840.0 165333.0 135177.0 139944.0 11958.0 13619.0 27521.0 34695.0 126829.0 126376.0 47244.0 41926.0 163302.0 157560.0 108971.0 115436.0 17798.0 25772.0 10596.0 9541.0 202163.0 196721.0 165583.0 161847.0 45110.0 50306.0 34895.0 37448.0 137310.0 130198.0 166567.0 172350.0 65867.0 73885.0 49813.0 46323.0 38881.0 41544.0 7968.0 0.0 102910.0 99914.0 246225.0 238497.0 91033.0 95033.0 95251.0 87548.0 106856.0 114539.0 110548.0 118715.0 113779.0 86341.0 113779.0 113779.0 86341.0 86341.0
194985.0 191779.0 176092.0 181291.0 65220.0 57626.0 65852.0 65403.0 91044.0 84728.0 72108.0 69772.0 178590.0 180821.0 16497.0 21327.0 235054.0 242843.0 83809.0 89639.0 72422.0 68639.0 148205.0 145917.0 64720.0 67050.0 47826.0 55781.0 70060.0 77587.0 64274.0 65032.0 213889.0 206218.0 119845.0 124664.0 52931.0 46124.0 69479.0 70812.0 20705.0 22142.0 68238.0 65520.0 120032.0 112985.0 203280.0 206204.0 137417.0 129669.0 323553.0 319505.0 182610.0 174784.0 174554.0 172336.0 100238.0 91771.0 92030.0 85970.0 107881.0 113204.0 165920.0 159341.0 281920.0 285391.0 85210.0 77146.0 88060.0 95582.0 184819.0 177001.0 71431.0 77992.0 91924.0 93633.0 187414.0 188177.0 240429.0 232672.0 172890.0 168917.0 148656.0 153103.0 147366.0 139052.0 157629.0 156782.0 192192.0 189791.0 45986.0 40146.0 116370.0 111747.0 98495.0 97745.0 29028.0 35117.0 97463.0 95516.0 101226.0 108849.0 171224.0 166278.0 191228.0 197558.0 308141.0 314161.0 237032.0 229192.0 222307.0 224740.0 114685.0 112606.0 78242.0 74677.0 189539.0 193110.0 99004.0 92699.0 197655.0 196053.0 165532.0 168045.0 96609.0 94201.0 95195.0 102898.0 274305.0 267309.0 63636.0 59170.0 63858.0 64930.0 82959.0 75283.0 167280.0 164075.0 243469.0 250731.0 151847.0 158450.0 142036.0 137316.0 64030.0 62607.0 98816.0 102910.0 0.0 7971.0 311493.0 303477.0 151612.0 149867.0 37521.0 37039.0 59863.0 64956.0 87257.0 91519.0 188170.0 180652.0 188170.0 188170.0 180652.0 180652.0
197135.0 194197.0 175363.0 180827.0 58067.0 50687.0 60338.0 59203.0 83255.0 77056.0 66378.0 64686.0 171315.0 173686.0 20413.0 27019.0 237730.0 245451.0 76494.0 82540.0 71493.0 66869.0 146632.0 144759.0 61697.0 64957.0 39868.0 47847.0 62503.0 69901.0 57928.0 58077.0 216590.0 208885.0 116413.0 121545.0 60640.0 53669.0 62525.0 63443.0 27261.0 26843.0 64138.0 62276.0 112062.0 105019.0 195800.0 198835.0 129943.0 122261.0 325472.0 321592.0 184607.0 176859.0 167308.0 164947.0 94310.0 85787.0 91846.0 85332.0 104429.0 109347.0 158332.0 151832.0 283734.0 287023.0 80055.0 71978.0 81409.0 88793.0 187303.0 179564.0 67510.0 73588.0 97651.0 98877.0 179572.0 180406.0 243186.0 235502.0 165030.0 161009.0 141367.0 145976.0 139446.0 131131.0 158346.0 157902.0 184951.0 182416.0 38931.0 32651.0 116507.0 112342.0 91005.0 90515.0 26868.0 31551.0 104749.0 102528.0 94151.0 101677.0 163290.0 158320.0 183316.0 189625.0 309475.0 315627.0 239363.0 231584.0 222456.0 225163.0 111805.0 110262.0 76383.0 73582.0 182480.0 186197.0 99716.0 93025.0 189817.0 188285.0 158400.0 160759.0 92422.0 89480.0 91679.0 99221.0 276216.0 269331.0 68712.0 63592.0 59033.0 59306.0 82463.0 74644.0 159457.0 156330.0 244795.0 251948.0 151523.0 158352.0 140941.0 136275.0 61182.0 58856.0 95330.0 99914.0 7971.0 0.0 314142.0 306124.0 153429.0 152087.0 29556.0 29228.0 52068.0 57375.0 79316.0 83659.0 181724.0 179673.0 181724.0 181724.0 179673.0 179673.0
117896.0 120080.0 169769.0 161775.0 359384.0 355317.0 289922.0 297880.0 335014.0 328059.0 290901.0 284216.0 347281.0 342423.0 294998.0 291514.0 76439.0 68694.0 317488.0 313227.0 250290.0 258133.0 200905.0 196280.0 269013.0 261297.0 332153.0 337857.0 320763.0 326430.0 365307.0 361246.0 97606.0 105280.0 243887.0 237032.0 313258.0 316187.0 308490.0 316506.0 319759.0 327017.0 275423.0 270082.0 367600.0 360779.0 372379.0 368883.0 338149.0 332605.0 32595.0 24611.0 130837.0 138150.0 343852.0 349283.0 289814.0 291541.0 229214.0 237204.0 249474.0 252942.0 356310.0 348915.0 44180.0 47731.0 280407.0 282830.0 303622.0 306903.0 126882.0 134580.0 381299.0 386655.0 362649.0 369669.0 387180.0 381365.0 71127.0 79010.0 380114.0 383280.0 334388.0 329390.0 372095.0 367674.0 164374.0 161549.0 353699.0 358349.0 345053.0 336963.0 205708.0 206776.0 325895.0 317931.0 340431.0 345694.0 336153.0 342466.0 314445.0 318629.0 388511.0 390489.0 397652.0 405328.0 53086.0 48255.0 75502.0 82941.0 123469.0 115871.0 238514.0 232929.0 251503.0 249352.0 344580.0 341929.0 217965.0 225751.0 393443.0 386110.0 334715.0 342407.0 263955.0 271941.0 256313.0 254696.0 47053.0 50478.0 351420.0 352968.0 283800.0 291353.0 238926.0 246311.0 373322.0 365365.0 83440.0 80486.0 180886.0 172904.0 198061.0 200651.0 268263.0 275517.0 254187.0 246225.0 311493.0 314142.0 0.0 8018.0 162071.0 162331.0 326592.0 319110.0 345291.0 353277.0 355295.0 363398.0 328359.0 171494.0 328359.0 328359.0 171494.0 171494.0
109920.0 112068.0 162536.0 154548.0 351415.0 347332.0 282044.0 290006.0 327253.0 320273.0 283059.0 276352.0 340057.0 335200.0 286982.0 283505.0 68423.0 60676.0 309714.0 305497.0 242327.0 250184.0 193464.0 188744.0 261083.0 253353.0 324186.0 329907.0 312905.0 318604.0 357316.0 353271.0 89590.0 97262.0 236339.0 229509.0 305391.0 308285.0 300639.0 308656.0 311768.0 319020.0 267531.0 262160.0 359930.0 353085.0 365156.0 361659.0 330766.0 325165.0 35851.0 27857.0 122870.0 130163.0 336628.0 342059.0 282175.0 283835.0 221268.0 229263.0 241815.0 245355.0 349150.0 341719.0 38769.0 43234.0 272638.0 275010.0 295889.0 299223.0 118866.0 126561.0 373283.0 378642.0 354886.0 361884.0 379956.0 374141.0 63125.0 71022.0 372885.0 375985.0 327140.0 322214.0 364645.0 360169.0 156574.0 153670.0 346475.0 351125.0 337057.0 328967.0 197809.0 198830.0 318207.0 310253.0 332413.0 337675.0 328539.0 334815.0 306799.0 311038.0 381206.0 383117.0 390511.0 398203.0 52321.0 48564.0 67550.0 74954.0 116900.0 109199.0 230875.0 225230.0 243587.0 241400.0 337356.0 334705.0 209991.0 217783.0 386219.0 378886.0 327491.0 335183.0 256240.0 264228.0 248558.0 247007.0 40632.0 43364.0 343523.0 345042.0 275903.0 283472.0 230972.0 238346.0 366074.0 358131.0 76554.0 74023.0 173255.0 165286.0 190475.0 193013.0 260326.0 267595.0 246457.0 238497.0 303477.0 306124.0 8018.0 0.0 154088.0 154320.0 318604.0 311126.0 337340.0 345326.0 347448.0 355546.0 321135.0 164411.0 321135.0 321135.0 164411.0 164411.0
44185.0 42641.0 57329.0 55609.0 197361.0 193247.0 129433.0 137439.0 176851.0 169379.0 131257.0 124087.0 209128.0 205509.0 135224.0 132921.0 86555.0 93785.0 159205.0 156124.0 88356.0 96377.0 63979.0 56086.0 107547.0 99596.0 170144.0 176003.0 160515.0 166853.0 203250.0 199192.0 66146.0 58488.0 95327.0 90104.0 164080.0 164968.0 148473.0 156471.0 162602.0 169192.0 114725.0 108762.0 211263.0 203945.0 235834.0 233136.0 189828.0 182914.0 172044.0 168231.0 31341.0 23940.0 205232.0 209236.0 135791.0 135495.0 67587.0 75649.0 96495.0 102302.0 213413.0 205330.0 130329.0 133802.0 122852.0 123807.0 146585.0 151249.0 36602.0 30363.0 219924.0 224994.0 216894.0 222713.0 244386.0 239870.0 92381.0 85358.0 234649.0 236044.0 189936.0 187163.0 221145.0 215400.0 22372.0 14598.0 217522.0 221117.0 183033.0 174945.0 45875.0 45288.0 169690.0 162123.0 180128.0 184854.0 197982.0 202382.0 159583.0 165175.0 240891.0 241138.0 253949.0 261820.0 156887.0 162699.0 86635.0 79135.0 79946.0 79499.0 87005.0 79547.0 90401.0 87555.0 208913.0 206530.0 55928.0 63779.0 252128.0 245746.0 195156.0 202327.0 108461.0 116207.0 99787.0 100443.0 122787.0 115945.0 199517.0 199418.0 122918.0 130783.0 77131.0 84352.0 227557.0 220181.0 92430.0 99974.0 41046.0 38028.0 54855.0 54180.0 106687.0 114171.0 98550.0 91033.0 151612.0 153429.0 162071.0 154088.0 0.0 8078.0 164528.0 157038.0 183423.0 191398.0 195117.0 203095.0 192960.0 64459.0 192960.0 192960.0 64459.0 64459.0
45121.0 42254.0 65403.0 63584.0 197734.0 193330.0 131296.0 139286.0 179381.0 171780.0 133497.0 126159.0 214690.0 211256.0 133399.0 130635.0 86183.0 93702.0 161777.0 159050.0 89222.0 97475.0 71136.0 63179.0 108885.0 100741.0 170590.0 176708.0 162355.0 168949.0 203206.0 199452.0 65290.0 57541.0 100528.0 95629.0 159855.0 161079.0 150466.0 158422.0 159968.0 166766.0 116559.0 110216.0 214143.0 206731.0 241575.0 239063.0 194208.0 187135.0 173777.0 169640.0 32994.0 25041.0 210744.0 214547.0 139568.0 138822.0 69093.0 77147.0 100906.0 107065.0 218338.0 210219.0 132321.0 136174.0 125871.0 126336.0 149583.0 154561.0 35570.0 28300.0 219028.0 224326.0 212419.0 218412.0 249229.0 244893.0 91854.0 84499.0 239195.0 240367.0 194806.0 192296.0 225001.0 219063.0 30444.0 22661.0 223369.0 226773.0 182873.0 174785.0 49215.0 47361.0 172770.0 165336.0 178611.0 183610.0 192604.0 197213.0 163021.0 168864.0 245146.0 245159.0 258627.0 266493.0 159764.0 165308.0 87282.0 79539.0 86136.0 85153.0 91850.0 84155.0 92155.0 88653.0 214895.0 212656.0 56773.0 64758.0 257140.0 250902.0 200584.0 207660.0 112166.0 119773.0 103326.0 104532.0 124575.0 117480.0 195880.0 196078.0 124596.0 132597.0 78317.0 85189.0 232095.0 224819.0 95757.0 103476.0 48655.0 45992.0 61685.0 60636.0 107927.0 115575.0 102338.0 95033.0 149867.0 152087.0 162331.0 154320.0 8078.0 0.0 164562.0 157199.0 184096.0 192041.0 196878.0 204780.0 199086.0 72531.0 199086.0 199086.0 72531.0 72531.0
208713.0 206719.0 177042.0 183389.0 33864.0 28771.0 47795.0 42994.0 55283.0 50028.0 51901.0 53735.0 145614.0 148662.0 45826.0 53849.0 250721.0 258151.0 51905.0 59077.0 76816.0 69676.0 145769.0 145505.0 60362.0 66797.0 10336.0 18434.0 36822.0 42934.0 38733.0 35153.0 229846.0 222096.0 109179.0 115399.0 89411.0 82091.0 41194.0 39137.0 54625.0 51328.0 57895.0 59962.0 82549.0 75586.0 168988.0 172562.0 103472.0 96213.0 335312.0 332041.0 195820.0 188442.0 141774.0 138707.0 76756.0 68389.0 98213.0 90534.0 97648.0 100629.0 131087.0 125033.0 293421.0 296047.0 67206.0 59789.0 60629.0 66892.0 200130.0 192757.0 59153.0 62411.0 120434.0 120196.0 150909.0 152133.0 256414.0 249036.0 136280.0 131975.0 115786.0 121185.0 110358.0 102036.0 165562.0 166532.0 159351.0 156170.0 18881.0 11099.0 122833.0 120413.0 64906.0 66009.0 36298.0 33922.0 132057.0 129033.0 70452.0 77244.0 134088.0 128943.0 154244.0 160415.0 317315.0 323904.0 251158.0 243651.0 226693.0 230361.0 107021.0 107673.0 77868.0 78121.0 157774.0 162162.0 108721.0 101074.0 161167.0 160021.0 133487.0 135060.0 83168.0 78010.0 85360.0 91768.0 286290.0 279838.0 90517.0 83892.0 50175.0 46323.0 88367.0 80683.0 130932.0 128253.0 253034.0 259741.0 155171.0 162665.0 142023.0 137695.0 60624.0 54927.0 88909.0 95251.0 37521.0 29556.0 326592.0 318604.0 164528.0 164562.0 0.0 7844.0 23636.0 30310.0 49815.0 54506.0 159981.0 180349.0 159981.0 159981.0 180349.0 180349.0
201217.0 199309.0 169203.0 175545.0 40703.0 36217.0 40507.0 36255.0 54028.0 47922.0 44976.0 46323.0 142821.0 145518.0 42537.0 50760.0 243323.0 250721.0 48227.0 54903.0 69146.0 61912.0 137969.0 137670.0 52521.0 59008.0 14459.0 22276.0 33652.0 40755.0 46344.0 42271.0 222489.0 214740.0 101695.0 107839.0 89866.0 82839.0 35901.0 35164.0 55894.0 53668.0 50143.0 52118.0 83791.0 76518.0 166880.0 170119.0 101084.0 93549.0 327638.0 324405.0 188305.0 180966.0 138886.0 136217.0 70743.0 62269.0 90525.0 82807.0 90093.0 93262.0 129258.0 122886.0 285749.0 288338.0 60182.0 52598.0 55412.0 62134.0 192757.0 185429.0 66945.0 70254.0 123930.0 124151.0 150375.0 151178.0 249036.0 241693.0 135856.0 131950.0 112887.0 117884.0 110439.0 102136.0 157821.0 158864.0 156517.0 153699.0 26706.0 18932.0 115096.0 112775.0 62188.0 62387.0 41469.0 40180.0 133623.0 131040.0 66466.0 73641.0 134350.0 129597.0 154267.0 160673.0 309548.0 316153.0 243651.0 236173.0 218853.0 222534.0 99350.0 99897.0 70043.0 70402.0 154485.0 158571.0 101176.0 93483.0 160615.0 159058.0 130267.0 132254.0 75786.0 70866.0 77731.0 84250.0 278643.0 272221.0 94179.0 87929.0 42529.0 39074.0 80683.0 73038.0 130243.0 127110.0 245298.0 251984.0 147335.0 154837.0 134184.0 129853.0 52792.0 47092.0 81300.0 87548.0 37039.0 29228.0 319110.0 311126.0 157038.0 157199.0 7844.0 0.0 28748.0 36135.0 52325.0 57879.0 155476.0 172526.0 155476.0 155476.0 172526.0 172526.0
227473.0 225949.0 190558.0 197371.0 15509.0 16737.0 58192.0 51116.0 42824.0 40777.0 59909.0 64423.0 133875.0 137914.0 69414.0 77373.0 269950.0 277206.0 47343.0 55298.0 95067.0 87159.0 158210.0 158985.0 76476.0 84008.0 14291.0 7440.0 33672.0 35192.0 25962.0 18387.0 249298.0 241565.0 118272.0 125053.0 109690.0 102056.0 43941.0 37907.0 74480.0 69625.0 71372.0 75579.0 62507.0 56347.0 155090.0 159523.0 91445.0 85226.0 352586.0 349661.0 214491.0 207352.0 130370.0 126212.0 78626.0 71247.0 116082.0 108115.0 107622.0 108974.0 116930.0 111831.0 310758.0 313005.0 74610.0 68636.0 60450.0 64452.0 219548.0 212392.0 52891.0 53014.0 134271.0 132786.0 133427.0 135572.0 275735.0 268533.0 118709.0 113615.0 104918.0 111412.0 92070.0 83856.0 182475.0 184179.0 147551.0 143385.0 18936.0 20516.0 140011.0 138517.0 55825.0 59714.0 49476.0 43680.0 150048.0 146192.0 65017.0 70073.0 115135.0 109301.0 135585.0 141259.0 333512.0 340330.0 269791.0 262457.0 241253.0 245473.0 117993.0 120110.0 94173.0 95941.0 147339.0 152607.0 127527.0 119644.0 143634.0 143404.0 123214.0 123525.0 92144.0 85580.0 96378.0 101567.0 303867.0 297674.0 104532.0 97095.0 62948.0 56635.0 106369.0 99073.0 114012.0 112427.0 269759.0 276176.0 170233.0 177994.0 155789.0 151765.0 77126.0 70176.0 99634.0 106856.0 59863.0 52068.0 345291.0 337340.0 183423.0 184096.0 23636.0 28748.0 0.0 7991.0 28607.0 31768.0 153652.0 193176.0 153652.0 153652.0 193176.0 193176.0
235455.0 233915.0 198328.0 205178.0 8763.0 13449.0 65959.0 58751.0 46078.0 45301.0 67441.0 72174.0 135881.0 140275.0 75601.0 83392.0 277918.0 285182.0 52937.0 60853.0 103043.0 95147.0 165900.0 166772.0 84464.0 91998.0 21812.0 15430.0 40166.0 40485.0 20386.0 12006.0 257255.0 249521.0 125634.0 132472.0 113183.0 105437.0 51065.0 44575.0 78084.0 72621.0 79282.0 83558.0 61030.0 55571.0 156101.0 160879.0 93695.0 87959.0 360564.0 357647.0 222474.0 215328.0 132527.0 127964.0 85031.0 77920.0 124070.0 116105.0 115126.0 116264.0 118044.0 113396.0 318738.0 320974.0 81948.0 76187.0 66703.0 70131.0 227504.0 220336.0 47954.0 47125.0 134741.0 132782.0 132826.0 135438.0 283700.0 276490.0 118146.0 112643.0 107473.0 114310.0 91320.0 83260.0 190453.0 192169.0 149460.0 144919.0 20607.0 24825.0 147999.0 146504.0 59831.0 64484.0 51186.0 44572.0 152209.0 147989.0 69913.0 74359.0 113803.0 107574.0 134318.0 139671.0 341446.0 348276.0 277777.0 270439.0 249092.0 253353.0 125585.0 127847.0 102156.0 103926.0 149768.0 155331.0 135495.0 127618.0 142958.0 143204.0 125843.0 125676.0 99582.0 92869.0 104030.0 109069.0 311852.0 305664.0 105311.0 97646.0 70845.0 64405.0 114354.0 107046.0 113825.0 112803.0 277722.0 284127.0 178131.0 185906.0 163602.0 159605.0 85116.0 78152.0 107245.0 114539.0 64956.0 57375.0 353277.0 345326.0 191398.0 192041.0 30310.0 36135.0 7991.0 0.0 27444.0 28523.0 157491.0 200878.0 157491.0 157491.0 200878.0 200878.0
238390.0 237701.0 193976.0 201322.0 34148.0 40765.0 65685.0 57679.0 25702.0 29516.0 64400.0 71167.0 109819.0 114661.0 94836.0 103034.0 281330.0 288225.0 40039.0 46666.0 108275.0 99777.0 160889.0 163058.0 88155.0 96480.0 39479.0 31479.0 34617.0 29152.0 45435.0 37153.0 261237.0 253601.0 118136.0 125291.0 138094.0 130514.0 46814.0 38794.0 102900.0 98211.0 80395.0 86726.0 33936.0 28141.0 129057.0 134079.0 68309.0 63515.0 360121.0 357786.0 225396.0 218748.0 106673.0 101640.0 72889.0 67722.0 127786.0 119730.0 109203.0 108437.0 91154.0 86939.0 318623.0 320239.0 76046.0 72611.0 55164.0 55556.0 231695.0 225007.0 72234.0 69428.0 162102.0 160219.0 105413.0 107998.0 287241.0 280412.0 90722.0 85326.0 82406.0 89768.0 63920.0 55827.0 191004.0 193823.0 123230.0 118312.0 47101.0 49028.0 149895.0 149848.0 39985.0 46790.0 77883.0 71682.0 178638.0 174711.0 52222.0 54308.0 86663.0 80714.0 107151.0 112713.0 339782.0 346555.0 280120.0 273142.0 245421.0 250407.0 120256.0 124165.0 104764.0 108496.0 124204.0 130183.0 140268.0 132272.0 115563.0 115760.0 100725.0 99853.0 93615.0 85949.0 100037.0 103328.0 312171.0 306451.0 132565.0 124968.0 72282.0 64336.0 118672.0 112277.0 86385.0 85491.0 276932.0 282840.0 176254.0 184240.0 160341.0 156852.0 89231.0 81434.0 102687.0 110548.0 87257.0 79316.0 355295.0 347448.0 195117.0 196878.0 49815.0 52325.0 28607.0 27444.0 0.0 8167.0 134550.0 195588.0 134550.0 134550.0 195588.0 195588.0
246431.0 245695.0 202120.0 209475.0 33507.0 41016.0 73686.0 65683.0 33062.0 37479.0 72520.0 79227.0 113028.0 118242.0 100117.0 108240.0 289358.0 296274.0 48084.0 54538.0 116026.0 107557.0 169027.0 171219.0 95975.0 104262.0 44272.0 36102.0 42661.0 37319.0 43832.0 36129.0 269226.0 261582.0 126214.0 133376.0 141291.0 133604.0 54908.0 46893.0 106099.0 100936.0 88372.0 94582.0 33284.0 29056.0 130943.0 136349.0 72404.0 68311.0 368283.0 365939.0 233434.0 226755.0 110089.0 104623.0 80767.0 75766.0 135700.0 127637.0 117345.0 116512.0 93460.0 89862.0 326778.0 328402.0 84210.0 80760.0 63185.0 63296.0 239661.0 232937.0 69452.0 65831.0 162771.0 160491.0 105410.0 108581.0 295263.0 288411.0 90845.0 84929.0 86596.0 94244.0 64001.0 56248.0 199127.0 201908.0 126218.0 120893.0 49054.0 52189.0 157943.0 157815.0 47032.0 54169.0 79708.0 73022.0 180731.0 176493.0 59521.0 61030.0 85767.0 79292.0 106276.0 111411.0 347949.0 354722.0 288200.0 281204.0 253571.0 258568.0 128404.0 132332.0 112712.0 116305.0 127786.0 134054.0 148120.0 140122.0 115422.0 116221.0 104752.0 103332.0 101767.0 94087.0 108204.0 111478.0 320318.0 314588.0 133554.0 125797.0 80205.0 72317.0 126524.0 120038.0 87043.0 86903.0 285094.0 291006.0 184419.0 192404.0 168507.0 165019.0 97020.0 89260.0 110852.0 118715.0 91519.0 83659.0 363398.0 355546.0 203095.0 204780.0 54506.0 57879.0 31768.0 28523.0 8167.0 0.0 139846.0 203707.0 139846.0 139846.0 203707.0 203707.0
224357.0 227389.0 158600.0 166591.0 165956.0 170149.0 123436.0 122800.0 111434.0 112936.0 116844.0 121091.0 45843.0 38771.0 183973.0 190633.0 263929.0 268701.0 108311.0 100915.0 146755.0 141709.0 131325.0 138409.0 135648.0 140215.0 153675.0 150345.0 123494.0 119091.0 177758.0 169228.0 248445.0 242216.0 100929.0 104309.0 238750.0 233058.0 119700.0 120848.0 208797.0 208225.0 126955.0 133796.0 114021.0 112529.0 65346.0 60282.0 67138.0 69266.0 327097.0 325969.0 213451.0 210164.0 44275.0 52073.0 88850.0 96959.0 149818.0 145762.0 105814.0 97865.0 64593.0 60608.0 287186.0 287395.0 106667.0 113965.0 100394.0 93350.0 224102.0 220667.0 205338.0 203519.0 279075.0 279587.0 89757.0 82210.0 269783.0 265195.0 88720.0 94953.0 53939.0 45598.0 96105.0 97414.0 176257.0 183114.0 46895.0 53539.0 170653.0 167380.0 154464.0 160365.0 97835.0 94554.0 196277.0 193212.0 284593.0 283373.0 89706.0 83699.0 100102.0 105724.0 101167.0 107939.0 305958.0 312811.0 258629.0 253719.0 209336.0 215192.0 110802.0 118974.0 136518.0 144566.0 36893.0 31861.0 160498.0 155671.0 92852.0 84514.0 40422.0 47048.0 104539.0 101763.0 112043.0 105770.0 282043.0 277881.0 249526.0 243402.0 127471.0 124066.0 147836.0 148365.0 83749.0 76242.0 245365.0 249851.0 155178.0 161762.0 138719.0 138832.0 137159.0 133236.0 110237.0 113779.0 188170.0 181724.0 328359.0 321135.0 192960.0 199086.0 159981.0 155476.0 153652.0 157491.0 134550.0 139846.0 0.0 158470.0 0.0 0.0 158470.0 158470.0
75676.0 80817.0 7151.0 11757.0 208560.0 206844.0 135005.0 142135.0 172222.0 166420.0 133594.0 128765.0 177392.0 172534.0 166018.0 166783.0 110557.0 114448.0 155705.0 149917.0 108273.0 113029.0 34986.0 35028.0 120401.0 115283.0 182518.0 186013.0 162894.0 166617.0 217268.0 211139.0 97988.0 93095.0 77703.0 70508.0 207941.0 206777.0 150783.0 158330.0 196710.0 201614.0 122677.0 120562.0 201470.0 195359.0 202490.0 198994.0 168584.0 163413.0 170417.0 168223.0 68145.0 68493.0 173963.0 179394.0 124359.0 128140.0 89199.0 94711.0 86491.0 87390.0 186539.0 179059.0 129679.0 129575.0 119965.0 124850.0 140747.0 142168.0 80125.0 80081.0 239442.0 242642.0 260732.0 265317.0 217291.0 211476.0 116178.0 112592.0 210223.0 213414.0 164492.0 159580.0 202888.0 198964.0 42206.0 49871.0 183810.0 188460.0 199028.0 191448.0 66901.0 73696.0 160920.0 152851.0 205896.0 208479.0 247775.0 250835.0 148561.0 151405.0 218659.0 220823.0 227928.0 235656.0 149265.0 156118.0 104040.0 100037.0 50865.0 57106.0 75595.0 73098.0 103757.0 106109.0 174691.0 172040.0 85675.0 89876.0 223554.0 216221.0 164826.0 172518.0 102177.0 109679.0 96878.0 92464.0 124850.0 121060.0 238506.0 236487.0 130820.0 136565.0 97785.0 105378.0 203425.0 195471.0 88159.0 92214.0 31579.0 28701.0 38758.0 43398.0 120399.0 125451.0 93760.0 86341.0 180652.0 179673.0 171494.0 164411.0 64459.0 72531.0 180349.0 172526.0 193176.0 200878.0 195588.0 203707.0 158470.0 0.0 158470.0 158470.0 0.0 0.0
224357.0 227389.0 158600.0 166591.0 165956.0 170149.0 123436.0 122800.0 111434.0 112936.0 116844.0 121091.0 45843.0 38771.0 183973.0 190633.0 263929.0 268701.0 108311.0 100915.0 146755.0 141709.0 131325.0 138409.0 135648.0 140215.0 153675.0 150345.0 123494.0 119091.0 177758.0 169228.0 248445.0 242216.0 100929.0 104309.0 238750.0 233058.0 119700.0 120848.0 208797.0 208225.0 126955.0 133796.0 114021.0 112529.0 65346.0 60282.0 67138.0 69266.0 327097.0 325969.0 213451.0 210164.0 44275.0 52073.0 88850.0 96959.0 149818.0 145762.0 105814.0 97865.0 64593.0 60608.0 287186.0 287395.0 106667.0 113965.0 100394.0 93350.0 224102.0 220667.0 205338.0 203519.0 279075.0 279587.0 89757.0 82210.0 269783.0 265195.0 88720.0 94953.0 53939.0 45598.0 96105.0 97414.0 176257.0 183114.0 46895.0 53539.0 170653.0 167380.0 154464.0 160365.0 97835.0 94554.0 196277.0 193212.0 284593.0 283373.0 89706.0 83699.0 100102.0 105724.0 101167.0 107939.0 305958.0 312811.0 258629.0 253719.0 209336.0 215192.0 110802.0 118974.0 136518.0 144566.0 36893.0 31861.0 160498.0 155671.0 92852.0 84514.0 40422.0 47048.0 104539.0 101763.0 112043.0 105770.0 282043.0 277881.0 249526.0 243402.0 127471.0 124066.0 147836.0 148365.0 83749.0 76242.0 245365.0 249851.0 155178.0 161762.0 138719.0 138832.0 137159.0 133236.0 110237.0 113779.0 188170.0 181724.0 328359.0 321135.0 192960.0 199086.0 159981.0 155476.0 153652.0 157491.0 134550.0 139846.0 0.0 158470.0 0.0 0.0 158470.0 158470.0
224357.0 227389.0 158600.0 166591.0 165956.0 170149.0 123436.0 122800.0 111434.0 112936.0 116844.0 121091.0 45843.0 38771.0 183973.0 190633.0 263929.0 268701.0 108311.0 100915.0 146755.0 141709.0 131325.0 138409.0 135648.0 140215.0 153675.0 150345.0 123494.0 119091.0 177758.0 169228.0 248445.0 242216.0 100929.0 104309.0 238750.0 233058.0 119700.0 120848.0 208797.0 208225.0 126955.0 133796.0 114021.0 112529.0 65346.0 60282.0 67138.0 69266.0 327097.0 325969.0 213451.0 210164.0 44275.0 52073.0 88850.0 96959.0 149818.0 145762.0 105814.0 97865.0 64593.0 60608.0 287186.0 287395.0 106667.0 113965.0 100394.0 93350.0 224102.0 220667.0 205338.0 203519.0 279075.0 279587.0 89757.0 82210.0 269783.0 265195.0 88720.0 94953.0 53939.0 45598.0 96105.0 97414.0 176257.0 183114.0 46895.0 53539.0 170653.0 167380.0 154464.0 160365.0 97835.0 94554.0 196277.0 193212.0 284593.0 283373.0 89706.0 83699.0 100102.0 105724.0 101167.0 107939.0 305958.0 312811.0 258629.0 253719.0 209336.0 215192.0 110802.0 118974.0 136518.0 144566.0 36893.0 31861.0 160498.0 155671.0 92852.0 84514.0 40422.0 47048.0 104539.0 101763.0 112043.0 105770.0 282043.0 277881.0 249526.0 243402.0 127471.0 124066.0 147836.0 148365.0 83749.0 76242.0 245365.0 249851.0 155178.0 161762.0 138719.0 138832.0 137159.0 133236.0 110237.0 113779.0 188170.0 181724.0 328359.0 321135.0 192960.0 199086.0 159981.0 155476.0 153652.0 157491.0 134550.0 139846.0 0.0 158470.0 0.0 0.0 158470.0 158470.0
75676.0 80817.0 7151.0 11757.0 208560.0 206844.0 135005.0 142135.0 172222.0 166420.0 133594.0 128765.0 177392.0 172534.0 166018.0 166783.0 110557.0 114448.0 155705.0 149917.0 108273.0 113029.0 34986.0 35028.0 120401.0 115283.0 182518.0 186013.0 162894.0 166617.0 217268.0 211139.0 97988.0 93095.0 77703.0 70508.0 207941.0 206777.0 150783.0 158330.0 196710.0 201614.0 122677.0 120562.0 201470.0 195359.0 202490.0 198994.0 168584.0 163413.0 170417.0 168223.0 68145.0 68493.0 173963.0 179394.0 124359.0 128140.0 89199.0 94711.0 86491.0 87390.0 186539.0 179059.0 129679.0 129575.0 119965.0 124850.0 140747.0 142168.0 80125.0 80081.0 239442.0 242642.0 260732.0 265317.0 217291.0 211476.0 116178.0 112592.0 210223.0 213414.0 164492.0 159580.0 202888.0 198964.0 42206.0 49871.0 183810.0 188460.0 199028.0 191448.0 66901.0 73696.0 160920.0 152851.0 205896.0 208479.0 247775.0 250835.0 148561.0 151405.0 218659.0 220823.0 227928.0 235656.0 149265.0 156118.0 104040.0 100037.0 50865.0 57106.0 75595.0 73098.0 103757.0 106109.0 174691.0 172040.0 85675.0 89876.0 223554.0 216221.0 164826.0 172518.0 102177.0 109679.0 96878.0 92464.0 124850.0 121060.0 238506.0 236487.0 130820.0 136565.0 97785.0 105378.0 203425.0 195471.0 88159.0 92214.0 31579.0 28701.0 38758.0 43398.0 120399.0 125451.0 93760.0 86341.0 180652.0 179673.0 171494.0 164411.0 64459.0 72531.0 180349.0 172526.0 193176.0 200878.0 195588.0 203707.0 158470.0 0.0 158470.0 158470.0 0.0 0.0
75676.0 80817.0 7151.0 11757.0 208560.0 206844.0 135005.0 142135.0 172222.0 166420.0 133594.0 128765.0 177392.0 172534.0 166018.0 166783.0 110557.0 114448.0 155705.0 149917.0 108273.0 113029.0 34986.0 35028.0 120401.0 115283.0 182518.0 186013.0 162894.0 166617.0 217268.0 211139.0 97988.0 93095.0 77703.0 70508.0 207941.0 206777.0 150783.0 158330.0 196710.0 201614.0 122677.0 120562.0 201470.0 195359.0 202490.0 198994.0 168584.0 163413.0 170417.0 168223.0 68145.0 68493.0 173963.0 179394.0 124359.0 128140.0 89199.0 94711.0 86491.0 87390.0 186539.0 179059.0 129679.0 129575.0 119965.0 124850.0 140747.0 142168.0 80125.0 80081.0 239442.0 242642.0 260732.0 265317.0 217291.0 211476.0 116178.0 112592.0 210223.0 213414.0 164492.0 159580.0 202888.0 198964.0 42206.0 49871.0 183810.0 188460.0 199028.0 191448.0 66901.0 73696.0 160920.0 152851.0 205896.0 208479.0 247775.0 250835.0 148561.0 151405.0 218659.0 220823.0 227928.0 235656.0 149265.0 156118.0 104040.0 100037.0 50865.0 57106.0 75595.0 73098.0 103757.0 106109.0 174691.0 172040.0 85675.0 89876.0 223554.0 216221.0 164826.0 172518.0 102177.0 109679.0 96878.0 92464.0 124850.0 121060.0 238506.0 236487.0 130820.0 136565.0 97785.0 105378.0 203425.0 195471.0 88159.0 92214.0 31579.0 28701.0 38758.0 43398.0 120399.0 125451.0 93760.0 86341.0 180652.0 179673.0 171494.0 164411.0 64459.0 72531.0 180349.0 172526.0 193176.0 200878.0 195588.0 203707.0 158470.0 0.0 158470.0 158470.0 0.0 0.0
FIXED_EDGES_SECTION
1 2
3 4
5 6
7 8
9 10
11 12
13 14
15 16
17 18
19 20
21 22
23 24
25 26
27 28
29 30
31 32
33 34
35 36
37 38
39 40
41 42
43 44
45 46
47 48
49 50
51 52
53 54
55 56
57 58
59 60
61 62
63 64
65 66
67 68
69 70
71 72
73 74
75 76
77 78
79 80
81 82
83 84
85 86
87 88
89 90
91 92
93 94
95 96
97 98
99 100
101 102
103 104
105 106
107 108
109 110
111 112
113 114
115 116
117 118
119 120
121 122
123 124
125 126
127 128
129 130
131 132
133 134
135 136
137 138
139 140
141 142
143 144
145 146
147 148
149 150
151 152
153 154
155 156
157 158
159 160
-1 
DEMAND_SECTION
1 620
2 620
3 37
4 37
5 211
6 211
7 256
8 256
9 583
10 583
11 191
12 191
13 341
14 341
15 112
16 112
17 350
18 350
19 341
20 341
21 271
22 271
23 100
24 100
25 279
26 279
27 211
28 211
29 349
30 349
31 217
32 217
33 244
34 244
35 75
36 75
37 277
38 277
39 96
40 96
41 157
42 157
43 94
44 94
45 497
46 497
47 369
48 369
49 155
50 155
51 491
52 491
53 319
54 319
55 104
56 104
57 94
58 94
59 158
60 158
61 373
62 373
63 396
64 396
65 60
66 60
67 114
68 114
69 119
70 119
71 336
72 336
73 68
74 68
75 138
76 138
77 216
78 216
79 268
80 268
81 274
82 274
83 100
84 100
85 375
86 375
87 313
88 313
89 292
90 292
91 479
92 479
93 342
94 342
95 293
96 293
97 72
98 72
99 120
100 120
101 207
102 207
103 500
104 500
105 316
106 316
107 280
108 280
109 341
110 341
111 114
112 114
113 324
114 324
115 177
116 177
117 97
118 97
119 130
120 130
121 251
122 251
123 618
124 618
125 432
126 432
127 214
128 214
129 322
130 322
131 380
132 380
133 89
134 89
135 291
136 291
137 379
138 379
139 184
140 184
141 371
142 371
143 399
144 399
145 90
146 90
147 80
148 80
149 180
150 180
151 229
152 229
153 84
154 84
155 82
156 82
157 90
158 90
159 247
160 247
161 0
162 0
163 0
164 0
165 0
166 0
DEPOT_SECTION
161 
-1 
CAPACITIES_SECTION
20000 
22000 
24000 
26000 
-1 
EOF