NAME: GFS_20_1
TYPE: GFSP
DIMENSION: 166
VEHICLES: 4
CAPACITY: 20000.0
TRIP_DIST_LIMIT: 1050000.0
TOTAL_DIST_LIMIT: 1050000.0
EDGE_WEIGHT_TYPE: EXPLICIT
EDGE_WEIGHT_FORMAT: FULL_MATRIX
EDGE_WEIGHT_SECTION
0.0 8071.0 47493.0 41196.0 172627.0 176813.0 99717.0 107122.0 51276.0 46483.0 120565.0 118627.0 220012.0 211791.0 103090.0 108646.0 195225.0 197840.0 153717.0 146422.0 39115.0 46594.0 136244.0 128428.0 96695.0 103351.0 187910.0 184689.0 59143.0 55279.0 169678.0 171383.0 104047.0 97241.0 159960.0 152933.0 93267.0 99951.0 46183.0 38332.0 194300.0 186089.0 130631.0 133515.0 84563.0 78158.0 116082.0 124070.0 84281.0 89278.0 148422.0 142621.0 58884.0 58055.0 176433.0 176537.0 55504.0 63512.0 16972.0 23057.0 105279.0 98275.0 8190.0 16588.0 39556.0 33681.0 237113.0 233920.0 41135.0 33952.0 159428.0 152877.0 219305.0 225799.0 98453.0 91438.0 110790.0 103046.0 137575.0 140201.0 172654.0 167202.0 151139.0 150093.0 50910.0 50772.0 17827.0 9456.0 154884.0 161688.0 39914.0 44550.0 67587.0 69093.0 44011.0 52002.0 146000.0 138448.0 133708.0 126023.0 162681.0 162379.0 118579.0 122098.0 188143.0 181786.0 197519.0 204468.0 141517.0 143299.0 152874.0 155194.0 88839.0 83200.0 224730.0 224461.0 131294.0 123574.0 72345.0 79359.0 196699.0 191436.0 125535.0 122848.0 229214.0 221268.0 144121.0 150280.0 163005.0 165074.0 133145.0 139756.0 105116.0 105875.0 98744.0 106914.0 67479.0 68347.0 154117.0 161259.0 168268.0 164865.0 36012.0 42326.0 9847.0 17644.0 174327.0 168210.0 81430.0 89362.0 155548.0 159928.0 23100.0 20184.0 180977.0 180037.0 154631.0 156830.0 39960.0 32086.0 149818.0 89199.0 149818.0 149818.0 89199.0 89199.0
8071.0 0.0 39482.0 33126.0 168717.0 172619.0 92009.0 99483.0 56234.0 51474.0 117262.0 114858.0 228019.0 219797.0 95211.0 100677.0 202998.0 205533.0 161714.0 154441.0 31077.0 38526.0 131063.0 123175.0 89457.0 96284.0 181431.0 178414.0 63223.0 60173.0 164581.0 165989.0 112117.0 105308.0 168017.0 161000.0 85226.0 91961.0 54178.0 46240.0 201777.0 193584.0 137464.0 140576.0 77582.0 71450.0 108115.0 116105.0 90135.0 95495.0 141647.0 136035.0 51668.0 50388.0 169719.0 169623.0 47449.0 55479.0 10343.0 18022.0 97723.0 90846.0 6601.0 12284.0 31853.0 25686.0 244880.0 241751.0 39623.0 33458.0 152206.0 145539.0 226827.0 233380.0 106475.0 99489.0 102932.0 95150.0 135301.0 137489.0 168017.0 162809.0 158616.0 157725.0 48880.0 49879.0 9818.0 2204.0 162500.0 169231.0 34401.0 40002.0 75649.0 77147.0 40463.0 48504.0 138238.0 130655.0 141776.0 134092.0 157869.0 157896.0 111913.0 115166.0 195964.0 189656.0 205307.0 212296.0 134990.0 136501.0 144985.0 147226.0 81584.0 76223.0 232460.0 232106.0 124681.0 116858.0 64336.0 71414.0 190354.0 185272.0 133135.0 130601.0 237204.0 229263.0 138676.0 144636.0 160598.0 162298.0 125293.0 131846.0 98203.0 99318.0 91999.0 100185.0 75032.0 76170.0 162170.0 169297.0 162274.0 158641.0 32578.0 39909.0 3303.0 10701.0 166285.0 160150.0 73428.0 81344.0 148208.0 152445.0 15140.0 12419.0 173992.0 172872.0 149191.0 151094.0 31900.0 24108.0 145762.0 94711.0 145762.0 145762.0 94711.0 94711.0
47493.0 39482.0 0.0 8199.0 159522.0 161691.0 53630.0 61386.0 84699.0 80552.0 113853.0 109046.0 266389.0 258155.0 59929.0 64018.0 239840.0 241902.0 200069.0 192979.0 11801.0 6326.0 106094.0 98135.0 53946.0 61615.0 148416.0 146476.0 87949.0 88037.0 139038.0 138847.0 151300.0 144634.0 206917.0 200041.0 45812.0 52486.0 93660.0 85696.0 237097.0 228911.0 169995.0 174119.0 44464.0 40935.0 71372.0 79282.0 119645.0 126259.0 107605.0 103110.0 20395.0 14296.0 135633.0 134540.0 8462.0 16060.0 32019.0 32098.0 60099.0 54093.0 41714.0 36044.0 10523.0 13816.0 281594.0 278867.0 49353.0 49794.0 115737.0 108555.0 262182.0 269042.0 145128.0 138393.0 63801.0 55897.0 136224.0 136041.0 154657.0 151049.0 194027.0 193933.0 52658.0 58309.0 29672.0 38080.0 198605.0 204923.0 28052.0 35255.0 114725.0 116559.0 40743.0 45225.0 99382.0 91703.0 180854.0 173211.0 134015.0 135790.0 87389.0 88354.0 233104.0 227106.0 242231.0 249447.0 110487.0 109929.0 105696.0 107770.0 46286.0 43232.0 268983.0 268134.0 91860.0 83653.0 24855.0 32055.0 157924.0 153818.0 169321.0 167584.0 275423.0 267531.0 111975.0 116666.0 159759.0 159479.0 89734.0 95544.0 72511.0 76475.0 59566.0 67472.0 111612.0 113882.0 201022.0 207992.0 132032.0 127251.0 38317.0 45729.0 38736.0 33290.0 126861.0 120836.0 33946.0 41870.0 117041.0 119996.0 24404.0 29103.0 138521.0 136541.0 122206.0 122463.0 10213.0 18087.0 126955.0 122677.0 126955.0 126955.0 122677.0 122677.0
41196.0 33126.0 8199.0 0.0 155765.0 158295.0 61503.0 69312.0 82098.0 77740.0 108746.0 104323.0 260956.0 252728.0 63278.0 68148.0 235180.0 237445.0 194630.0 187424.0 3638.0 5435.0 113667.0 105687.0 62143.0 69813.0 156610.0 154644.0 86268.0 85626.0 146751.0 146707.0 145243.0 138414.0 201111.0 194118.0 52373.0 59471.0 87115.0 79009.0 233024.0 224856.0 166800.0 170614.0 52563.0 48744.0 75579.0 83558.0 117113.0 123427.0 115804.0 111291.0 27840.0 22393.0 143831.0 142717.0 14649.0 22874.0 27074.0 29153.0 68124.0 62236.0 36269.0 31821.0 11320.0 8890.0 277008.0 274098.0 49572.0 48655.0 123837.0 116604.0 258141.0 264886.0 139483.0 132571.0 71287.0 63302.0 130563.0 130758.0 151746.0 147778.0 189907.0 189506.0 54325.0 59276.0 23523.0 31994.0 194224.0 200708.0 29715.0 37514.0 108762.0 110216.0 42364.0 47969.0 106968.0 99248.0 174897.0 167216.0 141542.0 143121.0 86858.0 88551.0 228305.0 222159.0 237535.0 244651.0 110144.0 110212.0 112962.0 114744.0 54484.0 51315.0 264475.0 263831.0 100032.0 91832.0 31880.0 39454.0 166109.0 161971.0 164875.0 162809.0 270082.0 262160.0 119746.0 124563.0 154491.0 154542.0 93366.0 99574.0 72166.0 75308.0 67671.0 75611.0 106897.0 108705.0 195252.0 202337.0 140113.0 135389.0 38440.0 46531.0 31946.0 25832.0 133349.0 127108.0 40942.0 48685.0 118919.0 122371.0 18615.0 21845.0 146680.0 144642.0 130025.0 130423.0 2030.0 10172.0 133796.0 120562.0 133796.0 133796.0 120562.0 120562.0
172627.0 168717.0 159522.0 155765.0 0.0 8111.0 177900.0 183202.0 223793.0 219009.0 53141.0 54019.0 352728.0 345356.0 128593.0 134313.0 341256.0 346107.0 293615.0 285598.0 153677.0 153590.0 251718.0 244723.0 190395.0 197488.0 267505.0 269833.0 231704.0 227808.0 279729.0 276337.0 242830.0 234878.0 293124.0 285059.0 157159.0 163306.0 194461.0 187719.0 347738.0 339589.0 295181.0 295847.0 190323.0 191902.0 134271.0 134741.0 255101.0 258809.0 231373.0 231833.0 177111.0 169055.0 252803.0 247384.0 155687.0 156795.0 172235.0 179186.0 185330.0 186228.0 175296.0 177596.0 167083.0 162300.0 380929.0 375532.0 203131.0 199664.0 226022.0 217903.0 370649.0 375496.0 244569.0 236634.0 174946.0 170335.0 47928.0 40510.0 18123.0 13011.0 306955.0 303013.0 209484.0 213531.0 165912.0 169801.0 307791.0 315630.0 185326.0 193211.0 216894.0 212419.0 197715.0 203718.0 195748.0 190235.0 268367.0 261416.0 278191.0 282454.0 85252.0 90593.0 333070.0 325374.0 342918.0 347994.0 73937.0 81787.0 191327.0 185767.0 186654.0 189773.0 370377.0 372589.0 223693.0 216586.0 158416.0 162759.0 277664.0 277656.0 281018.0 275346.0 362649.0 354886.0 253912.0 255443.0 34815.0 26743.0 126862.0 132245.0 96950.0 89483.0 201607.0 206437.0 229574.0 226317.0 288722.0 296775.0 262959.0 255693.0 192526.0 201025.0 165425.0 158837.0 185364.0 177608.0 159419.0 159056.0 102427.0 110016.0 165186.0 159694.0 248483.0 242055.0 262179.0 258918.0 154640.0 155093.0 279075.0 260732.0 279075.0 279075.0 260732.0 260732.0
176813.0 172619.0 161691.0 158295.0 8111.0 0.0 177648.0 182680.0 228065.0 223274.0 58642.0 58633.0 359748.0 352334.0 127925.0 133274.0 347795.0 352566.0 300235.0 292212.0 156356.0 155875.0 251715.0 244851.0 190501.0 197428.0 265601.0 268160.0 235760.0 232075.0 279150.0 275540.0 249233.0 241263.0 299957.0 291892.0 157015.0 162863.0 200049.0 193154.0 353965.0 345794.0 300610.0 301436.0 190998.0 192905.0 132786.0 132782.0 259800.0 263687.0 230110.0 230855.0 178780.0 170705.0 250927.0 245326.0 157487.0 158181.0 175727.0 182472.0 184935.0 186182.0 179171.0 181141.0 169589.0 165111.0 387638.0 382312.0 206239.0 203045.0 224090.0 216042.0 377022.0 381954.0 250725.0 242771.0 174109.0 169815.0 55494.0 47852.0 12134.0 10896.0 312958.0 309147.0 212307.0 216563.0 169415.0 173622.0 313941.0 321753.0 187962.0 195804.0 222713.0 218412.0 200462.0 206257.0 193635.0 188353.0 275049.0 268040.0 277901.0 282358.0 84412.0 89195.0 339631.0 331965.0 349486.0 354645.0 71104.0 78614.0 188784.0 182986.0 187061.0 190501.0 376995.0 379109.0 223002.0 216055.0 159350.0 163350.0 275715.0 275950.0 286952.0 281399.0 369669.0 361884.0 253603.0 254889.0 42858.0 34774.0 124314.0 129340.0 96889.0 89758.0 201857.0 206420.0 234909.0 231845.0 295495.0 303550.0 261813.0 254451.0 195512.0 203976.0 169342.0 162571.0 181668.0 174016.0 159893.0 159122.0 98245.0 105619.0 168457.0 163235.0 246258.0 239669.0 261661.0 258174.0 157255.0 158117.0 279587.0 265317.0 279587.0 279587.0 265317.0 265317.0
99717.0 92009.0 53630.0 61503.0 177900.0 177648.0 0.0 7924.0 125339.0 122237.0 143411.0 136695.0 313798.0 305585.0 50138.0 46485.0 284428.0 285644.0 247903.0 241264.0 64825.0 57157.0 74242.0 67735.0 15059.0 20182.0 99426.0 99059.0 124851.0 127735.0 102081.0 99308.0 201498.0 195340.0 255954.0 249503.0 20811.0 15231.0 145588.0 137986.0 279643.0 271475.0 209472.0 214819.0 24671.0 32174.0 50134.0 54870.0 157982.0 165537.0 58734.0 56589.0 42290.0 41664.0 85546.0 83191.0 47409.0 39477.0 83023.0 79746.0 8031.0 9617.0 92819.0 85494.0 60171.0 66754.0 325576.0 323618.0 84707.0 89620.0 63111.0 55505.0 304759.0 311612.0 194150.0 188019.0 13130.0 9610.0 167896.0 165334.0 167906.0 166804.0 236924.0 238058.0 81416.0 88611.0 82310.0 90306.0 242490.0 248058.0 66183.0 68017.0 165022.0 167816.0 73578.0 71736.0 46342.0 38928.0 230539.0 223062.0 100295.0 104738.0 93419.0 89741.0 278292.0 272922.0 286940.0 294501.0 111567.0 107093.0 54109.0 57874.0 17385.0 25430.0 312725.0 311017.0 46847.0 39143.0 31013.0 23022.0 109464.0 106834.0 213865.0 213381.0 322443.0 314705.0 76012.0 77811.0 187867.0 185447.0 67596.0 69255.0 80952.0 88579.0 26677.0 29196.0 158262.0 161931.0 249977.0 256517.0 87935.0 81589.0 76990.0 79942.0 91774.0 86869.0 79391.0 75048.0 23574.0 19825.0 102715.0 101917.0 76975.0 82618.0 86652.0 83818.0 84458.0 81832.0 63375.0 71640.0 103862.0 159119.0 103862.0 103862.0 159119.0 159119.0
107122.0 99483.0 61386.0 69312.0 183202.0 182680.0 7924.0 0.0 131102.0 128157.0 150016.0 143176.0 320067.0 311864.0 54772.0 50174.0 290248.0 291323.0 254310.0 247756.0 72661.0 65026.0 70148.0 64141.0 16293.0 18113.0 91878.0 91746.0 130146.0 133359.0 96527.0 93327.0 208372.0 202313.0 262563.0 256193.0 27039.0 19933.0 152850.0 145328.0 285190.0 277023.0 214649.0 220162.0 28608.0 36540.0 52845.0 56622.0 163216.0 170860.0 51406.0 49787.0 49116.0 49095.0 77880.0 75370.0 55294.0 47391.0 90341.0 86758.0 3612.0 11317.0 100096.0 92627.0 67630.0 74376.0 331249.0 329422.0 90419.0 95708.0 55196.0 47582.0 310307.0 317159.0 200832.0 194812.0 10919.0 12870.0 174570.0 171804.0 172688.0 171880.0 242549.0 243873.0 86497.0 93676.0 89830.0 97740.0 248259.0 253699.0 72671.0 73961.0 171967.0 174924.0 79333.0 76900.0 39313.0 32182.0 237289.0 229849.0 95339.0 100194.0 98283.0 94134.0 284218.0 278959.0 292776.0 300385.0 115469.0 110553.0 47835.0 52298.0 21545.0 29626.0 318372.0 316525.0 40636.0 33387.0 38933.0 30938.0 101966.0 99559.0 219794.0 219507.0 328637.0 320933.0 71054.0 72243.0 194133.0 191512.0 69126.0 69891.0 86394.0 94210.0 26221.0 26432.0 164659.0 168526.0 256577.0 263034.0 81246.0 74670.0 83216.0 85651.0 99334.0 94571.0 74362.0 70618.0 31346.0 26882.0 104549.0 103140.0 84507.0 90299.0 78776.0 75895.0 78992.0 75855.0 71199.0 79430.0 100912.0 164086.0 100912.0 100912.0 164086.0 164086.0
51276.0 56234.0 84699.0 82098.0 223793.0 228065.0 125339.0 131102.0 0.0 4794.0 171445.0 169775.0 189764.0 181620.0 144626.0 148520.0 159146.0 160306.0 124996.0 119121.0 81787.0 87100.0 133166.0 126602.0 116503.0 120568.0 193531.0 188405.0 10588.0 4016.0 163755.0 167807.0 85665.0 81959.0 134732.0 129278.0 126722.0 131192.0 51883.0 51416.0 154408.0 146241.0 85536.0 90144.0 103153.0 95194.0 155789.0 163602.0 35019.0 41585.0 159011.0 151612.0 84300.0 88265.0 184981.0 187272.0 92994.0 99208.0 56319.0 52975.0 128214.0 120185.0 50007.0 50919.0 74212.0 73214.0 200238.0 198322.0 40683.0 36197.0 174592.0 169837.0 179525.0 186377.0 75497.0 71629.0 138228.0 131797.0 187316.0 190480.0 223912.0 218478.0 111617.0 112771.0 45947.0 39322.0 61952.0 55678.0 117168.0 122737.0 60376.0 57344.0 54855.0 61685.0 51785.0 54881.0 169744.0 163094.0 111481.0 104773.0 154874.0 152289.0 167138.0 169750.0 153158.0 148054.0 161674.0 169296.0 190391.0 191329.0 178922.0 183185.0 109733.0 101960.0 187394.0 185796.0 141342.0 135264.0 106364.0 111085.0 200641.0 193812.0 88771.0 88986.0 198061.0 190475.0 142610.0 150040.0 212817.0 215347.0 174381.0 179984.0 152954.0 154796.0 113173.0 120267.0 37806.0 44405.0 128746.0 134424.0 170102.0 169011.0 48980.0 45452.0 59382.0 66838.0 204623.0 199822.0 114433.0 122217.0 201014.0 204407.0 65026.0 67409.0 192356.0 193611.0 152381.0 156979.0 81847.0 76547.0 138719.0 38758.0 138719.0 138719.0 38758.0 38758.0
46483.0 51474.0 80552.0 77740.0 219009.0 223274.0 122237.0 128157.0 4794.0 0.0 166682.0 164992.0 192242.0 184074.0 140455.0 144470.0 162197.0 163523.0 127110.0 121045.0 77343.0 82794.0 132588.0 125860.0 113794.0 118096.0 192403.0 187436.0 14329.0 8801.0 163606.0 167449.0 86298.0 82194.0 136503.0 130851.0 123054.0 127701.0 49188.0 48097.0 157814.0 149646.0 89488.0 93881.0 100430.0 92510.0 151765.0 159605.0 39419.0 45732.0 157314.0 150023.0 80869.0 84564.0 183562.0 185665.0 88891.0 95251.0 51753.0 48677.0 125335.0 117337.0 45275.0 46392.0 70097.0 68851.0 203445.0 201389.0 37864.0 32729.0 172557.0 167632.0 182930.0 189783.0 76519.0 72212.0 135051.0 128493.0 182637.0 185762.0 219119.0 213684.0 114942.0 115834.0 43938.0 37650.0 57316.0 50943.0 120294.0 126028.0 56816.0 54230.0 54180.0 60636.0 48854.0 52510.0 166975.0 160230.0 112791.0 105924.0 154871.0 152402.0 162519.0 165193.0 156073.0 150815.0 164705.0 172267.0 185759.0 186756.0 175992.0 180109.0 106888.0 99212.0 190634.0 189179.0 139607.0 133352.0 102557.0 107460.0 199687.0 192983.0 91644.0 91494.0 200651.0 193013.0 141938.0 149286.0 208137.0 210632.0 170278.0 175962.0 148375.0 150148.0 110874.0 118114.0 38742.0 44768.0 130505.0 136370.0 169242.0 167935.0 45509.0 42604.0 54612.0 62091.0 201407.0 196492.0 110739.0 118572.0 196629.0 200097.0 60489.0 62718.0 190707.0 191773.0 151828.0 156222.0 77441.0 71997.0 138832.0 43398.0 138832.0 138832.0 43398.0 43398.0
120565.0 117262.0 113853.0 108746.0 53141.0 58642.0 143411.0 150016.0 171445.0 166682.0 0.0 7871.0 303349.0 295771.0 99416.0 106923.0 289912.0 294522.0 242582.0 234550.0 106137.0 107599.0 214115.0 206581.0 153563.0 161324.0 240141.0 241043.0 179700.0 175461.0 244673.0 242490.0 191164.0 183168.0 242937.0 234884.0 122977.0 130510.0 141428.0 134606.0 295577.0 287384.0 242074.0 242821.0 150615.0 150581.0 109690.0 113183.0 202205.0 205781.0 200982.0 199803.0 133133.0 125359.0 225564.0 221377.0 111710.0 114686.0 121781.0 129247.0 151364.0 150330.0 123863.0 126953.0 119918.0 114115.0 330138.0 325019.0 153507.0 149296.0 199767.0 191445.0 318823.0 323894.0 192297.0 184326.0 143891.0 137655.0 24648.0 22365.0 58119.0 50887.0 254388.0 250676.0 160679.0 164054.0 115485.0 118526.0 255483.0 263268.0 137403.0 145338.0 164080.0 159855.0 149268.0 155909.0 171617.0 164861.0 217594.0 210437.0 241660.0 244893.0 63688.0 71472.0 281803.0 274212.0 291665.0 297019.0 68714.0 76632.0 170158.0 166440.0 148379.0 149819.0 319271.0 321170.0 190255.0 182444.0 118446.0 124360.0 250392.0 248924.0 228349.0 222868.0 313258.0 305391.0 217837.0 220623.0 45960.0 45856.0 109998.0 117296.0 67926.0 59746.0 163727.0 169806.0 176440.0 173250.0 238281.0 246331.0 231251.0 224655.0 143363.0 151892.0 113959.0 107864.0 172450.0 164324.0 121769.0 123609.0 100271.0 108358.0 115443.0 109230.0 223491.0 218235.0 227058.0 225063.0 107323.0 106292.0 238750.0 207941.0 238750.0 238750.0 207941.0 207941.0
118627.0 114858.0 109046.0 104323.0 54019.0 58633.0 136695.0 143176.0 169775.0 164992.0 7871.0 0.0 306293.0 298639.0 92011.0 99433.0 291922.0 296377.0 244823.0 236794.0 101877.0 102857.0 207970.0 200503.0 147176.0 154869.0 232944.0 233960.0 177731.0 173790.0 238232.0 235903.0 193099.0 185088.0 245607.0 237572.0 116149.0 123563.0 141932.0 134839.0 297013.0 288791.0 242211.0 243219.0 144657.0 144910.0 102056.0 105437.0 201207.0 205055.0 193981.0 192956.0 127966.0 120098.0 218340.0 214061.0 106457.0 109035.0 118786.0 126009.0 144613.0 143809.0 121450.0 124067.0 115583.0 110113.0 332421.0 327445.0 150165.0 146296.0 192438.0 184116.0 320498.0 325715.0 193754.0 185764.0 136820.0 130722.0 32023.0 28638.0 56481.0 49855.0 255475.0 251998.0 157013.0 160663.0 112465.0 116004.0 256827.0 264555.0 133371.0 141306.0 164968.0 161079.0 145448.0 151877.0 164111.0 157415.0 220014.0 212758.0 235405.0 238786.0 55818.0 63600.0 283866.0 276343.0 293727.0 299233.0 61312.0 69120.0 162508.0 158716.0 142185.0 143900.0 321393.0 323109.0 183539.0 175792.0 112410.0 118095.0 243199.0 241844.0 229346.0 224082.0 316187.0 308285.0 211488.0 214120.0 51607.0 50515.0 102142.0 109430.0 60302.0 52090.0 157518.0 163436.0 176455.0 173600.0 240837.0 248874.0 224421.0 217750.0 139810.0 148341.0 111560.0 105139.0 164593.0 156468.0 115381.0 116933.0 92695.0 100758.0 112086.0 106218.0 216111.0 210779.0 220601.0 218453.0 102992.0 102502.0 233058.0 206777.0 233058.0 233058.0 206777.0 206777.0
220012.0 228019.0 266389.0 260956.0 352728.0 359748.0 313798.0 320067.0 189764.0 192242.0 303349.0 306293.0 0.0 8235.0 322868.0 328635.0 39744.0 44580.0 66330.0 73615.0 259091.0 266390.0 317399.0 311665.0 306006.0 310306.0 379468.0 373770.0 192902.0 188087.0 346104.0 350754.0 117335.0 124984.0 61399.0 69235.0 311819.0 317570.0 176031.0 184465.0 60542.0 62504.0 117041.0 109278.0 292640.0 284740.0 336065.0 344049.0 162168.0 154187.0 347715.0 340018.0 271692.0 273987.0 372490.0 375535.0 274748.0 282347.0 234376.0 235389.0 317363.0 309421.0 224784.0 230529.0 256922.0 252797.0 38726.0 30736.0 230097.0 224380.0 364054.0 359523.0 54703.0 51147.0 121574.0 128799.0 326312.0 319298.0 305284.0 312277.0 361249.0 353661.0 84356.0 79828.0 235661.0 228859.0 237442.0 228994.0 76524.0 74284.0 247633.0 246168.0 152736.0 152836.0 241011.0 244634.0 359104.0 352230.0 87943.0 95641.0 336985.0 334334.0 330773.0 336077.0 41035.0 43250.0 37325.0 30334.0 351489.0 355457.0 367838.0 371536.0 298991.0 291409.0 37772.0 45511.0 330239.0 324586.0 290727.0 296825.0 385848.0 378515.0 101650.0 100780.0 9922.0 2881.0 327120.0 334812.0 326258.0 332561.0 352752.0 359579.0 319626.0 317968.0 302930.0 309944.0 155600.0 152565.0 66796.0 59138.0 355129.0 354969.0 236861.0 234821.0 229697.0 237039.0 392183.0 386689.0 299566.0 307585.0 371732.0 377131.0 242397.0 240126.0 380746.0 382597.0 336257.0 341688.0 259862.0 252097.0 320764.0 164164.0 320764.0 320764.0 164164.0 164164.0
211791.0 219797.0 258155.0 252728.0 345356.0 352334.0 305585.0 311864.0 181620.0 184074.0 295771.0 298639.0 8235.0 0.0 314663.0 320419.0 34295.0 40002.0 58100.0 65409.0 250867.0 258162.0 309464.0 303730.0 297825.0 302149.0 371580.0 365835.0 184836.0 179969.0 338169.0 342819.0 109217.0 116895.0 53428.0 61327.0 303584.0 309338.0 167868.0 176301.0 56123.0 57170.0 109680.0 101845.0 284460.0 276564.0 327850.0 335833.0 154244.0 146271.0 339678.0 331996.0 263472.0 265756.0 364525.0 367530.0 266515.0 274113.0 226143.0 227155.0 309166.0 301228.0 216553.0 222294.0 248687.0 244565.0 42065.0 34444.0 221923.0 216183.0 355962.0 351403.0 53717.0 51322.0 113360.0 120605.0 318092.0 311072.0 297994.0 304932.0 353718.0 346158.0 76973.0 72147.0 227529.0 220741.0 229215.0 220768.0 68999.0 67162.0 239417.0 237974.0 144539.0 144693.0 232829.0 236483.0 350911.0 344029.0 79904.0 87582.0 329050.0 326399.0 322732.0 328006.0 34353.0 35737.0 32114.0 26140.0 343509.0 347435.0 359630.0 363317.0 290800.0 283227.0 38521.0 45743.0 322186.0 316503.0 282493.0 288592.0 377913.0 370580.0 93637.0 92635.0 17704.0 9697.0 319185.0 326877.0 319152.0 325391.0 344555.0 351373.0 311534.0 309918.0 294791.0 301823.0 147376.0 144331.0 58739.0 51018.0 347194.0 347070.0 228655.0 226645.0 221480.0 228830.0 383953.0 378456.0 291332.0 299351.0 363630.0 369006.0 234167.0 231910.0 372734.0 374547.0 328322.0 333753.0 251636.0 243877.0 312829.0 156343.0 312829.0 312829.0 156343.0 156343.0
103090.0 95211.0 59929.0 63278.0 128593.0 127925.0 50138.0 54772.0 144626.0 140455.0 99416.0 92011.0 322868.0 314663.0 0.0 8174.0 298157.0 300565.0 256657.0 249254.0 64489.0 57973.0 124369.0 117852.0 63979.0 70246.0 141237.0 142676.0 147675.0 147961.0 151229.0 147744.0 206103.0 198868.0 262346.0 255079.0 30266.0 35072.0 147238.0 138841.0 296285.0 288123.0 229835.0 233807.0 67580.0 71876.0 14291.0 21812.0 179571.0 186176.0 103295.0 103325.0 66134.0 59338.0 126570.0 122096.0 51701.0 46401.0 90327.0 91848.0 57130.0 59170.0 99237.0 95076.0 70432.0 72056.0 340025.0 336955.0 108044.0 109466.0 100463.0 92146.0 321407.0 328127.0 201316.0 194084.0 46390.0 41919.0 124006.0 120214.0 117930.0 117141.0 253167.0 252662.0 109263.0 115789.0 86229.0 94478.0 257399.0 263944.0 86290.0 92112.0 170144.0 170590.0 98115.0 100302.0 72331.0 65457.0 235853.0 228111.0 150081.0 154767.0 43516.0 39609.0 291165.0 284864.0 300482.0 307500.0 61702.0 57908.0 71940.0 69521.0 62114.0 67486.0 327552.0 327022.0 95117.0 88133.0 41642.0 41425.0 151494.0 150560.0 228035.0 225754.0 332153.0 324186.0 125785.0 126965.0 141534.0 138268.0 30121.0 36711.0 32456.0 40628.0 75722.0 79283.0 169972.0 171379.0 256592.0 263915.0 134599.0 127494.0 97414.0 103907.0 93302.0 85844.0 81239.0 73595.0 37321.0 33455.0 58698.0 60637.0 81714.0 82906.0 124099.0 118833.0 133737.0 130330.0 63985.0 71145.0 153675.0 182518.0 153675.0 153675.0 182518.0 182518.0
108646.0 100677.0 64018.0 68148.0 134313.0 133274.0 46485.0 50174.0 148520.0 144470.0 106923.0 99433.0 328635.0 320419.0 8174.0 0.0 303326.0 305582.0 262358.0 255028.0 69687.0 62749.0 120269.0 114042.0 61003.0 66650.0 134359.0 136067.0 151063.0 151741.0 146093.0 142293.0 212147.0 205006.0 268324.0 261133.0 28282.0 31263.0 153362.0 145000.0 301016.0 292841.0 233953.0 238135.0 66141.0 71198.0 7440.0 15430.0 183328.0 190104.0 97098.0 97585.0 67886.0 61684.0 119660.0 114961.0 55609.0 49448.0 95199.0 96113.0 52863.0 55891.0 104369.0 99736.0 74394.0 76754.0 345157.0 342225.0 110956.0 112925.0 93329.0 85032.0 326120.0 332929.0 207061.0 199930.0 40928.0 37567.0 131454.0 127455.0 122945.0 122580.0 257923.0 257634.0 111472.0 118192.0 91452.0 99815.0 262342.0 268770.0 89291.0 94635.0 176003.0 176708.0 100683.0 102257.0 64694.0 58008.0 241896.0 234166.0 145385.0 150359.0 49068.0 44204.0 296430.0 290235.0 305677.0 312774.0 65300.0 60611.0 63920.0 61372.0 60115.0 66212.0 332620.0 331933.0 89888.0 83240.0 43443.0 41693.0 144607.0 143938.0 233004.0 230947.0 337857.0 329907.0 121139.0 121908.0 148447.0 144948.0 26053.0 31527.0 39380.0 47635.0 72812.0 75628.0 175045.0 176739.0 262536.0 269785.0 128646.0 121396.0 100598.0 106660.0 98939.0 91657.0 73221.0 65644.0 37593.0 32207.0 58137.0 58974.0 86739.0 88509.0 116803.0 111351.0 128724.0 124966.0 69039.0 76570.0 150345.0 186013.0 150345.0 150345.0 186013.0 186013.0
195225.0 202998.0 239840.0 235180.0 341256.0 347795.0 284428.0 290248.0 159146.0 162197.0 289912.0 291922.0 39744.0 34295.0 298157.0 303326.0 0.0 7469.0 47916.0 55842.0 233713.0 240588.0 283821.0 278087.0 275524.0 279223.0 346007.0 340191.0 160844.0 156959.0 312526.0 317175.0 98826.0 106838.0 52203.0 59589.0 284386.0 289531.0 154361.0 162617.0 22567.0 22884.0 80262.0 72997.0 262205.0 254222.0 310758.0 318738.0 128674.0 120714.0 314523.0 306749.0 242910.0 246025.0 338938.0 342129.0 248295.0 255494.0 208159.0 208051.0 287347.0 279308.0 198974.0 203807.0 229897.0 226647.0 41892.0 39193.0 199828.0 194879.0 331585.0 327534.0 31693.0 34728.0 99379.0 107286.0 297244.0 290614.0 294950.0 301337.0 348007.0 340770.0 48507.0 46375.0 204393.0 197370.0 211945.0 203681.0 42039.0 37500.0 218769.0 216412.0 130329.0 132321.0 210925.0 213720.0 328784.0 322211.0 73415.0 79983.0 303406.0 300755.0 310455.0 315113.0 8332.0 16285.0 2678.0 10717.0 332173.0 335375.0 338063.0 342297.0 268858.0 261033.0 29764.0 31355.0 297295.0 292095.0 263473.0 269008.0 352269.0 344936.0 70701.0 72404.0 44180.0 38769.0 293541.0 301234.0 317559.0 323215.0 328265.0 334697.0 298308.0 297547.0 271476.0 278116.0 128290.0 126889.0 54816.0 47301.0 321550.0 321467.0 207612.0 204597.0 205066.0 212741.0 363575.0 358541.0 272044.0 280003.0 349924.0 354745.0 216588.0 215373.0 347375.0 349497.0 302679.0 308109.0 234303.0 227017.0 287186.0 129679.0 287186.0 287186.0 129679.0 129679.0
197840.0 205533.0 241902.0 237445.0 346107.0 352566.0 285644.0 291323.0 160306.0 163523.0 294522.0 296377.0 44580.0 40002.0 300565.0 305582.0 7469.0 0.0 53519.0 61291.0 236079.0 242835.0 284030.0 278296.0 276422.0 279928.0 346216.0 340400.0 161520.0 157964.0 312734.0 317384.0 103361.0 111353.0 58849.0 66024.0 286135.0 291110.0 157845.0 166022.0 16121.0 18508.0 79626.0 72546.0 263139.0 255145.0 313005.0 320974.0 128981.0 121080.0 314782.0 306958.0 244366.0 247702.0 339147.0 342338.0 250363.0 257445.0 210384.0 209986.0 288368.0 280312.0 201329.0 205916.0 231858.0 228840.0 39932.0 38674.0 200952.0 196249.0 331771.0 327887.0 25269.0 29390.0 103180.0 111144.0 298528.0 292015.0 300024.0 306314.0 352576.0 345403.0 48819.0 47969.0 205189.0 198112.0 214338.0 206144.0 43330.0 37654.0 220256.0 217646.0 133802.0 136174.0 212074.0 214605.0 329662.0 323187.0 78967.0 85255.0 303615.0 300964.0 313801.0 318321.0 14879.0 22671.0 8434.0 14253.0 335689.0 338735.0 339094.0 343477.0 269873.0 261987.0 27124.0 26905.0 297509.0 292319.0 265305.0 270680.0 352478.0 345145.0 72587.0 75076.0 47731.0 43234.0 293750.0 301443.0 322836.0 328395.0 330684.0 337016.0 301466.0 300890.0 272075.0 278582.0 130593.0 129627.0 61101.0 53812.0 321759.0 321676.0 209018.0 205721.0 207687.0 215419.0 364912.0 360008.0 273790.0 281720.0 352914.0 357605.0 218892.0 217936.0 347584.0 349747.0 302888.0 308318.0 236624.0 229471.0 287395.0 129575.0 287395.0 287395.0 129575.0 129575.0
153717.0 161714.0 200069.0 194630.0 293615.0 300235.0 247903.0 254310.0 124996.0 127110.0 242582.0 244823.0 66330.0 58100.0 256657.0 262358.0 47916.0 53519.0 0.0 8032.0 192779.0 200063.0 255254.0 249386.0 240544.0 245127.0 317158.0 311527.0 129176.0 123686.0 283969.0 288619.0 52316.0 60256.0 14001.0 16149.0 245542.0 251367.0 110220.0 118635.0 59713.0 52958.0 65726.0 57816.0 227193.0 219354.0 269791.0 277777.0 100688.0 92968.0 283865.0 276351.0 205704.0 207814.0 309380.0 311993.0 208423.0 216038.0 168054.0 169167.0 251682.0 243795.0 158455.0 164240.0 190640.0 186468.0 87599.0 82828.0 164814.0 158777.0 299583.0 294739.0 78747.0 82585.0 55350.0 62761.0 260314.0 253215.0 247138.0 253594.0 300701.0 293381.0 39024.0 30639.0 170915.0 164308.0 171118.0 162674.0 31804.0 37473.0 181722.0 180579.0 86635.0 87282.0 175587.0 179620.0 293468.0 286491.0 25501.0 32199.0 274850.0 272199.0 265845.0 270891.0 39621.0 31803.0 49406.0 54438.0 287049.0 290665.0 301996.0 305534.0 233397.0 225938.0 76763.0 79236.0 266243.0 260255.0 224445.0 230605.0 323647.0 316370.0 40965.0 37198.0 75502.0 67550.0 264960.0 272629.0 269657.0 275344.0 286592.0 293363.0 254283.0 252978.0 237982.0 245203.0 89653.0 86300.0 10953.0 10620.0 292930.0 292584.0 171111.0 169492.0 163424.0 170813.0 326026.0 320461.0 233306.0 241327.0 306275.0 311489.0 176068.0 173851.0 317129.0 318562.0 274116.0 279520.0 193542.0 185802.0 258629.0 104040.0 258629.0 258629.0 104040.0 104040.0
146422.0 154441.0 192979.0 187424.0 285598.0 292212.0 241264.0 247756.0 119121.0 121045.0 234550.0 236794.0 73615.0 65409.0 249254.0 255028.0 55842.0 61291.0 8032.0 0.0 185517.0 192855.0 250235.0 244233.0 234163.0 238882.0 311877.0 306364.0 123744.0 117987.0 279059.0 283684.0 44405.0 52316.0 16149.0 14001.0 238543.0 244467.0 102577.0 111003.0 66740.0 59666.0 65027.0 57412.0 220828.0 213027.0 262457.0 270439.0 96261.0 88710.0 278120.0 270676.0 199018.0 200962.0 303861.0 306333.0 201306.0 208977.0 160961.0 162274.0 245175.0 237323.0 151313.0 157244.0 183646.0 179333.0 95627.0 90817.0 158597.0 152390.0 293601.0 288636.0 86463.0 90459.0 47970.0 55209.0 253597.0 246432.0 239151.0 245590.0 292669.0 285350.0 41575.0 33199.0 164947.0 158438.0 163903.0 155444.0 35399.0 42028.0 175110.0 174174.0 79135.0 79539.0 169281.0 173516.0 286969.0 279936.0 17690.0 24186.0 269940.0 267289.0 258030.0 263121.0 47570.0 39792.0 57380.0 62470.0 279173.0 282833.0 295371.0 298801.0 226949.0 219562.0 84784.0 87184.0 260461.0 254353.0 217440.0 223691.0 318518.0 311330.0 38242.0 33112.0 82941.0 74954.0 259908.0 267542.0 261718.0 267381.0 279149.0 285965.0 246542.0 245171.0 231847.0 239151.0 83154.0 79422.0 10620.0 15330.0 287816.0 287302.0 164618.0 163244.0 156091.0 163424.0 319159.0 313518.0 226336.0 234358.0 298565.0 303827.0 168894.0 166522.0 311440.0 312728.0 269183.0 274450.0 186305.0 178505.0 253719.0 100037.0 253719.0 253719.0 100037.0 100037.0
39115.0 31077.0 11801.0 3638.0 153677.0 156356.0 64825.0 72661.0 81787.0 77343.0 106137.0 101877.0 259091.0 250867.0 64489.0 69687.0 233713.0 236079.0 192779.0 185517.0 0.0 7905.0 117227.0 109243.0 65720.0 73412.0 160216.0 158269.0 86374.0 85395.0 150338.0 150323.0 143087.0 136174.0 199066.0 192013.0 55060.0 62337.0 84738.0 76558.0 231858.0 223693.0 166082.0 169744.0 56199.0 52360.0 77126.0 85116.0 116760.0 122924.0 119393.0 114910.0 31416.0 26028.0 147409.0 146254.0 17639.0 25865.0 26005.0 29124.0 71538.0 65743.0 34751.0 31065.0 13809.0 9113.0 275568.0 272567.0 50690.0 49195.0 127297.0 120025.0 256973.0 263660.0 137553.0 130552.0 74387.0 66369.0 127715.0 128060.0 150017.0 145900.0 188726.0 188173.0 55995.0 60638.0 21773.0 30134.0 192911.0 199476.0 31650.0 39549.0 106687.0 107927.0 44110.0 50088.0 110100.0 102360.0 172781.0 165084.0 145088.0 146617.0 86259.0 88270.0 226771.0 220551.0 236050.0 243113.0 109576.0 109921.0 115916.0 117544.0 58081.0 54952.0 263076.0 262534.0 103655.0 95452.0 34867.0 42569.0 169725.0 165602.0 163546.0 161315.0 268263.0 260326.0 123346.0 128185.0 151788.0 151970.0 94609.0 100986.0 71699.0 74466.0 71308.0 79244.0 105488.0 107053.0 193228.0 200371.0 143751.0 139022.0 39635.0 47914.0 29618.0 23061.0 135891.0 129546.0 43868.0 51501.0 119325.0 122996.0 17275.0 19296.0 150195.0 148101.0 133634.0 134053.0 1610.0 7250.0 137159.0 120399.0 137159.0 137159.0 120399.0 120399.0
46594.0 38526.0 6326.0 5435.0 153590.0 155875.0 57157.0 65026.0 87100.0 82794.0 107599.0 102857.0 266390.0 258162.0 57973.0 62749.0 240588.0 242835.0 200063.0 192855.0 7905.0 0.0 112124.0 104180.0 58746.0 66564.0 153350.0 151613.0 90999.0 90579.0 144958.0 144627.0 150639.0 143789.0 206528.0 199525.0 47184.0 54432.0 92442.0 84305.0 238366.0 230197.0 171980.0 175858.0 49954.0 46857.0 70176.0 78152.0 122118.0 128512.0 112432.0 108191.0 26609.0 20020.0 140365.0 139024.0 9797.0 17992.0 32452.0 34127.0 64016.0 58466.0 41699.0 37104.0 14367.0 14083.0 282412.0 279515.0 53501.0 53132.0 119843.0 112487.0 263481.0 270242.0 144911.0 137990.0 66527.0 58497.0 129911.0 129766.0 149012.0 145273.0 195255.0 194891.0 57574.0 62889.0 28953.0 37419.0 199604.0 206069.0 32837.0 40378.0 114171.0 115575.0 45594.0 50605.0 102249.0 94501.0 180302.0 172617.0 140063.0 141932.0 82805.0 84187.0 233723.0 227585.0 242946.0 250069.0 106027.0 105831.0 108013.0 109647.0 51250.0 48763.0 269871.0 269206.0 97010.0 88770.0 26981.0 34731.0 162951.0 159022.0 170260.0 168223.0 275517.0 267595.0 117855.0 122412.0 153488.0 153259.0 88037.0 94196.0 68010.0 71544.0 65002.0 72791.0 112301.0 114136.0 200672.0 207764.0 137465.0 132525.0 42363.0 50183.0 37272.0 30926.0 128079.0 121788.0 35967.0 43598.0 113991.0 117309.0 24044.0 27064.0 142886.0 140638.0 128035.0 128123.0 6723.0 15120.0 133236.0 125451.0 133236.0 133236.0 125451.0 125451.0
136244.0 131063.0 106094.0 113667.0 251718.0 251715.0 74242.0 70148.0 133166.0 132588.0 214115.0 207970.0 317399.0 309464.0 124369.0 120269.0 283821.0 284030.0 255254.0 250235.0 117227.0 112124.0 0.0 8000.0 61349.0 54290.0 62922.0 56574.0 126882.0 133415.0 33542.0 35431.0 218801.0 214766.0 266234.0 261405.0 94713.0 89330.0 174069.0 168749.0 277477.0 269310.0 205971.0 211828.0 63749.0 65320.0 122910.0 126122.0 155235.0 163227.0 43029.0 35505.0 85830.0 92160.0 58555.0 63839.0 104997.0 100259.0 120770.0 113325.0 67413.0 65533.0 128055.0 119697.0 105405.0 113410.0 323732.0 322604.0 100425.0 108519.0 62932.0 64129.0 302593.0 309446.0 208615.0 204737.0 80163.0 82718.0 238053.0 236407.0 242108.0 240848.0 235363.0 238079.0 91176.0 95921.0 123921.0 128870.0 242000.0 246486.0 96663.0 91759.0 185994.0 191532.0 93285.0 85906.0 81411.0 80565.0 244231.0 237746.0 27956.0 30848.0 167631.0 163954.0 278678.0 274516.0 286443.0 294328.0 185563.0 180699.0 92809.0 100765.0 65791.0 64669.0 310805.0 308865.0 34802.0 38536.0 95688.0 89912.0 68525.0 61116.0 215929.0 218129.0 324994.0 317770.0 9783.0 17574.0 259559.0 257780.0 138236.0 137800.0 154854.0 162236.0 50482.0 45297.0 170972.0 177344.0 260338.0 265282.0 37857.0 38942.0 100987.0 97047.0 132661.0 131823.0 121595.0 122064.0 92829.0 92662.0 173638.0 171387.0 119791.0 127706.0 69152.0 73949.0 19247.0 24339.0 115640.0 121415.0 33292.0 155105.0 33292.0 33292.0 155105.0 155105.0
128428.0 123175.0 98135.0 105687.0 244723.0 244851.0 67735.0 64141.0 126602.0 125860.0 206581.0 200503.0 311665.0 303730.0 117852.0 114042.0 278087.0 278296.0 249386.0 244233.0 109243.0 104180.0 8000.0 0.0 54351.0 47611.0 67963.0 62142.0 120644.0 126994.0 41497.0 43027.0 212144.0 207969.0 260183.0 255227.0 87966.0 82921.0 166669.0 161237.0 271743.0 263576.0 200237.0 206094.0 56062.0 57410.0 116986.0 120529.0 149501.0 157493.0 43208.0 35168.0 77854.0 84234.0 62117.0 66670.0 97132.0 92514.0 112872.0 105477.0 61228.0 58771.0 120238.0 111867.0 97405.0 105410.0 317998.0 316870.0 93049.0 101102.0 63128.0 63278.0 296859.0 303712.0 202097.0 198064.0 74456.0 76485.0 230449.0 228894.0 235373.0 233972.0 229629.0 232345.0 83940.0 88899.0 115972.0 120984.0 236266.0 240752.0 88779.0 83989.0 179003.0 184420.0 85658.0 78379.0 78762.0 77197.0 237884.0 231315.0 35883.0 38321.0 160941.0 157461.0 272944.0 268782.0 280709.0 288594.0 179269.0 174600.0 90303.0 98094.0 58407.0 56945.0 305071.0 303131.0 31912.0 34071.0 88136.0 82542.0 74285.0 67236.0 210178.0 212325.0 319260.0 312036.0 16165.0 23438.0 252105.0 250420.0 132811.0 132729.0 147962.0 155247.0 43191.0 38573.0 164385.0 170627.0 254265.0 259338.0 43598.0 43503.0 93304.0 89567.0 124745.0 123851.0 119490.0 119445.0 85565.0 85729.0 168266.0 166296.0 111819.0 119727.0 72026.0 76098.0 26463.0 30377.0 107658.0 113416.0 35337.0 149371.0 35337.0 35337.0 149371.0 149371.0
96695.0 89457.0 53946.0 62143.0 190395.0 190501.0 15059.0 16293.0 116503.0 113794.0 153563.0 147176.0 306006.0 297825.0 63979.0 61003.0 275524.0 276422.0 240544.0 234163.0 65720.0 58746.0 61349.0 54351.0 0.0 8061.0 94609.0 93056.0 114982.0 118569.0 91118.0 89242.0 195711.0 189936.0 249197.0 243017.0 33796.0 29859.0 141558.0 134378.0 270155.0 261988.0 199262.0 204930.0 13366.0 21310.0 65017.0 69913.0 147932.0 155656.0 53694.0 49626.0 37814.0 40118.0 81689.0 80719.0 49660.0 42888.0 79726.0 75085.0 12777.0 5523.0 89197.0 81283.0 58077.0 65572.0 316323.0 314659.0 75931.0 81777.0 62750.0 56240.0 295271.0 302124.0 187711.0 181971.0 26525.0 24666.0 177789.0 175739.0 181075.0 179621.0 227611.0 229174.0 71267.0 78395.0 80165.0 87546.0 233495.0 238772.0 59795.0 59989.0 159583.0 163021.0 64998.0 61819.0 53260.0 46834.0 224272.0 216934.0 88331.0 92154.0 106707.0 103508.0 269643.0 264548.0 278073.0 285744.0 125661.0 121489.0 62847.0 67940.0 7877.0 14606.0 303420.0 301543.0 38659.0 30404.0 36237.0 29358.0 104256.0 100576.0 205273.0 205286.0 314445.0 306799.0 64315.0 67169.0 198671.0 196668.0 82648.0 84276.0 93613.0 100913.0 11809.0 16264.0 151011.0 155278.0 243198.0 249476.0 79829.0 74324.0 69649.0 71193.0 89763.0 85970.0 90261.0 86774.0 31799.0 31379.0 117715.0 116974.0 74984.0 81609.0 84849.0 83427.0 73521.0 71981.0 64148.0 71829.0 89706.0 148561.0 89706.0 89706.0 148561.0 148561.0
103351.0 96284.0 61615.0 69813.0 197488.0 197428.0 20182.0 18113.0 120568.0 118096.0 161324.0 154869.0 310306.0 302149.0 70246.0 66650.0 279223.0 279928.0 245127.0 238882.0 73412.0 66564.0 54290.0 47611.0 8061.0 0.0 86812.0 85107.0 118414.0 122428.0 83364.0 81317.0 201091.0 195486.0 254068.0 248023.0 40424.0 35411.0 147733.0 140717.0 273534.0 265366.0 202271.0 208096.0 18852.0 26090.0 70073.0 74359.0 151117.0 158931.0 46013.0 41667.0 44652.0 47611.0 74096.0 73442.0 57591.0 50919.0 86389.0 81334.0 14648.0 11261.0 95702.0 87642.0 65237.0 72880.0 319779.0 318295.0 80314.0 86607.0 56243.0 50226.0 298650.0 305503.0 192813.0 187258.0 29032.0 29297.0 185604.0 183459.0 187832.0 186563.0 231112.0 232934.0 74850.0 81853.0 87152.0 94324.0 237185.0 242277.0 65544.0 64976.0 165175.0 168864.0 69620.0 65687.0 50151.0 44493.0 229400.0 222134.0 80874.0 84967.0 113368.0 109855.0 273496.0 268563.0 281792.0 289521.0 131744.0 127261.0 60525.0 66353.0 15333.0 20211.0 306852.0 304922.0 30629.0 22368.0 44285.0 37308.0 96387.0 92594.0 209238.0 209529.0 318629.0 311038.0 56728.0 59314.0 206312.0 204203.0 86971.0 87959.0 100582.0 108027.0 8746.0 9037.0 155804.0 160346.0 248064.0 254209.0 71769.0 66292.0 74848.0 75643.0 96737.0 93232.0 88942.0 86136.0 39577.0 38479.0 122312.0 121112.0 82040.0 88866.0 77725.0 76720.0 65738.0 64010.0 71828.0 79375.0 83699.0 151405.0 83699.0 83699.0 151405.0 151405.0
187910.0 181431.0 148416.0 156610.0 267505.0 265601.0 99426.0 91878.0 193531.0 192403.0 240141.0 232944.0 379468.0 371580.0 141237.0 134359.0 346007.0 346216.0 317158.0 311877.0 160216.0 153350.0 62922.0 67963.0 94609.0 86812.0 0.0 8198.0 188147.0 194202.0 46900.0 38679.0 278572.0 273972.0 327761.0 322633.0 118278.0 110230.0 229908.0 223661.0 339663.0 331496.0 268157.0 274014.0 104532.0 110040.0 133427.0 132826.0 217421.0 225413.0 41011.0 45493.0 130612.0 134331.0 14718.0 20811.0 144226.0 137152.0 171214.0 165059.0 91506.0 95397.0 179909.0 171552.0 151444.0 159283.0 385918.0 384790.0 157417.0 165078.0 41511.0 49604.0 364779.0 371632.0 268911.0 264484.0 96441.0 103255.0 264790.0 261344.0 254489.0 255241.0 297549.0 300265.0 149171.0 154874.0 172806.0 179356.0 304186.0 308672.0 148339.0 145448.0 244386.0 249229.0 148489.0 142167.0 72126.0 77273.0 305011.0 298275.0 55855.0 63619.0 182884.0 176991.0 340864.0 336702.0 348629.0 356514.0 194821.0 187966.0 78692.0 85921.0 102144.0 105855.0 372991.0 371051.0 56858.0 64910.0 129614.0 121883.0 10258.0 12311.0 278113.0 280160.0 387180.0 379956.0 53170.0 45373.0 282752.0 279304.0 141802.0 137915.0 173630.0 181845.0 89639.0 81473.0 231129.0 237004.0 321820.0 327037.0 25501.0 24576.0 155394.0 153383.0 182273.0 179455.0 98037.0 102620.0 122952.0 118697.0 173508.0 168584.0 167901.0 175098.0 21864.0 30056.0 45902.0 38869.0 158629.0 166075.0 89757.0 217291.0 89757.0 89757.0 217291.0 217291.0
184689.0 178414.0 146476.0 154644.0 269833.0 268160.0 99059.0 91746.0 188405.0 187436.0 241043.0 233960.0 373770.0 365835.0 142676.0 136067.0 340191.0 340400.0 311527.0 306364.0 158269.0 151613.0 56574.0 62142.0 93056.0 85107.0 8198.0 0.0 182720.0 188944.0 38746.0 30547.0 273705.0 269265.0 322301.0 317293.0 118523.0 110669.0 225972.0 219911.0 333847.0 325680.0 262342.0 268198.0 102223.0 107290.0 135572.0 135438.0 211605.0 219597.0 40342.0 43440.0 128132.0 132274.0 18392.0 25889.0 142697.0 135878.0 168137.0 161727.0 91053.0 94310.0 176622.0 168229.0 148965.0 156886.0 380103.0 378974.0 153045.0 160825.0 44676.0 52346.0 358964.0 365816.0 263875.0 259613.0 97153.0 103588.0 265678.0 262466.0 257199.0 257704.0 291734.0 294449.0 144550.0 150051.0 170002.0 176310.0 298371.0 302856.0 144921.0 141660.0 239870.0 244893.0 144436.0 137877.0 75404.0 79937.0 299831.0 293178.0 47817.0 55527.0 184898.0 179241.0 335049.0 330886.0 342813.0 350698.0 197650.0 190995.0 82844.0 90360.0 100377.0 103518.0 367176.0 365236.0 54618.0 62844.0 128655.0 121077.0 12261.0 7888.0 272243.0 274459.0 381365.0 374141.0 46792.0 39022.0 284169.0 280931.0 144903.0 141388.0 175130.0 183297.0 87171.0 79097.0 226107.0 232135.0 316377.0 321477.0 18722.0 19874.0 151527.0 149130.0 179391.0 176893.0 103749.0 107929.0 122410.0 118626.0 177318.0 172668.0 165199.0 172553.0 28184.0 36404.0 38795.0 32259.0 156671.0 163913.0 82210.0 211476.0 82210.0 82210.0 211476.0 211476.0
59143.0 63223.0 87949.0 86268.0 231704.0 235760.0 124851.0 130146.0 10588.0 14329.0 179700.0 177731.0 192902.0 184836.0 147675.0 151063.0 160844.0 161520.0 129176.0 123744.0 86374.0 90999.0 126882.0 120644.0 114982.0 118414.0 188147.0 182720.0 0.0 8000.0 156639.0 161042.0 92857.0 89770.0 139615.0 134584.0 127969.0 131844.0 62399.0 61999.0 155182.0 147014.0 84639.0 90016.0 101758.0 93759.0 158210.0 165900.0 33140.0 40714.0 154887.0 147277.0 85079.0 89866.0 180204.0 182887.0 96005.0 101617.0 61822.0 57251.0 127091.0 119017.0 56746.0 56292.0 77436.0 77491.0 201390.0 199887.0 40692.0 38210.0 171191.0 166848.0 180298.0 187151.0 82126.0 78999.0 137900.0 131874.0 196200.0 199128.0 231239.0 226010.0 112702.0 114626.0 43716.0 36602.0 67811.0 62381.0 118816.0 123867.0 61892.0 57607.0 63979.0 71136.0 51688.0 53248.0 168180.0 161801.0 117369.0 110986.0 147536.0 144895.0 172441.0 174643.0 155254.0 150577.0 163425.0 171192.0 195754.0 196291.0 177769.0 182431.0 108618.0 100639.0 188473.0 186570.0 137358.0 131703.0 108191.0 112272.0 194906.0 187851.0 91318.0 92462.0 200905.0 193464.0 136469.0 144028.0 221688.0 224008.0 177072.0 182341.0 158018.0 160328.0 110632.0 117336.0 45165.0 52424.0 133677.0 138937.0 164241.0 163574.0 50495.0 45338.0 66473.0 73564.0 204234.0 199783.0 115828.0 123411.0 204914.0 207944.0 70263.0 73616.0 188051.0 189721.0 145992.0 150957.0 86251.0 81746.0 131325.0 34986.0 131325.0 131325.0 34986.0 34986.0
55279.0 60173.0 88037.0 85626.0 227808.0 232075.0 127735.0 133359.0 4016.0 8801.0 175461.0 173790.0 188087.0 179969.0 147961.0 151741.0 156959.0 157964.0 123686.0 117987.0 85395.0 90579.0 133415.0 126994.0 118569.0 122428.0 194202.0 188944.0 8000.0 0.0 163618.0 167844.0 85709.0 82347.0 133717.0 128441.0 129610.0 133922.0 54637.0 54598.0 151909.0 143742.0 82530.0 87349.0 105246.0 97264.0 158985.0 166772.0 31610.0 38453.0 160182.0 152698.0 87018.0 91210.0 185903.0 188352.0 96287.0 102367.0 60056.0 56477.0 130416.0 122367.0 53912.0 54624.0 77530.0 76753.0 197892.0 196107.0 43032.0 39083.0 176043.0 171436.0 177025.0 183878.0 75235.0 71755.0 140681.0 134365.0 191302.0 194482.0 227905.0 222481.0 109203.0 110605.0 47612.0 40772.0 65753.0 59585.0 114938.0 120347.0 63244.0 59852.0 56086.0 63179.0 54165.0 56792.0 171829.0 165262.0 110896.0 104336.0 154622.0 151979.0 170905.0 173452.0 151100.0 146140.0 159506.0 167178.0 194171.0 195046.0 181142.0 185530.0 111922.0 104075.0 185021.0 183289.0 142558.0 136636.0 109386.0 113945.0 201162.0 194231.0 86812.0 87365.0 196280.0 188744.0 142929.0 150421.0 216803.0 219348.0 177646.0 183173.0 156680.0 158595.0 114893.0 121857.0 37848.0 44864.0 127748.0 133255.0 170558.0 169652.0 51806.0 47794.0 63333.0 70756.0 207086.0 202386.0 117351.0 125088.0 204542.0 207863.0 68731.0 71265.0 193469.0 194885.0 152590.0 157358.0 85421.0 80259.0 138409.0 35028.0 138409.0 138409.0 35028.0 35028.0
169678.0 164581.0 139038.0 146751.0 279729.0 279150.0 102081.0 96527.0 163755.0 163606.0 244673.0 238232.0 346104.0 338169.0 151229.0 146093.0 312526.0 312734.0 283969.0 279059.0 150338.0 144958.0 33542.0 41497.0 91118.0 83364.0 46900.0 38746.0 156639.0 163618.0 0.0 8263.0 249322.0 245696.0 295123.0 290535.0 122891.0 116432.0 206650.0 201594.0 306182.0 298014.0 234676.0 240532.0 95694.0 98112.0 147551.0 149460.0 183940.0 191931.0 53254.0 49712.0 118925.0 124940.0 50999.0 58678.0 137426.0 132161.0 154296.0 146805.0 94463.0 94450.0 161493.0 153155.0 138771.0 146796.0 352437.0 351308.0 133103.0 141257.0 68903.0 73830.0 331298.0 338151.0 238759.0 235338.0 105164.0 109395.0 268903.0 266822.0 269010.0 268370.0 264068.0 266783.0 123600.0 127858.0 157462.0 162385.0 270705.0 275191.0 130180.0 125150.0 217522.0 223369.0 126453.0 118916.0 95830.0 97592.0 273769.0 267556.0 10047.0 17005.0 194738.0 190291.0 307383.0 303221.0 315148.0 323032.0 210917.0 205297.0 105932.0 114059.0 96681.0 96734.0 339510.0 337570.0 56205.0 63145.0 126827.0 120412.0 47623.0 39084.0 244634.0 246834.0 353699.0 346475.0 27175.0 24291.0 289651.0 287435.0 160709.0 158924.0 182879.0 190611.0 81424.0 74901.0 201439.0 208149.0 289269.0 294041.0 25547.0 32767.0 134238.0 129940.0 166198.0 165346.0 131762.0 134217.0 122905.0 121540.0 195389.0 192048.0 153315.0 161216.0 62922.0 70293.0 17643.0 21604.0 148742.0 154728.0 46895.0 183810.0 46895.0 46895.0 183810.0 183810.0
171383.0 165989.0 138847.0 146707.0 276337.0 275540.0 99308.0 93327.0 167807.0 167449.0 242490.0 235903.0 350754.0 342819.0 147744.0 142293.0 317175.0 317384.0 288619.0 283684.0 150323.0 144627.0 35431.0 43027.0 89242.0 81317.0 38679.0 30547.0 161042.0 167844.0 8263.0 0.0 253466.0 249634.0 299761.0 295192.0 120053.0 113257.0 209489.0 204179.0 310831.0 302664.0 239326.0 245182.0 94904.0 97963.0 143385.0 144919.0 188589.0 196581.0 47503.0 44958.0 118992.0 124628.0 42930.0 50684.0 136741.0 131099.0 155661.0 148391.0 91512.0 92178.0 163194.0 154807.0 139206.0 147252.0 357087.0 355958.0 135846.0 143946.0 61955.0 67344.0 335948.0 342800.0 243071.0 239436.0 101434.0 106143.0 266850.0 264532.0 265222.0 264808.0 268718.0 271433.0 126547.0 131146.0 158537.0 163805.0 275355.0 279840.0 131631.0 126997.0 221117.0 226773.0 128671.0 121331.0 89793.0 92028.0 278356.0 272027.0 17479.0 25009.0 191175.0 186478.0 312033.0 307870.0 319797.0 327682.0 206733.0 200901.0 99561.0 107647.0 95269.0 96016.0 344160.0 342220.0 52699.0 60166.0 125316.0 118599.0 39827.0 31327.0 249283.0 251483.0 358349.0 351125.0 27323.0 22261.0 287165.0 284737.0 155888.0 153780.0 179690.0 187536.0 80232.0 73226.0 205581.0 212133.0 293916.0 298691.0 17873.0 25480.0 136331.0 132478.0 167462.0 166225.0 124766.0 127495.0 120867.0 118988.0 190263.0 186676.0 154218.0 162030.0 54819.0 62296.0 16822.0 17482.0 148718.0 155019.0 53539.0 188460.0 53539.0 53539.0 188460.0 188460.0
104047.0 112117.0 151300.0 145243.0 242830.0 249233.0 201498.0 208372.0 85665.0 86298.0 191164.0 193099.0 117335.0 109217.0 206103.0 212147.0 98826.0 103361.0 52316.0 44405.0 143087.0 150639.0 218801.0 212144.0 195711.0 201091.0 278572.0 273705.0 92857.0 85709.0 249322.0 253466.0 0.0 8013.0 56284.0 48986.0 197100.0 203455.0 58889.0 67311.0 105318.0 97317.0 70507.0 66403.0 182552.0 175007.0 219548.0 227504.0 74070.0 68620.0 242630.0 235593.0 159270.0 160375.0 269377.0 271114.0 159467.0 167360.0 119468.0 121787.0 206034.0 198398.0 109651.0 116271.0 142477.0 137513.0 139646.0 135100.0 121869.0 114808.0 256822.0 251277.0 127821.0 132740.0 12001.0 14091.0 213401.0 205956.0 197100.0 203205.0 249232.0 242043.0 67330.0 61739.0 129510.0 123700.0 121795.0 113319.0 66258.0 74243.0 135961.0 136155.0 36602.0 35570.0 131870.0 137159.0 247682.0 240406.0 29752.0 22018.0 240324.0 237672.0 213687.0 218851.0 90801.0 83370.0 100656.0 106373.0 234771.0 238467.0 255468.0 258383.0 188207.0 181238.0 128362.0 130024.0 224896.0 218216.0 176049.0 182695.0 285960.0 279281.0 44674.0 36841.0 126882.0 118866.0 228201.0 235575.0 220411.0 225686.0 235817.0 242785.0 202335.0 200841.0 194670.0 202347.0 47890.0 41572.0 50621.0 58200.0 255539.0 254152.0 126243.0 126257.0 113480.0 120531.0 278095.0 272136.0 185071.0 193067.0 254417.0 259796.0 126951.0 123876.0 276048.0 276603.0 238027.0 242512.0 143987.0 135949.0 224102.0 80125.0 224102.0 224102.0 80125.0 80125.0
97241.0 105308.0 144634.0 138414.0 234878.0 241263.0 195340.0 202313.0 81959.0 82194.0 183168.0 185088.0 124984.0 116895.0 198868.0 205006.0 106838.0 111353.0 60256.0 52316.0 136174.0 143789.0 214766.0 207969.0 189936.0 195486.0 273972.0 269265.0 89770.0 82347.0 245696.0 249634.0 8013.0 0.0 63761.0 56284.0 190446.0 196926.0 51645.0 60027.0 113139.0 105102.0 75457.0 71962.0 176853.0 169397.0 212392.0 220336.0 73664.0 68904.0 237552.0 230629.0 153198.0 154043.0 264506.0 266059.0 152733.0 160688.0 112940.0 115594.0 200047.0 192485.0 103095.0 109935.0 135998.0 130825.0 147643.0 143065.0 116838.0 109567.0 251394.0 245707.0 135771.0 140729.0 14422.0 11601.0 207103.0 199585.0 189233.0 195299.0 241231.0 234050.0 74557.0 69260.0 124802.0 119224.0 115041.0 106581.0 73847.0 81822.0 130141.0 130673.0 30363.0 28300.0 126585.0 132151.0 241601.0 234267.0 37139.0 29395.0 236833.0 234236.0 205896.0 211115.0 98814.0 91377.0 108669.0 114373.0 226903.0 230651.0 249209.0 251976.0 182364.0 175528.0 136374.0 138030.0 219831.0 213016.0 169437.0 176198.0 281526.0 274976.0 51001.0 43507.0 134580.0 126561.0 224077.0 231372.0 212631.0 217856.0 228502.0 235523.0 194642.0 193062.0 189245.0 197005.0 44614.0 37555.0 58200.0 65887.0 251221.0 249629.0 120699.0 121125.0 106556.0 113480.0 271489.0 265440.0 178487.0 186464.0 246750.0 252187.0 120244.0 116915.0 270945.0 271316.0 234010.0 238301.0 137112.0 129001.0 220667.0 80081.0 220667.0 220667.0 80081.0 80081.0
159960.0 168017.0 206917.0 201111.0 293124.0 299957.0 255954.0 262563.0 134732.0 136503.0 242937.0 245607.0 61399.0 53428.0 262346.0 268324.0 52203.0 58849.0 14001.0 16149.0 199066.0 206528.0 266234.0 260183.0 249197.0 254068.0 327761.0 322301.0 139615.0 133717.0 295123.0 299761.0 56284.0 63761.0 0.0 8065.0 252623.0 258730.0 115168.0 123593.0 67941.0 62160.0 79602.0 71737.0 235889.0 228136.0 275735.0 283700.0 112405.0 104859.0 293735.0 286341.0 213669.0 215344.0 319619.0 322001.0 215176.0 222957.0 174940.0 176634.0 260046.0 252244.0 165203.0 171423.0 197790.0 193191.0 88254.0 82487.0 173868.0 167484.0 309022.0 303947.0 83884.0 86551.0 61891.0 68544.0 268161.0 260896.0 246101.0 252833.0 300987.0 293510.0 52757.0 44441.0 180439.0 174012.0 177603.0 169124.0 45194.0 50118.0 189892.0 189225.0 92381.0 91854.0 184448.0 188882.0 301830.0 294724.0 26625.0 34366.0 286003.0 283353.0 269391.0 274734.0 44034.0 36180.0 53055.0 56317.0 290094.0 294062.0 310056.0 313317.0 241905.0 234611.0 78765.0 82508.0 276053.0 269855.0 231527.0 237945.0 334467.0 327315.0 53969.0 49217.0 71127.0 63125.0 275894.0 283514.0 267939.0 273914.0 292091.0 299039.0 258328.0 256595.0 247148.0 254528.0 98267.0 94037.0 6004.0 5370.0 303774.0 303189.0 179570.0 178479.0 169509.0 176671.0 333441.0 327663.0 240484.0 248501.0 310458.0 315937.0 182681.0 179928.0 327087.0 328269.0 285208.0 290427.0 199917.0 191976.0 269783.0 116178.0 269783.0 269783.0 116178.0 116178.0
152933.0 161000.0 200041.0 194118.0 285059.0 291892.0 249503.0 256193.0 129278.0 130851.0 234884.0 237572.0 69235.0 61327.0 255079.0 261133.0 59589.0 66024.0 16149.0 14001.0 192013.0 199525.0 261405.0 255227.0 243017.0 248023.0 322633.0 317293.0 134584.0 128441.0 290535.0 295192.0 48986.0 56284.0 8065.0 0.0 245798.0 252004.0 107846.0 116256.0 74217.0 67989.0 79023.0 71411.0 229740.0 222033.0 268533.0 276490.0 108441.0 101088.0 288164.0 280845.0 207213.0 208712.0 314258.0 316497.0 208262.0 216094.0 168109.0 170017.0 253728.0 245968.0 158336.0 164704.0 191029.0 186284.0 96259.0 90537.0 167962.0 161417.0 303203.0 298009.0 91195.0 94124.0 55362.0 61675.0 261618.0 254291.0 238045.0 244771.0 292930.0 285449.0 54678.0 46250.0 174773.0 168457.0 170633.0 162152.0 47802.0 53622.0 183548.0 183098.0 85358.0 84499.0 178430.0 183062.0 295489.0 288329.0 19238.0 26969.0 281416.0 278765.0 261649.0 267044.0 51331.0 43397.0 60579.0 64144.0 282270.0 286291.0 303581.0 306727.0 235664.0 228451.0 86631.0 90198.0 270457.0 264144.0 224716.0 231223.0 329486.0 322426.0 51924.0 46193.0 79010.0 71022.0 271026.0 278605.0 259915.0 265874.0 284762.0 291754.0 250680.0 248870.0 241222.0 248678.0 92352.0 87741.0 5370.0 12310.0 298825.0 298074.0 173368.0 172533.0 162421.0 169509.0 326701.0 320848.0 233700.0 241711.0 302824.0 308354.0 175749.0 172827.0 321552.0 322588.0 280451.0 285530.0 192891.0 184893.0 265195.0 112592.0 265195.0 265195.0 112592.0 112592.0
93267.0 85226.0 45812.0 52373.0 157159.0 157015.0 20811.0 27039.0 126722.0 123054.0 122977.0 116149.0 311819.0 303584.0 30266.0 28282.0 284386.0 286135.0 245542.0 238543.0 55060.0 47184.0 94713.0 87966.0 33796.0 40424.0 118278.0 118523.0 127969.0 129610.0 122891.0 120053.0 197100.0 190446.0 252623.0 245798.0 0.0 8408.0 139384.0 131340.0 280773.0 272605.0 212133.0 216865.0 37861.0 43069.0 33672.0 40166.0 160864.0 168028.0 78243.0 76826.0 42959.0 38494.0 104011.0 100826.0 37806.0 29760.0 77691.0 76508.0 28546.0 29200.0 87467.0 81305.0 54903.0 59622.0 325974.0 323520.0 87300.0 90544.0 79788.0 71678.0 305889.0 312721.0 190782.0 184132.0 22465.0 15036.0 147533.0 144781.0 147417.0 146155.0 237819.0 238219.0 86363.0 93361.0 75441.0 83878.0 242808.0 248841.0 66367.0 70455.0 160515.0 162355.0 76469.0 76820.0 57022.0 49231.0 226626.0 218995.0 121040.0 125348.0 72976.0 69720.0 277849.0 272051.0 286823.0 294169.0 91965.0 88059.0 61408.0 62545.0 31981.0 37933.0 313257.0 312071.0 67471.0 59898.0 21103.0 15697.0 128449.0 126368.0 213702.0 212414.0 320763.0 312905.0 96776.0 98619.0 167185.0 164684.0 52674.0 56222.0 60214.0 67784.0 45489.0 49436.0 156547.0 159254.0 246713.0 253616.0 108280.0 101697.0 77804.0 82729.0 84272.0 78110.0 81060.0 75050.0 12345.0 4579.0 86313.0 86686.0 70206.0 74212.0 103759.0 99912.0 105269.0 102572.0 53897.0 62300.0 123494.0 162894.0 123494.0 123494.0 162894.0 162894.0
99951.0 91961.0 52486.0 59471.0 163306.0 162863.0 15231.0 19933.0 131192.0 127701.0 130510.0 123563.0 317570.0 309338.0 35072.0 31263.0 289531.0 291110.0 251367.0 244467.0 62337.0 54432.0 89330.0 82921.0 29859.0 35411.0 110230.0 110669.0 131844.0 133922.0 116432.0 113257.0 203455.0 196926.0 258730.0 252004.0 8408.0 0.0 146131.0 138182.0 285515.0 277347.0 216321.0 221270.0 36756.0 43113.0 35192.0 40485.0 164901.0 172214.0 70488.0 69476.0 46904.0 43606.0 95887.0 92564.0 44823.0 36617.0 83996.0 82202.0 22077.0 24650.0 93833.0 87310.0 60985.0 66276.0 331000.0 328702.0 91177.0 95013.0 71450.0 63316.0 310631.0 317484.0 196845.0 190332.0 14089.0 7169.0 155114.0 152164.0 152977.0 152046.0 242629.0 243267.0 89383.0 96498.0 82145.0 90514.0 247810.0 253697.0 70887.0 74248.0 166853.0 168949.0 80159.0 79715.0 48782.0 40979.0 232876.0 225280.0 115052.0 119695.0 78511.0 74626.0 283116.0 277447.0 291993.0 299411.0 96354.0 91865.0 53643.0 55300.0 30008.0 37127.0 318234.0 316877.0 60561.0 53288.0 27654.0 20785.0 120426.0 118533.0 218831.0 217792.0 326430.0 318604.0 90753.0 92142.0 174353.0 171646.0 53247.0 55659.0 66464.0 74279.0 41647.0 44415.0 162077.0 165075.0 252798.0 259602.0 100942.0 94191.0 82222.0 86506.0 91184.0 85297.0 74711.0 69137.0 18555.0 10884.0 88007.0 87602.0 76850.0 81295.0 95434.0 91522.0 98873.0 95787.0 61095.0 69533.0 119091.0 166617.0 119091.0 119091.0 166617.0 166617.0
46183.0 54178.0 93660.0 87115.0 194461.0 200049.0 145588.0 152850.0 51883.0 49188.0 141428.0 141932.0 176031.0 167868.0 147238.0 153362.0 154361.0 157845.0 110220.0 102577.0 84738.0 92442.0 174069.0 166669.0 141558.0 147733.0 229908.0 225972.0 62399.0 54637.0 206650.0 209489.0 58889.0 51645.0 115168.0 107846.0 139384.0 146131.0 0.0 8434.0 156563.0 148284.0 100857.0 101394.0 128891.0 121888.0 160747.0 168690.0 68158.0 69096.0 191646.0 185279.0 104023.0 103961.0 219306.0 220068.0 101585.0 109651.0 62577.0 66473.0 150839.0 143580.0 52769.0 60333.0 85579.0 79856.0 196048.0 192163.0 73643.0 65567.0 203975.0 197771.0 180856.0 186716.0 55180.0 47500.0 156885.0 149187.0 152154.0 156957.0 198361.0 191760.0 114158.0 111444.0 83051.0 79175.0 63989.0 55630.0 116313.0 123779.0 82350.0 84484.0 24044.0 23354.0 81548.0 88388.0 191926.0 184432.0 88629.0 80883.0 198626.0 197005.0 156111.0 160895.0 146791.0 139894.0 156469.0 162907.0 177850.0 181021.0 198996.0 201375.0 133792.0 127536.0 184121.0 184743.0 174130.0 166794.0 118514.0 125536.0 238166.0 232268.0 87919.0 83393.0 185475.0 177472.0 182787.0 189591.0 177115.0 181092.0 176928.0 183908.0 144187.0 143206.0 142294.0 150328.0 36140.0 31902.0 109467.0 116923.0 208662.0 206112.0 74515.0 77143.0 55172.0 61903.0 220431.0 214223.0 127604.0 135522.0 196092.0 201270.0 69282.0 65444.0 224723.0 224350.0 193126.0 196396.0 85735.0 77527.0 183483.0 75084.0 183483.0 183483.0 75084.0 75084.0
38332.0 46240.0 85696.0 79009.0 187719.0 193154.0 137986.0 145328.0 51416.0 48097.0 134606.0 134839.0 184465.0 176301.0 138841.0 145000.0 162617.0 166022.0 118635.0 111003.0 76558.0 84305.0 168749.0 161237.0 134378.0 140717.0 223661.0 219911.0 61999.0 54598.0 201594.0 204179.0 67311.0 60027.0 123593.0 116256.0 131340.0 138182.0 8434.0 0.0 164495.0 156213.0 107468.0 108390.0 121865.0 115020.0 152379.0 160317.0 71795.0 73559.0 185023.0 178808.0 96700.0 96325.0 212808.0 213377.0 93534.0 101640.0 54987.0 59384.0 143395.0 136240.0 45272.0 53101.0 77865.0 71921.0 204340.0 200505.0 68513.0 60343.0 196948.0 190617.0 188892.0 194823.0 63539.0 55899.0 149123.0 141372.0 146171.0 150713.0 191182.0 184693.0 121920.0 119414.0 78186.0 74870.0 56056.0 47786.0 124283.0 131682.0 75611.0 78254.0 32296.0 31757.0 75717.0 82859.0 184298.0 176763.0 97044.0 89297.0 193780.0 192441.0 147839.0 152563.0 155084.0 148226.0 164743.0 171224.0 169673.0 172760.0 191203.0 193460.0 126573.0 120506.0 192371.0 192912.0 167596.0 160144.0 110540.0 117654.0 232068.0 226329.0 95684.0 91393.0 193906.0 185904.0 177298.0 183966.0 171309.0 175045.0 168510.0 175503.0 135830.0 134931.0 135516.0 143600.0 41956.0 38783.0 117897.0 125357.0 202806.0 200038.0 68403.0 71705.0 47070.0 53643.0 212357.0 206091.0 119637.0 127526.0 187703.0 192857.0 61377.0 57263.0 217968.0 217412.0 187697.0 190723.0 77588.0 69330.0 179018.0 78498.0 179018.0 179018.0 78498.0 78498.0
194300.0 201777.0 237097.0 233024.0 347738.0 353965.0 279643.0 285190.0 154408.0 157814.0 295577.0 297013.0 60542.0 56123.0 296285.0 301016.0 22567.0 16121.0 59713.0 66740.0 231858.0 238366.0 277477.0 271743.0 270155.0 273534.0 339663.0 333847.0 155182.0 151909.0 306182.0 310831.0 105318.0 113139.0 67941.0 74217.0 280773.0 285515.0 156563.0 164495.0 0.0 8282.0 73021.0 65941.0 256905.0 248907.0 308411.0 316349.0 122474.0 114611.0 308229.0 300405.0 238665.0 242285.0 332594.0 335785.0 245552.0 252427.0 205963.0 205042.0 282191.0 274125.0 197202.0 201291.0 226904.0 224304.0 49264.0 50233.0 194940.0 190517.0 325182.0 321333.0 25228.0 32458.0 103285.0 111265.0 292587.0 286205.0 302363.0 308365.0 353423.0 346432.0 43162.0 45141.0 198891.0 191783.0 210242.0 202224.0 40278.0 32831.0 214629.0 211725.0 132704.0 135981.0 206073.0 208366.0 323362.0 316959.0 84170.0 89529.0 297062.0 294411.0 311609.0 315794.0 27211.0 33350.0 24271.0 30237.0 333868.0 336538.0 332903.0 337413.0 263700.0 255770.0 36574.0 32798.0 290956.0 285737.0 260088.0 265228.0 345925.0 338592.0 69044.0 73199.0 63039.0 59066.0 287197.0 294890.0 325725.0 330993.0 326384.0 332523.0 298855.0 298718.0 265625.0 272073.0 126830.0 126851.0 68957.0 62618.0 315206.0 315123.0 203308.0 199703.0 204117.0 211943.0 358991.0 354230.0 268437.0 276316.0 349823.0 354211.0 214598.0 214192.0 341031.0 343194.0 296335.0 301765.0 232314.0 225444.0 280842.0 124149.0 280842.0 280842.0 124149.0 124149.0
186089.0 193584.0 228911.0 224856.0 339589.0 345794.0 271475.0 277023.0 146241.0 149646.0 287384.0 288791.0 62504.0 57170.0 288123.0 292841.0 22884.0 18508.0 52958.0 59666.0 223693.0 230197.0 269310.0 263576.0 261988.0 265366.0 331496.0 325680.0 147014.0 143742.0 298014.0 302664.0 97317.0 105102.0 62160.0 67989.0 272605.0 277347.0 148284.0 156213.0 8282.0 0.0 64854.0 57773.0 248738.0 240740.0 300234.0 308170.0 114307.0 106444.0 300062.0 292238.0 230498.0 234117.0 324427.0 327618.0 237365.0 244215.0 197796.0 196848.0 274024.0 265957.0 189030.0 193120.0 218705.0 216134.0 55828.0 55954.0 186773.0 182350.0 317014.0 313166.0 33284.0 40238.0 95087.0 103062.0 284419.0 278038.0 294295.0 300263.0 345210.0 338233.0 34974.0 36872.0 190723.0 183616.0 202070.0 194044.0 32013.0 24552.0 206462.0 203558.0 124431.0 127743.0 197906.0 200199.0 315194.0 308792.0 76892.0 81997.0 288895.0 286244.0 303341.0 307539.0 24960.0 29523.0 25194.0 32462.0 325592.0 328271.0 324736.0 329246.0 255533.0 247602.0 42924.0 40042.0 282789.0 277570.0 251921.0 257060.0 337758.0 330425.0 60777.0 64927.0 66179.0 61365.0 279030.0 286722.0 317723.0 322952.0 318223.0 324349.0 290603.0 290449.0 257458.0 263906.0 118613.0 118584.0 62661.0 56794.0 307039.0 306955.0 195140.0 191536.0 195910.0 203731.0 350824.0 346063.0 260270.0 268149.0 341599.0 346009.0 206431.0 206001.0 332864.0 335027.0 288167.0 293598.0 224146.0 217279.0 272674.0 115982.0 272674.0 272674.0 115982.0 115982.0
130631.0 137464.0 169995.0 166800.0 295181.0 300610.0 209472.0 214649.0 85536.0 89488.0 242074.0 242211.0 117041.0 109680.0 229835.0 233953.0 80262.0 79626.0 65726.0 65027.0 166082.0 171980.0 205971.0 200237.0 199262.0 202271.0 268157.0 262342.0 84639.0 82530.0 234676.0 239326.0 70507.0 75457.0 79602.0 79023.0 212133.0 216321.0 100857.0 107468.0 73021.0 64854.0 0.0 8101.0 186149.0 178163.0 241253.0 249092.0 51499.0 44114.0 236724.0 228899.0 169446.0 173738.0 261089.0 264280.0 178360.0 184722.0 140106.0 137987.0 211534.0 203459.0 132163.0 135041.0 159567.0 157931.0 119290.0 118287.0 125169.0 121612.0 253754.0 249830.0 98138.0 104990.0 61164.0 67063.0 222533.0 216497.0 252875.0 257797.0 298423.0 292058.0 32708.0 38419.0 128155.0 120973.0 145035.0 137552.0 40827.0 42998.0 145771.0 142094.0 79946.0 86136.0 136246.0 137782.0 252268.0 246087.0 71600.0 70555.0 225557.0 222906.0 249209.0 252627.0 76416.0 73948.0 82938.0 90970.0 272107.0 273911.0 262108.0 266947.0 193105.0 185067.0 106350.0 104410.0 219450.0 214279.0 191889.0 196460.0 274420.0 267087.0 28991.0 37007.0 123469.0 116900.0 215692.0 223384.0 277659.0 281835.0 259729.0 265450.0 235658.0 236491.0 194242.0 200588.0 65785.0 68955.0 75191.0 76170.0 243701.0 243617.0 134329.0 129874.0 140161.0 148040.0 288839.0 284421.0 199880.0 207605.0 285277.0 289077.0 148891.0 149675.0 269526.0 271689.0 224829.0 230260.0 166334.0 160182.0 209336.0 50865.0 209336.0 209336.0 50865.0 50865.0
133515.0 140576.0 174119.0 170614.0 295847.0 301436.0 214819.0 220162.0 90144.0 93881.0 242821.0 243219.0 109278.0 101845.0 233807.0 238135.0 72997.0 72546.0 57816.0 57412.0 169744.0 175858.0 211828.0 206094.0 204930.0 208096.0 274014.0 268198.0 90016.0 87349.0 240532.0 245182.0 66403.0 71962.0 71737.0 71411.0 216865.0 221270.0 101394.0 108390.0 65941.0 57773.0 8101.0 0.0 191747.0 183750.0 245473.0 253353.0 57003.0 49302.0 242580.0 234756.0 174366.0 178399.0 266945.0 270136.0 182528.0 189081.0 143739.0 142035.0 217098.0 209023.0 135497.0 138797.0 163759.0 161780.0 112209.0 111207.0 130264.0 126335.0 259610.0 255687.0 91057.0 97910.0 57972.0 64480.0 227837.0 221653.0 252893.0 258021.0 299570.0 293070.0 24935.0 30346.0 133698.0 126545.0 148461.0 140782.0 32890.0 35545.0 150517.0 147153.0 79499.0 85153.0 141382.0 143263.0 258051.0 251763.0 64916.0 64434.0 231413.0 228762.0 251982.0 255612.0 68834.0 66108.0 75664.0 83676.0 274741.0 276773.0 267753.0 272446.0 198632.0 190639.0 99269.0 97329.0 225307.0 220135.0 196438.0 201228.0 280276.0 272943.0 22901.0 31176.0 115871.0 109199.0 221548.0 229241.0 277480.0 281856.0 263794.0 269658.0 238631.0 239201.0 200095.0 206428.0 67343.0 69619.0 67449.0 68209.0 249557.0 249474.0 139106.0 135002.0 143167.0 151053.0 294210.0 289649.0 204571.0 212361.0 288688.0 292670.0 152493.0 152887.0 275382.0 277545.0 230685.0 236116.0 170064.0 163664.0 215192.0 57106.0 215192.0 215192.0 57106.0 57106.0
84563.0 77582.0 44464.0 52563.0 190323.0 190998.0 24671.0 28608.0 103153.0 100430.0 150615.0 144657.0 292640.0 284460.0 67580.0 66141.0 262205.0 263139.0 227193.0 220828.0 56199.0 49954.0 63749.0 56062.0 13366.0 18852.0 104532.0 102223.0 101758.0 105246.0 95694.0 94904.0 182552.0 176853.0 235889.0 229740.0 37861.0 36756.0 128891.0 121865.0 256905.0 248738.0 186149.0 191747.0 0.0 7999.0 71235.0 77095.0 134764.0 142455.0 64192.0 59052.0 26131.0 30176.0 92313.0 92042.0 41838.0 36545.0 67615.0 62483.0 25396.0 17331.0 76874.0 68795.0 46928.0 54752.0 303048.0 301348.0 62567.0 68438.0 75091.0 68963.0 282022.0 288875.0 174455.0 168775.0 37620.0 33572.0 174405.0 172953.0 182143.0 180104.0 214333.0 215848.0 58050.0 65205.0 68579.0 75596.0 220181.0 225493.0 46780.0 46665.0 146517.0 150102.0 51634.0 48541.0 66593.0 60055.0 211027.0 203711.0 91591.0 94375.0 108511.0 106234.0 256302.0 251191.0 264751.0 272412.0 128868.0 125469.0 76012.0 80842.0 7295.0 1363.0 290151.0 288294.0 47708.0 39627.0 32274.0 27674.0 113835.0 109475.0 191924.0 191921.0 301080.0 293433.0 68519.0 72648.0 196260.0 194787.0 89824.0 92414.0 94591.0 101294.0 15109.0 23127.0 137681.0 142008.0 229889.0 236144.0 87568.0 82855.0 56387.0 57827.0 78139.0 74956.0 102970.0 99130.0 31313.0 34175.0 124073.0 124112.0 63545.0 70594.0 96426.0 95562.0 78475.0 78220.0 54593.0 61692.0 88814.0 135524.0 88814.0 88814.0 135524.0 135524.0
78158.0 71450.0 40935.0 48744.0 191902.0 192905.0 32174.0 36540.0 95194.0 92510.0 150581.0 144910.0 284740.0 276564.0 71876.0 71198.0 254222.0 255145.0 219354.0 213027.0 52360.0 46857.0 65320.0 57410.0 21310.0 26090.0 110040.0 107290.0 93759.0 97264.0 98112.0 97963.0 175007.0 169397.0 228136.0 222033.0 43069.0 43113.0 121888.0 115020.0 248907.0 240740.0 178163.0 183750.0 7999.0 0.0 76730.0 82972.0 126769.0 134458.0 70265.0 64597.0 21125.0 26855.0 98292.0 98443.0 39790.0 35896.0 61308.0 55692.0 33373.0 25299.0 70312.0 62097.0 41797.0 49798.0 295053.0 293362.0 54647.0 60653.0 82177.0 76311.0 274024.0 280876.0 166785.0 161186.0 45250.0 40667.0 174023.0 172946.0 184399.0 182029.0 206338.0 207869.0 50053.0 57210.0 62771.0 69402.0 212196.0 217498.0 39567.0 38938.0 139090.0 142832.0 43768.0 40544.0 74566.0 68052.0 203368.0 196082.0 93274.0 95418.0 111472.0 109708.0 248333.0 243242.0 256770.0 264437.0 132483.0 129508.0 84010.0 88809.0 15040.0 6914.0 282155.0 280295.0 53237.0 45425.0 33564.0 30720.0 119102.0 114350.0 183964.0 184004.0 293158.0 285522.0 71040.0 75833.0 196426.0 195279.0 95615.0 98622.0 97198.0 103510.0 20587.0 28758.0 129897.0 134324.0 222134.0 228348.0 91891.0 87668.0 48769.0 49919.0 72234.0 69617.0 110891.0 106956.0 34713.0 38991.0 129324.0 129740.0 57915.0 65288.0 102971.0 102465.0 81287.0 81770.0 50755.0 57244.0 88170.0 127556.0 88170.0 88170.0 127556.0 127556.0
116082.0 108115.0 71372.0 75579.0 134271.0 132786.0 50134.0 52845.0 155789.0 151765.0 109690.0 102056.0 336065.0 327850.0 14291.0 7440.0 310758.0 313005.0 269791.0 262457.0 77126.0 70176.0 122910.0 116986.0 65017.0 70073.0 133427.0 135572.0 158210.0 158985.0 147551.0 143385.0 219548.0 212392.0 275735.0 268533.0 33672.0 35192.0 160747.0 152379.0 308411.0 300234.0 241253.0 245473.0 71235.0 76730.0 0.0 7991.0 190558.0 197371.0 97360.0 98469.0 74610.0 68636.0 118709.0 113615.0 62948.0 56635.0 102623.0 103470.0 55825.0 59714.0 111805.0 107141.0 81717.0 84170.0 352586.0 349661.0 117993.0 120110.0 92070.0 83856.0 333512.0 340330.0 214491.0 207352.0 42824.0 40777.0 134040.0 129659.0 122106.0 122232.0 265321.0 265054.0 118272.0 125053.0 98891.0 107254.0 269759.0 276176.0 96378.0 101567.0 183423.0 184096.0 107622.0 108974.0 62507.0 56347.0 249298.0 241565.0 147339.0 152607.0 49476.0 43680.0 303867.0 297674.0 313111.0 320211.0 63372.0 57914.0 60473.0 57127.0 64882.0 71412.0 340046.0 339346.0 91445.0 85226.0 50313.0 47983.0 143634.0 143404.0 240424.0 238381.0 345291.0 337340.0 123214.0 123525.0 150048.0 146192.0 19238.0 24197.0 41764.0 49967.0 76770.0 78919.0 182475.0 184179.0 269950.0 277206.0 129129.0 121702.0 107723.0 113652.0 106369.0 99073.0 67325.0 59569.0 43941.0 37907.0 52891.0 53014.0 94173.0 95941.0 115135.0 109301.0 130370.0 126212.0 76476.0 84008.0 153652.0 193176.0 153652.0 153652.0 193176.0 193176.0
124070.0 116105.0 79282.0 83558.0 134741.0 132782.0 54870.0 56622.0 163602.0 159605.0 113183.0 105437.0 344049.0 335833.0 21812.0 15430.0 318738.0 320974.0 277777.0 270439.0 85116.0 78152.0 126122.0 120529.0 69913.0 74359.0 132826.0 135438.0 165900.0 166772.0 149460.0 144919.0 227504.0 220336.0 283700.0 276490.0 40166.0 40485.0 168690.0 160317.0 316349.0 308170.0 249092.0 253353.0 77095.0 82972.0 7991.0 0.0 198328.0 205178.0 98214.0 99972.0 81948.0 76187.0 118146.0 112643.0 70845.0 64405.0 110596.0 111377.0 59831.0 64484.0 119791.0 115095.0 89595.0 92135.0 360564.0 357647.0 125585.0 127847.0 91320.0 83260.0 341446.0 348276.0 222474.0 215328.0 46078.0 45301.0 137266.0 132504.0 121761.0 122418.0 273265.0 273021.0 125634.0 132472.0 106881.0 115245.0 277722.0 284127.0 104030.0 109069.0 191398.0 192041.0 115126.0 116264.0 61030.0 55571.0 257255.0 249521.0 149768.0 155331.0 51186.0 44572.0 311852.0 305664.0 321093.0 328197.0 62289.0 56037.0 57563.0 53303.0 70479.0 77369.0 348018.0 347304.0 93695.0 87959.0 57831.0 55035.0 142958.0 143204.0 248392.0 246364.0 353277.0 345326.0 125843.0 125676.0 152209.0 147989.0 12764.0 16450.0 45604.0 53570.0 81521.0 83006.0 190453.0 192169.0 277918.0 285182.0 130065.0 122477.0 115404.0 121203.0 114354.0 107046.0 61328.0 53393.0 51065.0 44575.0 47954.0 47125.0 102156.0 103926.0 113803.0 107574.0 132527.0 127964.0 84464.0 91998.0 157491.0 200878.0 157491.0 157491.0 200878.0 200878.0
84281.0 90135.0 119645.0 117113.0 255101.0 259800.0 157982.0 163216.0 35019.0 39419.0 202205.0 201207.0 162168.0 154244.0 179571.0 183328.0 128674.0 128981.0 100688.0 96261.0 116760.0 122118.0 155235.0 149501.0 147932.0 151117.0 217421.0 211605.0 33140.0 31610.0 183940.0 188589.0 74070.0 73664.0 112405.0 108441.0 160864.0 164901.0 68158.0 71795.0 122474.0 114307.0 51499.0 57003.0 134764.0 126769.0 190558.0 198328.0 0.0 7995.0 185951.0 178139.0 118066.0 122581.0 210352.0 213534.0 127897.0 133928.0 91131.0 87993.0 160129.0 152054.0 84213.0 85801.0 109139.0 108227.0 168743.0 167516.0 73724.0 70516.0 202911.0 198919.0 147591.0 154443.0 62146.0 62063.0 171037.0 165006.0 216227.0 220096.0 256317.0 250543.0 80254.0 82861.0 76725.0 69560.0 96579.0 89830.0 86809.0 91394.0 94573.0 90654.0 57329.0 65403.0 84777.0 86323.0 201049.0 194766.0 93181.0 87963.0 174821.0 172170.0 201751.0 204549.0 123475.0 119291.0 131290.0 139160.0 224945.0 226084.0 210763.0 215511.0 141677.0 133664.0 155801.0 153863.0 168653.0 163424.0 140829.0 145173.0 223683.0 216351.0 60798.0 63494.0 169769.0 162536.0 164956.0 172648.0 241626.0 244800.0 209248.0 214740.0 187699.0 189294.0 143163.0 149605.0 35058.0 42748.0 106678.0 110953.0 192965.0 192881.0 83126.0 78411.0 93134.0 100833.0 237358.0 232923.0 148659.0 156320.0 236025.0 239423.0 99886.0 101796.0 218777.0 220912.0 174093.0 179524.0 116845.0 111381.0 158600.0 7151.0 158600.0 158600.0 7151.0 7151.0
89278.0 95495.0 126259.0 123427.0 258809.0 263687.0 165537.0 170860.0 41585.0 45732.0 205781.0 205055.0 154187.0 146271.0 186176.0 190104.0 120714.0 121080.0 92968.0 88710.0 122924.0 128512.0 163227.0 157493.0 155656.0 158931.0 225413.0 219597.0 40714.0 38453.0 191931.0 196581.0 68620.0 68904.0 104859.0 101088.0 168028.0 172214.0 69096.0 73559.0 114611.0 106444.0 44114.0 49302.0 142455.0 134458.0 197371.0 205178.0 7995.0 0.0 193940.0 186131.0 125334.0 129655.0 218343.0 221529.0 134571.0 140777.0 97110.0 94404.0 167800.0 159725.0 89776.0 91875.0 115783.0 114538.0 160874.0 159588.0 81083.0 77531.0 210872.0 206850.0 139727.0 146580.0 56622.0 57363.0 178568.0 172450.0 219090.0 223203.0 260513.0 254588.0 72322.0 74868.0 84406.0 77262.0 102370.0 95329.0 78827.0 83470.0 101673.0 98001.0 55609.0 63584.0 92178.0 93961.0 208813.0 202485.0 86271.0 81340.0 182812.0 180161.0 207356.0 210353.0 115486.0 111298.0 123327.0 131188.0 230477.0 231823.0 218466.0 223144.0 149331.0 141343.0 147938.0 145999.0 176633.0 171381.0 147839.0 152351.0 231675.0 224342.0 52885.0 55805.0 161775.0 154548.0 172947.0 180639.0 244402.0 247801.0 215961.0 221565.0 193451.0 194806.0 151016.0 157503.0 34068.0 41104.0 99180.0 103290.0 200956.0 200872.0 90228.0 85801.0 98401.0 106188.0 244926.0 240415.0 155784.0 163497.0 242249.0 245798.0 105896.0 107389.0 226771.0 228899.0 182084.0 187515.0 123076.0 117334.0 166591.0 11757.0 166591.0 166591.0 11757.0 11757.0
148422.0 141647.0 107605.0 115804.0 231373.0 230110.0 58734.0 51406.0 159011.0 157314.0 200982.0 193981.0 347715.0 339678.0 103295.0 97098.0 314523.0 314782.0 283865.0 278120.0 119393.0 112432.0 43029.0 43208.0 53694.0 46013.0 41011.0 40342.0 154887.0 160182.0 53254.0 47503.0 242630.0 237552.0 293735.0 288164.0 78243.0 70488.0 191646.0 185023.0 308229.0 300062.0 236724.0 242580.0 64192.0 70265.0 97360.0 98214.0 185951.0 193940.0 0.0 8219.0 90319.0 93622.0 28126.0 28515.0 103248.0 96142.0 131558.0 125864.0 50743.0 54388.0 140561.0 132306.0 111074.0 118808.0 354485.0 353356.0 120765.0 127999.0 19971.0 21723.0 333345.0 340198.0 233565.0 228607.0 57224.0 63368.0 225596.0 222547.0 219463.0 219503.0 266115.0 268802.0 113414.0 119727.0 132755.0 139623.0 272752.0 277238.0 109413.0 107363.0 207529.0 211862.0 111038.0 105472.0 42605.0 44525.0 270021.0 263018.0 56298.0 63462.0 146156.0 140923.0 309425.0 305129.0 317155.0 325061.0 160395.0 154243.0 53008.0 61161.0 61324.0 65539.0 341557.0 339617.0 17736.0 24884.0 88636.0 80949.0 50867.0 48153.0 246068.0 247337.0 355569.0 348216.0 36698.0 32446.0 244492.0 241479.0 108777.0 106392.0 135706.0 143795.0 49678.0 41512.0 195931.0 201255.0 287746.0 293411.0 31851.0 24343.0 117400.0 116428.0 142298.0 139103.0 80265.0 81840.0 82150.0 78285.0 142862.0 139182.0 127737.0 134737.0 33423.0 34976.0 38585.0 31951.0 117815.0 125387.0 76270.0 185857.0 76270.0 76270.0 185857.0 185857.0
142621.0 136035.0 103110.0 111291.0 231833.0 230855.0 56589.0 49787.0 151612.0 150023.0 199803.0 192956.0 340018.0 331996.0 103325.0 97585.0 306749.0 306958.0 276351.0 270676.0 114910.0 108191.0 35505.0 35168.0 49626.0 41667.0 45493.0 43440.0 147277.0 152698.0 49712.0 44958.0 235593.0 230629.0 286341.0 280845.0 76826.0 69476.0 185279.0 178808.0 300405.0 292238.0 228899.0 234756.0 59052.0 64597.0 98469.0 99972.0 178139.0 186131.0 8219.0 0.0 85119.0 88954.0 34032.0 35660.0 99257.0 92480.0 125853.0 119879.0 48568.0 51082.0 134672.0 126355.0 105953.0 113802.0 346660.0 345532.0 113792.0 121162.0 27970.0 28631.0 325521.0 332374.0 226391.0 221547.0 56937.0 62307.0 224349.0 221580.0 220426.0 220164.0 258291.0 260999.0 106198.0 112390.0 127340.0 133974.0 264922.0 269414.0 103268.0 100840.0 200706.0 205193.0 104291.0 98479.0 47523.0 48268.0 262793.0 255840.0 51447.0 58165.0 146593.0 141707.0 301606.0 297368.0 309287.0 317204.0 161794.0 155944.0 58491.0 66604.0 56945.0 60371.0 333733.0 331793.0 11368.0 19464.0 85410.0 77960.0 54824.0 50956.0 238368.0 239739.0 347823.0 340495.0 30063.0 27031.0 243829.0 241071.0 111051.0 109215.0 135540.0 143516.0 44148.0 35979.0 188700.0 194147.0 280357.0 285951.0 31470.0 25025.0 110858.0 109534.0 136825.0 133962.0 86600.0 87647.0 79535.0 76392.0 145677.0 142394.0 122417.0 129605.0 40779.0 42940.0 33644.0 28112.0 113316.0 120662.0 68795.0 178033.0 68795.0 68795.0 178033.0 178033.0
58884.0 51668.0 20395.0 27840.0 177111.0 178780.0 42290.0 49116.0 84300.0 80869.0 133133.0 127966.0 271692.0 263472.0 66134.0 67886.0 242910.0 244366.0 205704.0 199018.0 31416.0 26609.0 85830.0 77854.0 37814.0 44652.0 130612.0 128132.0 85079.0 87018.0 118925.0 118992.0 159270.0 153198.0 213669.0 207213.0 42959.0 46904.0 104023.0 96700.0 238665.0 230498.0 169446.0 174366.0 26131.0 21125.0 74610.0 81948.0 118066.0 125334.0 90319.0 85119.0 0.0 8078.0 118442.0 118071.0 21542.0 21314.0 41918.0 37685.0 46900.0 39558.0 51451.0 43692.0 20841.0 28763.0 284277.0 282099.0 44387.0 48149.0 100560.0 94003.0 263782.0 270635.0 151859.0 145749.0 54620.0 47723.0 155940.0 155431.0 171072.0 168003.0 195810.0 196591.0 43686.0 50558.0 42504.0 49740.0 201097.0 206896.0 24149.0 27504.0 122852.0 125871.0 33509.0 34374.0 88416.0 81149.0 188258.0 180791.0 113718.0 115407.0 100635.0 100249.0 236611.0 231089.0 245393.0 252872.0 122986.0 121237.0 96387.0 99846.0 29955.0 24789.0 271483.0 270041.0 73758.0 65730.0 24539.0 27289.0 139838.0 135281.0 172237.0 171470.0 280407.0 272638.0 91954.0 96909.0 179092.0 178480.0 93817.0 98348.0 85814.0 91035.0 40995.0 49142.0 116101.0 119655.0 207694.0 214258.0 112971.0 108610.0 35361.0 39783.0 52086.0 48845.0 120712.0 115646.0 31028.0 38386.0 124828.0 126561.0 37427.0 44487.0 122376.0 121207.0 102270.0 102887.0 29823.0 36119.0 106667.0 119965.0 106667.0 106667.0 119965.0 119965.0
58055.0 50388.0 14296.0 22393.0 169055.0 170705.0 41664.0 49095.0 88265.0 84564.0 125359.0 120098.0 273987.0 265756.0 59338.0 61684.0 246025.0 247702.0 207814.0 200962.0 26028.0 20020.0 92160.0 84234.0 40118.0 47611.0 134331.0 132274.0 89866.0 91210.0 124940.0 124628.0 160375.0 154043.0 215344.0 208712.0 38494.0 43606.0 103961.0 96325.0 242285.0 234117.0 173738.0 178399.0 30176.0 26855.0 68636.0 76187.0 122581.0 129655.0 93622.0 88954.0 8078.0 0.0 121704.0 120836.0 13650.0 13535.0 41384.0 38711.0 47387.0 40788.0 51208.0 44114.0 18535.0 25570.0 287561.0 285182.0 49405.0 52126.0 102476.0 95528.0 267401.0 274229.0 153455.0 147079.0 53062.0 45589.0 148326.0 147682.0 162996.0 159926.0 199340.0 199809.0 49935.0 56543.0 40756.0 48654.0 204381.0 210372.0 28009.0 32950.0 123807.0 126336.0 39000.0 41004.0 87977.0 80471.0 189640.0 182091.0 120110.0 122112.0 92751.0 92536.0 239560.0 233856.0 248476.0 255865.0 115222.0 113647.0 95181.0 98027.0 32337.0 28938.0 274826.0 273594.0 77672.0 69490.0 18360.0 22983.0 143778.0 139586.0 175327.0 174202.0 282830.0 275010.0 97835.0 102427.0 171316.0 170611.0 87727.0 92636.0 77901.0 83021.0 45283.0 53221.0 118472.0 121545.0 209396.0 216129.0 117740.0 112997.0 39454.0 45020.0 50294.0 45967.0 118212.0 112743.0 26175.0 34033.0 117924.0 119944.0 35448.0 41624.0 124932.0 123251.0 108021.0 108189.0 24423.0 31765.0 113965.0 124850.0 113965.0 113965.0 124850.0 124850.0
176433.0 169719.0 135633.0 143831.0 252803.0 250927.0 85546.0 77880.0 184981.0 183562.0 225564.0 218340.0 372490.0 364525.0 126570.0 119660.0 338938.0 339147.0 309380.0 303861.0 147409.0 140365.0 58555.0 62117.0 81689.0 74096.0 14718.0 18392.0 180204.0 185903.0 50999.0 42930.0 269377.0 264506.0 319619.0 314258.0 104011.0 95887.0 219306.0 212808.0 332594.0 324427.0 261089.0 266945.0 92313.0 98292.0 118709.0 118146.0 210352.0 218343.0 28126.0 34032.0 118442.0 121704.0 0.0 7962.0 131082.0 123814.0 159600.0 153785.0 77714.0 82063.0 168533.0 160246.0 139200.0 146928.0 378850.0 377721.0 147681.0 155121.0 26864.0 34900.0 357711.0 364564.0 260032.0 255314.0 82012.0 88975.0 250212.0 246714.0 239841.0 240553.0 290481.0 293131.0 139885.0 145914.0 160864.0 167684.0 297118.0 301604.0 137235.0 134872.0 234649.0 239195.0 138289.0 132369.0 57569.0 62581.0 296350.0 289467.0 58400.0 66395.0 168166.0 162280.0 333796.0 329635.0 341561.0 349445.0 180190.0 173384.0 64576.0 72019.0 89381.0 93659.0 365923.0 363983.0 45216.0 52867.0 116051.0 108231.0 24949.0 25582.0 270906.0 272579.0 380114.0 372885.0 49312.0 41930.0 268070.0 264600.0 127231.0 123472.0 158947.0 167168.0 77721.0 69537.0 222290.0 227878.0 313649.0 319098.0 25791.0 20478.0 144889.0 143471.0 170399.0 167229.0 85526.0 89574.0 109117.0 104589.0 159232.0 154462.0 155856.0 162863.0 11955.0 19443.0 44634.0 36686.0 145837.0 153464.0 88720.0 210223.0 88720.0 88720.0 210223.0 210223.0
176537.0 169623.0 134540.0 142717.0 247384.0 245326.0 83191.0 75370.0 187272.0 185665.0 221377.0 214061.0 375535.0 367530.0 122096.0 114961.0 342129.0 342338.0 311993.0 306333.0 146254.0 139024.0 63839.0 66670.0 80719.0 73442.0 20811.0 25889.0 182887.0 188352.0 58678.0 50684.0 271114.0 266059.0 322001.0 316497.0 100826.0 92564.0 220068.0 213377.0 335785.0 327618.0 264280.0 270136.0 92042.0 98443.0 113615.0 112643.0 213534.0 221529.0 28515.0 35660.0 118071.0 120836.0 7962.0 0.0 129575.0 122082.0 159620.0 154124.0 75563.0 80559.0 168745.0 160540.0 138673.0 146265.0 382041.0 380912.0 149257.0 156512.0 21636.0 29951.0 360902.0 367755.0 261992.0 257083.0 78535.0 85826.0 246009.0 242310.0 234129.0 235033.0 293672.0 296385.0 141809.0 148040.0 160575.0 167631.0 300260.0 304794.0 137774.0 135854.0 236044.0 240367.0 139553.0 133957.0 51695.0 57275.0 298419.0 291445.0 65773.0 73761.0 163084.0 157005.0 336957.0 332811.0 344751.0 352636.0 174423.0 167466.0 57898.0 65112.0 88535.0 93401.0 369114.0 367174.0 46229.0 53280.0 114038.0 106118.0 30550.0 32605.0 273893.0 275345.0 383280.0 375985.0 54972.0 47920.0 263393.0 259747.0 121303.0 117254.0 154332.0 162579.0 77882.0 69777.0 224324.0 229712.0 316017.0 321607.0 33265.0 27215.0 145893.0 144934.0 170152.0 166645.0 77859.0 82113.0 106716.0 101728.0 152738.0 147778.0 155480.0 162280.0 5358.0 11616.0 51266.0 43236.0 144703.0 152511.0 94953.0 213414.0 94953.0 94953.0 213414.0 213414.0
55504.0 47449.0 8462.0 14649.0 155687.0 157487.0 47409.0 55294.0 92994.0 88891.0 111710.0 106457.0 274748.0 266515.0 51701.0 55609.0 248295.0 250363.0 208423.0 201306.0 17639.0 9797.0 104997.0 97132.0 49660.0 57591.0 144226.0 142697.0 96005.0 96287.0 137426.0 136741.0 159467.0 152733.0 215176.0 208262.0 37806.0 44823.0 101585.0 93534.0 245552.0 237365.0 178360.0 182528.0 41838.0 39790.0 62948.0 70845.0 127897.0 134571.0 103248.0 99257.0 21542.0 13650.0 131082.0 129575.0 0.0 8237.0 40376.0 40534.0 54368.0 49053.0 49998.0 44492.0 18794.0 21986.0 290053.0 287316.0 56847.0 57800.0 110218.0 102805.0 270634.0 277499.0 153426.0 146639.0 56749.0 48731.0 134722.0 134036.0 150003.0 146746.0 202484.0 202394.0 59348.0 65353.0 37692.0 46157.0 207066.0 213382.0 35202.0 41863.0 122918.0 124596.0 47626.0 51291.0 92465.0 84722.0 189062.0 181404.0 132948.0 135206.0 81038.0 81510.0 241550.0 235539.0 250684.0 257893.0 103914.0 102958.0 98327.0 100103.0 42375.0 40737.0 277444.0 276595.0 88172.0 79913.0 17247.0 24938.0 153911.0 150177.0 177782.0 176030.0 283800.0 275903.0 110259.0 114485.0 157666.0 156971.0 81391.0 87130.0 66125.0 70670.0 56672.0 64242.0 120057.0 122273.0 209292.0 216295.0 128946.0 123789.0 45970.0 52984.0 46469.0 40479.0 118847.0 112708.0 26295.0 34050.0 109230.0 111985.0 32517.0 36478.0 133369.0 131003.0 120290.0 120006.0 16317.0 24753.0 127471.0 130820.0 127471.0 127471.0 130820.0 130820.0
63512.0 55479.0 16060.0 22874.0 156795.0 158181.0 39477.0 47391.0 99208.0 95251.0 114686.0 109035.0 282347.0 274113.0 46401.0 49448.0 255494.0 257445.0 216038.0 208977.0 25865.0 17992.0 100259.0 92514.0 42888.0 50919.0 137152.0 135878.0 101617.0 102367.0 132161.0 131099.0 167360.0 160688.0 222957.0 216094.0 29760.0 36617.0 109651.0 101640.0 252427.0 244215.0 184722.0 189081.0 36545.0 35896.0 56635.0 64405.0 133928.0 140777.0 96142.0 92480.0 21314.0 13535.0 123814.0 122082.0 8237.0 0.0 48027.0 47460.0 46644.0 41770.0 57760.0 51860.0 25598.0 29863.0 297197.0 294565.0 61674.0 63481.0 102472.0 94963.0 277543.0 284393.0 161151.0 154440.0 48535.0 40507.0 138194.0 137051.0 150197.0 147356.0 209394.0 209482.0 63026.0 69440.0 45686.0 54119.0 214125.0 220341.0 39936.0 45753.0 130783.0 132597.0 51734.0 54325.0 84260.0 76510.0 196910.0 189269.0 128130.0 130782.0 79322.0 79008.0 248827.0 242898.0 257902.0 265164.0 101710.0 100115.0 90092.0 91911.0 36002.0 35592.0 284547.0 283577.0 81545.0 73286.0 9010.0 16766.0 146933.0 143436.0 184895.0 183323.0 291353.0 283472.0 104997.0 108847.0 160533.0 159443.0 75459.0 80812.0 64507.0 69848.0 50868.0 58093.0 127368.0 129804.0 217059.0 224009.0 122612.0 117209.0 51174.0 57507.0 54598.0 48705.0 110818.0 104777.0 18072.0 25888.0 104755.0 107026.0 40446.0 44679.0 125777.0 123229.0 114838.0 114144.0 24553.0 32989.0 124066.0 136565.0 124066.0 124066.0 136565.0 136565.0
16972.0 10343.0 32019.0 27074.0 172235.0 175727.0 83023.0 90341.0 56319.0 51753.0 121781.0 118786.0 234376.0 226143.0 90327.0 95199.0 208159.0 210384.0 168054.0 160961.0 26005.0 32452.0 120770.0 112872.0 79726.0 86389.0 171214.0 168137.0 61822.0 60056.0 154296.0 155661.0 119468.0 112940.0 174940.0 168109.0 77691.0 83996.0 62577.0 54987.0 205963.0 197796.0 140106.0 143739.0 67615.0 61308.0 102623.0 110596.0 91131.0 97110.0 131558.0 125853.0 41918.0 41384.0 159600.0 159620.0 40376.0 48027.0 0.0 8448.0 88426.0 81353.0 9856.0 5542.0 23075.0 18501.0 249972.0 247113.0 32230.0 27523.0 142457.0 135918.0 231080.0 237814.0 113124.0 106441.0 94355.0 86724.0 140952.0 142631.0 170481.0 165656.0 162842.0 162439.0 40710.0 42786.0 6325.0 8189.0 167153.0 173636.0 24129.0 30089.0 82867.0 85057.0 31199.0 39149.0 129354.0 121855.0 148945.0 141325.0 147649.0 147773.0 110856.0 113441.0 201328.0 195244.0 210524.0 217674.0 134134.0 135011.0 136481.0 139057.0 71872.0 66253.0 237423.0 236758.0 114509.0 106733.0 56607.0 63258.0 180095.0 174971.0 137808.0 135814.0 243424.0 235527.0 128347.0 134294.0 166019.0 167285.0 120429.0 126645.0 96635.0 98600.0 81884.0 90064.0 79869.0 81903.0 169036.0 175983.0 151947.0 148350.0 23619.0 31617.0 12021.0 14403.0 158631.0 152739.0 65608.0 73610.0 145212.0 148979.0 8792.0 12569.0 164039.0 163067.0 138860.0 140752.0 26366.0 20250.0 135822.0 95068.0 135822.0 135822.0 95068.0 95068.0
23057.0 18022.0 32098.0 29153.0 179186.0 182472.0 79746.0 86758.0 52975.0 48677.0 129247.0 126009.0 235389.0 227155.0 91848.0 96113.0 208051.0 209986.0 169167.0 162274.0 29124.0 34127.0 113325.0 105477.0 75085.0 81334.0 165059.0 161727.0 57251.0 56477.0 146805.0 148391.0 121787.0 115594.0 176634.0 170017.0 76508.0 82202.0 66473.0 59384.0 205042.0 196848.0 137987.0 142035.0 62483.0 55692.0 103470.0 111377.0 87993.0 94404.0 125864.0 119879.0 37685.0 38711.0 153785.0 154124.0 40534.0 47460.0 8448.0 0.0 84585.0 77190.0 14913.0 6503.0 21876.0 20297.0 249740.0 247139.0 24302.0 20676.0 137570.0 131303.0 230159.0 236999.0 114746.0 108408.0 91633.0 84275.0 148817.0 150312.0 176901.0 172283.0 161988.0 162022.0 32395.0 34878.0 14134.0 15823.0 166667.0 172911.0 16859.0 21982.0 85279.0 88186.0 22764.0 30739.0 126020.0 118672.0 150966.0 143437.0 139970.0 139910.0 115294.0 117394.0 201422.0 195563.0 210465.0 217754.0 138615.0 139044.0 133682.0 136710.0 67326.0 61124.0 237087.0 236140.0 108588.0 100983.0 55480.0 61440.0 173767.0 168431.0 137437.0 135944.0 244288.0 236445.0 121111.0 127232.0 173782.0 174884.0 121772.0 127640.0 100798.0 103335.0 76242.0 84370.0 80042.0 82873.0 170685.0 177428.0 145227.0 141887.0 15185.0 23308.0 20213.0 22673.0 156885.0 151301.0 64211.0 72221.0 148065.0 151435.0 14016.0 20247.0 158662.0 158029.0 131623.0 133775.0 29023.0 24939.0 127741.0 91411.0 127741.0 127741.0 91411.0 91411.0
105279.0 97723.0 60099.0 68124.0 185330.0 184935.0 8031.0 3612.0 128214.0 125335.0 151364.0 144613.0 317363.0 309166.0 57130.0 52863.0 287347.0 288368.0 251682.0 245175.0 71538.0 64016.0 67413.0 61228.0 12777.0 14648.0 91506.0 91053.0 127091.0 130416.0 94463.0 91512.0 206034.0 200047.0 260046.0 253728.0 28546.0 22077.0 150839.0 143395.0 282191.0 274024.0 211534.0 217098.0 25396.0 33373.0 55825.0 59831.0 160129.0 167800.0 50743.0 48568.0 46900.0 47387.0 77714.0 75563.0 54368.0 46644.0 88426.0 84585.0 0.0 8076.0 98130.0 90543.0 65898.0 72839.0 328289.0 326511.0 87541.0 92983.0 55853.0 48486.0 307308.0 314161.0 198370.0 192423.0 14443.0 15306.0 175867.0 173251.0 175051.0 174113.0 239579.0 240976.0 83405.0 90572.0 88137.0 95938.0 245343.0 250733.0 70180.0 71201.0 169690.0 172770.0 76485.0 73845.0 41794.0 34895.0 234863.0 227449.0 92975.0 97654.0 100589.0 96628.0 281361.0 276150.0 289882.0 297510.0 118151.0 113376.0 50726.0 55447.0 18495.0 26468.0 315403.0 313580.0 38938.0 31374.0 38475.0 30566.0 101517.0 98821.0 216947.0 216747.0 325895.0 318207.0 68676.0 70174.0 195720.0 193227.0 72395.0 73310.0 88426.0 96150.0 22633.0 23178.0 162046.0 166022.0 254056.0 260465.0 79936.0 73562.0 80572.0 82776.0 97681.0 93134.0 77634.0 74024.0 31447.0 27827.0 107781.0 106487.0 82834.0 88832.0 79159.0 76635.0 76872.0 74030.0 70046.0 78182.0 97835.0 160920.0 97835.0 97835.0 160920.0 160920.0
98275.0 90846.0 54093.0 62236.0 186228.0 186182.0 9617.0 11317.0 120185.0 117337.0 150330.0 143809.0 309421.0 301228.0 59170.0 55891.0 279308.0 280312.0 243795.0 237323.0 65743.0 58466.0 65533.0 58771.0 5523.0 11261.0 95397.0 94310.0 119017.0 122367.0 94450.0 92178.0 198398.0 192485.0 252244.0 245968.0 29200.0 24650.0 143580.0 136240.0 274125.0 265957.0 203459.0 209023.0 17331.0 25299.0 59714.0 64484.0 152054.0 159725.0 54388.0 51082.0 39558.0 40788.0 82063.0 80559.0 49053.0 41770.0 81353.0 77190.0 8076.0 0.0 90974.0 83248.0 59148.0 66357.0 320230.0 318468.0 79521.0 85051.0 61711.0 54754.0 299241.0 306094.0 190621.0 184741.0 21121.0 19198.0 174672.0 172418.0 176618.0 175315.0 231519.0 232939.0 75329.0 82496.0 81373.0 89005.0 237299.0 242674.0 62459.0 63254.0 162123.0 165336.0 68484.0 65773.0 49685.0 42908.0 227140.0 219751.0 92111.0 96226.0 102171.0 98763.0 273340.0 268151.0 281845.0 289480.0 120776.0 116458.0 58783.0 63513.0 10452.0 18392.0 307342.0 305513.0 40545.0 32430.0 34349.0 26901.0 105220.0 101949.0 208931.0 208776.0 317931.0 310253.0 67932.0 70311.0 195201.0 193029.0 77206.0 78769.0 89327.0 96767.0 17065.0 20240.0 154178.0 158240.0 246250.0 252621.0 81908.0 76036.0 72705.0 74760.0 90957.0 86745.0 85657.0 81929.0 28764.0 27229.0 112331.0 111517.0 76114.0 82408.0 84452.0 82503.0 76810.0 74785.0 64206.0 72146.0 94554.0 152851.0 94554.0 94554.0 152851.0 152851.0
8190.0 6601.0 41714.0 36269.0 175296.0 179171.0 92819.0 100096.0 50007.0 45275.0 123863.0 121450.0 224784.0 216553.0 99237.0 104369.0 198974.0 201329.0 158455.0 151313.0 34751.0 41699.0 128055.0 120238.0 89197.0 95702.0 179909.0 176622.0 56746.0 53912.0 161493.0 163194.0 109651.0 103095.0 165203.0 158336.0 87467.0 93833.0 52769.0 45272.0 197202.0 189030.0 132163.0 135497.0 76874.0 70312.0 111805.0 119791.0 84213.0 89776.0 140561.0 134672.0 51451.0 51208.0 168533.0 168745.0 49998.0 57760.0 9856.0 14913.0 98130.0 90974.0 0.0 8419.0 32932.0 28020.0 240823.0 237856.0 33943.0 27331.0 151868.0 145429.0 222302.0 228952.0 103429.0 96681.0 104204.0 96580.0 141837.0 144067.0 174503.0 169336.0 154057.0 153428.0 43495.0 43972.0 13041.0 5674.0 158171.0 164770.0 31769.0 36378.0 73055.0 75201.0 36012.0 44036.0 139158.0 131675.0 139159.0 131528.0 154516.0 154256.0 117590.0 120622.0 192061.0 185893.0 201317.0 208405.0 140748.0 142055.0 146330.0 148912.0 81368.0 75511.0 228326.0 227796.0 123361.0 115693.0 66401.0 73105.0 188651.0 183339.0 128804.0 126583.0 233873.0 225962.0 135934.0 142105.0 167152.0 168882.0 129357.0 135724.0 103696.0 105088.0 90895.0 99050.0 70737.0 72439.0 159310.0 166297.0 160139.0 156787.0 28015.0 34707.0 9904.0 16862.0 168445.0 162516.0 75421.0 83416.0 153194.0 157226.0 17655.0 17613.0 173229.0 172420.0 146443.0 148664.0 35332.0 28258.0 141771.0 88619.0 141771.0 141771.0 88619.0 88619.0
16588.0 12284.0 36044.0 31821.0 177596.0 181141.0 85494.0 92627.0 50919.0 46392.0 126953.0 124067.0 230529.0 222294.0 95076.0 99736.0 203807.0 205916.0 164240.0 157244.0 31065.0 37104.0 119697.0 111867.0 81283.0 87642.0 171552.0 168229.0 56292.0 54624.0 153155.0 154807.0 116271.0 109935.0 171423.0 164704.0 81305.0 87310.0 60333.0 53101.0 201291.0 193120.0 135041.0 138797.0 68795.0 62097.0 107141.0 115095.0 85801.0 91875.0 132306.0 126355.0 43692.0 44114.0 160246.0 160540.0 44492.0 51860.0 5542.0 6503.0 90543.0 83248.0 8419.0 0.0 26402.0 23024.0 245577.0 242824.0 27741.0 22395.0 143859.0 137521.0 226402.0 233193.0 109542.0 103039.0 97169.0 89686.0 145856.0 147672.0 175959.0 171098.0 158191.0 157952.0 36729.0 38190.0 11750.0 10180.0 162641.0 169035.0 23352.0 28122.0 79695.0 82323.0 28216.0 36262.0 131821.0 124412.0 145595.0 138022.0 146242.0 146077.0 116320.0 118833.0 197059.0 191071.0 206193.0 213402.0 139608.0 140422.0 139275.0 142112.0 73490.0 67434.0 232984.0 232211.0 115056.0 107429.0 60205.0 66525.0 180268.0 174933.0 133330.0 131540.0 239507.0 231634.0 127539.0 133693.0 170995.0 172371.0 125138.0 131233.0 102056.0 104096.0 82664.0 90803.0 75568.0 77966.0 165494.0 172337.0 151723.0 148390.0 20301.0 27703.0 14951.0 19185.0 162018.0 156283.0 69095.0 77116.0 150382.0 154046.0 14108.0 17909.0 165058.0 164356.0 138050.0 140248.0 31293.0 25634.0 133739.0 89649.0 133739.0 133739.0 89649.0 89649.0
39556.0 31853.0 10523.0 11320.0 167083.0 169589.0 60171.0 67630.0 74212.0 70097.0 119918.0 115583.0 256922.0 248687.0 70432.0 74394.0 229897.0 231858.0 190640.0 183646.0 13809.0 14367.0 105405.0 97405.0 58077.0 65237.0 151444.0 148965.0 77436.0 77530.0 138771.0 139206.0 142477.0 135998.0 197790.0 191029.0 54903.0 60985.0 85579.0 77865.0 226904.0 218705.0 159567.0 163759.0 46928.0 41797.0 81717.0 89595.0 109139.0 115783.0 111074.0 105953.0 20841.0 18535.0 139200.0 138673.0 18794.0 25598.0 23075.0 21876.0 65898.0 59148.0 32932.0 26402.0 0.0 8048.0 271602.0 268969.0 39201.0 39306.0 120721.0 113897.0 252020.0 258865.0 135921.0 129355.0 71309.0 63652.0 141516.0 141863.0 162970.0 159057.0 183856.0 183892.0 43273.0 48522.0 22244.0 30135.0 188541.0 194785.0 18553.0 26255.0 105876.0 108132.0 31289.0 36668.0 106444.0 98898.0 171893.0 164295.0 133093.0 134255.0 97150.0 98413.0 223236.0 217327.0 232304.0 239572.0 120352.0 120035.0 113427.0 115986.0 50209.0 45596.0 258956.0 258015.0 94595.0 86550.0 33806.0 40218.0 160679.0 156095.0 159302.0 157737.0 265885.0 258018.0 112013.0 117256.0 165592.0 165741.0 100183.0 105907.0 82336.0 85907.0 61835.0 69979.0 101793.0 104357.0 191867.0 198732.0 133683.0 129418.0 28084.0 35819.0 31813.0 28032.0 135672.0 129889.0 42700.0 50720.0 127520.0 130514.0 16967.0 23667.0 142893.0 141458.0 122420.0 123365.0 12599.0 16095.0 124185.0 112154.0 124185.0 124185.0 112154.0 112154.0
33681.0 25686.0 13816.0 8890.0 162300.0 165111.0 66754.0 74376.0 73214.0 68851.0 114115.0 110113.0 252797.0 244565.0 72056.0 76754.0 226647.0 228840.0 186468.0 179333.0 9113.0 14083.0 113410.0 105410.0 65572.0 72880.0 159283.0 156886.0 77491.0 76753.0 146796.0 147252.0 137513.0 130825.0 193191.0 186284.0 59622.0 66276.0 79856.0 71921.0 224304.0 216134.0 157931.0 161780.0 54752.0 49798.0 84170.0 92135.0 108227.0 114538.0 118808.0 113802.0 28763.0 25570.0 146928.0 146265.0 21986.0 29863.0 18501.0 20297.0 72839.0 66357.0 28020.0 23024.0 8048.0 0.0 268451.0 265611.0 41616.0 40116.0 128044.0 121087.0 249417.0 256192.0 131443.0 124654.0 77359.0 69524.0 135200.0 135854.0 158920.0 154704.0 181197.0 180886.0 47201.0 51644.0 15869.0 24263.0 185589.0 192025.0 23289.0 31225.0 100949.0 102743.0 35423.0 41798.0 112806.0 105174.0 167089.0 159437.0 141067.0 142153.0 95314.0 97208.0 219827.0 213744.0 229016.0 236173.0 118625.0 118867.0 119357.0 121541.0 57733.0 53431.0 255890.0 255180.0 102453.0 94375.0 38665.0 45745.0 168565.0 164045.0 156257.0 154311.0 261870.0 253965.0 120055.0 125303.0 159551.0 159971.0 102114.0 108232.0 80709.0 83567.0 69726.0 77848.0 98359.0 100378.0 187306.0 194313.0 141689.0 137374.0 30600.0 38949.0 25090.0 20407.0 140676.0 134629.0 47750.0 55684.0 127800.0 131260.0 10588.0 16056.0 150421.0 148816.0 130465.0 131407.0 8775.0 8418.0 131866.0 111706.0 131866.0 131866.0 111706.0 111706.0
237113.0 244880.0 281594.0 277008.0 380929.0 387638.0 325576.0 331249.0 200238.0 203445.0 330138.0 332421.0 38726.0 42065.0 340025.0 345157.0 41892.0 39932.0 87599.0 95627.0 275568.0 282412.0 323732.0 317998.0 316323.0 319779.0 385918.0 380103.0 201390.0 197892.0 352437.0 357087.0 139646.0 147643.0 88254.0 96259.0 325974.0 331000.0 196048.0 204340.0 49264.0 55828.0 119290.0 112209.0 303048.0 295053.0 352586.0 360564.0 168743.0 160874.0 354485.0 346660.0 284277.0 287561.0 378850.0 382041.0 290053.0 297197.0 249972.0 249740.0 328289.0 320230.0 240823.0 245577.0 271602.0 268451.0 0.0 8049.0 240884.0 236169.0 371356.0 367573.0 28460.0 20951.0 140943.0 148788.0 338459.0 331937.0 334145.0 340763.0 388256.0 380903.0 88714.0 87755.0 245077.0 237989.0 253804.0 245553.0 83190.0 77556.0 260160.0 257577.0 172044.0 173777.0 252006.0 254510.0 369555.0 363099.0 112594.0 119702.0 343318.0 340667.0 352158.0 356884.0 49257.0 56333.0 39645.0 33281.0 373762.0 377064.0 379013.0 383409.0 309793.0 301899.0 12954.0 17418.0 337211.0 331939.0 305111.0 310543.0 392181.0 384848.0 112304.0 114280.0 32595.0 35851.0 333453.0 341145.0 356165.0 362087.0 370136.0 376546.0 340102.0 339254.0 311889.0 318339.0 170111.0 168781.0 92301.0 84272.0 361462.0 361378.0 248934.0 245653.0 246955.0 254633.0 404841.0 399922.0 313630.0 321570.0 391770.0 396618.0 258426.0 257258.0 387287.0 389450.0 342590.0 348021.0 276147.0 268889.0 327097.0 170417.0 327097.0 327097.0 170417.0 170417.0
233920.0 241751.0 278867.0 274098.0 375532.0 382312.0 323618.0 329422.0 198322.0 201389.0 325019.0 327445.0 30736.0 34444.0 336955.0 342225.0 39193.0 38674.0 82828.0 90817.0 272567.0 279515.0 322604.0 316870.0 314659.0 318295.0 384790.0 378974.0 199887.0 196107.0 351308.0 355958.0 135100.0 143065.0 82487.0 90537.0 323520.0 328702.0 192163.0 200505.0 50233.0 55954.0 118287.0 111207.0 301348.0 293362.0 349661.0 357647.0 167516.0 159588.0 353356.0 345532.0 282099.0 285182.0 377721.0 380912.0 287316.0 294565.0 247113.0 247139.0 326511.0 318468.0 237856.0 242824.0 268969.0 265611.0 8049.0 0.0 239004.0 234072.0 370377.0 366435.0 32603.0 26016.0 136986.0 144746.0 336437.0 329806.0 328581.0 335284.0 383122.0 375715.0 87266.0 85560.0 243490.0 236447.0 250794.0 242487.0 81170.0 76123.0 257956.0 255601.0 168231.0 169640.0 250105.0 252846.0 367917.0 361368.0 107439.0 114706.0 342189.0 339538.0 348207.0 353059.0 45796.0 52291.0 36710.0 29455.0 369637.0 373083.0 377232.0 381485.0 308020.0 300181.0 14310.0 21292.0 335990.0 330910.0 302585.0 308163.0 391052.0 383719.0 109874.0 111300.0 24611.0 27857.0 332324.0 340017.0 350383.0 356391.0 367044.0 373547.0 336334.0 335314.0 310503.0 317078.0 167264.0 165583.0 86816.0 78762.0 360333.0 360250.0 246804.0 243774.0 243747.0 251368.0 402768.0 397725.0 311181.0 319146.0 388131.0 393100.0 255492.0 254093.0 386158.0 388321.0 341462.0 346892.0 273187.0 265813.0 325969.0 168223.0 325969.0 325969.0 168223.0 168223.0
41135.0 39623.0 49353.0 49572.0 203131.0 206239.0 84707.0 90419.0 40683.0 37864.0 153507.0 150165.0 230097.0 221923.0 108044.0 110956.0 199828.0 200952.0 164814.0 158597.0 50690.0 53501.0 100425.0 93049.0 75931.0 80314.0 157417.0 153045.0 40692.0 43032.0 133103.0 135846.0 121869.0 116838.0 173868.0 167962.0 87300.0 91177.0 73643.0 68513.0 194940.0 186773.0 125169.0 130264.0 62567.0 54647.0 117993.0 125585.0 73724.0 81083.0 120765.0 113792.0 44387.0 49405.0 147681.0 149257.0 56847.0 61674.0 32230.0 24302.0 87541.0 79521.0 33943.0 27741.0 39201.0 41616.0 240884.0 239004.0 0.0 8186.0 135254.0 130080.0 220057.0 226910.0 112984.0 107858.0 97650.0 91389.0 173097.0 174613.0 200347.0 195945.0 152218.0 153454.0 10000.0 10579.0 38330.0 37691.0 157846.0 163354.0 21756.0 16929.0 87005.0 91850.0 11133.0 15313.0 129127.0 122428.0 149537.0 142416.0 125275.0 124074.0 136297.0 137609.0 193821.0 188643.0 202357.0 209972.0 159528.0 159223.0 138241.0 142525.0 69069.0 61353.0 228025.0 226321.0 103033.0 96381.0 67765.0 71604.0 165290.0 159100.0 129410.0 129358.0 238514.0 230875.0 109185.0 116077.0 198082.0 199173.0 137008.0 142035.0 121511.0 124874.0 73280.0 80723.0 75623.0 80574.0 167864.0 173926.0 135400.0 133264.0 11145.0 4770.0 42562.0 46622.0 164054.0 159391.0 75203.0 82737.0 166051.0 168616.0 38087.0 44517.0 154181.0 154812.0 119497.0 122922.0 50112.0 48132.0 110802.0 75595.0 110802.0 110802.0 75595.0 75595.0
33952.0 33458.0 49794.0 48655.0 199664.0 203045.0 89620.0 95708.0 36197.0 32729.0 149296.0 146296.0 224380.0 216183.0 109466.0 112925.0 194879.0 196249.0 158777.0 152390.0 49195.0 53132.0 108519.0 101102.0 81777.0 86607.0 165078.0 160825.0 38210.0 39083.0 141257.0 143946.0 114808.0 109567.0 167484.0 161417.0 90544.0 95013.0 65567.0 60343.0 190517.0 182350.0 121612.0 126335.0 68438.0 60653.0 120110.0 127847.0 70516.0 77531.0 127999.0 121162.0 48149.0 52126.0 155121.0 156512.0 57800.0 63481.0 27523.0 20676.0 92983.0 85051.0 27331.0 22395.0 39306.0 40116.0 236169.0 234072.0 8186.0 0.0 142040.0 136641.0 215634.0 222487.0 106241.0 100865.0 102373.0 95767.0 168234.0 170065.0 197558.0 192894.0 147664.0 148529.0 18084.0 16824.0 33836.0 31712.0 153007.0 158755.0 24182.0 21803.0 79547.0 84155.0 17067.0 22950.0 134736.0 127855.0 142829.0 135613.0 133454.0 132259.0 135428.0 137204.0 188683.0 183307.0 197377.0 204907.0 158736.0 158863.0 143519.0 147488.0 74634.0 67174.0 223361.0 221893.0 110289.0 103453.0 70323.0 74895.0 173059.0 166956.0 124262.0 123804.0 232929.0 225230.0 117222.0 124061.0 193388.0 194756.0 138909.0 144273.0 120796.0 123651.0 79914.0 87542.0 69247.0 73775.0 161482.0 167707.0 143283.0 141013.0 12792.0 11698.0 36584.0 41578.0 168700.0 163763.0 78272.0 86031.0 166826.0 169763.0 34649.0 40089.0 161382.0 161801.0 127559.0 130887.0 48867.0 45562.0 118974.0 73098.0 118974.0 118974.0 73098.0 73098.0
159428.0 152206.0 115737.0 123837.0 226022.0 224090.0 63111.0 55196.0 174592.0 172557.0 199767.0 192438.0 364054.0 355962.0 100463.0 93329.0 331585.0 331771.0 299583.0 293601.0 127297.0 119843.0 62932.0 63128.0 62750.0 56243.0 41511.0 44676.0 171191.0 176043.0 68903.0 61955.0 256822.0 251394.0 309022.0 303203.0 79788.0 71450.0 203975.0 196948.0 325182.0 317014.0 253754.0 259610.0 75091.0 82177.0 92070.0 91320.0 202911.0 210872.0 19971.0 27970.0 100560.0 102476.0 26864.0 21636.0 110218.0 102472.0 142457.0 137570.0 55853.0 61711.0 151868.0 143859.0 120721.0 128044.0 371356.0 370377.0 135254.0 142040.0 0.0 8322.0 350298.0 357151.0 248213.0 242902.0 57367.0 64886.0 224395.0 220675.0 212984.0 213737.0 283145.0 285618.0 128672.0 135304.0 142879.0 150296.0 289674.0 294266.0 121732.0 120722.0 221145.0 225001.0 124973.0 120149.0 30752.0 35792.0 284782.0 277623.0 73610.0 81202.0 141546.0 135551.0 326272.0 321747.0 334199.0 342055.0 153327.0 146526.0 38573.0 46404.0 70622.0 76449.0 358510.0 356570.0 34771.0 39504.0 94123.0 86133.0 51643.0 52242.0 262508.0 263402.0 372095.0 364645.0 56137.0 51019.0 241768.0 238151.0 100378.0 96724.0 132698.0 140944.0 62156.0 54532.0 210852.0 215768.0 303020.0 308924.0 44359.0 36518.0 130703.0 130725.0 152476.0 148443.0 62862.0 65601.0 86395.0 80965.0 132656.0 128099.0 137667.0 144100.0 23998.0 20805.0 56489.0 49012.0 125784.0 133815.0 96105.0 202888.0 96105.0 96105.0 202888.0 202888.0
152877.0 145539.0 108555.0 116604.0 217903.0 216042.0 55505.0 47582.0 169837.0 167632.0 191445.0 184116.0 359523.0 351403.0 92146.0 85032.0 327534.0 327887.0 294739.0 288636.0 120025.0 112487.0 64129.0 63278.0 56240.0 50226.0 49604.0 52346.0 166848.0 171436.0 73830.0 67344.0 251277.0 245707.0 303947.0 298009.0 71678.0 63316.0 197771.0 190617.0 321333.0 313166.0 249830.0 255687.0 68963.0 76311.0 83856.0 83260.0 198919.0 206850.0 21723.0 28631.0 94003.0 95528.0 34900.0 29951.0 102805.0 94963.0 135918.0 131303.0 48486.0 54754.0 145429.0 137521.0 113897.0 121087.0 367573.0 366435.0 130080.0 136641.0 8322.0 0.0 346449.0 353302.0 242883.0 237417.0 49227.0 56843.0 216073.0 212359.0 204987.0 205657.0 279170.0 281435.0 123894.0 130664.0 136113.0 143668.0 285558.0 290313.0 115738.0 115126.0 215400.0 219063.0 119596.0 115128.0 23237.0 27689.0 279470.0 272244.0 77671.0 84998.0 133328.0 127389.0 322081.0 317411.0 330135.0 337953.0 145372.0 138660.0 32230.0 40303.0 64061.0 70307.0 354622.0 352721.0 32765.0 35905.0 86496.0 78492.0 59788.0 60031.0 258109.0 258782.0 367674.0 360169.0 58344.0 54123.0 233477.0 229886.0 92556.0 89138.0 124395.0 132639.0 56800.0 49580.0 205697.0 210416.0 297943.0 303966.0 50205.0 42278.0 125041.0 125481.0 145701.0 141454.0 58587.0 60462.0 78599.0 72978.0 125259.0 120919.0 130863.0 137128.0 32241.0 28383.0 60108.0 53097.0 118530.0 126642.0 97414.0 198964.0 97414.0 97414.0 198964.0 198964.0
219305.0 226827.0 262182.0 258141.0 370649.0 377022.0 304759.0 310307.0 179525.0 182930.0 318823.0 320498.0 54703.0 53717.0 321407.0 326120.0 31693.0 25269.0 78747.0 86463.0 256973.0 263481.0 302593.0 296859.0 295271.0 298650.0 364779.0 358964.0 180298.0 177025.0 331298.0 335948.0 127821.0 135771.0 83884.0 91195.0 305889.0 310631.0 180856.0 188892.0 25228.0 33284.0 98138.0 91057.0 282022.0 274024.0 333512.0 341446.0 147591.0 139727.0 333345.0 325521.0 263782.0 267401.0 357711.0 360902.0 270634.0 277543.0 231080.0 230159.0 307308.0 299241.0 222302.0 226402.0 252020.0 249417.0 28460.0 32603.0 220057.0 215634.0 350298.0 346449.0 0.0 8022.0 126844.0 134839.0 317703.0 311321.0 324789.0 330990.0 376808.0 369709.0 68247.0 69542.0 224007.0 216900.0 235343.0 227303.0 64683.0 57626.0 239746.0 236842.0 156887.0 159764.0 231189.0 233482.0 348478.0 342076.0 104152.0 110307.0 322179.0 319528.0 336316.0 340601.0 39872.0 47798.0 31096.0 30657.0 358460.0 361253.0 358019.0 362530.0 288817.0 280886.0 18761.0 11333.0 316072.0 310854.0 285205.0 290344.0 371042.0 363709.0 93851.0 97502.0 53086.0 52321.0 312314.0 320006.0 347760.0 353243.0 351507.0 357631.0 323680.0 323415.0 290742.0 297189.0 151827.0 151608.0 86327.0 78936.0 340323.0 340239.0 228424.0 224819.0 229133.0 236944.0 384108.0 379346.0 293553.0 301433.0 374779.0 379233.0 239712.0 239245.0 366147.0 368311.0 321451.0 326882.0 257429.0 250549.0 305958.0 149265.0 305958.0 305958.0 149265.0 149265.0
225799.0 233380.0 269042.0 264886.0 375496.0 381954.0 311612.0 317159.0 186377.0 189783.0 323894.0 325715.0 51147.0 51322.0 328127.0 332929.0 34728.0 29390.0 82585.0 90459.0 263660.0 270242.0 309446.0 303712.0 302124.0 305503.0 371632.0 365816.0 187151.0 183878.0 338151.0 342800.0 132740.0 140729.0 86551.0 94124.0 312721.0 317484.0 186716.0 194823.0 32458.0 40238.0 104990.0 97910.0 288875.0 280876.0 340330.0 348276.0 154443.0 146580.0 340198.0 332374.0 270635.0 274229.0 364564.0 367755.0 277499.0 284393.0 237814.0 236999.0 314161.0 306094.0 228952.0 233193.0 258865.0 256192.0 20951.0 26016.0 226910.0 222487.0 357151.0 353302.0 8022.0 0.0 132327.0 140309.0 324556.0 318174.0 329386.0 335693.0 381939.0 374777.0 75015.0 75764.0 230860.0 223753.0 241989.0 233899.0 70942.0 64184.0 246598.0 243695.0 162699.0 165308.0 238042.0 240335.0 355331.0 348929.0 108085.0 114526.0 329032.0 326381.0 342445.0 346829.0 43059.0 51003.0 33550.0 31136.0 364478.0 367384.0 364872.0 369383.0 295670.0 287739.0 13501.0 5638.0 322925.0 317707.0 292054.0 297161.0 377894.0 370562.0 100265.0 103529.0 48255.0 48564.0 319167.0 326859.0 352135.0 357730.0 358239.0 364424.0 329932.0 329538.0 297595.0 304042.0 158349.0 157880.0 89458.0 81813.0 347176.0 347092.0 235277.0 231672.0 235638.0 243425.0 390961.0 386199.0 300388.0 308258.0 381173.0 385713.0 246415.0 245799.0 373000.0 375164.0 328304.0 333735.0 264143.0 257179.0 312811.0 156118.0 312811.0 312811.0 156118.0 156118.0
98453.0 106475.0 145128.0 139483.0 244569.0 250725.0 194150.0 200832.0 75497.0 76519.0 192297.0 193754.0 121574.0 113360.0 201316.0 207061.0 99379.0 103180.0 55350.0 47970.0 137553.0 144911.0 208615.0 202097.0 187711.0 192813.0 268911.0 263875.0 82126.0 75235.0 238759.0 243071.0 12001.0 14422.0 61891.0 55362.0 190782.0 196845.0 55180.0 63539.0 103285.0 95087.0 61164.0 57972.0 174455.0 166785.0 214491.0 222474.0 62146.0 56622.0 233565.0 226391.0 151859.0 153455.0 260032.0 261992.0 153426.0 161151.0 113124.0 114746.0 198370.0 190621.0 103429.0 109542.0 135921.0 131443.0 140943.0 136986.0 112984.0 106241.0 248213.0 242883.0 126844.0 132327.0 0.0 7996.0 206301.0 199013.0 199675.0 205448.0 250144.0 243148.0 62806.0 58446.0 120192.0 114135.0 115959.0 107494.0 63223.0 71069.0 128190.0 127848.0 31341.0 32994.0 123291.0 128188.0 240128.0 232968.0 36588.0 29453.0 229658.0 227021.0 211245.0 216074.0 91700.0 84728.0 101430.0 107758.0 232827.0 236138.0 248236.0 251439.0 180330.0 173160.0 129139.0 130072.0 215833.0 209335.0 169681.0 176060.0 276117.0 269310.0 37930.0 31140.0 130837.0 122870.0 218090.0 225534.0 223525.0 228476.0 231242.0 238025.0 199364.0 198346.0 186136.0 193683.0 37782.0 32468.0 55953.0 62869.0 245596.0 244425.0 118069.0 117489.0 108123.0 115476.0 271556.0 265807.0 178620.0 186639.0 251233.0 256330.0 120976.0 118553.0 266985.0 267782.0 227808.0 232474.0 138349.0 130535.0 213451.0 68145.0 213451.0 213451.0 68145.0 68145.0
91438.0 99489.0 138393.0 132571.0 236634.0 242771.0 188019.0 194812.0 71629.0 72212.0 184326.0 185764.0 128799.0 120605.0 194084.0 199930.0 107286.0 111144.0 62761.0 55209.0 130552.0 137990.0 204737.0 198064.0 181971.0 187258.0 264484.0 259613.0 78999.0 71755.0 235338.0 239436.0 14091.0 11601.0 68544.0 61675.0 184132.0 190332.0 47500.0 55899.0 111265.0 103062.0 67063.0 64480.0 168775.0 161186.0 207352.0 215328.0 62063.0 57363.0 228607.0 221547.0 145749.0 147079.0 255314.0 257083.0 146639.0 154440.0 106441.0 108408.0 192423.0 184741.0 96681.0 103039.0 129355.0 124654.0 148788.0 144746.0 107858.0 100865.0 242902.0 237417.0 134839.0 140309.0 7996.0 0.0 200038.0 192666.0 191841.0 197569.0 242160.0 235171.0 70579.0 66381.0 115438.0 109611.0 109060.0 100581.0 71170.0 78996.0 122282.0 122294.0 23940.0 25041.0 117932.0 123137.0 234125.0 226897.0 42561.0 35043.0 226375.0 223734.0 203461.0 208348.0 99564.0 92526.0 109315.0 115574.0 224975.0 228340.0 242054.0 245105.0 174509.0 167466.0 137038.0 138031.0 210872.0 204227.0 163045.0 169552.0 271869.0 265194.0 45342.0 38881.0 138150.0 130163.0 214127.0 221494.0 215766.0 220664.0 223953.0 230795.0 191670.0 190568.0 180761.0 188406.0 33908.0 27481.0 62682.0 69855.0 241451.0 240062.0 112418.0 112272.0 101031.0 108285.0 265027.0 259180.0 172026.0 180037.0 243592.0 248752.0 114138.0 111459.0 262028.0 262632.0 223966.0 228431.0 131388.0 123484.0 210164.0 68493.0 210164.0 210164.0 68493.0 68493.0
110790.0 102932.0 63801.0 71287.0 174946.0 174109.0 13130.0 10919.0 138228.0 135051.0 143891.0 136820.0 326312.0 318092.0 46390.0 40928.0 297244.0 298528.0 260314.0 253597.0 74387.0 66527.0 80163.0 74456.0 26525.0 29032.0 96441.0 97153.0 137900.0 140681.0 105164.0 101434.0 213401.0 207103.0 268161.0 261618.0 22465.0 14089.0 156885.0 149123.0 292587.0 284419.0 222533.0 227837.0 37620.0 45250.0 42824.0 46078.0 171037.0 178568.0 57224.0 56937.0 54620.0 53062.0 82012.0 78535.0 56749.0 48535.0 94355.0 91633.0 14443.0 21121.0 104204.0 97169.0 71309.0 77359.0 338459.0 336437.0 97650.0 102373.0 57367.0 49227.0 317703.0 324556.0 206301.0 200038.0 0.0 8087.0 168528.0 165357.0 163862.0 163374.0 249839.0 250884.0 94520.0 101715.0 93143.0 101338.0 255338.0 260964.0 78704.0 80884.0 176851.0 179381.0 86517.0 84833.0 35731.0 27974.0 242591.0 235070.0 104598.0 109788.0 89745.0 85130.0 291050.0 285613.0 299747.0 307280.0 105957.0 100726.0 42128.0 45225.0 30329.0 38448.0 325621.0 323969.0 48959.0 42441.0 39571.0 31833.0 106664.0 105034.0 226634.0 226026.0 335014.0 327253.0 80421.0 80991.0 187272.0 184315.0 58453.0 59015.0 78639.0 86664.0 37055.0 37247.0 170722.0 174199.0 262196.0 268820.0 88258.0 81254.0 89677.0 92891.0 102445.0 97035.0 66405.0 61935.0 30803.0 24159.0 93910.0 92337.0 87802.0 92894.0 81356.0 77448.0 87814.0 84068.0 73040.0 81452.0 111434.0 172222.0 111434.0 111434.0 172222.0 172222.0
103046.0 95150.0 55897.0 63302.0 170335.0 169815.0 9610.0 12870.0 131797.0 128493.0 137655.0 130722.0 319298.0 311072.0 41919.0 37567.0 290614.0 292015.0 253215.0 246432.0 66369.0 58497.0 82718.0 76485.0 24666.0 29297.0 103255.0 103588.0 131874.0 134365.0 109395.0 106143.0 205956.0 199585.0 260896.0 254291.0 15036.0 7169.0 149187.0 141372.0 286205.0 278038.0 216497.0 221653.0 33572.0 40667.0 40777.0 45301.0 165006.0 172450.0 63368.0 62307.0 47723.0 45589.0 88975.0 85826.0 48731.0 40507.0 86724.0 84275.0 15306.0 19198.0 96580.0 89686.0 63652.0 69524.0 331937.0 329806.0 91389.0 95767.0 64886.0 56843.0 311321.0 318174.0 199013.0 192666.0 8087.0 0.0 162253.0 159327.0 159847.0 159012.0 243398.0 244282.0 88819.0 95995.0 85346.0 93591.0 248772.0 254503.0 71872.0 74513.0 169379.0 171780.0 80276.0 79113.0 43794.0 36022.0 235227.0 227680.0 108166.0 112933.0 85423.0 81350.0 284333.0 278806.0 293102.0 300591.0 102847.0 98121.0 49836.0 52439.0 26406.0 34177.0 319126.0 317593.0 53444.0 46257.0 31524.0 23863.0 113434.0 111445.0 219951.0 219179.0 328059.0 320273.0 83872.0 85112.0 181523.0 178807.0 58012.0 59656.0 73552.0 81401.0 36220.0 38178.0 163701.0 167012.0 254941.0 261628.0 93772.0 87029.0 83009.0 86655.0 94594.0 89082.0 72989.0 68026.0 22718.0 16199.0 93191.0 92319.0 80010.0 84965.0 88826.0 85161.0 91862.0 88679.0 65037.0 73459.0 112936.0 166420.0 112936.0 112936.0 166420.0 166420.0
137575.0 135301.0 136224.0 130563.0 47928.0 55494.0 167896.0 174570.0 187316.0 182637.0 24648.0 32023.0 305284.0 297994.0 124006.0 131454.0 294950.0 300024.0 247138.0 239151.0 127715.0 129911.0 238053.0 230449.0 177789.0 185604.0 264790.0 265678.0 196200.0 191302.0 268903.0 266850.0 197100.0 189233.0 246101.0 238045.0 147533.0 155114.0 152154.0 146171.0 302363.0 294295.0 252875.0 252893.0 174405.0 174023.0 134040.0 137266.0 216227.0 219090.0 225596.0 224349.0 155940.0 148326.0 250212.0 246009.0 134722.0 138194.0 140952.0 148817.0 175867.0 174672.0 141837.0 145856.0 141516.0 135200.0 334145.0 328581.0 173097.0 168234.0 224395.0 216073.0 324789.0 329386.0 199675.0 191841.0 168528.0 162253.0 0.0 8242.0 60045.0 51929.0 262412.0 258025.0 180850.0 183676.0 134776.0 136792.0 262741.0 270654.0 158375.0 166263.0 173423.0 168290.0 169788.0 176781.0 196134.0 189428.0 221755.0 214976.0 265703.0 268770.0 86988.0 94577.0 286709.0 278939.0 296530.0 301377.0 88535.0 96835.0 194468.0 190567.0 172426.0 173565.0 323832.0 326304.0 214723.0 206871.0 142375.0 148505.0 275041.0 273558.0 236799.0 230715.0 315202.0 307483.0 241989.0 244918.0 25501.0 28965.0 133436.0 140521.0 92305.0 84076.0 187772.0 194005.0 188052.0 183986.0 241850.0 249890.0 255783.0 249227.0 163424.0 171894.0 132035.0 126678.0 195789.0 187674.0 146027.0 148080.0 120518.0 128678.0 135372.0 128581.0 248098.0 242796.0 251309.0 249445.0 129005.0 127087.0 262112.0 222342.0 262112.0 262112.0 222342.0 222342.0
140201.0 137489.0 136041.0 130758.0 40510.0 47852.0 165334.0 171804.0 190480.0 185762.0 22365.0 28638.0 312277.0 304932.0 120214.0 127455.0 301337.0 306314.0 253594.0 245590.0 128060.0 129766.0 236407.0 228894.0 175739.0 183459.0 261344.0 262466.0 199128.0 194482.0 266822.0 264532.0 203205.0 195299.0 252833.0 244771.0 144781.0 152164.0 156957.0 150713.0 308365.0 300263.0 257797.0 258021.0 172953.0 172946.0 129659.0 132504.0 220096.0 223203.0 222547.0 221580.0 155431.0 147682.0 246714.0 242310.0 134036.0 137051.0 142631.0 150312.0 173251.0 172418.0 144067.0 147672.0 141863.0 135854.0 340763.0 335284.0 174613.0 170065.0 220675.0 212359.0 330990.0 335693.0 205448.0 197569.0 165357.0 159327.0 8242.0 0.0 51925.0 43817.0 268088.0 263864.0 182069.0 185186.0 136386.0 138882.0 268605.0 276493.0 159122.0 167044.0 178654.0 173749.0 170805.0 177602.0 192009.0 185458.0 228269.0 221406.0 263910.0 267199.0 81732.0 89142.0 293119.0 285382.0 302954.0 307909.0 81748.0 90113.0 189927.0 185773.0 170647.0 172164.0 330333.0 332687.0 212178.0 204427.0 140761.0 146594.0 271602.0 270352.0 242346.0 236408.0 322198.0 314449.0 240039.0 242729.0 23734.0 24880.0 128083.0 134995.0 88110.0 79848.0 185991.0 191993.0 192661.0 188847.0 248500.0 256548.0 253047.0 246356.0 164685.0 173195.0 134199.0 128497.0 190251.0 182153.0 143940.0 145569.0 113709.0 121866.0 136664.0 130149.0 244250.0 238762.0 249196.0 247084.0 129285.0 127898.0 261115.0 226086.0 261115.0 261115.0 226086.0 226086.0
172654.0 168017.0 154657.0 151746.0 18123.0 12134.0 167906.0 172688.0 223912.0 219119.0 58119.0 56481.0 361249.0 353718.0 117930.0 122945.0 348007.0 352576.0 300701.0 292669.0 150017.0 149012.0 242108.0 235373.0 181075.0 187832.0 254489.0 257199.0 231239.0 227905.0 269010.0 265222.0 249232.0 241231.0 300987.0 292930.0 147417.0 152977.0 198361.0 191182.0 353423.0 345210.0 298423.0 299570.0 182143.0 184399.0 122106.0 121761.0 256317.0 260513.0 219463.0 220426.0 171072.0 162996.0 239841.0 234129.0 150003.0 150197.0 170481.0 176901.0 175051.0 176618.0 174503.0 175959.0 162970.0 158920.0 388256.0 383122.0 200347.0 197558.0 212984.0 204987.0 376808.0 381939.0 250144.0 242160.0 163862.0 159847.0 60045.0 51925.0 0.0 8118.0 311953.0 308438.0 206003.0 210540.0 164209.0 168890.0 313261.0 321004.0 181461.0 189225.0 221448.0 217529.0 194080.0 199583.0 182437.0 177307.0 275705.0 268555.0 268011.0 272639.0 74488.0 78746.0 339908.0 332325.0 349770.0 355138.0 59719.0 67004.0 177340.0 171420.0 177939.0 181704.0 377384.0 379251.0 212813.0 206009.0 150849.0 154470.0 264570.0 264963.0 285826.0 280542.0 371164.0 363320.0 243715.0 244788.0 51844.0 43951.0 112937.0 117761.0 87626.0 80904.0 192552.0 196852.0 232639.0 229962.0 296366.0 304417.0 251231.0 243803.0 189474.0 197868.0 164775.0 157743.0 169728.0 162113.0 150900.0 149723.0 86211.0 93535.0 162909.0 158108.0 234961.0 228282.0 251585.0 247911.0 150824.0 152252.0 270462.0 261626.0 270462.0 270462.0 261626.0 261626.0
167202.0 162809.0 151049.0 147778.0 13011.0 10896.0 166804.0 171880.0 218478.0 213684.0 50887.0 49855.0 353661.0 346158.0 117141.0 122580.0 340770.0 345403.0 293381.0 285350.0 145900.0 145273.0 240848.0 233972.0 179621.0 186563.0 255241.0 257704.0 226010.0 222481.0 268370.0 264808.0 242043.0 234050.0 293510.0 285449.0 146155.0 152046.0 191760.0 184693.0 346432.0 338233.0 292058.0 293070.0 180104.0 182029.0 122232.0 122418.0 250543.0 254588.0 219503.0 220164.0 168003.0 159926.0 240553.0 235033.0 146746.0 147356.0 165656.0 172283.0 174113.0 175315.0 169336.0 171098.0 159057.0 154704.0 380903.0 375715.0 195945.0 192894.0 213737.0 205657.0 369709.0 374777.0 243148.0 235171.0 163374.0 159012.0 51929.0 43817.0 8118.0 0.0 305120.0 301498.0 201881.0 206228.0 159357.0 163758.0 306312.0 314080.0 177470.0 185292.0 214690.0 210628.0 190009.0 195721.0 183360.0 177971.0 268326.0 261215.0 267071.0 271502.0 73643.0 78584.0 332650.0 325041.0 342511.0 347818.0 61167.0 68919.0 178732.0 173073.0 176167.0 179609.0 370097.0 372040.0 212241.0 205260.0 148471.0 152455.0 265376.0 265508.0 279033.0 273650.0 363578.0 355748.0 242774.0 244103.0 44542.0 36825.0 114245.0 119491.0 86009.0 78862.0 190969.0 195552.0 226293.0 223452.0 288931.0 296984.0 251173.0 243840.0 185166.0 193609.0 159545.0 152660.0 172411.0 164674.0 148997.0 148243.0 89417.0 97009.0 158270.0 153204.0 236046.0 229539.0 250868.0 247428.0 146771.0 147813.0 268692.0 255959.0 268692.0 268692.0 255959.0 255959.0
151139.0 158616.0 194027.0 189907.0 306955.0 312958.0 236924.0 242549.0 111617.0 114942.0 254388.0 255475.0 84356.0 76973.0 253167.0 257923.0 48507.0 48819.0 39024.0 41575.0 188726.0 195255.0 235363.0 229629.0 227611.0 231112.0 297549.0 291734.0 112702.0 109203.0 264068.0 268718.0 67330.0 74557.0 52757.0 54678.0 237819.0 242629.0 114158.0 121920.0 43162.0 34974.0 32708.0 24935.0 214333.0 206338.0 265321.0 273265.0 80254.0 72322.0 266115.0 258291.0 195810.0 199340.0 290481.0 293672.0 202484.0 209394.0 162842.0 161988.0 239579.0 231519.0 154057.0 158191.0 183856.0 181197.0 88714.0 87266.0 152218.0 147664.0 283145.0 279170.0 68247.0 75015.0 62806.0 70579.0 249839.0 243398.0 262412.0 268088.0 311953.0 305120.0 0.0 8428.0 156371.0 149294.0 167097.0 159071.0 8493.0 11165.0 171743.0 168958.0 90576.0 94548.0 163346.0 165796.0 280847.0 274385.0 54664.0 57164.0 254949.0 252298.0 268597.0 272710.0 43952.0 41243.0 51149.0 59099.0 290948.0 293515.0 290302.0 294733.0 221084.0 213185.0 75824.0 74256.0 248815.0 243667.0 217097.0 222296.0 303812.0 296479.0 26241.0 31698.0 90958.0 84264.0 245084.0 252776.0 286327.0 291243.0 283271.0 289423.0 255761.0 255716.0 223274.0 229817.0 83673.0 83884.0 49819.0 48298.0 273093.0 273009.0 160449.0 156985.0 160954.0 168782.0 316238.0 311415.0 225479.0 233373.0 306668.0 311049.0 171467.0 171032.0 298917.0 301081.0 254221.0 259652.0 189186.0 182305.0 238728.0 81174.0 238728.0 238728.0 81174.0 81174.0
150093.0 157725.0 193933.0 189506.0 303013.0 309147.0 238058.0 243873.0 112771.0 115834.0 250676.0 251998.0 79828.0 72147.0 252662.0 257634.0 46375.0 47969.0 30639.0 33199.0 188173.0 194891.0 238079.0 232345.0 229174.0 232934.0 300265.0 294449.0 114626.0 110605.0 266783.0 271433.0 61739.0 69260.0 44441.0 46250.0 238219.0 243267.0 111444.0 119414.0 45141.0 36872.0 38419.0 30346.0 215848.0 207869.0 265054.0 273021.0 82861.0 74868.0 268802.0 260999.0 196591.0 199809.0 293131.0 296385.0 202394.0 209482.0 162439.0 162022.0 240976.0 232939.0 153428.0 157952.0 183892.0 180886.0 87755.0 85560.0 153454.0 148529.0 285618.0 281435.0 69542.0 75764.0 58446.0 66381.0 250884.0 244282.0 258025.0 263864.0 308438.0 301498.0 8428.0 0.0 158088.0 151091.0 166450.0 158293.0 4870.0 12630.0 172458.0 170041.0 87564.0 90923.0 164550.0 167382.0 282434.0 275845.0 46836.0 49846.0 257664.0 255013.0 266778.0 271096.0 40655.0 36623.0 48906.0 56587.0 288924.0 291716.0 291691.0 295925.0 222489.0 214673.0 75065.0 74383.0 251469.0 246115.0 217363.0 222792.0 306527.0 299194.0 24631.0 28060.0 87037.0 79988.0 247799.0 255492.0 281700.0 286774.0 282782.0 289080.0 254189.0 253876.0 225240.0 231956.0 82715.0 82120.0 41402.0 40091.0 275808.0 275725.0 161273.0 158223.0 159937.0 167706.0 317229.0 312234.0 225874.0 233815.0 305411.0 309977.0 170967.0 170138.0 301633.0 303757.0 256937.0 262367.0 188701.0 181606.0 241444.0 84457.0 241444.0 241444.0 84457.0 84457.0
50910.0 48880.0 52658.0 54325.0 209484.0 212307.0 81416.0 86497.0 45947.0 43938.0 160679.0 157013.0 235661.0 227529.0 109263.0 111472.0 204393.0 205189.0 170915.0 164947.0 55995.0 57574.0 91176.0 83940.0 71267.0 74850.0 149171.0 144550.0 43716.0 47612.0 123600.0 126547.0 129510.0 124802.0 180439.0 174773.0 86363.0 89383.0 83051.0 78186.0 198891.0 190723.0 128155.0 133698.0 58050.0 50053.0 118272.0 125634.0 76725.0 84406.0 113414.0 106198.0 43686.0 49935.0 139885.0 141809.0 59348.0 63026.0 40710.0 32395.0 83405.0 75329.0 43495.0 36729.0 43273.0 47201.0 245077.0 243490.0 10000.0 18084.0 128672.0 123894.0 224007.0 230860.0 120192.0 115438.0 94520.0 88819.0 180850.0 182069.0 206003.0 201881.0 156371.0 158088.0 0.0 7195.0 46513.0 46859.0 162355.0 167535.0 24737.0 17487.0 95327.0 100528.0 11984.0 9706.0 124479.0 118086.0 156612.0 149642.0 115629.0 114275.0 140041.0 140824.0 198647.0 193746.0 206958.0 214676.0 163101.0 162303.0 134060.0 138795.0 64955.0 56942.0 232167.0 230279.0 95695.0 89417.0 68031.0 70823.0 156809.0 150430.0 134416.0 134898.0 243887.0 236339.0 100102.0 107135.0 205647.0 206472.0 137457.0 142031.0 125155.0 129063.0 67283.0 74321.0 82518.0 87993.0 174442.0 180266.0 126688.0 124857.0 17433.0 9094.0 51677.0 55059.0 160716.0 156455.0 74663.0 81786.0 167773.0 169878.0 45479.0 52530.0 146824.0 147834.0 110330.0 114019.0 55182.0 54517.0 100929.0 77703.0 100929.0 100929.0 77703.0 77703.0
50772.0 49879.0 58309.0 59276.0 213531.0 216563.0 88611.0 93676.0 39322.0 37650.0 164054.0 160663.0 228859.0 220741.0 115789.0 118192.0 197370.0 198112.0 164308.0 158438.0 60638.0 62889.0 95921.0 88899.0 78395.0 81853.0 154874.0 150051.0 36602.0 40772.0 127858.0 131146.0 123700.0 119224.0 174012.0 168457.0 93361.0 96498.0 79175.0 74870.0 191783.0 183616.0 120973.0 126545.0 65205.0 57210.0 125053.0 132472.0 69560.0 77262.0 119727.0 112390.0 50558.0 56543.0 145914.0 148040.0 65353.0 69440.0 42786.0 34878.0 90572.0 82496.0 43972.0 38190.0 48522.0 51644.0 237989.0 236447.0 10579.0 16824.0 135304.0 130664.0 216900.0 223753.0 114135.0 109611.0 101715.0 95995.0 183676.0 185186.0 210540.0 206228.0 149294.0 151091.0 7195.0 0.0 48905.0 48009.0 155332.0 160458.0 30262.0 23688.0 90104.0 95629.0 17751.0 16891.0 131578.0 125223.0 150441.0 143558.0 119599.0 117834.0 145628.0 146651.0 191675.0 186836.0 199940.0 207676.0 168779.0 168198.0 141209.0 145974.0 72132.0 64106.0 225074.0 223172.0 102041.0 95946.0 74758.0 77777.0 162311.0 155763.0 127508.0 128131.0 237032.0 229509.0 105052.0 112240.0 208660.0 209736.0 144209.0 148888.0 130780.0 134425.0 74179.0 81086.0 76377.0 82130.0 168021.0 173744.0 132007.0 130458.0 21068.0 12746.0 52894.0 57166.0 167908.0 163650.0 81577.0 88782.0 174177.0 176425.0 48615.0 55096.0 153098.0 154291.0 115148.0 119156.0 59959.0 58454.0 104309.0 70508.0 104309.0 104309.0 70508.0 70508.0
17827.0 9818.0 29672.0 23523.0 165912.0 169415.0 82310.0 89830.0 61952.0 57316.0 115485.0 112465.0 237442.0 229215.0 86229.0 91452.0 211945.0 214338.0 171118.0 163903.0 21773.0 28953.0 123921.0 115972.0 80165.0 87152.0 172806.0 170002.0 67811.0 65753.0 157462.0 158537.0 121795.0 115041.0 177603.0 170633.0 75441.0 82145.0 63989.0 56056.0 210242.0 202070.0 145035.0 148461.0 68579.0 62771.0 98891.0 106881.0 96579.0 102370.0 132755.0 127340.0 42504.0 40756.0 160864.0 160575.0 37692.0 45686.0 6325.0 14134.0 88137.0 81373.0 13041.0 11750.0 22244.0 15869.0 253804.0 250794.0 38330.0 33836.0 142879.0 136113.0 235343.0 241989.0 115959.0 109060.0 93143.0 85346.0 134776.0 136386.0 164209.0 159357.0 167097.0 166450.0 46513.0 48905.0 0.0 8481.0 171197.0 177808.0 27900.0 34638.0 85276.0 86916.0 36455.0 44247.0 128494.0 120896.0 151420.0 143750.0 151086.0 151489.0 105206.0 107997.0 204998.0 198783.0 214280.0 221340.0 128444.0 129508.0 135182.0 137409.0 72288.0 67227.0 241323.0 240822.0 115973.0 108054.0 54526.0 61599.0 181859.0 176970.0 141828.0 139545.0 246581.0 238654.0 131217.0 136943.0 159802.0 161019.0 116348.0 122757.0 91124.0 92846.0 83211.0 91398.0 83746.0 85289.0 171739.0 178815.0 154173.0 150300.0 29199.0 37434.0 9599.0 8694.0 156501.0 150399.0 63615.0 71539.0 140257.0 144225.0 5344.0 6256.0 164874.0 163588.0 141716.0 143289.0 22441.0 15225.0 139943.0 100704.0 139943.0 139943.0 100704.0 100704.0
9456.0 2204.0 38080.0 31994.0 169801.0 173622.0 90306.0 97740.0 55678.0 50943.0 118526.0 116004.0 228994.0 220768.0 94478.0 99815.0 203681.0 206144.0 162674.0 155444.0 30134.0 37419.0 128870.0 120984.0 87546.0 94324.0 179356.0 176310.0 62381.0 59585.0 162385.0 163805.0 113319.0 106581.0 169124.0 162152.0 83878.0 90514.0 55630.0 47786.0 202224.0 194044.0 137552.0 140782.0 75596.0 69402.0 107254.0 115245.0 89830.0 95329.0 139623.0 133974.0 49740.0 48654.0 167684.0 167631.0 46157.0 54119.0 8189.0 15823.0 95938.0 89005.0 5674.0 10180.0 30135.0 24263.0 245553.0 242487.0 37691.0 31712.0 150296.0 143668.0 227303.0 233899.0 107494.0 100581.0 101338.0 93591.0 136792.0 138882.0 168890.0 163758.0 159071.0 158293.0 46859.0 48009.0 8481.0 0.0 163055.0 169730.0 32207.0 37802.0 76795.0 78480.0 38310.0 46347.0 136572.0 129010.0 142940.0 135270.0 155667.0 155692.0 112027.0 115139.0 196694.0 190438.0 206004.0 213032.0 135160.0 136537.0 143419.0 145746.0 79678.0 74235.0 233102.0 232675.0 122624.0 114819.0 62924.0 69907.0 188259.0 183154.0 133685.0 131278.0 238146.0 230215.0 136495.0 142467.0 162051.0 163668.0 124584.0 131064.0 98196.0 99494.0 89963.0 98148.0 75578.0 76936.0 163261.0 170344.0 160136.0 156529.0 30445.0 37861.0 4886.0 11195.0 164936.0 158859.0 72003.0 79946.0 147923.0 152058.0 13675.0 12123.0 172017.0 170946.0 147009.0 148933.0 30868.0 23336.0 143565.0 94275.0 143565.0 143565.0 94275.0 94275.0
154884.0 162500.0 198605.0 194224.0 307791.0 313941.0 242490.0 248259.0 117168.0 120294.0 255483.0 256827.0 76524.0 68999.0 257399.0 262342.0 42039.0 43330.0 31804.0 35399.0 192911.0 199604.0 242000.0 236266.0 233495.0 237185.0 304186.0 298371.0 118816.0 114938.0 270705.0 275355.0 66258.0 73847.0 45194.0 47802.0 242808.0 247810.0 116313.0 124283.0 40278.0 32013.0 40827.0 32890.0 220181.0 212196.0 269759.0 277722.0 86809.0 78827.0 272752.0 264922.0 201097.0 204381.0 297118.0 300260.0 207066.0 214125.0 167153.0 166667.0 245343.0 237299.0 158171.0 162641.0 188541.0 185589.0 83190.0 81170.0 157846.0 153007.0 289674.0 285558.0 64683.0 70942.0 63223.0 71170.0 255338.0 248772.0 262741.0 268605.0 313261.0 306312.0 8493.0 4870.0 162355.0 155332.0 171197.0 163055.0 0.0 7987.0 176975.0 174474.0 92430.0 95757.0 168953.0 171687.0 286755.0 280199.0 50080.0 53568.0 261586.0 258935.0 271633.0 275941.0 36701.0 33285.0 44610.0 52395.0 293787.0 296571.0 296064.0 300348.0 226851.0 219013.0 70449.0 69625.0 255461.0 250175.0 221975.0 227361.0 310449.0 303116.0 29371.0 32927.0 83440.0 76554.0 251721.0 259413.0 286371.0 291473.0 287519.0 293797.0 259030.0 258732.0 229448.0 236112.0 87478.0 86958.0 42740.0 40514.0 279730.0 279646.0 165763.0 162615.0 164726.0 172502.0 321701.0 316743.0 230463.0 238396.0 310231.0 314781.0 175696.0 174915.0 305518.0 307717.0 260858.0 266289.0 193431.0 186362.0 245365.0 88159.0 245365.0 245365.0 88159.0 88159.0
161688.0 169231.0 204923.0 200708.0 315630.0 321753.0 248058.0 253699.0 122737.0 126028.0 263268.0 264555.0 74284.0 67162.0 263944.0 268770.0 37500.0 37654.0 37473.0 42028.0 199476.0 206069.0 246486.0 240752.0 238772.0 242277.0 308672.0 302856.0 123867.0 120347.0 275191.0 279840.0 74243.0 81822.0 50118.0 53622.0 248841.0 253697.0 123779.0 131682.0 32831.0 24552.0 42998.0 35545.0 225493.0 217498.0 276176.0 284127.0 91394.0 83470.0 277238.0 269414.0 206896.0 210372.0 301604.0 304794.0 213382.0 220341.0 173636.0 172911.0 250733.0 242674.0 164770.0 169035.0 194785.0 192025.0 77556.0 76123.0 163354.0 158755.0 294266.0 290313.0 57626.0 64184.0 71069.0 78996.0 260964.0 254503.0 270654.0 276493.0 321004.0 314080.0 11165.0 12630.0 167535.0 160458.0 177808.0 169730.0 7987.0 0.0 182815.0 180081.0 99974.0 103476.0 174481.0 176956.0 292010.0 285543.0 57474.0 61277.0 266072.0 263421.0 278801.0 283022.0 33444.0 31726.0 40158.0 48151.0 301040.0 303732.0 301457.0 305874.0 232238.0 224343.0 64675.0 63242.0 259914.0 254794.0 228088.0 233336.0 314934.0 307602.0 36247.0 40505.0 80486.0 74023.0 256207.0 263899.0 294316.0 299400.0 294057.0 300257.0 266091.0 265907.0 234435.0 240970.0 94213.0 94047.0 48387.0 45112.0 284216.0 284132.0 171537.0 168122.0 171519.0 179324.0 327360.0 322515.0 236499.0 244403.0 317154.0 321616.0 182231.0 181650.0 310040.0 312204.0 265344.0 270775.0 199960.0 193001.0 249851.0 92214.0 249851.0 249851.0 92214.0 92214.0
39914.0 34401.0 28052.0 29715.0 185326.0 187962.0 66183.0 72671.0 60376.0 56816.0 137403.0 133371.0 247633.0 239417.0 86290.0 89291.0 218769.0 220256.0 181722.0 175110.0 31650.0 32837.0 96663.0 88779.0 59795.0 65544.0 148339.0 144921.0 61892.0 63244.0 130180.0 131631.0 135961.0 130141.0 189892.0 183548.0 66367.0 70887.0 82350.0 75611.0 214629.0 206462.0 145771.0 150517.0 46780.0 39567.0 96378.0 104030.0 94573.0 101673.0 109413.0 103268.0 24149.0 28009.0 137235.0 137774.0 35202.0 39936.0 24129.0 16859.0 70180.0 62459.0 31769.0 23352.0 18553.0 23289.0 260160.0 257956.0 21756.0 24182.0 121732.0 115738.0 239746.0 246598.0 128190.0 122282.0 78704.0 71872.0 158375.0 159122.0 181461.0 177470.0 171743.0 172458.0 24737.0 30262.0 27900.0 32207.0 176975.0 182815.0 0.0 7938.0 99787.0 103326.0 12758.0 18511.0 111946.0 104840.0 164689.0 157292.0 123525.0 123722.0 115415.0 116389.0 212462.0 206946.0 221249.0 228724.0 138537.0 137941.0 120275.0 123917.0 52246.0 45442.0 247377.0 245990.0 92019.0 84533.0 46303.0 50713.0 156982.0 151596.0 148090.0 147336.0 256313.0 248558.0 104332.0 110399.0 182809.0 183259.0 115335.0 120477.0 100550.0 104345.0 59948.0 68003.0 92079.0 95857.0 183906.0 190378.0 128371.0 125072.0 11448.0 17782.0 36096.0 36379.0 144860.0 139776.0 54111.0 61851.0 144332.0 146860.0 24762.0 32751.0 142392.0 142025.0 114847.0 116927.0 30708.0 31289.0 112043.0 96878.0 112043.0 112043.0 96878.0 96878.0
44550.0 40002.0 35255.0 37514.0 193211.0 195804.0 68017.0 73961.0 57344.0 54230.0 145338.0 141306.0 246168.0 237974.0 92112.0 94635.0 216412.0 217646.0 180579.0 174174.0 39549.0 40378.0 91759.0 83989.0 59989.0 64976.0 145448.0 141660.0 57607.0 59852.0 125150.0 126997.0 136155.0 130673.0 189225.0 183098.0 70455.0 74248.0 84484.0 78254.0 211725.0 203558.0 142094.0 147153.0 46665.0 38938.0 101567.0 109069.0 90654.0 98001.0 107363.0 100840.0 27504.0 32950.0 134872.0 135854.0 41863.0 45753.0 30089.0 21982.0 71201.0 63254.0 36378.0 28122.0 26255.0 31225.0 257577.0 255601.0 16929.0 21803.0 120722.0 115126.0 236842.0 243695.0 127848.0 122294.0 80884.0 74513.0 166263.0 167044.0 189225.0 185292.0 168958.0 170041.0 17487.0 23688.0 34638.0 37802.0 174474.0 180081.0 7938.0 0.0 100443.0 104532.0 6057.0 10574.0 112939.0 106084.0 164432.0 157158.0 118140.0 117962.0 122603.0 123339.0 210302.0 205002.0 218925.0 226497.0 145635.0 144817.0 121791.0 125885.0 52832.0 45391.0 244737.0 243113.0 89754.0 82605.0 51257.0 54771.0 153813.0 148120.0 145873.0 145552.0 254696.0 247007.0 99807.0 106171.0 190727.0 191194.0 120676.0 125509.0 107708.0 111721.0 58575.0 66386.0 91022.0 95386.0 183224.0 189487.0 124669.0 121786.0 10039.0 12281.0 42083.0 43282.0 147280.0 142534.0 58432.0 65885.0 150492.0 152749.0 32059.0 39907.0 140616.0 140703.0 110298.0 112829.0 38573.0 39180.0 105770.0 92464.0 105770.0 105770.0 92464.0 92464.0
67587.0 75649.0 114725.0 108762.0 216894.0 222713.0 165022.0 171967.0 54855.0 54180.0 164080.0 164968.0 152736.0 144539.0 170144.0 176003.0 130329.0 133802.0 86635.0 79135.0 106687.0 114171.0 185994.0 179003.0 159583.0 165175.0 244386.0 239870.0 63979.0 56086.0 217522.0 221117.0 36602.0 30363.0 92381.0 85358.0 160515.0 166853.0 24044.0 32296.0 132704.0 124431.0 79946.0 79499.0 146517.0 139090.0 183423.0 191398.0 57329.0 55609.0 207529.0 200706.0 122852.0 123807.0 234649.0 236044.0 122918.0 130783.0 82867.0 85279.0 169690.0 162123.0 73055.0 79695.0 105876.0 100949.0 172044.0 168231.0 87005.0 79547.0 221145.0 215400.0 156887.0 162699.0 31341.0 23940.0 176851.0 169379.0 173423.0 178654.0 221448.0 214690.0 90576.0 87564.0 95327.0 90104.0 85276.0 76795.0 92430.0 99974.0 99787.0 100443.0 0.0 8078.0 96495.0 102302.0 211263.0 203945.0 66146.0 58488.0 208913.0 206530.0 180128.0 184854.0 122787.0 115945.0 132449.0 138933.0 201894.0 205045.0 218939.0 221798.0 152004.0 145189.0 160087.0 160702.0 189828.0 182914.0 139456.0 146094.0 252128.0 245746.0 64393.0 59505.0 162071.0 154088.0 195156.0 202327.0 197982.0 202382.0 200016.0 206855.0 168106.0 167221.0 159014.0 166818.0 22372.0 14598.0 86555.0 93785.0 221997.0 220150.0 90444.0 91179.0 77131.0 84352.0 241497.0 235558.0 148473.0 156471.0 219924.0 224994.0 90401.0 87555.0 240891.0 241138.0 205232.0 209236.0 107547.0 99596.0 192960.0 64459.0 192960.0 192960.0 64459.0 64459.0
69093.0 77147.0 116559.0 110216.0 212419.0 218412.0 167816.0 174924.0 61685.0 60636.0 159855.0 161079.0 152836.0 144693.0 170590.0 176708.0 132321.0 136174.0 87282.0 79539.0 107927.0 115575.0 191532.0 184420.0 163021.0 168864.0 249229.0 244893.0 71136.0 63179.0 223369.0 226773.0 35570.0 28300.0 91854.0 84499.0 162355.0 168949.0 23354.0 31757.0 135981.0 127743.0 86136.0 85153.0 150102.0 142832.0 184096.0 192041.0 65403.0 63584.0 211862.0 205193.0 125871.0 126336.0 239195.0 240367.0 124596.0 132597.0 85057.0 88186.0 172770.0 165336.0 75201.0 82323.0 108132.0 102743.0 173777.0 169640.0 91850.0 84155.0 225001.0 219063.0 159764.0 165308.0 32994.0 25041.0 179381.0 171780.0 168290.0 173749.0 217529.0 210628.0 94548.0 90923.0 100528.0 95629.0 86916.0 78480.0 95757.0 103476.0 103326.0 104532.0 8078.0 0.0 100906.0 107065.0 214143.0 206731.0 65290.0 57541.0 214895.0 212656.0 178611.0 183610.0 124575.0 117480.0 134339.0 140539.0 200010.0 203463.0 221508.0 224101.0 155351.0 148761.0 162068.0 163065.0 194208.0 187135.0 141396.0 148268.0 257140.0 250902.0 68623.0 63021.0 162331.0 154320.0 200584.0 207660.0 192604.0 197213.0 200265.0 207258.0 167007.0 165732.0 162978.0 170880.0 30444.0 22661.0 86183.0 93702.0 227176.0 225113.0 94495.0 95848.0 78317.0 85189.0 243415.0 237296.0 150466.0 158422.0 219028.0 224326.0 92155.0 88653.0 245146.0 245159.0 210744.0 214547.0 108885.0 100741.0 199086.0 72531.0 199086.0 199086.0 72531.0 72531.0
44011.0 40463.0 40743.0 42364.0 197715.0 200462.0 73578.0 79333.0 51785.0 48854.0 149268.0 145448.0 241011.0 232829.0 98115.0 100683.0 210925.0 212074.0 175587.0 169281.0 44110.0 45594.0 93285.0 85658.0 64998.0 69620.0 148489.0 144436.0 51688.0 54165.0 126453.0 128671.0 131870.0 126585.0 184448.0 178430.0 76469.0 80159.0 81548.0 75717.0 206073.0 197906.0 136246.0 141382.0 51634.0 43768.0 107622.0 115126.0 84777.0 92178.0 111038.0 104291.0 33509.0 39000.0 138289.0 139553.0 47626.0 51734.0 31199.0 22764.0 76485.0 68484.0 36012.0 28216.0 31289.0 35423.0 252006.0 250105.0 11133.0 17067.0 124973.0 119596.0 231189.0 238042.0 123291.0 117932.0 86517.0 80276.0 169788.0 170805.0 194080.0 190009.0 163346.0 164550.0 11984.0 17751.0 36455.0 38310.0 168953.0 174481.0 12758.0 6057.0 96495.0 100906.0 0.0 8047.0 118129.0 111379.0 159876.0 152673.0 119100.0 118517.0 128130.0 129010.0 204887.0 199668.0 213450.0 221053.0 151224.0 150528.0 127164.0 131405.0 58035.0 50398.0 239150.0 237453.0 93348.0 86434.0 57312.0 60791.0 156640.0 150724.0 140467.0 140314.0 249474.0 241815.0 101654.0 108256.0 194437.0 195101.0 126726.0 131566.0 113255.0 117099.0 62851.0 70478.0 86183.0 90828.0 178444.0 184605.0 127140.0 124583.0 8000.0 6380.0 42895.0 45143.0 152921.0 148268.0 64470.0 71895.0 156444.0 158750.0 34674.0 42167.0 144396.0 144750.0 112091.0 115006.0 43259.0 42980.0 105814.0 86491.0 105814.0 105814.0 86491.0 86491.0
52002.0 48504.0 45225.0 47969.0 203718.0 206257.0 71736.0 76900.0 54881.0 52510.0 155909.0 151877.0 244634.0 236483.0 100302.0 102257.0 213720.0 214605.0 179620.0 173516.0 50088.0 50605.0 85906.0 78379.0 61819.0 65687.0 142167.0 137877.0 53248.0 56792.0 118916.0 121331.0 137159.0 132151.0 188882.0 183062.0 76820.0 79715.0 88388.0 82859.0 208366.0 200199.0 137782.0 143263.0 48541.0 40544.0 108974.0 116264.0 86323.0 93961.0 105472.0 98479.0 34374.0 41004.0 132369.0 133957.0 51291.0 54325.0 39149.0 30739.0 73845.0 65773.0 44036.0 36262.0 36668.0 41798.0 254510.0 252846.0 15313.0 22950.0 120149.0 115128.0 233482.0 240335.0 128188.0 123137.0 84833.0 79113.0 176781.0 177602.0 199583.0 195721.0 165796.0 167382.0 9706.0 16891.0 44247.0 46347.0 171687.0 176956.0 18511.0 10574.0 102302.0 107065.0 8047.0 0.0 115072.0 108596.0 164715.0 157633.0 111416.0 110686.0 132299.0 132756.0 207892.0 202895.0 216275.0 223963.0 155205.0 154120.0 124540.0 129191.0 55370.0 47405.0 241611.0 239754.0 87738.0 81148.0 58859.0 61344.0 150112.0 144011.0 143579.0 143854.0 252942.0 245355.0 94454.0 101205.0 201279.0 201765.0 128188.0 132633.0 117387.0 121648.0 58364.0 65647.0 90712.0 95814.0 182879.0 188844.0 120347.0 118069.0 16024.0 11266.0 50909.0 52941.0 151064.0 146767.0 65230.0 72248.0 158925.0 160848.0 42148.0 49818.0 138891.0 139595.0 104840.0 108009.0 49083.0 49718.0 97865.0 87390.0 97865.0 97865.0 87390.0 87390.0
146000.0 138238.0 99382.0 106968.0 195748.0 193635.0 46342.0 39313.0 169744.0 166975.0 171617.0 164111.0 359104.0 350911.0 72331.0 64694.0 328784.0 329662.0 293468.0 286969.0 110100.0 102249.0 81411.0 78762.0 53260.0 50151.0 72126.0 75404.0 168180.0 171829.0 95830.0 89793.0 247682.0 241601.0 301830.0 295489.0 57022.0 48782.0 191926.0 184298.0 323362.0 315194.0 252268.0 258051.0 66593.0 74566.0 62507.0 61030.0 201049.0 208813.0 42605.0 47523.0 88416.0 87977.0 57569.0 51695.0 92465.0 84260.0 129354.0 126020.0 41794.0 49685.0 139158.0 131821.0 106444.0 112806.0 369555.0 367917.0 129127.0 134736.0 30752.0 23237.0 348478.0 355331.0 240128.0 234125.0 35731.0 43794.0 196134.0 192009.0 182437.0 183360.0 280847.0 282434.0 124479.0 131578.0 128494.0 136572.0 286755.0 292010.0 111946.0 112939.0 211263.0 214143.0 118129.0 115072.0 0.0 7807.0 276597.0 269162.0 98712.0 105632.0 111810.0 105521.0 322895.0 317770.0 331334.0 339003.0 122737.0 115840.0 11595.0 19362.0 60113.0 67785.0 356646.0 354750.0 46883.0 45962.0 75302.0 67532.0 82151.0 82994.0 258514.0 258441.0 367600.0 359930.0 77379.0 74462.0 212555.0 208647.0 69676.0 65984.0 103910.0 112168.0 58543.0 53567.0 203838.0 207800.0 295842.0 302259.0 73074.0 65163.0 122362.0 124375.0 137888.0 132661.0 41087.0 40699.0 66499.0 59507.0 102030.0 97696.0 123151.0 128484.0 52781.0 46796.0 80908.0 74544.0 108741.0 117139.0 114021.0 201470.0 114021.0 114021.0 201470.0 201470.0
138448.0 130655.0 91703.0 99248.0 190235.0 188353.0 38928.0 32182.0 163094.0 160230.0 164861.0 157415.0 352230.0 344029.0 65457.0 58008.0 322211.0 323187.0 286491.0 279936.0 102360.0 94501.0 80565.0 77197.0 46834.0 44493.0 77273.0 79937.0 161801.0 165262.0 97592.0 92028.0 240406.0 234267.0 294724.0 288329.0 49231.0 40979.0 184432.0 176763.0 316959.0 308792.0 246087.0 251763.0 60055.0 68052.0 56347.0 55571.0 194766.0 202485.0 44525.0 48268.0 81149.0 80471.0 62581.0 57275.0 84722.0 76510.0 121855.0 118672.0 34895.0 42908.0 131675.0 124412.0 98898.0 105174.0 363099.0 361368.0 122428.0 127855.0 35792.0 27689.0 342076.0 348929.0 232968.0 226897.0 27974.0 36022.0 189428.0 185458.0 177307.0 177971.0 274385.0 275845.0 118086.0 125223.0 120896.0 129010.0 280199.0 285543.0 104840.0 106084.0 203945.0 206731.0 111379.0 108596.0 7807.0 0.0 269399.0 261940.0 99711.0 106309.0 105811.0 99762.0 316247.0 311045.0 324750.0 332388.0 117717.0 111082.0 16065.0 22189.0 53360.0 61200.0 350204.0 348348.0 45763.0 43489.0 67541.0 59799.0 87431.0 87670.0 251837.0 251636.0 360779.0 353085.0 77429.0 75268.0 206264.0 202519.0 65070.0 62096.0 97358.0 105619.0 53101.0 48876.0 196841.0 200687.0 288740.0 295212.0 75943.0 68126.0 115392.0 117665.0 130263.0 124968.0 44801.0 43047.0 58714.0 51701.0 98492.0 94668.0 115552.0 120805.0 58850.0 53376.0 81912.0 76061.0 101010.0 109416.0 112529.0 195359.0 112529.0 112529.0 195359.0 195359.0
133708.0 141776.0 180854.0 174897.0 268367.0 275049.0 230539.0 237289.0 111481.0 112791.0 217594.0 220014.0 87943.0 79904.0 235853.0 241896.0 73415.0 78967.0 25501.0 17690.0 172781.0 180302.0 244231.0 237884.0 224272.0 229400.0 305011.0 299831.0 117369.0 110896.0 273769.0 278356.0 29752.0 37139.0 26625.0 19238.0 226626.0 232876.0 88629.0 97044.0 84170.0 76892.0 71600.0 64916.0 211027.0 203368.0 249298.0 257255.0 93181.0 86271.0 270021.0 262793.0 188258.0 189640.0 296350.0 298419.0 189062.0 196910.0 148945.0 150966.0 234863.0 227140.0 139159.0 145595.0 171893.0 167089.0 112594.0 107439.0 149537.0 142829.0 284782.0 279470.0 104152.0 108085.0 36588.0 42561.0 242591.0 235227.0 221755.0 228269.0 275705.0 268326.0 54664.0 46836.0 156612.0 150441.0 151420.0 142940.0 50080.0 57474.0 164689.0 164432.0 66146.0 65290.0 159876.0 164715.0 276597.0 269399.0 0.0 7751.0 264666.0 262015.0 242833.0 248141.0 65112.0 57260.0 74872.0 79640.0 263632.0 267531.0 284592.0 287666.0 216869.0 209730.0 102077.0 104720.0 252296.0 245857.0 205551.0 212099.0 312053.0 305120.0 42682.0 35143.0 97606.0 89590.0 253787.0 261304.0 244184.0 249904.0 265554.0 272533.0 231716.0 230025.0 222718.0 230250.0 74095.0 69056.0 21170.0 29054.0 281454.0 280485.0 154640.0 154059.0 143187.0 150270.0 307561.0 301675.0 214547.0 222554.0 283841.0 289312.0 156546.0 153591.0 303435.0 304308.0 263359.0 268240.0 173664.0 165658.0 248445.0 97988.0 248445.0 248445.0 97988.0 97988.0
126023.0 134092.0 173211.0 167216.0 261416.0 268040.0 223062.0 229849.0 104773.0 105924.0 210437.0 212758.0 95641.0 87582.0 228111.0 234166.0 79983.0 85255.0 32199.0 24186.0 165084.0 172617.0 237746.0 231315.0 216934.0 222134.0 298275.0 293178.0 110986.0 104336.0 267556.0 272027.0 22018.0 29395.0 34366.0 26969.0 218995.0 225280.0 80883.0 89297.0 89529.0 81997.0 70555.0 64434.0 203711.0 196082.0 241565.0 249521.0 87963.0 81340.0 263018.0 255840.0 180791.0 182091.0 289467.0 291445.0 181404.0 189269.0 141325.0 143437.0 227449.0 219751.0 131528.0 138022.0 164295.0 159437.0 119702.0 114706.0 142416.0 135613.0 277623.0 272244.0 110307.0 114526.0 29453.0 35043.0 235070.0 227680.0 214976.0 221406.0 268555.0 261215.0 57164.0 49846.0 149642.0 143558.0 143750.0 135270.0 53568.0 61277.0 157292.0 157158.0 58488.0 57541.0 152673.0 157633.0 269162.0 261940.0 7751.0 0.0 258437.0 255786.0 235151.0 240436.0 71733.0 63976.0 81556.0 86612.0 256001.0 259865.0 277094.0 280117.0 209501.0 202409.0 108962.0 111336.0 245286.0 238780.0 197927.0 204508.0 305412.0 298546.0 41635.0 33554.0 105280.0 97262.0 247265.0 254747.0 237610.0 243235.0 257806.0 264789.0 223998.0 222337.0 215523.0 223097.0 67183.0 61855.0 28846.0 36644.0 274853.0 273772.0 147330.0 146906.0 135482.0 142548.0 299952.0 294041.0 206932.0 214936.0 276118.0 281576.0 148887.0 145883.0 296439.0 297223.0 256908.0 261685.0 165974.0 157953.0 242216.0 93095.0 242216.0 242216.0 93095.0 93095.0
162681.0 157869.0 134015.0 141542.0 278191.0 277901.0 100295.0 95339.0 154874.0 154871.0 241660.0 235405.0 336985.0 329050.0 150081.0 145385.0 303406.0 303615.0 274850.0 269940.0 145088.0 140063.0 27956.0 35883.0 88331.0 80874.0 55855.0 47817.0 147536.0 154622.0 10047.0 17479.0 240324.0 236833.0 286003.0 281416.0 121040.0 115052.0 198626.0 193780.0 297062.0 288895.0 225557.0 231413.0 91591.0 93274.0 147339.0 149768.0 174821.0 182812.0 56298.0 51447.0 113718.0 120110.0 58400.0 65773.0 132948.0 128130.0 147649.0 139970.0 92975.0 92111.0 154516.0 146242.0 133093.0 141067.0 343318.0 342189.0 125275.0 133454.0 73610.0 77671.0 322179.0 329032.0 229658.0 226375.0 104598.0 108166.0 265703.0 263910.0 268011.0 267071.0 254949.0 257664.0 115629.0 119599.0 151086.0 155667.0 261586.0 266072.0 123525.0 118140.0 208913.0 214895.0 119100.0 111416.0 98712.0 99711.0 264666.0 258437.0 0.0 7995.0 193562.0 189463.0 298264.0 294102.0 306028.0 313913.0 210553.0 205243.0 109301.0 117454.0 93287.0 92541.0 330391.0 328451.0 56080.0 62164.0 123340.0 117317.0 57298.0 48785.0 235515.0 237714.0 344580.0 337356.0 24300.0 24466.0 286951.0 284999.0 161384.0 160085.0 181242.0 188808.0 77938.0 72083.0 192467.0 199278.0 280150.0 284922.0 32612.0 38864.0 126975.0 122296.0 159618.0 159142.0 136157.0 138081.0 120064.0 119339.0 196426.0 193471.0 147117.0 155087.0 70345.0 77313.0 17818.0 24629.0 143507.0 149145.0 36893.0 174691.0 36893.0 36893.0 174691.0 174691.0
162379.0 157896.0 135790.0 143121.0 282454.0 282358.0 104738.0 100194.0 152289.0 152402.0 244893.0 238786.0 334334.0 326399.0 154767.0 150359.0 300755.0 300964.0 272199.0 267289.0 146617.0 141932.0 30848.0 38321.0 92154.0 84967.0 63619.0 55527.0 144895.0 151979.0 17005.0 25009.0 237672.0 234236.0 283353.0 278765.0 125348.0 119695.0 197005.0 192441.0 294411.0 286244.0 222906.0 228762.0 94375.0 95418.0 152607.0 155331.0 172170.0 180161.0 63462.0 58165.0 115407.0 122112.0 66395.0 73761.0 135206.0 130782.0 147773.0 139910.0 97654.0 96226.0 154256.0 146077.0 134255.0 142153.0 340667.0 339538.0 124074.0 132259.0 81202.0 84998.0 319528.0 326381.0 227021.0 223734.0 109788.0 112933.0 268770.0 267199.0 272639.0 271502.0 252298.0 255013.0 114275.0 117834.0 151489.0 155692.0 258935.0 263421.0 123722.0 117962.0 206530.0 212656.0 118517.0 110686.0 105632.0 106309.0 262015.0 255786.0 7995.0 0.0 198152.0 194280.0 295613.0 291451.0 303378.0 311262.0 215632.0 210514.0 116384.0 124532.0 96623.0 95244.0 327740.0 325800.0 61878.0 67413.0 126448.0 120751.0 64628.0 56088.0 232864.0 235064.0 341929.0 334705.0 29503.0 31170.0 290382.0 288626.0 167127.0 166089.0 185544.0 192985.0 81327.0 76025.0 189826.0 196684.0 277499.0 282271.0 40607.0 46807.0 126467.0 121341.0 159784.0 159702.0 143559.0 145302.0 123676.0 123413.0 202318.0 199568.0 147717.0 155735.0 78341.0 85293.0 24893.0 32199.0 145055.0 150348.0 31861.0 172040.0 31861.0 31861.0 172040.0 172040.0
118579.0 111913.0 87389.0 86858.0 85252.0 84412.0 93419.0 98283.0 167138.0 162519.0 63688.0 55818.0 330773.0 322732.0 43516.0 49068.0 310455.0 313801.0 265845.0 258030.0 86259.0 82805.0 167631.0 160941.0 106707.0 113368.0 182884.0 184898.0 172441.0 170905.0 194738.0 191175.0 213687.0 205896.0 269391.0 261649.0 72976.0 78511.0 156111.0 147839.0 311609.0 303341.0 249209.0 251982.0 108511.0 111472.0 49476.0 51186.0 201751.0 207356.0 146156.0 146593.0 100635.0 92751.0 168166.0 163084.0 81038.0 79322.0 110856.0 115294.0 100589.0 102171.0 117590.0 116320.0 97150.0 95314.0 352158.0 348207.0 136297.0 135428.0 141546.0 133328.0 336316.0 342445.0 211245.0 203461.0 89745.0 85423.0 86988.0 81732.0 74488.0 73643.0 268597.0 266778.0 140041.0 145628.0 105206.0 112027.0 271633.0 278801.0 115415.0 122603.0 180128.0 178611.0 128130.0 132299.0 111810.0 105811.0 242833.0 235151.0 193562.0 198152.0 0.0 7913.0 302901.0 295971.0 312576.0 319001.0 23321.0 24940.0 108745.0 104226.0 103899.0 108180.0 340209.0 340668.0 138598.0 131649.0 78323.0 80972.0 193099.0 192750.0 242565.0 238916.0 340431.0 332413.0 169263.0 170478.0 101025.0 96864.0 46449.0 53625.0 14913.0 12910.0 118271.0 122395.0 185209.0 184758.0 263993.0 271762.0 177709.0 170462.0 125153.0 132960.0 109108.0 101255.0 108846.0 100725.0 77206.0 75431.0 42977.0 50055.0 102242.0 99981.0 164539.0 158546.0 177253.0 173787.0 86562.0 90724.0 196277.0 205896.0 196277.0 196277.0 205896.0 205896.0
122098.0 115166.0 88354.0 88551.0 90593.0 89195.0 89741.0 94134.0 169750.0 165193.0 71472.0 63600.0 336077.0 328006.0 39609.0 44204.0 315113.0 318321.0 270891.0 263121.0 88270.0 84187.0 163954.0 157461.0 103508.0 109855.0 176991.0 179241.0 174643.0 173452.0 190291.0 186478.0 218851.0 211115.0 274734.0 267044.0 69720.0 74626.0 160895.0 152563.0 315794.0 307539.0 252627.0 255612.0 106234.0 109708.0 43680.0 44572.0 204549.0 210353.0 140923.0 141707.0 100249.0 92536.0 162280.0 157005.0 81510.0 79008.0 113441.0 117394.0 96628.0 98763.0 120622.0 118833.0 98413.0 97208.0 356884.0 353059.0 137609.0 137204.0 135551.0 127389.0 340601.0 346829.0 216074.0 208348.0 85130.0 81350.0 94577.0 89142.0 78746.0 78584.0 272710.0 271096.0 140824.0 146651.0 107997.0 115139.0 275941.0 283022.0 116389.0 123339.0 184854.0 183610.0 129010.0 132756.0 105521.0 99762.0 248141.0 240436.0 189463.0 194280.0 7913.0 0.0 307633.0 300786.0 317267.0 323787.0 22833.0 21661.0 101991.0 97218.0 101229.0 105997.0 344845.0 345154.0 134088.0 127368.0 77117.0 79010.0 187175.0 187067.0 246774.0 243331.0 345694.0 337675.0 165186.0 166093.0 107936.0 103502.0 38942.0 45947.0 16982.0 18567.0 115205.0 118892.0 189152.0 188992.0 269281.0 277002.0 172619.0 165263.0 126496.0 134081.0 112479.0 104595.0 101212.0 93098.0 75098.0 72550.0 36315.0 42992.0 104725.0 103028.0 158300.0 152140.0 172902.0 169166.0 88433.0 93203.0 193212.0 208479.0 193212.0 193212.0 208479.0 208479.0
188143.0 195964.0 233104.0 228305.0 333070.0 339631.0 278292.0 284218.0 153158.0 156073.0 281803.0 283866.0 41035.0 34353.0 291165.0 296430.0 8332.0 14879.0 39621.0 47570.0 226771.0 233723.0 278678.0 272944.0 269643.0 273496.0 340864.0 335049.0 155254.0 151100.0 307383.0 312033.0 90801.0 98814.0 44034.0 51331.0 277849.0 283116.0 146791.0 155084.0 27211.0 24960.0 76416.0 68834.0 256302.0 248333.0 303867.0 311852.0 123475.0 115486.0 309425.0 301606.0 236611.0 239560.0 333796.0 336957.0 241550.0 248827.0 201328.0 201422.0 281361.0 273340.0 192061.0 197059.0 223236.0 219827.0 49257.0 45796.0 193821.0 188683.0 326272.0 322081.0 39872.0 43059.0 91700.0 99564.0 291050.0 284333.0 286709.0 293119.0 339908.0 332650.0 43952.0 40655.0 198647.0 191675.0 204998.0 196694.0 36701.0 33444.0 212462.0 210302.0 122787.0 124575.0 204887.0 207892.0 322895.0 316247.0 65112.0 71733.0 298264.0 295613.0 302901.0 307633.0 0.0 7962.0 9862.0 16346.0 324527.0 327808.0 332051.0 336165.0 262887.0 255115.0 37573.0 39616.0 292110.0 286769.0 256887.0 262534.0 347127.0 339794.0 64430.0 65521.0 47053.0 40632.0 288399.0 296091.0 309277.0 314951.0 321256.0 327752.0 290859.0 289997.0 265843.0 272590.0 121493.0 119799.0 46516.0 39065.0 316408.0 316324.0 201376.0 198585.0 197974.0 205610.0 357318.0 352187.0 265516.0 273492.0 342561.0 347456.0 209698.0 208313.0 342213.0 344385.0 297536.0 302967.0 227392.0 220021.0 282043.0 124850.0 282043.0 282043.0 124850.0 124850.0
181786.0 189656.0 227106.0 222159.0 325374.0 331965.0 272922.0 278959.0 148054.0 150815.0 274212.0 276343.0 43250.0 35737.0 284864.0 290235.0 16285.0 22671.0 31803.0 39792.0 220551.0 227585.0 274516.0 268782.0 264548.0 268563.0 336702.0 330886.0 150577.0 146140.0 303221.0 307870.0 83370.0 91377.0 36180.0 43397.0 272051.0 277447.0 139894.0 148226.0 33350.0 29523.0 73948.0 66108.0 251191.0 243242.0 297674.0 305664.0 119291.0 111298.0 305129.0 297368.0 231089.0 233856.0 329635.0 332811.0 235539.0 242898.0 195244.0 195563.0 276150.0 268151.0 185893.0 191071.0 217327.0 213744.0 56333.0 52291.0 188643.0 183307.0 321747.0 317411.0 47798.0 51003.0 84728.0 92526.0 285613.0 278806.0 278939.0 285382.0 332325.0 325041.0 41243.0 36623.0 193746.0 186836.0 198783.0 190438.0 33285.0 31726.0 206946.0 205002.0 115945.0 117480.0 199668.0 202895.0 317770.0 311045.0 57260.0 63976.0 294102.0 291451.0 295971.0 300786.0 7962.0 0.0 17613.0 23063.0 317487.0 320860.0 326791.0 330780.0 257701.0 249988.0 45060.0 47469.0 287732.0 282248.0 251043.0 256809.0 342964.0 335632.0 59330.0 59655.0 50478.0 43364.0 284237.0 291929.0 301443.0 307144.0 314931.0 321495.0 284050.0 283073.0 261011.0 267867.0 115534.0 113502.0 38558.0 31153.0 312246.0 312162.0 195946.0 193399.0 191600.0 199187.0 351794.0 346561.0 259730.0 267722.0 335840.0 340818.0 203544.0 201969.0 338045.0 340060.0 293374.0 298805.0 221205.0 213743.0 277881.0 121060.0 277881.0 277881.0 121060.0 121060.0
197519.0 205307.0 242231.0 237535.0 342918.0 349486.0 286940.0 292776.0 161674.0 164705.0 291665.0 293727.0 37325.0 32114.0 300482.0 305677.0 2678.0 8434.0 49406.0 57380.0 236050.0 242946.0 286443.0 280709.0 278073.0 281792.0 348629.0 342813.0 163425.0 159506.0 315148.0 319797.0 100656.0 108669.0 53055.0 60579.0 286823.0 291993.0 156469.0 164743.0 24271.0 25194.0 82938.0 75664.0 264751.0 256770.0 313111.0 321093.0 131290.0 123327.0 317155.0 309287.0 245393.0 248476.0 341561.0 344751.0 250684.0 257902.0 210524.0 210465.0 289882.0 281845.0 201317.0 206193.0 232304.0 229016.0 39645.0 36710.0 202357.0 197377.0 334199.0 330135.0 31096.0 33550.0 101430.0 109315.0 299747.0 293102.0 296530.0 302954.0 349770.0 342511.0 51149.0 48906.0 206958.0 199940.0 214280.0 206004.0 44610.0 40158.0 221249.0 218925.0 132449.0 134339.0 213450.0 216275.0 331334.0 324750.0 74872.0 81556.0 306028.0 303378.0 312576.0 317267.0 9862.0 17613.0 0.0 8039.0 334250.0 337490.0 340596.0 344810.0 271395.0 263577.0 27746.0 29861.0 299920.0 294708.0 265899.0 271457.0 354891.0 347559.0 73165.0 74735.0 41568.0 36274.0 296163.0 303856.0 319055.0 324751.0 330586.0 337036.0 300475.0 299670.0 274057.0 280708.0 130657.0 129175.0 55915.0 48270.0 324172.0 324089.0 210104.0 207125.0 207357.0 215021.0 366068.0 361016.0 274483.0 282445.0 352126.0 356975.0 218938.0 217675.0 349997.0 352128.0 305301.0 310731.0 236648.0 229338.0 289808.0 132322.0 289808.0 289808.0 132322.0 132322.0
204468.0 212296.0 249447.0 244651.0 347994.0 354645.0 294501.0 300385.0 169296.0 172267.0 297019.0 299233.0 30334.0 26140.0 307500.0 312774.0 10717.0 14253.0 54438.0 62470.0 243113.0 250069.0 294328.0 288594.0 285744.0 289521.0 356514.0 350698.0 171192.0 167178.0 323032.0 327682.0 106373.0 114373.0 56317.0 64144.0 294169.0 299411.0 162907.0 171224.0 30237.0 32462.0 90970.0 83676.0 272412.0 264437.0 320211.0 328197.0 139160.0 131188.0 325061.0 317204.0 252872.0 255865.0 349445.0 352636.0 257893.0 265164.0 217674.0 217754.0 297510.0 289480.0 208405.0 213402.0 239572.0 236173.0 33281.0 29455.0 209972.0 204907.0 342055.0 337953.0 30657.0 31136.0 107758.0 115574.0 307280.0 300591.0 301377.0 307909.0 355138.0 347818.0 59099.0 56587.0 214676.0 207676.0 221340.0 213032.0 52395.0 48151.0 228724.0 226497.0 138933.0 140539.0 221053.0 223963.0 339003.0 332388.0 79640.0 86612.0 313913.0 311262.0 319001.0 323787.0 16346.0 23063.0 8039.0 0.0 340543.0 343896.0 348213.0 352375.0 279029.0 271232.0 22520.0 26510.0 307806.0 302559.0 273214.0 278841.0 362776.0 355443.0 80647.0 81865.0 33796.0 28991.0 304048.0 311740.0 323646.0 329457.0 337589.0 344092.0 307034.0 306101.0 281817.0 288503.0 137837.0 136128.0 59828.0 51915.0 332057.0 331973.0 217615.0 214739.0 214296.0 221923.0 373571.0 368468.0 281833.0 289807.0 358782.0 363711.0 226043.0 224640.0 357749.0 360033.0 313185.0 318616.0 243735.0 236357.0 297692.0 140267.0 297692.0 297692.0 140267.0 140267.0
141517.0 134990.0 110487.0 110144.0 73937.0 71104.0 111567.0 115469.0 190391.0 185759.0 68714.0 61312.0 351489.0 343509.0 61702.0 65300.0 332173.0 335689.0 287049.0 279173.0 109576.0 106027.0 185563.0 179269.0 125661.0 131744.0 194821.0 197650.0 195754.0 194171.0 210917.0 206733.0 234771.0 226903.0 290094.0 282270.0 91965.0 96354.0 177850.0 169673.0 333868.0 325592.0 272107.0 274741.0 128868.0 132483.0 63372.0 62289.0 224945.0 230477.0 160395.0 161794.0 122986.0 115222.0 180190.0 174423.0 103914.0 101710.0 134134.0 138615.0 118151.0 120776.0 140748.0 139608.0 120352.0 118625.0 373762.0 369637.0 159528.0 158736.0 153327.0 145372.0 358460.0 364478.0 232827.0 224975.0 105957.0 102847.0 88535.0 81748.0 59719.0 61167.0 290948.0 288924.0 163101.0 168779.0 128444.0 135160.0 293787.0 301040.0 138537.0 145635.0 201894.0 200010.0 151224.0 155205.0 122737.0 117717.0 263632.0 256001.0 210553.0 215632.0 23321.0 22833.0 324527.0 317487.0 334250.0 340543.0 0.0 8425.0 117683.0 111920.0 123703.0 128664.0 361937.0 362582.0 154779.0 148391.0 99949.0 101770.0 204883.0 205387.0 264841.0 260979.0 361213.0 353203.0 186351.0 186859.0 96856.0 91183.0 53230.0 58324.0 38017.0 35672.0 137419.0 140763.0 207776.0 207065.0 284801.0 292645.0 192234.0 184699.0 148388.0 156137.0 132136.0 124309.0 111859.0 103987.0 97829.0 94997.0 31984.0 40144.0 125539.0 123150.0 175242.0 168588.0 193699.0 189582.0 109869.0 114026.0 215326.0 229147.0 215326.0 215326.0 229147.0 229147.0
143299.0 136501.0 109929.0 110212.0 81787.0 78614.0 107093.0 110553.0 191329.0 186756.0 76632.0 69120.0 355457.0 347435.0 57908.0 60611.0 335375.0 338735.0 290665.0 282833.0 109921.0 105831.0 180699.0 174600.0 121489.0 127261.0 187966.0 190995.0 196291.0 195046.0 205297.0 200901.0 238467.0 230651.0 294062.0 286291.0 88059.0 91865.0 181021.0 172760.0 336538.0 328271.0 273911.0 276773.0 125469.0 129508.0 57914.0 56037.0 226084.0 231823.0 154243.0 155944.0 121237.0 113647.0 173384.0 167466.0 102958.0 100115.0 135011.0 139044.0 113376.0 116458.0 142055.0 140422.0 120035.0 118867.0 377064.0 373083.0 159223.0 158863.0 146526.0 138660.0 361253.0 367384.0 236138.0 228340.0 100726.0 98121.0 96835.0 90113.0 67004.0 68919.0 293515.0 291716.0 162303.0 168198.0 129508.0 136537.0 296571.0 303732.0 137941.0 144817.0 205045.0 203463.0 150528.0 154120.0 115840.0 111082.0 267531.0 259865.0 205243.0 210514.0 24940.0 21661.0 327808.0 320860.0 337490.0 343896.0 8425.0 0.0 110385.0 104417.0 119998.0 125348.0 365130.0 365604.0 149293.0 143139.0 97635.0 98823.0 197976.0 198690.0 267494.0 263856.0 365137.0 357121.0 181128.0 181360.0 105255.0 99530.0 46166.0 50757.0 38385.0 37848.0 133291.0 136235.0 210089.0 209687.0 288698.0 296492.0 186094.0 178486.0 148118.0 155658.0 133756.0 125882.0 103722.0 95895.0 94798.0 91362.0 23725.0 31873.0 126315.0 124446.0 168141.0 161362.0 188210.0 183866.0 110092.0 114788.0 210954.0 230070.0 210954.0 210954.0 230070.0 230070.0
152874.0 144985.0 105696.0 112962.0 191327.0 188784.0 54109.0 47835.0 178922.0 175992.0 170158.0 162508.0 367838.0 359630.0 71940.0 63920.0 338063.0 339094.0 301996.0 295371.0 115916.0 108013.0 92809.0 90303.0 62847.0 60525.0 78692.0 82844.0 177769.0 181142.0 105932.0 99561.0 255468.0 249209.0 310056.0 303581.0 61408.0 53643.0 198996.0 191203.0 332903.0 324736.0 262108.0 267753.0 76012.0 84010.0 60473.0 57563.0 210763.0 218466.0 53008.0 58491.0 96387.0 95181.0 64576.0 57898.0 98327.0 90092.0 136481.0 133682.0 50726.0 58783.0 146330.0 139275.0 113427.0 119357.0 379013.0 377232.0 138241.0 143519.0 38573.0 32230.0 358019.0 364872.0 248236.0 242054.0 42128.0 49836.0 194468.0 189927.0 177340.0 178732.0 290302.0 291691.0 134060.0 141209.0 135182.0 143419.0 296064.0 301457.0 120275.0 121791.0 218939.0 221508.0 127164.0 124540.0 11595.0 16065.0 284592.0 277094.0 109301.0 116384.0 108745.0 101991.0 332051.0 326791.0 340596.0 348213.0 117683.0 110385.0 0.0 8154.0 69221.0 77135.0 366126.0 364291.0 58403.0 57545.0 81084.0 73642.0 88382.0 90155.0 267628.0 267324.0 376438.0 368721.0 88493.0 85241.0 209770.0 205488.0 64488.0 59751.0 102234.0 110421.0 69095.0 64579.0 212347.0 216038.0 304081.0 310626.0 82408.0 74484.0 130978.0 133474.0 144416.0 138787.0 29522.0 29260.0 72048.0 64525.0 94859.0 89906.0 129846.0 134715.0 58008.0 50999.0 91554.0 84910.0 114638.0 123078.0 125530.0 211398.0 125530.0 125530.0 211398.0 211398.0
155194.0 147226.0 107770.0 114744.0 185767.0 182986.0 57874.0 52298.0 183185.0 180109.0 166440.0 158716.0 371536.0 363317.0 69521.0 61372.0 342297.0 343477.0 305534.0 298801.0 117544.0 109647.0 100765.0 98094.0 67940.0 66353.0 85921.0 90360.0 182431.0 185530.0 114059.0 107647.0 258383.0 251976.0 313317.0 306727.0 62545.0 55300.0 201375.0 193460.0 337413.0 329246.0 266947.0 272446.0 80842.0 88809.0 57127.0 53303.0 215511.0 223144.0 61161.0 66604.0 99846.0 98027.0 72019.0 65112.0 100103.0 91911.0 139057.0 136710.0 55447.0 63513.0 148912.0 142112.0 115986.0 121541.0 383409.0 381485.0 142525.0 147488.0 46404.0 40303.0 362530.0 369383.0 251439.0 245105.0 45225.0 52439.0 190567.0 185773.0 171420.0 173073.0 294733.0 295925.0 138795.0 145974.0 137409.0 145746.0 300348.0 305874.0 123917.0 125885.0 221798.0 224101.0 131405.0 129191.0 19362.0 22189.0 287666.0 280117.0 117454.0 124532.0 104226.0 97218.0 336165.0 330780.0 344810.0 352375.0 111920.0 104417.0 8154.0 0.0 73842.0 81898.0 370547.0 368768.0 66235.0 65007.0 82953.0 75846.0 95450.0 97558.0 271738.0 271216.0 380231.0 372473.0 96581.0 93385.0 205151.0 200649.0 58991.0 53659.0 98647.0 106736.0 75039.0 71051.0 215947.0 219392.0 307358.0 314014.0 90428.0 82510.0 134834.0 137756.0 146482.0 140555.0 22637.0 21351.0 73855.0 66061.0 88005.0 82753.0 132100.0 136581.0 64863.0 57527.0 99706.0 93060.0 116337.0 124765.0 133371.0 216364.0 133371.0 133371.0 216364.0 216364.0
88839.0 81584.0 46286.0 54484.0 186654.0 187061.0 17385.0 21545.0 109733.0 106888.0 148379.0 142185.0 298991.0 290800.0 62114.0 60115.0 268858.0 269873.0 233397.0 226949.0 58081.0 51250.0 65791.0 58407.0 7877.0 15333.0 102144.0 100377.0 108618.0 111922.0 96681.0 95269.0 188207.0 182364.0 241905.0 235664.0 31981.0 30008.0 133792.0 126573.0 263700.0 255533.0 193105.0 198632.0 7295.0 15040.0 64882.0 70479.0 141677.0 149331.0 61324.0 56945.0 29955.0 32337.0 89381.0 88535.0 42375.0 36002.0 71872.0 67326.0 18495.0 10452.0 81368.0 73490.0 50209.0 57733.0 309793.0 308020.0 69069.0 74634.0 70622.0 64061.0 288817.0 295670.0 180330.0 174509.0 30329.0 26406.0 172426.0 170647.0 177939.0 176167.0 221084.0 222489.0 64955.0 72132.0 72288.0 79678.0 226851.0 232238.0 52246.0 52832.0 152004.0 155351.0 58035.0 55370.0 60113.0 53360.0 216869.0 209501.0 93287.0 96623.0 103899.0 101229.0 262887.0 257701.0 271395.0 279029.0 123703.0 119998.0 69221.0 73842.0 0.0 8151.0 296908.0 295089.0 45806.0 37551.0 30147.0 24136.0 111706.0 107822.0 198479.0 198334.0 307491.0 299818.0 69625.0 73056.0 193769.0 192019.0 83235.0 85580.0 90315.0 97308.0 15349.0 22107.0 143797.0 147926.0 235910.0 242252.0 86653.0 81414.0 62341.0 64308.0 81887.0 78123.0 95864.0 91922.0 27245.0 28706.0 117772.0 117577.0 67109.0 73761.0 92698.0 91304.0 79203.0 78204.0 56498.0 64086.0 92538.0 142547.0 92538.0 92538.0 142547.0 142547.0
83200.0 76223.0 43232.0 51315.0 189773.0 190501.0 25430.0 29626.0 101960.0 99212.0 149819.0 143900.0 291409.0 283227.0 67486.0 66212.0 261033.0 261987.0 225938.0 219562.0 54952.0 48763.0 64669.0 56945.0 14606.0 20211.0 105855.0 103518.0 100639.0 104075.0 96734.0 96016.0 181238.0 175528.0 234611.0 228451.0 37933.0 37127.0 127536.0 120506.0 255770.0 247602.0 185067.0 190639.0 1363.0 6914.0 71412.0 77369.0 133664.0 141343.0 65539.0 60371.0 24789.0 28938.0 93659.0 93401.0 40737.0 35592.0 66253.0 61124.0 26468.0 18392.0 75511.0 67434.0 45596.0 53431.0 301899.0 300181.0 61353.0 67174.0 76449.0 70307.0 280886.0 287739.0 173160.0 167466.0 38448.0 34177.0 173565.0 172164.0 181704.0 179609.0 213185.0 214673.0 56942.0 64106.0 67227.0 74235.0 219013.0 224343.0 45442.0 45391.0 145189.0 148761.0 50398.0 47405.0 67785.0 61200.0 209730.0 202409.0 92541.0 95244.0 108180.0 105997.0 255115.0 249988.0 263577.0 271232.0 128664.0 125348.0 77135.0 81898.0 8151.0 0.0 289005.0 287158.0 49023.0 40954.0 31576.0 27254.0 115145.0 110757.0 190729.0 190699.0 299859.0 292208.0 69559.0 73765.0 195498.0 194072.0 90081.0 92780.0 94191.0 100830.0 16374.0 24429.0 136413.0 140716.0 228611.0 234877.0 88803.0 84128.0 55091.0 56608.0 76784.0 73622.0 103979.0 100071.0 30977.0 34146.0 124210.0 124338.0 62198.0 69261.0 97788.0 96924.0 79555.0 79378.0 53345.0 60404.0 89435.0 134468.0 89435.0 89435.0 134468.0 134468.0
224730.0 232460.0 268983.0 264475.0 370377.0 376995.0 312725.0 318372.0 187394.0 190634.0 319271.0 321393.0 37772.0 38521.0 327552.0 332620.0 29764.0 27124.0 76763.0 84784.0 263076.0 269871.0 310805.0 305071.0 303420.0 306852.0 372991.0 367176.0 188473.0 185021.0 339510.0 344160.0 128362.0 136374.0 78765.0 86631.0 313257.0 318234.0 184121.0 192371.0 36574.0 42924.0 106350.0 99269.0 290151.0 282155.0 340046.0 348018.0 155801.0 147938.0 341557.0 333733.0 271483.0 274826.0 365923.0 369114.0 277444.0 284547.0 237423.0 237087.0 315403.0 307342.0 228326.0 232984.0 258956.0 255890.0 12954.0 14310.0 228025.0 223361.0 358510.0 354622.0 18761.0 13501.0 129139.0 137038.0 325621.0 319126.0 323832.0 330333.0 377384.0 370097.0 75824.0 75065.0 232167.0 225074.0 241323.0 233102.0 70449.0 64675.0 247377.0 244737.0 160087.0 162068.0 239150.0 241611.0 356646.0 350204.0 102077.0 108962.0 330391.0 327740.0 340209.0 344845.0 37573.0 45060.0 27746.0 22520.0 361937.0 365130.0 366126.0 370547.0 296908.0 289005.0 0.0 7961.0 324284.0 319066.0 292421.0 297804.0 379254.0 371921.0 99663.0 101886.0 34804.0 35142.0 320526.0 328218.0 346150.0 351943.0 357670.0 364036.0 328029.0 327300.0 298954.0 305394.0 157592.0 156439.0 82346.0 74423.0 348535.0 348451.0 236133.0 232794.0 234575.0 242281.0 392011.0 387123.0 300912.0 308843.0 379601.0 384376.0 245908.0 244852.0 374359.0 376523.0 329663.0 335094.0 263636.0 256435.0 314170.0 157477.0 314170.0 314170.0 157477.0 157477.0
224461.0 232106.0 268134.0 263831.0 372589.0 379109.0 311017.0 316525.0 185796.0 189179.0 321170.0 323109.0 45511.0 45743.0 327022.0 331933.0 31355.0 26905.0 79236.0 87184.0 262534.0 269206.0 308865.0 303131.0 301543.0 304922.0 371051.0 365236.0 186570.0 183289.0 337570.0 342220.0 130024.0 138030.0 82508.0 90198.0 312071.0 316877.0 184743.0 192912.0 32798.0 40042.0 104410.0 97329.0 288294.0 280295.0 339346.0 347304.0 153863.0 145999.0 339617.0 331793.0 270041.0 273594.0 363983.0 367174.0 276595.0 283577.0 236758.0 236140.0 313580.0 305513.0 227796.0 232211.0 258015.0 255180.0 17418.0 21292.0 226321.0 221893.0 356570.0 352721.0 11333.0 5638.0 130072.0 138031.0 323969.0 317593.0 326304.0 332687.0 379251.0 372040.0 74256.0 74383.0 230279.0 223172.0 240822.0 232675.0 69625.0 63242.0 245990.0 243113.0 160702.0 163065.0 237453.0 239754.0 354750.0 348348.0 104720.0 111336.0 328451.0 325800.0 340668.0 345154.0 39616.0 47469.0 29861.0 26510.0 362582.0 365604.0 364291.0 368768.0 295089.0 287158.0 7961.0 0.0 322344.0 317126.0 291329.0 296552.0 377313.0 369981.0 98995.0 101843.0 42765.0 42934.0 318586.0 326278.0 348893.0 354564.0 357141.0 363401.0 328286.0 327758.0 297014.0 303461.0 157097.0 156348.0 85659.0 77899.0 346595.0 346511.0 234682.0 231082.0 234306.0 242063.0 390374.0 385617.0 299730.0 307627.0 379670.0 384306.0 245315.0 244518.0 372419.0 374583.0 327723.0 333154.0 263049.0 255985.0 312230.0 155537.0 312230.0 312230.0 155537.0 155537.0
131294.0 124681.0 91860.0 100032.0 223693.0 223002.0 46847.0 40636.0 141342.0 139607.0 190255.0 183539.0 330239.0 322186.0 95117.0 89888.0 297295.0 297509.0 266243.0 260461.0 103655.0 97010.0 34802.0 31912.0 38659.0 30629.0 56858.0 54618.0 137358.0 142558.0 56205.0 52699.0 224896.0 219831.0 276053.0 270457.0 67471.0 60561.0 174130.0 167596.0 290956.0 282789.0 219450.0 225307.0 47708.0 53237.0 91445.0 93695.0 168653.0 176633.0 17736.0 11368.0 73758.0 77672.0 45216.0 46229.0 88172.0 81545.0 114509.0 108588.0 38938.0 40545.0 123361.0 115056.0 94595.0 102453.0 337211.0 335990.0 103033.0 110289.0 34771.0 32765.0 316072.0 322925.0 215833.0 210872.0 48959.0 53444.0 214723.0 212178.0 212813.0 212241.0 248815.0 251469.0 95695.0 102041.0 115973.0 122624.0 255461.0 259914.0 92019.0 89754.0 189828.0 194208.0 93348.0 87738.0 46883.0 45763.0 252296.0 245286.0 56080.0 61878.0 138598.0 134088.0 292110.0 287732.0 299920.0 307806.0 154779.0 149293.0 58403.0 66235.0 45806.0 49023.0 324284.0 322344.0 0.0 8263.0 74714.0 67432.0 66132.0 62019.0 228606.0 229778.0 338149.0 330766.0 32420.0 32081.0 234655.0 232118.0 105322.0 104215.0 126993.0 134840.0 32781.0 24616.0 178207.0 183519.0 270062.0 275757.0 41364.0 35664.0 99786.0 98705.0 125461.0 122599.0 87588.0 87581.0 69241.0 66647.0 140450.0 137715.0 111049.0 118243.0 51159.0 52363.0 38925.0 35239.0 102058.0 109353.0 67138.0 168584.0 67138.0 67138.0 168584.0 168584.0
123574.0 116858.0 83653.0 91832.0 216586.0 216055.0 39143.0 33387.0 135264.0 133352.0 182444.0 175792.0 324586.0 316503.0 88133.0 83240.0 292095.0 292319.0 260255.0 254353.0 95452.0 88770.0 38536.0 34071.0 30404.0 22368.0 64910.0 62844.0 131703.0 136636.0 63145.0 60166.0 218216.0 213016.0 269855.0 264144.0 59898.0 53288.0 166794.0 160144.0 285737.0 277570.0 214279.0 220135.0 39627.0 45425.0 85226.0 87959.0 163424.0 171381.0 24884.0 19464.0 65730.0 69490.0 52867.0 53280.0 79913.0 73286.0 106733.0 100983.0 31374.0 32430.0 115693.0 107429.0 86550.0 94375.0 331939.0 330910.0 96381.0 103453.0 39504.0 35905.0 310854.0 317707.0 209335.0 204227.0 42441.0 46257.0 206871.0 204427.0 206009.0 205260.0 243667.0 246115.0 89417.0 95946.0 108054.0 114819.0 250175.0 254794.0 84533.0 82605.0 182914.0 187135.0 86434.0 81148.0 45962.0 43489.0 245857.0 238780.0 62164.0 67413.0 131649.0 127368.0 286769.0 282248.0 294708.0 302559.0 148391.0 143139.0 57545.0 65007.0 37551.0 40954.0 319066.0 317126.0 8263.0 0.0 66504.0 59278.0 74288.0 70271.0 223019.0 223974.0 332605.0 325165.0 37989.0 38857.0 227007.0 224578.0 99895.0 99285.0 119743.0 127507.0 24859.0 16672.0 171816.0 176951.0 263856.0 269668.0 49518.0 43924.0 92643.0 91959.0 117570.0 114573.0 87049.0 86277.0 61178.0 58858.0 135231.0 132868.0 103088.0 110213.0 58012.0 58451.0 45608.0 42689.0 93857.0 101200.0 69266.0 163413.0 69266.0 69266.0 163413.0 163413.0
72345.0 64336.0 24855.0 31880.0 158416.0 159350.0 31013.0 38933.0 106364.0 102557.0 118446.0 112410.0 290727.0 282493.0 41642.0 43443.0 263473.0 265305.0 224445.0 217440.0 34867.0 26981.0 95688.0 88136.0 36237.0 44285.0 129614.0 128655.0 108191.0 109386.0 126827.0 125316.0 176049.0 169437.0 231527.0 224716.0 21103.0 27654.0 118514.0 110540.0 260088.0 251921.0 191889.0 196438.0 32274.0 33564.0 50313.0 57831.0 140829.0 147839.0 88636.0 85410.0 24539.0 18360.0 116051.0 114038.0 17247.0 9010.0 56607.0 55480.0 38475.0 34349.0 66401.0 60205.0 33806.0 38665.0 305111.0 302585.0 67765.0 70323.0 94123.0 86496.0 285205.0 292054.0 169681.0 163045.0 39571.0 31524.0 142375.0 140761.0 150849.0 148471.0 217097.0 217363.0 68031.0 74758.0 54526.0 62924.0 221975.0 228088.0 46303.0 51257.0 139456.0 141396.0 57312.0 58859.0 75302.0 67541.0 205551.0 197927.0 123340.0 126448.0 78323.0 77117.0 256887.0 251043.0 265899.0 273214.0 99949.0 97635.0 81084.0 82953.0 30147.0 31576.0 292421.0 291329.0 74714.0 66504.0 0.0 8006.0 139500.0 136298.0 192815.0 191421.0 299684.0 291821.0 99767.0 103142.0 164017.0 162513.0 69451.0 74279.0 63842.0 69981.0 45453.0 52090.0 135518.0 138162.0 225615.0 232513.0 116010.0 110317.0 57729.0 63372.0 63531.0 57709.0 102055.0 96137.0 9099.0 17027.0 100339.0 102023.0 49250.0 53668.0 117604.0 114827.0 109335.0 108145.0 33563.0 41999.0 120994.0 143177.0 120994.0 120994.0 143177.0 143177.0
79359.0 71414.0 32055.0 39454.0 162759.0 163350.0 23022.0 30938.0 111085.0 107460.0 124360.0 118095.0 296825.0 288592.0 41425.0 41693.0 269008.0 270680.0 230605.0 223691.0 42569.0 34731.0 89912.0 82542.0 29358.0 37308.0 121883.0 121077.0 112272.0 113945.0 120412.0 118599.0 182695.0 176198.0 237945.0 231223.0 15697.0 20785.0 125536.0 117654.0 265228.0 257060.0 196460.0 201228.0 27674.0 30720.0 47983.0 55035.0 145173.0 152351.0 80949.0 77960.0 27289.0 22983.0 108231.0 106118.0 24938.0 16766.0 63258.0 61440.0 30566.0 26901.0 73105.0 66525.0 40218.0 45745.0 310543.0 308163.0 71604.0 74895.0 86133.0 78492.0 290344.0 297161.0 176060.0 169552.0 31833.0 23863.0 148505.0 146594.0 154470.0 152455.0 222296.0 222792.0 70823.0 77777.0 61599.0 69907.0 227361.0 233336.0 50713.0 54771.0 146094.0 148268.0 60791.0 61344.0 67532.0 59799.0 212099.0 204508.0 117317.0 120751.0 80972.0 79010.0 262534.0 256809.0 271457.0 278841.0 101770.0 98823.0 73642.0 75846.0 24136.0 27254.0 297804.0 296552.0 67432.0 59278.0 8006.0 0.0 131814.0 128758.0 198310.0 197157.0 305705.0 297871.0 93490.0 96522.0 169665.0 167883.0 67213.0 71337.0 66937.0 73626.0 39434.0 45512.0 141379.0 144309.0 232012.0 238821.0 108788.0 102933.0 62139.0 67041.0 70779.0 65220.0 95496.0 89864.0 4124.0 11147.0 99617.0 100666.0 56277.0 61104.0 109647.0 106828.0 102840.0 101316.0 41211.0 49619.0 116316.0 147199.0 116316.0 116316.0 147199.0 147199.0
196699.0 190354.0 157924.0 166109.0 277664.0 275715.0 109464.0 101966.0 200641.0 199687.0 250392.0 243199.0 385848.0 377913.0 151494.0 144607.0 352269.0 352478.0 323647.0 318518.0 169725.0 162951.0 68525.0 74285.0 104256.0 96387.0 10258.0 12261.0 194906.0 201162.0 47623.0 39827.0 285960.0 281526.0 334467.0 329486.0 128449.0 120426.0 238166.0 232068.0 345925.0 337758.0 274420.0 280276.0 113835.0 119102.0 143634.0 142958.0 223683.0 231675.0 50867.0 54824.0 139838.0 143778.0 24949.0 30550.0 153911.0 146933.0 180095.0 173767.0 101517.0 105220.0 188651.0 180268.0 160679.0 168565.0 392181.0 391052.0 165290.0 173059.0 51643.0 59788.0 371042.0 377894.0 276117.0 271869.0 106664.0 113434.0 275041.0 271602.0 264570.0 265376.0 303812.0 306527.0 156809.0 162311.0 181859.0 188259.0 310449.0 314934.0 156982.0 153813.0 252128.0 257140.0 156640.0 150112.0 82151.0 87431.0 312053.0 305412.0 57298.0 64628.0 193099.0 187175.0 347127.0 342964.0 354891.0 362776.0 204883.0 197976.0 88382.0 95450.0 111706.0 115145.0 379254.0 377313.0 66132.0 74288.0 139500.0 131814.0 0.0 8543.0 284377.0 286559.0 393443.0 386219.0 58761.0 51038.0 293006.0 289548.0 151810.0 147804.0 183884.0 192100.0 98845.0 90719.0 238352.0 244391.0 328548.0 333617.0 30719.0 32058.0 163699.0 161363.0 191281.0 188652.0 106609.0 111530.0 132958.0 128811.0 183241.0 178191.0 177015.0 184303.0 30724.0 38616.0 50293.0 44189.0 168132.0 175481.0 92852.0 223554.0 92852.0 92852.0 223554.0 223554.0
191436.0 185272.0 153818.0 161971.0 277656.0 275950.0 106834.0 99559.0 193812.0 192983.0 248924.0 241844.0 378515.0 370580.0 150560.0 143938.0 344936.0 345145.0 316370.0 311330.0 165602.0 159022.0 61116.0 67236.0 100576.0 92594.0 12311.0 7888.0 187851.0 194231.0 39084.0 31327.0 279281.0 274976.0 327315.0 322426.0 126368.0 118533.0 232268.0 226329.0 338592.0 330425.0 267087.0 272943.0 109475.0 114350.0 143404.0 143204.0 216351.0 224342.0 48153.0 50956.0 135281.0 139586.0 25582.0 32605.0 150177.0 143436.0 174971.0 168431.0 98821.0 101949.0 183339.0 174933.0 156095.0 164045.0 384848.0 383719.0 159100.0 166956.0 52242.0 60031.0 363709.0 370562.0 269310.0 265194.0 105034.0 111445.0 273558.0 270352.0 264963.0 265508.0 296479.0 299194.0 150430.0 155763.0 176970.0 183154.0 303116.0 307602.0 151596.0 148120.0 245746.0 250902.0 150724.0 144011.0 82994.0 87670.0 305120.0 298546.0 48785.0 56088.0 192750.0 187067.0 339794.0 335632.0 347559.0 355443.0 205387.0 198690.0 90155.0 97558.0 107822.0 110757.0 371921.0 369981.0 62019.0 70271.0 136298.0 128758.0 8543.0 0.0 277045.0 279244.0 386110.0 378886.0 51422.0 43823.0 292056.0 288812.0 152572.0 148959.0 183013.0 191182.0 94388.0 86368.0 231577.0 237733.0 321410.0 326390.0 23756.0 26682.0 157926.0 155276.0 186315.0 183967.0 110230.0 114681.0 130143.0 126435.0 184793.0 180044.0 172218.0 179638.0 34118.0 42335.0 42494.0 36896.0 164000.0 171161.0 84514.0 216221.0 84514.0 84514.0 216221.0 216221.0
125535.0 133135.0 169321.0 164875.0 281018.0 286952.0 213865.0 219794.0 88771.0 91644.0 228349.0 229346.0 101650.0 93637.0 228035.0 233004.0 70701.0 72587.0 40965.0 38242.0 163546.0 170260.0 215929.0 210178.0 205273.0 209238.0 278113.0 272243.0 91318.0 86812.0 244634.0 249283.0 44674.0 51001.0 53969.0 51924.0 213702.0 218831.0 87919.0 95684.0 69044.0 60777.0 28991.0 22901.0 191924.0 183964.0 240424.0 248392.0 60798.0 52885.0 246068.0 238368.0 172237.0 175327.0 270906.0 273893.0 177782.0 184895.0 137808.0 137437.0 216947.0 208931.0 128804.0 133330.0 159302.0 156257.0 112304.0 109874.0 129410.0 124262.0 262508.0 258109.0 93851.0 100265.0 37930.0 45342.0 226634.0 219951.0 236799.0 242346.0 285826.0 279033.0 26241.0 24631.0 134416.0 127508.0 141828.0 133685.0 29371.0 36247.0 148090.0 145873.0 64393.0 68623.0 140467.0 143579.0 258514.0 251837.0 42682.0 41635.0 235515.0 232864.0 242565.0 246774.0 64430.0 59330.0 73165.0 80647.0 264841.0 267494.0 267628.0 271738.0 198479.0 190729.0 99663.0 98995.0 228606.0 223019.0 192815.0 198310.0 284377.0 277045.0 0.0 8300.0 109587.0 102161.0 225650.0 233342.0 260916.0 265685.0 258155.0 264449.0 229844.0 229674.0 201682.0 208554.0 58108.0 57807.0 48826.0 51548.0 253659.0 253575.0 136968.0 134172.0 135374.0 143160.0 292927.0 287853.0 201359.0 209312.0 280941.0 285449.0 146337.0 145551.0 279100.0 280959.0 234787.0 240218.0 164071.0 156991.0 219294.0 63526.0 219294.0 219294.0 63526.0 63526.0
122848.0 130601.0 167584.0 162809.0 275346.0 281399.0 213381.0 219507.0 88986.0 91494.0 222868.0 224082.0 100780.0 92635.0 225754.0 230947.0 72404.0 75076.0 37198.0 33112.0 161315.0 168223.0 218129.0 212325.0 205286.0 209529.0 280160.0 274459.0 92462.0 87365.0 246834.0 251483.0 36841.0 43507.0 49217.0 46193.0 212414.0 217792.0 83393.0 91393.0 73199.0 64927.0 37007.0 31176.0 191921.0 184004.0 238381.0 246364.0 63494.0 55805.0 247337.0 239739.0 171470.0 174202.0 272579.0 275345.0 176030.0 183323.0 135814.0 135944.0 216747.0 208776.0 126583.0 131540.0 157737.0 154311.0 114280.0 111300.0 129358.0 123804.0 263402.0 258782.0 97502.0 103529.0 31140.0 38881.0 226026.0 219179.0 230715.0 236408.0 280542.0 273650.0 31698.0 28060.0 134898.0 128131.0 139545.0 131278.0 32927.0 40505.0 147336.0 145552.0 59505.0 63021.0 140314.0 143854.0 258441.0 251636.0 35143.0 33554.0 237714.0 235064.0 238916.0 243331.0 65521.0 59655.0 74735.0 81865.0 260979.0 263856.0 267324.0 271216.0 198334.0 190699.0 101886.0 101843.0 229778.0 223974.0 191421.0 197157.0 286559.0 279244.0 8300.0 0.0 109161.0 101520.0 227847.0 235530.0 254638.0 259545.0 255861.0 262301.0 226452.0 226009.0 202156.0 209203.0 55972.0 54561.0 43700.0 47485.0 255840.0 255592.0 136391.0 134094.0 132693.0 140395.0 292162.0 286908.0 200089.0 208078.0 277842.0 282535.0 144208.0 142983.0 280512.0 282136.0 236958.0 242412.0 161915.0 154613.0 221494.0 67000.0 221494.0 221494.0 67000.0 67000.0
229214.0 237204.0 275423.0 270082.0 362649.0 369669.0 322443.0 328637.0 198061.0 200651.0 313258.0 316187.0 9922.0 17704.0 332153.0 337857.0 44180.0 47731.0 75502.0 82941.0 268263.0 275517.0 324994.0 319260.0 314445.0 318629.0 387180.0 381365.0 200905.0 196280.0 353699.0 358349.0 126882.0 134580.0 71127.0 79010.0 320763.0 326430.0 185475.0 193906.0 63039.0 66179.0 123469.0 115871.0 301080.0 293158.0 345291.0 353277.0 169769.0 161775.0 355569.0 347823.0 280407.0 282830.0 380114.0 383280.0 283800.0 291353.0 243424.0 244288.0 325895.0 317931.0 233873.0 239507.0 265885.0 261870.0 32595.0 24611.0 238514.0 232929.0 372095.0 367674.0 53086.0 48255.0 130837.0 138150.0 335014.0 328059.0 315202.0 322198.0 371164.0 363578.0 90958.0 87037.0 243887.0 237032.0 246581.0 238146.0 83440.0 80486.0 256313.0 254696.0 162071.0 162331.0 249474.0 252942.0 367600.0 360779.0 97606.0 105280.0 344580.0 341929.0 340431.0 345694.0 47053.0 50478.0 41568.0 33796.0 361213.0 365137.0 376438.0 380231.0 307491.0 299859.0 34804.0 42765.0 338149.0 332605.0 299684.0 305705.0 393443.0 386110.0 109587.0 109161.0 0.0 8018.0 334715.0 342407.0 336153.0 342466.0 362073.0 368861.0 329211.0 327615.0 311171.0 318108.0 164374.0 161549.0 76439.0 68694.0 362724.0 362640.0 245467.0 243253.0 238926.0 246311.0 400988.0 395563.0 308490.0 316506.0 381299.0 386655.0 251503.0 249352.0 388511.0 390489.0 343852.0 349283.0 269013.0 261297.0 328359.0 171494.0 328359.0 328359.0 171494.0 171494.0
221268.0 229263.0 267531.0 262160.0 354886.0 361884.0 314705.0 320933.0 190475.0 193013.0 305391.0 308285.0 2881.0 9697.0 324186.0 329907.0 38769.0 43234.0 67550.0 74954.0 260326.0 267595.0 317770.0 312036.0 306799.0 311038.0 379956.0 374141.0 193464.0 188744.0 346475.0 351125.0 118866.0 126561.0 63125.0 71022.0 312905.0 318604.0 177472.0 185904.0 59066.0 61365.0 116900.0 109199.0 293433.0 285522.0 337340.0 345326.0 162536.0 154548.0 348216.0 340495.0 272638.0 275010.0 372885.0 375985.0 275903.0 283472.0 235527.0 236445.0 318207.0 310253.0 225962.0 231634.0 258018.0 253965.0 35851.0 27857.0 230875.0 225230.0 364645.0 360169.0 52321.0 48564.0 122870.0 130163.0 327253.0 320273.0 307483.0 314449.0 363320.0 355748.0 84264.0 79988.0 236339.0 229509.0 238654.0 230215.0 76554.0 74023.0 248558.0 247007.0 154088.0 154320.0 241815.0 245355.0 359930.0 353085.0 89590.0 97262.0 337356.0 334705.0 332413.0 337675.0 40632.0 43364.0 36274.0 28991.0 353203.0 357121.0 368721.0 372473.0 299818.0 292208.0 35142.0 42934.0 330766.0 325165.0 291821.0 297871.0 386219.0 378886.0 102161.0 101520.0 8018.0 0.0 327491.0 335183.0 328539.0 334815.0 354097.0 360895.0 321194.0 319597.0 303619.0 310594.0 156574.0 153670.0 68423.0 60676.0 355500.0 355281.0 237744.0 235607.0 230972.0 238346.0 393185.0 387733.0 300639.0 308656.0 373283.0 378642.0 243587.0 241400.0 381206.0 383117.0 336628.0 342059.0 261083.0 253353.0 321135.0 164411.0 321135.0 321135.0 164411.0 164411.0
144121.0 138676.0 111975.0 119746.0 253912.0 253603.0 76012.0 71054.0 142610.0 141938.0 217837.0 211488.0 327120.0 319185.0 125785.0 121139.0 293541.0 293750.0 264960.0 259908.0 123346.0 117855.0 9783.0 16165.0 64315.0 56728.0 53170.0 46792.0 136469.0 142929.0 27175.0 27323.0 228201.0 224077.0 275894.0 271026.0 96776.0 90753.0 182787.0 177298.0 287197.0 279030.0 215692.0 221548.0 68519.0 71040.0 123214.0 125843.0 164956.0 172947.0 36698.0 30063.0 91954.0 97835.0 49312.0 54972.0 110259.0 104997.0 128347.0 121111.0 68676.0 67932.0 135934.0 127539.0 112013.0 120055.0 333453.0 332324.0 109185.0 117222.0 56137.0 58344.0 312314.0 319167.0 218090.0 214127.0 80421.0 83872.0 241989.0 240039.0 243715.0 242774.0 245084.0 247799.0 100102.0 105052.0 131217.0 136495.0 251721.0 256207.0 104332.0 99807.0 195156.0 200584.0 101654.0 94454.0 77379.0 77429.0 253787.0 247265.0 24300.0 29503.0 169263.0 165186.0 288399.0 284237.0 296163.0 304048.0 186351.0 181128.0 88493.0 96581.0 69625.0 69559.0 320526.0 318586.0 32420.0 37989.0 99767.0 93490.0 58761.0 51422.0 225650.0 227847.0 334715.0 327491.0 0.0 7799.0 262985.0 260928.0 137624.0 136628.0 156964.0 164555.0 54323.0 48052.0 180409.0 186705.0 269992.0 274971.0 28077.0 29373.0 109235.0 105663.0 140140.0 138926.0 116637.0 117688.0 96106.0 95145.0 172827.0 170135.0 126914.0 134741.0 60227.0 65458.0 10515.0 14574.0 121746.0 127889.0 40422.0 164826.0 40422.0 40422.0 164826.0 164826.0
150280.0 144636.0 116666.0 124563.0 255443.0 254889.0 77811.0 72243.0 150040.0 149286.0 220623.0 214120.0 334812.0 326877.0 126965.0 121908.0 301234.0 301443.0 272629.0 267542.0 128185.0 122412.0 17574.0 23438.0 67169.0 59314.0 45373.0 39022.0 144028.0 150421.0 24291.0 22261.0 235575.0 231372.0 283514.0 278605.0 98619.0 92142.0 189591.0 183966.0 294890.0 286722.0 223384.0 229241.0 72648.0 75833.0 123525.0 125676.0 172648.0 180639.0 32446.0 27031.0 96909.0 102427.0 41930.0 47920.0 114485.0 108847.0 134294.0 127232.0 70174.0 70311.0 142105.0 133693.0 117256.0 125303.0 341145.0 340017.0 116077.0 124061.0 51019.0 54123.0 320006.0 326859.0 225534.0 221494.0 80991.0 85112.0 244918.0 242729.0 244788.0 244103.0 252776.0 255492.0 107135.0 112240.0 136943.0 142467.0 259413.0 263899.0 110399.0 106171.0 202327.0 207660.0 108256.0 101205.0 74462.0 75268.0 261304.0 254747.0 24466.0 31170.0 170478.0 166093.0 296091.0 291929.0 303856.0 311740.0 186859.0 181360.0 85241.0 93385.0 73056.0 73765.0 328218.0 326278.0 32081.0 38857.0 103142.0 96522.0 51038.0 43823.0 233342.0 235530.0 342407.0 335183.0 7799.0 0.0 265488.0 263211.0 137147.0 135705.0 158588.0 166324.0 57979.0 51062.0 187823.0 194051.0 277605.0 282621.0 20325.0 21744.0 115732.0 112449.0 145993.0 144489.0 112701.0 114230.0 98891.0 97325.0 172087.0 169050.0 132514.0 140258.0 53103.0 58704.0 6852.0 6940.0 126578.0 132988.0 47048.0 172518.0 47048.0 47048.0 172518.0 172518.0
163005.0 160598.0 159759.0 154491.0 34815.0 42858.0 187867.0 194133.0 212817.0 208137.0 45960.0 51607.0 326258.0 319152.0 141534.0 148447.0 317559.0 322836.0 269657.0 261718.0 151788.0 153488.0 259559.0 252105.0 198671.0 206312.0 282752.0 284169.0 221688.0 216803.0 289651.0 287165.0 220411.0 212631.0 267939.0 259915.0 167185.0 174353.0 177115.0 171309.0 325725.0 317723.0 277659.0 277480.0 196260.0 196426.0 150048.0 152209.0 241626.0 244402.0 244492.0 243829.0 179092.0 171316.0 268070.0 263393.0 157666.0 160533.0 166019.0 173782.0 195720.0 195201.0 167152.0 170995.0 165592.0 159551.0 356165.0 350383.0 198082.0 193388.0 241768.0 233477.0 347760.0 352135.0 223525.0 215766.0 187272.0 181523.0 25501.0 23734.0 51844.0 44542.0 286327.0 281700.0 205647.0 208660.0 159802.0 162051.0 286371.0 294316.0 182809.0 190727.0 197982.0 192604.0 194437.0 201279.0 212555.0 206264.0 244184.0 237610.0 286951.0 290382.0 101025.0 107936.0 309277.0 301443.0 319055.0 323646.0 96856.0 105255.0 209770.0 205151.0 193769.0 195498.0 346150.0 348893.0 234655.0 227007.0 164017.0 169665.0 293006.0 292056.0 260916.0 254638.0 336153.0 328539.0 262985.0 265488.0 0.0 8088.0 146606.0 153058.0 109123.0 100910.0 209095.0 214935.0 213113.0 208869.0 263910.0 271915.0 275293.0 268468.0 188245.0 196744.0 157321.0 151810.0 207952.0 199936.0 166895.0 168189.0 128083.0 136112.0 160204.0 153580.0 265113.0 259348.0 272011.0 269695.0 153017.0 151565.0 284593.0 247775.0 284593.0 284593.0 247775.0 247775.0
165074.0 162298.0 159479.0 154542.0 26743.0 34774.0 185447.0 191512.0 215347.0 210632.0 45856.0 50515.0 332561.0 325391.0 138268.0 144948.0 323215.0 328395.0 275344.0 267381.0 151970.0 153259.0 257780.0 250420.0 196668.0 204203.0 279304.0 280931.0 224008.0 219348.0 287435.0 284737.0 225686.0 217856.0 273914.0 265874.0 164684.0 171646.0 181092.0 175045.0 330993.0 322952.0 281835.0 281856.0 194787.0 195279.0 146192.0 147989.0 244800.0 247801.0 241479.0 241071.0 178480.0 170611.0 264600.0 259747.0 156971.0 159443.0 167285.0 174884.0 193227.0 193029.0 168882.0 172371.0 165741.0 159971.0 362087.0 356391.0 199173.0 194756.0 238151.0 229886.0 353243.0 357730.0 228476.0 220664.0 184315.0 178807.0 28965.0 24880.0 43951.0 36825.0 291243.0 286774.0 206472.0 209736.0 161019.0 163668.0 291473.0 299400.0 183259.0 191194.0 202382.0 197213.0 195101.0 201765.0 208647.0 202519.0 249904.0 243235.0 284999.0 288626.0 96864.0 103502.0 314951.0 307144.0 324751.0 329457.0 91183.0 99530.0 205488.0 200649.0 192019.0 194072.0 351943.0 354564.0 232118.0 224578.0 162513.0 167883.0 289548.0 288812.0 265685.0 259545.0 342466.0 334815.0 260928.0 263211.0 8088.0 0.0 141868.0 148110.0 105813.0 97687.0 207299.0 212921.0 216952.0 212937.0 269794.0 277816.0 272504.0 265569.0 189128.0 197650.0 159005.0 153213.0 202738.0 194767.0 164973.0 165894.0 122015.0 129977.0 161155.0 154772.0 261327.0 255404.0 269793.0 267256.0 153143.0 152134.0 283373.0 250835.0 283373.0 283373.0 250835.0 250835.0
133145.0 125293.0 89734.0 93366.0 126862.0 124314.0 67596.0 69126.0 174381.0 170278.0 109998.0 102142.0 352752.0 344555.0 30121.0 26053.0 328265.0 330684.0 286592.0 279149.0 94609.0 88037.0 138236.0 132811.0 82648.0 86971.0 141802.0 144903.0 177072.0 177646.0 160709.0 155888.0 235817.0 228502.0 292091.0 284762.0 52674.0 53247.0 176928.0 168510.0 326384.0 318223.0 259729.0 263794.0 89824.0 95615.0 19238.0 12764.0 209248.0 215961.0 108777.0 111051.0 93817.0 87727.0 127231.0 121303.0 81391.0 75459.0 120429.0 121772.0 72395.0 77206.0 129357.0 125138.0 100183.0 102114.0 370136.0 367044.0 137008.0 138909.0 100378.0 92556.0 351507.0 358239.0 231242.0 223953.0 58453.0 58012.0 133436.0 128083.0 112937.0 114245.0 283271.0 282782.0 137457.0 144209.0 116348.0 124584.0 287519.0 294057.0 115335.0 120676.0 200016.0 200265.0 126726.0 128188.0 69676.0 65070.0 265554.0 257806.0 161384.0 167127.0 46449.0 38942.0 321256.0 314931.0 330586.0 337589.0 53230.0 46166.0 64488.0 58991.0 83235.0 90081.0 357670.0 357141.0 105322.0 99895.0 69451.0 67213.0 151810.0 152572.0 258155.0 255861.0 362073.0 354097.0 137624.0 137147.0 146606.0 141868.0 0.0 7940.0 44697.0 51828.0 94227.0 95548.0 200091.0 201462.0 286368.0 293743.0 140571.0 132867.0 126627.0 132712.0 123338.0 115817.0 62453.0 54327.0 63177.0 57005.0 35462.0 34362.0 111830.0 112962.0 122033.0 115360.0 143987.0 139141.0 94098.0 101248.0 169876.0 212006.0 169876.0 169876.0 212006.0 212006.0
139756.0 131846.0 95544.0 99574.0 132245.0 129340.0 69255.0 69891.0 179984.0 175962.0 117296.0 109430.0 359579.0 351373.0 36711.0 31527.0 334697.0 337016.0 293363.0 285965.0 100986.0 94196.0 137800.0 132729.0 84276.0 87959.0 137915.0 141388.0 182341.0 183173.0 158924.0 153780.0 242785.0 235523.0 299039.0 291754.0 56222.0 55659.0 183908.0 175503.0 332523.0 324349.0 265450.0 269658.0 92414.0 98622.0 24197.0 16450.0 214740.0 221565.0 106392.0 109215.0 98348.0 92636.0 123472.0 117254.0 87130.0 80812.0 126645.0 127640.0 73310.0 78769.0 135724.0 131233.0 105907.0 108232.0 376546.0 373547.0 142035.0 144273.0 96724.0 89138.0 357631.0 364424.0 238025.0 230795.0 59015.0 59656.0 140521.0 134995.0 117761.0 119491.0 289423.0 289080.0 142031.0 148888.0 122757.0 131064.0 293797.0 300257.0 120477.0 125509.0 206855.0 207258.0 131566.0 132633.0 65984.0 62096.0 272533.0 264789.0 160085.0 166089.0 53625.0 45947.0 327752.0 321495.0 337036.0 344092.0 58324.0 50757.0 59751.0 53659.0 85580.0 92780.0 364036.0 363401.0 104215.0 99285.0 74279.0 71337.0 147804.0 148959.0 264449.0 262301.0 368861.0 360895.0 136628.0 135705.0 153058.0 148110.0 7940.0 0.0 52560.0 59574.0 95608.0 96258.0 206445.0 207995.0 293292.0 300623.0 138008.0 130212.0 131847.0 137650.0 129984.0 122551.0 55272.0 47164.0 67406.0 60705.0 36484.0 33588.0 118128.0 119577.0 117684.0 110749.0 142513.0 137320.0 100401.0 107752.0 169977.0 217317.0 169977.0 169977.0 217317.0 217317.0
105116.0 98203.0 72511.0 72166.0 96950.0 96889.0 80952.0 86394.0 152954.0 148375.0 67926.0 60302.0 319626.0 311534.0 32456.0 39380.0 298308.0 301466.0 254283.0 246542.0 71699.0 68010.0 154854.0 147962.0 93613.0 100582.0 173630.0 175130.0 158018.0 156680.0 182879.0 179690.0 202335.0 194642.0 258328.0 250680.0 60214.0 66464.0 144187.0 135830.0 298855.0 290603.0 235658.0 238631.0 94591.0 97198.0 41764.0 45604.0 187699.0 193451.0 135706.0 135540.0 85814.0 77901.0 158947.0 154332.0 66125.0 64507.0 96635.0 100798.0 88426.0 89327.0 103696.0 102056.0 82336.0 80709.0 340102.0 336334.0 121511.0 120796.0 132698.0 124395.0 323680.0 329932.0 199364.0 191670.0 78639.0 73552.0 92305.0 88110.0 87626.0 86009.0 255761.0 254189.0 125155.0 130780.0 91124.0 98196.0 259030.0 266091.0 100550.0 107708.0 168106.0 167007.0 113255.0 117387.0 103910.0 97358.0 231716.0 223998.0 181242.0 185544.0 14913.0 16982.0 290859.0 284050.0 300475.0 307034.0 38017.0 38385.0 102234.0 98647.0 90315.0 94191.0 328029.0 328286.0 126993.0 119743.0 63842.0 66937.0 183884.0 183013.0 229844.0 226452.0 329211.0 321194.0 156964.0 158588.0 109123.0 105813.0 44697.0 52560.0 0.0 8262.0 104994.0 109557.0 172185.0 172075.0 252834.0 260519.0 166896.0 159860.0 110373.0 118128.0 95504.0 87621.0 106259.0 98182.0 63304.0 62234.0 52157.0 58057.0 87951.0 86093.0 156177.0 150652.0 165298.0 162230.0 71940.0 76423.0 182844.0 191700.0 182844.0 182844.0 191700.0 191700.0
105875.0 99318.0 76475.0 75308.0 89483.0 89758.0 88579.0 94210.0 154796.0 150148.0 59746.0 52090.0 317968.0 309918.0 40628.0 47635.0 297547.0 300890.0 252978.0 245171.0 74466.0 71544.0 162236.0 155247.0 100913.0 108027.0 181845.0 183297.0 160328.0 158595.0 190611.0 187536.0 200841.0 193062.0 256595.0 248870.0 67784.0 74279.0 143206.0 134931.0 298718.0 290449.0 236491.0 239201.0 101294.0 103510.0 49967.0 53570.0 189294.0 194806.0 143795.0 143516.0 91035.0 83021.0 167168.0 162579.0 70670.0 69848.0 98600.0 103335.0 96150.0 96767.0 105088.0 104096.0 85907.0 83567.0 339254.0 335314.0 124874.0 123651.0 140944.0 132639.0 323415.0 329538.0 198346.0 190568.0 86664.0 81401.0 84076.0 79848.0 80904.0 78862.0 255716.0 253876.0 129063.0 134425.0 92846.0 99494.0 258732.0 265907.0 104345.0 111721.0 167221.0 165732.0 117099.0 121648.0 112168.0 105619.0 230025.0 222337.0 188808.0 192985.0 12910.0 18567.0 289997.0 283073.0 299670.0 306101.0 35672.0 37848.0 110421.0 106736.0 97308.0 100830.0 327300.0 327758.0 134840.0 127507.0 69981.0 73626.0 192100.0 191182.0 229674.0 226009.0 327615.0 319597.0 164555.0 166324.0 100910.0 97687.0 51828.0 59574.0 8262.0 0.0 112164.0 116962.0 172365.0 171868.0 251181.0 258938.0 174906.0 167913.0 113735.0 121704.0 96469.0 88638.0 113847.0 105747.0 70138.0 69576.0 54881.0 61489.0 90067.0 87498.0 164436.0 158914.0 173009.0 170065.0 74873.0 78587.0 189830.0 193544.0 189830.0 189830.0 193544.0 193544.0
98744.0 91999.0 59566.0 67671.0 201607.0 201857.0 26677.0 26221.0 113173.0 110874.0 163727.0 157518.0 302930.0 294791.0 75722.0 72812.0 271476.0 272075.0 237982.0 231847.0 71308.0 65002.0 50482.0 43191.0 11809.0 8746.0 89639.0 87171.0 110632.0 114893.0 81424.0 80232.0 194670.0 189245.0 247148.0 241222.0 45489.0 41647.0 142294.0 135516.0 265625.0 257458.0 194242.0 200095.0 15109.0 20587.0 76770.0 81521.0 143163.0 151016.0 49678.0 44148.0 40995.0 45283.0 77721.0 77882.0 56672.0 50868.0 81884.0 76242.0 22633.0 17065.0 90895.0 82664.0 61835.0 69726.0 311889.0 310503.0 73280.0 79914.0 62156.0 56800.0 290742.0 297595.0 186136.0 180761.0 37055.0 36220.0 187772.0 185991.0 192552.0 190969.0 223274.0 225240.0 67283.0 74179.0 83211.0 89963.0 229448.0 234435.0 59948.0 58575.0 159014.0 162978.0 62851.0 58364.0 58543.0 53101.0 222718.0 215523.0 77938.0 81327.0 118271.0 115205.0 265843.0 261011.0 274057.0 281817.0 137419.0 133291.0 69095.0 75039.0 15349.0 16374.0 298954.0 297014.0 32781.0 24859.0 45453.0 39434.0 98845.0 94388.0 201682.0 202156.0 311171.0 303619.0 54323.0 57979.0 209095.0 207299.0 94227.0 95608.0 104994.0 112164.0 0.0 8189.0 148900.0 153676.0 241144.0 247176.0 72475.0 67755.0 68571.0 68689.0 92717.0 89825.0 97643.0 94881.0 42378.0 42846.0 129391.0 128508.0 78271.0 85472.0 82453.0 82180.0 64009.0 63352.0 69702.0 76773.0 78028.0 143376.0 78028.0 78028.0 143376.0 143376.0
106914.0 100185.0 67472.0 75611.0 206437.0 206420.0 29196.0 26432.0 120267.0 118114.0 169806.0 163436.0 309944.0 301823.0 79283.0 75628.0 278116.0 278582.0 245203.0 239151.0 79244.0 72791.0 45297.0 38573.0 16264.0 9037.0 81473.0 79097.0 117336.0 121857.0 74901.0 73226.0 202347.0 197005.0 254528.0 248678.0 49436.0 44415.0 150328.0 143600.0 272073.0 263906.0 200588.0 206428.0 23127.0 28758.0 78919.0 83006.0 149605.0 157503.0 41512.0 35979.0 49142.0 53221.0 69537.0 69777.0 64242.0 58093.0 90064.0 84370.0 23178.0 20240.0 99050.0 90803.0 69979.0 77848.0 318339.0 317078.0 80723.0 87542.0 54532.0 49580.0 297189.0 304042.0 193683.0 188406.0 37247.0 38178.0 194005.0 191993.0 196852.0 195552.0 229817.0 231956.0 74321.0 81086.0 91398.0 98148.0 236112.0 240970.0 68003.0 66386.0 166818.0 170880.0 70478.0 65647.0 53567.0 48876.0 230250.0 223097.0 72083.0 76025.0 122395.0 118892.0 272590.0 267867.0 280708.0 288503.0 140763.0 136235.0 64579.0 71051.0 22107.0 24429.0 305394.0 303461.0 24616.0 16672.0 52090.0 45512.0 90719.0 86368.0 208554.0 209203.0 318108.0 310594.0 48052.0 51062.0 214935.0 212921.0 95548.0 96258.0 109557.0 116962.0 8189.0 0.0 156329.0 161242.0 248524.0 254478.0 64713.0 59779.0 76410.0 76194.0 100906.0 97983.0 93676.0 91514.0 48055.0 47388.0 130952.0 129565.0 86450.0 93627.0 74395.0 74320.0 57331.0 56105.0 77641.0 84816.0 74759.0 149722.0 74759.0 74759.0 149722.0 149722.0
67479.0 75032.0 111612.0 106897.0 229574.0 234909.0 158262.0 164659.0 37806.0 38742.0 176440.0 176455.0 155600.0 147376.0 169972.0 175045.0 128290.0 130593.0 89653.0 83154.0 105488.0 112301.0 170972.0 164385.0 151011.0 155804.0 231129.0 226107.0 45165.0 37848.0 201439.0 205581.0 47890.0 44614.0 98267.0 92352.0 156547.0 162077.0 36140.0 41956.0 126830.0 118613.0 65785.0 67343.0 137681.0 129897.0 182475.0 190453.0 35058.0 34068.0 195931.0 188700.0 116101.0 118472.0 222290.0 224324.0 120057.0 127368.0 79869.0 80042.0 162046.0 154178.0 70737.0 75568.0 101793.0 98359.0 170111.0 167264.0 75623.0 69247.0 210852.0 205697.0 151827.0 158349.0 37782.0 33908.0 170722.0 163701.0 188052.0 192661.0 232639.0 226293.0 83673.0 82715.0 82518.0 76377.0 83746.0 75578.0 87478.0 94213.0 92079.0 91022.0 22372.0 30444.0 86183.0 90712.0 203838.0 196841.0 74095.0 67183.0 192467.0 189826.0 185209.0 189152.0 121493.0 115534.0 130657.0 137837.0 207776.0 210089.0 212347.0 215947.0 143797.0 136413.0 157592.0 157097.0 178207.0 171816.0 135518.0 141379.0 238352.0 231577.0 58108.0 55972.0 164374.0 156574.0 180409.0 187823.0 213113.0 216952.0 200091.0 206445.0 172185.0 172365.0 148900.0 156329.0 0.0 8049.0 92263.0 98465.0 207853.0 206645.0 81477.0 80218.0 77306.0 85119.0 236615.0 231214.0 144239.0 152241.0 222995.0 227406.0 88318.0 87450.0 229342.0 230266.0 190186.0 194762.0 106045.0 98892.0 176257.0 42206.0 176257.0 176257.0 42206.0 42206.0
68347.0 76170.0 113882.0 108705.0 226317.0 231845.0 161931.0 168526.0 44405.0 44768.0 173250.0 173600.0 152565.0 144331.0 171379.0 176739.0 126889.0 129627.0 86300.0 79422.0 107053.0 114136.0 177344.0 170627.0 155278.0 160346.0 237004.0 232135.0 52424.0 44864.0 208149.0 212133.0 41572.0 37555.0 94037.0 87741.0 159254.0 165075.0 31902.0 38783.0 126851.0 118584.0 68955.0 69619.0 142008.0 134324.0 184179.0 192169.0 42748.0 41104.0 201255.0 194147.0 119655.0 121545.0 227878.0 229712.0 122273.0 129804.0 81903.0 82873.0 166022.0 158240.0 72439.0 77966.0 104357.0 100378.0 168781.0 165583.0 80574.0 73775.0 215768.0 210416.0 151608.0 157880.0 32468.0 27481.0 174199.0 167012.0 183986.0 188847.0 229962.0 223452.0 83884.0 82120.0 87993.0 82130.0 85289.0 76936.0 86958.0 94047.0 95857.0 95386.0 14598.0 22661.0 90828.0 95814.0 207800.0 200687.0 69056.0 61855.0 199278.0 196684.0 184758.0 188992.0 119799.0 113502.0 129175.0 136128.0 207065.0 209687.0 216038.0 219392.0 147926.0 140716.0 156439.0 156348.0 183519.0 176951.0 138162.0 144309.0 244391.0 237733.0 57807.0 54561.0 161549.0 153670.0 186705.0 194051.0 208869.0 212937.0 201462.0 207995.0 172075.0 171868.0 153676.0 161242.0 8049.0 0.0 88054.0 94622.0 213987.0 212580.0 85629.0 85052.0 78183.0 85853.0 239751.0 234161.0 147009.0 155029.0 223325.0 227978.0 90093.0 88513.0 234678.0 235386.0 196581.0 200987.0 107720.0 100245.0 183114.0 49871.0 183114.0 183114.0 49871.0 49871.0
154117.0 162170.0 201022.0 195252.0 288722.0 295495.0 249977.0 256577.0 128746.0 130505.0 238281.0 240837.0 66796.0 58739.0 256592.0 262536.0 54816.0 61101.0 10953.0 10620.0 193228.0 200672.0 260338.0 254265.0 243198.0 248064.0 321820.0 316377.0 133677.0 127748.0 289269.0 293916.0 50621.0 58200.0 6004.0 5370.0 246713.0 252798.0 109467.0 117897.0 68957.0 62661.0 75191.0 67449.0 229889.0 222134.0 269950.0 277918.0 106678.0 99180.0 287746.0 280357.0 207694.0 209396.0 313649.0 316017.0 209292.0 217059.0 169036.0 170685.0 254056.0 246250.0 159310.0 165494.0 191867.0 187306.0 92301.0 86816.0 167864.0 161482.0 303020.0 297943.0 86327.0 89458.0 55953.0 62682.0 262196.0 254941.0 241850.0 248500.0 296366.0 288931.0 49819.0 41402.0 174442.0 168021.0 171739.0 163261.0 42740.0 48387.0 183906.0 183224.0 86555.0 86183.0 178444.0 182879.0 295842.0 288740.0 21170.0 28846.0 280150.0 277499.0 263993.0 269281.0 46516.0 38558.0 55915.0 59828.0 284801.0 288698.0 304081.0 307358.0 235910.0 228611.0 82346.0 85659.0 270062.0 263856.0 225615.0 232012.0 328548.0 321410.0 48826.0 43700.0 76439.0 68423.0 269992.0 277605.0 263910.0 269794.0 286368.0 293292.0 252834.0 251181.0 241144.0 248524.0 92263.0 88054.0 0.0 8055.0 297859.0 297249.0 173573.0 172475.0 163687.0 170879.0 327508.0 321748.0 234564.0 242582.0 304948.0 310381.0 176805.0 174110.0 321101.0 322273.0 279326.0 284520.0 194070.0 186149.0 263929.0 110557.0 263929.0 263929.0 110557.0 110557.0
161259.0 169297.0 207992.0 202337.0 296775.0 303550.0 256517.0 263034.0 134424.0 136370.0 246331.0 248874.0 59138.0 51018.0 263915.0 269785.0 47301.0 53812.0 10620.0 15330.0 200371.0 207764.0 265282.0 259338.0 249476.0 254209.0 327037.0 321477.0 138937.0 133255.0 294041.0 298691.0 58200.0 65887.0 5370.0 12310.0 253616.0 259602.0 116923.0 125357.0 62618.0 56794.0 76170.0 68209.0 236144.0 228348.0 277206.0 285182.0 110953.0 103290.0 293411.0 285951.0 214258.0 216129.0 319098.0 321607.0 216295.0 224009.0 175983.0 177428.0 260465.0 252621.0 166297.0 172337.0 198732.0 194313.0 84272.0 78762.0 173926.0 167707.0 308924.0 303966.0 78936.0 81813.0 62869.0 69855.0 268820.0 261628.0 249890.0 256548.0 304417.0 296984.0 48298.0 40091.0 180266.0 173744.0 178815.0 170344.0 40514.0 45112.0 190378.0 189487.0 93785.0 93702.0 184605.0 188844.0 302259.0 295212.0 29054.0 36644.0 284922.0 282271.0 271762.0 277002.0 39065.0 31153.0 48270.0 51915.0 292645.0 296492.0 310626.0 314014.0 242252.0 234877.0 74423.0 77899.0 275757.0 269668.0 232513.0 238821.0 333617.0 326390.0 51548.0 47485.0 68694.0 60676.0 274971.0 282621.0 271915.0 277816.0 293743.0 300623.0 260519.0 258938.0 247176.0 254478.0 98465.0 94622.0 8055.0 0.0 302907.0 302461.0 179916.0 178573.0 170879.0 178137.0 334305.0 328620.0 241431.0 249452.0 312612.0 317995.0 183843.0 181308.0 326720.0 328035.0 284191.0 289522.0 201187.0 193323.0 268701.0 114448.0 268701.0 268701.0 114448.0 114448.0
168268.0 162274.0 132032.0 140113.0 262959.0 261813.0 87935.0 81246.0 170102.0 169242.0 231251.0 224421.0 355129.0 347194.0 134599.0 128646.0 321550.0 321759.0 292930.0 287816.0 143751.0 137465.0 37857.0 43598.0 79829.0 71769.0 25501.0 18722.0 164241.0 170558.0 25547.0 17873.0 255539.0 251221.0 303774.0 298825.0 108280.0 100942.0 208662.0 202806.0 315206.0 307039.0 243701.0 249557.0 87568.0 91891.0 129129.0 130065.0 192965.0 200956.0 31851.0 31470.0 112971.0 117740.0 25791.0 33265.0 128946.0 122612.0 151947.0 145227.0 79936.0 81908.0 160139.0 151723.0 133683.0 141689.0 361462.0 360333.0 135400.0 143283.0 44359.0 50205.0 340323.0 347176.0 245596.0 241451.0 88258.0 93772.0 255783.0 253047.0 251231.0 251173.0 273093.0 275808.0 126688.0 132007.0 154173.0 160136.0 279730.0 284216.0 128371.0 124669.0 221997.0 227176.0 127140.0 120347.0 73074.0 75943.0 281454.0 274853.0 32612.0 40607.0 177709.0 172619.0 316408.0 312246.0 324172.0 332057.0 192234.0 186094.0 82408.0 90428.0 86653.0 88803.0 348535.0 346595.0 41364.0 49518.0 116010.0 108788.0 30719.0 23756.0 253659.0 255840.0 362724.0 355500.0 28077.0 20325.0 275293.0 272504.0 140571.0 138008.0 166896.0 174906.0 72475.0 64713.0 207853.0 213987.0 297859.0 302907.0 0.0 7927.0 134417.0 131612.0 163427.0 161379.0 107044.0 109961.0 110594.0 107758.0 174433.0 170525.0 149529.0 157078.0 37740.0 44860.0 20418.0 13538.0 142143.0 149035.0 64505.0 192835.0 64505.0 64505.0 192835.0 192835.0
164865.0 158641.0 127251.0 135389.0 255693.0 254451.0 81589.0 74670.0 169011.0 167935.0 224655.0 217750.0 354969.0 347070.0 127494.0 121396.0 321467.0 321676.0 292584.0 287302.0 139022.0 132525.0 38942.0 43503.0 74324.0 66292.0 24576.0 19874.0 163574.0 169652.0 32767.0 25480.0 254152.0 249629.0 303189.0 298074.0 101697.0 94191.0 206112.0 200038.0 315123.0 306955.0 243617.0 249474.0 82855.0 87668.0 121702.0 122477.0 192881.0 200872.0 24343.0 25025.0 108610.0 112997.0 20478.0 27215.0 123789.0 117209.0 148350.0 141887.0 73562.0 76036.0 156787.0 148390.0 129418.0 137374.0 361378.0 360250.0 133264.0 141013.0 36518.0 42278.0 340239.0 347092.0 244425.0 240062.0 81254.0 87029.0 249227.0 246356.0 243803.0 243840.0 273009.0 275725.0 124857.0 130458.0 150300.0 156529.0 279646.0 284132.0 125072.0 121786.0 220150.0 225113.0 124583.0 118069.0 65163.0 68126.0 280485.0 273772.0 38864.0 46807.0 170462.0 165263.0 316324.0 312162.0 324089.0 331973.0 184699.0 178486.0 74484.0 82510.0 81414.0 84128.0 348451.0 346511.0 35664.0 43924.0 110317.0 102933.0 32058.0 26682.0 253575.0 255592.0 362640.0 355281.0 29373.0 21744.0 268468.0 265569.0 132867.0 130212.0 159860.0 167913.0 67755.0 59779.0 206645.0 212580.0 297249.0 302461.0 7927.0 0.0 131657.0 129316.0 159658.0 157285.0 99290.0 102108.0 104554.0 101373.0 166617.0 162660.0 145540.0 152956.0 32115.0 38598.0 24167.0 16208.0 137419.0 144523.0 68264.0 192751.0 68264.0 68264.0 192751.0 192751.0
36012.0 32578.0 38317.0 38440.0 192526.0 195512.0 76990.0 83216.0 48980.0 45509.0 143363.0 139810.0 236861.0 228655.0 97414.0 100598.0 207612.0 209018.0 171111.0 164618.0 39635.0 42363.0 100987.0 93304.0 69649.0 74848.0 155394.0 151527.0 50495.0 51806.0 134238.0 136331.0 126243.0 120699.0 179570.0 173368.0 77804.0 82222.0 74515.0 68403.0 203308.0 195140.0 134329.0 139106.0 56387.0 48769.0 107723.0 115404.0 83126.0 90228.0 117400.0 110858.0 35361.0 39454.0 144889.0 145893.0 45970.0 51174.0 23619.0 15185.0 80572.0 72705.0 28015.0 20301.0 28084.0 30600.0 248934.0 246804.0 11145.0 12792.0 130703.0 125041.0 228424.0 235277.0 118069.0 112418.0 89677.0 83009.0 163424.0 164685.0 189474.0 185166.0 160449.0 161273.0 17433.0 21068.0 29199.0 30445.0 165763.0 171537.0 11448.0 10039.0 90444.0 94495.0 8000.0 16024.0 122362.0 115392.0 154640.0 147330.0 126975.0 126467.0 125153.0 126496.0 201376.0 195946.0 210104.0 217615.0 148388.0 148118.0 130978.0 134834.0 62341.0 55091.0 236133.0 234682.0 99786.0 92643.0 57729.0 62139.0 163699.0 157926.0 136968.0 136391.0 245467.0 237744.0 109235.0 115732.0 188245.0 189128.0 126627.0 131847.0 110373.0 113735.0 68571.0 76410.0 81477.0 85629.0 173573.0 179916.0 134417.0 131657.0 0.0 8532.0 35101.0 37822.0 155965.0 150990.0 65557.0 73281.0 155199.0 157898.0 28053.0 35141.0 150655.0 150721.0 119698.0 122440.0 39015.0 37433.0 113808.0 85477.0 113808.0 113808.0 85477.0 85477.0
42326.0 39909.0 45729.0 46531.0 201025.0 203976.0 79942.0 85651.0 45452.0 42604.0 151892.0 148341.0 234821.0 226645.0 103907.0 106660.0 204597.0 205721.0 169492.0 163244.0 47914.0 50183.0 97047.0 89567.0 71193.0 75643.0 153383.0 149130.0 45338.0 47794.0 129940.0 132478.0 126257.0 121125.0 178479.0 172533.0 82729.0 86506.0 77143.0 71705.0 199703.0 191536.0 129874.0 135002.0 57827.0 49919.0 113652.0 121203.0 78411.0 85801.0 116428.0 109534.0 39783.0 45020.0 143471.0 144934.0 52984.0 57507.0 31617.0 23308.0 82776.0 74760.0 34707.0 27703.0 35819.0 38949.0 245653.0 243774.0 4770.0 11698.0 130725.0 125481.0 224819.0 231672.0 117489.0 112272.0 92891.0 86655.0 171894.0 173195.0 197868.0 193609.0 156985.0 158223.0 9094.0 12746.0 37434.0 37861.0 162615.0 168122.0 17782.0 12281.0 91179.0 95848.0 6380.0 11266.0 124375.0 117665.0 154059.0 146906.0 122296.0 121341.0 132960.0 134081.0 198585.0 193399.0 207125.0 214739.0 156137.0 155658.0 133474.0 137756.0 64308.0 56608.0 232794.0 231082.0 98705.0 91959.0 63372.0 67041.0 161363.0 155276.0 134172.0 134094.0 243253.0 235607.0 105663.0 112449.0 196744.0 197650.0 132712.0 137650.0 118128.0 121704.0 68689.0 76194.0 80218.0 85052.0 172475.0 178573.0 131612.0 129316.0 8532.0 0.0 42654.0 45967.0 159295.0 154648.0 70680.0 78161.0 162074.0 164519.0 36540.0 43476.0 149829.0 150361.0 116031.0 119261.0 47220.0 45938.0 108260.0 80183.0 108260.0 108260.0 80183.0 80183.0
9847.0 3303.0 38736.0 31946.0 165425.0 169342.0 91774.0 99334.0 59382.0 54612.0 113959.0 111560.0 229697.0 221480.0 93302.0 98939.0 205066.0 207687.0 163424.0 156091.0 29618.0 37272.0 132661.0 124745.0 89763.0 96737.0 182273.0 179391.0 66473.0 63333.0 166198.0 167462.0 113480.0 106556.0 169509.0 162421.0 84272.0 91184.0 55172.0 47070.0 204117.0 195910.0 140161.0 143167.0 78139.0 72234.0 106369.0 114354.0 93134.0 98401.0 142298.0 136825.0 52086.0 50294.0 170399.0 170152.0 46469.0 54598.0 12021.0 20213.0 97681.0 90957.0 9904.0 14951.0 31813.0 25090.0 246955.0 243747.0 42562.0 36584.0 152476.0 145701.0 229133.0 235638.0 108123.0 101031.0 102445.0 94594.0 132035.0 134199.0 164775.0 159545.0 160954.0 159937.0 51677.0 52894.0 9599.0 4886.0 164726.0 171519.0 36096.0 42083.0 77131.0 78317.0 42895.0 50909.0 137888.0 130263.0 143187.0 135482.0 159618.0 159784.0 109108.0 112479.0 197974.0 191600.0 207357.0 214296.0 132136.0 133756.0 144416.0 146482.0 81887.0 76784.0 234575.0 234306.0 125461.0 117570.0 63531.0 70779.0 191281.0 186315.0 135374.0 132693.0 238926.0 230972.0 140140.0 145993.0 157321.0 159005.0 123338.0 129984.0 95504.0 96469.0 92717.0 100906.0 77306.0 78183.0 163687.0 170879.0 163427.0 159658.0 35101.0 42654.0 0.0 7886.0 165288.0 159051.0 72630.0 80486.0 145758.0 150101.0 14850.0 10431.0 174461.0 173187.0 150650.0 152398.0 30572.0 22472.0 147836.0 97785.0 147836.0 147836.0 97785.0 97785.0
17644.0 10701.0 33290.0 25832.0 158837.0 162571.0 86869.0 94571.0 66838.0 62091.0 107864.0 105139.0 237039.0 228830.0 85844.0 91657.0 212741.0 215419.0 170813.0 163424.0 23061.0 30926.0 131823.0 123851.0 85970.0 93232.0 179455.0 176893.0 73564.0 70756.0 165346.0 166225.0 120531.0 113480.0 176671.0 169509.0 78110.0 85297.0 61903.0 53643.0 211943.0 203731.0 148040.0 151053.0 74956.0 69617.0 99073.0 107046.0 100833.0 106188.0 139103.0 133962.0 48845.0 45967.0 167229.0 166645.0 40479.0 48705.0 14403.0 22673.0 93134.0 86745.0 16862.0 19185.0 28032.0 20407.0 254633.0 251368.0 46622.0 41578.0 148443.0 141454.0 236944.0 243425.0 115476.0 108285.0 97035.0 89082.0 126678.0 128497.0 157743.0 152660.0 168782.0 167706.0 55059.0 57166.0 8694.0 11195.0 172502.0 179324.0 36379.0 43282.0 84352.0 85189.0 45143.0 52941.0 132661.0 124968.0 150270.0 142548.0 159142.0 159702.0 101255.0 104595.0 205610.0 199187.0 215021.0 221923.0 124309.0 125882.0 138787.0 140555.0 78123.0 73622.0 242281.0 242063.0 122599.0 114573.0 57709.0 65220.0 188652.0 183967.0 143160.0 140395.0 246311.0 238346.0 138926.0 144489.0 151810.0 153213.0 115817.0 122551.0 87621.0 88638.0 89825.0 97983.0 85119.0 85853.0 170879.0 178137.0 161379.0 157285.0 37822.0 45967.0 7886.0 0.0 158942.0 152558.0 66773.0 74495.0 137906.0 142293.0 12032.0 4367.0 170819.0 169218.0 149404.0 150747.0 24220.0 15813.0 148365.0 105378.0 148365.0 148365.0 105378.0 105378.0
174327.0 166285.0 126861.0 133349.0 185364.0 181668.0 79391.0 74362.0 204623.0 201407.0 172450.0 164593.0 392183.0 383953.0 81239.0 73221.0 363575.0 364912.0 326026.0 319159.0 135891.0 128079.0 121595.0 119490.0 90261.0 88942.0 98037.0 103749.0 204234.0 207086.0 131762.0 124766.0 278095.0 271489.0 333441.0 326701.0 81060.0 74711.0 220431.0 212357.0 358991.0 350824.0 288839.0 294210.0 102970.0 110891.0 67325.0 61328.0 237358.0 244926.0 80265.0 86600.0 120712.0 118212.0 85526.0 77859.0 118847.0 110818.0 158631.0 156885.0 77634.0 85657.0 168445.0 162018.0 135672.0 140676.0 404841.0 402768.0 164054.0 168700.0 62862.0 58587.0 384108.0 390961.0 271556.0 265027.0 66405.0 72989.0 195789.0 190251.0 169728.0 172411.0 316238.0 317229.0 160716.0 167908.0 156501.0 164936.0 321701.0 327360.0 144860.0 147280.0 241497.0 243415.0 152921.0 151064.0 41087.0 44801.0 307561.0 299952.0 136157.0 143559.0 108846.0 101212.0 357318.0 351794.0 366068.0 373571.0 111859.0 103722.0 29522.0 22637.0 95864.0 103979.0 392011.0 390374.0 87588.0 87049.0 102055.0 95496.0 106609.0 110230.0 292927.0 292162.0 400988.0 393185.0 116637.0 112701.0 207952.0 202738.0 62453.0 55272.0 106259.0 113847.0 97643.0 93676.0 236615.0 239751.0 327508.0 334305.0 107044.0 99290.0 155965.0 159295.0 165288.0 158942.0 0.0 8126.0 93024.0 85031.0 83725.0 77010.0 151262.0 155144.0 76183.0 68065.0 118678.0 111535.0 134802.0 143141.0 154576.0 238386.0 154576.0 154576.0 238386.0 238386.0
168210.0 160150.0 120836.0 127108.0 177608.0 174016.0 75048.0 70618.0 199822.0 196492.0 164324.0 156468.0 386689.0 378456.0 73595.0 65644.0 358541.0 360008.0 320461.0 313518.0 129546.0 121788.0 122064.0 119445.0 86774.0 86136.0 102620.0 107929.0 199783.0 202386.0 134217.0 127495.0 272136.0 265440.0 327663.0 320848.0 75050.0 69137.0 214223.0 206091.0 354230.0 346063.0 284421.0 289649.0 99130.0 106956.0 59569.0 53393.0 232923.0 240415.0 81840.0 87647.0 115646.0 112743.0 89574.0 82113.0 112708.0 104777.0 152739.0 151301.0 74024.0 81929.0 162516.0 156283.0 129889.0 134629.0 399922.0 397725.0 159391.0 163763.0 65601.0 60462.0 379346.0 386199.0 265807.0 259180.0 61935.0 68026.0 187674.0 182153.0 162113.0 164674.0 311415.0 312234.0 156455.0 163650.0 150399.0 158859.0 316743.0 322515.0 139776.0 142534.0 235558.0 237296.0 148268.0 146767.0 40699.0 43047.0 301675.0 294041.0 138081.0 145302.0 100725.0 93098.0 352187.0 346561.0 361016.0 368468.0 103987.0 95895.0 29260.0 21351.0 91922.0 100071.0 387123.0 385617.0 87581.0 86277.0 96137.0 89864.0 111530.0 114681.0 287853.0 286908.0 395563.0 387733.0 117688.0 114230.0 199936.0 194767.0 54327.0 47164.0 98182.0 105747.0 94881.0 91514.0 231214.0 234161.0 321748.0 328620.0 109961.0 102108.0 150990.0 154648.0 159051.0 152558.0 8126.0 0.0 87189.0 79169.0 76301.0 69807.0 145201.0 148833.0 80878.0 72917.0 120421.0 113547.0 128504.0 136788.0 154719.0 234156.0 154719.0 154719.0 234156.0 234156.0
81430.0 73428.0 33946.0 40942.0 159419.0 159893.0 23574.0 31346.0 114433.0 110739.0 121769.0 115381.0 299566.0 291332.0 37321.0 37593.0 272044.0 273790.0 233306.0 226336.0 43868.0 35967.0 92829.0 85565.0 31799.0 39577.0 122952.0 122410.0 115828.0 117351.0 122905.0 120867.0 185071.0 178487.0 240484.0 233700.0 12345.0 18555.0 127604.0 119637.0 268437.0 260270.0 199880.0 204571.0 31313.0 34713.0 43941.0 51065.0 148659.0 155784.0 82150.0 79535.0 31028.0 26175.0 109117.0 106716.0 26295.0 18072.0 65608.0 64211.0 31447.0 28764.0 75421.0 69095.0 42700.0 47750.0 313630.0 311181.0 75203.0 78272.0 86395.0 78599.0 293553.0 300388.0 178620.0 172026.0 30803.0 22718.0 146027.0 143940.0 150900.0 148997.0 225479.0 225874.0 74663.0 81577.0 63615.0 72003.0 230463.0 236499.0 54111.0 58432.0 148473.0 150466.0 64470.0 65230.0 66499.0 58714.0 214547.0 206932.0 120064.0 123676.0 77206.0 75098.0 265516.0 259730.0 274483.0 281833.0 97829.0 94798.0 72048.0 73855.0 27245.0 30977.0 300912.0 299730.0 69241.0 61178.0 9099.0 4124.0 132958.0 130143.0 201359.0 200089.0 308490.0 300639.0 96106.0 98891.0 166895.0 164973.0 63177.0 67406.0 63304.0 70138.0 42378.0 48055.0 144239.0 147009.0 234564.0 241431.0 110594.0 104554.0 65557.0 70680.0 72630.0 66773.0 93024.0 87189.0 0.0 8022.0 95494.0 96566.0 58332.0 62751.0 110090.0 106980.0 105294.0 103511.0 42595.0 51035.0 119700.0 150783.0 119700.0 119700.0 150783.0 150783.0
89362.0 81344.0 41870.0 48685.0 159056.0 159122.0 19825.0 26882.0 122217.0 118572.0 123609.0 116933.0 307585.0 299351.0 33455.0 32207.0 280003.0 281720.0 241327.0 234358.0 51501.0 43598.0 92662.0 85729.0 31379.0 38479.0 118697.0 118626.0 123411.0 125088.0 121540.0 118988.0 193067.0 186464.0 248501.0 241711.0 4579.0 10884.0 135522.0 127526.0 276316.0 268149.0 207605.0 212361.0 34175.0 38991.0 37907.0 44575.0 156320.0 163497.0 78285.0 76392.0 38386.0 34033.0 104589.0 101728.0 34050.0 25888.0 73610.0 72221.0 27827.0 27229.0 83416.0 77116.0 50720.0 55684.0 321570.0 319146.0 82737.0 86031.0 80965.0 72978.0 301433.0 308258.0 186639.0 180037.0 24159.0 16199.0 148080.0 145569.0 149723.0 148243.0 233373.0 233815.0 81786.0 88782.0 71539.0 79946.0 238396.0 244403.0 61851.0 65885.0 156471.0 158422.0 71895.0 72248.0 59507.0 51701.0 222554.0 214936.0 119339.0 123413.0 75431.0 72550.0 273492.0 267722.0 282445.0 289807.0 94997.0 91362.0 64525.0 66061.0 28706.0 34146.0 308843.0 307627.0 66647.0 58858.0 17027.0 11147.0 128811.0 126435.0 209312.0 208078.0 316506.0 308656.0 95145.0 97325.0 168189.0 165894.0 57005.0 60705.0 62234.0 69576.0 42846.0 47388.0 152241.0 155029.0 242582.0 249452.0 107758.0 101373.0 73281.0 78161.0 80486.0 74495.0 85031.0 79169.0 8022.0 0.0 90336.0 90893.0 66271.0 70526.0 104854.0 101323.0 103898.0 101527.0 50279.0 58711.0 120848.0 158330.0 120848.0 120848.0 158330.0 158330.0
155548.0 148208.0 117041.0 118919.0 102427.0 98245.0 102715.0 104549.0 201014.0 196629.0 100271.0 92695.0 371732.0 363630.0 58698.0 58137.0 349924.0 352914.0 306275.0 298565.0 119325.0 113991.0 173638.0 168266.0 117715.0 122312.0 173508.0 177318.0 204914.0 204542.0 195389.0 190263.0 254417.0 246750.0 310458.0 302824.0 86313.0 88007.0 196092.0 187703.0 349823.0 341599.0 285277.0 288688.0 124073.0 129324.0 52891.0 47954.0 236025.0 242249.0 142862.0 145677.0 124828.0 117924.0 159232.0 152738.0 109230.0 104755.0 145212.0 148065.0 107781.0 112331.0 153194.0 150382.0 127520.0 127800.0 391770.0 388131.0 166051.0 166826.0 132656.0 125259.0 374779.0 381173.0 251233.0 243592.0 93910.0 93191.0 120518.0 113709.0 86211.0 89417.0 306668.0 305411.0 167773.0 174177.0 140257.0 147923.0 310231.0 317154.0 144332.0 150492.0 219924.0 219028.0 156444.0 158925.0 102030.0 98492.0 283841.0 276118.0 196426.0 202318.0 42977.0 36315.0 342561.0 335840.0 352126.0 358782.0 31984.0 23725.0 94859.0 88005.0 117772.0 124210.0 379601.0 379670.0 140450.0 135231.0 100339.0 99617.0 183241.0 184793.0 280941.0 277842.0 381299.0 373283.0 172827.0 172087.0 128083.0 122015.0 35462.0 36484.0 52157.0 54881.0 129391.0 130952.0 222995.0 223325.0 304948.0 312612.0 174433.0 166617.0 155199.0 162074.0 145758.0 137906.0 83725.0 76301.0 95494.0 90336.0 0.0 8160.0 136421.0 135839.0 152801.0 145532.0 178907.0 173787.0 119189.0 125095.0 205338.0 239442.0 205338.0 205338.0 239442.0 239442.0
159928.0 152445.0 119996.0 122371.0 110016.0 105619.0 101917.0 103140.0 204407.0 200097.0 108358.0 100758.0 377131.0 369006.0 60637.0 58974.0 354745.0 357605.0 311489.0 303827.0 122996.0 117309.0 171387.0 166296.0 116974.0 121112.0 168584.0 172668.0 207944.0 207863.0 192048.0 186676.0 259796.0 252187.0 315937.0 308354.0 86686.0 87602.0 201270.0 192857.0 354211.0 346009.0 289077.0 292670.0 124112.0 129740.0 53014.0 47125.0 239423.0 245798.0 139182.0 142394.0 126561.0 119944.0 154462.0 147778.0 111985.0 107026.0 148979.0 151435.0 106487.0 111517.0 157226.0 154046.0 130514.0 131260.0 396618.0 393100.0 168616.0 169763.0 128099.0 120919.0 379233.0 385713.0 256330.0 248752.0 92337.0 92319.0 128678.0 121866.0 93535.0 97009.0 311049.0 309977.0 169878.0 176425.0 144225.0 152058.0 314781.0 321616.0 146860.0 152749.0 224994.0 224326.0 158750.0 160848.0 97696.0 94668.0 289312.0 281576.0 193471.0 199568.0 50055.0 42992.0 347456.0 340818.0 356975.0 363711.0 40144.0 31873.0 89906.0 82753.0 117577.0 124338.0 384376.0 384306.0 137715.0 132868.0 102023.0 100666.0 178191.0 180044.0 285449.0 282535.0 386655.0 378642.0 170135.0 169050.0 136112.0 129977.0 34362.0 33588.0 58057.0 61489.0 128508.0 129565.0 227406.0 227978.0 310381.0 317995.0 170525.0 162660.0 157898.0 164519.0 150101.0 142293.0 77010.0 69807.0 96566.0 90893.0 8160.0 0.0 140203.0 140037.0 147613.0 140185.0 175835.0 170453.0 122763.0 129011.0 203519.0 242642.0 203519.0 203519.0 242642.0 242642.0
23100.0 15140.0 24404.0 18615.0 165186.0 168457.0 76975.0 84507.0 65026.0 60489.0 115443.0 112086.0 242397.0 234167.0 81714.0 86739.0 216588.0 218892.0 176068.0 168894.0 17275.0 24044.0 119791.0 111819.0 74984.0 82040.0 167901.0 165199.0 70263.0 68731.0 153315.0 154218.0 126951.0 120244.0 182681.0 175749.0 70206.0 76850.0 69282.0 61377.0 214598.0 206431.0 148891.0 152493.0 63545.0 57915.0 94173.0 102156.0 99886.0 105896.0 127737.0 122417.0 37427.0 35448.0 155856.0 155480.0 32517.0 40446.0 8792.0 14016.0 82834.0 76114.0 17655.0 14108.0 16967.0 10588.0 258426.0 255492.0 38087.0 34649.0 137667.0 130863.0 239712.0 246415.0 120976.0 114138.0 87802.0 80010.0 135372.0 136664.0 162909.0 158270.0 171467.0 170967.0 45479.0 48615.0 5344.0 13675.0 175696.0 182231.0 24762.0 32059.0 90401.0 92155.0 34674.0 42148.0 123151.0 115552.0 156546.0 148887.0 147117.0 147717.0 102242.0 104725.0 209698.0 203544.0 218938.0 226043.0 125539.0 126315.0 129846.0 132100.0 67109.0 62198.0 245908.0 245315.0 111049.0 103088.0 49250.0 56277.0 177015.0 172218.0 146337.0 144208.0 251503.0 243587.0 126914.0 132514.0 160204.0 161155.0 111830.0 118128.0 87951.0 90067.0 78271.0 86450.0 88318.0 90093.0 176805.0 183843.0 149529.0 145540.0 28053.0 36540.0 14850.0 12032.0 151262.0 145201.0 58332.0 66271.0 136421.0 140203.0 0.0 8048.0 159747.0 158392.0 137396.0 138799.0 17734.0 11529.0 136518.0 103757.0 136518.0 136518.0 103757.0 103757.0
20184.0 12419.0 29103.0 21845.0 159694.0 163235.0 82618.0 90299.0 67409.0 62718.0 109230.0 106218.0 240126.0 231910.0 82906.0 88509.0 215373.0 217936.0 173851.0 166522.0 19296.0 27064.0 127706.0 119727.0 81609.0 88866.0 175098.0 172553.0 73616.0 71265.0 161216.0 162030.0 123876.0 116915.0 179928.0 172827.0 74212.0 81295.0 65444.0 57263.0 214192.0 206001.0 149675.0 152887.0 70594.0 65288.0 95941.0 103926.0 101796.0 107389.0 134737.0 129605.0 44487.0 41624.0 162863.0 162280.0 36478.0 44679.0 12569.0 20247.0 88832.0 82408.0 17613.0 17909.0 23667.0 16056.0 257258.0 254093.0 44517.0 40089.0 144100.0 137128.0 239245.0 245799.0 118553.0 111459.0 92894.0 84965.0 128581.0 130149.0 158108.0 153204.0 171032.0 170138.0 52530.0 55096.0 6256.0 12123.0 174915.0 181650.0 32751.0 39907.0 87555.0 88653.0 42167.0 49818.0 128484.0 120805.0 153591.0 145883.0 155087.0 155735.0 99981.0 103028.0 208313.0 201969.0 217675.0 224640.0 123150.0 124446.0 134715.0 136581.0 73761.0 69261.0 244852.0 244518.0 118243.0 110213.0 53668.0 61104.0 184303.0 179638.0 145551.0 142983.0 249352.0 241400.0 134741.0 140258.0 153580.0 154772.0 112962.0 119577.0 86093.0 87498.0 85472.0 93627.0 87450.0 88513.0 174110.0 181308.0 157078.0 152956.0 35141.0 43476.0 10431.0 4367.0 155144.0 148833.0 62751.0 70526.0 135839.0 140037.0 8048.0 0.0 166457.0 164872.0 145211.0 146494.0 20341.0 12088.0 144566.0 106109.0 144566.0 144566.0 106109.0 106109.0
180977.0 173992.0 138521.0 146680.0 248483.0 246258.0 86652.0 78776.0 192356.0 190707.0 223491.0 216111.0 380746.0 372734.0 124099.0 116803.0 347375.0 347584.0 317129.0 311440.0 150195.0 142886.0 69152.0 72026.0 84849.0 77725.0 21864.0 28184.0 188051.0 193469.0 62922.0 54819.0 276048.0 270945.0 327087.0 321552.0 103759.0 95434.0 224723.0 217968.0 341031.0 332864.0 269526.0 275382.0 96426.0 102971.0 115135.0 113803.0 218777.0 226771.0 33423.0 40779.0 122376.0 124932.0 11955.0 5358.0 133369.0 125777.0 164039.0 158662.0 79159.0 84452.0 173229.0 165058.0 142893.0 150421.0 387287.0 386158.0 154181.0 161382.0 23998.0 32241.0 366147.0 373000.0 266985.0 262028.0 81356.0 88826.0 248098.0 244250.0 234961.0 236046.0 298917.0 301633.0 146824.0 153098.0 164874.0 172017.0 305518.0 310040.0 142392.0 140616.0 240891.0 245146.0 144396.0 138891.0 52781.0 58850.0 303435.0 296439.0 70345.0 78341.0 164539.0 158300.0 342213.0 338045.0 349997.0 357749.0 175242.0 168141.0 58008.0 64863.0 92698.0 97788.0 374359.0 372419.0 51159.0 58012.0 117604.0 109647.0 30724.0 34118.0 279100.0 280512.0 388511.0 381206.0 60227.0 53103.0 265113.0 261327.0 122033.0 117684.0 156177.0 164436.0 82453.0 74395.0 229342.0 234678.0 321101.0 326720.0 37740.0 32115.0 150655.0 149829.0 174461.0 170819.0 76183.0 80878.0 110090.0 104854.0 152801.0 147613.0 159747.0 166457.0 0.0 8242.0 56256.0 48248.0 148655.0 156537.0 100102.0 218659.0 100102.0 100102.0 218659.0 218659.0
180037.0 172872.0 136541.0 144642.0 242055.0 239669.0 83818.0 75895.0 193611.0 191773.0 218235.0 210779.0 382597.0 374547.0 118833.0 111351.0 349497.0 349747.0 318562.0 312728.0 148101.0 140638.0 73949.0 76098.0 83427.0 76720.0 30056.0 36404.0 189721.0 194885.0 70293.0 62296.0 276603.0 271316.0 328269.0 322588.0 99912.0 91522.0 224350.0 217412.0 343194.0 335027.0 271689.0 277545.0 95562.0 102465.0 109301.0 107574.0 220912.0 228899.0 34976.0 42940.0 121207.0 123251.0 19443.0 11616.0 131003.0 123229.0 163067.0 158029.0 76635.0 82503.0 172420.0 164356.0 141458.0 148816.0 389450.0 388321.0 154812.0 161801.0 20805.0 28383.0 368311.0 375164.0 267782.0 262632.0 77448.0 85161.0 242796.0 238762.0 228282.0 229539.0 301081.0 303757.0 147834.0 154291.0 163588.0 170946.0 307717.0 312204.0 142025.0 140703.0 241138.0 245159.0 144750.0 139595.0 46796.0 53376.0 304308.0 297223.0 77313.0 85293.0 158546.0 152140.0 344385.0 340060.0 352128.0 360033.0 168588.0 161362.0 50999.0 57527.0 91304.0 96924.0 376523.0 374583.0 52363.0 58451.0 114827.0 106828.0 38616.0 42335.0 280959.0 282136.0 390489.0 383117.0 65458.0 58704.0 259348.0 255404.0 115360.0 110749.0 150652.0 158914.0 82180.0 74320.0 230266.0 235386.0 322273.0 328035.0 44860.0 38598.0 150721.0 150361.0 173187.0 169218.0 68065.0 72917.0 106980.0 101323.0 145532.0 140185.0 158392.0 164872.0 8242.0 0.0 62449.0 54411.0 146588.0 154618.0 105724.0 220823.0 105724.0 105724.0 220823.0 220823.0
154631.0 149191.0 122206.0 130025.0 262179.0 261661.0 84458.0 78992.0 152381.0 151828.0 227058.0 220601.0 336257.0 328322.0 133737.0 128724.0 302679.0 302888.0 274116.0 269183.0 133634.0 128035.0 19247.0 26463.0 73521.0 65738.0 45902.0 38795.0 145992.0 152590.0 17643.0 16822.0 238027.0 234010.0 285208.0 280451.0 105269.0 98873.0 193126.0 187697.0 296335.0 288167.0 224829.0 230685.0 78475.0 81287.0 130370.0 132527.0 174093.0 182084.0 38585.0 33644.0 102270.0 108021.0 44634.0 51266.0 120290.0 114838.0 138860.0 131623.0 76872.0 76810.0 146443.0 138050.0 122420.0 130465.0 342590.0 341462.0 119497.0 127559.0 56489.0 60108.0 321451.0 328304.0 227808.0 223966.0 87814.0 91862.0 251309.0 249196.0 251585.0 250868.0 254221.0 256937.0 110330.0 115148.0 141716.0 147009.0 260858.0 265344.0 114847.0 110298.0 205232.0 210744.0 112091.0 104840.0 80908.0 81912.0 263359.0 256908.0 17818.0 24893.0 177253.0 172902.0 297536.0 293374.0 305301.0 313185.0 193699.0 188210.0 91554.0 99706.0 79203.0 79555.0 329663.0 327723.0 38925.0 45608.0 109335.0 102840.0 50293.0 42494.0 234787.0 236958.0 343852.0 336628.0 10515.0 6852.0 272011.0 269793.0 143987.0 142513.0 165298.0 173009.0 64009.0 57331.0 190186.0 196581.0 279326.0 284191.0 20418.0 24167.0 119698.0 116031.0 150650.0 149404.0 118678.0 120421.0 105294.0 103898.0 178907.0 175835.0 137396.0 145211.0 56256.0 62449.0 0.0 8039.0 132031.0 138261.0 44275.0 173963.0 44275.0 44275.0 173963.0 173963.0
156830.0 151094.0 122463.0 130423.0 258918.0 258174.0 81832.0 75855.0 156979.0 156222.0 225063.0 218453.0 341688.0 333753.0 130330.0 124966.0 308109.0 308318.0 279520.0 274450.0 134053.0 128123.0 24339.0 30377.0 71981.0 64010.0 38869.0 32259.0 150957.0 157358.0 21604.0 17482.0 242512.0 238301.0 290427.0 285530.0 102572.0 95787.0 196396.0 190723.0 301765.0 293598.0 230260.0 236116.0 78220.0 81770.0 126212.0 127964.0 179524.0 187515.0 31951.0 28112.0 102887.0 108189.0 36686.0 43236.0 120006.0 114144.0 140752.0 133775.0 74030.0 74785.0 148664.0 140248.0 123365.0 131407.0 348021.0 346892.0 122922.0 130887.0 49012.0 53097.0 326882.0 333735.0 232474.0 228431.0 84068.0 88679.0 249445.0 247084.0 247911.0 247428.0 259652.0 262367.0 114019.0 119156.0 143289.0 148933.0 266289.0 270775.0 116927.0 112829.0 209236.0 214547.0 115006.0 108009.0 74544.0 76061.0 268240.0 261685.0 24629.0 32199.0 173787.0 169166.0 302967.0 298805.0 310731.0 318616.0 189582.0 183866.0 84910.0 93060.0 78204.0 79378.0 335094.0 333154.0 35239.0 42689.0 108145.0 101316.0 44189.0 36896.0 240218.0 242412.0 349283.0 342059.0 14574.0 6940.0 269695.0 267256.0 139141.0 137320.0 162230.0 170065.0 63352.0 56105.0 194762.0 200987.0 284520.0 289522.0 13538.0 16208.0 122440.0 119261.0 152398.0 150747.0 111535.0 113547.0 103511.0 101527.0 173787.0 170453.0 138799.0 146494.0 48248.0 54411.0 8039.0 0.0 132444.0 139000.0 52073.0 179394.0 52073.0 52073.0 179394.0 179394.0
39960.0 31900.0 10213.0 2030.0 154640.0 157255.0 63375.0 71199.0 81847.0 77441.0 107323.0 102992.0 259862.0 251636.0 63985.0 69039.0 234303.0 236624.0 193542.0 186305.0 1610.0 6723.0 115640.0 107658.0 64148.0 71828.0 158629.0 156671.0 86251.0 85421.0 148742.0 148718.0 143987.0 137112.0 199917.0 192891.0 53897.0 61095.0 85735.0 77588.0 232314.0 224146.0 166334.0 170064.0 54593.0 50755.0 76476.0 84464.0 116845.0 123076.0 117815.0 113316.0 29823.0 24423.0 145837.0 144703.0 16317.0 24553.0 26366.0 29023.0 70046.0 64206.0 35332.0 31293.0 12599.0 8775.0 276147.0 273187.0 50112.0 48867.0 125784.0 118530.0 257429.0 264143.0 138349.0 131388.0 73040.0 65037.0 129005.0 129285.0 150824.0 146771.0 189186.0 188701.0 55182.0 59959.0 22441.0 30868.0 193431.0 199960.0 30708.0 38573.0 107547.0 108885.0 43259.0 49083.0 108741.0 101010.0 173664.0 165974.0 143507.0 145055.0 86562.0 88433.0 227392.0 221205.0 236648.0 243735.0 109869.0 110092.0 114638.0 116337.0 56498.0 53345.0 263636.0 263049.0 102058.0 93857.0 33563.0 41211.0 168132.0 164000.0 164071.0 161915.0 269013.0 261083.0 121746.0 126578.0 153017.0 153143.0 94098.0 100401.0 71940.0 74873.0 69702.0 77641.0 106045.0 107720.0 194070.0 201187.0 142143.0 137419.0 39015.0 47220.0 30572.0 24220.0 134802.0 128504.0 42595.0 50279.0 119189.0 122763.0 17734.0 20341.0 148655.0 146588.0 132031.0 132444.0 0.0 8440.0 135648.0 120401.0 135648.0 135648.0 120401.0 120401.0
32086.0 24108.0 18087.0 10172.0 155093.0 158117.0 71640.0 79430.0 76547.0 71997.0 106292.0 102502.0 252097.0 243877.0 71145.0 76570.0 227017.0 229471.0 185802.0 178505.0 7250.0 15120.0 121415.0 113416.0 71829.0 79375.0 166075.0 163913.0 81746.0 80259.0 154728.0 155019.0 135949.0 129001.0 191976.0 184893.0 62300.0 69533.0 77527.0 69330.0 225444.0 217279.0 160182.0 163664.0 61692.0 57244.0 84008.0 91998.0 111381.0 117334.0 125387.0 120662.0 36119.0 31765.0 153464.0 152511.0 24753.0 32989.0 20250.0 24939.0 78182.0 72146.0 28258.0 25634.0 16095.0 8418.0 268889.0 265813.0 48132.0 45562.0 133815.0 126642.0 250549.0 257179.0 130535.0 123484.0 81452.0 73459.0 127087.0 127898.0 152252.0 147813.0 182305.0 181606.0 54517.0 58454.0 15225.0 23336.0 186362.0 193001.0 31289.0 39180.0 99596.0 100741.0 42980.0 49718.0 117139.0 109416.0 165658.0 157953.0 149145.0 150348.0 90724.0 93203.0 220021.0 213743.0 229338.0 236357.0 114026.0 114788.0 123078.0 124765.0 64086.0 60404.0 256435.0 255985.0 109353.0 101200.0 41999.0 49619.0 175481.0 171161.0 156991.0 154613.0 261297.0 253353.0 127889.0 132988.0 151565.0 152134.0 101248.0 107752.0 76423.0 78587.0 76773.0 84816.0 98892.0 100245.0 186149.0 193323.0 149035.0 144523.0 37433.0 45938.0 22472.0 15813.0 143141.0 136788.0 51035.0 58711.0 125095.0 129011.0 11529.0 12088.0 156537.0 154618.0 138261.0 139000.0 8440.0 0.0 140215.0 115283.0 140215.0 140215.0 115283.0 115283.0
149818.0 145762.0 126955.0 133796.0 279075.0 279587.0 103862.0 100912.0 138719.0 138832.0 238750.0 233058.0 320764.0 312829.0 153675.0 150345.0 287186.0 287395.0 258629.0 253719.0 137159.0 133236.0 33292.0 35337.0 89706.0 83699.0 89757.0 82210.0 131325.0 138409.0 46895.0 53539.0 224102.0 220667.0 269783.0 265195.0 123494.0 119091.0 183483.0 179018.0 280842.0 272674.0 209336.0 215192.0 88814.0 88170.0 153652.0 157491.0 158600.0 166591.0 76270.0 68795.0 106667.0 113965.0 88720.0 94953.0 127471.0 124066.0 135822.0 127741.0 97835.0 94554.0 141771.0 133739.0 124185.0 131866.0 327097.0 325969.0 110802.0 118974.0 96105.0 97414.0 305958.0 312811.0 213451.0 210164.0 111434.0 112936.0 262112.0 261115.0 270462.0 268692.0 238728.0 241444.0 100929.0 104309.0 139943.0 143565.0 245365.0 249851.0 112043.0 105770.0 192960.0 199086.0 105814.0 97865.0 114021.0 112529.0 248445.0 242216.0 36893.0 31861.0 196277.0 193212.0 282043.0 277881.0 289808.0 297692.0 215326.0 210954.0 125530.0 133371.0 92538.0 89435.0 314170.0 312230.0 67138.0 69266.0 120994.0 116316.0 92852.0 84514.0 219294.0 221494.0 328359.0 321135.0 40422.0 47048.0 284593.0 283373.0 169876.0 169977.0 182844.0 189830.0 78028.0 74759.0 176257.0 183114.0 263929.0 268701.0 64505.0 68264.0 113808.0 108260.0 147836.0 148365.0 154576.0 154719.0 119700.0 120848.0 205338.0 203519.0 136518.0 144566.0 100102.0 105724.0 44275.0 52073.0 135648.0 140215.0 0.0 158470.0 0.0 0.0 158470.0 158470.0
89199.0 94711.0 122677.0 120562.0 260732.0 265317.0 159119.0 164086.0 38758.0 43398.0 207941.0 206777.0 164164.0 156343.0 182518.0 186013.0 129679.0 129575.0 104040.0 100037.0 120399.0 125451.0 155105.0 149371.0 148561.0 151405.0 217291.0 211476.0 34986.0 35028.0 183810.0 188460.0 80125.0 80081.0 116178.0 112592.0 162894.0 166617.0 75084.0 78498.0 124149.0 115982.0 50865.0 57106.0 135524.0 127556.0 193176.0 200878.0 7151.0 11757.0 185857.0 178033.0 119965.0 124850.0 210223.0 213414.0 130820.0 136565.0 95068.0 91411.0 160920.0 152851.0 88619.0 89649.0 112154.0 111706.0 170417.0 168223.0 75595.0 73098.0 202888.0 198964.0 149265.0 156118.0 68145.0 68493.0 172222.0 166420.0 222342.0 226086.0 261626.0 255959.0 81174.0 84457.0 77703.0 70508.0 100704.0 94275.0 88159.0 92214.0 96878.0 92464.0 64459.0 72531.0 86491.0 87390.0 201470.0 195359.0 97988.0 93095.0 174691.0 172040.0 205896.0 208479.0 124850.0 121060.0 132322.0 140267.0 229147.0 230070.0 211398.0 216364.0 142547.0 134468.0 157477.0 155537.0 168584.0 163413.0 143177.0 147199.0 223554.0 216221.0 63526.0 67000.0 171494.0 164411.0 164826.0 172518.0 247775.0 250835.0 212006.0 217317.0 191700.0 193544.0 143376.0 149722.0 42206.0 49871.0 110557.0 114448.0 192835.0 192751.0 85477.0 80183.0 97785.0 105378.0 238386.0 234156.0 150783.0 158330.0 239442.0 242642.0 103757.0 106109.0 218659.0 220823.0 173963.0 179394.0 120401.0 115283.0 158470.0 0.0 158470.0 158470.0 0.0 0.0
149818.0 145762.0 126955.0 133796.0 279075.0 279587.0 103862.0 100912.0 138719.0 138832.0 238750.0 233058.0 320764.0 312829.0 153675.0 150345.0 287186.0 287395.0 258629.0 253719.0 137159.0 133236.0 33292.0 35337.0 89706.0 83699.0 89757.0 82210.0 131325.0 138409.0 46895.0 53539.0 224102.0 220667.0 269783.0 265195.0 123494.0 119091.0 183483.0 179018.0 280842.0 272674.0 209336.0 215192.0 88814.0 88170.0 153652.0 157491.0 158600.0 166591.0 76270.0 68795.0 106667.0 113965.0 88720.0 94953.0 127471.0 124066.0 135822.0 127741.0 97835.0 94554.0 141771.0 133739.0 124185.0 131866.0 327097.0 325969.0 110802.0 118974.0 96105.0 97414.0 305958.0 312811.0 213451.0 210164.0 111434.0 112936.0 262112.0 261115.0 270462.0 268692.0 238728.0 241444.0 100929.0 104309.0 139943.0 143565.0 245365.0 249851.0 112043.0 105770.0 192960.0 199086.0 105814.0 97865.0 114021.0 112529.0 248445.0 242216.0 36893.0 31861.0 196277.0 193212.0 282043.0 277881.0 289808.0 297692.0 215326.0 210954.0 125530.0 133371.0 92538.0 89435.0 314170.0 312230.0 67138.0 69266.0 120994.0 116316.0 92852.0 84514.0 219294.0 221494.0 328359.0 321135.0 40422.0 47048.0 284593.0 283373.0 169876.0 169977.0 182844.0 189830.0 78028.0 74759.0 176257.0 183114.0 263929.0 268701.0 64505.0 68264.0 113808.0 108260.0 147836.0 148365.0 154576.0 154719.0 119700.0 120848.0 205338.0 203519.0 136518.0 144566.0 100102.0 105724.0 44275.0 52073.0 135648.0 140215.0 0.0 158470.0 0.0 0.0 158470.0 158470.0
149818.0 145762.0 126955.0 133796.0 279075.0 279587.0 103862.0 100912.0 138719.0 138832.0 238750.0 233058.0 320764.0 312829.0 153675.0 150345.0 287186.0 287395.0 258629.0 253719.0 137159.0 133236.0 33292.0 35337.0 89706.0 83699.0 89757.0 82210.0 131325.0 138409.0 46895.0 53539.0 224102.0 220667.0 269783.0 265195.0 123494.0 119091.0 183483.0 179018.0 280842.0 272674.0 209336.0 215192.0 88814.0 88170.0 153652.0 157491.0 158600.0 166591.0 76270.0 68795.0 106667.0 113965.0 88720.0 94953.0 127471.0 124066.0 135822.0 127741.0 97835.0 94554.0 141771.0 133739.0 124185.0 131866.0 327097.0 325969.0 110802.0 118974.0 96105.0 97414.0 305958.0 312811.0 213451.0 210164.0 111434.0 112936.0 262112.0 261115.0 270462.0 268692.0 238728.0 241444.0 100929.0 104309.0 139943.0 143565.0 245365.0 249851.0 112043.0 105770.0 192960.0 199086.0 105814.0 97865.0 114021.0 112529.0 248445.0 242216.0 36893.0 31861.0 196277.0 193212.0 282043.0 277881.0 289808.0 297692.0 215326.0 210954.0 125530.0 133371.0 92538.0 89435.0 314170.0 312230.0 67138.0 69266.0 120994.0 116316.0 92852.0 84514.0 219294.0 221494.0 328359.0 321135.0 40422.0 47048.0 284593.0 283373.0 169876.0 169977.0 182844.0 189830.0 78028.0 74759.0 176257.0 183114.0 263929.0 268701.0 64505.0 68264.0 113808.0 108260.0 147836.0 148365.0 154576.0 154719.0 119700.0 120848.0 205338.0 203519.0 136518.0 144566.0 100102.0 105724.0 44275.0 52073.0 135648.0 140215.0 0.0 158470.0 0.0 0.0 158470.0 158470.0
89199.0 94711.0 122677.0 120562.0 260732.0 265317.0 159119.0 164086.0 38758.0 43398.0 207941.0 206777.0 164164.0 156343.0 182518.0 186013.0 129679.0 129575.0 104040.0 100037.0 120399.0 125451.0 155105.0 149371.0 148561.0 151405.0 217291.0 211476.0 34986.0 35028.0 183810.0 188460.0 80125.0 80081.0 116178.0 112592.0 162894.0 166617.0 75084.0 78498.0 124149.0 115982.0 50865.0 57106.0 135524.0 127556.0 193176.0 200878.0 7151.0 11757.0 185857.0 178033.0 119965.0 124850.0 210223.0 213414.0 130820.0 136565.0 95068.0 91411.0 160920.0 152851.0 88619.0 89649.0 112154.0 111706.0 170417.0 168223.0 75595.0 73098.0 202888.0 198964.0 149265.0 156118.0 68145.0 68493.0 172222.0 166420.0 222342.0 226086.0 261626.0 255959.0 81174.0 84457.0 77703.0 70508.0 100704.0 94275.0 88159.0 92214.0 96878.0 92464.0 64459.0 72531.0 86491.0 87390.0 201470.0 195359.0 97988.0 93095.0 174691.0 172040.0 205896.0 208479.0 124850.0 121060.0 132322.0 140267.0 229147.0 230070.0 211398.0 216364.0 142547.0 134468.0 157477.0 155537.0 168584.0 163413.0 143177.0 147199.0 223554.0 216221.0 63526.0 67000.0 171494.0 164411.0 164826.0 172518.0 247775.0 250835.0 212006.0 217317.0 191700.0 193544.0 143376.0 149722.0 42206.0 49871.0 110557.0 114448.0 192835.0 192751.0 85477.0 80183.0 97785.0 105378.0 238386.0 234156.0 150783.0 158330.0 239442.0 242642.0 103757.0 106109.0 218659.0 220823.0 173963.0 179394.0 120401.0 115283.0 158470.0 0.0 158470.0 158470.0 0.0 0.0
89199.0 94711.0 122677.0 120562.0 260732.0 265317.0 159119.0 164086.0 38758.0 43398.0 207941.0 206777.0 164164.0 156343.0 182518.0 186013.0 129679.0 129575.0 104040.0 100037.0 120399.0 125451.0 155105.0 149371.0 148561.0 151405.0 217291.0 211476.0 34986.0 35028.0 183810.0 188460.0 80125.0 80081.0 116178.0 112592.0 162894.0 166617.0 75084.0 78498.0 124149.0 115982.0 50865.0 57106.0 135524.0 127556.0 193176.0 200878.0 7151.0 11757.0 185857.0 178033.0 119965.0 124850.0 210223.0 213414.0 130820.0 136565.0 95068.0 91411.0 160920.0 152851.0 88619.0 89649.0 112154.0 111706.0 170417.0 168223.0 75595.0 73098.0 202888.0 198964.0 149265.0 156118.0 68145.0 68493.0 172222.0 166420.0 222342.0 226086.0 261626.0 255959.0 81174.0 84457.0 77703.0 70508.0 100704.0 94275.0 88159.0 92214.0 96878.0 92464.0 64459.0 72531.0 86491.0 87390.0 201470.0 195359.0 97988.0 93095.0 174691.0 172040.0 205896.0 208479.0 124850.0 121060.0 132322.0 140267.0 229147.0 230070.0 211398.0 216364.0 142547.0 134468.0 157477.0 155537.0 168584.0 163413.0 143177.0 147199.0 223554.0 216221.0 63526.0 67000.0 171494.0 164411.0 164826.0 172518.0 247775.0 250835.0 212006.0 217317.0 191700.0 193544.0 143376.0 149722.0 42206.0 49871.0 110557.0 114448.0 192835.0 192751.0 85477.0 80183.0 97785.0 105378.0 238386.0 234156.0 150783.0 158330.0 239442.0 242642.0 103757.0 106109.0 218659.0 220823.0 173963.0 179394.0 120401.0 115283.0 158470.0 0.0 158470.0 158470.0 0.0 0.0
FIXED_EDGES_SECTION
1 2
3 4
5 6
7 8
9 10
11 12
13 14
15 16
17 18
19 20
21 22
23 24
25 26
27 28
29 30
31 32
33 34
35 36
37 38
39 40
41 42
43 44
45 46
47 48
49 50
51 52
53 54
55 56
57 58
59 60
61 62
63 64
65 66
67 68
69 70
71 72
73 74
75 76
77 78
79 80
81 82
83 84
85 86
87 88
89 90
91 92
93 94
95 96
97 98
99 100
101 102
103 104
105 106
107 108
109 110
111 112
113 114
115 116
117 118
119 120
121 122
123 124
125 126
127 128
129 130
131 132
133 134
135 136
137 138
139 140
141 142
143 144
145 146
147 148
149 150
151 152
153 154
155 156
157 158
159 160
-1 
DEMAND_SECTION
1 158
2 158
3 94
4 94
5 138
6 138
7 353
8 353
9 399
10 399
11 277
12 277
13 421
14 421
15 211
16 211
17 60
18 60
19 341
20 341
21 90
22 90
23 485
24 485
25 207
26 207
27 216
28 216
29 100
30 100
31 292
32 292
33 336
34 336
35 268
36 268
37 349
38 349
39 68
40 68
41 224
42 224
43 114
44 114
45 277
46 277
47 90
48 90
49 37
50 37
51 493
52 493
53 114
54 114
55 274
56 274
57 89
58 89
59 119
60 119
61 293
62 293
63 223
64 223
65 380
66 380
67 491
68 491
69 324
70 324
71 375
72 375
73 280
74 280
75 319
76 319
77 583
78 583
79 234
80 234
81 542
82 542
83 534
84 534
85 75
86 75
87 421
88 421
89 184
90 184
91 214
92 214
93 84
94 84
95 373
96 373
97 497
98 497
99 244
100 244
101 97
102 97
103 72
104 72
105 322
106 322
107 99
108 99
109 76
110 76
111 55
112 55
113 171
114 171
115 71
116 71
117 155
118 155
119 541
120 541
121 251
122 251
123 563
124 563
125 229
126 229
127 618
128 618
129 120
130 120
131 224
132 224
133 74
134 74
135 394
136 394
137 313
138 313
139 350
140 350
141 247
142 247
143 358
144 358
145 291
146 291
147 497
148 497
149 96
150 96
151 68
152 68
153 177
154 177
155 500
156 500
157 104
158 104
159 279
160 279
161 0
162 0
163 0
164 0
165 0
166 0
DEPOT_SECTION
161 
-1 
CAPACITIES_SECTION
20000 
22000 
24000 
26000 
-1 
EOF