NAME: GFS_20_1
TYPE: GFSP
DIMENSION: 166
VEHICLES: 4
CAPACITY: 20000.0
TRIP_DIST_LIMIT: 1050000.0
TOTAL_DIST_LIMIT: 1050000.0
EDGE_WEIGHT_TYPE: EXPLICIT
EDGE_WEIGHT_FORMAT: FULL_MATRIX
EDGE_WEIGHT_SECTION
0.0 8428.0 49819.0 48298.0 207829.0 201843.0 276656.0 270781.0 249839.0 243398.0 75824.0 74256.0 280847.0 274385.0 43162.0 34974.0 142055.0 149045.0 311953.0 305120.0 84356.0 76973.0 239579.0 231519.0 290302.0 294733.0 151139.0 158616.0 32708.0 24935.0 225479.0 233373.0 240665.0 241732.0 290481.0 293672.0 249079.0 241308.0 51149.0 59099.0 163346.0 165796.0 282748.0 279252.0 306955.0 312958.0 298917.0 301081.0 235363.0 229629.0 252758.0 259124.0 266797.0 259317.0 287512.0 282415.0 254949.0 252298.0 171743.0 168958.0 126328.0 129562.0 207882.0 215605.0 167097.0 159071.0 268597.0 272710.0 273093.0 273009.0 254388.0 255475.0 67330.0 74557.0 8493.0 11165.0 227611.0 231112.0 48507.0 48819.0 191954.0 199816.0 269469.0 262998.0 171467.0 171032.0 52757.0 54678.0 62806.0 70579.0 26241.0 31698.0 280190.0 277192.0 265321.0 273265.0 290948.0 293515.0 244750.0 239838.0 306668.0 311049.0 316238.0 311415.0 223274.0 229817.0 39024.0 41575.0 183856.0 181197.0 221084.0 213185.0 308186.0 315914.0 90958.0 84264.0 54303.0 61064.0 255761.0 255716.0 188726.0 195255.0 162842.0 161988.0 303812.0 296479.0 264068.0 268718.0 90576.0 94548.0 54664.0 57164.0 160449.0 156985.0 224505.0 222812.0 202484.0 209394.0 80254.0 72322.0 254221.0 259652.0 178550.0 186440.0 156371.0 149294.0 280379.0 272427.0 248815.0 243667.0 266115.0 258291.0 218176.0 220594.0 262412.0 268088.0 253167.0 257923.0 267938.0 259959.0 238728.0 81174.0 238728.0 238728.0 81174.0 81174.0
8428.0 0.0 41402.0 40091.0 208203.0 202018.0 278294.0 272256.0 250884.0 244282.0 75065.0 74383.0 282434.0 275845.0 45141.0 36872.0 140489.0 147689.0 308438.0 301498.0 79828.0 72147.0 240976.0 232939.0 291691.0 295925.0 150093.0 157725.0 38419.0 30346.0 225874.0 233815.0 238605.0 239941.0 293131.0 296385.0 248258.0 240528.0 48906.0 56587.0 164550.0 167382.0 285464.0 281967.0 303013.0 309147.0 301633.0 303757.0 238079.0 232345.0 250137.0 256655.0 269513.0 262032.0 286823.0 281931.0 257664.0 255013.0 172458.0 170041.0 125432.0 128187.0 207987.0 215787.0 166450.0 158293.0 266778.0 271096.0 275808.0 275725.0 250676.0 251998.0 61739.0 69260.0 4870.0 12630.0 229174.0 232934.0 46375.0 47969.0 193557.0 201351.0 271751.0 265124.0 170967.0 170138.0 44441.0 46250.0 58446.0 66381.0 24631.0 28060.0 279779.0 276552.0 265054.0 273021.0 288924.0 291716.0 247433.0 242553.0 305411.0 309977.0 317229.0 312234.0 225240.0 231956.0 30639.0 33199.0 183892.0 180886.0 222489.0 214673.0 310902.0 318630.0 87037.0 79988.0 48806.0 55163.0 254189.0 253876.0 188173.0 194891.0 162439.0 162022.0 306527.0 299194.0 266783.0 271433.0 87564.0 90923.0 46836.0 49846.0 161273.0 158223.0 222338.0 220352.0 202394.0 209482.0 82861.0 74868.0 256937.0 262367.0 179545.0 187484.0 158088.0 151091.0 276810.0 268830.0 251469.0 246115.0 268802.0 260999.0 219260.0 221965.0 258025.0 263864.0 252662.0 257634.0 267077.0 259060.0 241444.0 84457.0 241444.0 241444.0 84457.0 84457.0
49819.0 41402.0 0.0 8055.0 217154.0 210177.0 291983.0 285267.0 262196.0 254941.0 82346.0 85659.0 295842.0 288740.0 68957.0 62661.0 142423.0 150314.0 296366.0 288931.0 66796.0 58739.0 254056.0 246250.0 304081.0 307358.0 154117.0 162170.0 75191.0 67449.0 234564.0 242582.0 235054.0 237730.0 313649.0 316017.0 250721.0 243323.0 55915.0 59828.0 178444.0 182879.0 307950.0 304453.0 288722.0 295495.0 321101.0 322273.0 260338.0 254265.0 243507.0 250704.0 290808.0 283035.0 289382.0 285550.0 280150.0 277499.0 183906.0 183224.0 131460.0 131744.0 215676.0 223676.0 171739.0 163261.0 263993.0 269281.0 297859.0 297249.0 238281.0 240837.0 50621.0 58200.0 42740.0 48387.0 243198.0 248064.0 54816.0 61101.0 208450.0 215772.0 288443.0 281191.0 176805.0 174110.0 6004.0 5370.0 55953.0 62682.0 48826.0 43700.0 283781.0 279483.0 269950.0 277918.0 284801.0 288698.0 267978.0 263890.0 304948.0 310381.0 327508.0 321748.0 241144.0 248524.0 10953.0 10620.0 191867.0 187306.0 235910.0 228611.0 332124.0 339942.0 76439.0 68423.0 42998.0 44020.0 252834.0 251181.0 193228.0 200672.0 169036.0 170685.0 328548.0 321410.0 289269.0 293916.0 86555.0 86183.0 21170.0 28846.0 173573.0 172475.0 218559.0 215109.0 209292.0 217059.0 106678.0 99180.0 279326.0 284520.0 192060.0 200009.0 174442.0 168021.0 264813.0 256788.0 270062.0 263856.0 287746.0 280357.0 231274.0 235239.0 241850.0 248500.0 256592.0 262536.0 269056.0 260968.0 263929.0 110557.0 263929.0 263929.0 110557.0 110557.0
48298.0 40091.0 8055.0 0.0 223968.0 217059.0 298363.0 291721.0 268820.0 261628.0 74423.0 77899.0 302259.0 295212.0 62618.0 56794.0 149706.0 157564.0 304417.0 296984.0 59138.0 51018.0 260465.0 252621.0 310626.0 314014.0 161259.0 169297.0 76170.0 68209.0 241431.0 249452.0 242843.0 245451.0 319098.0 321607.0 258151.0 250721.0 48270.0 51915.0 184605.0 188844.0 312722.0 309225.0 296775.0 303550.0 326720.0 328035.0 265282.0 259338.0 251432.0 258608.0 296071.0 288354.0 296837.0 292922.0 284922.0 282271.0 190378.0 189487.0 138331.0 138850.0 222614.0 230607.0 178815.0 170344.0 271762.0 277002.0 302907.0 302461.0 246331.0 248874.0 58200.0 65887.0 40514.0 45112.0 249476.0 254209.0 47301.0 53812.0 214557.0 221954.0 294430.0 287255.0 183843.0 181308.0 5370.0 12310.0 62869.0 69855.0 51548.0 47485.0 291122.0 286903.0 277206.0 285182.0 292645.0 296492.0 273373.0 269121.0 312612.0 317995.0 334305.0 328620.0 247176.0 254478.0 10620.0 15330.0 198732.0 194313.0 242252.0 234877.0 337429.0 345230.0 68694.0 60676.0 49860.0 51456.0 260519.0 258938.0 200371.0 207764.0 175983.0 177428.0 333617.0 326390.0 294041.0 298691.0 93785.0 93702.0 29054.0 36644.0 179916.0 178573.0 226347.0 222962.0 216295.0 224009.0 110953.0 103290.0 284191.0 289522.0 198427.0 206393.0 180266.0 173744.0 272862.0 264837.0 275757.0 269668.0 293411.0 285951.0 237776.0 241598.0 249890.0 256548.0 263915.0 269785.0 276537.0 268448.0 268701.0 114448.0 268701.0 268701.0 114448.0 114448.0
207829.0 208203.0 217154.0 223968.0 0.0 7778.0 78375.0 70774.0 46116.0 38342.0 283243.0 282076.0 81559.0 73917.0 250796.0 242629.0 77610.0 69739.0 157167.0 154416.0 282003.0 273770.0 42258.0 36590.0 88171.0 90606.0 64704.0 56821.0 182407.0 187017.0 17672.0 25644.0 72108.0 66378.0 118547.0 117148.0 51901.0 44976.0 256812.0 264166.0 47714.0 49435.0 139052.0 140501.0 163934.0 165252.0 121011.0 118825.0 93263.0 85480.0 92808.0 93221.0 104591.0 96890.0 84949.0 78161.0 121168.0 123714.0 36734.0 41660.0 85705.0 86176.0 6654.0 9070.0 47028.0 55249.0 85778.0 85121.0 116410.0 111203.0 121905.0 116270.0 167856.0 161385.0 212794.0 218842.0 37059.0 44987.0 254373.0 256122.0 33122.0 29285.0 82931.0 74630.0 41687.0 46969.0 223087.0 216367.0 161202.0 154697.0 183687.0 182434.0 75405.0 74669.0 59909.0 67441.0 107904.0 105992.0 83506.0 86032.0 109553.0 111416.0 110354.0 104691.0 44279.0 51732.0 215770.0 208843.0 25388.0 31259.0 29792.0 28652.0 138442.0 145873.0 290901.0 283059.0 174174.0 173707.0 71050.0 76638.0 29283.0 21878.0 48452.0 46615.0 141313.0 137577.0 125360.0 124471.0 131257.0 133497.0 197246.0 189658.0 48172.0 53763.0 67156.0 74013.0 12604.0 7238.0 131292.0 138338.0 108113.0 107630.0 32300.0 26285.0 58515.0 65197.0 134772.0 130070.0 75577.0 67316.0 90674.0 86654.0 20970.0 28749.0 145371.0 144271.0 50883.0 52996.0 68815.0 62334.0 116844.0 133594.0 116844.0 116844.0 133594.0 133594.0
201843.0 202018.0 210177.0 217059.0 7778.0 0.0 86119.0 78490.0 53745.0 45894.0 277082.0 276051.0 89269.0 81606.0 244858.0 236634.0 70059.0 62154.0 155707.0 152584.0 275258.0 267023.0 50000.0 44166.0 95726.0 97979.0 57220.0 49280.0 176998.0 181405.0 24395.0 32408.0 69772.0 64686.0 125966.0 124702.0 53735.0 46323.0 250507.0 257804.0 44048.0 46939.0 145387.0 146566.0 161671.0 163354.0 128618.0 126520.0 98720.0 90839.0 90348.0 91411.0 111483.0 103687.0 88751.0 82397.0 126675.0 128876.0 32145.0 38101.0 78729.0 78903.0 6245.0 13770.0 39467.0 47769.0 85898.0 85957.0 123169.0 118152.0 118036.0 112731.0 160688.0 154132.0 206645.0 212810.0 44324.0 52139.0 248089.0 249972.0 34839.0 32677.0 90597.0 82303.0 34141.0 39224.0 216094.0 209306.0 154236.0 147631.0 177451.0 175993.0 79796.0 78361.0 64423.0 72174.0 108545.0 107228.0 89984.0 92090.0 112397.0 114762.0 117412.0 111571.0 50762.0 58464.0 208977.0 201979.0 18337.0 23631.0 36829.0 34663.0 145889.0 153358.0 284216.0 276352.0 167226.0 166613.0 71010.0 75925.0 21588.0 14426.0 41220.0 40051.0 148526.0 144624.0 131247.0 130672.0 124087.0 126159.0 190153.0 182541.0 43368.0 49757.0 63205.0 69591.0 6381.0 7806.0 126154.0 133029.0 114170.0 114024.0 29463.0 25050.0 55458.0 61781.0 132179.0 127123.0 82607.0 74362.0 98014.0 93774.0 28256.0 35795.0 141091.0 140370.0 54158.0 57250.0 71546.0 64570.0 121091.0 128765.0 121091.0 121091.0 128765.0 128765.0
276656.0 278294.0 291983.0 298363.0 78375.0 86119.0 0.0 8042.0 32976.0 41062.0 352443.0 350536.0 4510.0 6409.0 319148.0 310981.0 155646.0 147881.0 183517.0 184246.0 355098.0 346911.0 37951.0 45742.0 16000.0 23552.0 142622.0 134909.0 247984.0 253800.0 63767.0 57023.0 119321.0 111358.0 56327.0 50909.0 81951.0 82777.0 327188.0 334870.0 114093.0 110914.0 96329.0 101994.0 196538.0 194603.0 52442.0 46995.0 77378.0 74554.0 136206.0 131966.0 59345.0 56662.0 78635.0 70760.0 95298.0 102101.0 108129.0 108960.0 161721.0 163291.0 82267.0 74993.0 125195.0 133211.0 112189.0 106102.0 70489.0 62618.0 171251.0 163812.0 243967.0 237943.0 282600.0 287819.0 49142.0 45805.0 324634.0 325473.0 84738.0 76958.0 22592.0 20944.0 119857.0 125341.0 297975.0 291674.0 236318.0 230371.0 254415.0 254404.0 67971.0 75023.0 62735.0 61829.0 123886.0 117169.0 56453.0 64679.0 104104.0 100042.0 45521.0 44899.0 54144.0 49080.0 289527.0 283065.0 103076.0 109576.0 56131.0 63709.0 72858.0 78669.0 363565.0 355908.0 249097.0 249406.0 103766.0 112027.0 107130.0 99314.0 125908.0 122402.0 81132.0 81523.0 92730.0 86906.0 207592.0 210568.0 272813.0 265398.0 118447.0 120317.0 124766.0 133015.0 89518.0 81348.0 196802.0 204580.0 77480.0 71317.0 99937.0 91977.0 120285.0 127369.0 172996.0 171598.0 42730.0 41556.0 39487.0 43936.0 61013.0 56768.0 195823.0 191865.0 71841.0 64413.0 81461.0 82823.0 109849.0 197172.0 109849.0 109849.0 197172.0 197172.0
270781.0 272256.0 285267.0 291721.0 70774.0 78490.0 8042.0 0.0 25063.0 33147.0 346599.0 344738.0 10790.0 3633.0 313350.0 305182.0 148212.0 140409.0 177450.0 177949.0 348694.0 340495.0 31337.0 39330.0 19698.0 25682.0 135213.0 127448.0 242462.0 248144.0 55865.0 49030.0 111684.0 103730.0 62746.0 57806.0 74423.0 75005.0 321162.0 328804.0 107810.0 104988.0 100947.0 106200.0 190125.0 188394.0 59691.0 54607.0 78026.0 74427.0 128844.0 124785.0 63281.0 59679.0 73432.0 65308.0 97822.0 104281.0 101361.0 102536.0 154685.0 156072.0 74497.0 67141.0 117703.0 125783.0 105425.0 99560.0 74932.0 67189.0 163809.0 156420.0 237000.0 230889.0 276606.0 281940.0 43214.0 40876.0 318621.0 319585.0 78855.0 70967.0 26639.0 22454.0 112361.0 117709.0 291253.0 284876.0 229514.0 223470.0 248262.0 248083.0 62378.0 69068.0 55964.0 55705.0 117978.0 111510.0 57390.0 65362.0 99607.0 96038.0 48315.0 46348.0 49496.0 45373.0 282980.0 276441.0 95657.0 102019.0 49782.0 57599.0 79962.0 86004.0 357232.0 349542.0 242335.0 242516.0 96543.0 104795.0 99369.0 91530.0 118577.0 115298.0 87674.0 87559.0 96025.0 90681.0 200559.0 203396.0 265960.0 258511.0 111873.0 114090.0 116863.0 125108.0 81740.0 73547.0 191146.0 198868.0 80062.0 74442.0 93353.0 85370.0 114472.0 121606.0 166123.0 164537.0 43259.0 40549.0 43257.0 46462.0 54032.0 50341.0 188411.0 184577.0 64409.0 57164.0 74833.0 75767.0 109735.0 191730.0 109735.0 109735.0 191730.0 191730.0
249839.0 250884.0 262196.0 268820.0 46116.0 53745.0 32976.0 25063.0 0.0 8087.0 325621.0 323969.0 35731.0 27974.0 292587.0 284419.0 123720.0 115855.0 163862.0 163374.0 326312.0 318092.0 14443.0 21121.0 42128.0 45225.0 110790.0 102932.0 222533.0 227837.0 30803.0 24159.0 91044.0 83255.0 82012.0 78535.0 55283.0 54028.0 299747.0 307280.0 86517.0 84833.0 113870.0 117745.0 174946.0 174109.0 81356.0 77448.0 80163.0 74456.0 109642.0 106611.0 75857.0 70039.0 66326.0 57798.0 104598.0 109788.0 78704.0 80884.0 131055.0 132021.0 49524.0 42090.0 93143.0 101338.0 89745.0 85130.0 88258.0 81254.0 143891.0 136820.0 213401.0 207103.0 255338.0 260964.0 26525.0 29032.0 297244.0 298528.0 59463.0 51500.0 43899.0 36255.0 87802.0 92894.0 268161.0 261618.0 206301.0 200038.0 226634.0 226026.0 54524.0 58946.0 42824.0 46078.0 105957.0 100726.0 62171.0 68588.0 93910.0 92337.0 66405.0 61935.0 37055.0 37247.0 260314.0 253597.0 71309.0 77359.0 30329.0 38448.0 100812.0 107517.0 335014.0 327253.0 219204.0 219084.0 78639.0 86664.0 74387.0 66527.0 94355.0 91633.0 106664.0 105034.0 105164.0 101434.0 176851.0 179381.0 242591.0 235070.0 89677.0 92891.0 94273.0 102442.0 56749.0 48535.0 171037.0 178568.0 87814.0 84068.0 71339.0 63412.0 94520.0 101715.0 149052.0 146575.0 48959.0 42441.0 57224.0 56937.0 31667.0 30499.0 168528.0 165357.0 46390.0 40928.0 60990.0 59520.0 111434.0 172222.0 111434.0 111434.0 172222.0 172222.0
243398.0 244282.0 254941.0 261628.0 38342.0 45894.0 41062.0 33147.0 8087.0 0.0 319126.0 317593.0 43794.0 36022.0 286205.0 278038.0 115936.0 108045.0 159847.0 159012.0 319298.0 311072.0 15306.0 19198.0 49836.0 52439.0 103046.0 95150.0 216497.0 221653.0 22718.0 16199.0 84728.0 77056.0 88975.0 85826.0 50028.0 47922.0 293102.0 300591.0 80276.0 79113.0 119062.0 122537.0 170335.0 169815.0 88826.0 85161.0 82718.0 76485.0 103798.0 101181.0 81341.0 75074.0 65678.0 57284.0 108166.0 112933.0 71872.0 74513.0 123651.0 124431.0 41524.0 34027.0 85346.0 93591.0 85423.0 81350.0 93772.0 87029.0 137655.0 130722.0 205956.0 199585.0 248772.0 254503.0 24666.0 29297.0 290614.0 292015.0 54410.0 46587.0 50989.0 43068.0 80010.0 84965.0 260896.0 254291.0 199013.0 192666.0 219951.0 219179.0 54013.0 57409.0 40777.0 45301.0 102847.0 98121.0 65928.0 71725.0 93191.0 92319.0 72989.0 68026.0 36220.0 38178.0 253215.0 246432.0 63652.0 69524.0 26406.0 34177.0 108036.0 114871.0 328059.0 320273.0 211943.0 211704.0 73552.0 81401.0 66369.0 58497.0 86724.0 84275.0 113434.0 111445.0 109395.0 106143.0 169379.0 171780.0 235227.0 227680.0 83009.0 86655.0 87145.0 95260.0 48731.0 40507.0 165006.0 172450.0 91862.0 88679.0 64866.0 57036.0 88819.0 95995.0 143844.0 141052.0 53444.0 46257.0 63368.0 62307.0 25727.0 26318.0 162253.0 159327.0 41919.0 37567.0 57908.0 55464.0 112936.0 166420.0 112936.0 112936.0 166420.0 166420.0
75824.0 75065.0 82346.0 74423.0 283243.0 277082.0 352443.0 346599.0 325621.0 319126.0 0.0 7961.0 356646.0 350204.0 36574.0 42924.0 214654.0 222055.0 377384.0 370097.0 37772.0 38521.0 315403.0 307342.0 366126.0 370547.0 224730.0 232460.0 106350.0 99269.0 300912.0 308843.0 311682.0 313479.0 365923.0 369114.0 322942.0 315249.0 27746.0 22520.0 239150.0 241611.0 358191.0 354694.0 370377.0 376995.0 374359.0 376523.0 310805.0 305071.0 321983.0 328830.0 342239.0 334759.0 361582.0 356821.0 330391.0 327740.0 247377.0 244737.0 200227.0 202601.0 283052.0 290852.0 241323.0 233102.0 340209.0 344845.0 348535.0 348451.0 319271.0 321393.0 128362.0 136374.0 70449.0 64675.0 303420.0 306852.0 29764.0 27124.0 267763.0 275633.0 344912.0 338563.0 245908.0 244852.0 78765.0 86631.0 129139.0 137038.0 99663.0 101886.0 354707.0 351350.0 340046.0 348018.0 361937.0 365130.0 320192.0 315280.0 379601.0 384376.0 392011.0 387123.0 298954.0 305394.0 76763.0 84784.0 258956.0 255890.0 296908.0 289005.0 383628.0 391357.0 34804.0 35142.0 117085.0 121241.0 328029.0 327300.0 263076.0 269871.0 237423.0 237087.0 379254.0 371921.0 339510.0 344160.0 160087.0 162068.0 102077.0 108962.0 236133.0 232794.0 295270.0 292696.0 277444.0 284547.0 155801.0 147938.0 329663.0 335094.0 254306.0 262212.0 232167.0 225074.0 345738.0 337709.0 324284.0 319066.0 341557.0 333733.0 293964.0 296418.0 323832.0 330333.0 327552.0 332620.0 341714.0 333670.0 314170.0 157477.0 314170.0 314170.0 157477.0 157477.0
74256.0 74383.0 85659.0 77899.0 282076.0 276051.0 350536.0 344738.0 323969.0 317593.0 7961.0 0.0 354750.0 348348.0 32798.0 40042.0 214693.0 221979.0 379251.0 372040.0 45511.0 45743.0 313580.0 305513.0 364291.0 368768.0 224461.0 232106.0 104410.0 97329.0 299730.0 307627.0 312281.0 313880.0 363983.0 367174.0 322639.0 314910.0 29861.0 26510.0 237453.0 239754.0 356250.0 352754.0 372589.0 379109.0 372419.0 374583.0 308865.0 303131.0 323027.0 329770.0 340299.0 332819.0 361205.0 356289.0 328451.0 325800.0 245990.0 243113.0 199815.0 202486.0 282071.0 289818.0 240822.0 232675.0 340668.0 345154.0 346595.0 346511.0 321170.0 323109.0 130024.0 138030.0 69625.0 63242.0 301543.0 304922.0 31355.0 26905.0 265887.0 273774.0 343013.0 336634.0 245315.0 244518.0 82508.0 90198.0 130072.0 138031.0 98995.0 101843.0 354119.0 350932.0 339346.0 347304.0 362582.0 365604.0 318251.0 313339.0 379670.0 384306.0 390374.0 385617.0 297014.0 303461.0 79236.0 87184.0 258015.0 255180.0 295089.0 287158.0 381688.0 389416.0 42765.0 42934.0 118355.0 122907.0 328286.0 327758.0 262534.0 269206.0 236758.0 236140.0 377313.0 369981.0 337570.0 342220.0 160702.0 163065.0 104720.0 111336.0 234682.0 231082.0 295917.0 293555.0 276595.0 283577.0 153863.0 145999.0 327723.0 333154.0 252731.0 260599.0 230279.0 223172.0 347586.0 339561.0 322344.0 317126.0 339617.0 331793.0 292303.0 294555.0 326304.0 332687.0 327022.0 331933.0 341454.0 333433.0 312230.0 155537.0 312230.0 312230.0 155537.0 155537.0
280847.0 282434.0 295842.0 302259.0 81559.0 89269.0 4510.0 10790.0 35731.0 43794.0 356646.0 354750.0 0.0 7807.0 323362.0 315194.0 159001.0 151199.0 182437.0 183360.0 359104.0 350911.0 41794.0 49685.0 11595.0 19362.0 146000.0 138238.0 252268.0 258051.0 66499.0 59507.0 120032.0 112062.0 57569.0 51695.0 82549.0 83791.0 331334.0 339003.0 118129.0 115072.0 98742.0 104629.0 195748.0 193635.0 52781.0 46796.0 81411.0 78762.0 136487.0 132020.0 62245.0 59989.0 77077.0 69406.0 98712.0 105632.0 111946.0 112939.0 165388.0 166829.0 85229.0 77819.0 128494.0 136572.0 111810.0 105521.0 73074.0 65163.0 171617.0 164111.0 247682.0 241601.0 286755.0 292010.0 53260.0 50151.0 328784.0 329662.0 88900.0 81082.0 25859.0 25081.0 123151.0 128484.0 301830.0 295489.0 240128.0 234125.0 258514.0 258441.0 66731.0 74027.0 62507.0 61030.0 122737.0 115840.0 60461.0 68729.0 102030.0 97696.0 41087.0 40699.0 58543.0 53567.0 293468.0 286969.0 106444.0 112806.0 60113.0 67785.0 73291.0 78777.0 367600.0 359930.0 252930.0 253167.0 103910.0 112168.0 110100.0 102249.0 129354.0 126020.0 82151.0 82994.0 95830.0 89793.0 211263.0 214143.0 276597.0 269162.0 122362.0 124375.0 126033.0 134287.0 92465.0 84260.0 201049.0 208813.0 80908.0 74544.0 103843.0 95869.0 124479.0 131578.0 172667.0 171476.0 46883.0 45962.0 42605.0 47523.0 64694.0 60719.0 196134.0 192009.0 72331.0 64694.0 81019.0 82817.0 114021.0 201470.0 114021.0 114021.0 201470.0 201470.0
274385.0 275845.0 288740.0 295212.0 73917.0 81606.0 6409.0 3633.0 27974.0 36022.0 350204.0 348348.0 7807.0 0.0 316959.0 308792.0 151430.0 143608.0 177307.0 177971.0 352230.0 344029.0 34895.0 42908.0 16065.0 22189.0 138448.0 130655.0 246087.0 251763.0 58714.0 51701.0 112985.0 105019.0 62581.0 57275.0 75586.0 76518.0 324750.0 332388.0 111379.0 108596.0 101889.0 107353.0 190235.0 188353.0 58850.0 53376.0 80565.0 77197.0 129807.0 125557.0 64522.0 61320.0 72700.0 64724.0 99711.0 106309.0 104840.0 106084.0 158075.0 159394.0 77494.0 70048.0 120896.0 129010.0 105811.0 99762.0 75943.0 68126.0 164861.0 157415.0 240406.0 234267.0 280199.0 285543.0 46834.0 44493.0 322211.0 323187.0 82469.0 74574.0 27681.0 24465.0 115552.0 120805.0 294724.0 288329.0 232968.0 226897.0 251837.0 251636.0 61882.0 68822.0 56347.0 55571.0 117717.0 111082.0 59803.0 67873.0 98492.0 94668.0 44801.0 43047.0 53101.0 48876.0 286491.0 279936.0 98898.0 105174.0 53360.0 61200.0 79258.0 85078.0 360779.0 353085.0 245799.0 245945.0 97358.0 105619.0 102360.0 94501.0 121855.0 118672.0 87431.0 87670.0 97592.0 92028.0 203945.0 206731.0 269399.0 261940.0 115392.0 117665.0 118611.0 126864.0 84722.0 76510.0 194766.0 202485.0 81912.0 76061.0 96875.0 88889.0 118086.0 125223.0 166607.0 165192.0 45763.0 43489.0 44525.0 48268.0 57477.0 53908.0 189428.0 185458.0 65457.0 58008.0 75100.0 76415.0 112529.0 195359.0 112529.0 112529.0 195359.0 195359.0
43162.0 45141.0 68957.0 62618.0 250796.0 244858.0 319148.0 313350.0 292587.0 286205.0 36574.0 32798.0 323362.0 316959.0 0.0 8282.0 185129.0 192171.0 353423.0 346432.0 60542.0 56123.0 282191.0 274125.0 332903.0 337413.0 194300.0 201777.0 73021.0 65941.0 268437.0 276316.0 283560.0 284753.0 332594.0 335785.0 292227.0 284450.0 24271.0 30237.0 206073.0 208366.0 324862.0 321365.0 347738.0 353965.0 341031.0 343194.0 277477.0 271743.0 295263.0 301753.0 308911.0 301430.0 330633.0 325527.0 297062.0 294411.0 214629.0 211725.0 169490.0 172679.0 250911.0 258616.0 210242.0 202224.0 311609.0 315794.0 315206.0 315123.0 295577.0 297013.0 105318.0 113139.0 40278.0 32831.0 270155.0 273534.0 22567.0 16121.0 234499.0 242386.0 311625.0 305245.0 214598.0 214192.0 67941.0 74217.0 103285.0 111265.0 69044.0 73199.0 323299.0 320304.0 308411.0 316349.0 333868.0 336538.0 286863.0 281951.0 349823.0 354211.0 358991.0 354230.0 265625.0 272073.0 59713.0 66740.0 226904.0 224304.0 263700.0 255770.0 350300.0 358028.0 63039.0 59066.0 92764.0 98389.0 298855.0 298718.0 231858.0 238366.0 205963.0 205042.0 345925.0 338592.0 306182.0 310831.0 132704.0 135981.0 84170.0 89529.0 203308.0 199703.0 267337.0 265445.0 245552.0 252427.0 122474.0 114611.0 296335.0 301765.0 221342.0 229212.0 198891.0 191783.0 321777.0 313786.0 290956.0 285737.0 308229.0 300405.0 260920.0 263225.0 302363.0 308365.0 296285.0 301016.0 311089.0 303115.0 280842.0 124149.0 280842.0 280842.0 124149.0 124149.0
34974.0 36872.0 62661.0 56794.0 242629.0 236634.0 310981.0 305182.0 284419.0 278038.0 42924.0 40042.0 315194.0 308792.0 8282.0 0.0 176874.0 183932.0 345210.0 338233.0 62504.0 57170.0 274024.0 265957.0 324736.0 329246.0 186089.0 193584.0 64854.0 57773.0 260270.0 268149.0 275283.0 276486.0 324427.0 327618.0 284053.0 276282.0 25194.0 32462.0 197906.0 200199.0 316695.0 313198.0 339589.0 345794.0 332864.0 335027.0 269310.0 263576.0 286984.0 293472.0 300744.0 293263.0 322483.0 317366.0 288895.0 286244.0 206462.0 203558.0 161291.0 164437.0 242697.0 250387.0 202070.0 194044.0 303341.0 307539.0 307039.0 306955.0 287384.0 288791.0 97317.0 105102.0 32013.0 24552.0 261988.0 265366.0 22884.0 18508.0 226332.0 234219.0 303458.0 297078.0 206431.0 206001.0 62160.0 67989.0 95087.0 103062.0 60777.0 64927.0 315129.0 312160.0 300234.0 308170.0 325592.0 328271.0 278696.0 273784.0 341599.0 346009.0 350824.0 346063.0 257458.0 263906.0 52958.0 59666.0 218705.0 216134.0 255533.0 247602.0 342133.0 349861.0 66179.0 61365.0 84692.0 90427.0 290603.0 290449.0 223693.0 230197.0 197796.0 196848.0 337758.0 330425.0 298014.0 302664.0 124431.0 127743.0 76892.0 81997.0 195140.0 191536.0 259057.0 257163.0 237365.0 244215.0 114307.0 106444.0 288167.0 293598.0 213175.0 221044.0 190723.0 183616.0 313569.0 305581.0 282789.0 277570.0 300062.0 292238.0 252753.0 255057.0 294295.0 300263.0 288123.0 292841.0 302911.0 294931.0 272674.0 115982.0 272674.0 272674.0 115982.0 115982.0
142055.0 140489.0 142423.0 149706.0 77610.0 70059.0 155646.0 148212.0 123720.0 115936.0 214654.0 214693.0 159001.0 151430.0 185129.0 176874.0 0.0 7999.0 176422.0 170544.0 208657.0 200455.0 118341.0 111342.0 165772.0 167974.0 13067.0 20788.0 123513.0 125754.0 94143.0 102030.0 99004.0 99716.0 189256.0 189457.0 108721.0 101176.0 187248.0 194026.0 54942.0 62728.0 198399.0 197283.0 175075.0 179754.0 193927.0 193050.0 147979.0 140240.0 112858.0 118529.0 170512.0 162322.0 147454.0 143281.0 174037.0 173414.0 52319.0 56264.0 18774.0 12788.0 74900.0 82843.0 30592.0 22435.0 126583.0 130665.0 180629.0 177391.0 122273.0 121160.0 92064.0 85046.0 145324.0 152361.0 109738.0 116348.0 185014.0 187932.0 80640.0 85779.0 157230.0 149175.0 35926.0 31883.0 148209.0 141041.0 87137.0 79868.0 116115.0 112860.0 141435.0 137393.0 127527.0 135495.0 149120.0 151483.0 147082.0 146117.0 164982.0 169730.0 186878.0 180648.0 111617.0 119773.0 142487.0 135047.0 52570.0 46443.0 101887.0 96176.0 209110.0 216888.0 217965.0 209991.0 100071.0 98424.0 113730.0 113724.0 51169.0 58864.0 30015.0 35535.0 209293.0 203906.0 181291.0 183256.0 55928.0 56773.0 121802.0 114081.0 47070.0 52282.0 83189.0 82620.0 68044.0 76144.0 80048.0 84094.0 166562.0 169002.0 61382.0 68009.0 60221.0 58814.0 146002.0 138535.0 144080.0 136417.0 161285.0 155386.0 95182.0 101003.0 137397.0 140746.0 114216.0 120115.0 127331.0 119254.0 160498.0 85675.0 160498.0 160498.0 85675.0 85675.0
149045.0 147689.0 150314.0 157564.0 69739.0 62154.0 147881.0 140409.0 115855.0 108045.0 222055.0 221979.0 151199.0 143608.0 192171.0 183932.0 7999.0 0.0 171755.0 166096.0 216470.0 208263.0 110693.0 103786.0 157879.0 160028.0 5989.0 12978.0 129608.0 132151.0 86185.0 94060.0 92699.0 93025.0 182278.0 182318.0 101074.0 93483.0 194715.0 201554.0 49858.0 57822.0 192525.0 191644.0 171109.0 175526.0 186731.0 185710.0 142225.0 134413.0 107338.0 112717.0 163929.0 155748.0 139799.0 135515.0 168634.0 168292.0 45894.0 50515.0 23723.0 19504.0 66938.0 74871.0 22714.0 14785.0 119866.0 123721.0 174238.0 170809.0 118663.0 117096.0 100006.0 93021.0 152509.0 159455.0 102322.0 109062.0 192459.0 195266.0 74126.0 78922.0 149832.0 141738.0 28058.0 23896.0 156113.0 148973.0 94914.0 87712.0 123228.0 120196.0 133633.0 129695.0 119644.0 127618.0 142591.0 144709.0 140586.0 139902.0 157722.0 162340.0 178887.0 172650.0 104570.0 112747.0 150257.0 142856.0 44831.0 38526.0 94456.0 88943.0 202172.0 209926.0 225751.0 217783.0 107872.0 106330.0 106753.0 107060.0 43174.0 50865.0 22698.0 29041.0 202626.0 197389.0 175654.0 177370.0 63779.0 64758.0 129735.0 122019.0 41868.0 47949.0 77185.0 77192.0 60060.0 68172.0 84613.0 89168.0 160619.0 162815.0 54854.0 61145.0 56387.0 55874.0 141731.0 134416.0 137161.0 129413.0 154247.0 148496.0 87580.0 93556.0 134884.0 137817.0 106403.0 112226.0 119748.0 111682.0 155671.0 89876.0 155671.0 155671.0 89876.0 89876.0
311953.0 308438.0 296366.0 304417.0 157167.0 155707.0 183517.0 177450.0 163862.0 159847.0 377384.0 379251.0 182437.0 177307.0 353423.0 345210.0 176422.0 171755.0 0.0 8118.0 361249.0 353718.0 175051.0 176618.0 177340.0 171420.0 172654.0 168017.0 298423.0 299570.0 150900.0 149723.0 86422.0 91022.0 239841.0 234129.0 110629.0 115021.0 349770.0 355138.0 194080.0 199583.0 277174.0 281459.0 18123.0 12134.0 234961.0 228282.0 242108.0 235373.0 66812.0 64390.0 239008.0 233718.0 105967.0 113140.0 268011.0 272639.0 181461.0 189225.0 195047.0 188966.0 151282.0 149519.0 164209.0 168890.0 74488.0 78746.0 251231.0 243803.0 58119.0 56481.0 249232.0 241231.0 313261.0 321004.0 181075.0 187832.0 348007.0 352576.0 190141.0 186270.0 203729.0 197721.0 162909.0 158108.0 300987.0 292930.0 250144.0 242160.0 285826.0 280542.0 115720.0 108494.0 122106.0 121761.0 59719.0 67004.0 225736.0 231518.0 86211.0 93535.0 169728.0 162113.0 192552.0 196852.0 300701.0 292669.0 162970.0 158920.0 177939.0 181704.0 255451.0 260350.0 371164.0 363320.0 261140.0 256346.0 87626.0 80904.0 150017.0 149012.0 170481.0 176901.0 264570.0 264963.0 269010.0 265222.0 221448.0 217529.0 275705.0 268555.0 189474.0 197868.0 97637.0 95322.0 150003.0 150197.0 256317.0 260513.0 251585.0 247911.0 183029.0 180439.0 206003.0 210540.0 31671.0 39691.0 212813.0 206009.0 219463.0 220426.0 170380.0 177146.0 60045.0 51925.0 117930.0 122945.0 103247.0 104433.0 270462.0 261626.0 270462.0 270462.0 261626.0 261626.0
305120.0 301498.0 288931.0 296984.0 154416.0 152584.0 184246.0 177949.0 163374.0 159012.0 370097.0 372040.0 183360.0 177971.0 346432.0 338233.0 170544.0 166096.0 8118.0 0.0 353661.0 346158.0 174113.0 175315.0 178732.0 173073.0 167202.0 162809.0 292058.0 293070.0 148997.0 148243.0 82912.0 88050.0 240553.0 235033.0 109341.0 113259.0 342511.0 347818.0 190009.0 195721.0 277033.0 281110.0 13011.0 10896.0 236046.0 229539.0 240848.0 233972.0 62750.0 61216.0 238882.0 233380.0 107569.0 114388.0 267071.0 271502.0 177470.0 185292.0 189233.0 183005.0 148383.0 147023.0 159357.0 163758.0 73643.0 78584.0 251173.0 243840.0 50887.0 49855.0 242043.0 234050.0 306312.0 314080.0 179621.0 186563.0 340770.0 345403.0 187219.0 183636.0 204019.0 197784.0 158270.0 153204.0 293510.0 285449.0 243148.0 235171.0 279033.0 273650.0 116820.0 109337.0 122232.0 122418.0 61167.0 68919.0 224937.0 230503.0 89417.0 97009.0 172411.0 164674.0 190969.0 195552.0 293381.0 285350.0 159057.0 154704.0 176167.0 179609.0 256560.0 261649.0 363578.0 355748.0 254031.0 249151.0 86009.0 78862.0 145900.0 145273.0 165656.0 172283.0 265376.0 265508.0 268370.0 264808.0 214690.0 210628.0 268326.0 261215.0 185166.0 193609.0 93143.0 90280.0 146746.0 147356.0 250543.0 254588.0 250868.0 247428.0 179392.0 177113.0 201881.0 206228.0 24800.0 32697.0 212241.0 205260.0 219503.0 220164.0 168391.0 175344.0 51929.0 43817.0 117141.0 122580.0 103299.0 103856.0 268692.0 255959.0 268692.0 268692.0 255959.0 255959.0
84356.0 79828.0 66796.0 59138.0 282003.0 275258.0 355098.0 348694.0 326312.0 319298.0 37772.0 45511.0 359104.0 352230.0 60542.0 62504.0 208657.0 216470.0 361249.0 353661.0 0.0 8235.0 317363.0 309421.0 367838.0 371536.0 220012.0 228019.0 117041.0 109278.0 299566.0 307585.0 301820.0 304526.0 372490.0 375535.0 317217.0 309759.0 37325.0 30334.0 241011.0 244634.0 364784.0 361288.0 352728.0 359748.0 380746.0 382597.0 317399.0 311665.0 309968.0 317245.0 348813.0 341353.0 355918.0 351927.0 336985.0 334334.0 247633.0 246168.0 196658.0 197576.0 280926.0 288895.0 237442.0 228994.0 330773.0 336077.0 355129.0 354969.0 303349.0 306293.0 117335.0 124984.0 76524.0 74284.0 306006.0 310306.0 39744.0 44580.0 270668.0 278271.0 349891.0 342996.0 242397.0 240126.0 61399.0 69235.0 121574.0 128799.0 101650.0 100780.0 350091.0 345957.0 336065.0 344049.0 351489.0 355457.0 326732.0 321865.0 371732.0 377131.0 392183.0 386689.0 302930.0 309944.0 66330.0 73615.0 256922.0 252797.0 298991.0 291409.0 390186.0 397890.0 9922.0 2881.0 108600.0 110584.0 319626.0 317968.0 259091.0 266390.0 234376.0 235389.0 385848.0 378515.0 346104.0 350754.0 152736.0 152836.0 87943.0 95641.0 236861.0 234821.0 285327.0 281789.0 274748.0 282347.0 162168.0 154187.0 336257.0 341688.0 255367.0 263355.0 235661.0 228859.0 329872.0 321873.0 330239.0 324586.0 347715.0 340018.0 294987.0 298389.0 305284.0 312277.0 322868.0 328635.0 335638.0 327549.0 320764.0 164164.0 320764.0 320764.0 164164.0 164164.0
76973.0 72147.0 58739.0 51018.0 273770.0 267023.0 346911.0 340495.0 318092.0 311072.0 38521.0 45743.0 350911.0 344029.0 56123.0 57170.0 200455.0 208263.0 353718.0 346158.0 8235.0 0.0 309166.0 301228.0 359630.0 363317.0 211791.0 219797.0 109680.0 101845.0 291332.0 299351.0 293792.0 296454.0 364525.0 367530.0 309034.0 301569.0 32114.0 26140.0 232829.0 236483.0 356850.0 353353.0 345356.0 352334.0 372734.0 374547.0 309464.0 303730.0 302072.0 309322.0 340894.0 333412.0 347740.0 343730.0 329050.0 326399.0 239417.0 237974.0 188425.0 189355.0 272691.0 280661.0 229215.0 220768.0 322732.0 328006.0 347194.0 347070.0 295771.0 298639.0 109217.0 116895.0 68999.0 67162.0 297825.0 302149.0 34295.0 40002.0 262504.0 270098.0 341776.0 334862.0 234167.0 231910.0 53428.0 61327.0 113360.0 120605.0 93637.0 92635.0 341888.0 337770.0 327850.0 335833.0 343509.0 347435.0 318760.0 313938.0 363630.0 369006.0 383953.0 378456.0 294791.0 301823.0 58100.0 65409.0 248687.0 244565.0 290800.0 283227.0 382275.0 389988.0 17704.0 9697.0 100391.0 102439.0 311534.0 309918.0 250867.0 258162.0 226143.0 227155.0 377913.0 370580.0 338169.0 342819.0 144539.0 144693.0 79904.0 87582.0 228655.0 226645.0 277297.0 273810.0 266515.0 274113.0 154244.0 146271.0 328322.0 333753.0 247163.0 255151.0 227529.0 220741.0 322301.0 314296.0 322186.0 316503.0 339678.0 331996.0 286776.0 290195.0 297994.0 304932.0 314663.0 320419.0 327468.0 319378.0 312829.0 156343.0 312829.0 312829.0 156343.0 156343.0
239579.0 240976.0 254056.0 260465.0 42258.0 50000.0 37951.0 31337.0 14443.0 15306.0 315403.0 313580.0 41794.0 34895.0 282191.0 274024.0 118341.0 110693.0 175051.0 174113.0 317363.0 309166.0 0.0 8076.0 50726.0 55447.0 105279.0 97723.0 211534.0 217098.0 31447.0 27827.0 98495.0 91005.0 77714.0 75563.0 64906.0 62188.0 289882.0 297510.0 76485.0 73845.0 104796.0 107931.0 185330.0 184935.0 79159.0 76635.0 67413.0 61228.0 118024.0 115767.0 67548.0 60847.0 80194.0 71708.0 92975.0 97654.0 70180.0 71201.0 123829.0 125569.0 47232.0 41117.0 88137.0 95938.0 100589.0 96628.0 79936.0 73562.0 151364.0 144613.0 206034.0 200047.0 245343.0 250733.0 12777.0 14648.0 287347.0 288368.0 47830.0 39869.0 40899.0 32592.0 82834.0 88832.0 260046.0 253728.0 198370.0 192423.0 216947.0 216747.0 68426.0 72326.0 55825.0 59831.0 118151.0 113376.0 50880.0 56473.0 107781.0 106487.0 77634.0 74024.0 22633.0 23178.0 251682.0 245175.0 65898.0 72839.0 18495.0 26468.0 97337.0 104544.0 325895.0 318207.0 211156.0 211458.0 88426.0 96150.0 71538.0 64016.0 88426.0 84585.0 101517.0 98821.0 94463.0 91512.0 169690.0 172770.0 234863.0 227449.0 80572.0 82776.0 99509.0 107446.0 54368.0 46644.0 160129.0 167800.0 76872.0 74030.0 62052.0 54076.0 83405.0 90572.0 158525.0 155498.0 38938.0 31374.0 50743.0 48568.0 23219.0 19016.0 175867.0 173251.0 57130.0 52863.0 73200.0 70725.0 97835.0 160920.0 97835.0 97835.0 160920.0 160920.0
231519.0 232939.0 246250.0 252621.0 36590.0 44166.0 45742.0 39330.0 21121.0 19198.0 307342.0 305513.0 49685.0 42908.0 274125.0 265957.0 111342.0 103786.0 176618.0 175315.0 309421.0 301228.0 8076.0 0.0 58783.0 63513.0 98275.0 90846.0 203459.0 209023.0 28764.0 27229.0 97745.0 90515.0 82063.0 80559.0 66009.0 62387.0 281845.0 289480.0 68484.0 65773.0 106012.0 108563.0 186228.0 186182.0 84452.0 82503.0 65533.0 58771.0 117734.0 116016.0 69696.0 62476.0 84851.0 76475.0 92111.0 96226.0 62459.0 63254.0 116296.0 118236.0 42146.0 36923.0 81373.0 89005.0 102171.0 98763.0 81908.0 76036.0 150330.0 143809.0 198398.0 192485.0 237299.0 242674.0 5523.0 11261.0 279308.0 280312.0 39756.0 31793.0 46520.0 38263.0 76114.0 82408.0 252244.0 245968.0 190621.0 184741.0 208931.0 208776.0 73206.0 76420.0 59714.0 64484.0 120776.0 116458.0 50930.0 55526.0 112331.0 111517.0 85657.0 81929.0 17065.0 20240.0 243795.0 237323.0 59148.0 66357.0 10452.0 18392.0 101913.0 109306.0 317931.0 310253.0 203380.0 203764.0 89327.0 96767.0 65743.0 58466.0 81353.0 77190.0 105220.0 101949.0 94450.0 92178.0 162123.0 165336.0 227140.0 219751.0 72705.0 74760.0 97425.0 105166.0 49053.0 41770.0 152054.0 159725.0 76810.0 74785.0 54196.0 46241.0 75329.0 82496.0 158814.0 155408.0 40545.0 32430.0 54388.0 51082.0 16283.0 11034.0 174672.0 172418.0 59170.0 55891.0 76144.0 72878.0 94554.0 152851.0 94554.0 94554.0 152851.0 152851.0
290302.0 291691.0 304081.0 310626.0 88171.0 95726.0 16000.0 19698.0 42128.0 49836.0 366126.0 364291.0 11595.0 16065.0 332903.0 324736.0 165772.0 157879.0 177340.0 178732.0 367838.0 359630.0 50726.0 58783.0 0.0 8154.0 152874.0 144985.0 262108.0 267753.0 72048.0 64525.0 119700.0 111766.0 64576.0 57898.0 82275.0 84581.0 340596.0 348213.0 127164.0 124540.0 107640.0 113908.0 191327.0 188784.0 58008.0 50999.0 92809.0 90303.0 134949.0 129925.0 72166.0 70561.0 71391.0 64349.0 109301.0 116384.0 120275.0 121791.0 173112.0 174148.0 91195.0 83476.0 135182.0 143419.0 108745.0 101991.0 82408.0 74484.0 170158.0 162508.0 255468.0 249209.0 296064.0 301457.0 62847.0 60525.0 338063.0 339094.0 98446.0 90527.0 36668.0 36621.0 129846.0 134715.0 310056.0 303581.0 248236.0 242054.0 267628.0 267324.0 62011.0 69799.0 60473.0 57563.0 117683.0 110385.0 71853.0 80150.0 94859.0 89906.0 29522.0 29260.0 69095.0 64579.0 301996.0 295371.0 113427.0 119357.0 69221.0 77135.0 78344.0 83016.0 376438.0 368721.0 261108.0 261103.0 102234.0 110421.0 115916.0 108013.0 136481.0 133682.0 88382.0 90155.0 105932.0 99561.0 218939.0 221508.0 284592.0 277094.0 130978.0 133474.0 127118.0 135340.0 98327.0 90092.0 210763.0 218466.0 91554.0 84910.0 112483.0 104497.0 134060.0 141209.0 169446.0 168780.0 58403.0 57545.0 53008.0 58491.0 72873.0 69729.0 194468.0 189927.0 71940.0 63920.0 78099.0 80985.0 125530.0 211398.0 125530.0 125530.0 211398.0 211398.0
294733.0 295925.0 307358.0 314014.0 90606.0 97979.0 23552.0 25682.0 45225.0 52439.0 370547.0 368768.0 19362.0 22189.0 337413.0 329246.0 167974.0 160028.0 171420.0 173073.0 371536.0 363317.0 55447.0 63513.0 8154.0 0.0 155194.0 147226.0 266947.0 272446.0 73855.0 66061.0 116899.0 109034.0 72019.0 65112.0 79803.0 82814.0 344810.0 352375.0 131405.0 129191.0 115542.0 121896.0 185767.0 182986.0 64863.0 57527.0 100765.0 98094.0 131286.0 125924.0 80285.0 78714.0 65513.0 58936.0 117454.0 124532.0 123917.0 125885.0 176089.0 176780.0 93105.0 85227.0 137409.0 145746.0 104226.0 97218.0 90428.0 82510.0 166440.0 158716.0 258383.0 251976.0 300348.0 305874.0 67940.0 66353.0 342297.0 343477.0 103263.0 95289.0 44792.0 44431.0 132100.0 136581.0 313317.0 306727.0 251439.0 245105.0 271738.0 271216.0 56847.0 64850.0 57127.0 53303.0 111920.0 104417.0 79812.0 88087.0 88005.0 82753.0 22637.0 21351.0 75039.0 71051.0 305534.0 298801.0 115986.0 121541.0 73842.0 81898.0 84980.0 89267.0 380231.0 372473.0 264361.0 264142.0 98647.0 106736.0 117544.0 109647.0 139057.0 136710.0 95450.0 97558.0 114059.0 107647.0 221798.0 224101.0 287666.0 280117.0 134834.0 137756.0 125243.0 133406.0 100103.0 91911.0 215511.0 223144.0 99706.0 93060.0 116427.0 108464.0 138795.0 145974.0 164631.0 164286.0 66235.0 65007.0 61161.0 66604.0 76692.0 74262.0 190567.0 185773.0 69521.0 61372.0 73903.0 77476.0 133371.0 216364.0 133371.0 133371.0 216364.0 216364.0
151139.0 150093.0 154117.0 161259.0 64704.0 57220.0 142622.0 135213.0 110790.0 103046.0 224730.0 224461.0 146000.0 138448.0 194300.0 186089.0 13067.0 5989.0 172654.0 167202.0 220012.0 211791.0 105279.0 98275.0 152874.0 155194.0 0.0 8071.0 130631.0 133515.0 81430.0 89362.0 92030.0 91846.0 176433.0 176537.0 98213.0 90525.0 197519.0 204468.0 44011.0 52002.0 186538.0 185668.0 172627.0 176813.0 180977.0 180037.0 136244.0 128428.0 107522.0 112568.0 157985.0 149802.0 136866.0 132305.0 162681.0 162379.0 39914.0 44550.0 24870.0 22438.0 62226.0 70206.0 17827.0 9456.0 118579.0 122098.0 168268.0 164865.0 120565.0 118627.0 104047.0 97241.0 154884.0 161688.0 96695.0 103351.0 195225.0 197840.0 68162.0 73028.0 144195.0 136129.0 23100.0 20184.0 159960.0 152933.0 98453.0 91438.0 125535.0 122848.0 130323.0 126669.0 116082.0 124070.0 141517.0 143299.0 134627.0 133918.0 155548.0 159928.0 174327.0 168210.0 98744.0 106914.0 153717.0 146422.0 39556.0 33681.0 88839.0 83200.0 196315.0 204077.0 229214.0 221268.0 111451.0 110225.0 105116.0 105875.0 39115.0 46594.0 16972.0 23057.0 196699.0 191436.0 169678.0 171383.0 67587.0 69093.0 133708.0 126023.0 36012.0 42326.0 76952.0 77598.0 55504.0 63512.0 84281.0 89278.0 154631.0 156830.0 48887.0 55247.0 50910.0 50772.0 143031.0 135862.0 131294.0 123574.0 148422.0 142621.0 82116.0 87952.0 137575.0 140201.0 103090.0 108646.0 117001.0 108973.0 149818.0 89199.0 149818.0 149818.0 89199.0 89199.0
158616.0 157725.0 162170.0 169297.0 56821.0 49280.0 134909.0 127448.0 102932.0 95150.0 232460.0 232106.0 138238.0 130655.0 201777.0 193584.0 20788.0 12978.0 168017.0 162809.0 228019.0 219797.0 97723.0 90846.0 144985.0 147226.0 8071.0 0.0 137464.0 140576.0 73428.0 81344.0 85970.0 85332.0 169719.0 169623.0 90534.0 82807.0 205307.0 212296.0 40463.0 48504.0 181142.0 180547.0 168717.0 172619.0 173992.0 172872.0 131063.0 123175.0 102250.0 106941.0 151765.0 143602.0 129125.0 124451.0 157869.0 157896.0 34401.0 40002.0 32305.0 30451.0 54206.0 62176.0 9818.0 2204.0 111913.0 115166.0 162274.0 158641.0 117262.0 114858.0 112117.0 105308.0 162500.0 169231.0 89457.0 96284.0 202998.0 205533.0 62227.0 66592.0 136964.0 128848.0 15140.0 12419.0 168017.0 161000.0 106475.0 99489.0 133135.0 130601.0 122432.0 118892.0 108115.0 116105.0 134990.0 136501.0 128540.0 128179.0 148208.0 152445.0 166285.0 160150.0 91999.0 100185.0 161714.0 154441.0 31853.0 25686.0 81584.0 76223.0 189642.0 197372.0 237204.0 229263.0 119478.0 118289.0 98203.0 99318.0 31077.0 38526.0 10343.0 18022.0 190354.0 185272.0 164581.0 165989.0 75649.0 77147.0 141776.0 134092.0 32578.0 39909.0 71388.0 72709.0 47449.0 55479.0 90135.0 95495.0 149191.0 151094.0 43079.0 48880.0 48880.0 49879.0 138912.0 131936.0 124681.0 116858.0 141647.0 136035.0 74625.0 80675.0 135301.0 137489.0 95211.0 100677.0 109362.0 101361.0 145762.0 94711.0 145762.0 145762.0 94711.0 94711.0
32708.0 38419.0 75191.0 76170.0 182407.0 176998.0 247984.0 242462.0 222533.0 216497.0 106350.0 104410.0 252268.0 246087.0 73021.0 64854.0 123513.0 129608.0 298423.0 292058.0 117041.0 109680.0 211534.0 203459.0 262108.0 266947.0 130631.0 137464.0 0.0 8101.0 199880.0 207605.0 222307.0 222456.0 261089.0 264280.0 226693.0 218853.0 82938.0 90970.0 136246.0 137782.0 253357.0 249860.0 295181.0 300610.0 269526.0 271689.0 205971.0 200237.0 236271.0 242040.0 237406.0 229925.0 264519.0 258865.0 225557.0 222906.0 145771.0 142094.0 105975.0 110725.0 183176.0 190630.0 145035.0 137552.0 249209.0 252627.0 243701.0 243617.0 242074.0 242211.0 70507.0 75457.0 40827.0 42998.0 199262.0 202271.0 80262.0 79626.0 163707.0 171667.0 240124.0 233752.0 148891.0 149675.0 79602.0 79023.0 61164.0 67063.0 28991.0 37007.0 256445.0 254109.0 241253.0 249092.0 272107.0 273911.0 215358.0 210446.0 285277.0 289077.0 288839.0 284421.0 194242.0 200588.0 65726.0 65027.0 159567.0 157931.0 193105.0 185067.0 278794.0 286523.0 123469.0 116900.0 59167.0 66595.0 235658.0 236491.0 166082.0 171980.0 140106.0 137987.0 274420.0 267087.0 234676.0 239326.0 79946.0 86136.0 71600.0 70555.0 134329.0 129874.0 206671.0 206034.0 178360.0 184722.0 51499.0 44114.0 224829.0 230260.0 151806.0 159509.0 128155.0 120973.0 267273.0 259495.0 219450.0 214279.0 236724.0 228899.0 190936.0 192692.0 252875.0 257797.0 229835.0 233953.0 245552.0 237736.0 209336.0 50865.0 209336.0 209336.0 50865.0 50865.0
24935.0 30346.0 67449.0 68209.0 187017.0 181405.0 253800.0 248144.0 227837.0 221653.0 99269.0 97329.0 258051.0 251763.0 65941.0 57773.0 125754.0 132151.0 299570.0 293070.0 109278.0 101845.0 217098.0 209023.0 267753.0 272446.0 133515.0 140576.0 8101.0 0.0 204571.0 212361.0 224740.0 225163.0 266945.0 270136.0 230361.0 222534.0 75664.0 83676.0 141382.0 143263.0 259213.0 255716.0 295847.0 301436.0 275382.0 277545.0 211828.0 206094.0 238179.0 244127.0 243262.0 235781.0 268413.0 262932.0 231413.0 228762.0 150517.0 147153.0 108701.0 112995.0 187545.0 195099.0 148461.0 140782.0 251982.0 255612.0 249557.0 249474.0 242821.0 243219.0 66403.0 71962.0 32890.0 35545.0 204930.0 208096.0 72997.0 72546.0 169307.0 177238.0 245980.0 239580.0 152493.0 152887.0 71737.0 71411.0 57972.0 64480.0 22901.0 31176.0 260573.0 258024.0 245473.0 253353.0 274741.0 276773.0 221214.0 216302.0 288688.0 292670.0 294210.0 289649.0 200095.0 206428.0 57816.0 57412.0 163759.0 161780.0 198632.0 190639.0 284651.0 292379.0 115871.0 109199.0 54433.0 61902.0 238631.0 239201.0 169744.0 175858.0 143739.0 142035.0 280276.0 272943.0 240532.0 245182.0 79499.0 85153.0 64916.0 64434.0 139106.0 135002.0 208925.0 207978.0 182528.0 189081.0 57003.0 49302.0 230685.0 236116.0 156837.0 164619.0 133698.0 126545.0 268271.0 260436.0 225307.0 220135.0 242580.0 234756.0 196192.0 198190.0 252893.0 258021.0 233807.0 238135.0 249239.0 241364.0 215192.0 57106.0 215192.0 215192.0 57106.0 57106.0
225479.0 225874.0 234564.0 241431.0 17672.0 24395.0 63767.0 55865.0 30803.0 22718.0 300912.0 299730.0 66499.0 58714.0 268437.0 260270.0 94143.0 86185.0 150900.0 148997.0 299566.0 291332.0 31447.0 28764.0 72048.0 73855.0 81430.0 73428.0 199880.0 204571.0 0.0 8022.0 69479.0 62525.0 109117.0 106716.0 41194.0 35901.0 274483.0 281833.0 64470.0 65230.0 134772.0 137228.0 159419.0 159893.0 110090.0 106980.0 92829.0 85565.0 89780.0 88671.0 98322.0 91207.0 69662.0 62327.0 120064.0 123676.0 54111.0 58432.0 103110.0 103263.0 19251.0 11428.0 63615.0 72003.0 77206.0 75098.0 110594.0 104554.0 121769.0 115381.0 185071.0 178487.0 230463.0 236499.0 31799.0 39577.0 272044.0 273790.0 44616.0 38339.0 71841.0 63613.0 58332.0 62751.0 240484.0 233700.0 178620.0 172026.0 201359.0 200089.0 59389.0 59687.0 43941.0 51065.0 97829.0 94798.0 79554.0 83679.0 95494.0 96566.0 93024.0 87189.0 42378.0 48055.0 233306.0 226336.0 42700.0 47750.0 27245.0 30977.0 128651.0 135763.0 308490.0 300639.0 191607.0 191007.0 63304.0 70138.0 43868.0 35967.0 65608.0 64211.0 132958.0 130143.0 122905.0 120867.0 148473.0 150466.0 214547.0 206932.0 65557.0 70680.0 68664.0 76435.0 26295.0 18072.0 148659.0 155784.0 105294.0 103511.0 48804.0 41852.0 74663.0 81577.0 131316.0 127520.0 69241.0 61178.0 82150.0 79535.0 19520.0 26386.0 146027.0 143940.0 37321.0 37593.0 55594.0 50264.0 119700.0 150783.0 119700.0 119700.0 150783.0 150783.0
233373.0 233815.0 242582.0 249452.0 25644.0 32408.0 57023.0 49030.0 24159.0 16199.0 308843.0 307627.0 59507.0 51701.0 276316.0 268149.0 102030.0 94060.0 149723.0 148243.0 307585.0 299351.0 27827.0 27229.0 64525.0 66061.0 89362.0 81344.0 207605.0 212361.0 8022.0 0.0 70812.0 63443.0 104589.0 101728.0 39137.0 35164.0 282445.0 289807.0 71895.0 72248.0 132497.0 135404.0 159056.0 159122.0 104854.0 101323.0 92662.0 85729.0 90605.0 88788.0 95374.0 88610.0 63855.0 56175.0 119339.0 123413.0 61851.0 65885.0 111129.0 111247.0 27139.0 19190.0 71539.0 79946.0 75431.0 72550.0 107758.0 101373.0 123609.0 116933.0 193067.0 186464.0 238396.0 244403.0 31379.0 38479.0 280003.0 281720.0 50353.0 43471.0 66820.0 58744.0 66271.0 70526.0 248501.0 241711.0 186639.0 180037.0 209312.0 208078.0 53119.0 54203.0 37907.0 44575.0 94997.0 91362.0 77935.0 82748.0 90336.0 90893.0 85031.0 79169.0 42846.0 47388.0 241327.0 234358.0 50720.0 55684.0 28706.0 34146.0 123858.0 130796.0 316506.0 308656.0 199627.0 199014.0 62234.0 69576.0 51501.0 43598.0 73610.0 72221.0 128811.0 126435.0 121540.0 118988.0 156471.0 158422.0 222554.0 214936.0 73281.0 78161.0 71807.0 79814.0 34050.0 25888.0 156320.0 163497.0 103898.0 101527.0 56199.0 48990.0 81786.0 88782.0 131587.0 128236.0 66647.0 58858.0 78285.0 76392.0 22811.0 28049.0 148080.0 145569.0 33455.0 32207.0 51415.0 46983.0 120848.0 158330.0 120848.0 120848.0 158330.0 158330.0
240665.0 238605.0 235054.0 242843.0 72108.0 69772.0 119321.0 111684.0 91044.0 84728.0 311682.0 312281.0 120032.0 112985.0 283560.0 275283.0 99004.0 92699.0 86422.0 82912.0 301820.0 293792.0 98495.0 97745.0 119700.0 116899.0 92030.0 85970.0 222307.0 224740.0 69479.0 70812.0 0.0 7971.0 172890.0 168917.0 37521.0 37039.0 284012.0 290356.0 107881.0 113204.0 203280.0 206204.0 91924.0 93633.0 171224.0 166278.0 162266.0 154909.0 20705.0 22142.0 165920.0 159341.0 64274.0 65032.0 189539.0 193110.0 95195.0 102898.0 116370.0 111747.0 65852.0 65403.0 80395.0 86380.0 29028.0 35117.0 178340.0 171725.0 52931.0 46124.0 184819.0 177001.0 243469.0 250731.0 101226.0 108849.0 281920.0 285391.0 104535.0 101388.0 134791.0 127294.0 78242.0 74677.0 240429.0 232672.0 182610.0 174784.0 214541.0 210660.0 65220.0 57626.0 59863.0 64956.0 50320.0 53651.0 148656.0 153103.0 71431.0 77992.0 126212.0 118208.0 111784.0 117489.0 237032.0 229192.0 76659.0 73072.0 96505.0 98749.0 191228.0 197558.0 311493.0 303477.0 194985.0 191779.0 21210.0 16551.0 64030.0 62607.0 86430.0 91985.0 197655.0 196053.0 192192.0 189791.0 151612.0 149867.0 213889.0 206218.0 103660.0 111932.0 16497.0 21327.0 63858.0 64930.0 176092.0 181291.0 174554.0 172336.0 96609.0 94201.0 119845.0 124664.0 62672.0 58248.0 137417.0 129669.0 148069.0 146885.0 88060.0 95582.0 77528.0 74762.0 47826.0 55781.0 45986.0 40146.0 188170.0 180652.0 188170.0 188170.0 180652.0 180652.0
241732.0 239941.0 237730.0 245451.0 66378.0 64686.0 111358.0 103730.0 83255.0 77056.0 313479.0 313880.0 112062.0 105019.0 284753.0 276486.0 99716.0 93025.0 91022.0 88050.0 304526.0 296454.0 91005.0 90515.0 111766.0 109034.0 91846.0 85332.0 222456.0 225163.0 62525.0 63443.0 7971.0 0.0 165030.0 161009.0 29556.0 29228.0 285871.0 292346.0 104429.0 109347.0 195800.0 198835.0 97651.0 98877.0 163290.0 158320.0 155351.0 148079.0 27261.0 26843.0 158332.0 151832.0 57928.0 58077.0 182480.0 186197.0 91679.0 99221.0 116507.0 112342.0 60338.0 59203.0 79010.0 85541.0 26868.0 31551.0 170758.0 164083.0 60640.0 53669.0 187303.0 179564.0 244795.0 251948.0 94151.0 101677.0 283734.0 287023.0 99189.0 95628.0 126944.0 119490.0 76383.0 73582.0 243186.0 235502.0 184607.0 176859.0 215709.0 212101.0 58067.0 50687.0 52068.0 57375.0 49677.0 51785.0 141367.0 145976.0 67510.0 73588.0 118693.0 110723.0 104900.0 110398.0 239363.0 231584.0 73144.0 70294.0 89692.0 92301.0 183316.0 189625.0 314142.0 306124.0 197135.0 194197.0 15586.0 14039.0 61182.0 58856.0 84839.0 89815.0 189817.0 188285.0 184951.0 182416.0 153429.0 152087.0 216590.0 208885.0 100694.0 108801.0 20413.0 27019.0 59033.0 59306.0 175363.0 180827.0 167308.0 164947.0 92422.0 89480.0 116413.0 121545.0 68927.0 64998.0 129943.0 122261.0 140351.0 139291.0 81409.0 88793.0 85273.0 82289.0 39868.0 47847.0 38931.0 32651.0 181724.0 179673.0 181724.0 181724.0 179673.0 179673.0
290481.0 293131.0 313649.0 319098.0 118547.0 125966.0 56327.0 62746.0 82012.0 88975.0 365923.0 363983.0 57569.0 62581.0 332594.0 324427.0 189256.0 182278.0 239841.0 240553.0 372490.0 364525.0 77714.0 82063.0 64576.0 72019.0 176433.0 169719.0 261089.0 266945.0 109117.0 104589.0 172890.0 165030.0 0.0 7962.0 136280.0 135856.0 341561.0 349445.0 138289.0 132369.0 45809.0 53323.0 252803.0 250927.0 11955.0 19443.0 58555.0 62117.0 190903.0 187201.0 24795.0 31366.0 134645.0 126947.0 58400.0 66395.0 137235.0 134872.0 190350.0 193944.0 124209.0 118678.0 160864.0 167684.0 168166.0 162280.0 25791.0 20478.0 225564.0 218340.0 269377.0 264506.0 297118.0 301604.0 81689.0 74096.0 338938.0 339147.0 109179.0 103497.0 38122.0 45908.0 155856.0 162863.0 319619.0 314258.0 260032.0 255314.0 270906.0 272579.0 124223.0 131349.0 118709.0 118146.0 180190.0 173384.0 45780.0 50961.0 159232.0 154462.0 85526.0 89574.0 77721.0 69537.0 309380.0 303861.0 139200.0 146928.0 89381.0 93659.0 19976.0 27654.0 380114.0 372885.0 272060.0 273819.0 158947.0 167168.0 147409.0 140365.0 159600.0 153785.0 24949.0 25582.0 50999.0 42930.0 234649.0 239195.0 296350.0 289467.0 144889.0 143471.0 176120.0 184231.0 131082.0 123814.0 210352.0 218343.0 44634.0 36686.0 128143.0 121251.0 139885.0 145914.0 228814.0 227072.0 45216.0 52867.0 28126.0 34032.0 97712.0 90387.0 250212.0 246714.0 126570.0 119660.0 137568.0 138397.0 88720.0 210223.0 88720.0 88720.0 210223.0 210223.0
293672.0 296385.0 316017.0 321607.0 117148.0 124702.0 50909.0 57806.0 78535.0 85826.0 369114.0 367174.0 51695.0 57275.0 335785.0 327618.0 189457.0 182318.0 234129.0 235033.0 375535.0 367530.0 75563.0 80559.0 57898.0 65112.0 176537.0 169623.0 264280.0 270136.0 106716.0 101728.0 168917.0 161009.0 7962.0 0.0 131975.0 131950.0 344751.0 352636.0 139553.0 133957.0 53745.0 61284.0 247384.0 245326.0 5358.0 11616.0 63839.0 66670.0 186532.0 182581.0 30407.0 35859.0 128594.0 121055.0 65773.0 73761.0 137774.0 135854.0 191333.0 194634.0 122572.0 116680.0 160575.0 167631.0 163084.0 157005.0 33265.0 27215.0 221377.0 214061.0 271114.0 266059.0 300260.0 304794.0 80719.0 73442.0 342129.0 342338.0 110026.0 103942.0 34918.0 43104.0 155480.0 162280.0 322001.0 316497.0 261992.0 257083.0 273893.0 275345.0 118414.0 125712.0 113615.0 112643.0 174423.0 167466.0 49109.0 55152.0 152738.0 147778.0 77859.0 82113.0 77882.0 69777.0 311993.0 306333.0 138673.0 146265.0 88535.0 93401.0 22318.0 29070.0 383280.0 375985.0 274158.0 275712.0 154332.0 162579.0 146254.0 139024.0 159620.0 154124.0 30550.0 32605.0 58678.0 50684.0 236044.0 240367.0 298419.0 291445.0 145893.0 144934.0 172808.0 180974.0 129575.0 122082.0 213534.0 221529.0 51266.0 43236.0 128717.0 121581.0 141809.0 148040.0 223863.0 222341.0 46229.0 53280.0 28515.0 35660.0 96543.0 89514.0 246009.0 242310.0 122096.0 114961.0 132369.0 133565.0 94953.0 213414.0 94953.0 94953.0 213414.0 213414.0
249079.0 248258.0 250721.0 258151.0 51901.0 53735.0 81951.0 74423.0 55283.0 50028.0 322942.0 322639.0 82549.0 75586.0 292227.0 284053.0 108721.0 101074.0 110629.0 109341.0 317217.0 309034.0 64906.0 66009.0 82275.0 79803.0 98213.0 90534.0 226693.0 230361.0 41194.0 39137.0 37521.0 29556.0 136280.0 131975.0 0.0 7844.0 295703.0 302599.0 97648.0 100629.0 168988.0 172562.0 120434.0 120196.0 134088.0 128943.0 131534.0 124747.0 54625.0 51328.0 131087.0 125033.0 38733.0 35153.0 157774.0 162162.0 85360.0 91768.0 122833.0 120413.0 47795.0 42994.0 82021.0 90013.0 36298.0 33922.0 143503.0 136537.0 89411.0 82091.0 200130.0 192757.0 253034.0 259741.0 70452.0 77244.0 293421.0 296047.0 84259.0 78855.0 98345.0 91183.0 77868.0 78121.0 256414.0 249036.0 195820.0 188442.0 223668.0 221059.0 33864.0 28771.0 23636.0 30310.0 56706.0 54182.0 115786.0 121185.0 59153.0 62411.0 90959.0 83200.0 81982.0 86250.0 251158.0 243651.0 68368.0 68851.0 67628.0 72134.0 154244.0 160415.0 326592.0 318604.0 208713.0 206719.0 23531.0 31411.0 60624.0 54927.0 86626.0 89048.0 161167.0 160021.0 159351.0 156170.0 164528.0 164562.0 229846.0 222096.0 96108.0 103135.0 45826.0 53849.0 50175.0 46323.0 177042.0 183389.0 141774.0 138707.0 83168.0 78010.0 109179.0 115399.0 93853.0 91295.0 103472.0 96213.0 112466.0 112106.0 60629.0 66892.0 114036.0 110436.0 10336.0 18434.0 18881.0 11099.0 159981.0 180349.0 159981.0 159981.0 180349.0 180349.0
241308.0 240528.0 243323.0 250721.0 44976.0 46323.0 82777.0 75005.0 54028.0 47922.0 315249.0 314910.0 83791.0 76518.0 284450.0 276282.0 101176.0 93483.0 115021.0 113259.0 309759.0 301569.0 62188.0 62387.0 84581.0 82814.0 90525.0 82807.0 218853.0 222534.0 35901.0 35164.0 37039.0 29228.0 135856.0 131950.0 7844.0 0.0 288039.0 294959.0 90093.0 93262.0 166880.0 170119.0 123930.0 124151.0 134350.0 129597.0 127802.0 120795.0 55894.0 53668.0 129258.0 122886.0 46344.0 42271.0 154485.0 158571.0 77731.0 84250.0 115096.0 112775.0 40507.0 36255.0 74228.0 82255.0 41469.0 40180.0 141689.0 134941.0 89866.0 82839.0 192757.0 185429.0 245298.0 251984.0 66466.0 73641.0 285749.0 288338.0 77721.0 72671.0 97753.0 90267.0 70043.0 70402.0 249036.0 241693.0 188305.0 180966.0 215930.0 213372.0 40703.0 36217.0 28748.0 36135.0 62998.0 61061.0 112887.0 117884.0 66945.0 70254.0 95488.0 87919.0 77719.0 82547.0 243651.0 236173.0 60594.0 61008.0 62938.0 66817.0 154267.0 160673.0 319110.0 311126.0 201217.0 199309.0 27405.0 34453.0 52792.0 47092.0 78796.0 81209.0 160615.0 159058.0 156517.0 153699.0 157038.0 157199.0 222489.0 214740.0 88403.0 95512.0 42537.0 50760.0 42529.0 39074.0 169203.0 175545.0 138886.0 136217.0 75786.0 70866.0 101695.0 107839.0 96468.0 93311.0 101084.0 93549.0 111144.0 110220.0 55412.0 62134.0 114500.0 111422.0 14459.0 22276.0 26706.0 18932.0 155476.0 172526.0 155476.0 155476.0 172526.0 172526.0
51149.0 48906.0 55915.0 48270.0 256812.0 250507.0 327188.0 321162.0 299747.0 293102.0 27746.0 29861.0 331334.0 324750.0 24271.0 25194.0 187248.0 194715.0 349770.0 342511.0 37325.0 32114.0 289882.0 281845.0 340596.0 344810.0 197519.0 205307.0 82938.0 75664.0 274483.0 282445.0 284012.0 285871.0 341561.0 344751.0 295703.0 288039.0 0.0 8039.0 213450.0 216275.0 333828.0 330331.0 342918.0 349486.0 349997.0 352128.0 286443.0 280709.0 294240.0 301095.0 317877.0 310397.0 334382.0 329741.0 306028.0 303378.0 221249.0 218925.0 173149.0 175301.0 256420.0 264269.0 214280.0 206004.0 312576.0 317267.0 324172.0 324089.0 291665.0 293727.0 100656.0 108669.0 44610.0 40158.0 278073.0 281792.0 2678.0 8434.0 242450.0 250252.0 320441.0 313887.0 218938.0 217675.0 53055.0 60579.0 101430.0 109315.0 73165.0 74735.0 327672.0 324185.0 313111.0 321093.0 334250.0 337490.0 295829.0 290917.0 352126.0 356975.0 366068.0 361016.0 274057.0 280708.0 49406.0 57380.0 232304.0 229016.0 271395.0 263577.0 359266.0 366994.0 41568.0 36274.0 89340.0 93533.0 300475.0 299670.0 236050.0 242946.0 210524.0 210465.0 354891.0 347559.0 315148.0 319797.0 132449.0 134339.0 74872.0 81556.0 210104.0 207125.0 267588.0 264972.0 250684.0 257902.0 131290.0 123327.0 305301.0 310731.0 228411.0 236358.0 206958.0 199940.0 318115.0 310087.0 299920.0 294708.0 317155.0 309287.0 268135.0 270870.0 296530.0 302954.0 300482.0 305677.0 314439.0 306383.0 289808.0 132322.0 289808.0 289808.0 132322.0 132322.0
59099.0 56587.0 59828.0 51915.0 264166.0 257804.0 334870.0 328804.0 307280.0 300591.0 22520.0 26510.0 339003.0 332388.0 30237.0 32462.0 194026.0 201554.0 355138.0 347818.0 30334.0 26140.0 297510.0 289480.0 348213.0 352375.0 204468.0 212296.0 90970.0 83676.0 281833.0 289807.0 290356.0 292346.0 349445.0 352636.0 302599.0 294959.0 8039.0 0.0 221053.0 223963.0 341713.0 338216.0 347994.0 354645.0 357749.0 360033.0 294328.0 288594.0 300267.0 307195.0 325762.0 318281.0 341301.0 336746.0 313913.0 311262.0 228724.0 226497.0 180208.0 182187.0 263690.0 271558.0 221340.0 213032.0 319001.0 323787.0 332057.0 331973.0 297019.0 299233.0 106373.0 114373.0 52395.0 48151.0 285744.0 289521.0 10717.0 14253.0 250136.0 257921.0 328262.0 321678.0 226043.0 224640.0 56317.0 64144.0 107758.0 115574.0 80647.0 81865.0 334708.0 331131.0 320211.0 328197.0 340543.0 343896.0 303714.0 298802.0 358782.0 363711.0 373571.0 368468.0 281817.0 288503.0 54438.0 62470.0 239572.0 236173.0 279029.0 271232.0 367151.0 374879.0 33796.0 28991.0 95434.0 99264.0 307034.0 306101.0 243113.0 250069.0 217674.0 217754.0 362776.0 355443.0 323032.0 327682.0 138933.0 140539.0 79640.0 86612.0 217615.0 214739.0 273908.0 271145.0 257893.0 265164.0 139160.0 131188.0 313185.0 318616.0 235956.0 243912.0 214676.0 207676.0 323506.0 315476.0 307806.0 302559.0 325061.0 317204.0 275688.0 278495.0 301377.0 307909.0 307500.0 312774.0 321302.0 313237.0 297692.0 140267.0 297692.0 297692.0 140267.0 140267.0
163346.0 164550.0 178444.0 184605.0 47714.0 44048.0 114093.0 107810.0 86517.0 80276.0 239150.0 237453.0 118129.0 111379.0 206073.0 197906.0 54942.0 49858.0 194080.0 190009.0 241011.0 232829.0 76485.0 68484.0 127164.0 131405.0 44011.0 40463.0 136246.0 141382.0 64470.0 71895.0 107881.0 104429.0 138289.0 139553.0 97648.0 90093.0 213450.0 221053.0 0.0 8047.0 143778.0 142438.0 197715.0 200462.0 144396.0 144750.0 93285.0 85658.0 127327.0 130022.0 117756.0 109592.0 132531.0 125862.0 119100.0 118517.0 12758.0 6057.0 52260.0 56657.0 50194.0 56590.0 36455.0 38310.0 128130.0 129010.0 127140.0 124583.0 149268.0 145448.0 131870.0 126585.0 168953.0 174481.0 64998.0 69620.0 210925.0 212074.0 30051.0 37350.0 110178.0 102791.0 34674.0 42167.0 184448.0 178430.0 123291.0 117932.0 140467.0 140314.0 123118.0 122191.0 107622.0 115126.0 151224.0 150528.0 94182.0 92305.0 156444.0 158750.0 152921.0 148268.0 62851.0 70478.0 175587.0 169281.0 31289.0 35423.0 58035.0 50398.0 157750.0 165612.0 249474.0 241815.0 135825.0 136779.0 113255.0 117099.0 44110.0 45594.0 31199.0 22764.0 156640.0 150724.0 126453.0 128671.0 96495.0 100906.0 159876.0 152673.0 8000.0 6380.0 97042.0 101134.0 47626.0 51734.0 84777.0 92178.0 112091.0 115006.0 15698.0 23263.0 11984.0 17751.0 167670.0 161561.0 93348.0 86434.0 111038.0 104291.0 54851.0 57471.0 169788.0 170805.0 98115.0 100683.0 115593.0 108563.0 105814.0 86491.0 105814.0 105814.0 86491.0 86491.0
165796.0 167382.0 182879.0 188844.0 49435.0 46939.0 110914.0 104988.0 84833.0 79113.0 241611.0 239754.0 115072.0 108596.0 208366.0 200199.0 62728.0 57822.0 199583.0 195721.0 244634.0 236483.0 73845.0 65773.0 124540.0 129191.0 52002.0 48504.0 137782.0 143263.0 65230.0 72248.0 113204.0 109347.0 132369.0 133957.0 100629.0 93262.0 216275.0 223963.0 8047.0 0.0 136403.0 134887.0 203718.0 206257.0 138891.0 139595.0 85906.0 78379.0 132974.0 135327.0 111281.0 103155.0 134310.0 127329.0 111416.0 110686.0 18511.0 10574.0 58988.0 63833.0 52838.0 58489.0 44247.0 46347.0 132299.0 132756.0 120347.0 118069.0 155909.0 151877.0 137159.0 132151.0 171687.0 176956.0 61819.0 65687.0 213720.0 214605.0 26176.0 34022.0 105586.0 98459.0 42148.0 49818.0 188882.0 183062.0 128188.0 123137.0 143579.0 143854.0 124477.0 124071.0 108974.0 116264.0 155205.0 154120.0 87741.0 85457.0 158925.0 160848.0 151064.0 146767.0 58364.0 65647.0 179620.0 173516.0 36668.0 41798.0 55370.0 47405.0 151650.0 159520.0 252942.0 245355.0 140536.0 141830.0 117387.0 121648.0 50088.0 50605.0 39149.0 30739.0 150112.0 144011.0 118916.0 121331.0 102302.0 107065.0 164715.0 157633.0 16024.0 11266.0 103055.0 107502.0 51291.0 54325.0 86323.0 93961.0 104840.0 108009.0 17477.0 23398.0 9706.0 16891.0 173719.0 167774.0 87738.0 81148.0 105472.0 98479.0 53399.0 54930.0 176781.0 177602.0 100302.0 102257.0 118118.0 111372.0 97865.0 87390.0 97865.0 97865.0 87390.0 87390.0
282748.0 285464.0 307950.0 312722.0 139052.0 145387.0 96329.0 100947.0 113870.0 119062.0 358191.0 356250.0 98742.0 101889.0 324862.0 316695.0 198399.0 192525.0 277174.0 277033.0 364784.0 356850.0 104796.0 106012.0 107640.0 115542.0 186538.0 181142.0 253357.0 259213.0 134772.0 132497.0 203280.0 195800.0 45809.0 53745.0 168988.0 166880.0 333828.0 341713.0 143778.0 136403.0 0.0 8285.0 288749.0 287697.0 56786.0 64892.0 50500.0 58160.0 222768.0 220236.0 38165.0 43996.0 174373.0 166194.0 28514.0 34156.0 146787.0 142143.0 195101.0 200230.0 145513.0 141968.0 173668.0 178959.0 203500.0 198513.0 26044.0 33769.0 256106.0 249402.0 267886.0 264177.0 289386.0 293871.0 103363.0 95362.0 331206.0 331415.0 119129.0 116083.0 74315.0 79578.0 169329.0 177125.0 313803.0 309216.0 257380.0 253883.0 263314.0 265514.0 163205.0 169549.0 155090.0 156101.0 218249.0 212133.0 55603.0 53580.0 200376.0 196359.0 130889.0 134411.0 94774.0 87544.0 302650.0 297740.0 154237.0 162285.0 109645.0 110726.0 46195.0 50440.0 372379.0 365156.0 268373.0 271326.0 192449.0 200399.0 165227.0 159424.0 170813.0 163547.0 33853.0 25792.0 18763.0 15156.0 235834.0 241575.0 292467.0 286226.0 151455.0 147529.0 203411.0 211081.0 151401.0 145585.0 202620.0 210612.0 31958.0 31442.0 138079.0 132953.0 141490.0 145972.0 262840.0 260112.0 65863.0 73686.0 57890.0 56934.0 118662.0 110677.0 280552.0 278041.0 160259.0 154462.0 173926.0 173249.0 65346.0 202490.0 65346.0 65346.0 202490.0 202490.0
279252.0 281967.0 304453.0 309225.0 140501.0 146566.0 101994.0 106200.0 117745.0 122537.0 354694.0 352754.0 104629.0 107353.0 321365.0 313198.0 197283.0 191644.0 281459.0 281110.0 361288.0 353353.0 107931.0 108563.0 113908.0 121896.0 185668.0 180547.0 249860.0 255716.0 137228.0 135404.0 206204.0 198835.0 53323.0 61284.0 172562.0 170119.0 330331.0 338216.0 142438.0 134887.0 8285.0 0.0 292678.0 291828.0 64557.0 72585.0 49486.0 57409.0 225931.0 223661.0 42937.0 47742.0 179494.0 171228.0 24303.0 28492.0 146146.0 141141.0 193219.0 198592.0 147042.0 143905.0 173378.0 178353.0 207489.0 202724.0 31558.0 39479.0 258887.0 252313.0 264627.0 261125.0 285889.0 290374.0 105558.0 97661.0 327709.0 327918.0 118924.0 116406.0 79676.0 84393.0 169196.0 177079.0 310306.0 305719.0 253956.0 250677.0 259818.0 262017.0 168188.0 174322.0 159523.0 160879.0 222831.0 216901.0 57676.0 54486.0 205794.0 201997.0 137877.0 141147.0 96343.0 89479.0 299153.0 294243.0 154521.0 162555.0 111468.0 111953.0 54476.0 58687.0 368883.0 361659.0 264880.0 267889.0 196077.0 203936.0 165928.0 160405.0 170256.0 162785.0 42109.0 34077.0 15993.0 16421.0 233136.0 239063.0 288969.0 282740.0 150229.0 145893.0 205701.0 213249.0 152689.0 147200.0 199124.0 207115.0 32399.0 33902.0 137607.0 132864.0 139481.0 143640.0 266372.0 263429.0 69097.0 76587.0 62947.0 61056.0 120459.0 112486.0 283232.0 280939.0 164087.0 158560.0 178260.0 177255.0 60282.0 198994.0 60282.0 60282.0 198994.0 198994.0
306955.0 303013.0 288722.0 296775.0 163934.0 161671.0 196538.0 190125.0 174946.0 170335.0 370377.0 372589.0 195748.0 190235.0 347738.0 339589.0 175075.0 171109.0 18123.0 13011.0 352728.0 345356.0 185330.0 186228.0 191327.0 185767.0 172627.0 168717.0 295181.0 295847.0 159419.0 159056.0 91924.0 97651.0 252803.0 247384.0 120434.0 123930.0 342918.0 347994.0 197715.0 203718.0 288749.0 292678.0 0.0 8111.0 248483.0 242055.0 251718.0 244723.0 71331.0 70908.0 250630.0 244985.0 120296.0 126982.0 278191.0 282454.0 185326.0 193211.0 193841.0 187310.0 157750.0 156848.0 165912.0 169801.0 85252.0 90593.0 262959.0 255693.0 53141.0 54019.0 242830.0 234878.0 307791.0 315630.0 190395.0 197488.0 341256.0 346107.0 196457.0 193216.0 216053.0 209685.0 165186.0 159694.0 293124.0 285059.0 244569.0 236634.0 281018.0 275346.0 129351.0 121770.0 134271.0 134741.0 73937.0 81787.0 236205.0 241591.0 102427.0 110016.0 185364.0 177608.0 201607.0 206437.0 293615.0 285598.0 167083.0 162300.0 186654.0 189773.0 269001.0 274172.0 362649.0 354886.0 255067.0 249903.0 96950.0 89483.0 153677.0 153590.0 172235.0 179186.0 277664.0 277656.0 279729.0 276337.0 216894.0 212419.0 268367.0 261416.0 192526.0 201025.0 100686.0 96957.0 155687.0 156795.0 255101.0 258809.0 262179.0 258918.0 187741.0 185876.0 209484.0 213531.0 30066.0 36784.0 223693.0 216586.0 231373.0 231833.0 178685.0 185805.0 47928.0 40510.0 128593.0 134313.0 115341.0 115500.0 279075.0 260732.0 279075.0 279075.0 260732.0 260732.0
312958.0 309147.0 295495.0 303550.0 165252.0 163354.0 194603.0 188394.0 174109.0 169815.0 376995.0 379109.0 193635.0 188353.0 353965.0 345794.0 179754.0 175526.0 12134.0 10896.0 359748.0 352334.0 184935.0 186182.0 188784.0 182986.0 176813.0 172619.0 300610.0 301436.0 159893.0 159122.0 93633.0 98877.0 250927.0 245326.0 120196.0 124151.0 349486.0 354645.0 200462.0 206257.0 287697.0 291828.0 8111.0 0.0 246258.0 239669.0 251715.0 244851.0 73343.0 72035.0 249539.0 244091.0 117481.0 124486.0 277901.0 282358.0 187962.0 195804.0 198490.0 192115.0 159197.0 157892.0 169415.0 173622.0 84412.0 89195.0 261813.0 254451.0 58642.0 58633.0 249233.0 241263.0 313941.0 321753.0 190501.0 197428.0 347795.0 352566.0 198020.0 194484.0 214544.0 208380.0 168457.0 163235.0 299957.0 291892.0 250725.0 242771.0 286952.0 281399.0 126990.0 119617.0 132786.0 132782.0 71104.0 78614.0 235742.0 241341.0 98245.0 105619.0 181668.0 174016.0 201857.0 206420.0 300235.0 292212.0 169589.0 165111.0 187061.0 190501.0 266764.0 271762.0 369669.0 361884.0 261379.0 256321.0 96889.0 89758.0 156356.0 155875.0 175727.0 182472.0 275715.0 275950.0 279150.0 275540.0 222713.0 218412.0 275049.0 268040.0 195512.0 203976.0 103485.0 100317.0 157487.0 158181.0 259800.0 263687.0 261661.0 258174.0 190014.0 187827.0 212307.0 216563.0 33796.0 41251.0 223002.0 216055.0 230110.0 230855.0 179287.0 186240.0 55494.0 47852.0 127925.0 133274.0 113867.0 114591.0 279587.0 265317.0 279587.0 279587.0 265317.0 265317.0
298917.0 301633.0 321101.0 326720.0 121011.0 128618.0 52442.0 59691.0 81356.0 88826.0 374359.0 372419.0 52781.0 58850.0 341031.0 332864.0 193927.0 186731.0 234961.0 236046.0 380746.0 372734.0 79159.0 84452.0 58008.0 64863.0 180977.0 173992.0 269526.0 275382.0 110090.0 104854.0 171224.0 163290.0 11955.0 5358.0 134088.0 134350.0 349997.0 357749.0 144396.0 138891.0 56786.0 64557.0 248483.0 246258.0 0.0 8242.0 69152.0 72026.0 188533.0 184395.0 35632.0 41209.0 129183.0 121821.0 70345.0 78341.0 142392.0 140616.0 196067.0 199273.0 126313.0 120249.0 164874.0 172017.0 164539.0 158300.0 37740.0 32115.0 223491.0 216111.0 276048.0 270945.0 305518.0 310040.0 84849.0 77725.0 347375.0 347584.0 114768.0 108562.0 38285.0 46574.0 159747.0 166457.0 327087.0 321552.0 266985.0 262028.0 279100.0 280512.0 119269.0 126720.0 115135.0 113803.0 175242.0 168141.0 54425.0 60509.0 152801.0 147613.0 76183.0 80878.0 82453.0 74395.0 317129.0 311440.0 142893.0 150421.0 92698.0 97788.0 20518.0 26335.0 388511.0 381206.0 279183.0 280687.0 156177.0 164436.0 150195.0 142886.0 164039.0 158662.0 30724.0 34118.0 62922.0 54819.0 240891.0 245146.0 303435.0 296439.0 150655.0 149829.0 175553.0 183747.0 133369.0 125777.0 218777.0 226771.0 56256.0 48248.0 133354.0 126142.0 146824.0 153098.0 225380.0 224039.0 51159.0 58012.0 33423.0 40779.0 100549.0 93662.0 248098.0 244250.0 124099.0 116803.0 133764.0 135265.0 100102.0 218659.0 100102.0 100102.0 218659.0 218659.0
301081.0 303757.0 322273.0 328035.0 118825.0 126520.0 46995.0 54607.0 77448.0 85161.0 376523.0 374583.0 46796.0 53376.0 343194.0 335027.0 193050.0 185710.0 228282.0 229539.0 382597.0 374547.0 76635.0 82503.0 50999.0 57527.0 180037.0 172872.0 271689.0 277545.0 106980.0 101323.0 166278.0 158320.0 19443.0 11616.0 128943.0 129597.0 352128.0 360033.0 144750.0 139595.0 64892.0 72585.0 242055.0 239669.0 8242.0 0.0 73949.0 76098.0 183164.0 178797.0 41171.0 45721.0 122370.0 115182.0 77313.0 85293.0 142025.0 140703.0 195976.0 198878.0 123856.0 117470.0 163588.0 170946.0 158546.0 152140.0 44860.0 38598.0 218235.0 210779.0 276603.0 271316.0 307717.0 312204.0 83427.0 76720.0 349497.0 349747.0 114862.0 108301.0 35992.0 44242.0 158392.0 164872.0 328269.0 322588.0 267782.0 262632.0 280959.0 282136.0 112720.0 120308.0 109301.0 107574.0 168588.0 161362.0 57625.0 64378.0 145532.0 140185.0 68065.0 72917.0 82180.0 74320.0 318562.0 312728.0 141458.0 148816.0 91304.0 96924.0 27458.0 32119.0 390489.0 383117.0 280109.0 281398.0 150652.0 158914.0 148101.0 140638.0 163067.0 158029.0 38616.0 42335.0 70293.0 62296.0 241138.0 245159.0 304308.0 297223.0 150721.0 150361.0 171238.0 179465.0 131003.0 123229.0 220912.0 228899.0 62449.0 54411.0 133065.0 125650.0 147834.0 154291.0 219405.0 218270.0 52363.0 58451.0 34976.0 42940.0 98753.0 92230.0 242796.0 238762.0 118833.0 111351.0 127748.0 129599.0 105724.0 220823.0 105724.0 105724.0 220823.0 220823.0
235363.0 238079.0 260338.0 265282.0 93263.0 98720.0 77378.0 78026.0 80163.0 82718.0 310805.0 308865.0 81411.0 80565.0 277477.0 269310.0 147979.0 142225.0 242108.0 240848.0 317399.0 309464.0 67413.0 65533.0 92809.0 100765.0 136244.0 131063.0 205971.0 211828.0 92829.0 92662.0 162266.0 155351.0 58555.0 63839.0 131534.0 127802.0 286443.0 294328.0 93285.0 85906.0 50500.0 49486.0 251718.0 251715.0 69152.0 73949.0 0.0 8000.0 182608.0 181297.0 33760.0 28234.0 146169.0 137631.0 27956.0 30848.0 96663.0 91759.0 144670.0 149737.0 99906.0 97813.0 123921.0 128870.0 167631.0 163954.0 37857.0 38942.0 214115.0 207970.0 218801.0 214766.0 242000.0 246486.0 61349.0 54290.0 283821.0 284030.0 69544.0 67481.0 56691.0 56444.0 119791.0 127706.0 266234.0 261405.0 208615.0 204737.0 215929.0 218129.0 134385.0 139106.0 122910.0 126122.0 185563.0 180699.0 20956.0 12705.0 173638.0 171387.0 121595.0 122064.0 50482.0 45297.0 255254.0 250235.0 105405.0 113410.0 65791.0 64669.0 74009.0 81486.0 324994.0 317770.0 219994.0 222555.0 154854.0 162236.0 117227.0 112124.0 120770.0 113325.0 68525.0 61116.0 33542.0 35431.0 185994.0 191532.0 244231.0 237746.0 100987.0 97047.0 159889.0 167072.0 104997.0 100259.0 155235.0 163227.0 19247.0 24339.0 88127.0 83522.0 91176.0 95921.0 224045.0 220348.0 34802.0 38536.0 43029.0 35505.0 74447.0 66734.0 238053.0 236407.0 124369.0 120269.0 140598.0 138032.0 33292.0 155105.0 33292.0 33292.0 155105.0 155105.0
229629.0 232345.0 254265.0 259338.0 85480.0 90839.0 74554.0 74427.0 74456.0 76485.0 305071.0 303131.0 78762.0 77197.0 271743.0 263576.0 140240.0 134413.0 235373.0 233972.0 311665.0 303730.0 61228.0 58771.0 90303.0 98094.0 128428.0 123175.0 200237.0 206094.0 85565.0 85729.0 154909.0 148079.0 62117.0 66670.0 124747.0 120795.0 280709.0 288594.0 85658.0 78379.0 58160.0 57409.0 244723.0 244851.0 72026.0 76098.0 8000.0 0.0 175321.0 174164.0 37602.0 30861.0 140718.0 132179.0 35883.0 38321.0 88779.0 83989.0 137259.0 142204.0 92130.0 90216.0 115972.0 120984.0 160941.0 157461.0 43598.0 43503.0 206581.0 200503.0 212144.0 207969.0 236266.0 240752.0 54351.0 47611.0 278087.0 278296.0 61562.0 59491.0 55079.0 53685.0 111819.0 119727.0 260183.0 255227.0 202097.0 198064.0 210178.0 212325.0 128915.0 133347.0 116986.0 120529.0 179269.0 174600.0 19599.0 11791.0 168266.0 166296.0 119490.0 119445.0 43191.0 38573.0 249386.0 244233.0 97405.0 105410.0 58407.0 56945.0 78764.0 86413.0 319260.0 312036.0 213615.0 216023.0 147962.0 155247.0 109243.0 104180.0 112872.0 105477.0 74285.0 67236.0 41497.0 43027.0 179003.0 184420.0 237884.0 231315.0 93304.0 89567.0 152247.0 159371.0 97132.0 92514.0 149501.0 157493.0 26463.0 30377.0 80200.0 75534.0 83940.0 88899.0 216867.0 213059.0 31912.0 34071.0 43208.0 35168.0 66942.0 59327.0 230449.0 228894.0 117852.0 114042.0 134385.0 131546.0 35337.0 149371.0 35337.0 35337.0 149371.0 149371.0
252758.0 250137.0 243507.0 251432.0 92808.0 90348.0 136206.0 128844.0 109642.0 103798.0 321983.0 323027.0 136487.0 129807.0 295263.0 286984.0 112858.0 107338.0 66812.0 62750.0 309968.0 302072.0 118024.0 117734.0 134949.0 131286.0 107522.0 102250.0 236271.0 238179.0 89780.0 90605.0 20705.0 27261.0 190903.0 186532.0 54625.0 55894.0 294240.0 300267.0 127327.0 132974.0 222768.0 225931.0 71331.0 73343.0 188533.0 183164.0 182608.0 175321.0 0.0 8039.0 185139.0 178776.0 72280.0 75277.0 209734.0 213455.0 114751.0 122557.0 131010.0 125627.0 86533.0 86073.0 97786.0 102946.0 30315.0 38215.0 197570.0 190773.0 35210.0 27625.0 194015.0 186060.0 255006.0 262476.0 121408.0 128913.0 292257.0 296130.0 125153.0 122085.0 152960.0 145729.0 96248.0 91781.0 248656.0 240748.0 192957.0 185008.0 226524.0 222081.0 76280.0 68149.0 74480.0 78084.0 43323.0 49458.0 168539.0 173218.0 71470.0 79108.0 137945.0 129825.0 132150.0 137652.0 246316.0 238364.0 96314.0 92113.0 116924.0 119363.0 208771.0 214834.0 319759.0 311768.0 204904.0 201089.0 32716.0 24553.0 83234.0 82535.0 104006.0 110206.0 215791.0 214583.0 212143.0 209510.0 162602.0 159968.0 222378.0 214835.0 122662.0 131059.0 31032.0 30242.0 84356.0 85625.0 191768.0 196503.0 194501.0 192032.0 116671.0 114583.0 139229.0 143728.0 41968.0 37740.0 156949.0 149344.0 166861.0 166104.0 108579.0 116018.0 59648.0 55811.0 64443.0 71814.0 57642.0 53964.0 208797.0 196710.0 208797.0 208797.0 196710.0 196710.0
259124.0 256655.0 250704.0 258608.0 93221.0 91411.0 131966.0 124785.0 106611.0 101181.0 328830.0 329770.0 132020.0 125557.0 301753.0 293472.0 118529.0 112717.0 64390.0 61216.0 317245.0 309322.0 115767.0 116016.0 129925.0 125924.0 112568.0 106941.0 242040.0 244127.0 88671.0 88788.0 22142.0 26843.0 187201.0 182581.0 51328.0 53668.0 301095.0 307195.0 130022.0 135327.0 220236.0 223661.0 70908.0 72035.0 184395.0 178797.0 181297.0 174164.0 8039.0 0.0 182394.0 176254.0 65444.0 68958.0 208127.0 212110.0 117337.0 125036.0 136437.0 131316.0 87167.0 85967.0 101912.0 107505.0 23144.0 31042.0 194815.0 187864.0 40800.0 32965.0 201040.0 193106.0 261524.0 268943.0 119956.0 127259.0 299086.0 302866.0 126005.0 122467.0 149449.0 142429.0 100016.0 96046.0 255897.0 248012.0 199731.0 191804.0 232906.0 228612.0 70179.0 61999.0 69625.0 72621.0 35375.0 41420.0 166542.0 171534.0 63517.0 71208.0 131669.0 123543.0 130985.0 136119.0 253354.0 245421.0 98799.0 95153.0 115915.0 118877.0 204739.0 210633.0 327017.0 319020.0 211784.0 208095.0 28257.0 20038.0 86133.0 84724.0 108040.0 113856.0 212135.0 211214.0 210170.0 207249.0 169192.0 166766.0 229558.0 221987.0 125751.0 134046.0 35617.0 36314.0 85642.0 86146.0 196841.0 201775.0 192544.0 189769.0 118667.0 116065.0 141984.0 146772.0 42802.0 39976.0 154573.0 147142.0 163781.0 163396.0 107834.0 115047.0 64648.0 60035.0 60666.0 67621.0 52028.0 49204.0 208225.0 201614.0 208225.0 208225.0 201614.0 201614.0
266797.0 269513.0 290808.0 296071.0 104591.0 111483.0 59345.0 63281.0 75857.0 81341.0 342239.0 340299.0 62245.0 64522.0 308911.0 300744.0 170512.0 163929.0 239008.0 238882.0 348813.0 340894.0 67548.0 69696.0 72166.0 80285.0 157985.0 151765.0 237406.0 243262.0 98322.0 95374.0 165920.0 158332.0 24795.0 30407.0 131087.0 129258.0 317877.0 325762.0 117756.0 111281.0 38165.0 42937.0 250630.0 249539.0 35632.0 41171.0 33760.0 37602.0 185139.0 182394.0 0.0 8193.0 136561.0 128306.0 38250.0 45942.0 118193.0 114928.0 170015.0 174162.0 110790.0 106418.0 143437.0 149652.0 165378.0 160352.0 12431.0 6880.0 218835.0 211996.0 247507.0 242938.0 273434.0 277920.0 67807.0 59757.0 315255.0 315464.0 89873.0 85209.0 36852.0 41508.0 138686.0 146116.0 296755.0 291591.0 237834.0 233417.0 247351.0 249277.0 125277.0 131493.0 116930.0 118044.0 180126.0 174081.0 23574.0 26974.0 162887.0 159189.0 98148.0 100446.0 60989.0 53057.0 286229.0 280893.0 122594.0 130557.0 74800.0 77362.0 41398.0 49167.0 356310.0 349150.0 249639.0 251700.0 154491.0 162492.0 132283.0 125837.0 141473.0 135007.0 38893.0 33534.0 33792.0 27564.0 213413.0 218338.0 273941.0 267199.0 124807.0 122522.0 166900.0 174741.0 117164.0 110670.0 186669.0 194661.0 21669.0 13805.0 109139.0 102886.0 118147.0 123807.0 224904.0 222325.0 29186.0 37413.0 20025.0 19041.0 83708.0 75844.0 243374.0 240620.0 122216.0 116325.0 135761.0 135131.0 64593.0 186539.0 64593.0 64593.0 186539.0 186539.0
259317.0 262032.0 283035.0 288354.0 96890.0 103687.0 56662.0 59679.0 70039.0 75074.0 334759.0 332819.0 59989.0 61320.0 301430.0 293263.0 162322.0 155748.0 233718.0 233380.0 341353.0 333412.0 60847.0 62476.0 70561.0 78714.0 149802.0 143602.0 229925.0 235781.0 91207.0 88610.0 159341.0 151832.0 31366.0 35859.0 125033.0 122886.0 310397.0 318281.0 109592.0 103155.0 43996.0 47742.0 244985.0 244091.0 41209.0 45721.0 28234.0 30861.0 178776.0 176254.0 8193.0 0.0 132355.0 123994.0 38749.0 45873.0 110003.0 106740.0 161852.0 165977.0 103154.0 98989.0 135304.0 141485.0 159772.0 154981.0 19535.0 15070.0 212204.0 205457.0 239517.0 234902.0 265954.0 270440.0 60303.0 52243.0 307774.0 307983.0 81683.0 77062.0 34136.0 37338.0 130572.0 138029.0 288989.0 283771.0 229901.0 225430.0 239827.0 241650.0 120900.0 126818.0 111831.0 113396.0 175176.0 169357.0 15417.0 19598.0 159051.0 155692.0 97782.0 99429.0 53062.0 45223.0 278552.0 273157.0 114537.0 122514.0 67123.0 69421.0 49089.0 56916.0 348915.0 341719.0 241756.0 243754.0 148517.0 156438.0 124369.0 118007.0 133305.0 126819.0 47075.0 41674.0 36358.0 31558.0 205330.0 210219.0 266058.0 259285.0 116625.0 114388.0 159861.0 167636.0 109436.0 103077.0 179188.0 187173.0 20999.0 14763.0 100950.0 94722.0 110100.0 115825.0 218885.0 216119.0 21990.0 30049.0 17589.0 13428.0 76078.0 68167.0 236689.0 234094.0 116414.0 110820.0 130534.0 129530.0 60608.0 179059.0 60608.0 60608.0 179059.0 179059.0
287512.0 286823.0 289382.0 296837.0 84949.0 88751.0 78635.0 73432.0 66326.0 65678.0 361582.0 361205.0 77077.0 72700.0 330633.0 322483.0 147454.0 139799.0 105967.0 107569.0 355918.0 347740.0 80194.0 84851.0 71391.0 65513.0 136866.0 129125.0 264519.0 268413.0 69662.0 63855.0 64274.0 57928.0 134645.0 128594.0 38733.0 46344.0 334382.0 341301.0 132531.0 134310.0 174373.0 179494.0 120296.0 117481.0 129183.0 122370.0 146169.0 140718.0 72280.0 65444.0 136561.0 132355.0 0.0 8540.0 169321.0 175073.0 120894.0 126498.0 161395.0 159115.0 82516.0 75969.0 120421.0 128531.0 42334.0 34516.0 148345.0 140620.0 105988.0 98117.0 238776.0 231361.0 291585.0 298228.0 90265.0 94739.0 332090.0 334657.0 114101.0 107326.0 100071.0 95147.0 116077.0 116729.0 295058.0 287645.0 234548.0 227158.0 262214.0 259709.0 11804.0 10427.0 25962.0 20386.0 46408.0 38994.0 127194.0 134216.0 27594.0 27054.0 66979.0 58904.0 101896.0 103361.0 289883.0 282366.0 105187.0 106635.0 90617.0 97305.0 149628.0 154407.0 365307.0 357316.0 247436.0 245393.0 43080.0 49438.0 98805.0 92561.0 124766.0 126547.0 159129.0 160049.0 168610.0 163747.0 203250.0 203206.0 268473.0 260722.0 132086.0 138421.0 78079.0 84941.0 86456.0 80958.0 214325.0 220911.0 151913.0 147035.0 117246.0 110967.0 143464.0 150120.0 100349.0 100918.0 113264.0 107839.0 116577.0 118938.0 86403.0 90228.0 128959.0 123298.0 34757.0 32111.0 20468.0 28497.0 177758.0 217268.0 177758.0 177758.0 217268.0 217268.0
282415.0 281931.0 285550.0 292922.0 78161.0 82397.0 70760.0 65308.0 57798.0 57284.0 356821.0 356289.0 69406.0 64724.0 325527.0 317366.0 143281.0 135515.0 113140.0 114388.0 351927.0 343730.0 71708.0 76475.0 64349.0 58936.0 132305.0 124451.0 258865.0 262932.0 62327.0 56175.0 65032.0 58077.0 126947.0 121055.0 35153.0 42271.0 329741.0 336746.0 125862.0 127329.0 166194.0 171228.0 126982.0 124486.0 121821.0 115182.0 137631.0 132179.0 75277.0 68958.0 128306.0 123994.0 8540.0 0.0 160847.0 166568.0 114468.0 119811.0 156604.0 154672.0 76152.0 69288.0 115499.0 123738.0 46255.0 38799.0 140155.0 132462.0 109749.0 101898.0 235002.0 227692.0 286668.0 293203.0 81911.0 86274.0 327419.0 329835.0 106520.0 99598.0 91934.0 86847.0 110977.0 112122.0 291276.0 283950.0 230415.0 223128.0 257304.0 255016.0 3281.0 7406.0 18387.0 12006.0 53423.0 46438.0 118688.0 125689.0 36112.0 35126.0 62715.0 54590.0 93502.0 94867.0 285763.0 278324.0 99317.0 101255.0 82458.0 89286.0 142311.0 147279.0 361246.0 353271.0 243351.0 241532.0 44241.0 51437.0 93759.0 87179.0 119574.0 120909.0 151551.0 152267.0 160216.0 155425.0 199192.0 199452.0 264741.0 256993.0 125759.0 131847.0 77651.0 84957.0 80525.0 74591.0 208381.0 215095.0 143468.0 138654.0 110437.0 103940.0 136597.0 143346.0 105878.0 105925.0 104779.0 99312.0 108350.0 110571.0 78522.0 82098.0 133240.0 127928.0 29270.0 25187.0 19156.0 26320.0 169228.0 211139.0 169228.0 169228.0 211139.0 211139.0
254949.0 257664.0 280150.0 284922.0 121168.0 126675.0 95298.0 97822.0 104598.0 108166.0 330391.0 328451.0 98712.0 99711.0 297062.0 288895.0 174037.0 168634.0 268011.0 267071.0 336985.0 329050.0 92975.0 92111.0 109301.0 117454.0 162681.0 157869.0 225557.0 231413.0 120064.0 119339.0 189539.0 182480.0 58400.0 65773.0 157774.0 154485.0 306028.0 313913.0 119100.0 111416.0 28514.0 24303.0 278191.0 277901.0 70345.0 77313.0 27956.0 35883.0 209734.0 208127.0 38250.0 38749.0 169321.0 160847.0 0.0 7995.0 123525.0 118140.0 169382.0 174914.0 127804.0 125520.0 151086.0 155667.0 193562.0 189463.0 32612.0 38864.0 241660.0 235405.0 240324.0 236833.0 261586.0 266072.0 88331.0 80874.0 303406.0 303615.0 97024.0 95326.0 72853.0 75370.0 147117.0 155087.0 286003.0 281416.0 229658.0 226375.0 235515.0 237714.0 157670.0 163041.0 147339.0 149768.0 210553.0 205243.0 42429.0 36608.0 196426.0 193471.0 136157.0 138081.0 77938.0 72083.0 274850.0 269940.0 133093.0 141067.0 93287.0 92541.0 67073.0 73172.0 344580.0 337356.0 240577.0 243592.0 181242.0 188808.0 145088.0 140063.0 147649.0 139970.0 57298.0 48785.0 10047.0 17479.0 208913.0 214895.0 264666.0 258437.0 126975.0 122296.0 187618.0 194874.0 132948.0 128130.0 174821.0 182812.0 17818.0 24629.0 115228.0 111025.0 115629.0 119599.0 250925.0 247450.0 56080.0 62164.0 56298.0 51447.0 102072.0 94257.0 265703.0 263910.0 150081.0 145385.0 165570.0 163616.0 36893.0 174691.0 36893.0 36893.0 174691.0 174691.0
252298.0 255013.0 277499.0 282271.0 123714.0 128876.0 102101.0 104281.0 109788.0 112933.0 327740.0 325800.0 105632.0 106309.0 294411.0 286244.0 173414.0 168292.0 272639.0 271502.0 334334.0 326399.0 97654.0 96226.0 116384.0 124532.0 162379.0 157896.0 222906.0 228762.0 123676.0 123413.0 193110.0 186197.0 66395.0 73761.0 162162.0 158571.0 303378.0 311262.0 118517.0 110686.0 34156.0 28492.0 282454.0 282358.0 78341.0 85293.0 30848.0 38321.0 213455.0 212110.0 45942.0 45873.0 175073.0 166568.0 7995.0 0.0 123722.0 117962.0 167923.0 173709.0 130367.0 128536.0 151489.0 155692.0 198152.0 194280.0 40607.0 46807.0 244893.0 238786.0 237672.0 234236.0 258935.0 263421.0 92154.0 84967.0 300755.0 300964.0 98015.0 96958.0 79801.0 81873.0 147717.0 155735.0 283353.0 278765.0 227021.0 223734.0 232864.0 235064.0 163364.0 168516.0 152607.0 155331.0 215632.0 210514.0 47880.0 41240.0 202318.0 199568.0 143559.0 145302.0 81327.0 76025.0 272199.0 267289.0 134255.0 142153.0 96623.0 95244.0 74765.0 80696.0 341929.0 334705.0 237927.0 240959.0 185544.0 192985.0 146617.0 141932.0 147773.0 139910.0 64628.0 56088.0 17005.0 25009.0 206530.0 212656.0 262015.0 255786.0 126467.0 121341.0 190563.0 197661.0 135206.0 130782.0 172170.0 180161.0 24893.0 32199.0 115692.0 111976.0 114275.0 117834.0 254870.0 251195.0 61878.0 67413.0 63462.0 58165.0 105235.0 97560.0 268770.0 267199.0 154767.0 150359.0 170628.0 168379.0 31861.0 172040.0 31861.0 31861.0 172040.0 172040.0
171743.0 172458.0 183906.0 190378.0 36734.0 32145.0 108129.0 101361.0 78704.0 71872.0 247377.0 245990.0 111946.0 104840.0 214629.0 206462.0 52319.0 45894.0 181461.0 177470.0 247633.0 239417.0 70180.0 62459.0 120275.0 123917.0 39914.0 34401.0 145771.0 150517.0 54111.0 61851.0 95195.0 91679.0 137235.0 137774.0 85360.0 77731.0 221249.0 228724.0 12758.0 18511.0 146787.0 146146.0 185326.0 187962.0 142392.0 142025.0 96663.0 88779.0 114751.0 117337.0 118193.0 110003.0 120894.0 114468.0 123525.0 123722.0 0.0 7938.0 54119.0 56887.0 38378.0 45279.0 27900.0 32207.0 115415.0 116389.0 128371.0 125072.0 137403.0 133371.0 135961.0 130141.0 176975.0 182815.0 59795.0 65544.0 218769.0 220256.0 28320.0 33833.0 106632.0 98851.0 24762.0 32751.0 189892.0 183548.0 128190.0 122282.0 148090.0 147336.0 111816.0 110506.0 96378.0 104030.0 138537.0 137941.0 94773.0 94011.0 144332.0 146860.0 144860.0 139776.0 59948.0 68003.0 181722.0 175110.0 18553.0 23289.0 52246.0 45442.0 157012.0 164820.0 256313.0 248558.0 140984.0 141305.0 100550.0 104345.0 31650.0 32837.0 24129.0 16859.0 156982.0 151596.0 130180.0 131631.0 99787.0 103326.0 164689.0 157292.0 11448.0 17782.0 84642.0 88999.0 35202.0 39936.0 94573.0 101673.0 114847.0 116927.0 9096.0 16448.0 24737.0 30262.0 155306.0 149308.0 92019.0 84533.0 109413.0 103268.0 47404.0 51514.0 158375.0 159122.0 86290.0 89291.0 103513.0 96341.0 112043.0 96878.0 112043.0 112043.0 96878.0 96878.0
168958.0 170041.0 183224.0 189487.0 41660.0 38101.0 108960.0 102536.0 80884.0 74513.0 244737.0 243113.0 112939.0 106084.0 211725.0 203558.0 56264.0 50515.0 189225.0 185292.0 246168.0 237974.0 71201.0 63254.0 121791.0 125885.0 44550.0 40002.0 142094.0 147153.0 58432.0 65885.0 102898.0 99221.0 134872.0 135854.0 91768.0 84250.0 218925.0 226497.0 6057.0 10574.0 142143.0 141141.0 193211.0 195804.0 140616.0 140703.0 91759.0 83989.0 122557.0 125036.0 114928.0 106740.0 126498.0 119811.0 118140.0 117962.0 7938.0 0.0 55495.0 59248.0 44218.0 50547.0 34638.0 37802.0 122603.0 123339.0 124669.0 121786.0 145338.0 141306.0 136155.0 130673.0 174474.0 180081.0 59989.0 64976.0 216412.0 217646.0 25859.0 32666.0 105802.0 98270.0 32059.0 39907.0 189225.0 183098.0 127848.0 122294.0 145873.0 145552.0 117064.0 116164.0 101567.0 109069.0 145635.0 144817.0 91378.0 89989.0 150492.0 152749.0 147280.0 142534.0 58575.0 66386.0 180579.0 174174.0 26255.0 31225.0 52832.0 45391.0 154477.0 162323.0 254696.0 247007.0 140481.0 141220.0 107708.0 111721.0 39549.0 40378.0 30089.0 21982.0 153813.0 148120.0 125150.0 126997.0 100443.0 104532.0 164432.0 157158.0 10039.0 12281.0 92534.0 96933.0 41863.0 45753.0 90654.0 98001.0 110298.0 112829.0 9723.0 17487.0 17487.0 23688.0 163200.0 157226.0 89754.0 82605.0 107363.0 100840.0 49230.0 52221.0 166263.0 167044.0 92112.0 94635.0 109639.0 102655.0 105770.0 92464.0 105770.0 105770.0 92464.0 92464.0
126328.0 125432.0 131460.0 138331.0 85705.0 78729.0 161721.0 154685.0 131055.0 123651.0 200227.0 199815.0 165388.0 158075.0 169490.0 161291.0 18774.0 23723.0 195047.0 189233.0 196658.0 188425.0 123829.0 116296.0 173112.0 176089.0 24870.0 32305.0 105975.0 108701.0 103110.0 111129.0 116370.0 116507.0 190350.0 191333.0 122833.0 115096.0 173149.0 180208.0 52260.0 58988.0 195101.0 193219.0 193841.0 198490.0 196067.0 195976.0 144670.0 137259.0 131010.0 136437.0 170015.0 161852.0 161395.0 156604.0 169382.0 167923.0 54119.0 55495.0 0.0 7909.0 84300.0 92286.0 41133.0 32875.0 143300.0 146929.0 179301.0 176840.0 141046.0 139911.0 82356.0 76222.0 130203.0 136927.0 113862.0 119650.0 170819.0 173270.0 81307.0 87677.0 160723.0 152968.0 45879.0 44723.0 137386.0 130673.0 75511.0 69021.0 100835.0 98417.0 154523.0 151137.0 140011.0 147999.0 166139.0 168073.0 146442.0 144424.0 180401.0 184722.0 196056.0 190298.0 113800.0 121735.0 130338.0 123272.0 60410.0 56169.0 106231.0 99560.0 209908.0 217762.0 205708.0 197809.0 88498.0 88054.0 129947.0 130545.0 62906.0 69923.0 37719.0 39431.0 208898.0 202931.0 177320.0 180094.0 45875.0 49215.0 111581.0 104029.0 45465.0 47737.0 100907.0 100826.0 78094.0 85708.0 61315.0 65563.0 163717.0 166996.0 62953.0 70567.0 53755.0 50259.0 164726.0 157282.0 145249.0 138064.0 162851.0 156320.0 100711.0 105458.0 155956.0 159424.0 127340.0 132573.0 141667.0 133666.0 154464.0 66901.0 154464.0 154464.0 66901.0 66901.0
129562.0 128187.0 131744.0 138850.0 86176.0 78903.0 163291.0 156072.0 132021.0 124431.0 202601.0 202486.0 166829.0 159394.0 172679.0 164437.0 12788.0 19504.0 188966.0 183005.0 197576.0 189355.0 125569.0 118236.0 174148.0 176780.0 22438.0 30451.0 110725.0 112995.0 103263.0 111247.0 111747.0 112342.0 193944.0 194634.0 120413.0 112775.0 175301.0 182187.0 56657.0 63833.0 200230.0 198592.0 187310.0 192115.0 199273.0 198878.0 149737.0 142204.0 125627.0 131316.0 174162.0 165977.0 159115.0 154672.0 174914.0 173709.0 56887.0 59248.0 7909.0 0.0 84174.0 92178.0 40000.0 31520.0 139203.0 143165.0 183752.0 181015.0 134371.0 133489.0 81848.0 75230.0 133005.0 139955.0 116133.0 122267.0 173031.0 175787.0 84767.0 90711.0 163354.0 155466.0 45114.0 42591.0 137604.0 130639.0 76024.0 69063.0 103725.0 100726.0 152719.0 148962.0 138517.0 146504.0 161814.0 164080.0 150601.0 148947.0 177226.0 181823.0 196277.0 190289.0 116834.0 124879.0 131280.0 123991.0 60795.0 55667.0 108386.0 102074.0 213632.0 221465.0 206776.0 198830.0 89026.0 87918.0 126207.0 126365.0 61529.0 68928.0 37723.0 41062.0 213052.0 207284.0 182646.0 185163.0 45288.0 47361.0 111433.0 103773.0 49363.0 52714.0 95970.0 95387.0 77631.0 85513.0 67839.0 71586.0 168661.0 171663.0 65920.0 73228.0 59442.0 56551.0 158402.0 150872.0 148747.0 141368.0 166231.0 159926.0 102358.0 107566.0 148764.0 152400.0 125482.0 131082.0 139138.0 131084.0 160365.0 73696.0 160365.0 160365.0 73696.0 73696.0
207882.0 207987.0 215676.0 222614.0 6654.0 6245.0 82267.0 74497.0 49524.0 41524.0 283052.0 282071.0 85229.0 77494.0 250911.0 242697.0 74900.0 66938.0 151282.0 148383.0 280926.0 272691.0 47232.0 42146.0 91195.0 93105.0 62226.0 54206.0 183176.0 187545.0 19251.0 27139.0 65852.0 60338.0 124209.0 122572.0 47795.0 40507.0 256420.0 263690.0 50194.0 52838.0 145513.0 147042.0 157750.0 159197.0 126313.0 123856.0 99906.0 92130.0 86533.0 87167.0 110790.0 103154.0 82516.0 76152.0 127804.0 130367.0 38378.0 44218.0 84300.0 84174.0 0.0 8006.0 44401.0 52817.0 80619.0 80385.0 122685.0 117358.0 115320.0 109738.0 166017.0 159367.0 212627.0 218833.0 43067.0 51072.0 254011.0 255949.0 38861.0 35602.0 88106.0 79795.0 39141.0 43530.0 221579.0 214730.0 159761.0 153070.0 183404.0 181853.0 73555.0 72131.0 58192.0 65959.0 103066.0 101529.0 89936.0 92590.0 106281.0 108572.0 112125.0 106125.0 50752.0 58085.0 214621.0 207572.0 24118.0 28553.0 36035.0 35272.0 144048.0 151411.0 289922.0 282044.0 172762.0 172017.0 65784.0 71036.0 24872.0 17052.0 46640.0 45967.0 147221.0 143642.0 131944.0 130978.0 129433.0 131296.0 195552.0 187916.0 49612.0 55956.0 60543.0 67365.0 7256.0 1561.0 132373.0 139227.0 114664.0 114079.0 35391.0 30418.0 61508.0 67906.0 128476.0 123674.0 81700.0 73438.0 96470.0 92689.0 27083.0 34992.0 138742.0 137685.0 47951.0 51009.0 65429.0 58548.0 123436.0 135005.0 123436.0 123436.0 135005.0 135005.0
215605.0 215787.0 223676.0 230607.0 9070.0 13770.0 74993.0 67141.0 42090.0 34027.0 290852.0 289818.0 77819.0 70048.0 258616.0 250387.0 82843.0 74871.0 149519.0 147023.0 288895.0 280661.0 41117.0 36923.0 83476.0 85227.0 70206.0 62176.0 190630.0 195099.0 11428.0 19190.0 65403.0 59203.0 118678.0 116680.0 42994.0 36255.0 264269.0 271558.0 56590.0 58489.0 141968.0 143905.0 156848.0 157892.0 120249.0 117470.0 97813.0 90216.0 86073.0 85967.0 106418.0 98989.0 75969.0 69288.0 125520.0 128536.0 45279.0 50547.0 92286.0 92178.0 8006.0 0.0 52379.0 60806.0 77385.0 76434.0 118506.0 112852.0 116389.0 110430.0 174022.0 167366.0 220415.0 226576.0 38699.0 46755.0 261852.0 263742.0 41484.0 36812.0 81968.0 73675.0 47132.0 51355.0 229580.0 222735.0 167757.0 161074.0 191219.0 189737.0 66582.0 65663.0 51116.0 58751.0 99252.0 97150.0 86397.0 89688.0 100483.0 102374.0 104131.0 98119.0 47701.0 54460.0 222596.0 215558.0 32016.0 36545.0 32445.0 33472.0 138396.0 145645.0 297880.0 290006.0 180758.0 180022.0 62789.0 68724.0 32440.0 24540.0 54640.0 53805.0 142101.0 138867.0 129113.0 127682.0 137439.0 139286.0 203557.0 195921.0 56658.0 62560.0 62098.0 69430.0 14880.0 6700.0 139672.0 146618.0 111647.0 110544.0 41291.0 35352.0 67521.0 74151.0 128004.0 123621.0 77233.0 69012.0 91239.0 87964.0 23497.0 31434.0 140242.0 138722.0 41818.0 44102.0 59751.0 53324.0 122800.0 142135.0 122800.0 122800.0 142135.0 142135.0
167097.0 166450.0 171739.0 178815.0 47028.0 39467.0 125195.0 117703.0 93143.0 85346.0 241323.0 240822.0 128494.0 120896.0 210242.0 202070.0 30592.0 22714.0 164209.0 159357.0 237442.0 229215.0 88137.0 81373.0 135182.0 137409.0 17827.0 9818.0 145035.0 148461.0 63615.0 71539.0 80395.0 79010.0 160864.0 160575.0 82021.0 74228.0 214280.0 221340.0 36455.0 44247.0 173668.0 173378.0 165912.0 169415.0 164874.0 163588.0 123921.0 115972.0 97786.0 101912.0 143437.0 135304.0 120421.0 115499.0 151086.0 151489.0 27900.0 34638.0 41133.0 40000.0 44401.0 52379.0 0.0 8481.0 105206.0 107997.0 154173.0 150300.0 115485.0 112465.0 121795.0 115041.0 171197.0 177808.0 80165.0 87152.0 211945.0 214338.0 54539.0 58256.0 127637.0 119482.0 5344.0 6256.0 177603.0 170633.0 115959.0 109060.0 141828.0 139545.0 113396.0 110120.0 98891.0 106881.0 128444.0 129508.0 120389.0 120413.0 140257.0 144225.0 156501.0 150399.0 83211.0 91398.0 171118.0 163903.0 22244.0 15869.0 72288.0 67227.0 180817.0 188512.0 246581.0 238654.0 128969.0 127913.0 91124.0 92846.0 21773.0 28953.0 6325.0 14134.0 181859.0 176970.0 157462.0 158537.0 85276.0 86916.0 151420.0 143750.0 29199.0 37434.0 66754.0 69100.0 37692.0 45686.0 96579.0 102370.0 141716.0 143289.0 35857.0 40796.0 46513.0 48905.0 135919.0 129239.0 115973.0 108054.0 132755.0 127340.0 65115.0 71359.0 134776.0 136386.0 86229.0 91452.0 100897.0 92965.0 139943.0 100704.0 139943.0 139943.0 100704.0 100704.0
159071.0 158293.0 163261.0 170344.0 55249.0 47769.0 133211.0 125783.0 101338.0 93591.0 233102.0 232675.0 136572.0 129010.0 202224.0 194044.0 22435.0 14785.0 168890.0 163758.0 228994.0 220768.0 95938.0 89005.0 143419.0 145746.0 9456.0 2204.0 137552.0 140782.0 72003.0 79946.0 86380.0 85541.0 167684.0 167631.0 90013.0 82255.0 206004.0 213032.0 38310.0 46347.0 178959.0 178353.0 169801.0 173622.0 172017.0 170946.0 128870.0 120984.0 102946.0 107505.0 149652.0 141485.0 128531.0 123738.0 155667.0 155692.0 32207.0 37802.0 32875.0 31520.0 52817.0 60806.0 8481.0 0.0 112027.0 115139.0 160136.0 156529.0 118526.0 116004.0 113319.0 106581.0 163055.0 169730.0 87546.0 94324.0 203681.0 206144.0 60071.0 64496.0 135056.0 126956.0 13675.0 12123.0 169124.0 162152.0 107494.0 100581.0 133685.0 131278.0 121676.0 118265.0 107254.0 115245.0 135160.0 136537.0 126410.0 126016.0 147923.0 152058.0 164936.0 158859.0 89963.0 98148.0 162674.0 155444.0 30135.0 24263.0 79678.0 74235.0 187601.0 195337.0 238146.0 230215.0 120502.0 119432.0 98196.0 99494.0 30134.0 37419.0 8189.0 15823.0 188259.0 183154.0 162385.0 163805.0 76795.0 78480.0 142940.0 135270.0 30445.0 37861.0 72014.0 73568.0 46157.0 54119.0 89830.0 95329.0 147009.0 148933.0 40906.0 46767.0 46859.0 48009.0 139949.0 133030.0 122624.0 114819.0 139623.0 133974.0 72807.0 78776.0 136792.0 138882.0 94478.0 99815.0 108867.0 100892.0 143565.0 94275.0 143565.0 143565.0 94275.0 94275.0
268597.0 266778.0 263993.0 271762.0 85778.0 85898.0 112189.0 105425.0 89745.0 85423.0 340209.0 340668.0 111810.0 105811.0 311609.0 303341.0 126583.0 119866.0 74488.0 73643.0 330773.0 322732.0 100589.0 102171.0 108745.0 104226.0 118579.0 111913.0 249209.0 251982.0 77206.0 75431.0 29028.0 26868.0 168166.0 163084.0 36298.0 41469.0 312576.0 319001.0 128130.0 132299.0 203500.0 207489.0 85252.0 84412.0 164539.0 158546.0 167631.0 160941.0 30315.0 23144.0 165378.0 159772.0 42334.0 46255.0 193562.0 198152.0 115415.0 122603.0 143300.0 139203.0 80619.0 77385.0 105206.0 112027.0 0.0 7913.0 177709.0 170462.0 63688.0 55818.0 213687.0 205896.0 271633.0 278801.0 106707.0 113368.0 310455.0 313801.0 118824.0 114051.0 131011.0 124495.0 102242.0 99981.0 269391.0 261649.0 211245.0 203461.0 242565.0 238916.0 47741.0 39572.0 49476.0 51186.0 23321.0 24940.0 151347.0 157044.0 42977.0 50055.0 108846.0 100725.0 118271.0 122395.0 265845.0 258030.0 97150.0 95314.0 103899.0 108180.0 185014.0 190585.0 340431.0 332413.0 223705.0 220623.0 14913.0 12910.0 86259.0 82805.0 110856.0 115294.0 193099.0 192750.0 194738.0 191175.0 180128.0 178611.0 242833.0 235151.0 125153.0 132960.0 45476.0 49933.0 81038.0 79322.0 201751.0 207356.0 177253.0 173787.0 114955.0 110921.0 140041.0 145628.0 60859.0 60069.0 138598.0 131649.0 146156.0 146593.0 96718.0 103150.0 86988.0 81732.0 43516.0 49068.0 30798.0 30251.0 196277.0 205896.0 196277.0 196277.0 205896.0 205896.0
272710.0 271096.0 269281.0 277002.0 85121.0 85957.0 106102.0 99560.0 85130.0 81350.0 344845.0 345154.0 105521.0 99762.0 315794.0 307539.0 130665.0 123721.0 78746.0 78584.0 336077.0 328006.0 96628.0 98763.0 101991.0 97218.0 122098.0 115166.0 252627.0 255612.0 75098.0 72550.0 35117.0 31551.0 162280.0 157005.0 33922.0 40180.0 317267.0 323787.0 129010.0 132756.0 198513.0 202724.0 90593.0 89195.0 158300.0 152140.0 163954.0 157461.0 38215.0 31042.0 160352.0 154981.0 34516.0 38799.0 189463.0 194280.0 116389.0 123339.0 146929.0 143165.0 80385.0 76434.0 107997.0 115139.0 7913.0 0.0 172619.0 165263.0 71472.0 63600.0 218851.0 211115.0 275941.0 283022.0 103508.0 109855.0 315113.0 318321.0 117891.0 112696.0 125471.0 119200.0 104725.0 103028.0 274734.0 267044.0 216074.0 208348.0 246774.0 243331.0 40478.0 32380.0 43680.0 44572.0 22833.0 21661.0 147112.0 153074.0 36315.0 42992.0 101212.0 93098.0 115205.0 118892.0 270891.0 263121.0 98413.0 97208.0 101229.0 105997.0 178804.0 184229.0 345694.0 337675.0 228636.0 225739.0 16982.0 18567.0 88270.0 84187.0 113441.0 117394.0 187175.0 187067.0 190291.0 186478.0 184854.0 183610.0 248141.0 240436.0 126496.0 134081.0 51249.0 56372.0 81510.0 79008.0 204549.0 210353.0 172902.0 169166.0 115309.0 110802.0 140824.0 146651.0 67461.0 67166.0 134088.0 127368.0 140923.0 141707.0 94482.0 100534.0 94577.0 89142.0 39609.0 44204.0 24747.0 25923.0 193212.0 208479.0 193212.0 193212.0 208479.0 208479.0
273093.0 275808.0 297859.0 302907.0 116410.0 123169.0 70489.0 74932.0 88258.0 93772.0 348535.0 346595.0 73074.0 75943.0 315206.0 307039.0 180629.0 174238.0 251231.0 251173.0 355129.0 347194.0 79936.0 81908.0 82408.0 90428.0 168268.0 162274.0 243701.0 249557.0 110594.0 107758.0 178340.0 170758.0 25791.0 33265.0 143503.0 141689.0 324172.0 332057.0 127140.0 120347.0 26044.0 31558.0 262959.0 261813.0 37740.0 44860.0 37857.0 43598.0 197570.0 194815.0 12431.0 19535.0 148345.0 140155.0 32612.0 40607.0 128371.0 124669.0 179301.0 183752.0 122685.0 118506.0 154173.0 160136.0 177709.0 172619.0 0.0 7927.0 231251.0 224421.0 255539.0 251221.0 279730.0 284216.0 79829.0 71769.0 321550.0 321759.0 100117.0 95932.0 48315.0 53560.0 149529.0 157078.0 303774.0 298825.0 245596.0 241451.0 253659.0 255840.0 137163.0 143512.0 129129.0 130065.0 192234.0 186094.0 33789.0 34896.0 174433.0 170525.0 107044.0 109961.0 72475.0 64713.0 292930.0 287816.0 133683.0 141689.0 86653.0 88803.0 36858.0 44010.0 362724.0 355500.0 257176.0 259511.0 166896.0 174906.0 143751.0 137465.0 151947.0 145227.0 30719.0 23756.0 25547.0 17873.0 221997.0 227176.0 281454.0 274853.0 134417.0 131612.0 179213.0 187027.0 128946.0 122612.0 192965.0 200956.0 20418.0 13538.0 119385.0 113448.0 126688.0 132007.0 237309.0 234750.0 41364.0 49518.0 31851.0 31470.0 95612.0 87696.0 255783.0 253047.0 134599.0 128646.0 147992.0 147468.0 64505.0 192835.0 64505.0 64505.0 192835.0 192835.0
273009.0 275725.0 297249.0 302461.0 111203.0 118152.0 62618.0 67189.0 81254.0 87029.0 348451.0 346511.0 65163.0 68126.0 315123.0 306955.0 177391.0 170809.0 243803.0 243840.0 354969.0 347070.0 73562.0 76036.0 74484.0 82510.0 164865.0 158641.0 243617.0 249474.0 104554.0 101373.0 171725.0 164083.0 20478.0 27215.0 136537.0 134941.0 324089.0 331973.0 124583.0 118069.0 33769.0 39479.0 255693.0 254451.0 32115.0 38598.0 38942.0 43503.0 190773.0 187864.0 6880.0 15070.0 140620.0 132462.0 38864.0 46807.0 125072.0 121786.0 176840.0 181015.0 117358.0 112852.0 150300.0 156529.0 170462.0 165263.0 7927.0 0.0 224655.0 217750.0 254152.0 249629.0 279646.0 284132.0 74324.0 66292.0 321467.0 321676.0 96752.0 92079.0 40552.0 46082.0 145540.0 152956.0 303189.0 298074.0 244425.0 240062.0 253575.0 255592.0 129490.0 135919.0 121702.0 122477.0 184699.0 178486.0 30415.0 33364.0 166617.0 162660.0 99290.0 102108.0 67755.0 59779.0 292584.0 287302.0 129418.0 137374.0 81414.0 84128.0 35263.0 42921.0 362640.0 355281.0 256185.0 258303.0 159860.0 167913.0 139022.0 132525.0 148350.0 141887.0 32058.0 26682.0 32767.0 25480.0 220150.0 225113.0 280485.0 273772.0 131657.0 129316.0 173036.0 180921.0 123789.0 117209.0 192881.0 200872.0 24167.0 16208.0 116018.0 109762.0 124857.0 130458.0 230262.0 227826.0 35664.0 43924.0 24343.0 25025.0 90286.0 82457.0 249227.0 246356.0 127494.0 121396.0 140595.0 140243.0 68264.0 192751.0 68264.0 68264.0 192751.0 192751.0
254388.0 250676.0 238281.0 246331.0 121905.0 118036.0 171251.0 163809.0 143891.0 137655.0 319271.0 321170.0 171617.0 164861.0 295577.0 287384.0 122273.0 118663.0 58119.0 50887.0 303349.0 295771.0 151364.0 150330.0 170158.0 166440.0 120565.0 117262.0 242074.0 242821.0 121769.0 123609.0 52931.0 60640.0 225564.0 221377.0 89411.0 89866.0 291665.0 297019.0 149268.0 155909.0 256106.0 258887.0 53141.0 58642.0 223491.0 218235.0 214115.0 206581.0 35210.0 40800.0 218835.0 212204.0 105988.0 109749.0 241660.0 244893.0 137403.0 145338.0 141046.0 134371.0 115320.0 116389.0 115485.0 118526.0 63688.0 71472.0 231251.0 224655.0 0.0 7871.0 191164.0 183168.0 255483.0 263268.0 153563.0 161324.0 289912.0 294522.0 152534.0 150652.0 187516.0 180115.0 115443.0 109230.0 242937.0 234884.0 192297.0 184326.0 228349.0 222868.0 110975.0 102797.0 109690.0 113183.0 68714.0 76632.0 201255.0 205417.0 100271.0 108358.0 172450.0 164324.0 163727.0 169806.0 242582.0 234550.0 119918.0 114115.0 148379.0 149819.0 243654.0 249812.0 313258.0 305391.0 203145.0 198274.0 67926.0 59746.0 106137.0 107599.0 121781.0 129247.0 250392.0 248924.0 244673.0 242490.0 164080.0 159855.0 217594.0 210437.0 143363.0 151892.0 54841.0 48827.0 111710.0 114686.0 202205.0 205781.0 227058.0 225063.0 141106.0 140536.0 160679.0 164054.0 26537.0 18525.0 190255.0 182444.0 200982.0 199803.0 139668.0 147417.0 24648.0 22365.0 99416.0 106923.0 92654.0 89174.0 238750.0 207941.0 238750.0 238750.0 207941.0 207941.0
255475.0 251998.0 240837.0 248874.0 116270.0 112731.0 163812.0 156420.0 136820.0 130722.0 321393.0 323109.0 164111.0 157415.0 297013.0 288791.0 121160.0 117096.0 56481.0 49855.0 306293.0 298639.0 144613.0 143809.0 162508.0 158716.0 118627.0 114858.0 242211.0 243219.0 115381.0 116933.0 46124.0 53669.0 218340.0 214061.0 82091.0 82839.0 293727.0 299233.0 145448.0 151877.0 249402.0 252313.0 54019.0 58633.0 216111.0 210779.0 207970.0 200503.0 27625.0 32965.0 211996.0 205457.0 98117.0 101898.0 235405.0 238786.0 133371.0 141306.0 139911.0 133489.0 109738.0 110430.0 112465.0 116004.0 55818.0 63600.0 224421.0 217750.0 7871.0 0.0 193099.0 185088.0 256827.0 264555.0 147176.0 154869.0 291922.0 296377.0 147412.0 145227.0 180335.0 173004.0 112086.0 106218.0 245607.0 237572.0 193754.0 185764.0 229346.0 224082.0 103143.0 94963.0 102056.0 105437.0 61312.0 69120.0 194735.0 199060.0 92695.0 100758.0 164593.0 156468.0 157518.0 163436.0 244823.0 236794.0 115583.0 110113.0 142185.0 143900.0 236318.0 242420.0 316187.0 308285.0 204872.0 200220.0 60302.0 52090.0 101877.0 102857.0 118786.0 126009.0 243199.0 241844.0 238232.0 235903.0 164968.0 161079.0 220014.0 212758.0 139810.0 148341.0 49634.0 44380.0 106457.0 109035.0 201207.0 205055.0 220601.0 218453.0 136667.0 135731.0 157013.0 160663.0 25062.0 17383.0 183539.0 175792.0 193981.0 192956.0 133561.0 141237.0 32023.0 28638.0 92011.0 99433.0 84886.0 81541.0 233058.0 206777.0 233058.0 233058.0 206777.0 206777.0
67330.0 61739.0 50621.0 58200.0 167856.0 160688.0 243967.0 237000.0 213401.0 205956.0 128362.0 130024.0 247682.0 240406.0 105318.0 97317.0 92064.0 100006.0 249232.0 242043.0 117335.0 109217.0 206034.0 198398.0 255468.0 258383.0 104047.0 112117.0 70507.0 66403.0 185071.0 193067.0 184819.0 187303.0 269377.0 271114.0 200130.0 192757.0 100656.0 106373.0 131870.0 137159.0 267886.0 264627.0 242830.0 249233.0 276048.0 276603.0 218801.0 212144.0 194015.0 201040.0 247507.0 239517.0 238776.0 235002.0 240324.0 237672.0 135961.0 136155.0 82356.0 81848.0 166017.0 174022.0 121795.0 113319.0 213687.0 218851.0 255539.0 254152.0 191164.0 193099.0 0.0 8013.0 66258.0 74243.0 195711.0 201091.0 98826.0 103361.0 161861.0 168813.0 241951.0 234413.0 126951.0 123876.0 56284.0 48986.0 12001.0 14091.0 44674.0 36841.0 233266.0 228897.0 219548.0 227504.0 234771.0 238467.0 224202.0 220916.0 254417.0 259796.0 278095.0 272136.0 194670.0 202347.0 52316.0 44405.0 142477.0 137513.0 188207.0 181238.0 288422.0 296288.0 126882.0 118866.0 13028.0 7123.0 202335.0 200841.0 143087.0 150639.0 119468.0 121787.0 285960.0 279281.0 249322.0 253466.0 36602.0 35570.0 29752.0 22018.0 126243.0 126257.0 168325.0 165163.0 159467.0 167360.0 74070.0 68620.0 238027.0 242512.0 144488.0 152318.0 129510.0 123700.0 217565.0 209541.0 224896.0 218216.0 242630.0 235593.0 182988.0 187474.0 197100.0 203205.0 206103.0 212147.0 218440.0 210353.0 224102.0 80125.0 224102.0 224102.0 80125.0 80125.0
74557.0 69260.0 58200.0 65887.0 161385.0 154132.0 237943.0 230889.0 207103.0 199585.0 136374.0 138030.0 241601.0 234267.0 113139.0 105102.0 85046.0 93021.0 241231.0 234050.0 124984.0 116895.0 200047.0 192485.0 249209.0 251976.0 97241.0 105308.0 75457.0 71962.0 178487.0 186464.0 177001.0 179564.0 264506.0 266059.0 192757.0 185429.0 108669.0 114373.0 126585.0 132151.0 264177.0 261125.0 234878.0 241263.0 270945.0 271316.0 214766.0 207969.0 186060.0 193106.0 242938.0 234902.0 231361.0 227692.0 236833.0 234236.0 130141.0 130673.0 76222.0 75230.0 159367.0 167366.0 115041.0 106581.0 205896.0 211115.0 251221.0 249629.0 183168.0 185088.0 8013.0 0.0 73847.0 81822.0 189936.0 195486.0 106838.0 111353.0 156471.0 163276.0 236449.0 228827.0 120244.0 116915.0 63761.0 56284.0 14422.0 11601.0 51001.0 43507.0 225995.0 221528.0 212392.0 220336.0 226903.0 230651.0 219543.0 216488.0 246750.0 252187.0 271489.0 265440.0 189245.0 197005.0 60256.0 52316.0 135998.0 130825.0 182364.0 175528.0 283685.0 291555.0 134580.0 126561.0 20470.0 15136.0 194642.0 193062.0 136174.0 143789.0 112940.0 115594.0 281526.0 274976.0 245696.0 249634.0 30363.0 28300.0 37139.0 29395.0 120699.0 121125.0 160504.0 157270.0 152733.0 160688.0 73664.0 68904.0 234010.0 238301.0 138789.0 146553.0 124802.0 119224.0 209562.0 201539.0 219831.0 213016.0 237552.0 230629.0 176932.0 181610.0 189233.0 195299.0 198868.0 205006.0 210996.0 202913.0 220667.0 80081.0 220667.0 220667.0 80081.0 80081.0
8493.0 4870.0 42740.0 40514.0 212794.0 206645.0 282600.0 276606.0 255338.0 248772.0 70449.0 69625.0 286755.0 280199.0 40278.0 32013.0 145324.0 152509.0 313261.0 306312.0 76524.0 68999.0 245343.0 237299.0 296064.0 300348.0 154884.0 162500.0 40827.0 32890.0 230463.0 238396.0 243469.0 244795.0 297118.0 300260.0 253034.0 245298.0 44610.0 52395.0 168953.0 171687.0 289386.0 285889.0 307791.0 313941.0 305518.0 307717.0 242000.0 236266.0 255006.0 261524.0 273434.0 265954.0 291585.0 286668.0 261586.0 258935.0 176975.0 174474.0 130203.0 133005.0 212627.0 220415.0 171197.0 163055.0 271633.0 275941.0 279730.0 279646.0 255483.0 256827.0 66258.0 73847.0 0.0 7987.0 233495.0 237185.0 42039.0 43330.0 197863.0 205676.0 275867.0 269289.0 175696.0 174915.0 45194.0 47802.0 63223.0 71170.0 29371.0 32927.0 284505.0 281308.0 269759.0 277722.0 293787.0 296571.0 251387.0 246475.0 310231.0 314781.0 321701.0 316743.0 229448.0 236112.0 31804.0 35399.0 188541.0 185589.0 226851.0 219013.0 314823.0 322552.0 83440.0 76554.0 53379.0 59599.0 259030.0 258732.0 192911.0 199604.0 167153.0 166667.0 310449.0 303116.0 270705.0 275355.0 92430.0 95757.0 50080.0 53568.0 165763.0 162615.0 227204.0 225222.0 207066.0 214125.0 86809.0 78827.0 260858.0 266289.0 184000.0 191929.0 162355.0 155332.0 281630.0 273648.0 255461.0 250175.0 272752.0 264922.0 223701.0 226336.0 262741.0 268605.0 257399.0 262342.0 271858.0 263845.0 245365.0 88159.0 245365.0 245365.0 88159.0 88159.0
11165.0 12630.0 48387.0 45112.0 218842.0 212810.0 287819.0 281940.0 260964.0 254503.0 64675.0 63242.0 292010.0 285543.0 32831.0 24552.0 152361.0 159455.0 321004.0 314080.0 74284.0 67162.0 250733.0 242674.0 301457.0 305874.0 161688.0 169231.0 42998.0 35545.0 236499.0 244403.0 250731.0 251948.0 301604.0 304794.0 259741.0 251984.0 40158.0 48151.0 174481.0 176956.0 293871.0 290374.0 315630.0 321753.0 310040.0 312204.0 246486.0 240752.0 262476.0 268943.0 277920.0 270440.0 298228.0 293203.0 266072.0 263421.0 182815.0 180081.0 136927.0 139955.0 218833.0 226576.0 177808.0 169730.0 278801.0 283022.0 284216.0 284132.0 263268.0 264555.0 74243.0 81822.0 7987.0 0.0 238772.0 242277.0 37500.0 37654.0 203116.0 210976.0 280610.0 274151.0 182231.0 181650.0 50118.0 53622.0 71069.0 78996.0 36247.0 40505.0 291001.0 287925.0 276176.0 284127.0 301040.0 303732.0 255872.0 250960.0 317154.0 321616.0 327360.0 322515.0 234435.0 240970.0 37473.0 42028.0 194785.0 192025.0 232238.0 224343.0 319309.0 327037.0 80486.0 74023.0 61356.0 67585.0 266091.0 265907.0 199476.0 206069.0 173636.0 172911.0 314934.0 307602.0 275191.0 279840.0 99974.0 103476.0 57474.0 61277.0 171537.0 168122.0 234506.0 232632.0 213382.0 220341.0 91394.0 83470.0 265344.0 270775.0 189663.0 197560.0 167535.0 160458.0 289383.0 281407.0 259914.0 254794.0 277238.0 269414.0 229304.0 231746.0 270654.0 276493.0 263944.0 268770.0 278587.0 270592.0 249851.0 92214.0 249851.0 249851.0 92214.0 92214.0
227611.0 229174.0 243198.0 249476.0 37059.0 44324.0 49142.0 43214.0 26525.0 24666.0 303420.0 301543.0 53260.0 46834.0 270155.0 261988.0 109738.0 102322.0 181075.0 179621.0 306006.0 297825.0 12777.0 5523.0 62847.0 67940.0 96695.0 89457.0 199262.0 204930.0 31799.0 31379.0 101226.0 94151.0 81689.0 80719.0 70452.0 66466.0 278073.0 285744.0 64998.0 61819.0 103363.0 105558.0 190395.0 190501.0 84849.0 83427.0 61349.0 54351.0 121408.0 119956.0 67807.0 60303.0 90265.0 81911.0 88331.0 92154.0 59795.0 59989.0 113862.0 116133.0 43067.0 38699.0 80165.0 87546.0 106707.0 103508.0 79829.0 74324.0 153563.0 147176.0 195711.0 189936.0 233495.0 238772.0 0.0 8061.0 275524.0 276422.0 35658.0 27823.0 47510.0 39439.0 74984.0 81609.0 249197.0 243017.0 187711.0 181971.0 205273.0 205286.0 78646.0 81741.0 65017.0 69913.0 125661.0 121489.0 47900.0 51886.0 117715.0 116974.0 90261.0 86774.0 11809.0 16264.0 240544.0 234163.0 58077.0 65572.0 7877.0 14606.0 101638.0 109162.0 314445.0 306799.0 200405.0 200963.0 93613.0 100913.0 65720.0 58746.0 79726.0 75085.0 104256.0 100576.0 91118.0 89242.0 159583.0 163021.0 224272.0 216934.0 69649.0 71193.0 100148.0 107745.0 49660.0 42888.0 147932.0 155656.0 73521.0 71981.0 51243.0 43395.0 71267.0 78395.0 162720.0 159132.0 38659.0 30404.0 53694.0 49626.0 16095.0 8818.0 177789.0 175739.0 63979.0 61003.0 81185.0 77680.0 89706.0 148561.0 89706.0 89706.0 148561.0 148561.0
231112.0 232934.0 248064.0 254209.0 44987.0 52139.0 45805.0 40876.0 29032.0 29297.0 306852.0 304922.0 50151.0 44493.0 273534.0 265366.0 116348.0 109062.0 187832.0 186563.0 310306.0 302149.0 14648.0 11261.0 60525.0 66353.0 103351.0 96284.0 202271.0 208096.0 39577.0 38479.0 108849.0 101677.0 74096.0 73442.0 77244.0 73641.0 281792.0 289521.0 69620.0 65687.0 95362.0 97661.0 197488.0 197428.0 77725.0 76720.0 54290.0 47611.0 128913.0 127259.0 59757.0 52243.0 94739.0 86274.0 80874.0 84967.0 65544.0 64976.0 119650.0 122267.0 51072.0 46755.0 87152.0 94324.0 113368.0 109855.0 71769.0 66292.0 161324.0 154869.0 201091.0 195486.0 237185.0 242277.0 8061.0 0.0 279223.0 279928.0 39672.0 32319.0 41095.0 33341.0 82040.0 88866.0 254068.0 248023.0 192813.0 187258.0 209238.0 209529.0 82993.0 86683.0 70073.0 74359.0 131744.0 127261.0 39985.0 44309.0 122312.0 121112.0 88942.0 86136.0 8746.0 9037.0 245127.0 238882.0 65237.0 72880.0 15333.0 20211.0 94068.0 101654.0 318629.0 311038.0 205409.0 206195.0 100582.0 108027.0 73412.0 66564.0 86389.0 81334.0 96387.0 92594.0 83364.0 81317.0 165175.0 168864.0 229400.0 222134.0 74848.0 75643.0 108088.0 115722.0 57591.0 50919.0 151117.0 158931.0 65738.0 64010.0 56726.0 49103.0 74850.0 81853.0 170053.0 166606.0 30629.0 22368.0 46013.0 41667.0 24024.0 16358.0 185604.0 183459.0 70246.0 66650.0 86969.0 83945.0 83699.0 151405.0 83699.0 83699.0 151405.0 151405.0
48507.0 46375.0 54816.0 47301.0 254373.0 248089.0 324634.0 318621.0 297244.0 290614.0 29764.0 31355.0 328784.0 322211.0 22567.0 22884.0 185014.0 192459.0 348007.0 340770.0 39744.0 34295.0 287347.0 279308.0 338063.0 342297.0 195225.0 202998.0 80262.0 72997.0 272044.0 280003.0 281920.0 283734.0 338938.0 342129.0 293421.0 285749.0 2678.0 10717.0 210925.0 213720.0 331206.0 327709.0 341256.0 347795.0 347375.0 349497.0 283821.0 278087.0 292257.0 299086.0 315255.0 307774.0 332090.0 327419.0 303406.0 300755.0 218769.0 216412.0 170819.0 173031.0 254011.0 261852.0 211945.0 203681.0 310455.0 315113.0 321550.0 321467.0 289912.0 291922.0 98826.0 106838.0 42039.0 37500.0 275524.0 279223.0 0.0 7469.0 239896.0 247703.0 317839.0 311295.0 216588.0 215373.0 52203.0 59589.0 99379.0 107286.0 70701.0 72404.0 325340.0 321884.0 310758.0 318738.0 332173.0 335375.0 293207.0 288295.0 349924.0 354745.0 363575.0 358541.0 271476.0 278116.0 47916.0 55842.0 229897.0 226647.0 268858.0 261033.0 356644.0 364372.0 44180.0 38769.0 87382.0 91704.0 298308.0 297547.0 233713.0 240588.0 208159.0 208051.0 352269.0 344936.0 312526.0 317175.0 130329.0 132321.0 73415.0 79983.0 207612.0 204597.0 265506.0 262940.0 248295.0 255494.0 128674.0 120714.0 302679.0 308109.0 225907.0 233850.0 204393.0 197370.0 316347.0 308320.0 297295.0 292095.0 314523.0 306749.0 265627.0 268336.0 294950.0 301337.0 298157.0 303326.0 312168.0 304115.0 287186.0 129679.0 287186.0 287186.0 129679.0 129679.0
48819.0 47969.0 61101.0 53812.0 256122.0 249972.0 325473.0 319585.0 298528.0 292015.0 27124.0 26905.0 329662.0 323187.0 16121.0 18508.0 187932.0 195266.0 352576.0 345403.0 44580.0 40002.0 288368.0 280312.0 339094.0 343477.0 197840.0 205533.0 79626.0 72546.0 273790.0 281720.0 285391.0 287023.0 339147.0 342338.0 296047.0 288338.0 8434.0 14253.0 212074.0 214605.0 331415.0 327918.0 346107.0 352566.0 347584.0 349747.0 284030.0 278296.0 296130.0 302866.0 315464.0 307983.0 334657.0 329835.0 303615.0 300964.0 220256.0 217646.0 173270.0 175787.0 255949.0 263742.0 214338.0 206144.0 313801.0 318321.0 321759.0 321676.0 294522.0 296377.0 103361.0 111353.0 43330.0 37654.0 276422.0 279928.0 7469.0 0.0 240767.0 248622.0 318181.0 311760.0 218892.0 217936.0 58849.0 66024.0 103180.0 111144.0 72587.0 75076.0 327702.0 324407.0 313005.0 320974.0 335689.0 338735.0 293416.0 288504.0 352914.0 357605.0 364912.0 360008.0 272075.0 278582.0 53519.0 61291.0 231858.0 228840.0 269873.0 261987.0 356853.0 364581.0 47731.0 43234.0 91543.0 96258.0 301466.0 300890.0 236079.0 242835.0 210384.0 209986.0 352478.0 345145.0 312734.0 317384.0 133802.0 136174.0 78967.0 85255.0 209018.0 205721.0 269022.0 266650.0 250363.0 257445.0 128981.0 121080.0 302888.0 308318.0 227205.0 235117.0 205189.0 198112.0 320907.0 312886.0 297509.0 292319.0 314782.0 306958.0 266875.0 269376.0 300024.0 306314.0 300565.0 305582.0 314840.0 306807.0 287395.0 129575.0 287395.0 287395.0 129575.0 129575.0
191954.0 193557.0 208450.0 214557.0 33122.0 34839.0 84738.0 78855.0 59463.0 54410.0 267763.0 265887.0 88900.0 82469.0 234499.0 226332.0 80640.0 74126.0 190141.0 187219.0 270668.0 262504.0 47830.0 39756.0 98446.0 103263.0 68162.0 62227.0 163707.0 169307.0 44616.0 50353.0 104535.0 99189.0 109179.0 110026.0 84259.0 77721.0 242450.0 250136.0 30051.0 26176.0 119129.0 118924.0 196457.0 198020.0 114768.0 114862.0 69544.0 61562.0 125153.0 126005.0 89873.0 81683.0 114101.0 106520.0 97024.0 98015.0 28320.0 25859.0 81307.0 84767.0 38861.0 41484.0 54539.0 60071.0 118824.0 117891.0 100117.0 96752.0 152534.0 147412.0 161861.0 156471.0 197863.0 203116.0 35658.0 39672.0 239896.0 240767.0 0.0 7992.0 80131.0 72750.0 50272.0 58165.0 214454.0 208470.0 153342.0 147948.0 169726.0 169899.0 103473.0 104246.0 88207.0 94912.0 140717.0 138432.0 66468.0 65964.0 140110.0 141086.0 125317.0 121297.0 32813.0 40542.0 205457.0 199229.0 36260.0 44138.0 29453.0 21366.0 128874.0 136702.0 279026.0 271417.0 165870.0 166817.0 104144.0 109747.0 49038.0 45429.0 51886.0 45145.0 128667.0 123286.0 103052.0 103999.0 126276.0 130387.0 189928.0 182719.0 35893.0 35985.0 97799.0 103834.0 40999.0 39955.0 112321.0 120020.0 87178.0 88874.0 19278.0 14001.0 35617.0 42763.0 167011.0 161952.0 63998.0 56760.0 81553.0 75160.0 28952.0 29109.0 175212.0 174812.0 81749.0 82140.0 100016.0 94198.0 88120.0 113104.0 88120.0 88120.0 113104.0 113104.0
199816.0 201351.0 215772.0 221954.0 29285.0 32677.0 76958.0 70967.0 51500.0 46587.0 275633.0 273774.0 81082.0 74574.0 242386.0 234219.0 85779.0 78922.0 186270.0 183636.0 278271.0 270098.0 39869.0 31793.0 90527.0 95289.0 73028.0 66592.0 171667.0 177238.0 38339.0 43471.0 101388.0 95628.0 103497.0 103942.0 78855.0 72671.0 250252.0 257921.0 37350.0 34022.0 116083.0 116406.0 193216.0 194484.0 108562.0 108301.0 67481.0 59491.0 122085.0 122467.0 85209.0 77062.0 107326.0 99598.0 95326.0 96958.0 33833.0 32666.0 87677.0 90711.0 35602.0 36812.0 58256.0 64496.0 114051.0 112696.0 95932.0 92079.0 150652.0 145227.0 168813.0 163276.0 205676.0 210976.0 27823.0 32319.0 247703.0 248622.0 7992.0 0.0 73172.0 65604.0 53601.0 61219.0 221775.0 215709.0 160494.0 154960.0 177458.0 177525.0 96506.0 97619.0 81375.0 87877.0 135522.0 132888.0 62144.0 62546.0 133652.0 134361.0 117326.0 113311.0 26140.0 34170.0 212930.0 206630.0 38159.0 46205.0 21464.0 13402.0 123333.0 131117.0 286675.0 279045.0 173094.0 173885.0 99553.0 105531.0 49762.0 45020.0 56337.0 50288.0 123763.0 118735.0 100708.0 101047.0 133001.0 136872.0 197081.0 189819.0 42583.0 43459.0 95812.0 102268.0 39049.0 36462.0 120263.0 127944.0 84264.0 85291.0 24796.0 17781.0 43541.0 50704.0 164044.0 159276.0 58303.0 50720.0 75604.0 69608.0 21399.0 21117.0 173768.0 172999.0 75657.0 75544.0 93932.0 88444.0 88461.0 121085.0 88461.0 88461.0 121085.0 121085.0
269469.0 271751.0 288443.0 294430.0 82931.0 90597.0 22592.0 26639.0 43899.0 50989.0 344912.0 343013.0 25859.0 27681.0 311625.0 303458.0 157230.0 149832.0 203729.0 204019.0 349891.0 341776.0 40899.0 46520.0 36668.0 44792.0 144195.0 136964.0 240124.0 245980.0 71841.0 66820.0 134791.0 126944.0 38122.0 34918.0 98345.0 97753.0 320441.0 328262.0 110178.0 105586.0 74315.0 79676.0 216053.0 214544.0 38285.0 35992.0 56691.0 55079.0 152960.0 149449.0 36852.0 34136.0 100071.0 91934.0 72853.0 79801.0 106632.0 105802.0 160723.0 163354.0 88106.0 81968.0 127637.0 135056.0 131011.0 125471.0 48315.0 40552.0 187516.0 180335.0 241951.0 236449.0 275867.0 280610.0 47510.0 41095.0 317839.0 318181.0 80131.0 73172.0 0.0 8311.0 122427.0 128881.0 294447.0 288547.0 233467.0 228064.0 248452.0 249163.0 88983.0 95539.0 81794.0 82123.0 144407.0 138058.0 35870.0 44211.0 126134.0 122346.0 64939.0 65821.0 47332.0 39973.0 285172.0 279102.0 105483.0 112825.0 55380.0 61281.0 57056.0 63989.0 358024.0 350527.0 245964.0 246947.0 121229.0 129412.0 112185.0 104781.0 127224.0 122387.0 62876.0 61806.0 70138.0 64386.0 206168.0 209938.0 270050.0 262850.0 115752.0 116015.0 138092.0 146229.0 95202.0 87539.0 189216.0 197149.0 55050.0 48742.0 97776.0 90196.0 114292.0 121035.0 191373.0 189388.0 23734.0 26252.0 16906.0 21829.0 62762.0 56291.0 212165.0 208765.0 88784.0 82135.0 100730.0 100974.0 89809.0 189257.0 89809.0 89809.0 189257.0 189257.0
262998.0 265124.0 281191.0 287255.0 74630.0 82303.0 20944.0 22454.0 36255.0 43068.0 338563.0 336634.0 25081.0 24465.0 305245.0 297078.0 149175.0 141738.0 197721.0 197784.0 342996.0 334862.0 32592.0 38263.0 36621.0 44431.0 136129.0 128848.0 233752.0 239580.0 63613.0 58744.0 127294.0 119490.0 45908.0 43104.0 91183.0 90267.0 313887.0 321678.0 102791.0 98459.0 79578.0 84393.0 209685.0 208380.0 46574.0 44242.0 56444.0 53685.0 145729.0 142429.0 41508.0 37338.0 95147.0 86847.0 75370.0 81873.0 98851.0 98270.0 152968.0 155466.0 79795.0 73675.0 119482.0 126956.0 124495.0 119200.0 53560.0 46082.0 180115.0 173004.0 234413.0 228827.0 269289.0 274151.0 39439.0 33341.0 311295.0 311760.0 72750.0 65604.0 8311.0 0.0 114257.0 120656.0 287195.0 281219.0 226062.0 220564.0 241676.0 242229.0 83797.0 89990.0 75620.0 76541.0 138675.0 132578.0 35541.0 43742.0 121726.0 118369.0 65921.0 65777.0 40095.0 33181.0 278075.0 271925.0 97303.0 104601.0 47290.0 53425.0 65128.0 72160.0 351204.0 343670.0 238616.0 239483.0 114274.0 122410.0 103890.0 96475.0 119161.0 114454.0 70430.0 68855.0 73694.0 68604.0 198516.0 202177.0 262650.0 255410.0 108172.0 108716.0 130214.0 138323.0 86892.0 79230.0 182781.0 190683.0 57609.0 52092.0 90063.0 82403.0 107335.0 114174.0 184577.0 182400.0 21804.0 21648.0 21742.0 24033.0 54526.0 48182.0 204757.0 201500.0 81825.0 75463.0 94518.0 94326.0 88942.0 182886.0 88942.0 88942.0 182886.0 182886.0
171467.0 170967.0 176805.0 183843.0 41687.0 34141.0 119857.0 112361.0 87802.0 80010.0 245908.0 245315.0 123151.0 115552.0 214598.0 206431.0 35926.0 28058.0 162909.0 158270.0 242397.0 234167.0 82834.0 76114.0 129846.0 132100.0 23100.0 15140.0 148891.0 152493.0 58332.0 66271.0 78242.0 76383.0 155856.0 155480.0 77868.0 70043.0 218938.0 226043.0 34674.0 42148.0 169329.0 169196.0 165186.0 168457.0 159747.0 158392.0 119791.0 111819.0 96248.0 100016.0 138686.0 130572.0 116077.0 110977.0 147117.0 147717.0 24762.0 32059.0 45879.0 45114.0 39141.0 47132.0 5344.0 13675.0 102242.0 104725.0 149529.0 145540.0 115443.0 112086.0 126951.0 120244.0 175696.0 182231.0 74984.0 82040.0 216588.0 218892.0 50272.0 53601.0 122427.0 114257.0 0.0 8048.0 182681.0 175749.0 120976.0 114138.0 146337.0 144208.0 108812.0 105736.0 94173.0 102156.0 125539.0 126315.0 115739.0 115961.0 136421.0 140203.0 151262.0 145201.0 78271.0 86450.0 176068.0 168894.0 16967.0 10588.0 67109.0 62198.0 175819.0 183496.0 251503.0 243587.0 133986.0 133026.0 87951.0 90067.0 17275.0 24044.0 8792.0 14016.0 177015.0 172218.0 153315.0 154218.0 90401.0 92155.0 156546.0 148887.0 28053.0 36540.0 65278.0 68230.0 32517.0 40446.0 99886.0 105896.0 137396.0 138799.0 32049.0 36377.0 45479.0 48615.0 135138.0 128642.0 111049.0 103088.0 127737.0 122417.0 59845.0 66171.0 135372.0 136664.0 81714.0 86739.0 96746.0 88877.0 136518.0 103757.0 136518.0 136518.0 103757.0 103757.0
171032.0 170138.0 174110.0 181308.0 46969.0 39224.0 125341.0 117709.0 92894.0 84965.0 244852.0 244518.0 128484.0 120805.0 214192.0 206001.0 31883.0 23896.0 158108.0 153204.0 240126.0 231910.0 88832.0 82408.0 134715.0 136581.0 20184.0 12419.0 149675.0 152887.0 62751.0 70526.0 74677.0 73582.0 162863.0 162280.0 78121.0 70402.0 217675.0 224640.0 42167.0 49818.0 177125.0 177079.0 159694.0 163235.0 166457.0 164872.0 127706.0 119727.0 91781.0 96046.0 146116.0 138029.0 116729.0 112122.0 155087.0 155735.0 32751.0 39907.0 44723.0 42591.0 43530.0 51355.0 6256.0 12123.0 99981.0 103028.0 157078.0 152956.0 109230.0 106218.0 123876.0 116915.0 174915.0 181650.0 81609.0 88866.0 215373.0 217936.0 58165.0 61219.0 128881.0 120656.0 8048.0 0.0 179928.0 172827.0 118553.0 111459.0 145551.0 142983.0 110140.0 106511.0 95941.0 103926.0 123150.0 124446.0 123297.0 123693.0 135839.0 140037.0 155144.0 148833.0 85472.0 93627.0 173851.0 166522.0 23667.0 16056.0 73761.0 69261.0 182837.0 190475.0 249352.0 241400.0 131540.0 130157.0 86093.0 87498.0 19296.0 27064.0 12569.0 20247.0 184303.0 179638.0 161216.0 162030.0 87555.0 88653.0 153591.0 145883.0 35141.0 43476.0 60757.0 62930.0 36478.0 44679.0 101796.0 107389.0 145211.0 146494.0 40087.0 44216.0 52530.0 55096.0 129713.0 123010.0 118243.0 110213.0 134737.0 129605.0 66132.0 72795.0 128581.0 130149.0 82906.0 88509.0 96945.0 88942.0 144566.0 106109.0 144566.0 144566.0 106109.0 106109.0
52757.0 44441.0 6004.0 5370.0 223087.0 216094.0 297975.0 291253.0 268161.0 260896.0 78765.0 82508.0 301830.0 294724.0 67941.0 62160.0 148209.0 156113.0 300987.0 293510.0 61399.0 53428.0 260046.0 252244.0 310056.0 313317.0 159960.0 168017.0 79602.0 71737.0 240484.0 248501.0 240429.0 243186.0 319619.0 322001.0 256414.0 249036.0 53055.0 56317.0 184448.0 188882.0 313803.0 310306.0 293124.0 299957.0 327087.0 328269.0 266234.0 260183.0 248656.0 255897.0 296755.0 288989.0 295058.0 291276.0 286003.0 283353.0 189892.0 189225.0 137386.0 137604.0 221579.0 229580.0 177603.0 169124.0 269391.0 274734.0 303774.0 303189.0 242937.0 245607.0 56284.0 63761.0 45194.0 50118.0 249197.0 254068.0 52203.0 58849.0 214454.0 221775.0 294447.0 287195.0 182681.0 179928.0 0.0 8065.0 61891.0 68544.0 53969.0 49217.0 289524.0 285181.0 275735.0 283700.0 290094.0 294062.0 273941.0 269832.0 310458.0 315937.0 333441.0 327663.0 247148.0 254528.0 14001.0 16149.0 197790.0 193191.0 241905.0 234611.0 338077.0 345893.0 71127.0 63125.0 48957.0 49785.0 258328.0 256595.0 199066.0 206528.0 174940.0 176634.0 334467.0 327315.0 295123.0 299761.0 92381.0 91854.0 26625.0 34366.0 179570.0 178479.0 223938.0 220394.0 215176.0 222957.0 112405.0 104859.0 285208.0 290427.0 198055.0 206003.0 180439.0 174012.0 269474.0 261454.0 276053.0 269855.0 293735.0 286341.0 237256.0 241234.0 246101.0 252833.0 262346.0 268324.0 274715.0 266629.0 269783.0 116178.0 269783.0 269783.0 116178.0 116178.0
54678.0 46250.0 5370.0 12310.0 216367.0 209306.0 291674.0 284876.0 261618.0 254291.0 86631.0 90198.0 295489.0 288329.0 74217.0 67989.0 141041.0 148973.0 292930.0 285449.0 69235.0 61327.0 253728.0 245968.0 303581.0 306727.0 152933.0 161000.0 79023.0 71411.0 233700.0 241711.0 232672.0 235502.0 314258.0 316497.0 249036.0 241693.0 60579.0 64144.0 178430.0 183062.0 309216.0 305719.0 285059.0 291892.0 321552.0 322588.0 261405.0 255227.0 240748.0 248012.0 291591.0 283771.0 287645.0 283950.0 281416.0 278765.0 183548.0 183098.0 130673.0 130639.0 214730.0 222735.0 170633.0 162152.0 261649.0 267044.0 298825.0 298074.0 234884.0 237572.0 48986.0 56284.0 47802.0 53622.0 243017.0 248023.0 59589.0 66024.0 208470.0 215709.0 288547.0 281219.0 175749.0 172827.0 8065.0 0.0 55362.0 61675.0 51924.0 46193.0 282231.0 277807.0 268533.0 276490.0 282270.0 286291.0 268653.0 264711.0 302824.0 308354.0 326701.0 320848.0 241222.0 248678.0 16149.0 14001.0 191029.0 186284.0 235664.0 228451.0 332856.0 340687.0 79010.0 71022.0 42617.0 42722.0 250680.0 248870.0 192013.0 199525.0 168109.0 170017.0 329486.0 322426.0 290535.0 295192.0 85358.0 84499.0 19238.0 26969.0 173368.0 172533.0 216185.0 212570.0 208262.0 216094.0 108441.0 101088.0 280451.0 285530.0 191814.0 199739.0 174773.0 168457.0 261421.0 253402.0 270457.0 264144.0 288164.0 280845.0 230852.0 234975.0 238045.0 244771.0 255079.0 261133.0 267278.0 259196.0 265195.0 112592.0 265195.0 265195.0 112592.0 112592.0
62806.0 58446.0 55953.0 62869.0 161202.0 154236.0 236318.0 229514.0 206301.0 199013.0 129139.0 130072.0 240128.0 232968.0 103285.0 95087.0 87137.0 94914.0 250144.0 243148.0 121574.0 113360.0 198370.0 190621.0 248236.0 251439.0 98453.0 106475.0 61164.0 57972.0 178620.0 186639.0 182610.0 184607.0 260032.0 261992.0 195820.0 188305.0 101430.0 107758.0 123291.0 128188.0 257380.0 253956.0 244569.0 250725.0 266985.0 267782.0 208615.0 202097.0 192957.0 199731.0 237834.0 229901.0 234548.0 230415.0 229658.0 227021.0 128190.0 127848.0 75511.0 76024.0 159761.0 167757.0 115959.0 107494.0 211245.0 216074.0 245596.0 244425.0 192297.0 193754.0 12001.0 14422.0 63223.0 71069.0 187711.0 192813.0 99379.0 103180.0 153342.0 160494.0 233467.0 226062.0 120976.0 118553.0 61891.0 55362.0 0.0 7996.0 37930.0 31140.0 228547.0 224520.0 214491.0 222474.0 232827.0 236138.0 214651.0 211116.0 251233.0 256330.0 271556.0 265807.0 186136.0 193683.0 55350.0 47970.0 135921.0 131443.0 180330.0 173160.0 278906.0 286763.0 130837.0 122870.0 13010.0 13949.0 199364.0 198346.0 137553.0 144911.0 113124.0 114746.0 276117.0 269310.0 238759.0 243071.0 31341.0 32994.0 36588.0 29453.0 118069.0 117489.0 166172.0 163564.0 153426.0 161151.0 62146.0 56622.0 227808.0 232474.0 136488.0 144401.0 120192.0 114135.0 218495.0 210502.0 215833.0 209335.0 233565.0 226391.0 175491.0 179635.0 199675.0 205448.0 201316.0 207061.0 214353.0 206266.0 213451.0 68145.0 213451.0 213451.0 68145.0 68145.0
70579.0 66381.0 62682.0 69855.0 154697.0 147631.0 230371.0 223470.0 200038.0 192666.0 137038.0 138031.0 234125.0 226897.0 111265.0 103062.0 79868.0 87712.0 242160.0 235171.0 128799.0 120605.0 192423.0 184741.0 242054.0 245105.0 91438.0 99489.0 67063.0 64480.0 172026.0 180037.0 174784.0 176859.0 255314.0 257083.0 188442.0 180966.0 109315.0 115574.0 117932.0 123137.0 253883.0 250677.0 236634.0 242771.0 262028.0 262632.0 204737.0 198064.0 185008.0 191804.0 233417.0 225430.0 227158.0 223128.0 226375.0 223734.0 122282.0 122294.0 69021.0 69063.0 153070.0 161074.0 109060.0 100581.0 203461.0 208348.0 241451.0 240062.0 184326.0 185764.0 14091.0 11601.0 71170.0 78996.0 181971.0 187258.0 107286.0 111144.0 147948.0 154960.0 228064.0 220564.0 114138.0 111459.0 68544.0 61675.0 7996.0 0.0 45342.0 38881.0 221301.0 217170.0 207352.0 215328.0 224975.0 228340.0 210118.0 206825.0 243592.0 248752.0 265027.0 259180.0 180761.0 188406.0 62761.0 55209.0 129355.0 124654.0 174509.0 167466.0 274342.0 282208.0 138150.0 130163.0 20324.0 19050.0 191670.0 190568.0 130552.0 137990.0 106441.0 108408.0 271869.0 265194.0 235338.0 239436.0 23940.0 25041.0 42561.0 35043.0 112418.0 112272.0 158334.0 155658.0 146639.0 154440.0 62063.0 57363.0 223966.0 228431.0 130730.0 138593.0 115438.0 109611.0 210513.0 202521.0 210872.0 204227.0 228607.0 221547.0 169440.0 173790.0 191841.0 197569.0 194084.0 199930.0 206919.0 198830.0 210164.0 68493.0 210164.0 210164.0 68493.0 68493.0
26241.0 24631.0 48826.0 51548.0 183687.0 177451.0 254415.0 248262.0 226634.0 219951.0 99663.0 98995.0 258514.0 251837.0 69044.0 60777.0 116115.0 123228.0 285826.0 279033.0 101650.0 93637.0 216947.0 208931.0 267628.0 271738.0 125535.0 133135.0 28991.0 22901.0 201359.0 209312.0 214541.0 215709.0 270906.0 273893.0 223668.0 215930.0 73165.0 80647.0 140467.0 143579.0 263314.0 259818.0 281018.0 286952.0 279100.0 280959.0 215929.0 210178.0 226524.0 232906.0 247351.0 239827.0 262214.0 257304.0 235515.0 232864.0 148090.0 145873.0 100835.0 103725.0 183404.0 191219.0 141828.0 133685.0 242565.0 246774.0 253659.0 253575.0 228349.0 229346.0 44674.0 51001.0 29371.0 36247.0 205273.0 209238.0 70701.0 72587.0 169726.0 177458.0 248452.0 241676.0 146337.0 145551.0 53969.0 51924.0 37930.0 45342.0 0.0 8300.0 255149.0 251937.0 240424.0 248392.0 264841.0 267494.0 225135.0 220384.0 280941.0 285449.0 292927.0 287853.0 201682.0 208554.0 40965.0 38242.0 159302.0 156257.0 198479.0 190729.0 288745.0 296479.0 109587.0 102161.0 32136.0 39554.0 229844.0 229674.0 163546.0 170260.0 137808.0 137437.0 284377.0 277045.0 244634.0 249283.0 64393.0 68623.0 42682.0 41635.0 136968.0 134172.0 198347.0 196593.0 177782.0 184895.0 60798.0 52885.0 234787.0 240218.0 155315.0 163274.0 134416.0 127508.0 254276.0 246337.0 228606.0 223019.0 246068.0 238368.0 195049.0 197931.0 236799.0 242346.0 228035.0 233004.0 242495.0 234486.0 219294.0 63526.0 219294.0 219294.0 63526.0 63526.0
31698.0 28060.0 43700.0 47485.0 182434.0 175993.0 254404.0 248083.0 226026.0 219179.0 101886.0 101843.0 258441.0 251636.0 73199.0 64927.0 112860.0 120196.0 280542.0 273650.0 100780.0 92635.0 216747.0 208776.0 267324.0 271216.0 122848.0 130601.0 37007.0 31176.0 200089.0 208078.0 210660.0 212101.0 272579.0 275345.0 221059.0 213372.0 74735.0 81865.0 140314.0 143854.0 265514.0 262017.0 275346.0 281399.0 280512.0 282136.0 218129.0 212325.0 222081.0 228612.0 249277.0 241650.0 259709.0 255016.0 237714.0 235064.0 147336.0 145552.0 98417.0 100726.0 181853.0 189737.0 139545.0 131278.0 238916.0 243331.0 255840.0 255592.0 222868.0 224082.0 36841.0 43507.0 32927.0 40505.0 205286.0 209529.0 72404.0 75076.0 169899.0 177525.0 249163.0 242229.0 144208.0 142983.0 49217.0 46193.0 31140.0 38881.0 8300.0 0.0 252939.0 249492.0 238381.0 246364.0 260979.0 263856.0 226804.0 222305.0 277842.0 282535.0 292162.0 286908.0 202156.0 209203.0 37198.0 33112.0 157737.0 154311.0 198334.0 190699.0 290670.0 298441.0 109161.0 101520.0 24084.0 31437.0 226452.0 226009.0 161315.0 168223.0 135814.0 135944.0 286559.0 279244.0 246834.0 251483.0 59505.0 63021.0 35143.0 33554.0 136391.0 134094.0 194364.0 192314.0 176030.0 183323.0 63494.0 55805.0 236958.0 242412.0 154852.0 162835.0 134898.0 128131.0 248935.0 240967.0 229778.0 223974.0 247337.0 239739.0 194555.0 197750.0 230715.0 236408.0 225754.0 230947.0 239828.0 231784.0 221494.0 67000.0 221494.0 221494.0 67000.0 67000.0
280190.0 279779.0 283781.0 291122.0 75405.0 79796.0 67971.0 62378.0 54524.0 54013.0 354707.0 354119.0 66731.0 61882.0 323299.0 315129.0 141435.0 133633.0 115720.0 116820.0 350091.0 341888.0 68426.0 73206.0 62011.0 56847.0 130323.0 122432.0 256445.0 260573.0 59389.0 53119.0 65220.0 58067.0 124223.0 118414.0 33864.0 40703.0 327672.0 334708.0 123118.0 124477.0 163205.0 168188.0 129351.0 126990.0 119269.0 112720.0 134385.0 128915.0 76280.0 70179.0 125277.0 120900.0 11804.0 3281.0 157670.0 163364.0 111816.0 117064.0 154523.0 152719.0 73555.0 66582.0 113396.0 121676.0 47741.0 40478.0 137163.0 129490.0 110975.0 103143.0 233266.0 225995.0 284505.0 291001.0 78646.0 82993.0 325340.0 327702.0 103473.0 96506.0 88983.0 83797.0 108812.0 110140.0 289524.0 282231.0 228547.0 221301.0 255149.0 252939.0 0.0 8186.0 15509.0 8763.0 56009.0 49203.0 115485.0 122461.0 39388.0 38364.0 61690.0 53581.0 90229.0 91586.0 283889.0 276479.0 96878.0 98996.0 79240.0 86106.0 139774.0 144832.0 359384.0 351415.0 241499.0 239761.0 44722.0 52174.0 91633.0 84936.0 117367.0 118537.0 148881.0 149494.0 157097.0 152353.0 197361.0 197734.0 263012.0 255267.0 123137.0 129134.0 77336.0 84790.0 78085.0 71995.0 205868.0 212626.0 140314.0 135545.0 107650.0 101081.0 133780.0 140560.0 107800.0 107642.0 101596.0 96085.0 105341.0 107474.0 75387.0 78888.0 134643.0 129473.0 27238.0 22548.0 19246.0 25785.0 165956.0 208560.0 165956.0 165956.0 208560.0 208560.0
277192.0 276552.0 279483.0 286903.0 74669.0 78361.0 75023.0 69068.0 58946.0 57409.0 351350.0 350932.0 74027.0 68822.0 320304.0 312160.0 137393.0 129695.0 108494.0 109337.0 345957.0 337770.0 72326.0 76420.0 69799.0 64850.0 126669.0 118892.0 254109.0 258024.0 59687.0 54203.0 57626.0 50687.0 131349.0 125712.0 28771.0 36217.0 324185.0 331131.0 122191.0 124071.0 169549.0 174322.0 121770.0 119617.0 126720.0 120308.0 139106.0 133347.0 68149.0 61999.0 131493.0 126818.0 10427.0 7406.0 163041.0 168516.0 110506.0 116164.0 151137.0 148962.0 72131.0 65663.0 110120.0 118265.0 39572.0 32380.0 143512.0 135919.0 102797.0 94963.0 228897.0 221528.0 281308.0 287925.0 81741.0 86683.0 321884.0 324407.0 104246.0 97619.0 95539.0 89990.0 105736.0 106511.0 285181.0 277807.0 224520.0 217170.0 251937.0 249492.0 8186.0 0.0 16737.0 13449.0 48914.0 42588.0 120694.0 127418.0 36216.0 36891.0 69797.0 61679.0 93482.0 95475.0 279865.0 272378.0 94760.0 96244.0 81578.0 87998.0 147237.0 152426.0 355317.0 347332.0 237428.0 235477.0 36865.0 44151.0 88468.0 82166.0 114410.0 116132.0 156104.0 156490.0 162845.0 158349.0 193247.0 193330.0 258616.0 250865.0 121681.0 128057.0 70333.0 77591.0 76030.0 70574.0 203898.0 210488.0 145862.0 141368.0 106953.0 100760.0 133180.0 139804.0 99785.0 99522.0 106992.0 101109.0 111661.0 113397.0 76917.0 81132.0 126457.0 121302.0 24330.0 22106.0 11796.0 19244.0 170149.0 206844.0 170149.0 170149.0 206844.0 206844.0
265321.0 265054.0 269950.0 277206.0 59909.0 64423.0 62735.0 55964.0 42824.0 40777.0 340046.0 339346.0 62507.0 56347.0 308411.0 300234.0 127527.0 119644.0 122106.0 122232.0 336065.0 327850.0 55825.0 59714.0 60473.0 57127.0 116082.0 108115.0 241253.0 245473.0 43941.0 37907.0 59863.0 52068.0 118709.0 113615.0 23636.0 28748.0 313111.0 320211.0 107622.0 108974.0 155090.0 159523.0 134271.0 132786.0 115135.0 109301.0 122910.0 116986.0 74480.0 69625.0 116930.0 111831.0 25962.0 18387.0 147339.0 152607.0 96378.0 101567.0 140011.0 138517.0 58192.0 51116.0 98891.0 107254.0 49476.0 43680.0 129129.0 121702.0 109690.0 102056.0 219548.0 212392.0 269759.0 276176.0 65017.0 70073.0 310758.0 313005.0 88207.0 81375.0 81794.0 75620.0 94173.0 95941.0 275735.0 268533.0 214491.0 207352.0 240424.0 238381.0 15509.0 16737.0 0.0 7991.0 63372.0 57914.0 104918.0 111412.0 52891.0 53014.0 67325.0 59569.0 76770.0 78919.0 269791.0 262457.0 81717.0 84170.0 64882.0 71412.0 135585.0 141259.0 345291.0 337340.0 227473.0 225949.0 41764.0 49967.0 77126.0 70176.0 102623.0 103470.0 143634.0 143404.0 147551.0 143385.0 183423.0 184096.0 249298.0 241565.0 107723.0 113652.0 69414.0 77373.0 62948.0 56635.0 190558.0 197371.0 130370.0 126212.0 92144.0 85580.0 118272.0 125053.0 110261.0 108970.0 91445.0 85226.0 97360.0 98469.0 60450.0 64452.0 134040.0 129659.0 14291.0 7440.0 18936.0 20516.0 153652.0 193176.0 153652.0 153652.0 193176.0 193176.0
273265.0 273021.0 277918.0 285182.0 67441.0 72174.0 61829.0 55705.0 46078.0 45301.0 348018.0 347304.0 61030.0 55571.0 316349.0 308170.0 135495.0 127618.0 121761.0 122418.0 344049.0 335833.0 59831.0 64484.0 57563.0 53303.0 124070.0 116105.0 249092.0 253353.0 51065.0 44575.0 64956.0 57375.0 118146.0 112643.0 30310.0 36135.0 321093.0 328197.0 115126.0 116264.0 156101.0 160879.0 134741.0 132782.0 113803.0 107574.0 126122.0 120529.0 78084.0 72621.0 118044.0 113396.0 20386.0 12006.0 149768.0 155331.0 104030.0 109069.0 147999.0 146504.0 65959.0 58751.0 106881.0 115245.0 51186.0 44572.0 130065.0 122477.0 113183.0 105437.0 227504.0 220336.0 277722.0 284127.0 69913.0 74359.0 318738.0 320974.0 94912.0 87877.0 82123.0 76541.0 102156.0 103926.0 283700.0 276490.0 222474.0 215328.0 248392.0 246364.0 8763.0 13449.0 7991.0 0.0 62289.0 56037.0 107473.0 114310.0 47954.0 47125.0 61328.0 53393.0 81521.0 83006.0 277777.0 270439.0 89595.0 92135.0 70479.0 77369.0 134318.0 139671.0 353277.0 345326.0 235455.0 233915.0 45604.0 53570.0 85116.0 78152.0 110596.0 111377.0 142958.0 143204.0 149460.0 144919.0 191398.0 192041.0 257255.0 249521.0 115404.0 121203.0 75601.0 83392.0 70845.0 64405.0 198328.0 205178.0 132527.0 127964.0 99582.0 92869.0 125634.0 132472.0 111952.0 111219.0 93695.0 87959.0 98214.0 99972.0 66703.0 70131.0 137266.0 132504.0 21812.0 15430.0 20607.0 24825.0 157491.0 200878.0 157491.0 157491.0 200878.0 200878.0
290948.0 288924.0 284801.0 292645.0 107904.0 108545.0 123886.0 117978.0 105957.0 102847.0 361937.0 362582.0 122737.0 117717.0 333868.0 325592.0 149120.0 142591.0 59719.0 61167.0 351489.0 343509.0 118151.0 120776.0 117683.0 111920.0 141517.0 134990.0 272107.0 274741.0 97829.0 94997.0 50320.0 49677.0 180190.0 174423.0 56706.0 62998.0 334250.0 340543.0 151224.0 155205.0 218249.0 222831.0 73937.0 71104.0 175242.0 168588.0 185563.0 179269.0 43323.0 35375.0 180126.0 175176.0 46408.0 53423.0 210553.0 215632.0 138537.0 145635.0 166139.0 161814.0 103066.0 99252.0 128444.0 135160.0 23321.0 22833.0 192234.0 184699.0 68714.0 61312.0 234771.0 226903.0 293787.0 301040.0 125661.0 131744.0 332173.0 335689.0 140717.0 135522.0 144407.0 138675.0 125539.0 123150.0 290094.0 282270.0 232827.0 224975.0 264841.0 260979.0 56009.0 48914.0 63372.0 62289.0 0.0 8425.0 168127.0 174392.0 31984.0 40144.0 111859.0 103987.0 137419.0 140763.0 287049.0 279173.0 120352.0 118625.0 123703.0 128664.0 195734.0 200672.0 361213.0 353203.0 245130.0 241771.0 38017.0 35672.0 109576.0 106027.0 134134.0 138615.0 204883.0 205387.0 210917.0 206733.0 201894.0 200010.0 263632.0 256001.0 148388.0 156137.0 66671.0 69700.0 103914.0 101710.0 224945.0 230477.0 193699.0 189582.0 137798.0 133471.0 163101.0 168779.0 56380.0 58724.0 154779.0 148391.0 160395.0 161794.0 117147.0 123036.0 88535.0 81748.0 61702.0 65300.0 45004.0 48038.0 215326.0 229147.0 215326.0 215326.0 229147.0 229147.0
293515.0 291716.0 288698.0 296492.0 105992.0 107228.0 117169.0 111510.0 100726.0 98121.0 365130.0 365604.0 115840.0 111082.0 336538.0 328271.0 151483.0 144709.0 67004.0 68919.0 355457.0 347435.0 113376.0 116458.0 110385.0 104417.0 143299.0 136501.0 273911.0 276773.0 94798.0 91362.0 53651.0 51785.0 173384.0 167466.0 54182.0 61061.0 337490.0 343896.0 150528.0 154120.0 212133.0 216901.0 81787.0 78614.0 168141.0 161362.0 180699.0 174600.0 49458.0 41420.0 174081.0 169357.0 38994.0 46438.0 205243.0 210514.0 137941.0 144817.0 168073.0 164080.0 101529.0 97150.0 129508.0 136537.0 24940.0 21661.0 186094.0 178486.0 76632.0 69120.0 238467.0 230651.0 296571.0 303732.0 121489.0 127261.0 335375.0 338735.0 138432.0 132888.0 138058.0 132578.0 126315.0 124446.0 294062.0 286291.0 236138.0 228340.0 267494.0 263856.0 49203.0 42588.0 57914.0 56037.0 8425.0 0.0 162828.0 169304.0 23725.0 31873.0 103722.0 95895.0 133291.0 136235.0 290665.0 282833.0 120035.0 118867.0 119998.0 125348.0 188601.0 193400.0 365137.0 357121.0 248570.0 245421.0 38385.0 37848.0 109921.0 105831.0 135011.0 139044.0 197976.0 198690.0 205297.0 200901.0 205045.0 203463.0 267531.0 259865.0 148118.0 155658.0 70147.0 73977.0 102958.0 100115.0 226084.0 231823.0 188210.0 183866.0 136652.0 131920.0 162303.0 168198.0 64804.0 67094.0 149293.0 143139.0 154243.0 155944.0 113855.0 119382.0 96835.0 90113.0 57908.0 60611.0 40314.0 44545.0 210954.0 230070.0 210954.0 210954.0 230070.0 230070.0
244750.0 247433.0 267978.0 273373.0 83506.0 89984.0 56453.0 57390.0 62171.0 65928.0 320192.0 318251.0 60461.0 59803.0 286863.0 278696.0 147082.0 140586.0 225736.0 224937.0 326732.0 318760.0 50880.0 50930.0 71853.0 79812.0 134627.0 128540.0 215358.0 221214.0 79554.0 77935.0 148656.0 141367.0 45780.0 49109.0 115786.0 112887.0 295829.0 303714.0 94182.0 87741.0 55603.0 57676.0 236205.0 235742.0 54425.0 57625.0 20956.0 19599.0 168539.0 166542.0 23574.0 15417.0 127194.0 118688.0 42429.0 47880.0 94773.0 91378.0 146442.0 150601.0 89936.0 86397.0 120389.0 126410.0 151347.0 147112.0 33789.0 30415.0 201255.0 194735.0 224202.0 219543.0 251387.0 255872.0 47900.0 39985.0 293207.0 293416.0 66468.0 62144.0 35870.0 35541.0 115739.0 123297.0 273941.0 268653.0 214651.0 210118.0 225135.0 226804.0 115485.0 120694.0 104918.0 107473.0 168127.0 162828.0 0.0 8344.0 154465.0 151830.0 100692.0 101108.0 39247.0 31946.0 263627.0 258150.0 99938.0 107955.0 54043.0 55393.0 64256.0 72112.0 334388.0 327140.0 226561.0 228487.0 139306.0 147006.0 110241.0 104155.0 118222.0 111612.0 62465.0 56824.0 43629.0 41342.0 189936.0 194806.0 250862.0 244052.0 101243.0 98972.0 148048.0 155635.0 95919.0 89989.0 164620.0 172613.0 26005.0 24161.0 85746.0 79686.0 94742.0 100535.0 209329.0 206145.0 14198.0 19750.0 23743.0 15610.0 63060.0 55075.0 225570.0 223348.0 107835.0 102990.0 123150.0 121307.0 53939.0 164492.0 53939.0 53939.0 164492.0 164492.0
239838.0 242553.0 263890.0 269121.0 86032.0 92090.0 64679.0 65362.0 68588.0 71725.0 315280.0 313339.0 68729.0 67873.0 281951.0 273784.0 146117.0 139902.0 231518.0 230503.0 321865.0 313938.0 56473.0 55526.0 80150.0 88087.0 133918.0 128179.0 210446.0 216302.0 83679.0 82748.0 153103.0 145976.0 50961.0 55152.0 121185.0 117884.0 290917.0 298802.0 92305.0 85457.0 53580.0 54486.0 241591.0 241341.0 60509.0 64378.0 12705.0 11791.0 173218.0 171534.0 26974.0 19598.0 134216.0 125689.0 36608.0 41240.0 94011.0 89989.0 144424.0 148947.0 92590.0 89688.0 120413.0 126016.0 157044.0 153074.0 34896.0 33364.0 205417.0 199060.0 220916.0 216488.0 246475.0 250960.0 51886.0 44309.0 288295.0 288504.0 65964.0 62546.0 44211.0 43742.0 115961.0 123693.0 269832.0 264711.0 211116.0 206825.0 220384.0 222305.0 122461.0 127418.0 111412.0 114310.0 174392.0 169304.0 8344.0 0.0 161604.0 159174.0 109030.0 109398.0 41999.0 35624.0 259265.0 253953.0 100684.0 108732.0 57263.0 57467.0 68372.0 76137.0 329390.0 322214.0 222840.0 225005.0 144641.0 152200.0 111676.0 105990.0 117836.0 110861.0 65047.0 58606.0 39426.0 38652.0 187163.0 192296.0 247137.0 240444.0 99657.0 96722.0 151696.0 159115.0 98204.0 92778.0 159709.0 167701.0 22088.0 22919.0 85127.0 79624.0 91838.0 97267.0 214335.0 210915.0 22113.0 26378.0 31510.0 23577.0 66194.0 58263.0 229582.0 227614.0 113603.0 109120.0 129388.0 127187.0 45598.0 159580.0 45598.0 45598.0 159580.0 159580.0
306668.0 305411.0 304948.0 312612.0 109553.0 112397.0 104104.0 99607.0 93910.0 93191.0 379601.0 379670.0 102030.0 98492.0 349823.0 341599.0 164982.0 157722.0 86211.0 89417.0 371732.0 363630.0 107781.0 112331.0 94859.0 88005.0 155548.0 148208.0 285277.0 288688.0 95494.0 90336.0 71431.0 67510.0 159232.0 152738.0 59153.0 66945.0 352126.0 358782.0 156444.0 158925.0 200376.0 205794.0 102427.0 98245.0 152801.0 145532.0 173638.0 168266.0 71470.0 63517.0 162887.0 159051.0 27594.0 36112.0 196426.0 202318.0 144332.0 150492.0 180401.0 177226.0 106281.0 100483.0 140257.0 147923.0 42977.0 36315.0 174433.0 166617.0 100271.0 92695.0 254417.0 246750.0 310231.0 317154.0 117715.0 122312.0 349924.0 352914.0 140110.0 133652.0 126134.0 121726.0 136421.0 135839.0 310458.0 302824.0 251233.0 243592.0 280941.0 277842.0 39388.0 36216.0 52891.0 47954.0 31984.0 23725.0 154465.0 161604.0 0.0 8160.0 83725.0 76301.0 129391.0 130952.0 306275.0 298565.0 127520.0 127800.0 117772.0 124210.0 172984.0 177161.0 381299.0 373283.0 263911.0 261246.0 52157.0 54881.0 119325.0 113991.0 145212.0 148065.0 183241.0 184793.0 195389.0 190263.0 219924.0 219028.0 283841.0 276118.0 155199.0 162074.0 87509.0 92662.0 109230.0 104755.0 236025.0 242249.0 178907.0 173787.0 141584.0 135826.0 167773.0 174177.0 88027.0 90684.0 140450.0 135231.0 142862.0 145677.0 113096.0 117336.0 120518.0 113709.0 58698.0 58137.0 40853.0 48073.0 205338.0 239442.0 205338.0 205338.0 239442.0 239442.0
311049.0 309977.0 310381.0 317995.0 111416.0 114762.0 100042.0 96038.0 92337.0 92319.0 384376.0 384306.0 97696.0 94668.0 354211.0 346009.0 169730.0 162340.0 93535.0 97009.0 377131.0 369006.0 106487.0 111517.0 89906.0 82753.0 159928.0 152445.0 289077.0 292670.0 96566.0 90893.0 77992.0 73588.0 154462.0 147778.0 62411.0 70254.0 356975.0 363711.0 158750.0 160848.0 196359.0 201997.0 110016.0 105619.0 147613.0 140185.0 171387.0 166296.0 79108.0 71208.0 159189.0 155692.0 27054.0 35126.0 193471.0 199568.0 146860.0 152749.0 184722.0 181823.0 108572.0 102374.0 144225.0 152058.0 50055.0 42992.0 170525.0 162660.0 108358.0 100758.0 259796.0 252187.0 314781.0 321616.0 116974.0 121112.0 354745.0 357605.0 141086.0 134361.0 122346.0 118369.0 140203.0 140037.0 315937.0 308354.0 256330.0 248752.0 285449.0 282535.0 38364.0 36891.0 53014.0 47125.0 40144.0 31873.0 151830.0 159174.0 8160.0 0.0 77010.0 69807.0 128508.0 129565.0 311489.0 303827.0 130514.0 131260.0 117577.0 124338.0 167637.0 171577.0 386655.0 378642.0 269076.0 266575.0 58057.0 61489.0 122996.0 117309.0 148979.0 151435.0 178191.0 180044.0 192048.0 186676.0 224994.0 224326.0 289312.0 281576.0 157898.0 164519.0 93815.0 99303.0 111985.0 107026.0 239423.0 245798.0 175835.0 170453.0 143646.0 137582.0 169878.0 176425.0 96140.0 98842.0 137715.0 132868.0 139182.0 142394.0 113457.0 117208.0 128678.0 121866.0 60637.0 58974.0 43622.0 51345.0 203519.0 242642.0 203519.0 203519.0 242642.0 242642.0
316238.0 317229.0 327508.0 334305.0 110354.0 117412.0 45521.0 48315.0 66405.0 72989.0 392011.0 390374.0 41087.0 44801.0 358991.0 350824.0 186878.0 178887.0 169728.0 172411.0 392183.0 383953.0 77634.0 85657.0 29522.0 22637.0 174327.0 166285.0 288839.0 294210.0 93024.0 85031.0 126212.0 118693.0 85526.0 77859.0 90959.0 95488.0 366068.0 373571.0 152921.0 151064.0 130889.0 137877.0 185364.0 181668.0 76183.0 68065.0 121595.0 119490.0 137945.0 131669.0 98148.0 97782.0 66979.0 62715.0 136157.0 143559.0 144860.0 147280.0 196056.0 196277.0 112125.0 104131.0 156501.0 164936.0 108846.0 101212.0 107044.0 99290.0 172450.0 164593.0 278095.0 271489.0 321701.0 327360.0 90261.0 88942.0 363575.0 364912.0 125317.0 117326.0 64939.0 65921.0 151262.0 155144.0 333441.0 326701.0 271556.0 265027.0 292927.0 292162.0 61690.0 69797.0 67325.0 61328.0 111859.0 103722.0 100692.0 109030.0 83725.0 77010.0 0.0 8126.0 97643.0 93676.0 326026.0 319159.0 135672.0 140676.0 95864.0 103979.0 94648.0 97329.0 400988.0 393185.0 284526.0 284020.0 106259.0 113847.0 135891.0 128079.0 158631.0 156885.0 106609.0 110230.0 131762.0 124766.0 241497.0 243415.0 307561.0 299952.0 155965.0 159295.0 136713.0 144611.0 118847.0 110818.0 237358.0 244926.0 118678.0 111535.0 137708.0 129800.0 160716.0 167908.0 167153.0 167893.0 87588.0 87049.0 80265.0 86600.0 98071.0 96223.0 195789.0 190251.0 81239.0 73221.0 80701.0 86073.0 154576.0 238386.0 154576.0 154576.0 238386.0 238386.0
311415.0 312234.0 321748.0 328620.0 104691.0 111571.0 44899.0 46348.0 61935.0 68026.0 387123.0 385617.0 40699.0 43047.0 354230.0 346063.0 180648.0 172650.0 162113.0 164674.0 386689.0 378456.0 74024.0 81929.0 29260.0 21351.0 168210.0 160150.0 284421.0 289649.0 87189.0 79169.0 118208.0 110723.0 89574.0 82113.0 83200.0 87919.0 361016.0 368468.0 148268.0 146767.0 134411.0 141147.0 177608.0 174016.0 80878.0 72917.0 122064.0 119445.0 129825.0 123543.0 100446.0 99429.0 58904.0 54590.0 138081.0 145302.0 139776.0 142534.0 190298.0 190289.0 106125.0 98119.0 150399.0 158859.0 100725.0 93098.0 109961.0 102108.0 164324.0 156468.0 272136.0 265440.0 316743.0 322515.0 86774.0 86136.0 358541.0 360008.0 121297.0 113311.0 65821.0 65777.0 145201.0 148833.0 327663.0 320848.0 265807.0 259180.0 287853.0 286908.0 53581.0 61679.0 59569.0 53393.0 103987.0 95895.0 101108.0 109398.0 76301.0 69807.0 8126.0 0.0 94881.0 91514.0 320461.0 313518.0 129889.0 134629.0 91922.0 100071.0 99948.0 103071.0 395563.0 387733.0 278796.0 278139.0 98182.0 105747.0 129546.0 121788.0 152739.0 151301.0 111530.0 114681.0 134217.0 127495.0 235558.0 237296.0 301675.0 294041.0 150990.0 154648.0 128888.0 136748.0 112708.0 104777.0 232923.0 240415.0 120421.0 113547.0 132892.0 125051.0 156455.0 163650.0 159137.0 159822.0 87581.0 86277.0 81840.0 87647.0 93486.0 92205.0 187674.0 182153.0 73595.0 65644.0 72622.0 78084.0 154719.0 234156.0 154719.0 154719.0 234156.0 234156.0
223274.0 225240.0 241144.0 247176.0 44279.0 50762.0 54144.0 49496.0 37055.0 36220.0 298954.0 297014.0 58543.0 53101.0 265625.0 257458.0 111617.0 104570.0 192552.0 190969.0 302930.0 294791.0 22633.0 17065.0 69095.0 75039.0 98744.0 91999.0 194242.0 200095.0 42378.0 42846.0 111784.0 104900.0 77721.0 77882.0 81982.0 77719.0 274057.0 281817.0 62851.0 58364.0 94774.0 96343.0 201607.0 201857.0 82453.0 82180.0 50482.0 43191.0 132150.0 130985.0 60989.0 53062.0 101896.0 93502.0 77938.0 81327.0 59948.0 58575.0 113800.0 116834.0 50752.0 47701.0 83211.0 89963.0 118271.0 115205.0 72475.0 67755.0 163727.0 157518.0 194670.0 189245.0 229448.0 234435.0 11809.0 8746.0 271476.0 272075.0 32813.0 26140.0 47332.0 40095.0 78271.0 85472.0 247148.0 241222.0 186136.0 180761.0 201682.0 202156.0 90229.0 93482.0 76770.0 81521.0 137419.0 133291.0 39247.0 41999.0 129391.0 128508.0 97643.0 94881.0 0.0 8189.0 237982.0 231847.0 61835.0 69726.0 15349.0 16374.0 97645.0 105375.0 311171.0 303619.0 198634.0 199627.0 104994.0 112164.0 71308.0 65002.0 81884.0 76242.0 98845.0 94388.0 81424.0 80232.0 159014.0 162978.0 222718.0 215523.0 68571.0 68689.0 109758.0 117131.0 56672.0 50868.0 143163.0 151016.0 64009.0 63352.0 50932.0 43700.0 67283.0 74179.0 173676.0 169890.0 32781.0 24859.0 49678.0 44148.0 24205.0 16322.0 187772.0 185991.0 75722.0 72812.0 92990.0 89415.0 78028.0 143376.0 78028.0 78028.0 143376.0 143376.0
229817.0 231956.0 248524.0 254478.0 51732.0 58464.0 49080.0 45373.0 37247.0 38178.0 305394.0 303461.0 53567.0 48876.0 272073.0 263906.0 119773.0 112747.0 196852.0 195552.0 309944.0 301823.0 23178.0 20240.0 64579.0 71051.0 106914.0 100185.0 200588.0 206428.0 48055.0 47388.0 117489.0 110398.0 69537.0 69777.0 86250.0 82547.0 280708.0 288503.0 70478.0 65647.0 87544.0 89479.0 206437.0 206420.0 74395.0 74320.0 45297.0 38573.0 137652.0 136119.0 53057.0 45223.0 103361.0 94867.0 72083.0 76025.0 68003.0 66386.0 121735.0 124879.0 58085.0 54460.0 91398.0 98148.0 122395.0 118892.0 64713.0 59779.0 169806.0 163436.0 202347.0 197005.0 236112.0 240970.0 16264.0 9037.0 278116.0 278582.0 40542.0 34170.0 39973.0 33181.0 86450.0 93627.0 254528.0 248678.0 193683.0 188406.0 208554.0 209203.0 91586.0 95475.0 78919.0 83006.0 140763.0 136235.0 31946.0 35624.0 130952.0 129565.0 93676.0 91514.0 8189.0 0.0 245203.0 239151.0 69979.0 77848.0 22107.0 24429.0 89457.0 97190.0 318108.0 310594.0 206120.0 207229.0 109557.0 116962.0 79244.0 72791.0 90064.0 84370.0 90719.0 86368.0 74901.0 73226.0 166818.0 170880.0 230250.0 223097.0 76410.0 76194.0 116249.0 123771.0 64242.0 58093.0 149605.0 157503.0 57331.0 56105.0 58959.0 51818.0 74321.0 81086.0 178901.0 175369.0 24616.0 16672.0 41512.0 35979.0 31124.0 23142.0 194005.0 191993.0 79283.0 75628.0 95958.0 92981.0 74759.0 149722.0 74759.0 74759.0 149722.0 149722.0
39024.0 30639.0 10953.0 10620.0 215770.0 208977.0 289527.0 282980.0 260314.0 253215.0 76763.0 79236.0 293468.0 286491.0 59713.0 52958.0 142487.0 150257.0 300701.0 293381.0 66330.0 58100.0 251682.0 243795.0 301996.0 305534.0 153717.0 161714.0 65726.0 57816.0 233306.0 241327.0 237032.0 239363.0 309380.0 311993.0 251158.0 243651.0 49406.0 54438.0 175587.0 179620.0 302650.0 299153.0 293615.0 300235.0 317129.0 318562.0 255254.0 249386.0 246316.0 253354.0 286229.0 278552.0 289883.0 285763.0 274850.0 272199.0 181722.0 180579.0 130338.0 131280.0 214621.0 222596.0 171118.0 162674.0 265845.0 270891.0 292930.0 292584.0 242582.0 244823.0 52316.0 60256.0 31804.0 37473.0 240544.0 245127.0 47916.0 53519.0 205457.0 212930.0 285172.0 278075.0 176068.0 173851.0 14001.0 16149.0 55350.0 62761.0 40965.0 37198.0 283889.0 279865.0 269791.0 277777.0 287049.0 290665.0 263627.0 259265.0 306275.0 311489.0 326026.0 320461.0 237982.0 245203.0 0.0 8032.0 190640.0 186468.0 233397.0 225938.0 327607.0 335395.0 75502.0 67550.0 42452.0 45282.0 254283.0 252978.0 192779.0 200063.0 168054.0 169167.0 323647.0 316370.0 283969.0 288619.0 86635.0 87282.0 25501.0 32199.0 171111.0 169492.0 220544.0 217468.0 208423.0 216038.0 100688.0 92968.0 274116.0 279520.0 189632.0 197612.0 170915.0 164308.0 269071.0 261040.0 266243.0 260255.0 283865.0 276351.0 229123.0 232763.0 247138.0 253594.0 256657.0 262358.0 269666.0 261577.0 258629.0 104040.0 258629.0 258629.0 104040.0 104040.0
41575.0 33199.0 10620.0 15330.0 208843.0 201979.0 283065.0 276441.0 253597.0 246432.0 84784.0 87184.0 286969.0 279936.0 66740.0 59666.0 135047.0 142856.0 292669.0 285350.0 73615.0 65409.0 245175.0 237323.0 295371.0 298801.0 146422.0 154441.0 65027.0 57412.0 226336.0 234358.0 229192.0 231584.0 303861.0 306333.0 243651.0 236173.0 57380.0 62470.0 169281.0 173516.0 297740.0 294243.0 285598.0 292212.0 311440.0 312728.0 250235.0 244233.0 238364.0 245421.0 280893.0 273157.0 282366.0 278324.0 269940.0 267289.0 175110.0 174174.0 123272.0 123991.0 207572.0 215558.0 163903.0 155444.0 258030.0 263121.0 287816.0 287302.0 234550.0 236794.0 44405.0 52316.0 35399.0 42028.0 234163.0 238882.0 55842.0 61291.0 199229.0 206630.0 279102.0 271925.0 168894.0 166522.0 16149.0 14001.0 47970.0 55209.0 38242.0 33112.0 276479.0 272378.0 262457.0 270439.0 279173.0 282833.0 258150.0 253953.0 298565.0 303827.0 319159.0 313518.0 231847.0 239151.0 8032.0 0.0 183646.0 179333.0 226949.0 219562.0 322238.0 330045.0 82941.0 74954.0 34985.0 37412.0 246542.0 245171.0 185517.0 192855.0 160961.0 162274.0 318518.0 311330.0 279059.0 283684.0 79135.0 79539.0 17690.0 24186.0 164618.0 163244.0 212700.0 209568.0 201306.0 208977.0 96261.0 88710.0 269183.0 274450.0 183131.0 191100.0 164947.0 158438.0 261039.0 253008.0 260461.0 254353.0 278120.0 270676.0 222512.0 226298.0 239151.0 245590.0 249254.0 255028.0 262118.0 254028.0 253719.0 100037.0 253719.0 253719.0 100037.0 100037.0
183856.0 183892.0 191867.0 198732.0 25388.0 18337.0 103076.0 95657.0 71309.0 63652.0 258956.0 258015.0 106444.0 98898.0 226904.0 218705.0 52570.0 44831.0 162970.0 159057.0 256922.0 248687.0 65898.0 59148.0 113427.0 115986.0 39556.0 31853.0 159567.0 163759.0 42700.0 50720.0 76659.0 73144.0 139200.0 138673.0 68368.0 60594.0 232304.0 239572.0 31289.0 36668.0 154237.0 154521.0 167083.0 169589.0 142893.0 141458.0 105405.0 97405.0 96314.0 98799.0 122594.0 114537.0 105187.0 99317.0 133093.0 134255.0 18553.0 26255.0 60410.0 60795.0 24118.0 32016.0 22244.0 30135.0 97150.0 98413.0 133683.0 129418.0 119918.0 115583.0 142477.0 135998.0 188541.0 194785.0 58077.0 65237.0 229897.0 231858.0 36260.0 38159.0 105483.0 97303.0 16967.0 23667.0 197790.0 191029.0 135921.0 129355.0 159302.0 157737.0 96878.0 94760.0 81717.0 89595.0 120352.0 120035.0 99938.0 100684.0 127520.0 130514.0 135672.0 129889.0 61835.0 69979.0 190640.0 183646.0 0.0 8048.0 50209.0 45596.0 159173.0 166817.0 265885.0 258018.0 148907.0 148353.0 82336.0 85907.0 13809.0 14367.0 23075.0 21876.0 160679.0 156095.0 138771.0 139206.0 105876.0 108132.0 171893.0 164295.0 28084.0 35819.0 66467.0 71228.0 18794.0 25598.0 109139.0 115783.0 122420.0 123365.0 21239.0 22424.0 43273.0 48522.0 137106.0 131258.0 94595.0 86550.0 111074.0 105953.0 42879.0 49260.0 141516.0 141863.0 70432.0 74394.0 86923.0 79451.0 124185.0 112154.0 124185.0 124185.0 112154.0 112154.0
181197.0 180886.0 187306.0 194313.0 31259.0 23631.0 109576.0 102019.0 77359.0 69524.0 255890.0 255180.0 112806.0 105174.0 224304.0 216134.0 46443.0 38526.0 158920.0 154704.0 252797.0 244565.0 72839.0 66357.0 119357.0 121541.0 33681.0 25686.0 157931.0 161780.0 47750.0 55684.0 73072.0 70294.0 146928.0 146265.0 68851.0 61008.0 229016.0 236173.0 35423.0 41798.0 162285.0 162555.0 162300.0 165111.0 150421.0 148816.0 113410.0 105410.0 92113.0 95153.0 130557.0 122514.0 106635.0 101255.0 141067.0 142153.0 23289.0 31225.0 56169.0 55667.0 28553.0 36545.0 15869.0 24263.0 95314.0 97208.0 141689.0 137374.0 114115.0 110113.0 137513.0 130825.0 185589.0 192025.0 65572.0 72880.0 226647.0 228840.0 44138.0 46205.0 112825.0 104601.0 10588.0 16056.0 193191.0 186284.0 131443.0 124654.0 156257.0 154311.0 98996.0 96244.0 84170.0 92135.0 118625.0 118867.0 107955.0 108732.0 127800.0 131260.0 140676.0 134629.0 69726.0 77848.0 186468.0 179333.0 8048.0 0.0 57733.0 53431.0 166904.0 174522.0 261870.0 253965.0 144453.0 143563.0 80709.0 83567.0 9113.0 14083.0 18501.0 20297.0 168565.0 164045.0 146796.0 147252.0 100949.0 102743.0 167089.0 159437.0 30600.0 38949.0 61647.0 65758.0 21986.0 29863.0 108227.0 114538.0 130465.0 131407.0 28011.0 30201.0 47201.0 51644.0 132252.0 126146.0 102453.0 94375.0 118808.0 113802.0 50079.0 56761.0 135200.0 135854.0 72056.0 76754.0 87668.0 79933.0 131866.0 111706.0 131866.0 131866.0 111706.0 111706.0
221084.0 222489.0 235910.0 242252.0 29792.0 36829.0 56131.0 49782.0 30329.0 26406.0 296908.0 295089.0 60113.0 53360.0 263700.0 255533.0 101887.0 94456.0 177939.0 176167.0 298991.0 290800.0 18495.0 10452.0 69221.0 73842.0 88839.0 81584.0 193105.0 198632.0 27245.0 28706.0 96505.0 89692.0 89381.0 88535.0 67628.0 62938.0 271395.0 279029.0 58035.0 55370.0 109645.0 111468.0 186654.0 187061.0 92698.0 91304.0 65791.0 58407.0 116924.0 115915.0 74800.0 67123.0 90617.0 82458.0 93287.0 96623.0 52246.0 52832.0 106231.0 108386.0 36035.0 32445.0 72288.0 79678.0 103899.0 101229.0 86653.0 81414.0 148379.0 142185.0 188207.0 182364.0 226851.0 232238.0 7877.0 15333.0 268858.0 269873.0 29453.0 21464.0 55380.0 47290.0 67109.0 73761.0 241905.0 235664.0 180330.0 174509.0 198479.0 198334.0 79240.0 81578.0 64882.0 70479.0 123703.0 119998.0 54043.0 57263.0 117772.0 117577.0 95864.0 91922.0 15349.0 22107.0 233397.0 226949.0 50209.0 57733.0 0.0 8151.0 109345.0 116901.0 307491.0 299818.0 193065.0 193520.0 90315.0 97308.0 58081.0 51250.0 71872.0 67326.0 111706.0 107822.0 96681.0 95269.0 152004.0 155351.0 216869.0 209501.0 62341.0 64308.0 94440.0 101856.0 42375.0 36002.0 141677.0 149331.0 79203.0 78204.0 43853.0 35930.0 64955.0 72132.0 158540.0 154658.0 45806.0 37551.0 61324.0 56945.0 9017.0 1044.0 172426.0 170647.0 62114.0 60115.0 79887.0 75685.0 92538.0 142547.0 92538.0 92538.0 142547.0 142547.0
213185.0 214673.0 228611.0 234877.0 28652.0 34663.0 63709.0 57599.0 38448.0 34177.0 289005.0 287158.0 67785.0 61200.0 255770.0 247602.0 96176.0 88943.0 181704.0 179609.0 291409.0 283227.0 26468.0 18392.0 77135.0 81898.0 83200.0 76223.0 185067.0 190639.0 30977.0 34146.0 98749.0 92301.0 93659.0 93401.0 72134.0 66817.0 263577.0 271232.0 50398.0 47405.0 110726.0 111953.0 189773.0 190501.0 97788.0 96924.0 64669.0 56945.0 119363.0 118877.0 77362.0 69421.0 97305.0 89286.0 92541.0 95244.0 45442.0 45391.0 99560.0 102074.0 35272.0 33472.0 67227.0 74235.0 108180.0 105997.0 88803.0 84128.0 149819.0 143900.0 181238.0 175528.0 219013.0 224343.0 14606.0 20211.0 261033.0 261987.0 21366.0 13402.0 61281.0 53425.0 62198.0 69261.0 234611.0 228451.0 173160.0 167466.0 190729.0 190699.0 86106.0 87998.0 71412.0 77369.0 128664.0 125348.0 55393.0 57467.0 124210.0 124338.0 103979.0 100071.0 16374.0 24429.0 225938.0 219562.0 45596.0 53431.0 8151.0 0.0 113624.0 121299.0 299859.0 292208.0 185836.0 186445.0 94191.0 100830.0 54952.0 48763.0 66253.0 61124.0 115145.0 110757.0 96734.0 96016.0 145189.0 148761.0 209730.0 202409.0 55091.0 56608.0 95333.0 102425.0 40737.0 35592.0 133664.0 141343.0 79555.0 79378.0 36752.0 28996.0 56942.0 64106.0 161219.0 156996.0 49023.0 40954.0 65539.0 60371.0 11518.0 7961.0 173565.0 172164.0 67486.0 66212.0 85549.0 80836.0 89435.0 134468.0 89435.0 89435.0 134468.0 134468.0
308186.0 310902.0 332124.0 337429.0 138442.0 145889.0 72858.0 79962.0 100812.0 108036.0 383628.0 381688.0 73291.0 79258.0 350300.0 342133.0 209110.0 202172.0 255451.0 256560.0 390186.0 382275.0 97337.0 101913.0 78344.0 84980.0 196315.0 189642.0 278794.0 284651.0 128651.0 123858.0 191228.0 183316.0 19976.0 22318.0 154244.0 154267.0 359266.0 367151.0 157750.0 151650.0 46195.0 54476.0 269001.0 266764.0 20518.0 27458.0 74009.0 78764.0 208771.0 204739.0 41398.0 49089.0 149628.0 142311.0 67073.0 74765.0 157012.0 154477.0 209908.0 213632.0 144048.0 138396.0 180817.0 187601.0 185014.0 178804.0 36858.0 35263.0 243654.0 236318.0 288422.0 283685.0 314823.0 319309.0 101638.0 94068.0 356644.0 356853.0 128874.0 123333.0 57056.0 65128.0 175819.0 182837.0 338077.0 332856.0 278906.0 274342.0 288745.0 290670.0 139774.0 147237.0 135585.0 134318.0 195734.0 188601.0 64256.0 68372.0 172984.0 167637.0 94648.0 99948.0 97645.0 89457.0 327607.0 322238.0 159173.0 166904.0 109345.0 113624.0 0.0 7871.0 397652.0 390511.0 290809.0 292739.0 176502.0 184756.0 167353.0 160278.0 179505.0 173615.0 13306.0 20429.0 57925.0 49766.0 253949.0 258627.0 315110.0 308308.0 164474.0 162812.0 195082.0 203238.0 150957.0 143625.0 228058.0 236050.0 57273.0 50130.0 147917.0 141102.0 158922.0 164784.0 245843.0 244439.0 65030.0 72786.0 48100.0 53744.0 117641.0 110349.0 268280.0 264529.0 144328.0 137123.0 154249.0 155655.0 101167.0 227928.0 101167.0 101167.0 227928.0 227928.0
315914.0 318630.0 339942.0 345230.0 145873.0 153358.0 78669.0 86004.0 107517.0 114871.0 391357.0 389416.0 78777.0 85078.0 358028.0 349861.0 216888.0 209926.0 260350.0 261649.0 397890.0 389988.0 104544.0 109306.0 83016.0 89267.0 204077.0 197372.0 286523.0 292379.0 135763.0 130796.0 197558.0 189625.0 27654.0 29070.0 160415.0 160673.0 366994.0 374879.0 165612.0 159520.0 50440.0 58687.0 274172.0 271762.0 26335.0 32119.0 81486.0 86413.0 214834.0 210633.0 49167.0 56916.0 154407.0 147279.0 73172.0 80696.0 164820.0 162323.0 217762.0 221465.0 151411.0 145645.0 188512.0 195337.0 190585.0 184229.0 44010.0 42921.0 249812.0 242420.0 296288.0 291555.0 322552.0 327037.0 109162.0 101654.0 364372.0 364581.0 136702.0 131117.0 63989.0 72160.0 183496.0 190475.0 345893.0 340687.0 286763.0 282208.0 296479.0 298441.0 144832.0 152426.0 141259.0 139671.0 200672.0 193400.0 72112.0 76137.0 177161.0 171577.0 97329.0 103071.0 105375.0 97190.0 335395.0 330045.0 166817.0 174522.0 116901.0 121299.0 7871.0 0.0 405328.0 398203.0 298656.0 300598.0 182435.0 190696.0 174854.0 167728.0 187251.0 181404.0 16595.0 24950.0 63724.0 55721.0 261820.0 266493.0 322958.0 316162.0 172323.0 170680.0 201772.0 209953.0 158359.0 150959.0 235786.0 243778.0 64357.0 57431.0 155725.0 148879.0 166790.0 172644.0 251443.0 250213.0 72816.0 80519.0 55760.0 61555.0 125126.0 117900.0 274414.0 270528.0 150410.0 143073.0 159790.0 161470.0 107939.0 235656.0 107939.0 107939.0 235656.0 235656.0
90958.0 87037.0 76439.0 68694.0 290901.0 284216.0 363565.0 357232.0 335014.0 328059.0 34804.0 42765.0 367600.0 360779.0 63039.0 66179.0 217965.0 225751.0 371164.0 363578.0 9922.0 17704.0 325895.0 317931.0 376438.0 380231.0 229214.0 237204.0 123469.0 115871.0 308490.0 316506.0 311493.0 314142.0 380114.0 383280.0 326592.0 319110.0 41568.0 33796.0 249474.0 252942.0 372379.0 368883.0 362649.0 369669.0 388511.0 390489.0 324994.0 319260.0 319759.0 327017.0 356310.0 348915.0 365307.0 361246.0 344580.0 341929.0 256313.0 254696.0 205708.0 206776.0 289922.0 297880.0 246581.0 238146.0 340431.0 345694.0 362724.0 362640.0 313258.0 316187.0 126882.0 134580.0 83440.0 80486.0 314445.0 318629.0 44180.0 47731.0 279026.0 286675.0 358024.0 351204.0 251503.0 249352.0 71127.0 79010.0 130837.0 138150.0 109587.0 109161.0 359384.0 355317.0 345291.0 353277.0 361213.0 365137.0 334388.0 329390.0 381299.0 386655.0 400988.0 395563.0 311171.0 318108.0 75502.0 82941.0 265885.0 261870.0 307491.0 299859.0 397652.0 405328.0 0.0 8018.0 117896.0 120080.0 329211.0 327615.0 268263.0 275517.0 243424.0 244288.0 393443.0 386110.0 353699.0 358349.0 162071.0 162331.0 97606.0 105280.0 245467.0 243253.0 294998.0 291514.0 283800.0 291353.0 169769.0 161775.0 343852.0 349283.0 263955.0 271941.0 243887.0 237032.0 339782.0 331782.0 338149.0 332605.0 355569.0 347823.0 303622.0 306903.0 315202.0 322198.0 332153.0 337857.0 345053.0 336963.0 328359.0 171494.0 328359.0 328359.0 171494.0 171494.0
84264.0 79988.0 68423.0 60676.0 283059.0 276352.0 355908.0 349542.0 327253.0 320273.0 35142.0 42934.0 359930.0 353085.0 59066.0 61365.0 209991.0 217783.0 363320.0 355748.0 2881.0 9697.0 318207.0 310253.0 368721.0 372473.0 221268.0 229263.0 116900.0 109199.0 300639.0 308656.0 303477.0 306124.0 372885.0 375985.0 318604.0 311126.0 36274.0 28991.0 241815.0 245355.0 365156.0 361659.0 354886.0 361884.0 381206.0 383117.0 317770.0 312036.0 311768.0 319020.0 349150.0 341719.0 357316.0 353271.0 337356.0 334705.0 248558.0 247007.0 197809.0 198830.0 282044.0 290006.0 238654.0 230215.0 332413.0 337675.0 355500.0 355281.0 305391.0 308285.0 118866.0 126561.0 76554.0 74023.0 306799.0 311038.0 38769.0 43234.0 271417.0 279045.0 350527.0 343670.0 243587.0 241400.0 63125.0 71022.0 122870.0 130163.0 102161.0 101520.0 351415.0 347332.0 337340.0 345326.0 353203.0 357121.0 327140.0 322214.0 373283.0 378642.0 393185.0 387733.0 303619.0 310594.0 67550.0 74954.0 258018.0 253965.0 299818.0 292208.0 390511.0 398203.0 8018.0 0.0 109920.0 112068.0 321194.0 319597.0 260326.0 267595.0 235527.0 236445.0 386219.0 378886.0 346475.0 351125.0 154088.0 154320.0 89590.0 97262.0 237744.0 235607.0 286982.0 283505.0 275903.0 283472.0 162536.0 154548.0 336628.0 342059.0 256240.0 264228.0 236339.0 229509.0 331919.0 323915.0 330766.0 325165.0 348216.0 340495.0 295889.0 299223.0 307483.0 314449.0 324186.0 329907.0 337057.0 328967.0 321135.0 164411.0 321135.0 321135.0 164411.0 164411.0
54303.0 48806.0 42998.0 49860.0 174174.0 167226.0 249097.0 242335.0 219204.0 211943.0 117085.0 118355.0 252930.0 245799.0 92764.0 84692.0 100071.0 107872.0 261140.0 254031.0 108600.0 100391.0 211156.0 203380.0 261108.0 264361.0 111451.0 119478.0 59167.0 54433.0 191607.0 199627.0 194985.0 197135.0 272060.0 274158.0 208713.0 201217.0 89340.0 95434.0 135825.0 140536.0 268373.0 264880.0 255067.0 261379.0 279183.0 280109.0 219994.0 213615.0 204904.0 211784.0 249639.0 241756.0 247436.0 243351.0 240577.0 237927.0 140984.0 140481.0 88498.0 89026.0 172762.0 180758.0 128969.0 120502.0 223705.0 228636.0 257176.0 256185.0 203145.0 204872.0 13028.0 20470.0 53379.0 61356.0 200405.0 205409.0 87382.0 91543.0 165870.0 173094.0 245964.0 238616.0 133986.0 131540.0 48957.0 42617.0 13010.0 20324.0 32136.0 24084.0 241499.0 237428.0 227473.0 235455.0 245130.0 248570.0 226561.0 222840.0 263911.0 269076.0 284526.0 278796.0 198634.0 206120.0 42452.0 34985.0 148907.0 144453.0 193065.0 185836.0 290809.0 298656.0 117896.0 109920.0 0.0 7469.0 211974.0 210819.0 150555.0 157920.0 126127.0 127688.0 287766.0 280851.0 249695.0 254203.0 44185.0 45121.0 24302.0 17897.0 130757.0 129949.0 178520.0 175711.0 166435.0 174155.0 70330.0 63927.0 239138.0 243976.0 149212.0 157144.0 132361.0 126157.0 229470.0 221457.0 228054.0 221658.0 245775.0 238524.0 188325.0 192381.0 209604.0 215606.0 214272.0 220045.0 227214.0 219125.0 224357.0 75676.0 224357.0 224357.0 75676.0 75676.0
61064.0 55163.0 44020.0 51456.0 173707.0 166613.0 249406.0 242516.0 219084.0 211704.0 121241.0 122907.0 253167.0 245945.0 98389.0 90427.0 98424.0 106330.0 256346.0 249151.0 110584.0 102439.0 211458.0 203764.0 261103.0 264142.0 110225.0 118289.0 66595.0 61902.0 191007.0 199014.0 191779.0 194197.0 273819.0 275712.0 206719.0 199309.0 93533.0 99264.0 136779.0 141830.0 271326.0 267889.0 249903.0 256321.0 280687.0 281398.0 222555.0 216023.0 201089.0 208095.0 251700.0 243754.0 245393.0 241532.0 243592.0 240959.0 141305.0 141220.0 88054.0 87918.0 172017.0 180022.0 127913.0 119432.0 220623.0 225739.0 259511.0 258303.0 198274.0 200220.0 7123.0 15136.0 59599.0 67585.0 200963.0 206195.0 91704.0 96258.0 166817.0 173885.0 246947.0 239483.0 133026.0 130157.0 49785.0 42722.0 13949.0 19050.0 39554.0 31437.0 239761.0 235477.0 225949.0 233915.0 241771.0 245421.0 228487.0 225005.0 261246.0 266575.0 284020.0 278139.0 199627.0 207229.0 45282.0 37412.0 148353.0 143563.0 193520.0 186445.0 292739.0 300598.0 120080.0 112068.0 7469.0 0.0 209190.0 207767.0 149317.0 156812.0 125406.0 127453.0 290017.0 283229.0 252702.0 257020.0 42641.0 42254.0 23540.0 15995.0 131375.0 131050.0 175288.0 172187.0 165540.0 173378.0 75135.0 69134.0 241751.0 246401.0 149721.0 157598.0 133946.0 127956.0 224679.0 216655.0 229529.0 222966.0 247263.0 240132.0 188485.0 192806.0 204104.0 210243.0 212574.0 218539.0 225084.0 216995.0 227389.0 80817.0 227389.0 227389.0 80817.0 80817.0
255761.0 254189.0 252834.0 260519.0 71050.0 71010.0 103766.0 96543.0 78639.0 73552.0 328029.0 328286.0 103910.0 97358.0 298855.0 290603.0 113730.0 106753.0 87626.0 86009.0 319626.0 311534.0 88426.0 89327.0 102234.0 98647.0 105116.0 98203.0 235658.0 238631.0 63304.0 62234.0 21210.0 15586.0 158947.0 154332.0 23531.0 27405.0 300475.0 307034.0 113255.0 117387.0 192449.0 196077.0 96950.0 96889.0 156177.0 150652.0 154854.0 147962.0 32716.0 28257.0 154491.0 148517.0 43080.0 44241.0 181242.0 185544.0 100550.0 107708.0 129947.0 126207.0 65784.0 62789.0 91124.0 98196.0 14913.0 16982.0 166896.0 159860.0 67926.0 60302.0 202335.0 194642.0 259030.0 266091.0 93613.0 100582.0 298308.0 301466.0 104144.0 99553.0 121229.0 114274.0 87951.0 86093.0 258328.0 250680.0 199364.0 191670.0 229844.0 226452.0 44722.0 36865.0 41764.0 45604.0 38017.0 38385.0 139306.0 144641.0 52157.0 58057.0 106259.0 98182.0 104994.0 109557.0 254283.0 246542.0 82336.0 80709.0 90315.0 94191.0 176502.0 182435.0 329211.0 321194.0 211974.0 209190.0 0.0 8262.0 71699.0 68010.0 96635.0 100798.0 183884.0 183013.0 182879.0 179690.0 168106.0 167007.0 231716.0 223998.0 110373.0 118128.0 35972.0 42191.0 66125.0 64507.0 187699.0 193451.0 165298.0 162230.0 100042.0 96044.0 125155.0 130780.0 70413.0 68160.0 126993.0 119743.0 135706.0 135540.0 82809.0 89521.0 92305.0 88110.0 32456.0 39380.0 25560.0 21249.0 182844.0 191700.0 182844.0 182844.0 191700.0 191700.0
255716.0 253876.0 251181.0 258938.0 76638.0 75925.0 112027.0 104795.0 86664.0 81401.0 327300.0 327758.0 112168.0 105619.0 298718.0 290449.0 113724.0 107060.0 80904.0 78862.0 317968.0 309918.0 96150.0 96767.0 110421.0 106736.0 105875.0 99318.0 236491.0 239201.0 70138.0 69576.0 16551.0 14039.0 167168.0 162579.0 31411.0 34453.0 299670.0 306101.0 117099.0 121648.0 200399.0 203936.0 89483.0 89758.0 164436.0 158914.0 162236.0 155247.0 24553.0 20038.0 162492.0 156438.0 49438.0 51437.0 188808.0 192985.0 104345.0 111721.0 130545.0 126365.0 71036.0 68724.0 92846.0 99494.0 12910.0 18567.0 174906.0 167913.0 59746.0 52090.0 200841.0 193062.0 258732.0 265907.0 100913.0 108027.0 297547.0 300890.0 109747.0 105531.0 129412.0 122410.0 90067.0 87498.0 256595.0 248870.0 198346.0 190568.0 229674.0 226009.0 52174.0 44151.0 49967.0 53570.0 35672.0 37848.0 147006.0 152200.0 54881.0 61489.0 113847.0 105747.0 112164.0 116962.0 252978.0 245171.0 85907.0 83567.0 97308.0 100830.0 184756.0 190696.0 327615.0 319597.0 210819.0 207767.0 8262.0 0.0 74466.0 71544.0 98600.0 103335.0 192100.0 191182.0 190611.0 187536.0 167221.0 165732.0 230025.0 222337.0 113735.0 121704.0 32794.0 37821.0 70670.0 69848.0 189294.0 194806.0 173009.0 170065.0 104473.0 100953.0 129063.0 134425.0 62447.0 59992.0 134840.0 127507.0 143795.0 143516.0 89557.0 96483.0 84076.0 79848.0 40628.0 47635.0 33244.0 29455.0 189830.0 193544.0 189830.0 189830.0 193544.0 193544.0
188726.0 188173.0 193228.0 200371.0 29283.0 21588.0 107130.0 99369.0 74387.0 66369.0 263076.0 262534.0 110100.0 102360.0 231858.0 223693.0 51169.0 43174.0 150017.0 145900.0 259091.0 250867.0 71538.0 65743.0 115916.0 117544.0 39115.0 31077.0 166082.0 169744.0 43868.0 51501.0 64030.0 61182.0 147409.0 146254.0 60624.0 52792.0 236050.0 243113.0 44110.0 50088.0 165227.0 165928.0 153677.0 156356.0 150195.0 148101.0 117227.0 109243.0 83234.0 86133.0 132283.0 124369.0 98805.0 93759.0 145088.0 146617.0 31650.0 39549.0 62906.0 61529.0 24872.0 32440.0 21773.0 30134.0 86259.0 88270.0 143751.0 139022.0 106137.0 101877.0 143087.0 136174.0 192911.0 199476.0 65720.0 73412.0 233713.0 236079.0 49038.0 49762.0 112185.0 103890.0 17275.0 19296.0 199066.0 192013.0 137553.0 130552.0 163546.0 161315.0 91633.0 88468.0 77126.0 85116.0 109576.0 109921.0 110241.0 111676.0 119325.0 122996.0 135891.0 129546.0 71308.0 79244.0 192779.0 185517.0 13809.0 9113.0 58081.0 54952.0 167353.0 174854.0 268263.0 260326.0 150555.0 149317.0 71699.0 74466.0 0.0 7905.0 26005.0 29124.0 169725.0 165602.0 150338.0 150323.0 106687.0 107927.0 172781.0 165084.0 39635.0 47914.0 52992.0 57502.0 17639.0 25865.0 116760.0 122924.0 133634.0 134053.0 35046.0 35615.0 55995.0 60638.0 123656.0 117686.0 103655.0 95452.0 119393.0 114910.0 49731.0 57061.0 127715.0 128060.0 64489.0 69687.0 79498.0 71655.0 137159.0 120399.0 137159.0 137159.0 120399.0 120399.0
195255.0 194891.0 200672.0 207764.0 21878.0 14426.0 99314.0 91530.0 66527.0 58497.0 269871.0 269206.0 102249.0 94501.0 238366.0 230197.0 58864.0 50865.0 149012.0 145273.0 266390.0 258162.0 64016.0 58466.0 108013.0 109647.0 46594.0 38526.0 171980.0 175858.0 35967.0 43598.0 62607.0 58856.0 140365.0 139024.0 54927.0 47092.0 242946.0 250069.0 45594.0 50605.0 159424.0 160405.0 153590.0 155875.0 142886.0 140638.0 112124.0 104180.0 82535.0 84724.0 125837.0 118007.0 92561.0 87179.0 140063.0 141932.0 32837.0 40378.0 69923.0 68928.0 17052.0 24540.0 28953.0 37419.0 82805.0 84187.0 137465.0 132525.0 107599.0 102857.0 150639.0 143789.0 199604.0 206069.0 58746.0 66564.0 240588.0 242835.0 45429.0 45020.0 104781.0 96475.0 24044.0 27064.0 206528.0 199525.0 144911.0 137990.0 170260.0 168223.0 84936.0 82166.0 70176.0 78152.0 106027.0 105831.0 104155.0 105990.0 113991.0 117309.0 128079.0 121788.0 65002.0 72791.0 200063.0 192855.0 14367.0 14083.0 51250.0 48763.0 160278.0 167728.0 275517.0 267595.0 157920.0 156812.0 68010.0 71544.0 7905.0 0.0 32452.0 34127.0 162951.0 159022.0 144958.0 144627.0 114171.0 115575.0 180302.0 172617.0 42363.0 50183.0 53334.0 58774.0 9797.0 17992.0 122118.0 128512.0 128035.0 128123.0 34155.0 32939.0 57574.0 62889.0 123713.0 118108.0 97010.0 88770.0 112432.0 108191.0 42668.0 50216.0 129911.0 129766.0 57973.0 62749.0 73695.0 66023.0 133236.0 125451.0 133236.0 133236.0 125451.0 125451.0
162842.0 162439.0 169036.0 175983.0 48452.0 41220.0 125908.0 118577.0 94355.0 86724.0 237423.0 236758.0 129354.0 121855.0 205963.0 197796.0 30015.0 22698.0 170481.0 165656.0 234376.0 226143.0 88426.0 81353.0 136481.0 139057.0 16972.0 10343.0 140106.0 143739.0 65608.0 73610.0 86430.0 84839.0 159600.0 159620.0 86626.0 78796.0 210524.0 217674.0 31199.0 39149.0 170813.0 170256.0 172235.0 175727.0 164039.0 163067.0 120770.0 112872.0 104006.0 108040.0 141473.0 133305.0 124766.0 119574.0 147649.0 147773.0 24129.0 30089.0 37719.0 37723.0 46640.0 54640.0 6325.0 8189.0 110856.0 113441.0 151947.0 148350.0 121781.0 118786.0 119468.0 112940.0 167153.0 173636.0 79726.0 86389.0 208159.0 210384.0 51886.0 56337.0 127224.0 119161.0 8792.0 12569.0 174940.0 168109.0 113124.0 106441.0 137808.0 135814.0 117367.0 114410.0 102623.0 110596.0 134134.0 135011.0 118222.0 117836.0 145212.0 148979.0 158631.0 152739.0 81884.0 90064.0 168054.0 160961.0 23075.0 18501.0 71872.0 66253.0 179505.0 187251.0 243424.0 235527.0 126127.0 125406.0 96635.0 98600.0 26005.0 32452.0 0.0 8448.0 180095.0 174971.0 154296.0 155661.0 82867.0 85057.0 148945.0 141325.0 23619.0 31617.0 72976.0 75410.0 40376.0 48027.0 91131.0 97110.0 138860.0 140752.0 32741.0 38593.0 40710.0 42786.0 142240.0 135564.0 114509.0 106733.0 131558.0 125853.0 65233.0 70988.0 140952.0 142631.0 90327.0 95199.0 105502.0 97646.0 135822.0 95068.0 135822.0 135822.0 95068.0 95068.0
161988.0 162022.0 170685.0 177428.0 46615.0 40051.0 122402.0 115298.0 91633.0 84275.0 237087.0 236140.0 126020.0 118672.0 205042.0 196848.0 35535.0 29041.0 176901.0 172283.0 235389.0 227155.0 84585.0 77190.0 133682.0 136710.0 23057.0 18022.0 137987.0 142035.0 64211.0 72221.0 91985.0 89815.0 153785.0 154124.0 89048.0 81209.0 210465.0 217754.0 22764.0 30739.0 163547.0 162785.0 179186.0 182472.0 158662.0 158029.0 113325.0 105477.0 110206.0 113856.0 135007.0 126819.0 126547.0 120909.0 139970.0 139910.0 16859.0 21982.0 39431.0 41062.0 45967.0 53805.0 14134.0 15823.0 115294.0 117394.0 145227.0 141887.0 129247.0 126009.0 121787.0 115594.0 166667.0 172911.0 75085.0 81334.0 208051.0 209986.0 45145.0 50288.0 122387.0 114454.0 14016.0 20247.0 176634.0 170017.0 114746.0 108408.0 137437.0 135944.0 118537.0 116132.0 103470.0 111377.0 138615.0 139044.0 111612.0 110861.0 148065.0 151435.0 156885.0 151301.0 76242.0 84370.0 169167.0 162274.0 21876.0 20297.0 67326.0 61124.0 173615.0 181404.0 244288.0 236445.0 127688.0 127453.0 100798.0 103335.0 29124.0 34127.0 8448.0 0.0 173767.0 168431.0 146805.0 148391.0 85279.0 88186.0 150966.0 143437.0 15185.0 23308.0 79265.0 82234.0 40534.0 47460.0 87993.0 94404.0 131623.0 133775.0 25870.0 32553.0 32395.0 34878.0 149142.0 142619.0 108588.0 100983.0 125864.0 119879.0 61401.0 66504.0 148817.0 150312.0 91848.0 96113.0 107820.0 100141.0 127741.0 91411.0 127741.0 127741.0 91411.0 91411.0
303812.0 306527.0 328548.0 333617.0 141313.0 148526.0 81132.0 87674.0 106664.0 113434.0 379254.0 377313.0 82151.0 87431.0 345925.0 337758.0 209293.0 202626.0 264570.0 265376.0 385848.0 377913.0 101517.0 105220.0 88382.0 95450.0 196699.0 190354.0 274420.0 280276.0 132958.0 128811.0 197655.0 189817.0 24949.0 30550.0 161167.0 160615.0 354891.0 362776.0 156640.0 150112.0 33853.0 42109.0 277664.0 275715.0 30724.0 38616.0 68525.0 74285.0 215791.0 212135.0 38893.0 47075.0 159129.0 151551.0 57298.0 64628.0 156982.0 153813.0 208898.0 213052.0 147221.0 142101.0 181859.0 188259.0 193099.0 187175.0 30719.0 32058.0 250392.0 243199.0 285960.0 281526.0 310449.0 314934.0 104256.0 96387.0 352269.0 352478.0 128667.0 123763.0 62876.0 70430.0 177015.0 184303.0 334467.0 329486.0 276117.0 271869.0 284377.0 286559.0 148881.0 156104.0 143634.0 142958.0 204883.0 197976.0 62465.0 65047.0 183241.0 178191.0 106609.0 111530.0 98845.0 90719.0 323647.0 318518.0 160679.0 168565.0 111706.0 115145.0 13306.0 16595.0 393443.0 386219.0 287766.0 290017.0 183884.0 192100.0 169725.0 162951.0 180095.0 173767.0 0.0 8543.0 47623.0 39827.0 252128.0 257140.0 312053.0 305412.0 163699.0 161363.0 200528.0 208594.0 153911.0 146933.0 223683.0 231675.0 50293.0 44189.0 147910.0 141507.0 156809.0 162311.0 253761.0 252015.0 66132.0 74288.0 50867.0 54824.0 120350.0 112737.0 275041.0 271602.0 151494.0 144607.0 162478.0 163346.0 92852.0 223554.0 92852.0 92852.0 223554.0 223554.0
296479.0 299194.0 321410.0 326390.0 137577.0 144624.0 81523.0 87559.0 105034.0 111445.0 371921.0 369981.0 82994.0 87670.0 338592.0 330425.0 203906.0 197389.0 264963.0 265508.0 378515.0 370580.0 98821.0 101949.0 90155.0 97558.0 191436.0 185272.0 267087.0 272943.0 130143.0 126435.0 196053.0 188285.0 25582.0 32605.0 160021.0 159058.0 347559.0 355443.0 150724.0 144011.0 25792.0 34077.0 277656.0 275950.0 34118.0 42335.0 61116.0 67236.0 214583.0 211214.0 33534.0 41674.0 160049.0 152267.0 48785.0 56088.0 151596.0 148120.0 202931.0 207284.0 143642.0 138867.0 176970.0 183154.0 192750.0 187067.0 23756.0 26682.0 248924.0 241844.0 279281.0 274976.0 303116.0 307602.0 100576.0 92594.0 344936.0 345145.0 123286.0 118735.0 61806.0 68855.0 172218.0 179638.0 327315.0 322426.0 269310.0 265194.0 277045.0 279244.0 149494.0 156490.0 143404.0 143204.0 205387.0 198690.0 56824.0 58606.0 184793.0 180044.0 110230.0 114681.0 94388.0 86368.0 316370.0 311330.0 156095.0 164045.0 107822.0 110757.0 20429.0 24950.0 386110.0 378886.0 280851.0 283229.0 183013.0 191182.0 165602.0 159022.0 174971.0 168431.0 8543.0 0.0 39084.0 31327.0 245746.0 250902.0 305120.0 298546.0 157926.0 155276.0 198242.0 206230.0 150177.0 143436.0 216351.0 224342.0 42494.0 36896.0 142562.0 136393.0 150430.0 155763.0 253178.0 251169.0 62019.0 70271.0 48153.0 50956.0 116619.0 108861.0 273558.0 270352.0 150560.0 143938.0 162323.0 162768.0 84514.0 216221.0 84514.0 84514.0 216221.0 216221.0
264068.0 266783.0 289269.0 294041.0 125360.0 131247.0 92730.0 96025.0 105164.0 109395.0 339510.0 337570.0 95830.0 97592.0 306182.0 298014.0 181291.0 175654.0 269010.0 268370.0 346104.0 338169.0 94463.0 94450.0 105932.0 114059.0 169678.0 164581.0 234676.0 240532.0 122905.0 121540.0 192192.0 184951.0 50999.0 58678.0 159351.0 156517.0 315148.0 323032.0 126453.0 118916.0 18763.0 15993.0 279729.0 279150.0 62922.0 70293.0 33542.0 41497.0 212143.0 210170.0 33792.0 36358.0 168610.0 160216.0 10047.0 17005.0 130180.0 125150.0 177320.0 182646.0 131944.0 129113.0 157462.0 162385.0 194738.0 190291.0 25547.0 32767.0 244673.0 238232.0 249322.0 245696.0 270705.0 275191.0 91118.0 83364.0 312526.0 312734.0 103052.0 100708.0 70138.0 73694.0 153315.0 161216.0 295123.0 290535.0 238759.0 235338.0 244634.0 246834.0 157097.0 162845.0 147551.0 149460.0 210917.0 205297.0 43629.0 39426.0 195389.0 192048.0 131762.0 134217.0 81424.0 74901.0 283969.0 279059.0 138771.0 146796.0 96681.0 96734.0 57925.0 63724.0 353699.0 346475.0 249695.0 252702.0 182879.0 190611.0 150338.0 144958.0 154296.0 146805.0 47623.0 39084.0 0.0 8263.0 217522.0 223369.0 273769.0 267556.0 134238.0 129940.0 191098.0 198537.0 137426.0 132161.0 183940.0 191931.0 17643.0 21604.0 121667.0 117013.0 123600.0 127858.0 252954.0 249766.0 56205.0 63145.0 53254.0 49712.0 105620.0 97684.0 268903.0 266822.0 151229.0 146093.0 166073.0 164599.0 46895.0 183810.0 46895.0 46895.0 183810.0 183810.0
268718.0 271433.0 293916.0 298691.0 124471.0 130672.0 86906.0 90681.0 101434.0 106143.0 344160.0 342220.0 89793.0 92028.0 310831.0 302664.0 183256.0 177370.0 265222.0 264808.0 350754.0 342819.0 91512.0 92178.0 99561.0 107647.0 171383.0 165989.0 239326.0 245182.0 120867.0 118988.0 189791.0 182416.0 42930.0 50684.0 156170.0 153699.0 319797.0 327682.0 128671.0 121331.0 15156.0 16421.0 276337.0 275540.0 54819.0 62296.0 35431.0 43027.0 209510.0 207249.0 27564.0 31558.0 163747.0 155425.0 17479.0 25009.0 131631.0 126997.0 180094.0 185163.0 130978.0 127682.0 158537.0 163805.0 191175.0 186478.0 17873.0 25480.0 242490.0 235903.0 253466.0 249634.0 275355.0 279840.0 89242.0 81317.0 317175.0 317384.0 103999.0 101047.0 64386.0 68604.0 154218.0 162030.0 299761.0 295192.0 243071.0 239436.0 249283.0 251483.0 152353.0 158349.0 143385.0 144919.0 206733.0 200901.0 41342.0 38652.0 190263.0 186676.0 124766.0 127495.0 80232.0 73226.0 288619.0 283684.0 139206.0 147252.0 95269.0 96016.0 49766.0 55721.0 358349.0 351125.0 254203.0 257020.0 179690.0 187536.0 150323.0 144627.0 155661.0 148391.0 39827.0 31327.0 8263.0 0.0 221117.0 226773.0 278356.0 272027.0 136331.0 132478.0 189390.0 196971.0 136741.0 131099.0 188589.0 196581.0 16822.0 17482.0 122929.0 117842.0 126547.0 131146.0 249968.0 247009.0 52699.0 60166.0 47503.0 44958.0 104275.0 96293.0 266850.0 264532.0 147744.0 142293.0 162070.0 160953.0 53539.0 188460.0 53539.0 53539.0 188460.0 188460.0
90576.0 87564.0 86555.0 93785.0 131257.0 124087.0 207592.0 200559.0 176851.0 169379.0 160087.0 160702.0 211263.0 203945.0 132704.0 124431.0 55928.0 63779.0 221448.0 214690.0 152736.0 144539.0 169690.0 162123.0 218939.0 221798.0 67587.0 75649.0 79946.0 79499.0 148473.0 156471.0 151612.0 153429.0 234649.0 236044.0 164528.0 157038.0 132449.0 138933.0 96495.0 102302.0 235834.0 233136.0 216894.0 222713.0 240891.0 241138.0 185994.0 179003.0 162602.0 169192.0 213413.0 205330.0 203250.0 199192.0 208913.0 206530.0 99787.0 100443.0 45875.0 45288.0 129433.0 137439.0 85276.0 76795.0 180128.0 184854.0 221997.0 220150.0 164080.0 164968.0 36602.0 30363.0 92430.0 99974.0 159583.0 165175.0 130329.0 133802.0 126276.0 133001.0 206168.0 198516.0 90401.0 87555.0 92381.0 85358.0 31341.0 23940.0 64393.0 59505.0 197361.0 193247.0 183423.0 191398.0 201894.0 205045.0 189936.0 187163.0 219924.0 224994.0 241497.0 235558.0 159014.0 166818.0 86635.0 79135.0 105876.0 100949.0 152004.0 145189.0 253949.0 261820.0 162071.0 154088.0 44185.0 42641.0 168106.0 167221.0 106687.0 114171.0 82867.0 85279.0 252128.0 245746.0 217522.0 221117.0 0.0 8078.0 66146.0 58488.0 90444.0 91179.0 135224.0 132921.0 122918.0 130783.0 57329.0 55609.0 205232.0 209236.0 108461.0 116207.0 95327.0 90104.0 189920.0 181994.0 189828.0 182914.0 207529.0 200706.0 146585.0 151249.0 173423.0 178654.0 170144.0 176003.0 183033.0 174945.0 192960.0 64459.0 192960.0 192960.0 64459.0 64459.0
94548.0 90923.0 86183.0 93702.0 133497.0 126159.0 210568.0 203396.0 179381.0 171780.0 162068.0 163065.0 214143.0 206731.0 135981.0 127743.0 56773.0 64758.0 217529.0 210628.0 152836.0 144693.0 172770.0 165336.0 221508.0 224101.0 69093.0 77147.0 86136.0 85153.0 150466.0 158422.0 149867.0 152087.0 239195.0 240367.0 164562.0 157199.0 134339.0 140539.0 100906.0 107065.0 241575.0 239063.0 212419.0 218412.0 245146.0 245159.0 191532.0 184420.0 159968.0 166766.0 218338.0 210219.0 203206.0 199452.0 214895.0 212656.0 103326.0 104532.0 49215.0 47361.0 131296.0 139286.0 86916.0 78480.0 178611.0 183610.0 227176.0 225113.0 159855.0 161079.0 35570.0 28300.0 95757.0 103476.0 163021.0 168864.0 132321.0 136174.0 130387.0 136872.0 209938.0 202177.0 92155.0 88653.0 91854.0 84499.0 32994.0 25041.0 68623.0 63021.0 197734.0 193330.0 184096.0 192041.0 200010.0 203463.0 194806.0 192296.0 219028.0 224326.0 243415.0 237296.0 162978.0 170880.0 87282.0 79539.0 108132.0 102743.0 155351.0 148761.0 258627.0 266493.0 162331.0 154320.0 45121.0 42254.0 167007.0 165732.0 107927.0 115575.0 85057.0 88186.0 257140.0 250902.0 223369.0 226773.0 8078.0 0.0 65290.0 57541.0 94495.0 95848.0 133399.0 130635.0 124596.0 132597.0 65403.0 63584.0 210744.0 214547.0 112166.0 119773.0 100528.0 95629.0 185915.0 177946.0 194208.0 187135.0 211862.0 205193.0 149583.0 154561.0 168290.0 173749.0 170590.0 176708.0 182873.0 174785.0 199086.0 72531.0 199086.0 199086.0 72531.0 72531.0
54664.0 46836.0 21170.0 29054.0 197246.0 190153.0 272813.0 265960.0 242591.0 235227.0 102077.0 104720.0 276597.0 269399.0 84170.0 76892.0 121802.0 129735.0 275705.0 268326.0 87943.0 79904.0 234863.0 227140.0 284592.0 287666.0 133708.0 141776.0 71600.0 64916.0 214547.0 222554.0 213889.0 216590.0 296350.0 298419.0 229846.0 222489.0 74872.0 79640.0 159876.0 164715.0 292467.0 288969.0 268367.0 275049.0 303435.0 304308.0 244231.0 237884.0 222378.0 229558.0 273941.0 266058.0 268473.0 264741.0 264666.0 262015.0 164689.0 164432.0 111581.0 111433.0 195552.0 203557.0 151420.0 142940.0 242833.0 248141.0 281454.0 280485.0 217594.0 220014.0 29752.0 37139.0 50080.0 57474.0 224272.0 229400.0 73415.0 78967.0 189928.0 197081.0 270050.0 262650.0 156546.0 153591.0 26625.0 19238.0 36588.0 42561.0 42682.0 35143.0 263012.0 258616.0 249298.0 257255.0 263632.0 267531.0 250862.0 247137.0 283841.0 289312.0 307561.0 301675.0 222718.0 230250.0 25501.0 17690.0 171893.0 167089.0 216869.0 209730.0 315110.0 322958.0 97606.0 89590.0 24302.0 23540.0 231716.0 230025.0 172781.0 180302.0 148945.0 150966.0 312053.0 305120.0 273769.0 278356.0 66146.0 65290.0 0.0 7751.0 154640.0 154059.0 197394.0 193941.0 189062.0 196910.0 93181.0 86271.0 263359.0 268240.0 173038.0 180939.0 156612.0 150441.0 244111.0 236082.0 252296.0 245857.0 270021.0 262793.0 211928.0 216166.0 221755.0 228269.0 235853.0 241896.0 248119.0 240034.0 248445.0 97988.0 248445.0 248445.0 97988.0 97988.0
57164.0 49846.0 28846.0 36644.0 189658.0 182541.0 265398.0 258511.0 235070.0 227680.0 108962.0 111336.0 269162.0 261940.0 89529.0 81997.0 114081.0 122019.0 268555.0 261215.0 95641.0 87582.0 227449.0 219751.0 277094.0 280117.0 126023.0 134092.0 70555.0 64434.0 206932.0 214936.0 206218.0 208885.0 289467.0 291445.0 222096.0 214740.0 81556.0 86612.0 152673.0 157633.0 286226.0 282740.0 261416.0 268040.0 296439.0 297223.0 237746.0 231315.0 214835.0 221987.0 267199.0 259285.0 260722.0 256993.0 258437.0 255786.0 157292.0 157158.0 104029.0 103773.0 187916.0 195921.0 143750.0 135270.0 235151.0 240436.0 274853.0 273772.0 210437.0 212758.0 22018.0 29395.0 53568.0 61277.0 216934.0 222134.0 79983.0 85255.0 182719.0 189819.0 262850.0 255410.0 148887.0 145883.0 34366.0 26969.0 29453.0 35043.0 41635.0 33554.0 255267.0 250865.0 241565.0 249521.0 256001.0 259865.0 244052.0 240444.0 276118.0 281576.0 299952.0 294041.0 215523.0 223097.0 32199.0 24186.0 164295.0 159437.0 209501.0 202409.0 308308.0 316162.0 105280.0 97262.0 17897.0 15995.0 223998.0 222337.0 165084.0 172617.0 141325.0 143437.0 305412.0 298546.0 267556.0 272027.0 58488.0 57541.0 7751.0 0.0 147330.0 146906.0 189722.0 186319.0 181404.0 189269.0 87963.0 81340.0 256908.0 261685.0 165693.0 173576.0 149642.0 143558.0 236938.0 228908.0 245286.0 238780.0 263018.0 255840.0 204479.0 208789.0 214976.0 221406.0 228111.0 234166.0 240368.0 232283.0 242216.0 93095.0 242216.0 242216.0 93095.0 93095.0
160449.0 161273.0 173573.0 179916.0 48172.0 43368.0 118447.0 111873.0 89677.0 83009.0 236133.0 234682.0 122362.0 115392.0 203308.0 195140.0 47070.0 41868.0 189474.0 185166.0 236861.0 228655.0 80572.0 72705.0 130978.0 134834.0 36012.0 32578.0 134329.0 139106.0 65557.0 73281.0 103660.0 100694.0 144889.0 145893.0 96108.0 88403.0 210104.0 217615.0 8000.0 16024.0 151455.0 150229.0 192526.0 195512.0 150655.0 150721.0 100987.0 93304.0 122662.0 125751.0 124807.0 116625.0 132086.0 125759.0 126975.0 126467.0 11448.0 10039.0 45465.0 49363.0 49612.0 56658.0 29199.0 30445.0 125153.0 126496.0 134417.0 131657.0 143363.0 139810.0 126243.0 120699.0 165763.0 171537.0 69649.0 74848.0 207612.0 209018.0 35893.0 42583.0 115752.0 108172.0 28053.0 35141.0 179570.0 173368.0 118069.0 112418.0 136968.0 136391.0 123137.0 121681.0 107723.0 115404.0 148388.0 148118.0 101243.0 99657.0 155199.0 157898.0 155965.0 150990.0 68571.0 76410.0 171111.0 164618.0 28084.0 30600.0 62341.0 55091.0 164474.0 172323.0 245467.0 237744.0 130757.0 131375.0 110373.0 113735.0 39635.0 42363.0 23619.0 15185.0 163699.0 157926.0 134238.0 136331.0 90444.0 94495.0 154640.0 147330.0 0.0 8532.0 92033.0 95668.0 45970.0 51174.0 83126.0 90228.0 119698.0 122440.0 18521.0 26503.0 17433.0 21068.0 162460.0 156162.0 99786.0 92643.0 117400.0 110858.0 58164.0 61681.0 163424.0 164685.0 97414.0 100598.0 114442.0 107146.0 113808.0 85477.0 113808.0 113808.0 85477.0 85477.0
156985.0 158223.0 172475.0 178573.0 53763.0 49757.0 120317.0 114090.0 92891.0 86655.0 232794.0 231082.0 124375.0 117665.0 199703.0 191536.0 52282.0 47949.0 197868.0 193609.0 234821.0 226645.0 82776.0 74760.0 133474.0 137756.0 42326.0 39909.0 129874.0 135002.0 70680.0 78161.0 111932.0 108801.0 143471.0 144934.0 103135.0 95512.0 207125.0 214739.0 6380.0 11266.0 147529.0 145893.0 201025.0 203976.0 149829.0 150361.0 97047.0 89567.0 131059.0 134046.0 122522.0 114388.0 138421.0 131847.0 122296.0 121341.0 17782.0 12281.0 47737.0 52714.0 55956.0 62560.0 37434.0 37861.0 132960.0 134081.0 131612.0 129316.0 151892.0 148341.0 126257.0 121125.0 162615.0 168122.0 71193.0 75643.0 204597.0 205721.0 35985.0 43459.0 116015.0 108716.0 36540.0 43476.0 178479.0 172533.0 117489.0 112272.0 134172.0 134094.0 129134.0 128057.0 113652.0 121203.0 156137.0 155658.0 98972.0 96722.0 162074.0 164519.0 159295.0 154648.0 68689.0 76194.0 169492.0 163244.0 35819.0 38949.0 64308.0 56608.0 162812.0 170680.0 243253.0 235607.0 129949.0 131050.0 118128.0 121704.0 47914.0 50183.0 31617.0 23308.0 161363.0 155276.0 129940.0 132478.0 91179.0 95848.0 154059.0 146906.0 8532.0 0.0 100491.0 104186.0 52984.0 57507.0 78411.0 85801.0 116031.0 119261.0 21998.0 29636.0 9094.0 12746.0 170960.0 164680.0 98705.0 91959.0 116428.0 109534.0 61226.0 63761.0 171894.0 173195.0 103907.0 106660.0 121241.0 114106.0 108260.0 80183.0 108260.0 108260.0 80183.0 80183.0
224505.0 222338.0 218559.0 226347.0 67156.0 63205.0 124766.0 116863.0 94273.0 87145.0 295270.0 295917.0 126033.0 118611.0 267337.0 259057.0 83189.0 77185.0 97637.0 93143.0 285327.0 277297.0 99509.0 97425.0 127118.0 125243.0 76952.0 71388.0 206671.0 208925.0 68664.0 71807.0 16497.0 20413.0 176120.0 172808.0 45826.0 42537.0 267588.0 273908.0 97042.0 103055.0 203411.0 205701.0 100686.0 103485.0 175553.0 171238.0 159889.0 152247.0 31032.0 35617.0 166900.0 159861.0 78079.0 77651.0 187618.0 190563.0 84642.0 92534.0 100907.0 95970.0 60543.0 62098.0 66754.0 72014.0 45476.0 51249.0 179213.0 173036.0 54841.0 49634.0 168325.0 160504.0 227204.0 234506.0 100148.0 108088.0 265506.0 269022.0 97799.0 95812.0 138092.0 130214.0 65278.0 60757.0 223938.0 216185.0 166172.0 158334.0 198347.0 194364.0 77336.0 70333.0 69414.0 75601.0 66671.0 70147.0 148048.0 151696.0 87509.0 93815.0 136713.0 128888.0 109758.0 116249.0 220544.0 212700.0 66467.0 61647.0 94440.0 95333.0 195082.0 201772.0 294998.0 286982.0 178520.0 175288.0 35972.0 32794.0 52992.0 53334.0 72976.0 79265.0 200528.0 198242.0 191098.0 189390.0 135224.0 133399.0 197394.0 189722.0 92033.0 100491.0 0.0 8254.0 56892.0 59962.0 161224.0 166174.0 173569.0 172096.0 87342.0 86134.0 108848.0 113090.0 70666.0 64820.0 137884.0 129841.0 150091.0 148015.0 85566.0 93448.0 78244.0 77190.0 55882.0 64053.0 58540.0 51563.0 183973.0 166018.0 183973.0 183973.0 166018.0 166018.0
222812.0 220352.0 215109.0 222962.0 74013.0 69591.0 133015.0 125108.0 102442.0 95260.0 292696.0 293555.0 134287.0 126864.0 265445.0 257163.0 82620.0 77192.0 95322.0 90280.0 281789.0 273810.0 107446.0 105166.0 135340.0 133406.0 77598.0 72709.0 206034.0 207978.0 76435.0 79814.0 21327.0 27019.0 184231.0 180974.0 53849.0 50760.0 264972.0 271145.0 101134.0 107502.0 211081.0 213249.0 96957.0 100317.0 183747.0 179465.0 167072.0 159371.0 30242.0 36314.0 174741.0 167636.0 84941.0 84957.0 194874.0 197661.0 88999.0 96933.0 100826.0 95387.0 67365.0 69430.0 69100.0 73568.0 49933.0 56372.0 187027.0 180921.0 48827.0 44380.0 165163.0 157270.0 225222.0 232632.0 107745.0 115722.0 262940.0 266650.0 103834.0 102268.0 146229.0 138323.0 68230.0 62930.0 220394.0 212570.0 163564.0 155658.0 196593.0 192314.0 84790.0 77591.0 77373.0 83392.0 69700.0 73977.0 155635.0 159115.0 92662.0 99303.0 144611.0 136748.0 117131.0 123771.0 217468.0 209568.0 71228.0 65758.0 101856.0 102425.0 203238.0 209953.0 291514.0 283505.0 175711.0 172187.0 42191.0 37821.0 57502.0 58774.0 75410.0 82234.0 208594.0 206230.0 198537.0 196971.0 132921.0 130635.0 193941.0 186319.0 95668.0 104186.0 8254.0 0.0 63223.0 66890.0 161729.0 166356.0 181049.0 179725.0 92359.0 91713.0 112770.0 116624.0 66908.0 60494.0 145675.0 137596.0 158089.0 155896.0 92926.0 100853.0 71500.0 71011.0 63977.0 72151.0 65803.0 59095.0 190633.0 166783.0 190633.0 190633.0 166783.0 166783.0
202484.0 202394.0 209292.0 216295.0 12604.0 6381.0 89518.0 81740.0 56749.0 48731.0 277444.0 276595.0 92465.0 84722.0 245552.0 237365.0 68044.0 60060.0 150003.0 146746.0 274748.0 266515.0 54368.0 49053.0 98327.0 100103.0 55504.0 47449.0 178360.0 182528.0 26295.0 34050.0 63858.0 59033.0 131082.0 129575.0 50175.0 42529.0 250684.0 257893.0 47626.0 51291.0 151401.0 152689.0 155687.0 157487.0 133369.0 131003.0 104997.0 97132.0 84356.0 85642.0 117164.0 109436.0 86456.0 80525.0 132948.0 135206.0 35202.0 41863.0 78094.0 77631.0 7256.0 14880.0 37692.0 46157.0 81038.0 81510.0 128946.0 123789.0 111710.0 106457.0 159467.0 152733.0 207066.0 213382.0 49660.0 57591.0 248295.0 250363.0 40999.0 39049.0 95202.0 86892.0 32517.0 36478.0 215176.0 208262.0 153426.0 146639.0 177782.0 176030.0 78085.0 76030.0 62948.0 70845.0 103914.0 102958.0 95919.0 98204.0 109230.0 111985.0 118847.0 112708.0 56672.0 64242.0 208423.0 201306.0 18794.0 21986.0 42375.0 40737.0 150957.0 158359.0 283800.0 275903.0 166435.0 165540.0 66125.0 70670.0 17639.0 9797.0 40376.0 40534.0 153911.0 150177.0 137426.0 136741.0 122918.0 124596.0 189062.0 181404.0 45970.0 52984.0 56892.0 63223.0 0.0 8237.0 127897.0 134571.0 120290.0 120006.0 33917.0 30448.0 59348.0 65353.0 126112.0 120967.0 88172.0 79913.0 103248.0 99257.0 33574.0 41333.0 134722.0 134036.0 51701.0 55609.0 68479.0 61188.0 127471.0 130820.0 127471.0 127471.0 130820.0 130820.0
209394.0 209482.0 217059.0 224009.0 7238.0 7806.0 81348.0 73547.0 48535.0 40507.0 284547.0 283577.0 84260.0 76510.0 252427.0 244215.0 76144.0 68172.0 150197.0 147356.0 282347.0 274113.0 46644.0 41770.0 90092.0 91911.0 63512.0 55479.0 184722.0 189081.0 18072.0 25888.0 64930.0 59306.0 123814.0 122082.0 46323.0 39074.0 257902.0 265164.0 51734.0 54325.0 145585.0 147200.0 156795.0 158181.0 125777.0 123229.0 100259.0 92514.0 85625.0 86146.0 110670.0 103077.0 80958.0 74591.0 128130.0 130782.0 39936.0 45753.0 85708.0 85513.0 1561.0 6700.0 45686.0 54119.0 79322.0 79008.0 122612.0 117209.0 114686.0 109035.0 167360.0 160688.0 214125.0 220341.0 42888.0 50919.0 255494.0 257445.0 39955.0 36462.0 87539.0 79230.0 40446.0 44679.0 222957.0 216094.0 161151.0 154440.0 184895.0 183323.0 71995.0 70574.0 56635.0 64405.0 101710.0 100115.0 89989.0 92778.0 104755.0 107026.0 110818.0 104777.0 50868.0 58093.0 216038.0 208977.0 25598.0 29863.0 36002.0 35592.0 143625.0 150959.0 291353.0 283472.0 174155.0 173378.0 64507.0 69848.0 25865.0 17992.0 48027.0 47460.0 146933.0 143436.0 132161.0 131099.0 130783.0 132597.0 196910.0 189269.0 51174.0 57507.0 59962.0 66890.0 8237.0 0.0 133928.0 140777.0 114838.0 114144.0 36889.0 31809.0 63026.0 69440.0 127582.0 122848.0 81545.0 73286.0 96142.0 92480.0 27007.0 34962.0 138194.0 137051.0 46401.0 49448.0 63905.0 57050.0 124066.0 136565.0 124066.0 124066.0 136565.0 136565.0
80254.0 82861.0 106678.0 110953.0 131292.0 126154.0 196802.0 191146.0 171037.0 165006.0 155801.0 153863.0 201049.0 194766.0 122474.0 114307.0 80048.0 84613.0 256317.0 250543.0 162168.0 154244.0 160129.0 152054.0 210763.0 215511.0 84281.0 90135.0 51499.0 57003.0 148659.0 156320.0 176092.0 175363.0 210352.0 213534.0 177042.0 169203.0 131290.0 139160.0 84777.0 86323.0 202620.0 199124.0 255101.0 259800.0 218777.0 220912.0 155235.0 149501.0 191768.0 196841.0 186669.0 179188.0 214325.0 208381.0 174821.0 172170.0 94573.0 90654.0 61315.0 67839.0 132373.0 139672.0 96579.0 89830.0 201751.0 204549.0 192965.0 192881.0 202205.0 201207.0 74070.0 73664.0 86809.0 91394.0 147932.0 151117.0 128674.0 128981.0 112321.0 120263.0 189216.0 182781.0 99886.0 101796.0 112405.0 108441.0 62146.0 62063.0 60798.0 63494.0 205868.0 203898.0 190558.0 198328.0 224945.0 226084.0 164620.0 159709.0 236025.0 239423.0 237358.0 232923.0 143163.0 149605.0 100688.0 96261.0 109139.0 108227.0 141677.0 133664.0 228058.0 235786.0 169769.0 162536.0 70330.0 75135.0 187699.0 189294.0 116760.0 122118.0 91131.0 87993.0 223683.0 216351.0 183940.0 188589.0 57329.0 65403.0 93181.0 87963.0 83126.0 78411.0 161224.0 161729.0 127897.0 133928.0 0.0 7995.0 174093.0 179524.0 100373.0 108040.0 76725.0 69560.0 226040.0 218583.0 168653.0 163424.0 185951.0 178139.0 139437.0 141249.0 216227.0 220096.0 179571.0 183328.0 195803.0 188134.0 158600.0 7151.0 158600.0 158600.0 7151.0 7151.0
72322.0 74868.0 99180.0 103290.0 138338.0 133029.0 204580.0 198868.0 178568.0 172450.0 147938.0 145999.0 208813.0 202485.0 114611.0 106444.0 84094.0 89168.0 260513.0 254588.0 154187.0 146271.0 167800.0 159725.0 218466.0 223144.0 89278.0 95495.0 44114.0 49302.0 155784.0 163497.0 181291.0 180827.0 218343.0 221529.0 183389.0 175545.0 123327.0 131188.0 92178.0 93961.0 210612.0 207115.0 258809.0 263687.0 226771.0 228899.0 163227.0 157493.0 196503.0 201775.0 194661.0 187173.0 220911.0 215095.0 182812.0 180161.0 101673.0 98001.0 65563.0 71586.0 139227.0 146618.0 102370.0 95329.0 207356.0 210353.0 200956.0 200872.0 205781.0 205055.0 68620.0 68904.0 78827.0 83470.0 155656.0 158931.0 120714.0 121080.0 120020.0 127944.0 197149.0 190683.0 105896.0 107389.0 104859.0 101088.0 56622.0 57363.0 52885.0 55805.0 212626.0 210488.0 197371.0 205178.0 230477.0 231823.0 172613.0 167701.0 242249.0 245798.0 244926.0 240415.0 151016.0 157503.0 92968.0 88710.0 115783.0 114538.0 149331.0 141343.0 236050.0 243778.0 161775.0 154548.0 63927.0 69134.0 193451.0 194806.0 122924.0 128512.0 97110.0 94404.0 231675.0 224342.0 191931.0 196581.0 55609.0 63584.0 86271.0 81340.0 90228.0 85801.0 166174.0 166356.0 134571.0 140777.0 7995.0 0.0 182084.0 187515.0 107708.0 115436.0 84406.0 77262.0 229985.0 222439.0 176633.0 171381.0 193940.0 186131.0 146937.0 148888.0 219090.0 223203.0 186176.0 190104.0 202198.0 194468.0 166591.0 11757.0 166591.0 166591.0 11757.0 11757.0
254221.0 256937.0 279326.0 284191.0 108113.0 114170.0 77480.0 80062.0 87814.0 91862.0 329663.0 327723.0 80908.0 81912.0 296335.0 288167.0 166562.0 160619.0 251585.0 250868.0 336257.0 328322.0 76872.0 76810.0 91554.0 99706.0 154631.0 149191.0 224829.0 230685.0 105294.0 103898.0 174554.0 167308.0 44634.0 51266.0 141774.0 138886.0 305301.0 313185.0 112091.0 104840.0 31958.0 32399.0 262179.0 261661.0 56256.0 62449.0 19247.0 26463.0 194501.0 192544.0 21669.0 20999.0 151913.0 143468.0 17818.0 24893.0 114847.0 110298.0 163717.0 168661.0 114664.0 111647.0 141716.0 147009.0 177253.0 172902.0 20418.0 24167.0 227058.0 220601.0 238027.0 234010.0 260858.0 265344.0 73521.0 65738.0 302679.0 302888.0 87178.0 84264.0 55050.0 57609.0 137396.0 145211.0 285208.0 280451.0 227808.0 223966.0 234787.0 236958.0 140314.0 145862.0 130370.0 132527.0 193699.0 188210.0 26005.0 22088.0 178907.0 175835.0 118678.0 120421.0 64009.0 57331.0 274116.0 269183.0 122420.0 130465.0 79203.0 79555.0 57273.0 64357.0 343852.0 336628.0 239138.0 241751.0 165298.0 173009.0 133634.0 128035.0 138860.0 131623.0 50293.0 42494.0 17643.0 16822.0 205232.0 210744.0 263359.0 256908.0 119698.0 116031.0 173569.0 181049.0 120290.0 114838.0 174093.0 182084.0 0.0 8039.0 106124.0 101020.0 110330.0 115148.0 235333.0 232127.0 38925.0 45608.0 38585.0 33644.0 88170.0 80213.0 251309.0 249196.0 133737.0 128724.0 148786.0 147155.0 44275.0 173963.0 44275.0 44275.0 173963.0 173963.0
259652.0 262367.0 284520.0 289522.0 107630.0 114024.0 71317.0 74442.0 84068.0 88679.0 335094.0 333154.0 74544.0 76061.0 301765.0 293598.0 169002.0 162815.0 247911.0 247428.0 341688.0 333753.0 74030.0 74785.0 84910.0 93060.0 156830.0 151094.0 230260.0 236116.0 103511.0 101527.0 172336.0 164947.0 36686.0 43236.0 138707.0 136217.0 310731.0 318616.0 115006.0 108009.0 31442.0 33902.0 258918.0 258174.0 48248.0 54411.0 24339.0 30377.0 192032.0 189769.0 13805.0 14763.0 147035.0 138654.0 24629.0 32199.0 116927.0 112829.0 166996.0 171663.0 114079.0 110544.0 143289.0 148933.0 173787.0 169166.0 13538.0 16208.0 225063.0 218453.0 242512.0 238301.0 266289.0 270775.0 71981.0 64010.0 308109.0 308318.0 88874.0 85291.0 48742.0 52092.0 138799.0 146494.0 290427.0 285530.0 232474.0 228431.0 240218.0 242412.0 135545.0 141368.0 126212.0 127964.0 189582.0 183866.0 24161.0 22919.0 173787.0 170453.0 111535.0 113547.0 63352.0 56105.0 279520.0 274450.0 123365.0 131407.0 78204.0 79378.0 50130.0 57431.0 349283.0 342059.0 243976.0 246401.0 162230.0 170065.0 134053.0 128123.0 140752.0 133775.0 44189.0 36896.0 21604.0 17482.0 209236.0 214547.0 268240.0 261685.0 122440.0 119261.0 172096.0 179725.0 120006.0 114144.0 179524.0 187515.0 8039.0 0.0 108046.0 102494.0 114019.0 119156.0 232492.0 229527.0 35239.0 42689.0 31951.0 28112.0 87221.0 79235.0 249445.0 247084.0 130330.0 124966.0 144827.0 143583.0 52073.0 179394.0 52073.0 52073.0 179394.0 179394.0
178550.0 179545.0 192060.0 198427.0 32300.0 29463.0 99937.0 93353.0 71339.0 64866.0 254306.0 252731.0 103843.0 96875.0 221342.0 213175.0 61382.0 54854.0 183029.0 179392.0 255367.0 247163.0 62052.0 54196.0 112483.0 116427.0 48887.0 43079.0 151806.0 156837.0 48804.0 56199.0 96609.0 92422.0 128143.0 128717.0 83168.0 75786.0 228411.0 235956.0 15698.0 17477.0 138079.0 137607.0 187741.0 190014.0 133354.0 133065.0 88127.0 80200.0 116671.0 118667.0 109139.0 100950.0 117246.0 110437.0 115228.0 115692.0 9096.0 9723.0 62953.0 65920.0 35391.0 41291.0 35857.0 40906.0 114955.0 115309.0 119385.0 116018.0 141106.0 136667.0 144488.0 138789.0 184000.0 189663.0 51243.0 56726.0 225907.0 227205.0 19278.0 24796.0 97776.0 90063.0 32049.0 40087.0 198055.0 191814.0 136488.0 130730.0 155315.0 154852.0 107650.0 106953.0 92144.0 99582.0 137798.0 136652.0 85746.0 85127.0 141584.0 143646.0 137708.0 132892.0 50932.0 58959.0 189632.0 183131.0 21239.0 28011.0 43853.0 36752.0 147917.0 155725.0 263955.0 256240.0 149212.0 149721.0 100042.0 104473.0 35046.0 34155.0 32741.0 25870.0 147910.0 142562.0 121667.0 122929.0 108461.0 112166.0 173038.0 165693.0 18521.0 21998.0 87342.0 92359.0 33917.0 36889.0 100373.0 107708.0 106124.0 108046.0 0.0 7988.0 26233.0 32911.0 157846.0 152160.0 82928.0 75463.0 100338.0 94173.0 39735.0 43179.0 162753.0 163086.0 83036.0 85287.0 100751.0 93938.0 104539.0 102177.0 104539.0 104539.0 102177.0 102177.0
186440.0 187484.0 200009.0 206393.0 26285.0 25050.0 91977.0 85370.0 63412.0 57036.0 262212.0 260599.0 95869.0 88889.0 229212.0 221044.0 68009.0 61145.0 180439.0 177113.0 263355.0 255151.0 54076.0 46241.0 104497.0 108464.0 55247.0 48880.0 159509.0 164619.0 41852.0 48990.0 94201.0 89480.0 121251.0 121581.0 78010.0 70866.0 236358.0 243912.0 23263.0 23398.0 132953.0 132864.0 185876.0 187827.0 126142.0 125650.0 83522.0 75534.0 114583.0 116065.0 102886.0 94722.0 110967.0 103940.0 111025.0 111976.0 16448.0 17487.0 70567.0 73228.0 30418.0 35352.0 40796.0 46767.0 110921.0 110802.0 113448.0 109762.0 140536.0 135731.0 152318.0 146553.0 191929.0 197560.0 43395.0 49103.0 233850.0 235117.0 14001.0 17781.0 90196.0 82403.0 36377.0 44216.0 206003.0 199739.0 144401.0 138593.0 163274.0 162835.0 101081.0 100760.0 85580.0 92869.0 133471.0 131920.0 79686.0 79624.0 135826.0 137582.0 129800.0 125051.0 43700.0 51818.0 197612.0 191100.0 22424.0 30201.0 35930.0 28996.0 141102.0 148879.0 271941.0 264228.0 157144.0 157598.0 96044.0 100953.0 35615.0 32939.0 38593.0 32553.0 141507.0 136393.0 117013.0 117842.0 116207.0 119773.0 180939.0 173576.0 26503.0 29636.0 86134.0 91713.0 30448.0 31809.0 108040.0 115436.0 101020.0 102494.0 7988.0 0.0 32820.0 39792.0 156158.0 150767.0 76071.0 68432.0 93312.0 87385.0 31778.0 35237.0 162774.0 162703.0 77139.0 78891.0 95100.0 88567.0 101763.0 109679.0 101763.0 101763.0 109679.0 109679.0
156371.0 158088.0 174442.0 180266.0 58515.0 55458.0 120285.0 114472.0 94520.0 88819.0 232167.0 230279.0 124479.0 118086.0 198891.0 190723.0 60221.0 56387.0 206003.0 201881.0 235661.0 227529.0 83405.0 75329.0 134060.0 138795.0 50910.0 48880.0 128155.0 133698.0 74663.0 81786.0 119845.0 116413.0 139885.0 141809.0 109179.0 101695.0 206958.0 214676.0 11984.0 9706.0 141490.0 139481.0 209484.0 212307.0 146824.0 147834.0 91176.0 83940.0 139229.0 141984.0 118147.0 110100.0 143464.0 136597.0 115629.0 114275.0 24737.0 17487.0 53755.0 59442.0 61508.0 67521.0 46513.0 46859.0 140041.0 140824.0 126688.0 124857.0 160679.0 157013.0 129510.0 124802.0 162355.0 167535.0 71267.0 74850.0 204393.0 205189.0 35617.0 43541.0 114292.0 107335.0 45479.0 52530.0 180439.0 174773.0 120192.0 115438.0 134416.0 134898.0 133780.0 133180.0 118272.0 125634.0 163101.0 162303.0 94742.0 91838.0 167773.0 169878.0 160716.0 156455.0 67283.0 74321.0 170915.0 164947.0 43273.0 47201.0 64955.0 56942.0 158922.0 166790.0 243887.0 236339.0 132361.0 133946.0 125155.0 129063.0 55995.0 57574.0 40710.0 32395.0 156809.0 150430.0 123600.0 126547.0 95327.0 100528.0 156612.0 149642.0 17433.0 9094.0 108848.0 112770.0 59348.0 63026.0 76725.0 84406.0 110330.0 114019.0 26233.0 32820.0 0.0 7195.0 179428.0 173243.0 95695.0 89417.0 113414.0 106198.0 63105.0 64538.0 180850.0 182069.0 109263.0 111472.0 126928.0 120027.0 100929.0 77703.0 100929.0 100929.0 77703.0 77703.0
149294.0 151091.0 168021.0 173744.0 65197.0 61781.0 127369.0 121606.0 101715.0 95995.0 225074.0 223172.0 131578.0 125223.0 191783.0 183616.0 58814.0 55874.0 210540.0 206228.0 228859.0 220741.0 90572.0 82496.0 141209.0 145974.0 50772.0 49879.0 120973.0 126545.0 81577.0 88782.0 124664.0 121545.0 145914.0 148040.0 115399.0 107839.0 199940.0 207676.0 17751.0 16891.0 145972.0 143640.0 213531.0 216563.0 153098.0 154291.0 95921.0 88899.0 143728.0 146772.0 123807.0 115825.0 150120.0 143346.0 119599.0 117834.0 30262.0 23688.0 50259.0 56551.0 67906.0 74151.0 48905.0 48009.0 145628.0 146651.0 132007.0 130458.0 164054.0 160663.0 123700.0 119224.0 155332.0 160458.0 78395.0 81853.0 197370.0 198112.0 42763.0 50704.0 121035.0 114174.0 48615.0 55096.0 174012.0 168457.0 114135.0 109611.0 127508.0 128131.0 140560.0 139804.0 125053.0 132472.0 168779.0 168198.0 100535.0 97267.0 174177.0 176425.0 167908.0 163650.0 74179.0 81086.0 164308.0 158438.0 48522.0 51644.0 72132.0 64106.0 164784.0 172644.0 237032.0 229509.0 126157.0 127956.0 130780.0 134425.0 60638.0 62889.0 42786.0 34878.0 162311.0 155763.0 127858.0 131146.0 90104.0 95629.0 150441.0 143558.0 21068.0 12746.0 113090.0 116624.0 65353.0 69440.0 69560.0 77262.0 115148.0 119156.0 32911.0 39792.0 7195.0 0.0 183465.0 177111.0 102041.0 95946.0 119727.0 112390.0 70287.0 71722.0 183676.0 185186.0 115789.0 118192.0 133324.0 126313.0 104309.0 70508.0 104309.0 104309.0 70508.0 70508.0
280379.0 276810.0 264813.0 272862.0 134772.0 132179.0 172996.0 166123.0 149052.0 143844.0 345738.0 347586.0 172667.0 166607.0 321777.0 313569.0 146002.0 141731.0 31671.0 24800.0 329872.0 322301.0 158525.0 158814.0 169446.0 164631.0 143031.0 138912.0 267273.0 268271.0 131316.0 131587.0 62672.0 68927.0 228814.0 223863.0 93853.0 96468.0 318115.0 323506.0 167670.0 173719.0 262840.0 266372.0 30066.0 33796.0 225380.0 219405.0 224045.0 216867.0 41968.0 42802.0 224904.0 218885.0 100349.0 105878.0 250925.0 254870.0 155306.0 163200.0 164726.0 158402.0 128476.0 128004.0 135919.0 139949.0 60859.0 67461.0 237309.0 230262.0 26537.0 25062.0 217565.0 209562.0 281630.0 289383.0 162720.0 170053.0 316347.0 320907.0 167011.0 164044.0 191373.0 184577.0 135138.0 129713.0 269474.0 261421.0 218495.0 210513.0 254276.0 248935.0 107800.0 99785.0 110261.0 111952.0 56380.0 64804.0 209329.0 214335.0 88027.0 96140.0 167153.0 159137.0 173676.0 178901.0 269071.0 261039.0 137106.0 132252.0 158540.0 161219.0 245843.0 251443.0 339782.0 331919.0 229470.0 224679.0 70413.0 62447.0 123656.0 123713.0 142240.0 149142.0 253761.0 253178.0 252954.0 249968.0 189920.0 185915.0 244111.0 236938.0 162460.0 170960.0 70666.0 66908.0 126112.0 127582.0 226040.0 229985.0 235333.0 232492.0 157846.0 156158.0 179428.0 183465.0 0.0 8030.0 197275.0 189897.0 206078.0 205945.0 150327.0 157655.0 34883.0 27010.0 102784.0 109242.0 91657.0 90432.0 250648.0 231534.0 250648.0 250648.0 231534.0 231534.0
272427.0 268830.0 256788.0 264837.0 130070.0 127123.0 171598.0 164537.0 146575.0 141052.0 337709.0 339561.0 171476.0 165192.0 313786.0 305581.0 138535.0 134416.0 39691.0 32697.0 321873.0 314296.0 155498.0 155408.0 168780.0 164286.0 135862.0 131936.0 259495.0 260436.0 127520.0 128236.0 58248.0 64998.0 227072.0 222341.0 91295.0 93311.0 310087.0 315476.0 161561.0 167774.0 260112.0 263429.0 36784.0 41251.0 224039.0 218270.0 220348.0 213059.0 37740.0 39976.0 222325.0 216119.0 100918.0 105925.0 247450.0 251195.0 149308.0 157226.0 157282.0 150872.0 123674.0 123621.0 129239.0 133030.0 60069.0 67166.0 234750.0 227826.0 18525.0 17383.0 209541.0 201539.0 273648.0 281407.0 159132.0 166606.0 308320.0 312886.0 161952.0 159276.0 189388.0 182400.0 128642.0 123010.0 261454.0 253402.0 210502.0 202521.0 246337.0 240967.0 107642.0 99522.0 108970.0 111219.0 58724.0 67094.0 206145.0 210915.0 90684.0 98842.0 167893.0 159822.0 169890.0 175369.0 261040.0 253008.0 131258.0 126146.0 154658.0 156996.0 244439.0 250213.0 331782.0 323915.0 221457.0 216655.0 68160.0 59992.0 117686.0 118108.0 135564.0 142619.0 252015.0 251169.0 249766.0 247009.0 181994.0 177946.0 236082.0 228908.0 156162.0 164680.0 64820.0 60494.0 120967.0 122848.0 218583.0 222439.0 232127.0 229527.0 152160.0 150767.0 173243.0 177111.0 8030.0 0.0 194375.0 186858.0 203756.0 203316.0 146283.0 153749.0 30104.0 23025.0 100609.0 107421.0 90705.0 88785.0 246410.0 224138.0 246410.0 246410.0 224138.0 224138.0
248815.0 251469.0 270062.0 275757.0 75577.0 82607.0 42730.0 43259.0 48959.0 53444.0 324284.0 322344.0 46883.0 45763.0 290956.0 282789.0 144080.0 137161.0 212813.0 212241.0 330239.0 322186.0 38938.0 40545.0 58403.0 66235.0 131294.0 124681.0 219450.0 225307.0 69241.0 66647.0 137417.0 129943.0 45216.0 46229.0 103472.0 101084.0 299920.0 307806.0 93348.0 87738.0 65863.0 69097.0 223693.0 223002.0 51159.0 52363.0 34802.0 31912.0 156949.0 154573.0 29186.0 21990.0 113264.0 104779.0 56080.0 61878.0 92019.0 89754.0 145249.0 148747.0 81700.0 77233.0 115973.0 122624.0 138598.0 134088.0 41364.0 35664.0 190255.0 183539.0 224896.0 219831.0 255461.0 259914.0 38659.0 30629.0 297295.0 297509.0 63998.0 58303.0 23734.0 21804.0 111049.0 118243.0 276053.0 270457.0 215833.0 210872.0 228606.0 229778.0 101596.0 106992.0 91445.0 93695.0 154779.0 149293.0 14198.0 22113.0 140450.0 137715.0 87588.0 87581.0 32781.0 24616.0 266243.0 260461.0 94595.0 102453.0 45806.0 49023.0 65030.0 72816.0 338149.0 330766.0 228054.0 229529.0 126993.0 134840.0 103655.0 97010.0 114509.0 108588.0 66132.0 62019.0 56205.0 52699.0 189828.0 194208.0 252296.0 245286.0 99786.0 98705.0 137884.0 145675.0 88172.0 81545.0 168653.0 176633.0 38925.0 35239.0 82928.0 76071.0 95695.0 102041.0 197275.0 194375.0 0.0 8263.0 17736.0 11368.0 54637.0 46846.0 214723.0 212178.0 95117.0 89888.0 109888.0 108423.0 67138.0 168584.0 67138.0 67138.0 168584.0 168584.0
243667.0 246115.0 263856.0 269668.0 67316.0 74362.0 41556.0 40549.0 42441.0 46257.0 319066.0 317126.0 45962.0 43489.0 285737.0 277570.0 136417.0 129413.0 206009.0 205260.0 324586.0 316503.0 31374.0 32430.0 57545.0 65007.0 123574.0 116858.0 214279.0 220135.0 61178.0 58858.0 129669.0 122261.0 52867.0 53280.0 96213.0 93549.0 294708.0 302559.0 86434.0 81148.0 73686.0 76587.0 216586.0 216055.0 58012.0 58451.0 38536.0 34071.0 149344.0 147142.0 37413.0 30049.0 107839.0 99312.0 62164.0 67413.0 84533.0 82605.0 138064.0 141368.0 73438.0 69012.0 108054.0 114819.0 131649.0 127368.0 49518.0 43924.0 182444.0 175792.0 218216.0 213016.0 250175.0 254794.0 30404.0 22368.0 292095.0 292319.0 56760.0 50720.0 26252.0 21648.0 103088.0 110213.0 269855.0 264144.0 209335.0 204227.0 223019.0 223974.0 96085.0 101109.0 85226.0 87959.0 148391.0 143139.0 19750.0 26378.0 135231.0 132868.0 87049.0 86277.0 24859.0 16672.0 260255.0 254353.0 86550.0 94375.0 37551.0 40954.0 72786.0 80519.0 332605.0 325165.0 221658.0 222966.0 119743.0 127507.0 95452.0 88770.0 106733.0 100983.0 74288.0 70271.0 63145.0 60166.0 182914.0 187135.0 245857.0 238780.0 92643.0 91959.0 129841.0 137596.0 79913.0 73286.0 163424.0 171381.0 45608.0 42689.0 75463.0 68432.0 89417.0 95946.0 189897.0 186858.0 8263.0 0.0 24884.0 19464.0 46374.0 38590.0 206871.0 204427.0 88133.0 83240.0 103407.0 101577.0 69266.0 163413.0 69266.0 69266.0 163413.0 163413.0
266115.0 268802.0 287746.0 293411.0 90674.0 98014.0 39487.0 43257.0 57224.0 63368.0 341557.0 339617.0 42605.0 44525.0 308229.0 300062.0 161285.0 154247.0 219463.0 219503.0 347715.0 339678.0 50743.0 54388.0 53008.0 61161.0 148422.0 141647.0 236724.0 242580.0 82150.0 78285.0 148069.0 140351.0 28126.0 28515.0 112466.0 111144.0 317155.0 325061.0 111038.0 105472.0 57890.0 62947.0 231373.0 230110.0 33423.0 34976.0 43029.0 43208.0 166861.0 163781.0 20025.0 17589.0 116577.0 108350.0 56298.0 63462.0 109413.0 107363.0 162851.0 166231.0 96470.0 91239.0 132755.0 139623.0 146156.0 140923.0 31851.0 24343.0 200982.0 193981.0 242630.0 237552.0 272752.0 277238.0 53694.0 46013.0 314523.0 314782.0 81553.0 75604.0 16906.0 21742.0 127737.0 134737.0 293735.0 288164.0 233565.0 228607.0 246068.0 247337.0 105341.0 111661.0 97360.0 98214.0 160395.0 154243.0 23743.0 31510.0 142862.0 139182.0 80265.0 81840.0 49678.0 41512.0 283865.0 278120.0 111074.0 118808.0 61324.0 65539.0 48100.0 55760.0 355569.0 348216.0 245775.0 247263.0 135706.0 143795.0 119393.0 112432.0 131558.0 125864.0 50867.0 48153.0 53254.0 47503.0 207529.0 211862.0 270021.0 263018.0 117400.0 116428.0 150091.0 158089.0 103248.0 96142.0 185951.0 193940.0 38585.0 31951.0 100338.0 93312.0 113414.0 119727.0 206078.0 203756.0 17736.0 24884.0 0.0 8219.0 69765.0 62338.0 225596.0 222547.0 103295.0 97098.0 116252.0 115953.0 76270.0 185857.0 76270.0 76270.0 185857.0 185857.0
258291.0 260999.0 280357.0 285951.0 86654.0 93774.0 43936.0 46462.0 56937.0 62307.0 333733.0 331793.0 47523.0 48268.0 300405.0 292238.0 155386.0 148496.0 220426.0 220164.0 340018.0 331996.0 48568.0 51082.0 58491.0 66604.0 142621.0 136035.0 228899.0 234756.0 79535.0 76392.0 146885.0 139291.0 34032.0 35660.0 112106.0 110220.0 309287.0 317204.0 104291.0 98479.0 56934.0 61056.0 231833.0 230855.0 40779.0 42940.0 35505.0 35168.0 166104.0 163396.0 19041.0 13428.0 118938.0 110571.0 51447.0 58165.0 103268.0 100840.0 156320.0 159926.0 92689.0 87964.0 127340.0 133974.0 146593.0 141707.0 31470.0 25025.0 199803.0 192956.0 235593.0 230629.0 264922.0 269414.0 49626.0 41667.0 306749.0 306958.0 75160.0 69608.0 21829.0 24033.0 122417.0 129605.0 286341.0 280845.0 226391.0 221547.0 238368.0 239739.0 107474.0 113397.0 98469.0 99972.0 161794.0 155944.0 15610.0 23577.0 145677.0 142394.0 86600.0 87647.0 44148.0 35979.0 276351.0 270676.0 105953.0 113802.0 56945.0 60371.0 53744.0 61555.0 347823.0 340495.0 238524.0 240132.0 135540.0 143516.0 114910.0 108191.0 125853.0 119879.0 54824.0 50956.0 49712.0 44958.0 200706.0 205193.0 262793.0 255840.0 110858.0 109534.0 148015.0 155896.0 99257.0 92480.0 178139.0 186131.0 33644.0 28112.0 94173.0 87385.0 106198.0 112390.0 205945.0 203316.0 11368.0 19464.0 8219.0 0.0 65686.0 57981.0 224349.0 221580.0 103325.0 97585.0 117209.0 116342.0 68795.0 178033.0 68795.0 68795.0 178033.0 178033.0
218176.0 219260.0 231274.0 237776.0 20970.0 28256.0 61013.0 54032.0 31667.0 25727.0 293964.0 292303.0 64694.0 57477.0 260920.0 252753.0 95182.0 87580.0 170380.0 168391.0 294987.0 286776.0 23219.0 16283.0 72873.0 76692.0 82116.0 74625.0 190936.0 196192.0 19520.0 22811.0 88060.0 81409.0 97712.0 96543.0 60629.0 55412.0 268135.0 275688.0 54851.0 53399.0 118662.0 120459.0 178685.0 179287.0 100549.0 98753.0 74447.0 66942.0 108579.0 107834.0 83708.0 76078.0 86403.0 78522.0 102072.0 105235.0 47404.0 49230.0 100711.0 102358.0 27083.0 23497.0 65115.0 72807.0 96718.0 94482.0 95612.0 90286.0 139668.0 133561.0 182988.0 176932.0 223701.0 229304.0 16095.0 24024.0 265627.0 266875.0 28952.0 21399.0 62762.0 54526.0 59845.0 66132.0 237256.0 230852.0 175491.0 169440.0 195049.0 194555.0 75387.0 76917.0 60450.0 66703.0 117147.0 113855.0 63060.0 66194.0 113096.0 113457.0 98071.0 93486.0 24205.0 31124.0 229123.0 222512.0 42879.0 50079.0 9017.0 11518.0 117641.0 125126.0 303622.0 295889.0 188325.0 188485.0 82809.0 89557.0 49731.0 42668.0 65233.0 61401.0 120350.0 116619.0 105620.0 104275.0 146585.0 149583.0 211928.0 204479.0 58164.0 61226.0 85566.0 92926.0 33574.0 27007.0 139437.0 146937.0 88170.0 87221.0 39735.0 31778.0 63105.0 70287.0 150327.0 146283.0 54637.0 46374.0 69765.0 65686.0 0.0 7986.0 163637.0 161966.0 56022.0 54996.0 74135.0 69332.0 100394.0 140747.0 100394.0 100394.0 140747.0 140747.0
220594.0 221965.0 235239.0 241598.0 28749.0 35795.0 56768.0 50341.0 30499.0 26318.0 296418.0 294555.0 60719.0 53908.0 263225.0 255057.0 101003.0 93556.0 177146.0 175344.0 298389.0 290195.0 19016.0 11034.0 69729.0 74262.0 87952.0 80675.0 192692.0 198190.0 26386.0 28049.0 95582.0 88793.0 90387.0 89514.0 66892.0 62134.0 270870.0 278495.0 57471.0 54930.0 110677.0 112486.0 185805.0 186240.0 93662.0 92230.0 66734.0 59327.0 116018.0 115047.0 75844.0 68167.0 90228.0 82098.0 94257.0 97560.0 51514.0 52221.0 105458.0 107566.0 34992.0 31434.0 71359.0 78776.0 103150.0 100534.0 87696.0 82457.0 147417.0 141237.0 187474.0 181610.0 226336.0 231746.0 8818.0 16358.0 268336.0 269376.0 29109.0 21117.0 56291.0 48182.0 66171.0 72795.0 241234.0 234975.0 179635.0 173790.0 197931.0 197750.0 78888.0 81132.0 64452.0 70131.0 123036.0 119382.0 55075.0 58263.0 117336.0 117208.0 96223.0 92205.0 16322.0 23142.0 232763.0 226298.0 49260.0 56761.0 1044.0 7961.0 110349.0 117900.0 306903.0 299223.0 192381.0 192806.0 89521.0 96483.0 57061.0 50216.0 70988.0 66504.0 112737.0 108861.0 97684.0 96293.0 151249.0 154561.0 216166.0 208789.0 61681.0 63761.0 93448.0 100853.0 41333.0 34962.0 141249.0 148888.0 80213.0 79235.0 43179.0 35237.0 64538.0 71722.0 157655.0 153749.0 46846.0 38590.0 62338.0 57981.0 7986.0 0.0 171451.0 169691.0 61485.0 59600.0 79308.0 75032.0 93350.0 142168.0 93350.0 93350.0 142168.0 142168.0
262412.0 258025.0 241850.0 249890.0 145371.0 141091.0 195823.0 188411.0 168528.0 162253.0 323832.0 326304.0 196134.0 189428.0 302363.0 294295.0 137397.0 134884.0 60045.0 51929.0 305284.0 297994.0 175867.0 174672.0 194468.0 190567.0 137575.0 135301.0 252875.0 252893.0 146027.0 148080.0 77528.0 85273.0 250212.0 246009.0 114036.0 114500.0 296530.0 301377.0 169788.0 176781.0 280552.0 283232.0 47928.0 55494.0 248098.0 242796.0 238053.0 230449.0 59648.0 64648.0 243374.0 236689.0 128959.0 133240.0 265703.0 268770.0 158375.0 166263.0 155956.0 148764.0 138742.0 140242.0 134776.0 136792.0 86988.0 94577.0 255783.0 249227.0 24648.0 32023.0 197100.0 189233.0 262741.0 270654.0 177789.0 185604.0 294950.0 300024.0 175212.0 173768.0 212165.0 204757.0 135372.0 128581.0 246101.0 238045.0 199675.0 191841.0 236799.0 230715.0 134643.0 126457.0 134040.0 137266.0 88535.0 96835.0 225570.0 229582.0 120518.0 128678.0 195789.0 187674.0 187772.0 194005.0 247138.0 239151.0 141516.0 135200.0 172426.0 173565.0 268280.0 274414.0 315202.0 307483.0 209604.0 204104.0 92305.0 84076.0 127715.0 129911.0 140952.0 148817.0 275041.0 273558.0 268903.0 266850.0 173423.0 168290.0 221755.0 214976.0 163424.0 171894.0 78244.0 71500.0 134722.0 138194.0 216227.0 219090.0 251309.0 249445.0 162753.0 162774.0 180850.0 183676.0 34883.0 30104.0 214723.0 206871.0 225596.0 224349.0 163637.0 171451.0 0.0 8242.0 124006.0 131454.0 116675.0 113531.0 262112.0 222342.0 262112.0 262112.0 222342.0 222342.0
268088.0 263864.0 248500.0 256548.0 144271.0 140370.0 191865.0 184577.0 165357.0 159327.0 330333.0 332687.0 192009.0 185458.0 308365.0 300263.0 140746.0 137817.0 51925.0 43817.0 312277.0 304932.0 173251.0 172418.0 189927.0 185773.0 140201.0 137489.0 257797.0 258021.0 143940.0 145569.0 74762.0 82289.0 246714.0 242310.0 110436.0 111422.0 302954.0 307909.0 170805.0 177602.0 278041.0 280939.0 40510.0 47852.0 244250.0 238762.0 236407.0 228894.0 55811.0 60035.0 240620.0 234094.0 123298.0 127928.0 263910.0 267199.0 159122.0 167044.0 159424.0 152400.0 137685.0 138722.0 136386.0 138882.0 81732.0 89142.0 253047.0 246356.0 22365.0 28638.0 203205.0 195299.0 268605.0 276493.0 175739.0 183459.0 301337.0 306314.0 174812.0 172999.0 208765.0 201500.0 136664.0 130149.0 252833.0 244771.0 205448.0 197569.0 242346.0 236408.0 129473.0 121302.0 129659.0 132504.0 81748.0 90113.0 223348.0 227614.0 113709.0 121866.0 190251.0 182153.0 185991.0 191993.0 253594.0 245590.0 141863.0 135854.0 170647.0 172164.0 264529.0 270528.0 322198.0 314449.0 215606.0 210243.0 88110.0 79848.0 128060.0 129766.0 142631.0 150312.0 271602.0 270352.0 266822.0 264532.0 178654.0 173749.0 228269.0 221406.0 164685.0 173195.0 77190.0 71011.0 134036.0 137051.0 220096.0 223203.0 249196.0 247084.0 163086.0 162703.0 182069.0 185186.0 27010.0 23025.0 212178.0 204427.0 222547.0 221580.0 161966.0 169691.0 8242.0 0.0 120214.0 127455.0 111900.0 109215.0 261115.0 226086.0 261115.0 261115.0 226086.0 226086.0
253167.0 252662.0 256592.0 263915.0 50883.0 54158.0 71841.0 64409.0 46390.0 41919.0 327552.0 327022.0 72331.0 65457.0 296285.0 288123.0 114216.0 106403.0 117930.0 117141.0 322868.0 314663.0 57130.0 59170.0 71940.0 69521.0 103090.0 95211.0 229835.0 233807.0 37321.0 33455.0 47826.0 39868.0 126570.0 122096.0 10336.0 14459.0 300482.0 307500.0 98115.0 100302.0 160259.0 164087.0 128593.0 127925.0 124099.0 118833.0 124369.0 117852.0 64443.0 60666.0 122216.0 116414.0 34757.0 29270.0 150081.0 154767.0 86290.0 92112.0 127340.0 125482.0 47951.0 41818.0 86229.0 94478.0 43516.0 39609.0 134599.0 127494.0 99416.0 92011.0 206103.0 198868.0 257399.0 263944.0 63979.0 70246.0 298157.0 300565.0 81749.0 75657.0 88784.0 81825.0 81714.0 82906.0 262346.0 255079.0 201316.0 194084.0 228035.0 225754.0 27238.0 24330.0 14291.0 21812.0 61702.0 57908.0 107835.0 113603.0 58698.0 60637.0 81239.0 73595.0 75722.0 79283.0 256657.0 249254.0 70432.0 72056.0 62114.0 67486.0 144328.0 150410.0 332153.0 324186.0 214272.0 212574.0 32456.0 40628.0 64489.0 57973.0 90327.0 91848.0 151494.0 150560.0 151229.0 147744.0 170144.0 170590.0 235853.0 228111.0 97414.0 103907.0 55882.0 63977.0 51701.0 46401.0 179571.0 186176.0 133737.0 130330.0 83036.0 77139.0 109263.0 115789.0 102784.0 100609.0 95117.0 88133.0 103295.0 103325.0 56022.0 61485.0 124006.0 120214.0 0.0 8174.0 18279.0 13709.0 153675.0 182518.0 153675.0 153675.0 182518.0 182518.0
257923.0 257634.0 262536.0 269785.0 52996.0 57250.0 64413.0 57164.0 40928.0 37567.0 332620.0 331933.0 64694.0 58008.0 301016.0 292841.0 120115.0 112226.0 122945.0 122580.0 328635.0 320419.0 52863.0 55891.0 63920.0 61372.0 108646.0 100677.0 233953.0 238135.0 37593.0 32207.0 55781.0 47847.0 119660.0 114961.0 18434.0 22276.0 305677.0 312774.0 100683.0 102257.0 154462.0 158560.0 134313.0 133274.0 116803.0 111351.0 120269.0 114042.0 71814.0 67621.0 116325.0 110820.0 32111.0 25187.0 145385.0 150359.0 89291.0 94635.0 132573.0 131082.0 51009.0 44102.0 91452.0 99815.0 49068.0 44204.0 128646.0 121396.0 106923.0 99433.0 212147.0 205006.0 262342.0 268770.0 61003.0 66650.0 303326.0 305582.0 82140.0 75544.0 82135.0 75463.0 86739.0 88509.0 268324.0 261133.0 207061.0 199930.0 233004.0 230947.0 22548.0 22106.0 7440.0 15430.0 65300.0 60611.0 102990.0 109120.0 58137.0 58974.0 73221.0 65644.0 72812.0 75628.0 262358.0 255028.0 74394.0 76754.0 60115.0 66212.0 137123.0 143073.0 337857.0 329907.0 220045.0 218539.0 39380.0 47635.0 69687.0 62749.0 95199.0 96113.0 144607.0 143938.0 146093.0 142293.0 176003.0 176708.0 241896.0 234166.0 100598.0 106660.0 64053.0 72151.0 55609.0 49448.0 183328.0 190104.0 128724.0 124966.0 85287.0 78891.0 111472.0 118192.0 109242.0 107421.0 89888.0 83240.0 97098.0 97585.0 54996.0 59600.0 131454.0 127455.0 8174.0 0.0 20343.0 18863.0 150345.0 186013.0 150345.0 150345.0 186013.0 186013.0
267938.0 267077.0 269056.0 276537.0 68815.0 71546.0 81461.0 74833.0 60990.0 57908.0 341714.0 341454.0 81019.0 75100.0 311089.0 302911.0 127331.0 119748.0 103247.0 103299.0 335638.0 327468.0 73200.0 76144.0 78099.0 73903.0 117001.0 109362.0 245552.0 249239.0 55594.0 51415.0 45986.0 38931.0 137568.0 132369.0 18881.0 26706.0 314439.0 321302.0 115593.0 118118.0 173926.0 178260.0 115341.0 113867.0 133764.0 127748.0 140598.0 134385.0 57642.0 52028.0 135761.0 130534.0 20468.0 19156.0 165570.0 170628.0 103513.0 109639.0 141667.0 139138.0 65429.0 59751.0 100897.0 108867.0 30798.0 24747.0 147992.0 140595.0 92654.0 84886.0 218440.0 210996.0 271858.0 278587.0 81185.0 86969.0 312168.0 314840.0 100016.0 93932.0 100730.0 94518.0 96746.0 96945.0 274715.0 267278.0 214353.0 206919.0 242495.0 239828.0 19246.0 11796.0 18936.0 20607.0 45004.0 40314.0 123150.0 129388.0 40853.0 43622.0 80701.0 72622.0 92990.0 95958.0 269666.0 262118.0 86923.0 87668.0 79887.0 85549.0 154249.0 159790.0 345053.0 337057.0 227214.0 225084.0 25560.0 33244.0 79498.0 73695.0 105502.0 107820.0 162478.0 162323.0 166073.0 162070.0 183033.0 182873.0 248119.0 240368.0 114442.0 121241.0 58540.0 65803.0 68479.0 63905.0 195803.0 202198.0 148786.0 144827.0 100751.0 95100.0 126928.0 133324.0 91657.0 90705.0 109888.0 103407.0 116252.0 117209.0 74135.0 79308.0 116675.0 111900.0 18279.0 20343.0 0.0 8090.0 170653.0 199028.0 170653.0 170653.0 199028.0 199028.0
259959.0 259060.0 260968.0 268448.0 62334.0 64570.0 82823.0 75767.0 59520.0 55464.0 333670.0 333433.0 82817.0 76415.0 303115.0 294931.0 119254.0 111682.0 104433.0 103856.0 327549.0 319378.0 70725.0 72878.0 80985.0 77476.0 108973.0 101361.0 237736.0 241364.0 50264.0 46983.0 40146.0 32651.0 138397.0 133565.0 11099.0 18932.0 306383.0 313237.0 108563.0 111372.0 173249.0 177255.0 115500.0 114591.0 135265.0 129599.0 138032.0 131546.0 53964.0 49204.0 135131.0 129530.0 28497.0 26320.0 163616.0 168379.0 96341.0 102655.0 133666.0 131084.0 58548.0 53324.0 92965.0 100892.0 30251.0 25923.0 147468.0 140243.0 89174.0 81541.0 210353.0 202913.0 263845.0 270592.0 77680.0 83945.0 304115.0 306807.0 94198.0 88444.0 100974.0 94326.0 88877.0 88942.0 266629.0 259196.0 206266.0 198830.0 234486.0 231784.0 25785.0 19244.0 20516.0 24825.0 48038.0 44545.0 121307.0 127187.0 48073.0 51345.0 86073.0 78084.0 89415.0 92981.0 261577.0 254028.0 79451.0 79933.0 75685.0 80836.0 155655.0 161470.0 336963.0 328967.0 219125.0 216995.0 21249.0 29455.0 71655.0 66023.0 97646.0 100141.0 163346.0 162768.0 164599.0 160953.0 174945.0 174785.0 240034.0 232283.0 107146.0 114106.0 51563.0 59095.0 61188.0 57050.0 188134.0 194468.0 147155.0 143583.0 93938.0 88567.0 120027.0 126313.0 90432.0 88785.0 108423.0 101577.0 115953.0 116342.0 69332.0 75032.0 113531.0 109215.0 13709.0 18863.0 8090.0 0.0 167380.0 191448.0 167380.0 167380.0 191448.0 191448.0
238728.0 241444.0 263929.0 268701.0 116844.0 121091.0 109849.0 109735.0 111434.0 112936.0 314170.0 312230.0 114021.0 112529.0 280842.0 272674.0 160498.0 155671.0 270462.0 268692.0 320764.0 312829.0 97835.0 94554.0 125530.0 133371.0 149818.0 145762.0 209336.0 215192.0 119700.0 120848.0 188170.0 181724.0 88720.0 94953.0 159981.0 155476.0 289808.0 297692.0 105814.0 97865.0 65346.0 60282.0 279075.0 279587.0 100102.0 105724.0 33292.0 35337.0 208797.0 208225.0 64593.0 60608.0 177758.0 169228.0 36893.0 31861.0 112043.0 105770.0 154464.0 160365.0 123436.0 122800.0 139943.0 143565.0 196277.0 193212.0 64505.0 68264.0 238750.0 233058.0 224102.0 220667.0 245365.0 249851.0 89706.0 83699.0 287186.0 287395.0 88120.0 88461.0 89809.0 88942.0 136518.0 144566.0 269783.0 265195.0 213451.0 210164.0 219294.0 221494.0 165956.0 170149.0 153652.0 157491.0 215326.0 210954.0 53939.0 45598.0 205338.0 203519.0 154576.0 154719.0 78028.0 74759.0 258629.0 253719.0 124185.0 131866.0 92538.0 89435.0 101167.0 107939.0 328359.0 321135.0 224357.0 227389.0 182844.0 189830.0 137159.0 133236.0 135822.0 127741.0 92852.0 84514.0 46895.0 53539.0 192960.0 199086.0 248445.0 242216.0 113808.0 108260.0 183973.0 190633.0 127471.0 124066.0 158600.0 166591.0 44275.0 52073.0 104539.0 101763.0 100929.0 104309.0 250648.0 246410.0 67138.0 69266.0 76270.0 68795.0 100394.0 93350.0 262112.0 261115.0 153675.0 150345.0 170653.0 167380.0 0.0 158470.0 0.0 0.0 158470.0 158470.0
81174.0 84457.0 110557.0 114448.0 133594.0 128765.0 197172.0 191730.0 172222.0 166420.0 157477.0 155537.0 201470.0 195359.0 124149.0 115982.0 85675.0 89876.0 261626.0 255959.0 164164.0 156343.0 160920.0 152851.0 211398.0 216364.0 89199.0 94711.0 50865.0 57106.0 150783.0 158330.0 180652.0 179673.0 210223.0 213414.0 180349.0 172526.0 132322.0 140267.0 86491.0 87390.0 202490.0 198994.0 260732.0 265317.0 218659.0 220823.0 155105.0 149371.0 196710.0 201614.0 186539.0 179059.0 217268.0 211139.0 174691.0 172040.0 96878.0 92464.0 66901.0 73696.0 135005.0 142135.0 100704.0 94275.0 205896.0 208479.0 192835.0 192751.0 207941.0 206777.0 80125.0 80081.0 88159.0 92214.0 148561.0 151405.0 129679.0 129575.0 113104.0 121085.0 189257.0 182886.0 103757.0 106109.0 116178.0 112592.0 68145.0 68493.0 63526.0 67000.0 208560.0 206844.0 193176.0 200878.0 229147.0 230070.0 164492.0 159580.0 239442.0 242642.0 238386.0 234156.0 143376.0 149722.0 104040.0 100037.0 112154.0 111706.0 142547.0 134468.0 227928.0 235656.0 171494.0 164411.0 75676.0 80817.0 191700.0 193544.0 120399.0 125451.0 95068.0 91411.0 223554.0 216221.0 183810.0 188460.0 64459.0 72531.0 97988.0 93095.0 85477.0 80183.0 166018.0 166783.0 130820.0 136565.0 7151.0 11757.0 173963.0 179394.0 102177.0 109679.0 77703.0 70508.0 231534.0 224138.0 168584.0 163413.0 185857.0 178033.0 140747.0 142168.0 222342.0 226086.0 182518.0 186013.0 199028.0 191448.0 158470.0 0.0 158470.0 158470.0 0.0 0.0
238728.0 241444.0 263929.0 268701.0 116844.0 121091.0 109849.0 109735.0 111434.0 112936.0 314170.0 312230.0 114021.0 112529.0 280842.0 272674.0 160498.0 155671.0 270462.0 268692.0 320764.0 312829.0 97835.0 94554.0 125530.0 133371.0 149818.0 145762.0 209336.0 215192.0 119700.0 120848.0 188170.0 181724.0 88720.0 94953.0 159981.0 155476.0 289808.0 297692.0 105814.0 97865.0 65346.0 60282.0 279075.0 279587.0 100102.0 105724.0 33292.0 35337.0 208797.0 208225.0 64593.0 60608.0 177758.0 169228.0 36893.0 31861.0 112043.0 105770.0 154464.0 160365.0 123436.0 122800.0 139943.0 143565.0 196277.0 193212.0 64505.0 68264.0 238750.0 233058.0 224102.0 220667.0 245365.0 249851.0 89706.0 83699.0 287186.0 287395.0 88120.0 88461.0 89809.0 88942.0 136518.0 144566.0 269783.0 265195.0 213451.0 210164.0 219294.0 221494.0 165956.0 170149.0 153652.0 157491.0 215326.0 210954.0 53939.0 45598.0 205338.0 203519.0 154576.0 154719.0 78028.0 74759.0 258629.0 253719.0 124185.0 131866.0 92538.0 89435.0 101167.0 107939.0 328359.0 321135.0 224357.0 227389.0 182844.0 189830.0 137159.0 133236.0 135822.0 127741.0 92852.0 84514.0 46895.0 53539.0 192960.0 199086.0 248445.0 242216.0 113808.0 108260.0 183973.0 190633.0 127471.0 124066.0 158600.0 166591.0 44275.0 52073.0 104539.0 101763.0 100929.0 104309.0 250648.0 246410.0 67138.0 69266.0 76270.0 68795.0 100394.0 93350.0 262112.0 261115.0 153675.0 150345.0 170653.0 167380.0 0.0 158470.0 0.0 0.0 158470.0 158470.0
238728.0 241444.0 263929.0 268701.0 116844.0 121091.0 109849.0 109735.0 111434.0 112936.0 314170.0 312230.0 114021.0 112529.0 280842.0 272674.0 160498.0 155671.0 270462.0 268692.0 320764.0 312829.0 97835.0 94554.0 125530.0 133371.0 149818.0 145762.0 209336.0 215192.0 119700.0 120848.0 188170.0 181724.0 88720.0 94953.0 159981.0 155476.0 289808.0 297692.0 105814.0 97865.0 65346.0 60282.0 279075.0 279587.0 100102.0 105724.0 33292.0 35337.0 208797.0 208225.0 64593.0 60608.0 177758.0 169228.0 36893.0 31861.0 112043.0 105770.0 154464.0 160365.0 123436.0 122800.0 139943.0 143565.0 196277.0 193212.0 64505.0 68264.0 238750.0 233058.0 224102.0 220667.0 245365.0 249851.0 89706.0 83699.0 287186.0 287395.0 88120.0 88461.0 89809.0 88942.0 136518.0 144566.0 269783.0 265195.0 213451.0 210164.0 219294.0 221494.0 165956.0 170149.0 153652.0 157491.0 215326.0 210954.0 53939.0 45598.0 205338.0 203519.0 154576.0 154719.0 78028.0 74759.0 258629.0 253719.0 124185.0 131866.0 92538.0 89435.0 101167.0 107939.0 328359.0 321135.0 224357.0 227389.0 182844.0 189830.0 137159.0 133236.0 135822.0 127741.0 92852.0 84514.0 46895.0 53539.0 192960.0 199086.0 248445.0 242216.0 113808.0 108260.0 183973.0 190633.0 127471.0 124066.0 158600.0 166591.0 44275.0 52073.0 104539.0 101763.0 100929.0 104309.0 250648.0 246410.0 67138.0 69266.0 76270.0 68795.0 100394.0 93350.0 262112.0 261115.0 153675.0 150345.0 170653.0 167380.0 0.0 158470.0 0.0 0.0 158470.0 158470.0
81174.0 84457.0 110557.0 114448.0 133594.0 128765.0 197172.0 191730.0 172222.0 166420.0 157477.0 155537.0 201470.0 195359.0 124149.0 115982.0 85675.0 89876.0 261626.0 255959.0 164164.0 156343.0 160920.0 152851.0 211398.0 216364.0 89199.0 94711.0 50865.0 57106.0 150783.0 158330.0 180652.0 179673.0 210223.0 213414.0 180349.0 172526.0 132322.0 140267.0 86491.0 87390.0 202490.0 198994.0 260732.0 265317.0 218659.0 220823.0 155105.0 149371.0 196710.0 201614.0 186539.0 179059.0 217268.0 211139.0 174691.0 172040.0 96878.0 92464.0 66901.0 73696.0 135005.0 142135.0 100704.0 94275.0 205896.0 208479.0 192835.0 192751.0 207941.0 206777.0 80125.0 80081.0 88159.0 92214.0 148561.0 151405.0 129679.0 129575.0 113104.0 121085.0 189257.0 182886.0 103757.0 106109.0 116178.0 112592.0 68145.0 68493.0 63526.0 67000.0 208560.0 206844.0 193176.0 200878.0 229147.0 230070.0 164492.0 159580.0 239442.0 242642.0 238386.0 234156.0 143376.0 149722.0 104040.0 100037.0 112154.0 111706.0 142547.0 134468.0 227928.0 235656.0 171494.0 164411.0 75676.0 80817.0 191700.0 193544.0 120399.0 125451.0 95068.0 91411.0 223554.0 216221.0 183810.0 188460.0 64459.0 72531.0 97988.0 93095.0 85477.0 80183.0 166018.0 166783.0 130820.0 136565.0 7151.0 11757.0 173963.0 179394.0 102177.0 109679.0 77703.0 70508.0 231534.0 224138.0 168584.0 163413.0 185857.0 178033.0 140747.0 142168.0 222342.0 226086.0 182518.0 186013.0 199028.0 191448.0 158470.0 0.0 158470.0 158470.0 0.0 0.0
81174.0 84457.0 110557.0 114448.0 133594.0 128765.0 197172.0 191730.0 172222.0 166420.0 157477.0 155537.0 201470.0 195359.0 124149.0 115982.0 85675.0 89876.0 261626.0 255959.0 164164.0 156343.0 160920.0 152851.0 211398.0 216364.0 89199.0 94711.0 50865.0 57106.0 150783.0 158330.0 180652.0 179673.0 210223.0 213414.0 180349.0 172526.0 132322.0 140267.0 86491.0 87390.0 202490.0 198994.0 260732.0 265317.0 218659.0 220823.0 155105.0 149371.0 196710.0 201614.0 186539.0 179059.0 217268.0 211139.0 174691.0 172040.0 96878.0 92464.0 66901.0 73696.0 135005.0 142135.0 100704.0 94275.0 205896.0 208479.0 192835.0 192751.0 207941.0 206777.0 80125.0 80081.0 88159.0 92214.0 148561.0 151405.0 129679.0 129575.0 113104.0 121085.0 189257.0 182886.0 103757.0 106109.0 116178.0 112592.0 68145.0 68493.0 63526.0 67000.0 208560.0 206844.0 193176.0 200878.0 229147.0 230070.0 164492.0 159580.0 239442.0 242642.0 238386.0 234156.0 143376.0 149722.0 104040.0 100037.0 112154.0 111706.0 142547.0 134468.0 227928.0 235656.0 171494.0 164411.0 75676.0 80817.0 191700.0 193544.0 120399.0 125451.0 95068.0 91411.0 223554.0 216221.0 183810.0 188460.0 64459.0 72531.0 97988.0 93095.0 85477.0 80183.0 166018.0 166783.0 130820.0 136565.0 7151.0 11757.0 173963.0 179394.0 102177.0 109679.0 77703.0 70508.0 231534.0 224138.0 168584.0 163413.0 185857.0 178033.0 140747.0 142168.0 222342.0 226086.0 182518.0 186013.0 199028.0 191448.0 158470.0 0.0 158470.0 158470.0 0.0 0.0
FIXED_EDGES_SECTION
1 2
3 4
5 6
7 8
9 10
11 12
13 14
15 16
17 18
19 20
21 22
23 24
25 26
27 28
29 30
31 32
33 34
35 36
37 38
39 40
41 42
43 44
45 46
47 48
49 50
51 52
53 54
55 56
57 58
59 60
61 62
63 64
65 66
67 68
69 70
71 72
73 74
75 76
77 78
79 80
81 82
83 84
85 86
87 88
89 90
91 92
93 94
95 96
97 98
99 100
101 102
103 104
105 106
107 108
109 110
111 112
113 114
115 116
117 118
119 120
121 122
123 124
125 126
127 128
129 130
131 132
133 134
135 136
137 138
139 140
141 142
143 144
145 146
147 148
149 150
151 152
153 154
155 156
157 158
159 160
-1 
DEMAND_SECTION
1 534
2 534
3 350
4 350
5 191
6 191
7 461
8 461
9 583
10 583
11 71
12 71
13 497
14 497
15 224
16 224
17 130
18 130
19 542
20 542
21 421
22 421
23 293
24 293
25 55
26 55
27 158
28 158
29 114
30 114
31 96
32 96
33 180
34 180
35 274
36 274
37 82
38 82
39 99
40 99
41 373
42 373
43 369
44 369
45 138
46 138
47 500
48 500
49 485
50 485
51 157
52 157
53 396
54 396
55 217
56 217
57 97
58 97
59 214
60 214
61 342
62 342
63 256
64 256
65 421
66 421
67 72
68 72
69 247
70 247
71 277
72 277
73 336
74 336
75 184
76 184
77 207
78 207
79 60
80 60
81 56
82 56
83 57
84 57
85 177
86 177
87 268
88 268
89 319
90 319
91 563
92 563
93 211
94 211
95 90
96 90
97 76
98 76
99 100
100 100
101 68
102 68
103 497
104 497
105 394
106 394
107 341
108 341
109 380
110 380
111 171
112 171
113 316
114 316
115 229
116 229
117 620
118 620
119 74
120 74
121 90
122 90
123 119
124 119
125 251
126 251
127 292
128 292
129 84
130 84
131 244
132 244
133 358
134 358
135 112
136 112
137 89
138 89
139 37
140 37
141 104
142 104
143 432
144 432
145 75
146 75
147 258
148 258
149 155
150 155
151 493
152 493
153 119
154 119
155 234
156 234
157 211
158 211
159 479
160 479
161 0
162 0
163 0
164 0
165 0
166 0
DEPOT_SECTION
161 
-1 
CAPACITIES_SECTION
20000 
22000 
24000 
26000 
-1 
EOF