NAME: GFS_20_1
TYPE: GFSP
DIMENSION: 210
VEHICLES: 3
CAPACITY: 12500.0
TRIP_DIST_LIMIT: 1200000.0
TOTAL_DIST_LIMIT: 1400000.0
EDGE_WEIGHT_TYPE: EXPLICIT
EDGE_WEIGHT_FORMAT: FULL_MATRIX
EDGE_WEIGHT_SECTION
0.0 8092.0 221902.0 214960.0 207974.0 204691.0 351420.0 343523.0 249780.0 246381.0 131830.0 128704.0 196455.0 188297.0 176193.0 168853.0 85628.0 85576.0 135079.0 133262.0 162315.0 157036.0 172032.0 166062.0 91867.0 98104.0 158413.0 166209.0 129045.0 127709.0 76898.0 84889.0 355480.0 360769.0 43670.0 41879.0 157027.0 160366.0 90517.0 94179.0 160189.0 157826.0 186264.0 179821.0 228667.0 220673.0 280860.0 272824.0 147193.0 153637.0 148676.0 140599.0 328881.0 334431.0 160875.0 162727.0 255256.0 247987.0 67066.0 59734.0 98638.0 104407.0 48697.0 40690.0 356563.0 358214.0 132315.0 130117.0 166338.0 160664.0 29957.0 30184.0 223187.0 217890.0 98046.0 103867.0 275863.0 277180.0 100314.0 92551.0 161995.0 165583.0 232236.0 228962.0 244699.0 241701.0 319023.0 311521.0 228234.0 220221.0 171896.0 176609.0 367632.0 362682.0 71642.0 79453.0 147995.0 153253.0 220716.0 221952.0 237899.0 240099.0 160613.0 167643.0 200702.0 195910.0 219114.0 212827.0 63868.0 71436.0 291630.0 299314.0 199517.0 195880.0 331860.0 323622.0 153462.0 148658.0 203301.0 195395.0 142228.0 149074.0 182898.0 187361.0 233256.0 237550.0 151233.0 152670.0 127441.0 128018.0 158004.0 150094.0 23290.0 19338.0 166997.0 160460.0 149462.0 144756.0 220705.0 215035.0 276089.0 284124.0 210088.0 207627.0 129826.0 129249.0 140920.0 145616.0 104532.0 105311.0 51266.0 45137.0 13938.0 20806.0 167883.0 164304.0 46193.0 54478.0 170996.0 176608.0 155398.0 156386.0 38714.0 35253.0 132565.0 133554.0 224004.0 225496.0 233044.0 225801.0 74380.0 72051.0 248082.0 247936.0 239920.0 235356.0 236035.0 239176.0 341524.0 333880.0 162911.0 154368.0 327059.0 331452.0 127278.0 133364.0 139959.0 135767.0 55339.0 60908.0 127739.0 129024.0 206267.0 211695.0 201492.0 201893.0 193737.0 186639.0 239628.0 244941.0 249526.0 238506.0 249526.0 249526.0 249526.0 249526.0 238506.0 238506.0 238506.0 238506.0
8092.0 0.0 215415.0 208565.0 205377.0 202370.0 352968.0 345042.0 242920.0 239393.0 127354.0 124639.0 188882.0 180751.0 175863.0 168336.0 78165.0 78457.0 129735.0 128277.0 154493.0 149137.0 170360.0 164641.0 83885.0 90223.0 154339.0 162062.0 123841.0 122128.0 68870.0 76884.0 355825.0 361249.0 40154.0 37058.0 150864.0 154459.0 83892.0 87929.0 155722.0 153038.0 178880.0 172538.0 228982.0 220989.0 282204.0 274191.0 144160.0 150323.0 143635.0 135561.0 329614.0 335303.0 154924.0 157050.0 256394.0 249042.0 60613.0 53630.0 91694.0 97225.0 55110.0 47339.0 357332.0 358807.0 129474.0 126801.0 158673.0 153092.0 37176.0 36304.0 215649.0 210275.0 90149.0 95883.0 274900.0 276450.0 92482.0 84782.0 157951.0 161847.0 225412.0 222002.0 237646.0 234539.0 319765.0 312334.0 228973.0 220962.0 165604.0 170121.0 368548.0 363738.0 76306.0 84115.0 141346.0 146422.0 218357.0 219877.0 230355.0 232658.0 154219.0 161126.0 198402.0 193618.0 211435.0 205087.0 56409.0 64101.0 291735.0 299357.0 199418.0 196078.0 332003.0 323746.0 151948.0 146813.0 195522.0 187637.0 135748.0 142731.0 178949.0 183628.0 231403.0 235922.0 148656.0 149672.0 122595.0 122757.0 149933.0 142031.0 27441.0 25463.0 159406.0 152957.0 147302.0 142255.0 213549.0 207987.0 277330.0 285347.0 209201.0 207038.0 123742.0 122840.0 137938.0 143005.0 97095.0 97646.0 59230.0 53206.0 20347.0 25733.0 162701.0 158857.0 38106.0 46386.0 167001.0 172374.0 148650.0 149882.0 42115.0 37323.0 124968.0 125797.0 217312.0 218650.0 225861.0 218566.0 71185.0 69705.0 240522.0 240481.0 240453.0 236093.0 229173.0 232443.0 343091.0 335377.0 157356.0 148802.0 327744.0 331987.0 120711.0 126584.0 135815.0 131985.0 48218.0 53417.0 123775.0 125532.0 199477.0 205043.0 194239.0 194794.0 186804.0 179804.0 231952.0 237205.0 243402.0 236487.0 243402.0 243402.0 243402.0 243402.0 236487.0 236487.0 236487.0 236487.0
221902.0 215415.0 0.0 8000.0 126882.0 133415.0 324994.0 317770.0 33542.0 35431.0 106094.0 113667.0 62932.0 64129.0 174069.0 168749.0 140598.0 138032.0 93263.0 98720.0 92809.0 100765.0 144670.0 149737.0 146169.0 137631.0 96663.0 91759.0 99906.0 97813.0 173638.0 171387.0 302593.0 309446.0 182608.0 181297.0 65791.0 64669.0 131534.0 127802.0 88127.0 83522.0 56691.0 56444.0 208615.0 204737.0 266234.0 261405.0 120770.0 113325.0 85830.0 92160.0 286443.0 294328.0 63749.0 65320.0 244231.0 237746.0 154854.0 162236.0 124369.0 120269.0 238053.0 236407.0 310805.0 308865.0 129597.0 123410.0 81411.0 80565.0 251718.0 251715.0 58555.0 63839.0 138236.0 137800.0 205971.0 211828.0 134385.0 139106.0 95667.0 100765.0 19247.0 24339.0 37057.0 40667.0 278678.0 274516.0 218801.0 214766.0 50482.0 45297.0 323732.0 322604.0 229004.0 231411.0 74242.0 70148.0 136643.0 144680.0 62922.0 56574.0 61349.0 54290.0 133166.0 132588.0 69152.0 73949.0 160947.0 152943.0 242000.0 246486.0 185994.0 191532.0 277477.0 269310.0 147979.0 142225.0 77541.0 76652.0 79678.0 72949.0 91176.0 95921.0 155235.0 163227.0 128055.0 119697.0 104997.0 100259.0 121595.0 122064.0 242108.0 240848.0 77378.0 78026.0 136244.0 131063.0 33760.0 28234.0 260338.0 265282.0 170972.0 177344.0 92829.0 92662.0 123921.0 128870.0 122910.0 126122.0 259559.0 257780.0 224045.0 220348.0 69544.0 67481.0 185563.0 180699.0 93285.0 85906.0 67413.0 65533.0 214115.0 207970.0 102051.0 106722.0 9783.0 17574.0 37857.0 38942.0 159889.0 167072.0 68525.0 61116.0 219994.0 222555.0 23163.0 20893.0 317399.0 309464.0 66908.0 73984.0 283821.0 284030.0 94713.0 89330.0 105405.0 113410.0 167631.0 163954.0 115640.0 121415.0 20956.0 12705.0 43029.0 35505.0 34802.0 38536.0 74009.0 81486.0 33292.0 155105.0 33292.0 33292.0 33292.0 33292.0 155105.0 155105.0 155105.0 155105.0
214960.0 208565.0 8000.0 0.0 120644.0 126994.0 319260.0 312036.0 41497.0 43027.0 98135.0 105687.0 63128.0 63278.0 166669.0 161237.0 134385.0 131546.0 85480.0 90839.0 90303.0 98094.0 137259.0 142204.0 140718.0 132179.0 88779.0 83989.0 92130.0 90216.0 168266.0 166296.0 296859.0 303712.0 175321.0 174164.0 58407.0 56945.0 124747.0 120795.0 80200.0 75534.0 55079.0 53685.0 202097.0 198064.0 260183.0 255227.0 112872.0 105477.0 77854.0 84234.0 280709.0 288594.0 56062.0 57410.0 237884.0 231315.0 147962.0 155247.0 117852.0 114042.0 230449.0 228894.0 305071.0 303131.0 121610.0 115410.0 78762.0 77197.0 244723.0 244851.0 62117.0 66670.0 132811.0 132729.0 200237.0 206094.0 128915.0 133347.0 87842.0 93063.0 26463.0 30377.0 44365.0 47369.0 272944.0 268782.0 212144.0 207969.0 43191.0 38573.0 317998.0 316870.0 221158.0 223518.0 67735.0 64141.0 130833.0 138810.0 67963.0 62142.0 54351.0 47611.0 126602.0 125860.0 72026.0 76098.0 154468.0 146469.0 236266.0 240752.0 179003.0 184420.0 271743.0 263576.0 140240.0 134413.0 78702.0 76989.0 72842.0 65892.0 83940.0 88899.0 149501.0 157493.0 120238.0 111867.0 97132.0 92514.0 119490.0 119445.0 235373.0 233972.0 74554.0 74427.0 128428.0 123175.0 37602.0 30861.0 254265.0 259338.0 164385.0 170627.0 85565.0 85729.0 115972.0 120984.0 116986.0 120529.0 252105.0 250420.0 216867.0 213059.0 61562.0 59491.0 179269.0 174600.0 85658.0 78379.0 61228.0 58771.0 206581.0 200503.0 97214.0 102304.0 16165.0 23438.0 43598.0 43503.0 152247.0 159371.0 74285.0 67236.0 213615.0 216023.0 30581.0 28857.0 311665.0 303730.0 58950.0 66105.0 278087.0 278296.0 87966.0 82921.0 97405.0 105410.0 160941.0 157461.0 107658.0 113416.0 19599.0 11791.0 43208.0 35168.0 31912.0 34071.0 78764.0 86413.0 35337.0 149371.0 35337.0 35337.0 35337.0 35337.0 149371.0 149371.0 149371.0 149371.0
207974.0 205377.0 126882.0 120644.0 0.0 8000.0 200905.0 193464.0 156639.0 161042.0 87949.0 86268.0 171191.0 166848.0 62399.0 61999.0 164360.0 156862.0 98609.0 93813.0 177769.0 182431.0 41911.0 49787.0 182408.0 176205.0 61892.0 57607.0 100056.0 107153.0 204914.0 207944.0 180298.0 187151.0 165291.0 169662.0 108618.0 100639.0 145769.0 137969.0 67330.0 74940.0 157177.0 150500.0 82126.0 78999.0 139615.0 134584.0 61822.0 57251.0 85079.0 89866.0 163425.0 171192.0 101758.0 93759.0 117369.0 110986.0 158018.0 160328.0 147675.0 151063.0 196200.0 199128.0 188473.0 186570.0 75984.0 79765.0 168180.0 161801.0 231704.0 235760.0 180204.0 182887.0 177072.0 182341.0 84639.0 90016.0 173608.0 171989.0 58783.0 51361.0 145992.0 150957.0 163392.0 167538.0 155254.0 150577.0 92857.0 89770.0 110632.0 117336.0 201390.0 199887.0 173765.0 171739.0 124851.0 130146.0 14452.0 20253.0 188147.0 182720.0 114982.0 118414.0 10588.0 14329.0 188051.0 189721.0 172779.0 167202.0 118816.0 123867.0 63979.0 71136.0 155182.0 147014.0 59318.0 61330.0 188532.0 183563.0 121137.0 115603.0 43716.0 36602.0 33140.0 40714.0 56746.0 56292.0 96005.0 101617.0 204234.0 199783.0 231239.0 226010.0 163971.0 158187.0 59143.0 63223.0 157150.0 149418.0 133677.0 138937.0 45165.0 52424.0 115828.0 123411.0 67811.0 62381.0 158210.0 165900.0 221688.0 224008.0 202012.0 194925.0 79332.0 87243.0 195754.0 196291.0 51688.0 53248.0 127091.0 119017.0 179700.0 177731.0 160889.0 169027.0 136469.0 144028.0 164241.0 163574.0 134308.0 135924.0 194906.0 187851.0 93172.0 96065.0 149603.0 145159.0 192902.0 184836.0 90490.0 93725.0 160844.0 161520.0 127969.0 131844.0 77436.0 77491.0 172441.0 174643.0 86251.0 81746.0 134453.0 130218.0 154887.0 147277.0 137358.0 131703.0 198496.0 206302.0 131325.0 34986.0 131325.0 131325.0 131325.0 131325.0 34986.0 34986.0 34986.0 34986.0
204691.0 202370.0 133415.0 126994.0 8000.0 0.0 196280.0 188744.0 163618.0 167844.0 88037.0 85626.0 176043.0 171436.0 54637.0 54598.0 164241.0 156601.0 99887.0 94605.0 181142.0 185530.0 35838.0 43570.0 182716.0 176780.0 63244.0 59852.0 100814.0 108173.0 204542.0 207863.0 177025.0 183878.0 162412.0 167085.0 111922.0 104075.0 145505.0 137670.0 69511.0 77336.0 161807.0 154927.0 75235.0 71755.0 133717.0 128441.0 60056.0 56477.0 87018.0 91210.0 159506.0 167178.0 105246.0 97264.0 110896.0 104336.0 156680.0 158595.0 147961.0 151741.0 191302.0 194482.0 185021.0 183289.0 73495.0 78030.0 171829.0 165262.0 227808.0 232075.0 185903.0 188352.0 177646.0 183173.0 82530.0 87349.0 174277.0 172289.0 60409.0 52652.0 152590.0 157358.0 170102.0 174081.0 151100.0 146140.0 85709.0 82347.0 114893.0 121857.0 197892.0 196107.0 168274.0 165996.0 127735.0 133359.0 16043.0 18629.0 194202.0 188944.0 118569.0 122428.0 4016.0 8801.0 193469.0 194885.0 171699.0 166397.0 114938.0 120347.0 56086.0 63179.0 151909.0 143742.0 53959.0 56800.0 193368.0 188182.0 123625.0 118462.0 47612.0 40772.0 31610.0 38453.0 53912.0 54624.0 96287.0 102367.0 207086.0 202386.0 227905.0 222481.0 167692.0 161669.0 55279.0 60173.0 163152.0 155331.0 127748.0 133255.0 37848.0 44864.0 117351.0 125088.0 65753.0 59585.0 158985.0 166772.0 216803.0 219348.0 198286.0 191069.0 82960.0 90747.0 194171.0 195046.0 54165.0 56792.0 130416.0 122367.0 175461.0 173790.0 163058.0 171219.0 142929.0 150421.0 170558.0 169652.0 131558.0 132722.0 201162.0 194231.0 86621.0 89183.0 156269.0 152002.0 188087.0 179969.0 93948.0 96551.0 156959.0 157964.0 129610.0 133922.0 77530.0 76753.0 170905.0 173452.0 85421.0 80259.0 140237.0 136291.0 160182.0 152698.0 142558.0 136636.0 204418.0 212247.0 138409.0 35028.0 138409.0 138409.0 138409.0 138409.0 35028.0 35028.0 35028.0 35028.0
351420.0 352968.0 324994.0 319260.0 200905.0 196280.0 0.0 8018.0 353699.0 358349.0 275423.0 270082.0 372095.0 367674.0 185475.0 193906.0 345053.0 336963.0 290901.0 284216.0 376438.0 380231.0 205708.0 206776.0 365307.0 361246.0 256313.0 254696.0 289922.0 297880.0 381299.0 386655.0 53086.0 48255.0 319759.0 327017.0 307491.0 299859.0 326592.0 319110.0 263955.0 271941.0 358024.0 351204.0 130837.0 138150.0 71127.0 79010.0 243424.0 244288.0 280407.0 282830.0 41568.0 33796.0 301080.0 293158.0 97606.0 105280.0 329211.0 327615.0 332153.0 337857.0 315202.0 322198.0 34804.0 42765.0 250290.0 258133.0 367600.0 360779.0 362649.0 369669.0 380114.0 383280.0 362073.0 368861.0 123469.0 115871.0 359384.0 355317.0 254187.0 246225.0 343852.0 349283.0 360918.0 365456.0 47053.0 50478.0 126882.0 134580.0 311171.0 318108.0 32595.0 24611.0 286377.0 279630.0 322443.0 328637.0 188862.0 181240.0 387180.0 381365.0 314445.0 318629.0 198061.0 200651.0 388511.0 390489.0 344996.0 342255.0 83440.0 80486.0 162071.0 162331.0 63039.0 66179.0 217965.0 225751.0 389436.0 384409.0 317488.0 313227.0 243887.0 237032.0 169769.0 161775.0 233873.0 239507.0 283800.0 291353.0 400988.0 395563.0 371164.0 363578.0 363565.0 357232.0 229214.0 237204.0 356310.0 348915.0 76439.0 68694.0 164374.0 161549.0 308490.0 316506.0 246581.0 238146.0 345291.0 353277.0 336153.0 342466.0 339782.0 331782.0 279026.0 286675.0 361213.0 365137.0 249474.0 252942.0 325895.0 317931.0 313258.0 316187.0 355295.0 363398.0 334715.0 342407.0 362724.0 362640.0 294998.0 291514.0 393443.0 386110.0 117896.0 120080.0 347281.0 342423.0 9922.0 17704.0 289814.0 291541.0 44180.0 47731.0 320763.0 326430.0 265885.0 261870.0 340431.0 345694.0 269013.0 261297.0 334388.0 329390.0 355569.0 347823.0 338149.0 332605.0 397652.0 405328.0 328359.0 171494.0 328359.0 328359.0 328359.0 328359.0 171494.0 171494.0 171494.0 171494.0
343523.0 345042.0 317770.0 312036.0 193464.0 188744.0 8018.0 0.0 346475.0 351125.0 267531.0 262160.0 364645.0 360169.0 177472.0 185904.0 337057.0 328967.0 283059.0 276352.0 368721.0 372473.0 197809.0 198830.0 357316.0 353271.0 248558.0 247007.0 282044.0 290006.0 373283.0 378642.0 52321.0 48564.0 311768.0 319020.0 299818.0 292208.0 318604.0 311126.0 256240.0 264228.0 350527.0 343670.0 122870.0 130163.0 63125.0 71022.0 235527.0 236445.0 272638.0 275010.0 36274.0 28991.0 293433.0 285522.0 89590.0 97262.0 321194.0 319597.0 324186.0 329907.0 307483.0 314449.0 35142.0 42934.0 242327.0 250184.0 359930.0 353085.0 354886.0 361884.0 372885.0 375985.0 354097.0 360895.0 116900.0 109199.0 351415.0 347332.0 246457.0 238497.0 336628.0 342059.0 353694.0 358232.0 40632.0 43364.0 118866.0 126561.0 303619.0 310594.0 35851.0 27857.0 278651.0 271936.0 314705.0 320933.0 181555.0 173883.0 379956.0 374141.0 306799.0 311038.0 190475.0 193013.0 381206.0 383117.0 336979.0 334241.0 76554.0 74023.0 154088.0 154320.0 59066.0 61365.0 209991.0 217783.0 381984.0 376909.0 309714.0 305497.0 236339.0 229509.0 162536.0 154548.0 225962.0 231634.0 275903.0 283472.0 393185.0 387733.0 363320.0 355748.0 355908.0 349542.0 221268.0 229263.0 349150.0 341719.0 68423.0 60676.0 156574.0 153670.0 300639.0 308656.0 238654.0 230215.0 337340.0 345326.0 328539.0 334815.0 331919.0 323915.0 271417.0 279045.0 353203.0 357121.0 241815.0 245355.0 318207.0 310253.0 305391.0 308285.0 347448.0 355546.0 327491.0 335183.0 355500.0 355281.0 286982.0 283505.0 386219.0 378886.0 109920.0 112068.0 340057.0 335200.0 2881.0 9697.0 282175.0 283835.0 38769.0 43234.0 312905.0 318604.0 258018.0 253965.0 332413.0 337675.0 261083.0 253353.0 327140.0 322214.0 348216.0 340495.0 330766.0 325165.0 390511.0 398203.0 321135.0 164411.0 321135.0 321135.0 321135.0 321135.0 164411.0 164411.0 164411.0 164411.0
249780.0 242920.0 33542.0 41497.0 156639.0 163618.0 353699.0 346475.0 0.0 8263.0 139038.0 146751.0 68903.0 73830.0 206650.0 201594.0 166073.0 164599.0 125360.0 131247.0 105932.0 114059.0 177320.0 182646.0 168610.0 160216.0 130180.0 125150.0 131944.0 129113.0 195389.0 192048.0 331298.0 338151.0 212143.0 210170.0 96681.0 96734.0 159351.0 156517.0 121667.0 117013.0 70138.0 73694.0 238759.0 235338.0 295123.0 290535.0 154296.0 146805.0 118925.0 124940.0 315148.0 323032.0 95694.0 98112.0 273769.0 267556.0 182879.0 190611.0 151229.0 146093.0 268903.0 266822.0 339510.0 337570.0 163085.0 156791.0 95830.0 97592.0 279729.0 279150.0 50999.0 58678.0 160709.0 158924.0 234676.0 240532.0 157097.0 162845.0 129127.0 134047.0 17643.0 21604.0 12504.0 19957.0 307383.0 303221.0 249322.0 245696.0 81424.0 74901.0 352437.0 351308.0 261123.0 263806.0 102081.0 96527.0 165374.0 173475.0 46900.0 38746.0 91118.0 83364.0 163755.0 163606.0 62922.0 70293.0 187256.0 179306.0 270705.0 275191.0 217522.0 223369.0 306182.0 298014.0 181291.0 175654.0 77672.0 80247.0 108466.0 102624.0 123600.0 127858.0 183940.0 191931.0 161493.0 153155.0 137426.0 132161.0 131762.0 134217.0 269010.0 268370.0 92730.0 96025.0 169678.0 164581.0 33792.0 36358.0 289269.0 294041.0 201439.0 208149.0 122905.0 121540.0 157462.0 162385.0 147551.0 149460.0 289651.0 287435.0 252954.0 249766.0 103052.0 100708.0 210917.0 205297.0 126453.0 118916.0 94463.0 94450.0 244673.0 238232.0 123230.0 126218.0 27175.0 24291.0 25547.0 32767.0 191098.0 198537.0 47623.0 39084.0 249695.0 252702.0 13747.0 12650.0 346104.0 338169.0 99931.0 106597.0 312526.0 312734.0 122891.0 116432.0 138771.0 146796.0 194738.0 190291.0 148742.0 154728.0 43629.0 39426.0 53254.0 49712.0 56205.0 63145.0 57925.0 63724.0 46895.0 183810.0 46895.0 46895.0 46895.0 46895.0 183810.0 183810.0 183810.0 183810.0
246381.0 239393.0 35431.0 43027.0 161042.0 167844.0 358349.0 351125.0 8263.0 0.0 138847.0 146707.0 61955.0 67344.0 209489.0 204179.0 162070.0 160953.0 124471.0 130672.0 99561.0 107647.0 180094.0 185163.0 163747.0 155425.0 131631.0 126997.0 130978.0 127682.0 190263.0 186676.0 335948.0 342800.0 209510.0 207249.0 95269.0 96016.0 156170.0 153699.0 122929.0 117842.0 64386.0 68604.0 243071.0 239436.0 299761.0 295192.0 155661.0 148391.0 118992.0 124628.0 319797.0 327682.0 94904.0 97963.0 278356.0 272027.0 179690.0 187536.0 147744.0 142293.0 266850.0 264532.0 344160.0 342220.0 163800.0 157215.0 89793.0 92028.0 276337.0 275540.0 42930.0 50684.0 155888.0 153780.0 239326.0 245182.0 152353.0 158349.0 130798.0 136090.0 16822.0 17482.0 4241.0 11696.0 312033.0 307870.0 253466.0 249634.0 80232.0 73226.0 357087.0 355958.0 259925.0 262837.0 99308.0 93327.0 170024.0 178124.0 38679.0 30547.0 89242.0 81317.0 167807.0 167449.0 54819.0 62296.0 183443.0 175536.0 275355.0 279840.0 221117.0 226773.0 310831.0 302664.0 183256.0 177370.0 69918.0 72822.0 105987.0 100573.0 126547.0 131146.0 188589.0 196581.0 163194.0 154807.0 136741.0 131099.0 124766.0 127495.0 265222.0 264808.0 86906.0 90681.0 171383.0 165989.0 27564.0 31558.0 293916.0 298691.0 205581.0 212133.0 120867.0 118988.0 158537.0 163805.0 143385.0 144919.0 287165.0 284737.0 249968.0 247009.0 103999.0 101047.0 206733.0 200901.0 128671.0 121331.0 91512.0 92178.0 242490.0 235903.0 118312.0 120893.0 27323.0 22261.0 17873.0 25480.0 189390.0 196971.0 39827.0 31327.0 254203.0 257020.0 12542.0 15940.0 350754.0 342819.0 100011.0 106226.0 317175.0 317384.0 120053.0 113257.0 139206.0 147252.0 191175.0 186478.0 148718.0 155019.0 41342.0 38652.0 47503.0 44958.0 52699.0 60166.0 49766.0 55721.0 53539.0 188460.0 53539.0 53539.0 53539.0 53539.0 188460.0 188460.0 188460.0 188460.0
131830.0 127354.0 106094.0 98135.0 87949.0 88037.0 275423.0 267531.0 139038.0 138847.0 0.0 8199.0 115737.0 108555.0 93660.0 85696.0 76413.0 68969.0 17932.0 10156.0 105696.0 107770.0 69731.0 69453.0 94680.0 88870.0 28052.0 35255.0 14737.0 22732.0 117041.0 119996.0 262182.0 269042.0 88354.0 90298.0 46286.0 43232.0 57895.0 50143.0 28372.0 26692.0 100588.0 92306.0 145128.0 138393.0 206917.0 200041.0 32019.0 32098.0 20395.0 14296.0 242231.0 249447.0 44464.0 40935.0 180854.0 173211.0 72511.0 76475.0 59929.0 64018.0 136224.0 136041.0 268983.0 268134.0 29566.0 21150.0 99382.0 91703.0 159522.0 161691.0 135633.0 134540.0 89734.0 95544.0 169995.0 174119.0 86463.0 84254.0 31702.0 37469.0 122206.0 122463.0 138909.0 139127.0 233104.0 227106.0 151300.0 144634.0 59566.0 67472.0 281594.0 278867.0 123814.0 125712.0 53630.0 61386.0 102338.0 106639.0 148416.0 146476.0 53946.0 61615.0 84699.0 80552.0 138521.0 136541.0 86190.0 80001.0 198605.0 204923.0 114725.0 116559.0 237097.0 228911.0 60205.0 52259.0 131225.0 124034.0 46691.0 46097.0 52658.0 58309.0 119645.0 126259.0 41714.0 36044.0 8462.0 16060.0 126861.0 120836.0 154657.0 151049.0 96259.0 88609.0 47493.0 39482.0 120521.0 112626.0 201022.0 207992.0 111612.0 113882.0 33946.0 41870.0 29672.0 38080.0 71372.0 79282.0 159759.0 159479.0 129700.0 124183.0 39105.0 38838.0 110487.0 109929.0 40743.0 45225.0 60099.0 54093.0 113853.0 109046.0 80395.0 88372.0 111975.0 116666.0 132032.0 127251.0 59471.0 65037.0 157924.0 153818.0 158134.0 157323.0 126506.0 126604.0 266389.0 258155.0 39187.0 32657.0 239840.0 241902.0 45812.0 52486.0 10523.0 13816.0 87389.0 88354.0 10213.0 18087.0 98582.0 100196.0 107605.0 103110.0 91860.0 83653.0 155583.0 163098.0 126955.0 122677.0 126955.0 126955.0 126955.0 126955.0 122677.0 122677.0 122677.0 122677.0
128704.0 124639.0 113667.0 105687.0 86268.0 85626.0 270082.0 262160.0 146751.0 146707.0 8199.0 0.0 123837.0 116604.0 87115.0 79009.0 78783.0 71043.0 25871.0 18128.0 112962.0 114744.0 64493.0 63508.0 97802.0 92510.0 29715.0 37514.0 21783.0 29528.0 118919.0 122371.0 258141.0 264886.0 85046.0 87660.0 54484.0 51315.0 59962.0 52118.0 32365.0 32432.0 108707.0 100418.0 139483.0 132571.0 201111.0 194118.0 27074.0 29153.0 27840.0 22393.0 237535.0 244651.0 52563.0 48744.0 174897.0 167216.0 72166.0 75308.0 63278.0 68148.0 130563.0 130758.0 264475.0 263831.0 21950.0 13389.0 106968.0 99248.0 155765.0 158295.0 143831.0 142717.0 93366.0 99574.0 166800.0 170614.0 90293.0 87421.0 33315.0 37651.0 130025.0 130423.0 146835.0 147151.0 228305.0 222159.0 145243.0 138414.0 67671.0 75611.0 277008.0 274098.0 117070.0 118689.0 61503.0 69312.0 100489.0 104247.0 156610.0 154644.0 62143.0 69813.0 82098.0 77740.0 146680.0 144642.0 86597.0 80934.0 194224.0 200708.0 108762.0 110216.0 233024.0 224856.0 53543.0 45547.0 139230.0 131986.0 54427.0 54165.0 54325.0 59276.0 117113.0 123427.0 36269.0 31821.0 14649.0 22874.0 133349.0 127108.0 151746.0 147778.0 103942.0 96219.0 41196.0 33126.0 128648.0 120732.0 195252.0 202337.0 106897.0 108705.0 40942.0 48685.0 23523.0 31994.0 75579.0 83558.0 154491.0 154542.0 125786.0 119946.0 45687.0 46222.0 110144.0 110212.0 42364.0 47969.0 68124.0 62236.0 108746.0 104323.0 86726.0 94582.0 119746.0 124563.0 140113.0 135389.0 55149.0 59996.0 166109.0 161971.0 152492.0 151402.0 134329.0 134271.0 260956.0 252728.0 46820.0 40643.0 235180.0 237445.0 52373.0 59471.0 11320.0 8890.0 86858.0 88551.0 2030.0 10172.0 106605.0 108058.0 115804.0 111291.0 100032.0 91832.0 163780.0 171291.0 133796.0 120562.0 133796.0 133796.0 133796.0 133796.0 120562.0 120562.0 120562.0 120562.0
196455.0 188882.0 62932.0 63128.0 171191.0 176043.0 372095.0 364645.0 68903.0 61955.0 115737.0 123837.0 0.0 8322.0 203975.0 196948.0 110873.0 111953.0 98023.0 105716.0 38573.0 46404.0 175789.0 178507.0 107819.0 100089.0 121732.0 120722.0 103083.0 96768.0 132656.0 128099.0 350298.0 357151.0 164901.0 160948.0 70622.0 76449.0 110358.0 110439.0 112837.0 105312.0 15243.0 23447.0 248213.0 242902.0 309022.0 303203.0 142457.0 137570.0 100560.0 102476.0 334199.0 342055.0 75091.0 82177.0 284782.0 277623.0 132698.0 140944.0 100463.0 93329.0 224395.0 220675.0 358510.0 356570.0 144989.0 136801.0 30752.0 35792.0 226022.0 224090.0 26864.0 21636.0 100378.0 96724.0 253754.0 259610.0 97359.0 104496.0 122672.0 130113.0 56489.0 49012.0 58504.0 52582.0 326272.0 321747.0 256822.0 251394.0 62156.0 54532.0 371356.0 370377.0 223060.0 227406.0 63111.0 55196.0 183552.0 190967.0 41511.0 44676.0 62750.0 56243.0 174592.0 172557.0 23998.0 20805.0 132606.0 125210.0 289674.0 294266.0 221145.0 225001.0 325182.0 317014.0 172460.0 165071.0 17342.0 13869.0 70662.0 69683.0 128672.0 135304.0 202911.0 210872.0 151868.0 143859.0 110218.0 102472.0 62862.0 65601.0 212984.0 213737.0 29490.0 36187.0 159428.0 152206.0 35402.0 36164.0 303020.0 308924.0 210852.0 215768.0 86395.0 80965.0 142879.0 150296.0 92070.0 91320.0 241768.0 238151.0 202290.0 200722.0 94961.0 88156.0 153327.0 146526.0 124973.0 120149.0 55853.0 61711.0 199767.0 192438.0 63920.0 64001.0 56137.0 51019.0 44359.0 36518.0 151556.0 159749.0 51643.0 52242.0 260650.0 261746.0 57865.0 64844.0 364054.0 355962.0 85432.0 86879.0 331585.0 331771.0 79788.0 71450.0 120721.0 128044.0 141546.0 135551.0 125784.0 133815.0 43578.0 51467.0 19971.0 27970.0 34771.0 39504.0 43887.0 50258.0 96105.0 202888.0 96105.0 96105.0 96105.0 96105.0 202888.0 202888.0 202888.0 202888.0
188297.0 180751.0 64129.0 63278.0 166848.0 171436.0 367674.0 360169.0 73830.0 67344.0 108555.0 116604.0 8322.0 0.0 197771.0 190617.0 102689.0 103679.0 90743.0 98477.0 32230.0 40303.0 169855.0 172328.0 100077.0 92243.0 115738.0 115126.0 95627.0 89136.0 125259.0 120919.0 346449.0 353302.0 156582.0 152648.0 64061.0 70307.0 102036.0 102136.0 106950.0 99290.0 9712.0 16888.0 242883.0 237417.0 303947.0 298009.0 135918.0 131303.0 94003.0 95528.0 330135.0 337953.0 68963.0 76311.0 279470.0 272244.0 124395.0 132639.0 92146.0 85032.0 216073.0 212359.0 354622.0 352721.0 137937.0 129673.0 23237.0 27689.0 217903.0 216042.0 34900.0 29951.0 92556.0 89138.0 249830.0 255687.0 89463.0 96495.0 116850.0 124421.0 60108.0 53097.0 64153.0 58717.0 322081.0 317411.0 251277.0 245707.0 56800.0 49580.0 367573.0 366435.0 214805.0 219185.0 55505.0 47582.0 179507.0 186784.0 49604.0 52346.0 56240.0 50226.0 169837.0 167632.0 32241.0 28383.0 124435.0 117004.0 285558.0 290313.0 215400.0 219063.0 321333.0 313166.0 165933.0 158453.0 22878.0 16755.0 62997.0 62458.0 123894.0 130664.0 198919.0 206850.0 145429.0 137521.0 102805.0 94963.0 58587.0 60462.0 204987.0 205657.0 21493.0 27920.0 152877.0 145539.0 40038.0 39195.0 297943.0 303966.0 205697.0 210416.0 78599.0 72978.0 136113.0 143668.0 83856.0 83260.0 233477.0 229886.0 194042.0 192436.0 89546.0 82464.0 145372.0 138660.0 119596.0 115128.0 48486.0 54754.0 191445.0 184116.0 55827.0 56248.0 58344.0 54123.0 50205.0 42278.0 143333.0 151535.0 59788.0 60031.0 255413.0 256326.0 61981.0 68560.0 359523.0 351403.0 79617.0 80487.0 327534.0 327887.0 71678.0 63316.0 113897.0 121087.0 133328.0 127389.0 118530.0 126642.0 43753.0 51995.0 21723.0 28631.0 32765.0 35905.0 52209.0 58542.0 97414.0 198964.0 97414.0 97414.0 97414.0 97414.0 198964.0 198964.0 198964.0 198964.0
176193.0 175863.0 174069.0 166669.0 62399.0 54637.0 185475.0 177472.0 206650.0 209489.0 93660.0 87115.0 203975.0 197771.0 0.0 8434.0 159614.0 151524.0 110848.0 103398.0 198996.0 201375.0 29411.0 25472.0 179921.0 176114.0 82350.0 84484.0 108383.0 116349.0 196092.0 201270.0 180856.0 186716.0 138700.0 145222.0 133792.0 127536.0 141254.0 133868.0 91370.0 98700.0 188816.0 180915.0 55180.0 47500.0 115168.0 107846.0 62577.0 66473.0 104023.0 103961.0 156469.0 162907.0 128891.0 121888.0 88629.0 80883.0 144187.0 143206.0 147238.0 153362.0 152154.0 156957.0 184121.0 184743.0 65938.0 74249.0 191926.0 184432.0 194461.0 200049.0 219306.0 220068.0 176928.0 183908.0 100857.0 101394.0 174385.0 170017.0 81777.0 74951.0 193126.0 196396.0 211028.0 213721.0 146791.0 139894.0 58889.0 51645.0 142294.0 150328.0 196048.0 192163.0 125767.0 121832.0 145588.0 152850.0 66278.0 62168.0 229908.0 225972.0 141558.0 147733.0 51883.0 49188.0 224723.0 224350.0 160015.0 156936.0 116313.0 123779.0 24044.0 23354.0 156563.0 148284.0 33578.0 41577.0 220627.0 214131.0 139348.0 136979.0 83051.0 79175.0 68158.0 69096.0 52769.0 60333.0 101585.0 109651.0 220431.0 214223.0 198361.0 191760.0 188454.0 181151.0 46183.0 54178.0 199274.0 191100.0 109467.0 116923.0 36140.0 31902.0 127604.0 135522.0 63989.0 55630.0 160747.0 168690.0 177115.0 181092.0 166961.0 159095.0 110133.0 116164.0 177850.0 181021.0 81548.0 88388.0 150839.0 143580.0 141428.0 141932.0 173835.0 181696.0 182787.0 189591.0 208662.0 206112.0 111180.0 108932.0 238166.0 232268.0 67821.0 65473.0 197191.0 194292.0 176031.0 167868.0 118696.0 117302.0 154361.0 157845.0 139384.0 146131.0 85579.0 79856.0 156111.0 160895.0 85735.0 77527.0 175701.0 173797.0 191646.0 185279.0 174130.0 166794.0 238953.0 246794.0 183483.0 75084.0 183483.0 183483.0 183483.0 183483.0 75084.0 75084.0 75084.0 75084.0
168853.0 168336.0 168749.0 161237.0 61999.0 54598.0 193906.0 185904.0 201594.0 204179.0 85696.0 79009.0 196948.0 190617.0 8434.0 0.0 151180.0 143090.0 103032.0 95518.0 191203.0 193460.0 24618.0 19060.0 171488.0 167697.0 75611.0 78254.0 100396.0 108340.0 187703.0 192857.0 188892.0 194823.0 130839.0 137261.0 126573.0 120506.0 132825.0 125447.0 84686.0 91831.0 181755.0 173792.0 63539.0 55899.0 123593.0 116256.0 54987.0 59384.0 96700.0 96325.0 164743.0 171224.0 121865.0 115020.0 97044.0 89297.0 135830.0 134931.0 138841.0 145000.0 146171.0 150713.0 192371.0 192912.0 57677.0 66043.0 184298.0 176763.0 187719.0 193154.0 212808.0 213377.0 168510.0 175503.0 107468.0 108390.0 165978.0 161589.0 75280.0 68777.0 187697.0 190723.0 205594.0 208075.0 155084.0 148226.0 67311.0 60027.0 135516.0 143600.0 204340.0 200505.0 120344.0 116784.0 137986.0 145328.0 67658.0 64468.0 223661.0 219911.0 134378.0 140717.0 51416.0 48097.0 217968.0 217412.0 151660.0 148535.0 124283.0 131682.0 32296.0 31757.0 164495.0 156213.0 25497.0 33475.0 213490.0 206895.0 131637.0 129475.0 78186.0 74870.0 71795.0 73559.0 45272.0 53101.0 93534.0 101640.0 212357.0 206091.0 191182.0 184693.0 180883.0 173514.0 38332.0 46240.0 193181.0 184994.0 117897.0 125357.0 41956.0 38783.0 119637.0 127526.0 56056.0 47786.0 152379.0 160317.0 171309.0 175045.0 159896.0 152081.0 103663.0 109437.0 169673.0 172760.0 75717.0 82859.0 143395.0 136240.0 134606.0 134839.0 165732.0 173563.0 177298.0 183966.0 202806.0 200038.0 103016.0 100950.0 232068.0 226329.0 76222.0 73906.0 191808.0 189150.0 184465.0 176301.0 111874.0 110134.0 162617.0 166022.0 131340.0 138182.0 77865.0 71921.0 147839.0 152563.0 77588.0 69330.0 169627.0 168007.0 185023.0 178808.0 167596.0 160144.0 232535.0 240359.0 179018.0 78498.0 179018.0 179018.0 179018.0 179018.0 78498.0 78498.0 78498.0 78498.0
85628.0 78165.0 140598.0 134385.0 164360.0 164241.0 345053.0 337057.0 166073.0 162070.0 76413.0 78783.0 110873.0 102689.0 159614.0 151180.0 0.0 8090.0 68815.0 71546.0 78099.0 73903.0 141667.0 139138.0 20468.0 19156.0 103513.0 109639.0 65429.0 59751.0 40853.0 43622.0 336169.0 342742.0 57642.0 52028.0 79887.0 85549.0 18881.0 26706.0 100751.0 95100.0 100730.0 94518.0 214353.0 206919.0 274715.0 267278.0 105502.0 107820.0 84131.0 77114.0 314439.0 321302.0 85590.0 90087.0 248119.0 240368.0 25560.0 33244.0 18279.0 20343.0 116675.0 111900.0 341714.0 341454.0 95595.0 88537.0 81019.0 75100.0 115341.0 113867.0 137568.0 132369.0 19735.0 27671.0 245552.0 249239.0 19246.0 11796.0 107008.0 113580.0 148786.0 144827.0 160114.0 156710.0 305002.0 298508.0 218440.0 210996.0 92990.0 95958.0 354059.0 350736.0 121630.0 127596.0 66793.0 70476.0 178737.0 182868.0 152283.0 154495.0 81185.0 86969.0 160789.0 156488.0 133764.0 127748.0 21764.0 14433.0 271858.0 278587.0 183033.0 182873.0 311089.0 302911.0 127331.0 119748.0 118479.0 110459.0 62792.0 70593.0 126928.0 133324.0 195803.0 202198.0 113928.0 110511.0 68479.0 63905.0 80701.0 72622.0 103247.0 103299.0 81461.0 74833.0 117001.0 109362.0 135761.0 130534.0 269056.0 276537.0 184394.0 185283.0 55594.0 51415.0 100897.0 108867.0 18936.0 20607.0 131737.0 127660.0 91657.0 90705.0 100016.0 93932.0 45004.0 40314.0 115593.0 118118.0 73200.0 76144.0 92654.0 84886.0 47101.0 49054.0 141355.0 141954.0 147992.0 140595.0 58540.0 65803.0 162478.0 162323.0 227214.0 225084.0 152365.0 156200.0 335638.0 327468.0 91510.0 83489.0 312168.0 314840.0 47905.0 51562.0 86923.0 87668.0 30798.0 24747.0 79218.0 85672.0 123150.0 129388.0 116252.0 117209.0 109888.0 103407.0 154249.0 159790.0 170653.0 199028.0 170653.0 170653.0 170653.0 170653.0 199028.0 199028.0 199028.0 199028.0
85576.0 78457.0 138032.0 131546.0 156862.0 156601.0 336963.0 328967.0 164599.0 160953.0 68969.0 71043.0 111953.0 103679.0 151524.0 143090.0 8090.0 0.0 62334.0 64570.0 80985.0 77476.0 133666.0 131084.0 28497.0 26320.0 96341.0 102655.0 58548.0 53324.0 48073.0 51345.0 328183.0 334739.0 53964.0 49204.0 75685.0 80836.0 11099.0 18932.0 93938.0 88567.0 100974.0 94326.0 206266.0 198830.0 266629.0 259196.0 97646.0 100141.0 77674.0 70427.0 306383.0 313237.0 80985.0 84969.0 240034.0 232283.0 21249.0 29455.0 13709.0 18863.0 113531.0 109215.0 333670.0 333433.0 87566.0 80576.0 82817.0 76415.0 115500.0 114591.0 138397.0 133565.0 26995.0 34826.0 237736.0 241364.0 25785.0 19244.0 99874.0 106287.0 147155.0 143583.0 159188.0 156126.0 296940.0 290436.0 210353.0 202913.0 89415.0 92981.0 346006.0 342668.0 116776.0 122470.0 63820.0 68277.0 171211.0 175230.0 153107.0 154901.0 77680.0 83945.0 153116.0 148781.0 135265.0 129599.0 22922.0 14923.0 263845.0 270592.0 174945.0 174785.0 303115.0 294931.0 119254.0 111682.0 120612.0 112526.0 59092.0 66675.0 120027.0 126313.0 188134.0 194468.0 105987.0 102701.0 61188.0 57050.0 86073.0 78084.0 104433.0 103856.0 82823.0 75767.0 108973.0 101361.0 135131.0 129530.0 260968.0 268448.0 176390.0 177235.0 50264.0 46983.0 92965.0 100892.0 20516.0 24825.0 129852.0 126211.0 90432.0 88785.0 94198.0 88444.0 48038.0 44545.0 108563.0 111372.0 70725.0 72878.0 89174.0 81541.0 49028.0 52189.0 139328.0 140362.0 147468.0 140243.0 51563.0 59095.0 163346.0 162768.0 219125.0 216995.0 150856.0 154347.0 327549.0 319378.0 86176.0 77964.0 304115.0 306807.0 43938.0 48706.0 79451.0 79933.0 30251.0 25923.0 71419.0 77741.0 121307.0 127187.0 115953.0 116342.0 108423.0 101577.0 155655.0 161470.0 167380.0 191448.0 167380.0 167380.0 167380.0 167380.0 191448.0 191448.0 191448.0 191448.0
135079.0 129735.0 93263.0 85480.0 98609.0 99887.0 290901.0 283059.0 125360.0 124471.0 17932.0 25871.0 98023.0 90743.0 110848.0 103032.0 68815.0 62334.0 0.0 7778.0 88171.0 90606.0 85705.0 86176.0 84949.0 78161.0 36734.0 41660.0 6654.0 9070.0 109553.0 111416.0 275913.0 282753.0 92808.0 93221.0 29792.0 28652.0 51901.0 44976.0 32300.0 26285.0 82931.0 74630.0 161202.0 154697.0 223087.0 216367.0 48452.0 46615.0 15340.0 8753.0 256812.0 264166.0 29667.0 28676.0 197246.0 189658.0 71050.0 76638.0 50883.0 52996.0 145371.0 144271.0 283243.0 282076.0 47496.0 39072.0 81559.0 73917.0 163934.0 165252.0 118547.0 117148.0 79024.0 83888.0 182407.0 187017.0 75405.0 74669.0 39850.0 47313.0 108113.0 107630.0 124195.0 123854.0 247850.0 242080.0 167856.0 161385.0 44279.0 51732.0 295959.0 293511.0 135812.0 138453.0 35697.0 43464.0 113043.0 118193.0 131641.0 130093.0 37059.0 44987.0 96905.0 93153.0 121011.0 118825.0 82567.0 75433.0 212794.0 218842.0 131257.0 133497.0 250796.0 242629.0 77610.0 69739.0 113359.0 106129.0 28814.0 28342.0 58515.0 65197.0 131292.0 138338.0 58306.0 51667.0 12604.0 7238.0 110354.0 104691.0 157167.0 154416.0 78375.0 70774.0 64704.0 56821.0 104591.0 96890.0 217154.0 223968.0 126607.0 129471.0 17672.0 25644.0 47028.0 55249.0 59909.0 67441.0 167762.0 166681.0 134772.0 130070.0 33122.0 29285.0 107904.0 105992.0 47714.0 49435.0 42258.0 36590.0 121905.0 116270.0 64400.0 72520.0 98186.0 102210.0 116410.0 111203.0 67156.0 74013.0 141313.0 137577.0 174174.0 173707.0 112370.0 113198.0 282003.0 273770.0 28204.0 19890.0 254373.0 256122.0 30016.0 35644.0 25388.0 31259.0 85778.0 85121.0 27787.0 35967.0 83506.0 86032.0 90674.0 86654.0 75577.0 67316.0 138442.0 145873.0 116844.0 133594.0 116844.0 116844.0 116844.0 116844.0 133594.0 133594.0 133594.0 133594.0
133262.0 128277.0 98720.0 90839.0 93813.0 94605.0 284216.0 276352.0 131247.0 130672.0 10156.0 18128.0 105716.0 98477.0 103398.0 95518.0 71546.0 64570.0 7778.0 0.0 95726.0 97979.0 78729.0 78903.0 88751.0 82397.0 32145.0 38101.0 6245.0 13770.0 112397.0 114762.0 269975.0 276828.0 90348.0 91411.0 36829.0 34663.0 53735.0 46323.0 29463.0 25050.0 90597.0 82303.0 154236.0 147631.0 216094.0 209306.0 41220.0 40051.0 15440.0 7401.0 250507.0 257804.0 35804.0 33460.0 190153.0 182541.0 71010.0 75925.0 54158.0 57250.0 141091.0 140370.0 277082.0 276051.0 39722.0 31295.0 89269.0 81606.0 161671.0 163354.0 125966.0 124702.0 83264.0 88591.0 176998.0 181405.0 79796.0 78361.0 35552.0 42500.0 114170.0 114024.0 130549.0 130460.0 241473.0 235604.0 160688.0 154132.0 50762.0 58464.0 289755.0 287186.0 130350.0 132693.0 43474.0 51240.0 108265.0 113073.0 138925.0 137201.0 44324.0 52139.0 91471.0 87548.0 128618.0 126520.0 83565.0 76815.0 206645.0 212810.0 124087.0 126159.0 244858.0 236634.0 70059.0 62154.0 121115.0 113900.0 36551.0 36038.0 55458.0 61781.0 126154.0 133029.0 51045.0 44738.0 6381.0 7806.0 117412.0 111571.0 155707.0 152584.0 86119.0 78490.0 57220.0 49280.0 111483.0 103687.0 210177.0 217059.0 120073.0 122693.0 24395.0 32408.0 39467.0 47769.0 64423.0 72174.0 163987.0 163241.0 132179.0 127123.0 34839.0 32677.0 108545.0 107228.0 44048.0 46939.0 50000.0 44166.0 118036.0 112731.0 71167.0 79227.0 104091.0 108426.0 123169.0 118152.0 63205.0 69591.0 148526.0 144624.0 167226.0 166613.0 118451.0 118949.0 275258.0 267023.0 32309.0 24737.0 248089.0 249972.0 36566.0 42796.0 18337.0 23631.0 85898.0 85957.0 20068.0 28197.0 89984.0 92090.0 98014.0 93774.0 82607.0 74362.0 145889.0 153358.0 121091.0 128765.0 121091.0 121091.0 121091.0 121091.0 128765.0 128765.0 128765.0 128765.0
162315.0 154493.0 92809.0 90303.0 177769.0 181142.0 376438.0 368721.0 105932.0 99561.0 105696.0 112962.0 38573.0 32230.0 198996.0 191203.0 78099.0 80985.0 88171.0 95726.0 0.0 8154.0 173112.0 174148.0 71391.0 64349.0 120275.0 121791.0 91195.0 83476.0 94859.0 89906.0 358019.0 364872.0 134949.0 129925.0 69221.0 77135.0 82275.0 84581.0 112483.0 104497.0 36668.0 36621.0 248236.0 242054.0 310056.0 303581.0 136481.0 133682.0 96387.0 95181.0 340596.0 348213.0 76012.0 84010.0 284592.0 277094.0 102234.0 110421.0 71940.0 63920.0 194468.0 189927.0 366126.0 364291.0 134909.0 126337.0 11595.0 16065.0 191327.0 188784.0 64576.0 57898.0 64488.0 59751.0 262108.0 267753.0 62011.0 69799.0 122274.0 130228.0 91554.0 84910.0 96383.0 90860.0 332051.0 326791.0 255468.0 249209.0 69095.0 64579.0 379013.0 377232.0 196765.0 201947.0 54109.0 47835.0 191420.0 198022.0 78692.0 82844.0 62847.0 60525.0 178922.0 175992.0 58008.0 50999.0 99207.0 92475.0 296064.0 301457.0 218939.0 221508.0 332903.0 324736.0 165772.0 157879.0 41161.0 33508.0 59745.0 63254.0 134060.0 141209.0 210763.0 218466.0 146330.0 139275.0 98327.0 90092.0 29522.0 29260.0 177340.0 178732.0 16000.0 19698.0 152874.0 144985.0 72166.0 70561.0 304081.0 310626.0 212347.0 216038.0 72048.0 64525.0 135182.0 143419.0 60473.0 57563.0 209770.0 205488.0 169446.0 168780.0 98446.0 90527.0 117683.0 110385.0 127164.0 124540.0 50726.0 58783.0 170158.0 162508.0 32461.0 29047.0 88493.0 85241.0 82408.0 74484.0 127118.0 135340.0 88382.0 90155.0 261108.0 261103.0 93744.0 99999.0 367838.0 359630.0 87284.0 84905.0 338063.0 339094.0 61408.0 53643.0 113427.0 119357.0 108745.0 101991.0 114638.0 123078.0 71853.0 80150.0 53008.0 58491.0 58403.0 57545.0 78344.0 83016.0 125530.0 211398.0 125530.0 125530.0 125530.0 125530.0 211398.0 211398.0 211398.0 211398.0
157036.0 149137.0 100765.0 98094.0 182431.0 185530.0 380231.0 372473.0 114059.0 107647.0 107770.0 114744.0 46404.0 40303.0 201375.0 193460.0 73903.0 77476.0 90606.0 97979.0 8154.0 0.0 176089.0 176780.0 65513.0 58936.0 123917.0 125885.0 93105.0 85227.0 88005.0 82753.0 362530.0 369383.0 131286.0 125924.0 73842.0 81898.0 79803.0 82814.0 116427.0 108464.0 44792.0 44431.0 251439.0 245105.0 313317.0 306727.0 139057.0 136710.0 99846.0 98027.0 344810.0 352375.0 80842.0 88809.0 287666.0 280117.0 98647.0 106736.0 69521.0 61372.0 190567.0 185773.0 370547.0 368768.0 136619.0 128050.0 19362.0 22189.0 185767.0 182986.0 72019.0 65112.0 58991.0 53659.0 266947.0 272446.0 56847.0 64850.0 126094.0 134062.0 99706.0 93060.0 104437.0 98839.0 336165.0 330780.0 258383.0 251976.0 75039.0 71051.0 383409.0 381485.0 193964.0 199369.0 57874.0 52298.0 196241.0 202678.0 85921.0 90360.0 67940.0 66353.0 183185.0 180109.0 64863.0 57527.0 94522.0 88122.0 300348.0 305874.0 221798.0 224101.0 337413.0 329246.0 167974.0 160028.0 47481.0 40213.0 62821.0 67137.0 138795.0 145974.0 215511.0 223144.0 148912.0 142112.0 100103.0 91911.0 22637.0 21351.0 171420.0 173073.0 23552.0 25682.0 155194.0 147226.0 80285.0 78714.0 307358.0 314014.0 215947.0 219392.0 73855.0 66061.0 137409.0 145746.0 57127.0 53303.0 205151.0 200649.0 164631.0 164286.0 103263.0 95289.0 111920.0 104417.0 131405.0 129191.0 55447.0 63513.0 166440.0 158716.0 30605.0 25382.0 96581.0 93385.0 90428.0 82510.0 125243.0 133406.0 95450.0 97558.0 264361.0 264142.0 101896.0 108150.0 371536.0 363317.0 92020.0 89011.0 342297.0 343477.0 62545.0 55300.0 115986.0 121541.0 104226.0 97218.0 116337.0 124765.0 79812.0 88087.0 61161.0 66604.0 66235.0 65007.0 84980.0 89267.0 133371.0 216364.0 133371.0 133371.0 133371.0 133371.0 216364.0 216364.0 216364.0 216364.0
172032.0 170360.0 144670.0 137259.0 41911.0 35838.0 205708.0 197809.0 177320.0 180094.0 69731.0 64493.0 175789.0 169855.0 29411.0 24618.0 141667.0 133666.0 85705.0 78729.0 173112.0 176089.0 0.0 7909.0 161395.0 156604.0 54119.0 55495.0 84300.0 92286.0 180401.0 184722.0 194528.0 201076.0 131010.0 136437.0 106231.0 99560.0 122833.0 115096.0 62953.0 70567.0 160723.0 152968.0 75511.0 69021.0 137386.0 130673.0 37719.0 39431.0 76978.0 78062.0 173149.0 180208.0 100899.0 93617.0 111581.0 104029.0 129947.0 130545.0 127340.0 132573.0 155956.0 159424.0 200227.0 199815.0 46180.0 53207.0 165388.0 158075.0 193841.0 198490.0 190350.0 191333.0 157451.0 163890.0 105975.0 108701.0 154523.0 151137.0 53143.0 45961.0 163717.0 166996.0 181619.0 184317.0 163865.0 157672.0 82356.0 76222.0 113800.0 121735.0 212685.0 209661.0 132499.0 130159.0 119156.0 126093.0 51250.0 50715.0 200733.0 196689.0 113862.0 119650.0 31987.0 27628.0 196067.0 195976.0 145574.0 141304.0 130203.0 136927.0 45875.0 49215.0 169490.0 161291.0 18774.0 23723.0 192639.0 186375.0 113402.0 110249.0 53755.0 50259.0 61315.0 65563.0 28224.0 34038.0 78094.0 85708.0 196056.0 190298.0 195047.0 189233.0 161721.0 154685.0 24870.0 32305.0 170015.0 161852.0 131460.0 138331.0 42728.0 44219.0 103110.0 111129.0 41133.0 32875.0 140011.0 147999.0 181445.0 184239.0 164726.0 157282.0 81307.0 87677.0 166139.0 168073.0 52260.0 58988.0 123829.0 116296.0 141046.0 139911.0 149895.0 157943.0 153376.0 160185.0 179301.0 176840.0 100907.0 100826.0 208898.0 202931.0 88498.0 88054.0 167786.0 164933.0 196658.0 188425.0 90357.0 89707.0 170819.0 173270.0 115285.0 121348.0 60410.0 56169.0 143300.0 146929.0 63535.0 56208.0 146442.0 144424.0 162851.0 156320.0 145249.0 138064.0 209908.0 217762.0 154464.0 66901.0 154464.0 154464.0 154464.0 154464.0 66901.0 66901.0 66901.0 66901.0
166062.0 164641.0 149737.0 142204.0 49787.0 43570.0 206776.0 198830.0 182646.0 185163.0 69453.0 63508.0 178507.0 172328.0 25472.0 19060.0 139138.0 131084.0 86176.0 78903.0 174148.0 176780.0 7909.0 0.0 159115.0 154672.0 56887.0 59248.0 84174.0 92178.0 177226.0 181823.0 197574.0 203947.0 125627.0 131316.0 108386.0 102074.0 120413.0 112775.0 65920.0 73228.0 163354.0 155466.0 76024.0 69063.0 137604.0 130639.0 37723.0 41062.0 78696.0 78977.0 175301.0 182187.0 103427.0 96417.0 111433.0 103773.0 126207.0 126365.0 125482.0 131082.0 148764.0 152400.0 202601.0 202486.0 43648.0 51358.0 166829.0 159394.0 187310.0 192115.0 193944.0 194634.0 155508.0 162164.0 110725.0 112995.0 152719.0 148962.0 56386.0 49750.0 168661.0 171663.0 186555.0 189016.0 165876.0 159453.0 81848.0 75230.0 116834.0 124879.0 214922.0 211632.0 124969.0 122501.0 120491.0 127656.0 58768.0 57786.0 204688.0 200887.0 116133.0 122267.0 39768.0 35482.0 199273.0 198878.0 141944.0 138019.0 133005.0 139955.0 45288.0 47361.0 172679.0 164437.0 12788.0 19504.0 195178.0 188715.0 114417.0 111778.0 59442.0 56551.0 67839.0 71586.0 27871.0 35031.0 77631.0 85513.0 196277.0 190289.0 188966.0 183005.0 163291.0 156072.0 22438.0 30451.0 174162.0 165977.0 131744.0 138850.0 46009.0 46165.0 103263.0 111247.0 40000.0 31520.0 138517.0 146504.0 174232.0 177170.0 158402.0 150872.0 84767.0 90711.0 161814.0 164080.0 56657.0 63833.0 125569.0 118236.0 134371.0 133489.0 149848.0 157815.0 158254.0 164908.0 183752.0 181015.0 95970.0 95387.0 213052.0 207284.0 89026.0 87918.0 172779.0 170180.0 197576.0 189355.0 93228.0 91880.0 173031.0 175787.0 115258.0 121696.0 60795.0 55667.0 139203.0 143165.0 62337.0 54523.0 150601.0 148947.0 166231.0 159926.0 148747.0 141368.0 213632.0 221465.0 160365.0 73696.0 160365.0 160365.0 160365.0 160365.0 73696.0 73696.0 73696.0 73696.0
91867.0 83885.0 146169.0 140718.0 182408.0 182716.0 365307.0 357316.0 168610.0 163747.0 94680.0 97802.0 107819.0 100077.0 179921.0 171488.0 20468.0 28497.0 84949.0 88751.0 71391.0 65513.0 161395.0 159115.0 0.0 8540.0 120894.0 126498.0 82516.0 75969.0 27594.0 27054.0 355759.0 362408.0 72280.0 65444.0 90617.0 97305.0 38733.0 46344.0 117246.0 110967.0 100071.0 95147.0 234548.0 227158.0 295058.0 287645.0 124766.0 126547.0 99953.0 93577.0 334382.0 341301.0 97095.0 102686.0 268473.0 260722.0 43080.0 49438.0 34757.0 32111.0 128959.0 123298.0 361582.0 361205.0 115490.0 108189.0 77077.0 72700.0 120296.0 117481.0 134645.0 128594.0 7946.0 12001.0 264519.0 268413.0 11804.0 10427.0 124268.0 131218.0 151913.0 147035.0 161333.0 157104.0 324986.0 318556.0 238776.0 231361.0 101896.0 103361.0 373979.0 370747.0 137236.0 143668.0 75234.0 76955.0 196844.0 201311.0 149169.0 152413.0 90265.0 94739.0 179372.0 175184.0 129183.0 122370.0 32474.0 28944.0 291585.0 298228.0 203250.0 203206.0 330633.0 322483.0 147454.0 139799.0 112547.0 104866.0 73056.0 81000.0 143464.0 150120.0 214325.0 220911.0 133460.0 129623.0 86456.0 80958.0 66979.0 58904.0 105967.0 107569.0 78635.0 73432.0 136866.0 129125.0 136561.0 132355.0 289382.0 296837.0 204109.0 205207.0 69662.0 63855.0 120421.0 128531.0 25962.0 20386.0 141133.0 136137.0 100349.0 100918.0 114101.0 107326.0 46408.0 38994.0 132531.0 134310.0 80194.0 84851.0 105988.0 98117.0 45435.0 43832.0 145570.0 145074.0 148345.0 140620.0 78079.0 84941.0 159129.0 160049.0 247436.0 245393.0 155142.0 159796.0 355918.0 347740.0 104587.0 97164.0 332090.0 334657.0 59633.0 60697.0 105187.0 106635.0 42334.0 34516.0 98401.0 105230.0 127194.0 134216.0 116577.0 118938.0 113264.0 107839.0 149628.0 154407.0 177758.0 217268.0 177758.0 177758.0 177758.0 177758.0 217268.0 217268.0 217268.0 217268.0
98104.0 90223.0 137631.0 132179.0 176205.0 176780.0 361246.0 353271.0 160216.0 155425.0 88870.0 92510.0 100089.0 92243.0 176114.0 167697.0 19156.0 26320.0 78161.0 82397.0 64349.0 58936.0 156604.0 154672.0 8540.0 0.0 114468.0 119811.0 76152.0 69288.0 36112.0 35126.0 350650.0 357385.0 75277.0 68958.0 82458.0 89286.0 35153.0 42271.0 110437.0 103940.0 91934.0 86847.0 230415.0 223128.0 291276.0 283950.0 119574.0 120909.0 92958.0 86862.0 329741.0 336746.0 89034.0 94804.0 264741.0 256993.0 44241.0 51437.0 29270.0 25187.0 133240.0 127928.0 356821.0 356289.0 111035.0 103454.0 69406.0 64724.0 126982.0 124486.0 126947.0 121055.0 867.0 8532.0 258865.0 262932.0 3281.0 7406.0 117772.0 124892.0 143468.0 138654.0 153057.0 148918.0 320413.0 314091.0 235002.0 227692.0 93502.0 94867.0 369290.0 366201.0 139906.0 146072.0 66863.0 68450.0 190655.0 195329.0 141531.0 144588.0 81911.0 86274.0 173515.0 169413.0 121821.0 115182.0 36330.0 31137.0 286668.0 293203.0 199192.0 199452.0 325527.0 317366.0 143281.0 135515.0 105475.0 97684.0 64907.0 72833.0 136597.0 143346.0 208381.0 215095.0 128507.0 124279.0 80525.0 74591.0 62715.0 54590.0 113140.0 114388.0 70760.0 65308.0 132305.0 124451.0 128306.0 123994.0 285550.0 292922.0 199242.0 200620.0 62327.0 56175.0 115499.0 123738.0 18387.0 12006.0 146543.0 141844.0 105878.0 105925.0 106520.0 99598.0 53423.0 46438.0 125862.0 127329.0 71708.0 76475.0 109749.0 101898.0 37153.0 36129.0 137065.0 136626.0 140155.0 132462.0 77651.0 84957.0 151551.0 152267.0 243351.0 241532.0 146722.0 151327.0 351927.0 343730.0 96798.0 89542.0 327419.0 329835.0 51850.0 52477.0 99317.0 101255.0 46255.0 38799.0 93245.0 100403.0 118688.0 125689.0 108350.0 110571.0 104779.0 99312.0 142311.0 147279.0 169228.0 211139.0 169228.0 169228.0 169228.0 169228.0 211139.0 211139.0 211139.0 211139.0
158413.0 154339.0 96663.0 88779.0 61892.0 63244.0 256313.0 248558.0 130180.0 131631.0 28052.0 29715.0 121732.0 115738.0 82350.0 75611.0 103513.0 96341.0 36734.0 32145.0 120275.0 123917.0 54119.0 56887.0 120894.0 114468.0 0.0 7938.0 38378.0 45279.0 144332.0 146860.0 239746.0 246598.0 114751.0 117337.0 52246.0 45442.0 85360.0 77731.0 9096.0 16448.0 106632.0 98851.0 128190.0 122282.0 189892.0 183548.0 24129.0 16859.0 24149.0 28009.0 221249.0 228724.0 46780.0 39567.0 164689.0 157292.0 100550.0 104345.0 86290.0 89291.0 158375.0 159122.0 247377.0 245990.0 35100.0 31671.0 111946.0 104840.0 185326.0 187962.0 137235.0 137774.0 115335.0 120477.0 145771.0 150517.0 111816.0 110506.0 3661.0 10596.0 114847.0 116927.0 132540.0 134249.0 212462.0 206946.0 135961.0 130141.0 59948.0 68003.0 260160.0 257956.0 142523.0 143183.0 66183.0 72671.0 76335.0 81475.0 148339.0 144921.0 59795.0 65544.0 60376.0 56816.0 142392.0 142025.0 114198.0 107888.0 176975.0 182815.0 99787.0 103326.0 214629.0 206462.0 52319.0 45894.0 138531.0 132259.0 61226.0 57024.0 24737.0 30262.0 94573.0 101673.0 31769.0 23352.0 35202.0 39936.0 144860.0 139776.0 181461.0 177470.0 108129.0 101361.0 39914.0 34401.0 118193.0 110003.0 183906.0 190378.0 92079.0 95857.0 54111.0 61851.0 27900.0 32207.0 96378.0 104030.0 182809.0 183259.0 155306.0 149308.0 28320.0 33833.0 138537.0 137941.0 12758.0 18511.0 70180.0 62459.0 137403.0 133371.0 100037.0 108204.0 104332.0 110399.0 128371.0 125072.0 84642.0 88999.0 156982.0 151596.0 140984.0 141305.0 119095.0 117533.0 247633.0 239417.0 36352.0 35783.0 218769.0 220256.0 66367.0 70887.0 18553.0 23289.0 115415.0 116389.0 30708.0 31289.0 94773.0 94011.0 109413.0 103268.0 92019.0 84533.0 157012.0 164820.0 112043.0 96878.0 112043.0 112043.0 112043.0 112043.0 96878.0 96878.0 96878.0 96878.0
166209.0 162062.0 91759.0 83989.0 57607.0 59852.0 254696.0 247007.0 125150.0 126997.0 35255.0 37514.0 120722.0 115126.0 84484.0 78254.0 109639.0 102655.0 41660.0 38101.0 121791.0 125885.0 55495.0 59248.0 126498.0 119811.0 7938.0 0.0 44218.0 50547.0 150492.0 152749.0 236842.0 243695.0 122557.0 125036.0 52832.0 45391.0 91768.0 84250.0 9723.0 17487.0 105802.0 98270.0 127848.0 122294.0 189225.0 183098.0 30089.0 21982.0 27504.0 32950.0 218925.0 226497.0 46665.0 38938.0 164432.0 157158.0 107708.0 111721.0 92112.0 94635.0 166263.0 167044.0 244737.0 243113.0 42357.0 39449.0 112939.0 106084.0 193211.0 195804.0 134872.0 135854.0 120676.0 125509.0 142094.0 147153.0 117064.0 116164.0 4795.0 9541.0 110298.0 112829.0 128113.0 130191.0 210302.0 205002.0 136155.0 130673.0 58575.0 66386.0 257577.0 255601.0 150178.0 150716.0 68017.0 73961.0 71927.0 77605.0 145448.0 141660.0 59989.0 64976.0 57344.0 54230.0 140616.0 140703.0 121080.0 114598.0 174474.0 180081.0 100443.0 104532.0 211725.0 203558.0 56264.0 50515.0 137752.0 131792.0 63774.0 58749.0 17487.0 23688.0 90654.0 98001.0 36378.0 28122.0 41863.0 45753.0 147280.0 142534.0 189225.0 185292.0 108960.0 102536.0 44550.0 40002.0 114928.0 106740.0 183224.0 189487.0 91022.0 95386.0 58432.0 65885.0 34638.0 37802.0 101567.0 109069.0 190727.0 191194.0 163200.0 157226.0 25859.0 32666.0 145635.0 144817.0 6057.0 10574.0 71201.0 63254.0 145338.0 141306.0 103328.0 111478.0 99807.0 106171.0 124669.0 121786.0 92534.0 96933.0 153813.0 148120.0 140481.0 141220.0 114500.0 112534.0 246168.0 237974.0 35595.0 36902.0 216412.0 217646.0 70455.0 74248.0 26255.0 31225.0 122603.0 123339.0 38573.0 39180.0 91378.0 89989.0 107363.0 100840.0 89754.0 82605.0 154477.0 162323.0 105770.0 92464.0 105770.0 105770.0 105770.0 105770.0 92464.0 92464.0 92464.0 92464.0
129045.0 123841.0 99906.0 92130.0 100056.0 100814.0 289922.0 282044.0 131944.0 130978.0 14737.0 21783.0 103083.0 95627.0 108383.0 100396.0 65429.0 58548.0 6654.0 6245.0 91195.0 93105.0 84300.0 84174.0 82516.0 76152.0 38378.0 44218.0 0.0 8006.0 106281.0 108572.0 276028.0 282879.0 86533.0 87167.0 36035.0 35272.0 47795.0 40507.0 35391.0 30418.0 88106.0 79795.0 159761.0 153070.0 221579.0 214730.0 46640.0 45967.0 20035.0 12156.0 256420.0 263690.0 36265.0 35285.0 195552.0 187916.0 65784.0 71036.0 47951.0 51009.0 138742.0 137685.0 283052.0 282071.0 43732.0 35171.0 85229.0 77494.0 157750.0 159197.0 124209.0 122572.0 77020.0 82368.0 183176.0 187545.0 73555.0 72131.0 41766.0 48745.0 114664.0 114079.0 130652.0 130207.0 247353.0 241436.0 166017.0 159367.0 50752.0 58085.0 295707.0 293087.0 129201.0 131893.0 40189.0 48086.0 114508.0 119295.0 137474.0 136109.0 43067.0 51072.0 97659.0 93709.0 126313.0 123856.0 77931.0 71043.0 212627.0 218833.0 129433.0 131296.0 250911.0 242697.0 74900.0 66938.0 118067.0 110686.0 32901.0 33636.0 61508.0 67906.0 132373.0 139227.0 56394.0 50419.0 7256.0 1561.0 112125.0 106125.0 151282.0 148383.0 82267.0 74497.0 62226.0 54206.0 110790.0 103154.0 215676.0 222614.0 125904.0 128375.0 19251.0 27139.0 44401.0 52817.0 58192.0 65959.0 161198.0 160178.0 128476.0 123674.0 38861.0 35602.0 103066.0 101529.0 50194.0 52838.0 47232.0 42146.0 115320.0 109738.0 65685.0 73686.0 104771.0 108720.0 122685.0 117358.0 60543.0 67365.0 147221.0 143642.0 172762.0 172017.0 118913.0 119806.0 280926.0 272691.0 34696.0 26479.0 254011.0 255949.0 31084.0 37806.0 24118.0 28553.0 80619.0 80385.0 23517.0 31935.0 89936.0 92590.0 96470.0 92689.0 81700.0 73438.0 144048.0 151411.0 123436.0 135005.0 123436.0 123436.0 123436.0 123436.0 135005.0 135005.0 135005.0 135005.0
127709.0 122128.0 97813.0 90216.0 107153.0 108173.0 297880.0 290006.0 129113.0 127682.0 22732.0 29528.0 96768.0 89136.0 116349.0 108340.0 59751.0 53324.0 9070.0 13770.0 83476.0 85227.0 92286.0 92178.0 75969.0 69288.0 45279.0 50547.0 8006.0 0.0 100483.0 102374.0 283732.0 290585.0 86073.0 85967.0 32445.0 33472.0 42994.0 36255.0 41291.0 35352.0 81968.0 73675.0 167757.0 161074.0 229580.0 222735.0 54640.0 53805.0 24384.0 17608.0 264269.0 271558.0 34234.0 35054.0 203557.0 195921.0 62789.0 68724.0 41818.0 44102.0 140242.0 138722.0 290852.0 289818.0 51451.0 42877.0 77819.0 70048.0 156848.0 157892.0 118678.0 116680.0 70153.0 75198.0 190630.0 195099.0 66582.0 65663.0 48517.0 55794.0 111647.0 110544.0 127119.0 126265.0 255225.0 249337.0 174022.0 167366.0 47701.0 54460.0 303523.0 300944.0 132263.0 135356.0 33657.0 41577.0 121602.0 126579.0 132224.0 131233.0 38699.0 46755.0 105094.0 101223.0 120249.0 117470.0 73830.0 66591.0 220415.0 226576.0 137439.0 139286.0 258616.0 250387.0 82843.0 74871.0 111358.0 103853.0 26141.0 28213.0 67521.0 74151.0 139672.0 146618.0 64399.0 58372.0 14880.0 6700.0 104131.0 98119.0 149519.0 147023.0 74993.0 67141.0 70206.0 62176.0 106418.0 98989.0 223676.0 230607.0 133804.0 136337.0 11428.0 19190.0 52379.0 60806.0 51116.0 58751.0 162030.0 160614.0 128004.0 123621.0 41484.0 36812.0 99252.0 97150.0 56590.0 58489.0 41117.0 36923.0 116389.0 110430.0 57679.0 65683.0 102024.0 105488.0 118506.0 112852.0 62098.0 69430.0 142101.0 138867.0 180758.0 180022.0 115843.0 117213.0 288895.0 280661.0 35229.0 26675.0 261852.0 263742.0 23081.0 29943.0 32016.0 36545.0 77385.0 76434.0 31168.0 39608.0 86397.0 89688.0 91239.0 87964.0 77233.0 69012.0 138396.0 145645.0 122800.0 142135.0 122800.0 122800.0 122800.0 122800.0 142135.0 142135.0 142135.0 142135.0
76898.0 68870.0 173638.0 168266.0 204914.0 204542.0 381299.0 373283.0 195389.0 190263.0 117041.0 118919.0 132656.0 125259.0 196092.0 187703.0 40853.0 48073.0 109553.0 112397.0 94859.0 88005.0 180401.0 177226.0 27594.0 36112.0 144332.0 150492.0 106281.0 100483.0 0.0 8160.0 374779.0 381173.0 71470.0 63517.0 117772.0 124210.0 59153.0 66945.0 141584.0 135826.0 126134.0 121726.0 251233.0 243592.0 310458.0 302824.0 145212.0 148065.0 124828.0 117924.0 352126.0 358782.0 124073.0 129324.0 283841.0 276118.0 52157.0 54881.0 58698.0 58137.0 120518.0 113709.0 379601.0 379670.0 134240.0 127772.0 102030.0 98492.0 102427.0 98245.0 159232.0 152738.0 35462.0 36484.0 285277.0 288688.0 39388.0 36216.0 147839.0 154339.0 178907.0 173787.0 187695.0 183164.0 342561.0 335840.0 254417.0 246750.0 129391.0 130952.0 391770.0 388131.0 134319.0 141498.0 102715.0 104549.0 219247.0 223166.0 173508.0 177318.0 117715.0 122312.0 201014.0 196629.0 152801.0 145532.0 36526.0 39237.0 310231.0 317154.0 219924.0 219028.0 349823.0 341599.0 164982.0 157722.0 135472.0 128180.0 100233.0 108188.0 167773.0 174177.0 236025.0 242249.0 153194.0 150382.0 109230.0 104755.0 83725.0 76301.0 86211.0 89417.0 104104.0 99607.0 155548.0 148208.0 162887.0 159051.0 304948.0 312612.0 222995.0 223325.0 95494.0 90336.0 140257.0 147923.0 52891.0 47954.0 128083.0 122015.0 88027.0 90684.0 140110.0 133652.0 31984.0 23725.0 156444.0 158925.0 107781.0 112331.0 100271.0 92695.0 72234.0 69452.0 172827.0 172087.0 174433.0 166617.0 87509.0 92662.0 183241.0 184793.0 263911.0 261246.0 182031.0 186885.0 371732.0 363630.0 131043.0 123328.0 349924.0 352914.0 86313.0 88007.0 127520.0 127800.0 42977.0 36315.0 119189.0 125095.0 154465.0 161604.0 142862.0 145677.0 140450.0 135231.0 172984.0 177161.0 205338.0 239442.0 205338.0 205338.0 205338.0 205338.0 239442.0 239442.0 239442.0 239442.0
84889.0 76884.0 171387.0 166296.0 207944.0 207863.0 386655.0 378642.0 192048.0 186676.0 119996.0 122371.0 128099.0 120919.0 201270.0 192857.0 43622.0 51345.0 111416.0 114762.0 89906.0 82753.0 184722.0 181823.0 27054.0 35126.0 146860.0 152749.0 108572.0 102374.0 8160.0 0.0 379233.0 385713.0 79108.0 71208.0 117577.0 124338.0 62411.0 70254.0 143646.0 137582.0 122346.0 118369.0 256330.0 248752.0 315937.0 308354.0 148979.0 151435.0 126561.0 119944.0 356975.0 363711.0 124112.0 129740.0 289312.0 281576.0 58057.0 61489.0 60637.0 58974.0 128678.0 121866.0 384376.0 384306.0 138547.0 131791.0 97696.0 94668.0 110016.0 105619.0 154462.0 147778.0 34362.0 33588.0 289077.0 292670.0 38364.0 36891.0 150308.0 157033.0 175835.0 170453.0 183978.0 179218.0 347456.0 340818.0 259796.0 252187.0 128508.0 129565.0 396618.0 393100.0 142309.0 149449.0 101917.0 103140.0 222333.0 226490.0 168584.0 172668.0 116974.0 121112.0 204407.0 200097.0 147613.0 140185.0 42823.0 44441.0 314781.0 321616.0 224994.0 224326.0 354211.0 346009.0 169730.0 162340.0 130072.0 122960.0 100021.0 107952.0 169878.0 176425.0 239423.0 245798.0 157226.0 154046.0 111985.0 107026.0 77010.0 69807.0 93535.0 97009.0 100042.0 96038.0 159928.0 152445.0 159189.0 155692.0 310381.0 317995.0 227406.0 227978.0 96566.0 90893.0 144225.0 152058.0 53014.0 47125.0 136112.0 129977.0 96140.0 98842.0 141086.0 134361.0 40144.0 31873.0 158750.0 160848.0 106487.0 111517.0 108358.0 100758.0 69428.0 65831.0 170135.0 169050.0 170525.0 162660.0 93815.0 99303.0 178191.0 180044.0 269076.0 266575.0 178831.0 183923.0 377131.0 369006.0 131635.0 124171.0 354745.0 357605.0 86686.0 87602.0 130514.0 131260.0 50055.0 42992.0 122763.0 129011.0 151830.0 159174.0 139182.0 142394.0 137715.0 132868.0 167637.0 171577.0 203519.0 242642.0 203519.0 203519.0 203519.0 203519.0 242642.0 242642.0 242642.0 242642.0
355480.0 355825.0 302593.0 296859.0 180298.0 177025.0 53086.0 52321.0 331298.0 335948.0 262182.0 258141.0 350298.0 346449.0 180856.0 188892.0 336169.0 328183.0 275913.0 269975.0 358019.0 362530.0 194528.0 197574.0 355759.0 350650.0 239746.0 236842.0 276028.0 283732.0 374779.0 379233.0 0.0 8022.0 319479.0 326073.0 288817.0 280886.0 317315.0 309548.0 246459.0 254328.0 336741.0 330362.0 126844.0 134839.0 83884.0 91195.0 231080.0 230159.0 263782.0 267401.0 31096.0 30657.0 282022.0 274024.0 104152.0 110307.0 323680.0 323415.0 321407.0 326120.0 324789.0 330990.0 18761.0 11333.0 240689.0 247639.0 348478.0 342076.0 370649.0 377022.0 357711.0 360902.0 351507.0 357631.0 98138.0 91057.0 348413.0 345439.0 237138.0 229245.0 321451.0 326882.0 338517.0 343055.0 39872.0 47798.0 127821.0 135771.0 290742.0 297189.0 28460.0 32603.0 296224.0 290298.0 304759.0 310307.0 167031.0 160072.0 364779.0 358964.0 295271.0 298650.0 179525.0 182930.0 366147.0 368311.0 339457.0 335587.0 64683.0 57626.0 156887.0 159764.0 25228.0 33284.0 209956.0 217076.0 367697.0 363065.0 300591.0 295486.0 224007.0 216900.0 147591.0 139727.0 222302.0 226402.0 270634.0 277543.0 384108.0 379346.0 376808.0 369709.0 344264.0 338466.0 219305.0 226827.0 334027.0 326547.0 86327.0 78936.0 151827.0 151608.0 293553.0 301433.0 235343.0 227303.0 333512.0 341446.0 347760.0 353243.0 345139.0 337129.0 259615.0 267503.0 358460.0 361253.0 231189.0 233482.0 307308.0 299241.0 318823.0 320498.0 339782.0 347949.0 312314.0 320006.0 340323.0 340239.0 291860.0 289787.0 371042.0 363709.0 115679.0 120759.0 324880.0 320022.0 54703.0 53717.0 270738.0 273574.0 31693.0 25269.0 305889.0 310631.0 252020.0 249417.0 336316.0 340601.0 257429.0 250549.0 311980.0 307068.0 333345.0 325521.0 316072.0 310854.0 375416.0 383144.0 305958.0 149265.0 305958.0 305958.0 305958.0 305958.0 149265.0 149265.0 149265.0 149265.0
360769.0 361249.0 309446.0 303712.0 187151.0 183878.0 48255.0 48564.0 338151.0 342800.0 269042.0 264886.0 357151.0 353302.0 186716.0 194823.0 342742.0 334739.0 282753.0 276828.0 364872.0 369383.0 201076.0 203947.0 362408.0 357385.0 246598.0 243695.0 282879.0 290585.0 381173.0 385713.0 8022.0 0.0 325198.0 331870.0 295670.0 287739.0 323904.0 316153.0 253312.0 261181.0 343594.0 337215.0 132327.0 140309.0 86551.0 94124.0 237814.0 236999.0 270635.0 274229.0 33550.0 31136.0 288875.0 280876.0 108085.0 114526.0 329932.0 329538.0 328127.0 332929.0 329386.0 335693.0 13501.0 5638.0 247199.0 254242.0 355331.0 348929.0 375496.0 381954.0 364564.0 367755.0 358239.0 364424.0 104990.0 97910.0 355177.0 352108.0 243990.0 236097.0 328304.0 333735.0 345370.0 349908.0 43059.0 51003.0 132740.0 140729.0 297595.0 304042.0 20951.0 26016.0 300743.0 294704.0 311612.0 317159.0 173884.0 166925.0 371632.0 365816.0 302124.0 305503.0 186377.0 189783.0 373000.0 375164.0 345727.0 341959.0 70942.0 64184.0 162699.0 165308.0 32458.0 40238.0 216249.0 223451.0 374550.0 369918.0 307444.0 302339.0 230860.0 223753.0 154443.0 146580.0 228952.0 233193.0 277499.0 284393.0 390961.0 386199.0 381939.0 374777.0 351117.0 345319.0 225799.0 233380.0 340880.0 333400.0 89458.0 81813.0 158349.0 157880.0 300388.0 308258.0 241989.0 233899.0 340330.0 348276.0 352135.0 357730.0 350269.0 342249.0 266468.0 274355.0 364478.0 367384.0 238042.0 240335.0 314161.0 306094.0 323894.0 325715.0 346555.0 354722.0 319167.0 326859.0 347176.0 347092.0 297836.0 295616.0 377894.0 370562.0 120850.0 125641.0 331733.0 326875.0 51147.0 51322.0 277591.0 280427.0 34728.0 29390.0 312721.0 317484.0 258865.0 256192.0 342445.0 346829.0 264143.0 257179.0 318832.0 313920.0 340198.0 332374.0 322925.0 317707.0 382269.0 389997.0 312811.0 156118.0 312811.0 312811.0 312811.0 312811.0 156118.0 156118.0 156118.0 156118.0
43670.0 40154.0 182608.0 175321.0 165291.0 162412.0 319759.0 311768.0 212143.0 209510.0 88354.0 85046.0 164901.0 156582.0 138700.0 130839.0 57642.0 53964.0 92808.0 90348.0 134949.0 131286.0 131010.0 125627.0 72280.0 75277.0 114751.0 122557.0 86533.0 86073.0 71470.0 79108.0 319479.0 325198.0 0.0 8039.0 116924.0 119363.0 54625.0 55894.0 116671.0 114583.0 152960.0 145729.0 192957.0 185008.0 248656.0 240748.0 104006.0 110206.0 105787.0 97736.0 294240.0 300267.0 120008.0 121058.0 222378.0 214835.0 32716.0 24553.0 64443.0 71814.0 59648.0 55811.0 321983.0 323027.0 89347.0 86679.0 136487.0 129807.0 71331.0 73343.0 190903.0 186532.0 75592.0 83128.0 236271.0 238179.0 76280.0 68149.0 118329.0 121945.0 194501.0 192032.0 208244.0 206012.0 284442.0 277212.0 194015.0 186060.0 132150.0 137652.0 333545.0 329114.0 64975.0 71548.0 110202.0 116406.0 178369.0 180069.0 205534.0 206696.0 121408.0 128913.0 158459.0 153685.0 188533.0 183164.0 39880.0 44148.0 255006.0 262476.0 162602.0 159968.0 295263.0 286984.0 112858.0 107338.0 174362.0 166258.0 103677.0 109795.0 139229.0 143728.0 191768.0 196503.0 108608.0 109519.0 84356.0 85625.0 137945.0 129825.0 66812.0 62750.0 136206.0 128844.0 107522.0 102250.0 185139.0 178776.0 243507.0 251432.0 170836.0 169198.0 89780.0 90605.0 97786.0 102946.0 74480.0 78084.0 77729.0 75296.0 41968.0 37740.0 125153.0 122085.0 43323.0 49458.0 127327.0 132974.0 118024.0 117734.0 35210.0 27625.0 102900.0 106099.0 185640.0 187928.0 197570.0 190773.0 31032.0 30242.0 215791.0 214583.0 204904.0 201089.0 198489.0 200924.0 309968.0 302072.0 120942.0 112474.0 292257.0 296130.0 89480.0 96628.0 96314.0 92113.0 30315.0 38215.0 84070.0 85473.0 168539.0 173218.0 166861.0 166104.0 156949.0 149344.0 208771.0 214834.0 208797.0 196710.0 208797.0 208797.0 208797.0 208797.0 196710.0 196710.0 196710.0 196710.0
41879.0 37058.0 181297.0 174164.0 169662.0 167085.0 327017.0 319020.0 210170.0 207249.0 90298.0 87660.0 160948.0 152648.0 145222.0 137261.0 52028.0 49204.0 93221.0 91411.0 129925.0 125924.0 136437.0 131316.0 65444.0 68958.0 117337.0 125036.0 87167.0 85967.0 63517.0 71208.0 326073.0 331870.0 8039.0 0.0 115915.0 118877.0 51328.0 53668.0 118667.0 116065.0 149449.0 142429.0 199731.0 191804.0 255897.0 248012.0 108040.0 113856.0 106815.0 98737.0 301095.0 307195.0 119440.0 121017.0 229558.0 221987.0 28257.0 20038.0 60666.0 67621.0 64648.0 60035.0 328830.0 329770.0 93697.0 90408.0 132020.0 125557.0 70908.0 72035.0 187201.0 182581.0 69217.0 76581.0 242040.0 244127.0 70179.0 61999.0 120958.0 125006.0 192544.0 189769.0 205834.0 203340.0 291314.0 284133.0 201040.0 193106.0 130985.0 136119.0 340464.0 336115.0 72160.0 78927.0 108089.0 113940.0 182967.0 184950.0 201880.0 203329.0 119956.0 127259.0 163163.0 158411.0 184395.0 178797.0 32974.0 38031.0 261524.0 268943.0 169192.0 166766.0 301753.0 293472.0 118529.0 112717.0 169810.0 161727.0 101870.0 108348.0 141984.0 146772.0 196841.0 201775.0 113179.0 113578.0 85642.0 86146.0 131669.0 123543.0 64390.0 61216.0 131966.0 124785.0 112568.0 106941.0 182394.0 176254.0 250704.0 258608.0 176810.0 175412.0 88671.0 88788.0 101912.0 107505.0 69625.0 72621.0 80873.0 77705.0 42802.0 39976.0 126005.0 122467.0 35375.0 41420.0 130022.0 135327.0 115767.0 116016.0 40800.0 32965.0 98211.0 100936.0 183925.0 185898.0 194815.0 187864.0 35617.0 36314.0 212135.0 211214.0 211784.0 208095.0 196465.0 199182.0 317245.0 309322.0 121123.0 112591.0 299086.0 302866.0 87280.0 94033.0 98799.0 95153.0 23144.0 31042.0 86845.0 88956.0 166542.0 171534.0 163781.0 163396.0 154573.0 147142.0 204739.0 210633.0 208225.0 201614.0 208225.0 208225.0 208225.0 208225.0 201614.0 201614.0 201614.0 201614.0
157027.0 150864.0 65791.0 58407.0 108618.0 111922.0 307491.0 299818.0 96681.0 95269.0 46286.0 54484.0 70622.0 64061.0 133792.0 126573.0 79887.0 75685.0 29792.0 36829.0 69221.0 73842.0 106231.0 108386.0 90617.0 82458.0 52246.0 52832.0 36035.0 32445.0 117772.0 117577.0 288817.0 295670.0 116924.0 115915.0 0.0 8151.0 67628.0 62938.0 43853.0 35930.0 55380.0 47290.0 180330.0 174509.0 241905.0 235664.0 71872.0 67326.0 29955.0 32337.0 271395.0 279029.0 7295.0 15040.0 216869.0 209501.0 90315.0 97308.0 62114.0 60115.0 172426.0 170647.0 296908.0 295089.0 74821.0 66896.0 60113.0 53360.0 186654.0 187061.0 89381.0 88535.0 83235.0 85580.0 193105.0 198632.0 79240.0 81578.0 53789.0 61638.0 79203.0 78204.0 94786.0 94188.0 262887.0 257701.0 188207.0 182364.0 15349.0 22107.0 309793.0 308020.0 164656.0 167623.0 17385.0 21545.0 122399.0 128871.0 102144.0 100377.0 7877.0 15333.0 109733.0 106888.0 92698.0 91304.0 98324.0 90441.0 226851.0 232238.0 152004.0 155351.0 263700.0 255533.0 101887.0 94456.0 86939.0 80340.0 17561.0 9627.0 64955.0 72132.0 141677.0 149331.0 81368.0 73490.0 42375.0 36002.0 95864.0 91922.0 177939.0 176167.0 56131.0 49782.0 88839.0 81584.0 74800.0 67123.0 235910.0 242252.0 143797.0 147926.0 27245.0 28706.0 72288.0 79678.0 64882.0 70479.0 193769.0 192019.0 158540.0 154658.0 29453.0 21464.0 123703.0 119998.0 58035.0 55370.0 18495.0 10452.0 148379.0 142185.0 55523.0 63216.0 69625.0 73056.0 86653.0 81414.0 94440.0 101856.0 111706.0 107822.0 193065.0 193520.0 83398.0 84849.0 298991.0 290800.0 18189.0 16529.0 268858.0 269873.0 31981.0 30008.0 50209.0 57733.0 103899.0 101229.0 56498.0 64086.0 54043.0 57263.0 61324.0 56945.0 45806.0 37551.0 109345.0 116901.0 92538.0 142547.0 92538.0 92538.0 92538.0 92538.0 142547.0 142547.0 142547.0 142547.0
160366.0 154459.0 64669.0 56945.0 100639.0 104075.0 299859.0 292208.0 96734.0 96016.0 43232.0 51315.0 76449.0 70307.0 127536.0 120506.0 85549.0 80836.0 28652.0 34663.0 77135.0 81898.0 99560.0 102074.0 97305.0 89286.0 45442.0 45391.0 35272.0 33472.0 124210.0 124338.0 280886.0 287739.0 119363.0 118877.0 8151.0 0.0 72134.0 66817.0 36752.0 28996.0 61281.0 53425.0 173160.0 167466.0 234611.0 228451.0 66253.0 61124.0 24789.0 28938.0 263577.0 271232.0 1363.0 6914.0 209730.0 202409.0 94191.0 100830.0 67486.0 66212.0 173565.0 172164.0 289005.0 287158.0 70548.0 63001.0 67785.0 61200.0 189773.0 190501.0 93659.0 93401.0 90081.0 92780.0 185067.0 190639.0 86106.0 87998.0 46694.0 54423.0 79555.0 79378.0 95891.0 95921.0 255115.0 249988.0 181238.0 175528.0 16374.0 24429.0 301899.0 300181.0 164464.0 167073.0 25430.0 29626.0 114360.0 120892.0 105855.0 103518.0 14606.0 20211.0 101960.0 99212.0 97788.0 96924.0 103155.0 95383.0 219013.0 224343.0 145189.0 148761.0 255770.0 247602.0 96176.0 88943.0 93126.0 86818.0 24605.0 17012.0 56942.0 64106.0 133664.0 141343.0 75511.0 67434.0 40737.0 35592.0 103979.0 100071.0 181704.0 179609.0 63709.0 57599.0 83200.0 76223.0 77362.0 69421.0 228611.0 234877.0 136413.0 140716.0 30977.0 34146.0 67227.0 74235.0 71412.0 77369.0 195498.0 194072.0 161219.0 156996.0 21366.0 13402.0 128664.0 125348.0 50398.0 47405.0 26468.0 18392.0 149819.0 143900.0 63496.0 71253.0 69559.0 73765.0 88803.0 84128.0 95333.0 102425.0 115145.0 110757.0 185836.0 186445.0 83827.0 84547.0 291409.0 283227.0 10149.0 10915.0 261033.0 261987.0 37933.0 37127.0 45596.0 53431.0 108180.0 105997.0 53345.0 60404.0 55393.0 57467.0 65539.0 60371.0 49023.0 40954.0 113624.0 121299.0 89435.0 134468.0 89435.0 89435.0 89435.0 89435.0 134468.0 134468.0 134468.0 134468.0
90517.0 83892.0 131534.0 124747.0 145769.0 145505.0 326592.0 318604.0 159351.0 156170.0 57895.0 59962.0 110358.0 102036.0 141254.0 132825.0 18881.0 11099.0 51901.0 53735.0 82275.0 79803.0 122833.0 120413.0 38733.0 35153.0 85360.0 91768.0 47795.0 42994.0 59153.0 62411.0 317315.0 323904.0 54625.0 51328.0 67628.0 72134.0 0.0 7844.0 83168.0 78010.0 98345.0 91183.0 195820.0 188442.0 256414.0 249036.0 86626.0 89048.0 67206.0 59789.0 295703.0 302599.0 72405.0 75787.0 229846.0 222096.0 23531.0 31411.0 10336.0 18434.0 114036.0 110436.0 322942.0 322639.0 76816.0 69676.0 82549.0 75586.0 120434.0 120196.0 136280.0 131975.0 35929.0 43350.0 226693.0 230361.0 33864.0 28771.0 88909.0 95251.0 141774.0 138707.0 154655.0 152047.0 286290.0 279838.0 200130.0 192757.0 81982.0 86250.0 335312.0 332041.0 114505.0 119687.0 57481.0 62865.0 160115.0 164133.0 150909.0 152133.0 70452.0 77244.0 142023.0 137695.0 134088.0 128943.0 31152.0 23651.0 253034.0 259741.0 164528.0 164562.0 292227.0 284053.0 108721.0 101074.0 120411.0 112298.0 51905.0 59077.0 109179.0 115399.0 177042.0 183389.0 95054.0 91652.0 50175.0 46323.0 90959.0 83200.0 110629.0 109341.0 81951.0 74423.0 98213.0 90534.0 131087.0 125033.0 250721.0 258151.0 165562.0 166532.0 41194.0 39137.0 82021.0 90013.0 23636.0 30310.0 132057.0 129033.0 93853.0 91295.0 84259.0 78855.0 56706.0 54182.0 97648.0 100629.0 64906.0 66009.0 89411.0 82091.0 49815.0 54506.0 133487.0 135060.0 143503.0 136537.0 45826.0 53849.0 161167.0 160021.0 208713.0 206719.0 145614.0 148662.0 317217.0 309034.0 76756.0 68389.0 293421.0 296047.0 36822.0 42934.0 68368.0 68851.0 36298.0 33922.0 60362.0 66797.0 115786.0 121185.0 112466.0 112106.0 103472.0 96213.0 154244.0 160415.0 159981.0 180349.0 159981.0 159981.0 159981.0 159981.0 180349.0 180349.0 180349.0 180349.0
94179.0 87929.0 127802.0 120795.0 137969.0 137670.0 319110.0 311126.0 156517.0 153699.0 50143.0 52118.0 110439.0 102136.0 133868.0 125447.0 26706.0 18932.0 44976.0 46323.0 84581.0 82814.0 115096.0 112775.0 46344.0 42271.0 77731.0 84250.0 40507.0 36255.0 66945.0 70254.0 309548.0 316153.0 55894.0 53668.0 62938.0 66817.0 7844.0 0.0 75786.0 70866.0 97753.0 90267.0 188305.0 180966.0 249036.0 241693.0 78796.0 81209.0 60182.0 52598.0 288039.0 294959.0 67199.0 70002.0 222489.0 214740.0 27405.0 34453.0 14459.0 22276.0 114500.0 111422.0 315249.0 314910.0 69146.0 61912.0 83791.0 76518.0 123930.0 124151.0 135856.0 131950.0 43077.0 50243.0 218853.0 222534.0 40703.0 36217.0 81300.0 87548.0 138886.0 136217.0 152378.0 150119.0 278643.0 272221.0 192757.0 185429.0 77719.0 82547.0 327638.0 324405.0 112989.0 117775.0 54444.0 60513.0 152305.0 156299.0 150375.0 151178.0 66466.0 73641.0 134184.0 129853.0 134350.0 129597.0 37594.0 30540.0 245298.0 251984.0 157038.0 157199.0 284450.0 276282.0 101176.0 93483.0 121425.0 113335.0 48227.0 54903.0 101695.0 107839.0 169203.0 175545.0 87265.0 83812.0 42529.0 39074.0 95488.0 87919.0 115021.0 113259.0 82777.0 75005.0 90525.0 82807.0 129258.0 122886.0 243323.0 250721.0 157821.0 158864.0 35901.0 35164.0 74228.0 82255.0 28748.0 36135.0 133623.0 131040.0 96468.0 93311.0 77721.0 72671.0 62998.0 61061.0 90093.0 93262.0 62188.0 62387.0 89866.0 82839.0 52325.0 57879.0 130267.0 132254.0 141689.0 134941.0 42537.0 50760.0 160615.0 159058.0 201217.0 199309.0 142821.0 145518.0 309759.0 301569.0 70743.0 62269.0 285749.0 288338.0 33652.0 40755.0 60594.0 61008.0 41469.0 40180.0 52521.0 59008.0 112887.0 117884.0 111144.0 110220.0 101084.0 93549.0 154267.0 160673.0 155476.0 172526.0 155476.0 155476.0 155476.0 155476.0 172526.0 172526.0 172526.0 172526.0
160189.0 155722.0 88127.0 80200.0 67330.0 69511.0 263955.0 256240.0 121667.0 122929.0 28372.0 32365.0 112837.0 106950.0 91370.0 84686.0 100751.0 93938.0 32300.0 29463.0 112483.0 116427.0 62953.0 65920.0 117246.0 110437.0 9096.0 9723.0 35391.0 41291.0 141584.0 143646.0 246459.0 253312.0 116671.0 118667.0 43853.0 36752.0 83168.0 75786.0 0.0 7988.0 97776.0 90063.0 136488.0 130730.0 198055.0 191814.0 32741.0 25870.0 17813.0 23702.0 228411.0 235956.0 38070.0 30666.0 173038.0 165693.0 100042.0 104473.0 83036.0 85287.0 162753.0 163086.0 254306.0 252731.0 42227.0 37483.0 103843.0 96875.0 187741.0 190014.0 128143.0 128717.0 111299.0 116008.0 151806.0 156837.0 107650.0 106953.0 9949.0 17798.0 106124.0 108046.0 123757.0 125347.0 219740.0 214370.0 144488.0 138789.0 50932.0 58959.0 267134.0 265099.0 148119.0 149153.0 58556.0 64702.0 81644.0 87321.0 139248.0 135861.0 51243.0 56726.0 66937.0 63712.0 133354.0 133065.0 112961.0 106271.0 184000.0 189663.0 108461.0 112166.0 221342.0 213175.0 61382.0 54854.0 129704.0 123526.0 54132.0 49307.0 26233.0 32911.0 100373.0 107708.0 40777.0 32372.0 33917.0 36889.0 137708.0 132892.0 183029.0 179392.0 99937.0 93353.0 48887.0 43079.0 109139.0 100950.0 192060.0 198427.0 99995.0 104074.0 48804.0 56199.0 35857.0 40906.0 92144.0 99582.0 186817.0 186907.0 157846.0 152160.0 19278.0 24796.0 137798.0 136652.0 15698.0 17477.0 62052.0 54196.0 141106.0 136667.0 93615.0 101767.0 95611.0 101564.0 119385.0 116018.0 87342.0 92359.0 147910.0 142562.0 149212.0 149721.0 110388.0 109017.0 255367.0 247163.0 27406.0 27609.0 225907.0 227205.0 60772.0 64528.0 21239.0 28011.0 114955.0 115309.0 33800.0 36415.0 85746.0 85127.0 100338.0 94173.0 82928.0 75463.0 147917.0 155725.0 104539.0 102177.0 104539.0 104539.0 104539.0 104539.0 102177.0 102177.0 102177.0 102177.0
157826.0 153038.0 83522.0 75534.0 74940.0 77336.0 271941.0 264228.0 117013.0 117842.0 26692.0 32432.0 105312.0 99290.0 98700.0 91831.0 95100.0 88567.0 26285.0 25050.0 104497.0 108464.0 70567.0 73228.0 110967.0 103940.0 16448.0 17487.0 30418.0 35352.0 135826.0 137582.0 254328.0 261181.0 114583.0 116065.0 35930.0 28996.0 78010.0 70866.0 7988.0 0.0 90196.0 82403.0 144401.0 138593.0 206003.0 199739.0 38593.0 32553.0 11022.0 18274.0 236358.0 243912.0 30333.0 23194.0 180939.0 173576.0 96044.0 100953.0 77139.0 78891.0 162774.0 162703.0 262212.0 260599.0 46076.0 40153.0 95869.0 88889.0 185876.0 187827.0 121251.0 121581.0 104798.0 109245.0 159509.0 164619.0 101081.0 100760.0 17871.0 25772.0 101020.0 102494.0 118459.0 119699.0 227701.0 222346.0 152318.0 146553.0 43700.0 51818.0 275048.0 273041.0 149430.0 150869.0 50591.0 56715.0 89182.0 95015.0 132667.0 129544.0 43395.0 49103.0 74824.0 71653.0 126142.0 125650.0 108345.0 101404.0 191929.0 197560.0 116207.0 119773.0 229212.0 221044.0 68009.0 61145.0 122087.0 115814.0 46294.0 41334.0 32820.0 39792.0 108040.0 115436.0 47290.0 38998.0 30448.0 31809.0 129800.0 125051.0 180439.0 177113.0 91977.0 85370.0 55247.0 48880.0 102886.0 94722.0 200009.0 206393.0 107971.0 112004.0 41852.0 48990.0 40796.0 46767.0 85580.0 92869.0 186426.0 186171.0 156158.0 150767.0 14001.0 17781.0 133471.0 131920.0 23263.0 23398.0 54076.0 46241.0 140536.0 135731.0 85949.0 94087.0 90540.0 96163.0 113448.0 109762.0 86134.0 91713.0 141507.0 136393.0 157144.0 157598.0 105312.0 104386.0 263355.0 255151.0 20049.0 19625.0 233850.0 235117.0 53569.0 56939.0 22424.0 30201.0 110921.0 110802.0 34169.0 38485.0 79686.0 79624.0 93312.0 87385.0 76071.0 68432.0 141102.0 148879.0 101763.0 109679.0 101763.0 101763.0 101763.0 101763.0 109679.0 109679.0 109679.0 109679.0
186264.0 178880.0 56691.0 55079.0 157177.0 161807.0 358024.0 350527.0 70138.0 64386.0 100588.0 108707.0 15243.0 9712.0 188816.0 181755.0 100730.0 100974.0 82931.0 90597.0 36668.0 44792.0 160723.0 163354.0 100071.0 91934.0 106632.0 105802.0 88106.0 81968.0 126134.0 122346.0 336741.0 343594.0 152960.0 149449.0 55380.0 61281.0 98345.0 97753.0 97776.0 90196.0 0.0 8311.0 233467.0 228064.0 294447.0 288547.0 127224.0 122387.0 85322.0 87260.0 320441.0 328262.0 59926.0 67110.0 270050.0 262850.0 121229.0 129412.0 88784.0 82135.0 212165.0 208765.0 344912.0 343013.0 129788.0 121626.0 25859.0 27681.0 216053.0 214544.0 38122.0 34918.0 92330.0 89695.0 240124.0 245980.0 88983.0 95539.0 107643.0 115147.0 55050.0 48742.0 61632.0 57063.0 312399.0 307747.0 241951.0 236449.0 47332.0 39973.0 357864.0 356733.0 209735.0 213864.0 48370.0 40506.0 169806.0 177095.0 52628.0 53932.0 47510.0 41095.0 160239.0 158075.0 38285.0 35992.0 122472.0 114829.0 275867.0 280610.0 206168.0 209938.0 311625.0 303458.0 157230.0 149832.0 31951.0 26387.0 55965.0 54594.0 114292.0 121035.0 189216.0 197149.0 136650.0 128659.0 95202.0 87539.0 64939.0 65821.0 203729.0 204019.0 22592.0 26639.0 144195.0 136964.0 36852.0 34136.0 288443.0 294430.0 196215.0 201006.0 71841.0 66820.0 127637.0 135056.0 81794.0 82123.0 230311.0 227014.0 191373.0 189388.0 80131.0 73172.0 144407.0 138058.0 110178.0 105586.0 40899.0 46520.0 187516.0 180335.0 54856.0 56682.0 51870.0 48634.0 48315.0 40552.0 138092.0 146229.0 62876.0 61806.0 245964.0 246947.0 57462.0 63468.0 349891.0 341776.0 70389.0 71658.0 317839.0 318181.0 66016.0 57825.0 105483.0 112825.0 131011.0 125471.0 110663.0 118656.0 35870.0 44211.0 16906.0 21829.0 23734.0 26252.0 57056.0 63989.0 89809.0 189257.0 89809.0 89809.0 89809.0 89809.0 189257.0 189257.0 189257.0 189257.0
179821.0 172538.0 56444.0 53685.0 150500.0 154927.0 351204.0 343670.0 73694.0 68604.0 92306.0 100418.0 23447.0 16888.0 180915.0 173792.0 94518.0 94326.0 74630.0 82303.0 36621.0 44431.0 152968.0 155466.0 95147.0 86847.0 98851.0 98270.0 79795.0 73675.0 121726.0 118369.0 330362.0 337215.0 145729.0 142429.0 47290.0 53425.0 91183.0 90267.0 90063.0 82403.0 8311.0 0.0 226062.0 220564.0 287195.0 281219.0 119161.0 114454.0 77244.0 79032.0 313887.0 321678.0 52079.0 59430.0 262650.0 255410.0 114274.0 122410.0 81825.0 75463.0 204757.0 201500.0 338563.0 336634.0 121542.0 113359.0 25081.0 24465.0 209685.0 208380.0 45908.0 43104.0 87299.0 85248.0 233752.0 239580.0 83797.0 89990.0 99965.0 107548.0 57609.0 52092.0 66214.0 62310.0 305754.0 300998.0 234413.0 228827.0 40095.0 33181.0 351509.0 350259.0 201877.0 205924.0 40105.0 32267.0 163347.0 170522.0 60223.0 60967.0 39439.0 33341.0 153252.0 150968.0 46574.0 44242.0 116183.0 108437.0 269289.0 274151.0 198516.0 202177.0 305245.0 297078.0 149175.0 141738.0 39712.0 33525.0 47707.0 46290.0 107335.0 114174.0 182781.0 190683.0 128633.0 120691.0 86892.0 79230.0 65921.0 65777.0 197721.0 197784.0 20944.0 22454.0 136129.0 128848.0 41508.0 37338.0 281191.0 287255.0 188932.0 193594.0 63613.0 58744.0 119482.0 126956.0 75620.0 76541.0 223236.0 220086.0 184577.0 182400.0 72750.0 65604.0 138675.0 132578.0 102791.0 98459.0 32592.0 38263.0 180115.0 173004.0 49713.0 52549.0 52973.0 50905.0 53560.0 46082.0 130214.0 138323.0 70430.0 68855.0 238616.0 239483.0 60482.0 65845.0 342996.0 334862.0 62739.0 63659.0 311295.0 311760.0 58104.0 50010.0 97303.0 104601.0 124495.0 119200.0 102370.0 110379.0 35541.0 43742.0 21742.0 24033.0 21804.0 21648.0 65128.0 72160.0 88942.0 182886.0 88942.0 88942.0 88942.0 88942.0 182886.0 182886.0 182886.0 182886.0
228667.0 228982.0 208615.0 202097.0 82126.0 75235.0 130837.0 122870.0 238759.0 243071.0 145128.0 139483.0 248213.0 242883.0 55180.0 63539.0 214353.0 206266.0 161202.0 154236.0 248236.0 251439.0 75511.0 76024.0 234548.0 230415.0 128190.0 127848.0 159761.0 167757.0 251233.0 256330.0 126844.0 132327.0 192957.0 199731.0 180330.0 173160.0 195820.0 188305.0 136488.0 144401.0 233467.0 226062.0 0.0 7996.0 61891.0 55362.0 113124.0 114746.0 151859.0 153455.0 101430.0 107758.0 174455.0 166785.0 36588.0 29453.0 199364.0 198346.0 201316.0 207061.0 199675.0 205448.0 129139.0 130072.0 119459.0 127351.0 240128.0 232968.0 244569.0 250725.0 260032.0 261992.0 231242.0 238025.0 61164.0 57972.0 228547.0 224520.0 126544.0 118742.0 227808.0 232474.0 245337.0 249274.0 91700.0 84728.0 12001.0 14422.0 186136.0 193683.0 140943.0 136986.0 171603.0 166291.0 194150.0 200832.0 75254.0 67280.0 268911.0 263875.0 187711.0 192813.0 75497.0 76519.0 266985.0 267782.0 215193.0 212049.0 63223.0 71069.0 31341.0 32994.0 103285.0 95087.0 87137.0 94914.0 265378.0 259586.0 188654.0 185096.0 120192.0 114135.0 62146.0 56622.0 103429.0 109542.0 153426.0 161151.0 271556.0 265807.0 250144.0 243148.0 236318.0 229514.0 98453.0 106475.0 237834.0 229901.0 55953.0 62869.0 37782.0 32468.0 178620.0 186639.0 115959.0 107494.0 214491.0 222474.0 223525.0 228476.0 218495.0 210502.0 153342.0 160494.0 232827.0 236138.0 123291.0 128188.0 198370.0 190621.0 192297.0 193754.0 225396.0 233434.0 218090.0 225534.0 245596.0 244425.0 166172.0 163564.0 276117.0 269310.0 13010.0 13949.0 231501.0 227217.0 121574.0 113360.0 163443.0 163949.0 99379.0 103180.0 190782.0 196845.0 135921.0 131443.0 211245.0 216074.0 138349.0 130535.0 214651.0 211116.0 233565.0 226391.0 215833.0 209335.0 278906.0 286763.0 213451.0 68145.0 213451.0 213451.0 213451.0 213451.0 68145.0 68145.0 68145.0 68145.0
220673.0 220989.0 204737.0 198064.0 78999.0 71755.0 138150.0 130163.0 235338.0 239436.0 138393.0 132571.0 242902.0 237417.0 47500.0 55899.0 206919.0 198830.0 154697.0 147631.0 242054.0 245105.0 69021.0 69063.0 227158.0 223128.0 122282.0 122294.0 153070.0 161074.0 243592.0 248752.0 134839.0 140309.0 185008.0 191804.0 174509.0 167466.0 188442.0 180966.0 130730.0 138593.0 228064.0 220564.0 7996.0 0.0 68544.0 61675.0 106441.0 108408.0 145749.0 147079.0 109315.0 115574.0 168775.0 161186.0 42561.0 35043.0 191670.0 190568.0 194084.0 199930.0 191841.0 197569.0 137038.0 138031.0 112286.0 120276.0 234125.0 226897.0 236634.0 242771.0 255314.0 257083.0 223953.0 230795.0 67063.0 64480.0 221301.0 217170.0 120781.0 113063.0 223966.0 228431.0 241596.0 245351.0 99564.0 92526.0 14091.0 11601.0 180761.0 188406.0 148788.0 144746.0 163834.0 158592.0 188019.0 194812.0 73407.0 65669.0 264484.0 259613.0 181971.0 187258.0 71629.0 72212.0 262028.0 262632.0 207496.0 204433.0 71170.0 78996.0 23940.0 25041.0 111265.0 103062.0 79868.0 87712.0 260004.0 254085.0 182384.0 179024.0 115438.0 109611.0 62063.0 57363.0 96681.0 103039.0 146639.0 154440.0 265027.0 259180.0 242160.0 235171.0 230371.0 223470.0 91438.0 99489.0 233417.0 225430.0 62682.0 69855.0 33908.0 27481.0 172026.0 180037.0 109060.0 100581.0 207352.0 215328.0 215766.0 220664.0 210513.0 202521.0 147948.0 154960.0 224975.0 228340.0 117932.0 123137.0 192423.0 184741.0 184326.0 185764.0 218748.0 226755.0 214127.0 221494.0 241451.0 240062.0 158334.0 155658.0 271869.0 265194.0 20324.0 19050.0 227726.0 223641.0 128799.0 120605.0 157856.0 158065.0 107286.0 111144.0 184132.0 190332.0 129355.0 124654.0 203461.0 208348.0 131388.0 123484.0 210118.0 206825.0 228607.0 221547.0 210872.0 204227.0 274342.0 282208.0 210164.0 68493.0 210164.0 210164.0 210164.0 210164.0 68493.0 68493.0 68493.0 68493.0
280860.0 282204.0 266234.0 260183.0 139615.0 133717.0 71127.0 63125.0 295123.0 299761.0 206917.0 201111.0 309022.0 303947.0 115168.0 123593.0 274715.0 266629.0 223087.0 216094.0 310056.0 313317.0 137386.0 137604.0 295058.0 291276.0 189892.0 189225.0 221579.0 229580.0 310458.0 315937.0 83884.0 86551.0 248656.0 255897.0 241905.0 234611.0 256414.0 249036.0 198055.0 206003.0 294447.0 287195.0 61891.0 68544.0 0.0 8065.0 174940.0 176634.0 213669.0 215344.0 53055.0 56317.0 235889.0 228136.0 26625.0 34366.0 258328.0 256595.0 262346.0 268324.0 246101.0 252833.0 78765.0 82508.0 180687.0 188753.0 301830.0 294724.0 293124.0 299957.0 319619.0 322001.0 292091.0 299039.0 79602.0 71737.0 289524.0 285181.0 188132.0 180267.0 285208.0 290427.0 302341.0 306805.0 44034.0 36180.0 56284.0 63761.0 247148.0 254528.0 88254.0 82487.0 217274.0 210824.0 255954.0 262563.0 129756.0 121650.0 327761.0 322301.0 249197.0 254068.0 134732.0 136503.0 327087.0 328269.0 274087.0 271505.0 45194.0 50118.0 92381.0 91854.0 67941.0 62160.0 148209.0 156113.0 326272.0 320687.0 250519.0 246869.0 180439.0 174012.0 112405.0 104859.0 165203.0 171423.0 215176.0 222957.0 333441.0 327663.0 300987.0 293510.0 297975.0 291253.0 159960.0 168017.0 296755.0 288989.0 6004.0 5370.0 98267.0 94037.0 240484.0 248501.0 177603.0 169124.0 275735.0 283700.0 267939.0 273914.0 269474.0 261454.0 214454.0 221775.0 290094.0 294062.0 184448.0 188882.0 260046.0 252244.0 242937.0 245607.0 287241.0 295263.0 275894.0 283514.0 303774.0 303189.0 223938.0 220394.0 334467.0 327315.0 48957.0 49785.0 288684.0 283822.0 61399.0 53428.0 224785.0 225596.0 52203.0 58849.0 252623.0 258730.0 197790.0 193191.0 269391.0 274734.0 199917.0 191976.0 273941.0 269832.0 293735.0 286341.0 276053.0 269855.0 338077.0 345893.0 269783.0 116178.0 269783.0 269783.0 269783.0 269783.0 116178.0 116178.0 116178.0 116178.0
272824.0 274191.0 261405.0 255227.0 134584.0 128441.0 79010.0 71022.0 290535.0 295192.0 200041.0 194118.0 303203.0 298009.0 107846.0 116256.0 267278.0 259196.0 216367.0 209306.0 303581.0 306727.0 130673.0 130639.0 287645.0 283950.0 183548.0 183098.0 214730.0 222735.0 302824.0 308354.0 91195.0 94124.0 240748.0 248012.0 235664.0 228451.0 249036.0 241693.0 191814.0 199739.0 288547.0 281219.0 55362.0 61675.0 8065.0 0.0 168109.0 170017.0 207213.0 208712.0 60579.0 64144.0 229740.0 222033.0 19238.0 26969.0 250680.0 248870.0 255079.0 261133.0 238045.0 244771.0 86631.0 90198.0 173532.0 181657.0 295489.0 288329.0 285059.0 291892.0 314258.0 316497.0 284762.0 291754.0 79023.0 71411.0 282231.0 277807.0 181875.0 174050.0 280451.0 285530.0 297696.0 302030.0 51331.0 43397.0 48986.0 56284.0 241222.0 248678.0 96259.0 90537.0 209220.0 202780.0 249503.0 256193.0 125257.0 117117.0 322633.0 317293.0 243017.0 248023.0 129278.0 130851.0 321552.0 322588.0 266424.0 263916.0 47802.0 53622.0 85358.0 84499.0 74217.0 67989.0 141041.0 148973.0 320418.0 314733.0 243967.0 240456.0 174773.0 168457.0 108441.0 101088.0 158336.0 164704.0 208262.0 216094.0 326701.0 320848.0 292930.0 285449.0 291674.0 284876.0 152933.0 161000.0 291591.0 283771.0 5370.0 12310.0 92352.0 87741.0 233700.0 241711.0 170633.0 162152.0 268533.0 276490.0 259915.0 265874.0 261421.0 253402.0 208470.0 215709.0 282270.0 286291.0 178430.0 183062.0 253728.0 245968.0 234884.0 237572.0 280412.0 288411.0 271026.0 278605.0 298825.0 298074.0 216185.0 212570.0 329486.0 322426.0 42617.0 42722.0 283984.0 279260.0 69235.0 61327.0 218687.0 219299.0 59589.0 66024.0 245798.0 252004.0 191029.0 186284.0 261649.0 267044.0 192891.0 184893.0 268653.0 264711.0 288164.0 280845.0 270457.0 264144.0 332856.0 340687.0 265195.0 112592.0 265195.0 265195.0 265195.0 265195.0 112592.0 112592.0 112592.0 112592.0
147193.0 144160.0 120770.0 112872.0 61822.0 60056.0 243424.0 235527.0 154296.0 155661.0 32019.0 27074.0 142457.0 135918.0 62577.0 54987.0 105502.0 97646.0 48452.0 41220.0 136481.0 139057.0 37719.0 37723.0 124766.0 119574.0 24129.0 30089.0 46640.0 54640.0 145212.0 148979.0 231080.0 237814.0 104006.0 108040.0 71872.0 66253.0 86626.0 78796.0 32741.0 38593.0 127224.0 119161.0 113124.0 106441.0 174940.0 168109.0 0.0 8448.0 41918.0 41384.0 210524.0 217674.0 67615.0 61308.0 148945.0 141325.0 96635.0 98600.0 90327.0 95199.0 140952.0 142631.0 237423.0 236758.0 15200.0 17989.0 129354.0 121855.0 172235.0 175727.0 159600.0 159620.0 120429.0 126645.0 140106.0 143739.0 117367.0 114410.0 25589.0 23314.0 138860.0 140752.0 156497.0 158032.0 201328.0 195244.0 119468.0 112940.0 81884.0 90064.0 249972.0 247113.0 122591.0 122483.0 83023.0 90341.0 75548.0 78514.0 171214.0 168137.0 79726.0 86389.0 56319.0 51753.0 164039.0 163067.0 111739.0 106650.0 167153.0 173636.0 82867.0 85057.0 205963.0 197796.0 30015.0 22698.0 158794.0 152073.0 76786.0 74489.0 40710.0 42786.0 91131.0 97110.0 9856.0 5542.0 40376.0 48027.0 158631.0 152739.0 170481.0 165656.0 125908.0 118577.0 16972.0 10343.0 141473.0 133305.0 169036.0 175983.0 79869.0 81903.0 65608.0 73610.0 6325.0 8189.0 102623.0 110596.0 166019.0 167285.0 142240.0 135564.0 51886.0 56337.0 134134.0 135011.0 31199.0 39149.0 88426.0 81353.0 121781.0 118786.0 112307.0 120323.0 128347.0 134294.0 151947.0 148350.0 72976.0 75410.0 180095.0 174971.0 126127.0 125406.0 143121.0 141648.0 234376.0 226143.0 58369.0 55603.0 208159.0 210384.0 77691.0 83996.0 23075.0 18501.0 110856.0 113441.0 26366.0 20250.0 118222.0 117836.0 131558.0 125853.0 114509.0 106733.0 179505.0 187251.0 135822.0 95068.0 135822.0 135822.0 135822.0 135822.0 95068.0 95068.0 95068.0 95068.0
153637.0 150323.0 113325.0 105477.0 57251.0 56477.0 244288.0 236445.0 146805.0 148391.0 32098.0 29153.0 137570.0 131303.0 66473.0 59384.0 107820.0 100141.0 46615.0 40051.0 133682.0 136710.0 39431.0 41062.0 126547.0 120909.0 16859.0 21982.0 45967.0 53805.0 148065.0 151435.0 230159.0 236999.0 110206.0 113856.0 67326.0 61124.0 89048.0 81209.0 25870.0 32553.0 122387.0 114454.0 114746.0 108408.0 176634.0 170017.0 8448.0 0.0 37685.0 38711.0 210465.0 217754.0 62483.0 55692.0 150966.0 143437.0 100798.0 103335.0 91848.0 96113.0 148817.0 150312.0 237087.0 236140.0 22901.0 23529.0 126020.0 118672.0 179186.0 182472.0 153785.0 154124.0 121772.0 127640.0 137987.0 142035.0 118537.0 116132.0 17702.0 14868.0 131623.0 133775.0 149346.0 151102.0 201422.0 195563.0 121787.0 115594.0 76242.0 84370.0 249740.0 247139.0 130857.0 130841.0 79746.0 86758.0 71388.0 75102.0 165059.0 161727.0 75085.0 81334.0 52975.0 48677.0 158662.0 158029.0 115531.0 110028.0 166667.0 172911.0 85279.0 88186.0 205042.0 196848.0 35535.0 29041.0 154164.0 147661.0 73979.0 70892.0 32395.0 34878.0 87993.0 94404.0 14913.0 6503.0 40534.0 47460.0 156885.0 151301.0 176901.0 172283.0 122402.0 115298.0 23057.0 18022.0 135007.0 126819.0 170685.0 177428.0 80042.0 82873.0 64211.0 72221.0 14134.0 15823.0 103470.0 111377.0 173782.0 174884.0 149142.0 142619.0 45145.0 50288.0 138615.0 139044.0 22764.0 30739.0 84585.0 77190.0 129247.0 126009.0 111007.0 119115.0 121111.0 127232.0 145227.0 141887.0 79265.0 82234.0 173767.0 168431.0 127688.0 127453.0 135862.0 134167.0 235389.0 227155.0 52594.0 50829.0 208051.0 209986.0 76508.0 82202.0 21876.0 20297.0 115294.0 117394.0 29023.0 24939.0 111612.0 110861.0 125864.0 119879.0 108588.0 100983.0 173615.0 181404.0 127741.0 91411.0 127741.0 127741.0 127741.0 127741.0 91411.0 91411.0 91411.0 91411.0
148676.0 143635.0 85830.0 77854.0 85079.0 87018.0 280407.0 272638.0 118925.0 118992.0 20395.0 27840.0 100560.0 94003.0 104023.0 96700.0 84131.0 77674.0 15340.0 15440.0 96387.0 99846.0 76978.0 78696.0 99953.0 92958.0 24149.0 27504.0 20035.0 24384.0 124828.0 126561.0 263782.0 270635.0 105787.0 106815.0 29955.0 24789.0 67206.0 60182.0 17813.0 11022.0 85322.0 77244.0 151859.0 145749.0 213669.0 207213.0 41918.0 37685.0 0.0 8078.0 245393.0 252872.0 26131.0 21125.0 188258.0 180791.0 85814.0 91035.0 66134.0 67886.0 155940.0 155431.0 271483.0 270041.0 45831.0 38517.0 88416.0 81149.0 177111.0 178780.0 118442.0 118071.0 93817.0 98348.0 169446.0 174366.0 90116.0 89740.0 26648.0 34546.0 102270.0 102887.0 119218.0 119775.0 236611.0 231089.0 159270.0 153198.0 40995.0 49142.0 284277.0 282099.0 144157.0 146104.0 42290.0 49116.0 99423.0 104993.0 130612.0 128132.0 37814.0 44652.0 84300.0 80869.0 122376.0 121207.0 97740.0 90690.0 201097.0 206896.0 122852.0 125871.0 238665.0 230498.0 71933.0 64511.0 116880.0 110203.0 37090.0 33283.0 43686.0 50558.0 118066.0 125334.0 51451.0 43692.0 21542.0 21314.0 120712.0 115646.0 171072.0 168003.0 84747.0 77732.0 58884.0 51668.0 101796.0 93760.0 207694.0 214258.0 116101.0 119655.0 31028.0 38386.0 42504.0 49740.0 74610.0 81948.0 179092.0 178480.0 147605.0 142504.0 19458.0 18449.0 122986.0 121237.0 33509.0 34374.0 46900.0 39558.0 133133.0 127966.0 76046.0 84210.0 91954.0 96909.0 112971.0 108610.0 78364.0 84495.0 139838.0 135281.0 164722.0 164797.0 106577.0 106434.0 271692.0 263472.0 19002.0 13899.0 242910.0 244366.0 42959.0 46904.0 20841.0 28763.0 100635.0 100249.0 29823.0 36119.0 79278.0 80366.0 90319.0 85119.0 73758.0 65730.0 138410.0 146077.0 106667.0 119965.0 106667.0 106667.0 106667.0 106667.0 119965.0 119965.0 119965.0 119965.0
140599.0 135561.0 92160.0 84234.0 89866.0 91210.0 282830.0 275010.0 124940.0 124628.0 14296.0 22393.0 102476.0 95528.0 103961.0 96325.0 77114.0 70427.0 8753.0 7401.0 95181.0 98027.0 78062.0 78977.0 93577.0 86862.0 28009.0 32950.0 12156.0 17608.0 117924.0 119944.0 267401.0 274229.0 97736.0 98737.0 32337.0 28938.0 59789.0 52598.0 23702.0 18274.0 87260.0 79032.0 153455.0 147079.0 215344.0 208712.0 41384.0 38711.0 8078.0 0.0 248476.0 255865.0 30176.0 26855.0 189640.0 182091.0 77901.0 83021.0 59338.0 61684.0 148326.0 147682.0 274826.0 273594.0 42557.0 34560.0 87977.0 80471.0 169055.0 170705.0 121704.0 120836.0 87727.0 92636.0 173738.0 178399.0 84125.0 83266.0 31099.0 38598.0 108021.0 108189.0 124650.0 124832.0 239560.0 233856.0 160375.0 154043.0 45283.0 53221.0 287561.0 285182.0 137154.0 139326.0 41664.0 49095.0 104298.0 109482.0 134331.0 132274.0 40118.0 47611.0 88265.0 84564.0 124932.0 123251.0 90072.0 83138.0 204381.0 210372.0 123807.0 126336.0 242285.0 234117.0 71088.0 63366.0 118330.0 111347.0 35441.0 33340.0 49935.0 56543.0 122581.0 129655.0 51208.0 44114.0 13650.0 13535.0 118212.0 112743.0 162996.0 159926.0 84568.0 77196.0 58055.0 50388.0 106255.0 98345.0 209396.0 216129.0 118472.0 121545.0 26175.0 34033.0 40756.0 48654.0 68636.0 76187.0 171316.0 170611.0 139577.0 134523.0 27438.0 25504.0 115222.0 113647.0 39000.0 41004.0 47387.0 40788.0 125359.0 120098.0 72611.0 80760.0 97835.0 102427.0 117740.0 112997.0 70543.0 76834.0 143778.0 139586.0 166399.0 166115.0 112317.0 112555.0 273987.0 265756.0 25389.0 18403.0 246025.0 247702.0 38494.0 43606.0 18535.0 25570.0 92751.0 92536.0 24423.0 31765.0 84289.0 85984.0 93622.0 88954.0 77672.0 69490.0 141673.0 149237.0 113965.0 124850.0 113965.0 113965.0 113965.0 113965.0 124850.0 124850.0 124850.0 124850.0
328881.0 329614.0 286443.0 280709.0 163425.0 159506.0 41568.0 36274.0 315148.0 319797.0 242231.0 237535.0 334199.0 330135.0 156469.0 164743.0 314439.0 306383.0 256812.0 250507.0 340596.0 344810.0 173149.0 175301.0 334382.0 329741.0 221249.0 218925.0 256420.0 264269.0 352126.0 356975.0 31096.0 33550.0 294240.0 301095.0 271395.0 263577.0 295703.0 288039.0 228411.0 236358.0 320441.0 313887.0 101430.0 109315.0 53055.0 60579.0 210524.0 210465.0 245393.0 248476.0 0.0 8039.0 264751.0 256770.0 74872.0 81556.0 300475.0 299670.0 300482.0 305677.0 296530.0 302954.0 27746.0 29861.0 218894.0 226294.0 331334.0 324750.0 342918.0 349486.0 341561.0 344751.0 330586.0 337036.0 82938.0 75664.0 327672.0 324185.0 218854.0 210898.0 305301.0 310731.0 322367.0 326905.0 9862.0 17613.0 100656.0 108669.0 274057.0 280708.0 39645.0 36710.0 267820.0 261673.0 286940.0 292776.0 150656.0 143367.0 348629.0 342813.0 278073.0 281792.0 161674.0 164705.0 349997.0 352128.0 316303.0 312893.0 44610.0 40158.0 132449.0 134339.0 24271.0 25194.0 187248.0 194715.0 351528.0 346808.0 282419.0 277673.0 206958.0 199940.0 131290.0 123327.0 201317.0 206193.0 250684.0 257902.0 366068.0 361016.0 349770.0 342511.0 327188.0 321162.0 197519.0 205307.0 317877.0 310397.0 55915.0 48270.0 130657.0 129175.0 274483.0 282445.0 214280.0 206004.0 313111.0 321093.0 319055.0 324751.0 318115.0 310087.0 242450.0 250252.0 334250.0 337490.0 213450.0 216275.0 289882.0 281845.0 291665.0 293727.0 321078.0 329233.0 296163.0 303856.0 324172.0 324089.0 267588.0 264972.0 354891.0 347559.0 89340.0 93533.0 308729.0 303872.0 37325.0 32114.0 253453.0 255812.0 2678.0 8434.0 286823.0 291993.0 232304.0 229016.0 312576.0 317267.0 236648.0 229338.0 295829.0 290917.0 317155.0 309287.0 299920.0 294708.0 359266.0 366994.0 289808.0 132322.0 289808.0 289808.0 289808.0 289808.0 132322.0 132322.0 132322.0 132322.0
334431.0 335303.0 294328.0 288594.0 171192.0 167178.0 33796.0 28991.0 323032.0 327682.0 249447.0 244651.0 342055.0 337953.0 162907.0 171224.0 321302.0 313237.0 264166.0 257804.0 348213.0 352375.0 180208.0 182187.0 341301.0 336746.0 228724.0 226497.0 263690.0 271558.0 358782.0 363711.0 30657.0 31136.0 300267.0 307195.0 279029.0 271232.0 302599.0 294959.0 235956.0 243912.0 328262.0 321678.0 107758.0 115574.0 56317.0 64144.0 217674.0 217754.0 252872.0 255865.0 8039.0 0.0 272412.0 264437.0 79640.0 86612.0 307034.0 306101.0 307500.0 312774.0 301377.0 307909.0 22520.0 26510.0 225816.0 233292.0 339003.0 332388.0 347994.0 354645.0 349445.0 352636.0 337589.0 344092.0 90970.0 83676.0 334708.0 331131.0 226365.0 218405.0 313185.0 318616.0 330251.0 334790.0 16346.0 23063.0 106373.0 114373.0 281817.0 288503.0 33281.0 29455.0 272612.0 266350.0 294501.0 300385.0 158504.0 151171.0 356514.0 350698.0 285744.0 289521.0 169296.0 172267.0 357749.0 360033.0 322865.0 319559.0 52395.0 48151.0 138933.0 140539.0 30237.0 32462.0 194026.0 201554.0 359387.0 354635.0 289920.0 285238.0 214676.0 207676.0 139160.0 131188.0 208405.0 213402.0 257893.0 265164.0 373571.0 368468.0 355138.0 347818.0 334870.0 328804.0 204468.0 212296.0 325762.0 318281.0 59828.0 51915.0 137837.0 136128.0 281833.0 289807.0 221340.0 213032.0 320211.0 328197.0 323646.0 329457.0 323506.0 315476.0 250136.0 257921.0 340543.0 343896.0 221053.0 223963.0 297510.0 289480.0 297019.0 299233.0 328474.0 336624.0 304048.0 311740.0 332057.0 331973.0 273908.0 271145.0 362776.0 355443.0 95434.0 99264.0 316614.0 311757.0 30334.0 26140.0 261115.0 263393.0 10717.0 14253.0 294169.0 299411.0 239572.0 236173.0 319001.0 323787.0 243735.0 236357.0 303714.0 298802.0 325061.0 317204.0 307806.0 302559.0 367151.0 374879.0 297692.0 140267.0 297692.0 297692.0 297692.0 297692.0 140267.0 140267.0 140267.0 140267.0
160875.0 154924.0 63749.0 56062.0 101758.0 105246.0 301080.0 293433.0 95694.0 94904.0 44464.0 52563.0 75091.0 68963.0 128891.0 121865.0 85590.0 80985.0 29667.0 35804.0 76012.0 80842.0 100899.0 103427.0 97095.0 89034.0 46780.0 46665.0 36265.0 34234.0 124073.0 124112.0 282022.0 288875.0 120008.0 119440.0 7295.0 1363.0 72405.0 67199.0 38070.0 30333.0 59926.0 52079.0 174455.0 168775.0 235889.0 229740.0 67615.0 62483.0 26131.0 30176.0 264751.0 272412.0 0.0 7999.0 211027.0 203711.0 94591.0 101294.0 67580.0 66141.0 174405.0 172953.0 290151.0 288294.0 71871.0 64302.0 66593.0 60055.0 190323.0 190998.0 92313.0 92042.0 89824.0 92414.0 186149.0 191747.0 85842.0 87857.0 48009.0 55724.0 78475.0 78220.0 94745.0 94721.0 256302.0 251191.0 182552.0 176853.0 15109.0 23127.0 303048.0 301348.0 165466.0 168115.0 24671.0 28608.0 115445.0 122010.0 104532.0 102223.0 13366.0 18852.0 103153.0 100430.0 96426.0 95562.0 103379.0 95581.0 220181.0 225493.0 146517.0 150102.0 256905.0 248738.0 97539.0 90305.0 91778.0 85483.0 24225.0 16497.0 58050.0 65205.0 134764.0 142455.0 76874.0 68795.0 41838.0 36545.0 102970.0 99130.0 182143.0 180104.0 62498.0 56448.0 84563.0 77582.0 76096.0 68170.0 229889.0 236144.0 137681.0 142008.0 31313.0 34175.0 68579.0 75596.0 71235.0 77095.0 196260.0 194787.0 161836.0 157664.0 22444.0 14519.0 128868.0 125469.0 51634.0 48541.0 25396.0 17331.0 150615.0 144657.0 62794.0 70506.0 68519.0 72648.0 87568.0 82855.0 96188.0 103324.0 113835.0 109475.0 187124.0 187750.0 82742.0 83541.0 292640.0 284460.0 11298.0 12245.0 262205.0 263139.0 37861.0 36756.0 46928.0 54752.0 108511.0 106234.0 54593.0 61692.0 54205.0 56388.0 64192.0 59052.0 47708.0 39627.0 112279.0 119951.0 88814.0 135524.0 88814.0 88814.0 88814.0 88814.0 135524.0 135524.0 135524.0 135524.0
162727.0 157050.0 65320.0 57410.0 93759.0 97264.0 293158.0 285522.0 98112.0 97963.0 40935.0 48744.0 82177.0 76311.0 121888.0 115020.0 90087.0 84969.0 28676.0 33460.0 84010.0 88809.0 93617.0 96417.0 102686.0 94804.0 39567.0 38938.0 35285.0 35054.0 129324.0 129740.0 274024.0 280876.0 121058.0 121017.0 15040.0 6914.0 75787.0 70002.0 30666.0 23194.0 67110.0 59430.0 166785.0 161186.0 228136.0 222033.0 61308.0 55692.0 21125.0 26855.0 256770.0 264437.0 7999.0 0.0 203368.0 196082.0 97198.0 103510.0 71876.0 71198.0 174023.0 172946.0 282155.0 280295.0 66766.0 59621.0 74566.0 68052.0 191902.0 192905.0 98292.0 98443.0 95615.0 98622.0 178163.0 183750.0 91665.0 93168.0 40542.0 48132.0 81287.0 81770.0 98127.0 98652.0 248333.0 243242.0 175007.0 169397.0 20587.0 28758.0 295053.0 293362.0 163810.0 166110.0 32174.0 36540.0 107457.0 114011.0 110040.0 107290.0 21310.0 26090.0 95194.0 92510.0 102971.0 102465.0 106929.0 99278.0 212196.0 217498.0 139090.0 142832.0 248907.0 240740.0 91032.0 83989.0 99042.0 92925.0 30701.0 23458.0 50053.0 57210.0 126769.0 134458.0 70312.0 62097.0 39790.0 35896.0 110891.0 106956.0 184399.0 182029.0 70450.0 64445.0 78158.0 71450.0 80829.0 72752.0 222134.0 228348.0 129897.0 134324.0 34713.0 38991.0 62771.0 69402.0 76730.0 82972.0 196426.0 195279.0 163013.0 158507.0 14457.0 6522.0 132483.0 129508.0 43768.0 40544.0 33373.0 25299.0 150581.0 144910.0 70108.0 77931.0 71040.0 75833.0 91891.0 87668.0 95827.0 102607.0 119102.0 114350.0 179416.0 180135.0 85590.0 85706.0 284740.0 276564.0 3353.0 8819.0 254222.0 255145.0 43069.0 43113.0 41797.0 49798.0 111472.0 109708.0 50755.0 57244.0 58167.0 59316.0 70265.0 64597.0 53237.0 45425.0 118199.0 125942.0 88170.0 127556.0 88170.0 88170.0 88170.0 88170.0 127556.0 127556.0 127556.0 127556.0
255256.0 256394.0 244231.0 237884.0 117369.0 110896.0 97606.0 89590.0 273769.0 278356.0 180854.0 174897.0 284782.0 279470.0 88629.0 97044.0 248119.0 240034.0 197246.0 190153.0 284592.0 287666.0 111581.0 111433.0 268473.0 264741.0 164689.0 164432.0 195552.0 203557.0 283841.0 289312.0 104152.0 108085.0 222378.0 229558.0 216869.0 209730.0 229846.0 222489.0 173038.0 180939.0 270050.0 262650.0 36588.0 42561.0 26625.0 19238.0 148945.0 150966.0 188258.0 189640.0 74872.0 79640.0 211027.0 203368.0 0.0 7751.0 231716.0 230025.0 235853.0 241896.0 221755.0 228269.0 102077.0 104720.0 154293.0 162421.0 276597.0 269399.0 268367.0 275049.0 296350.0 298419.0 265554.0 272533.0 71600.0 64916.0 263012.0 258616.0 163092.0 155307.0 263359.0 268240.0 280750.0 284895.0 65112.0 57260.0 29752.0 37139.0 222718.0 230250.0 112594.0 107439.0 193009.0 186814.0 230539.0 237289.0 108925.0 100782.0 305011.0 299831.0 224272.0 229400.0 111481.0 112791.0 303435.0 304308.0 247481.0 244881.0 50080.0 57474.0 66146.0 65290.0 84170.0 76892.0 121802.0 129735.0 301956.0 296174.0 224938.0 221522.0 156612.0 150441.0 93181.0 86271.0 139159.0 145595.0 189062.0 196910.0 307561.0 301675.0 275705.0 268326.0 272813.0 265960.0 133708.0 141776.0 273941.0 266058.0 21170.0 29054.0 74095.0 69056.0 214547.0 222554.0 151420.0 142940.0 249298.0 257255.0 244184.0 249904.0 244111.0 236082.0 189928.0 197081.0 263632.0 267531.0 159876.0 164715.0 234863.0 227140.0 217594.0 220014.0 261237.0 269226.0 253787.0 261304.0 281454.0 280485.0 197394.0 193941.0 312053.0 305120.0 24302.0 23540.0 266971.0 262450.0 87943.0 79904.0 200027.0 200464.0 73415.0 78967.0 226626.0 232876.0 171893.0 167089.0 242833.0 248141.0 173664.0 165658.0 250862.0 247137.0 270021.0 262793.0 252296.0 245857.0 315110.0 322958.0 248445.0 97988.0 248445.0 248445.0 248445.0 248445.0 97988.0 97988.0 97988.0 97988.0
247987.0 249042.0 237746.0 231315.0 110986.0 104336.0 105280.0 97262.0 267556.0 272027.0 173211.0 167216.0 277623.0 272244.0 80883.0 89297.0 240368.0 232283.0 189658.0 182541.0 277094.0 280117.0 104029.0 103773.0 260722.0 256993.0 157292.0 157158.0 187916.0 195921.0 276118.0 281576.0 110307.0 114526.0 214835.0 221987.0 209501.0 202409.0 222096.0 214740.0 165693.0 173576.0 262850.0 255410.0 29453.0 35043.0 34366.0 26969.0 141325.0 143437.0 180791.0 182091.0 81556.0 86612.0 203711.0 196082.0 7751.0 0.0 223998.0 222337.0 228111.0 234166.0 214976.0 221406.0 108962.0 111336.0 146572.0 154713.0 269162.0 261940.0 261416.0 268040.0 289467.0 291445.0 257806.0 264789.0 70555.0 64434.0 255267.0 250865.0 155744.0 147988.0 256908.0 261685.0 274365.0 278414.0 71733.0 63976.0 22018.0 29395.0 215523.0 223097.0 119702.0 114706.0 186279.0 180186.0 223062.0 229849.0 103054.0 94937.0 298275.0 293178.0 216934.0 222134.0 104773.0 105924.0 296439.0 297223.0 239767.0 237147.0 53568.0 61277.0 58488.0 57541.0 89529.0 81997.0 114081.0 122019.0 294772.0 288935.0 217416.0 214065.0 149642.0 143558.0 87963.0 81340.0 131528.0 138022.0 181404.0 189269.0 299952.0 294041.0 268555.0 261215.0 265398.0 258511.0 126023.0 134092.0 267199.0 259285.0 28846.0 36644.0 67183.0 61855.0 206932.0 214936.0 143750.0 135270.0 241565.0 249521.0 237610.0 243235.0 236938.0 228908.0 182719.0 189819.0 256001.0 259865.0 152673.0 157633.0 227449.0 219751.0 210437.0 212758.0 253601.0 261582.0 247265.0 254747.0 274853.0 273772.0 189722.0 186319.0 305412.0 298546.0 17897.0 15995.0 260558.0 256141.0 95641.0 87582.0 192745.0 193073.0 79983.0 85255.0 218995.0 225280.0 164295.0 159437.0 235151.0 240436.0 165974.0 157953.0 244052.0 240444.0 263018.0 255840.0 245286.0 238780.0 308308.0 316162.0 242216.0 93095.0 242216.0 242216.0 242216.0 242216.0 93095.0 93095.0 93095.0 93095.0
67066.0 60613.0 154854.0 147962.0 158018.0 156680.0 329211.0 321194.0 182879.0 179690.0 72511.0 72166.0 132698.0 124395.0 144187.0 135830.0 25560.0 21249.0 71050.0 71010.0 102234.0 98647.0 129947.0 126207.0 43080.0 44241.0 100550.0 107708.0 65784.0 62789.0 52157.0 58057.0 323680.0 329932.0 32716.0 28257.0 90315.0 94191.0 23531.0 27405.0 100042.0 96044.0 121229.0 114274.0 199364.0 191670.0 258328.0 250680.0 96635.0 100798.0 85814.0 77901.0 300475.0 307034.0 94591.0 97198.0 231716.0 223998.0 0.0 8262.0 32456.0 39380.0 92305.0 88110.0 328029.0 328286.0 84209.0 78702.0 103910.0 97358.0 96950.0 96889.0 158947.0 154332.0 44697.0 52560.0 235658.0 238631.0 44722.0 36865.0 104206.0 109554.0 165298.0 162230.0 178152.0 175468.0 290859.0 284050.0 202335.0 194642.0 104994.0 109557.0 340102.0 336334.0 96087.0 102037.0 80952.0 86394.0 172024.0 175145.0 173630.0 175130.0 93613.0 100582.0 152954.0 148375.0 156177.0 150652.0 15831.0 14420.0 259030.0 266091.0 168106.0 167007.0 298855.0 290603.0 113730.0 106753.0 141754.0 133658.0 75176.0 82118.0 125155.0 130780.0 187699.0 193451.0 103696.0 102056.0 66125.0 64507.0 106259.0 98182.0 87626.0 86009.0 103766.0 96543.0 105116.0 98203.0 154491.0 148517.0 252834.0 260519.0 172185.0 172075.0 63304.0 62234.0 91124.0 98196.0 41764.0 45604.0 109123.0 105813.0 70413.0 68160.0 104144.0 99553.0 38017.0 38385.0 113255.0 117387.0 88426.0 89327.0 67926.0 60302.0 70221.0 73408.0 156964.0 158588.0 166896.0 159860.0 35972.0 42191.0 183884.0 183013.0 211974.0 209190.0 169143.0 172156.0 319626.0 311534.0 97782.0 89254.0 298308.0 301466.0 60214.0 66464.0 82336.0 80709.0 14913.0 16982.0 71940.0 76423.0 139306.0 144641.0 135706.0 135540.0 126993.0 119743.0 176502.0 182435.0 182844.0 191700.0 182844.0 182844.0 182844.0 182844.0 191700.0 191700.0 191700.0 191700.0
59734.0 53630.0 162236.0 155247.0 160328.0 158595.0 327615.0 319597.0 190611.0 187536.0 76475.0 75308.0 140944.0 132639.0 143206.0 134931.0 33244.0 29455.0 76638.0 75925.0 110421.0 106736.0 130545.0 126365.0 49438.0 51437.0 104345.0 111721.0 71036.0 68724.0 54881.0 61489.0 323415.0 329538.0 24553.0 20038.0 97308.0 100830.0 31411.0 34453.0 104473.0 100953.0 129412.0 122410.0 198346.0 190568.0 256595.0 248870.0 98600.0 103335.0 91035.0 83021.0 299670.0 306101.0 101294.0 103510.0 230025.0 222337.0 8262.0 0.0 40628.0 47635.0 84076.0 79848.0 327300.0 327758.0 85445.0 80613.0 112168.0 105619.0 89483.0 89758.0 167168.0 162579.0 51828.0 59574.0 236491.0 239201.0 52174.0 44151.0 108006.0 112937.0 173009.0 170065.0 186052.0 183456.0 289997.0 283073.0 200841.0 193062.0 112164.0 116962.0 339254.0 335314.0 88504.0 94635.0 88579.0 94210.0 174148.0 176920.0 181845.0 183297.0 100913.0 108027.0 154796.0 150148.0 164436.0 158914.0 18776.0 20534.0 258732.0 265907.0 167221.0 165732.0 298718.0 290449.0 113724.0 107060.0 150008.0 141913.0 82601.0 89356.0 129063.0 134425.0 189294.0 194806.0 105088.0 104096.0 70670.0 69848.0 113847.0 105747.0 80904.0 78862.0 112027.0 104795.0 105875.0 99318.0 162492.0 156438.0 251181.0 258938.0 172365.0 171868.0 70138.0 69576.0 92846.0 99494.0 49967.0 53570.0 100910.0 97687.0 62447.0 59992.0 109747.0 105531.0 35672.0 37848.0 117099.0 121648.0 96150.0 96767.0 59746.0 52090.0 78462.0 81548.0 164555.0 166324.0 174906.0 167913.0 32794.0 37821.0 192100.0 191182.0 210819.0 207767.0 176886.0 179777.0 317968.0 309918.0 103915.0 95362.0 297547.0 300890.0 67784.0 74279.0 85907.0 83567.0 12910.0 18567.0 74873.0 78587.0 147006.0 152200.0 143795.0 143516.0 134840.0 127507.0 184756.0 190696.0 189830.0 193544.0 189830.0 189830.0 189830.0 189830.0 193544.0 193544.0 193544.0 193544.0
98638.0 91694.0 124369.0 117852.0 147675.0 147961.0 332153.0 324186.0 151229.0 147744.0 59929.0 63278.0 100463.0 92146.0 147238.0 138841.0 18279.0 13709.0 50883.0 54158.0 71940.0 69521.0 127340.0 125482.0 34757.0 29270.0 86290.0 92112.0 47951.0 41818.0 58698.0 60637.0 321407.0 328127.0 64443.0 60666.0 62114.0 67486.0 10336.0 14459.0 83036.0 77139.0 88784.0 81825.0 201316.0 194084.0 262346.0 255079.0 90327.0 91848.0 66134.0 59338.0 300482.0 307500.0 67580.0 71876.0 235853.0 228111.0 32456.0 40628.0 0.0 8174.0 124006.0 120214.0 327552.0 327022.0 81874.0 74211.0 72331.0 65457.0 128593.0 127925.0 126570.0 122096.0 30121.0 36711.0 229835.0 233807.0 27238.0 24330.0 89709.0 96547.0 133737.0 130330.0 146076.0 143209.0 291165.0 284864.0 206103.0 198868.0 75722.0 79283.0 340025.0 336955.0 124837.0 130019.0 50138.0 54772.0 162105.0 166554.0 141237.0 142676.0 63979.0 70246.0 144626.0 140455.0 124099.0 118833.0 36620.0 28627.0 257399.0 263944.0 170144.0 170590.0 296285.0 288123.0 114216.0 106403.0 110214.0 102100.0 45399.0 53022.0 109263.0 115789.0 179571.0 186176.0 99237.0 95076.0 51701.0 46401.0 81239.0 73595.0 117930.0 117141.0 71841.0 64409.0 103090.0 95211.0 122216.0 116414.0 256592.0 263915.0 169972.0 171379.0 37321.0 33455.0 86229.0 94478.0 14291.0 21812.0 141534.0 138268.0 102784.0 100609.0 81749.0 75657.0 61702.0 57908.0 98115.0 100302.0 57130.0 59170.0 99416.0 92011.0 39479.0 44272.0 125785.0 126965.0 134599.0 127494.0 55882.0 63977.0 151494.0 150560.0 214272.0 212574.0 137482.0 140848.0 322868.0 314663.0 73253.0 65211.0 298157.0 300565.0 30266.0 35072.0 70432.0 72056.0 43516.0 39609.0 63985.0 71145.0 107835.0 113603.0 103295.0 103325.0 95117.0 88133.0 144328.0 150410.0 153675.0 182518.0 153675.0 153675.0 153675.0 153675.0 182518.0 182518.0 182518.0 182518.0
104407.0 97225.0 120269.0 114042.0 151063.0 151741.0 337857.0 329907.0 146093.0 142293.0 64018.0 68148.0 93329.0 85032.0 153362.0 145000.0 20343.0 18863.0 52996.0 57250.0 63920.0 61372.0 132573.0 131082.0 32111.0 25187.0 89291.0 94635.0 51009.0 44102.0 58137.0 58974.0 326120.0 332929.0 71814.0 67621.0 60115.0 66212.0 18434.0 22276.0 85287.0 78891.0 82135.0 75463.0 207061.0 199930.0 268324.0 261133.0 95199.0 96113.0 67886.0 61684.0 305677.0 312774.0 66141.0 71198.0 241896.0 234166.0 39380.0 47635.0 8174.0 0.0 131454.0 127455.0 332620.0 331933.0 87648.0 79725.0 64694.0 58008.0 134313.0 133274.0 119660.0 114961.0 26053.0 31527.0 233953.0 238135.0 22548.0 22106.0 92587.0 99731.0 128724.0 124966.0 140464.0 137316.0 296430.0 290235.0 212147.0 205006.0 72812.0 75628.0 345157.0 342225.0 132849.0 138096.0 46485.0 50174.0 165515.0 170262.0 134359.0 136067.0 61003.0 66650.0 148520.0 144470.0 116803.0 111351.0 41168.0 33244.0 262342.0 268770.0 176003.0 176708.0 301016.0 292841.0 120115.0 112226.0 102584.0 94474.0 42780.0 50671.0 111472.0 118192.0 183328.0 190104.0 104369.0 99736.0 55609.0 49448.0 73221.0 65644.0 122945.0 122580.0 64413.0 57164.0 108646.0 100677.0 116325.0 110820.0 262536.0 269785.0 175045.0 176739.0 37593.0 32207.0 91452.0 99815.0 7440.0 15430.0 148447.0 144948.0 109242.0 107421.0 82140.0 75544.0 65300.0 60611.0 100683.0 102257.0 52863.0 55891.0 106923.0 99433.0 31479.0 36102.0 121139.0 121908.0 128646.0 121396.0 64053.0 72151.0 144607.0 143938.0 220045.0 218539.0 132363.0 136049.0 328635.0 320419.0 72910.0 65269.0 303326.0 305582.0 28282.0 31263.0 74394.0 76754.0 49068.0 44204.0 69039.0 76570.0 102990.0 109120.0 97098.0 97585.0 89888.0 83240.0 137123.0 143073.0 150345.0 186013.0 150345.0 150345.0 150345.0 150345.0 186013.0 186013.0 186013.0 186013.0
48697.0 55110.0 238053.0 230449.0 196200.0 191302.0 315202.0 307483.0 268903.0 266850.0 136224.0 130563.0 224395.0 216073.0 152154.0 146171.0 116675.0 113531.0 145371.0 141091.0 194468.0 190567.0 155956.0 148764.0 128959.0 133240.0 158375.0 166263.0 138742.0 140242.0 120518.0 128678.0 324789.0 329386.0 59648.0 64648.0 172426.0 173565.0 114036.0 114500.0 162753.0 162774.0 212165.0 204757.0 199675.0 191841.0 246101.0 238045.0 140952.0 148817.0 155940.0 148326.0 296530.0 301377.0 174405.0 174023.0 221755.0 214976.0 92305.0 84076.0 124006.0 131454.0 0.0 8242.0 323832.0 326304.0 125923.0 126943.0 196134.0 189428.0 47928.0 55494.0 250212.0 246009.0 133436.0 140521.0 252875.0 252893.0 134643.0 126457.0 161564.0 162890.0 251309.0 249445.0 265860.0 264074.0 286709.0 278939.0 197100.0 189233.0 187772.0 194005.0 334145.0 328581.0 28841.0 35717.0 167896.0 174570.0 207083.0 206549.0 264790.0 265678.0 177789.0 185604.0 187316.0 182637.0 248098.0 242796.0 96924.0 102607.0 262741.0 270654.0 173423.0 168290.0 302363.0 294295.0 137397.0 134884.0 234010.0 225906.0 160950.0 166327.0 180850.0 183676.0 216227.0 219090.0 141837.0 145856.0 134722.0 138194.0 195789.0 187674.0 60045.0 51929.0 195823.0 188411.0 137575.0 135301.0 243374.0 236689.0 241850.0 249890.0 188052.0 183986.0 146027.0 148080.0 134776.0 136792.0 134040.0 137266.0 25501.0 28965.0 34883.0 30104.0 175212.0 173768.0 88535.0 96835.0 169788.0 176781.0 175867.0 174672.0 24648.0 32023.0 162524.0 165527.0 241989.0 244918.0 255783.0 249227.0 78244.0 71500.0 275041.0 273558.0 209604.0 204104.0 255415.0 257246.0 305284.0 297994.0 173264.0 165209.0 294950.0 300024.0 147533.0 155114.0 141516.0 135200.0 86988.0 94577.0 129005.0 127087.0 225570.0 229582.0 225596.0 224349.0 214723.0 206871.0 268280.0 274414.0 262112.0 222342.0 262112.0 262112.0 262112.0 262112.0 222342.0 222342.0 222342.0 222342.0
40690.0 47339.0 236407.0 228894.0 199128.0 194482.0 322198.0 314449.0 266822.0 264532.0 136041.0 130758.0 220675.0 212359.0 156957.0 150713.0 111900.0 109215.0 144271.0 140370.0 189927.0 185773.0 159424.0 152400.0 123298.0 127928.0 159122.0 167044.0 137685.0 138722.0 113709.0 121866.0 330990.0 335693.0 55811.0 60035.0 170647.0 172164.0 110436.0 111422.0 163086.0 162703.0 208765.0 201500.0 205448.0 197569.0 252833.0 244771.0 142631.0 150312.0 155431.0 147682.0 302954.0 307909.0 172953.0 172946.0 228269.0 221406.0 88110.0 79848.0 120214.0 127455.0 8242.0 0.0 330333.0 332687.0 127493.0 127966.0 192009.0 185458.0 40510.0 47852.0 246714.0 242310.0 128083.0 134995.0 257797.0 258021.0 129473.0 121302.0 162398.0 164117.0 249196.0 247084.0 263419.0 261419.0 293119.0 285382.0 203205.0 195299.0 185991.0 191993.0 340763.0 335284.0 35963.0 43197.0 165334.0 171804.0 210360.0 210119.0 261344.0 262466.0 175739.0 183459.0 190480.0 185762.0 244250.0 238762.0 91613.0 97658.0 268605.0 276493.0 178654.0 173749.0 308365.0 300263.0 140746.0 137817.0 229826.0 221739.0 158545.0 164201.0 182069.0 185186.0 220096.0 223203.0 144067.0 147672.0 134036.0 137051.0 190251.0 182153.0 51925.0 43817.0 191865.0 184577.0 140201.0 137489.0 240620.0 234094.0 248500.0 256548.0 192661.0 188847.0 143940.0 145569.0 136386.0 138882.0 129659.0 132504.0 23734.0 24880.0 27010.0 23025.0 174812.0 172999.0 81748.0 90113.0 170805.0 177602.0 173251.0 172418.0 22365.0 28638.0 158238.0 160912.0 240039.0 242729.0 253047.0 246356.0 77190.0 71011.0 271602.0 270352.0 215606.0 210243.0 253260.0 255320.0 312277.0 304932.0 172342.0 164157.0 301337.0 306314.0 144781.0 152164.0 141863.0 135854.0 81732.0 89142.0 129285.0 127898.0 223348.0 227614.0 222547.0 221580.0 212178.0 204427.0 264529.0 270528.0 261115.0 226086.0 261115.0 261115.0 261115.0 261115.0 226086.0 226086.0 226086.0 226086.0
356563.0 357332.0 310805.0 305071.0 188473.0 185021.0 34804.0 35142.0 339510.0 344160.0 268983.0 264475.0 358510.0 354622.0 184121.0 192371.0 341714.0 333670.0 283243.0 277082.0 366126.0 370547.0 200227.0 202601.0 361582.0 356821.0 247377.0 244737.0 283052.0 290852.0 379601.0 384376.0 18761.0 13501.0 321983.0 328830.0 296908.0 289005.0 322942.0 315249.0 254306.0 262212.0 344912.0 338563.0 129139.0 137038.0 78765.0 86631.0 237423.0 237087.0 271483.0 274826.0 27746.0 22520.0 290151.0 282155.0 102077.0 108962.0 328029.0 327300.0 327552.0 332620.0 323832.0 330333.0 0.0 7961.0 246127.0 253423.0 356646.0 350204.0 370377.0 376995.0 365923.0 369114.0 357670.0 364036.0 106350.0 99269.0 354707.0 351350.0 244871.0 236942.0 329663.0 335094.0 346729.0 351267.0 37573.0 45060.0 128362.0 136374.0 298954.0 305394.0 12954.0 14310.0 295078.0 288839.0 312725.0 318372.0 175242.0 168264.0 372991.0 367176.0 303420.0 306852.0 187394.0 190634.0 374359.0 376523.0 343854.0 340364.0 70449.0 64675.0 160087.0 162068.0 36574.0 42924.0 214654.0 222055.0 375909.0 371221.0 308412.0 303452.0 232167.0 225074.0 155801.0 147938.0 228326.0 232984.0 277444.0 284547.0 392011.0 387123.0 377384.0 370097.0 352443.0 346599.0 224730.0 232460.0 342239.0 334759.0 82346.0 74423.0 157592.0 156439.0 300912.0 308843.0 241323.0 233102.0 340046.0 348018.0 346150.0 351943.0 345738.0 337709.0 267763.0 275633.0 361937.0 365130.0 239150.0 241611.0 315403.0 307342.0 319271.0 321393.0 347363.0 355526.0 320526.0 328218.0 348535.0 348451.0 295270.0 292696.0 379254.0 371921.0 117085.0 121241.0 333092.0 328235.0 37772.0 38521.0 278861.0 281549.0 29764.0 27124.0 313257.0 318234.0 258956.0 255890.0 340209.0 344845.0 263636.0 256435.0 320192.0 315280.0 341557.0 333733.0 324284.0 319066.0 383628.0 391357.0 314170.0 157477.0 314170.0 314170.0 314170.0 314170.0 157477.0 157477.0 157477.0 157477.0
358214.0 358807.0 308865.0 303131.0 186570.0 183289.0 42765.0 42934.0 337570.0 342220.0 268134.0 263831.0 356570.0 352721.0 184743.0 192912.0 341454.0 333433.0 282076.0 276051.0 364291.0 368768.0 199815.0 202486.0 361205.0 356289.0 245990.0 243113.0 282071.0 289818.0 379670.0 384306.0 11333.0 5638.0 323027.0 329770.0 295089.0 287158.0 322639.0 314910.0 252731.0 260599.0 343013.0 336634.0 130072.0 138031.0 82508.0 90198.0 236758.0 236140.0 270041.0 273594.0 29861.0 26510.0 288294.0 280295.0 104720.0 111336.0 328286.0 327758.0 327022.0 331933.0 326304.0 332687.0 7961.0 0.0 245868.0 253017.0 354750.0 348348.0 372589.0 379109.0 363983.0 367174.0 357141.0 363401.0 104410.0 97329.0 354119.0 350932.0 243400.0 235500.0 327723.0 333154.0 344789.0 349327.0 39616.0 47469.0 130024.0 138030.0 297014.0 303461.0 17418.0 21292.0 297614.0 291498.0 311017.0 316525.0 173303.0 166344.0 371051.0 365236.0 301543.0 304922.0 185796.0 189179.0 372419.0 374583.0 344096.0 340440.0 69625.0 63242.0 160702.0 163065.0 32798.0 40042.0 214693.0 221979.0 373969.0 369337.0 306863.0 301745.0 230279.0 223172.0 153863.0 145999.0 227796.0 232211.0 276595.0 283577.0 390374.0 385617.0 379251.0 372040.0 350536.0 344738.0 224461.0 232106.0 340299.0 332819.0 85659.0 77899.0 157097.0 156348.0 299730.0 307627.0 240822.0 232675.0 339346.0 347304.0 348893.0 354564.0 347586.0 339561.0 265887.0 273774.0 362582.0 365604.0 237453.0 239754.0 313580.0 305513.0 321170.0 323109.0 346025.0 354192.0 318586.0 326278.0 346595.0 346511.0 295917.0 293555.0 377313.0 369981.0 118355.0 122907.0 331152.0 326294.0 45511.0 45743.0 277010.0 279832.0 31355.0 26905.0 312071.0 316877.0 258015.0 255180.0 340668.0 345154.0 263049.0 255985.0 318251.0 313339.0 339617.0 331793.0 322344.0 317126.0 381688.0 389416.0 312230.0 155537.0 312230.0 312230.0 312230.0 312230.0 155537.0 155537.0 155537.0 155537.0
132315.0 129474.0 129597.0 121610.0 75984.0 73495.0 250290.0 242327.0 163085.0 163800.0 29566.0 21950.0 144989.0 137937.0 65938.0 57677.0 95595.0 87566.0 47496.0 39722.0 134909.0 136619.0 46180.0 43648.0 115490.0 111035.0 35100.0 42357.0 43732.0 51451.0 134240.0 138547.0 240689.0 247199.0 89347.0 93697.0 74821.0 70548.0 76816.0 69146.0 42227.0 46076.0 129788.0 121542.0 119459.0 112286.0 180687.0 173532.0 15200.0 22901.0 45831.0 42557.0 218894.0 225816.0 71871.0 66766.0 154293.0 146572.0 84209.0 85445.0 81874.0 87648.0 125923.0 127493.0 246127.0 245868.0 0.0 8574.0 128875.0 121168.0 157106.0 160676.0 164055.0 163355.0 111870.0 118576.0 151470.0 154584.0 109111.0 105318.0 37576.0 37306.0 146988.0 148162.0 164297.0 165228.0 209498.0 203099.0 124555.0 117512.0 86820.0 94954.0 258498.0 255265.0 108221.0 108482.0 83191.0 90927.0 89304.0 91614.0 176403.0 173960.0 82644.0 89997.0 69617.0 64904.0 167483.0 165777.0 99686.0 95196.0 176289.0 183077.0 88356.0 89222.0 215666.0 207462.0 32491.0 24578.0 160670.0 153540.0 76242.0 75511.0 55161.0 57754.0 103874.0 109372.0 19666.0 20491.0 36583.0 44816.0 154942.0 148543.0 155605.0 150666.0 125800.0 118114.0 21407.0 14012.0 147582.0 139517.0 174891.0 182139.0 88864.0 89719.0 62874.0 70564.0 8902.0 14049.0 95067.0 103043.0 150922.0 152119.0 127135.0 120410.0 60059.0 62871.0 121112.0 122528.0 44732.0 52341.0 89555.0 83278.0 106586.0 103599.0 108275.0 116026.0 136533.0 141969.0 158627.0 154410.0 58337.0 60387.0 185665.0 181088.0 132428.0 130903.0 151288.0 150462.0 241027.0 232817.0 64263.0 59634.0 216607.0 219245.0 74147.0 81382.0 24996.0 17130.0 97987.0 101167.0 20287.0 11854.0 124862.0 125398.0 135936.0 130918.0 119565.0 111497.0 184032.0 191645.0 146755.0 108273.0 146755.0 146755.0 146755.0 146755.0 108273.0 108273.0 108273.0 108273.0
130117.0 126801.0 123410.0 115410.0 79765.0 78030.0 258133.0 250184.0 156791.0 157215.0 21150.0 13389.0 136801.0 129673.0 74249.0 66043.0 88537.0 80576.0 39072.0 31295.0 126337.0 128050.0 53207.0 51358.0 108189.0 103454.0 31671.0 39449.0 35171.0 42877.0 127772.0 131791.0 247639.0 254242.0 86679.0 90408.0 66896.0 63001.0 69676.0 61912.0 37483.0 40153.0 121626.0 113359.0 127351.0 120276.0 188753.0 181657.0 17989.0 23529.0 38517.0 34560.0 226294.0 233292.0 64302.0 59621.0 162421.0 154713.0 78702.0 80613.0 74211.0 79725.0 126943.0 127966.0 253423.0 253017.0 8574.0 0.0 120347.0 112632.0 155850.0 159027.0 156249.0 155382.0 104297.0 110851.0 157533.0 160928.0 101433.0 97931.0 34698.0 36245.0 140434.0 141312.0 157570.0 158263.0 216959.0 210655.0 132706.0 125741.0 79349.0 87428.0 265859.0 262748.0 110904.0 111736.0 74764.0 82533.0 93535.0 96452.0 168773.0 166517.0 74672.0 82153.0 74272.0 69676.0 159444.0 157601.0 93897.0 88986.0 183398.0 190072.0 96377.0 97475.0 222552.0 214377.0 40702.0 32721.0 152364.0 145184.0 67758.0 67217.0 54148.0 57730.0 109003.0 114849.0 25437.0 23487.0 28010.0 36245.0 146438.0 140082.0 153377.0 148798.0 117299.0 109593.0 28923.0 20999.0 140272.0 132257.0 182932.0 190121.0 95921.0 97168.0 54301.0 61993.0 12502.0 20344.0 87159.0 95147.0 151584.0 152328.0 125789.0 119384.0 54114.0 56170.0 116148.0 117087.0 42858.0 49893.0 81236.0 75106.0 106532.0 102960.0 99777.0 107557.0 130032.0 135240.0 151488.0 147071.0 55740.0 58907.0 178132.0 173727.0 140342.0 138984.0 144741.0 144207.0 248920.0 240702.0 57301.0 52121.0 223980.0 226476.0 65593.0 72808.0 18022.0 10000.0 92875.0 95548.0 11714.0 3298.0 117787.0 118671.0 128153.0 123327.0 112000.0 103874.0 176220.0 183794.0 141709.0 113029.0 141709.0 141709.0 141709.0 141709.0 113029.0 113029.0 113029.0 113029.0
166338.0 158673.0 81411.0 78762.0 168180.0 171829.0 367600.0 359930.0 95830.0 89793.0 99382.0 106968.0 30752.0 23237.0 191926.0 184298.0 81019.0 82817.0 81559.0 89269.0 11595.0 19362.0 165388.0 166829.0 77077.0 69406.0 111946.0 112939.0 85229.0 77819.0 102030.0 97696.0 348478.0 355331.0 136487.0 132020.0 60113.0 67785.0 82549.0 83791.0 103843.0 95869.0 25859.0 25081.0 240128.0 234125.0 301830.0 295489.0 129354.0 126020.0 88416.0 87977.0 331334.0 339003.0 66593.0 74566.0 276597.0 269162.0 103910.0 112168.0 72331.0 64694.0 196134.0 192009.0 356646.0 354750.0 128875.0 120347.0 0.0 7807.0 195748.0 193635.0 57569.0 51695.0 69676.0 65984.0 252268.0 258051.0 66731.0 74027.0 113732.0 121640.0 80908.0 74544.0 86815.0 81693.0 322895.0 317770.0 247682.0 241601.0 58543.0 53567.0 369555.0 367917.0 196732.0 201564.0 46342.0 39313.0 181653.0 188411.0 72126.0 75404.0 53260.0 50151.0 169744.0 166975.0 52781.0 46796.0 102622.0 95439.0 286755.0 292010.0 211263.0 214143.0 323362.0 315194.0 159001.0 151199.0 37892.0 29781.0 52756.0 55139.0 124479.0 131578.0 201049.0 208813.0 139158.0 131821.0 92465.0 84260.0 41087.0 40699.0 182437.0 183360.0 4510.0 10790.0 146000.0 138238.0 62245.0 59989.0 295842.0 302259.0 203838.0 207800.0 66499.0 59507.0 128494.0 136572.0 62507.0 61030.0 212555.0 208647.0 172667.0 171476.0 88900.0 81082.0 122737.0 115840.0 118129.0 115072.0 41794.0 49685.0 171617.0 164111.0 33936.0 33284.0 77379.0 74462.0 73074.0 65163.0 126033.0 134287.0 82151.0 82994.0 252930.0 253167.0 83300.0 89320.0 359104.0 350911.0 77889.0 76251.0 328784.0 329662.0 57022.0 48782.0 106444.0 112806.0 111810.0 105521.0 108741.0 117139.0 60461.0 68729.0 42605.0 47523.0 46883.0 45962.0 73291.0 78777.0 114021.0 201470.0 114021.0 114021.0 114021.0 114021.0 201470.0 201470.0 201470.0 201470.0
160664.0 153092.0 80565.0 77197.0 161801.0 165262.0 360779.0 353085.0 97592.0 92028.0 91703.0 99248.0 35792.0 27689.0 184432.0 176763.0 75100.0 76415.0 73917.0 81606.0 16065.0 22189.0 158075.0 159394.0 72700.0 64724.0 104840.0 106084.0 77494.0 70048.0 98492.0 94668.0 342076.0 348929.0 129807.0 125557.0 53360.0 61200.0 75586.0 76518.0 96875.0 88889.0 27681.0 24465.0 232968.0 226897.0 294724.0 288329.0 121855.0 118672.0 81149.0 80471.0 324750.0 332388.0 60055.0 68052.0 269399.0 261940.0 97358.0 105619.0 65457.0 58008.0 189428.0 185458.0 350204.0 348348.0 121168.0 112632.0 7807.0 0.0 190235.0 188353.0 62581.0 57275.0 65070.0 62096.0 246087.0 251763.0 61882.0 68822.0 106723.0 114656.0 81912.0 76061.0 89312.0 84671.0 316247.0 311045.0 240406.0 234267.0 53101.0 48876.0 363099.0 361368.0 189505.0 194247.0 38928.0 32182.0 175410.0 182050.0 77273.0 79937.0 46834.0 44493.0 163094.0 160230.0 58850.0 53376.0 96821.0 89459.0 280199.0 285543.0 203945.0 206731.0 316959.0 308792.0 151430.0 143608.0 44915.0 36819.0 45147.0 47877.0 118086.0 125223.0 194766.0 202485.0 131675.0 124412.0 84722.0 76510.0 44801.0 43047.0 177307.0 177971.0 6409.0 3633.0 138448.0 130655.0 64522.0 61320.0 288740.0 295212.0 196841.0 200687.0 58714.0 51701.0 120896.0 129010.0 56347.0 55571.0 206264.0 202519.0 166607.0 165192.0 82469.0 74574.0 117717.0 111082.0 111379.0 108596.0 34895.0 42908.0 164861.0 157415.0 28141.0 29056.0 77429.0 75268.0 75943.0 68126.0 118611.0 126864.0 87431.0 87670.0 245799.0 245945.0 84627.0 90210.0 352230.0 344029.0 71344.0 69266.0 322211.0 323187.0 49231.0 40979.0 98898.0 105174.0 105811.0 99762.0 101010.0 109416.0 59803.0 67873.0 44525.0 48268.0 45763.0 43489.0 79258.0 85078.0 112529.0 195359.0 112529.0 112529.0 112529.0 112529.0 195359.0 195359.0 195359.0 195359.0
29957.0 37176.0 251718.0 244723.0 231704.0 227808.0 362649.0 354886.0 279729.0 276337.0 159522.0 155765.0 226022.0 217903.0 194461.0 187719.0 115341.0 115500.0 163934.0 161671.0 191327.0 185767.0 193841.0 187310.0 120296.0 126982.0 185326.0 193211.0 157750.0 156848.0 102427.0 110016.0 370649.0 375496.0 71331.0 70908.0 186654.0 189773.0 120434.0 123930.0 187741.0 185876.0 216053.0 209685.0 244569.0 236634.0 293124.0 285059.0 172235.0 179186.0 177111.0 169055.0 342918.0 347994.0 190323.0 191902.0 268367.0 261416.0 96950.0 89483.0 128593.0 134313.0 47928.0 40510.0 370377.0 372589.0 157106.0 155850.0 195748.0 190235.0 0.0 8111.0 252803.0 247384.0 126862.0 132245.0 295181.0 295847.0 129351.0 121770.0 188840.0 191858.0 262179.0 258918.0 274649.0 271624.0 333070.0 325374.0 242830.0 234878.0 201607.0 206437.0 380929.0 375532.0 76466.0 83598.0 177900.0 183202.0 243839.0 244397.0 267505.0 269833.0 190395.0 197488.0 223793.0 219009.0 248483.0 242055.0 93584.0 101253.0 307791.0 315630.0 216894.0 212419.0 347738.0 339589.0 175075.0 171109.0 232425.0 224581.0 172065.0 178832.0 209484.0 213531.0 255101.0 258809.0 175296.0 177596.0 155687.0 156795.0 185364.0 177608.0 18123.0 13011.0 196538.0 190125.0 172627.0 168717.0 250630.0 244985.0 288722.0 296775.0 229574.0 226317.0 159419.0 159056.0 165912.0 169801.0 134271.0 134741.0 34815.0 26743.0 30066.0 36784.0 196457.0 193216.0 73937.0 81787.0 197715.0 203718.0 185330.0 186228.0 53141.0 54019.0 162102.0 162771.0 253912.0 255443.0 262959.0 255693.0 100686.0 96957.0 277664.0 277656.0 255067.0 249903.0 265985.0 269096.0 352728.0 345356.0 191952.0 183435.0 341256.0 346107.0 157159.0 163306.0 167083.0 162300.0 85252.0 90593.0 154640.0 155093.0 236205.0 241591.0 231373.0 231833.0 223693.0 216586.0 269001.0 274172.0 279075.0 260732.0 279075.0 279075.0 279075.0 279075.0 260732.0 260732.0 260732.0 260732.0
30184.0 36304.0 251715.0 244851.0 235760.0 232075.0 369669.0 361884.0 279150.0 275540.0 161691.0 158295.0 224090.0 216042.0 200049.0 193154.0 113867.0 114591.0 165252.0 163354.0 188784.0 182986.0 198490.0 192115.0 117481.0 124486.0 187962.0 195804.0 159197.0 157892.0 98245.0 105619.0 377022.0 381954.0 73343.0 72035.0 187061.0 190501.0 120196.0 124151.0 190014.0 187827.0 214544.0 208380.0 250725.0 242771.0 299957.0 291892.0 175727.0 182472.0 178780.0 170705.0 349486.0 354645.0 190998.0 192905.0 275049.0 268040.0 96889.0 89758.0 127925.0 133274.0 55494.0 47852.0 376995.0 379109.0 160676.0 159027.0 193635.0 188353.0 8111.0 0.0 250927.0 245326.0 124314.0 129340.0 300610.0 301436.0 126990.0 119617.0 191515.0 194823.0 261661.0 258174.0 273738.0 270513.0 339631.0 331965.0 249233.0 241263.0 201857.0 206420.0 387638.0 382312.0 83788.0 91043.0 177648.0 182680.0 248117.0 248900.0 265601.0 268160.0 190501.0 197428.0 228065.0 223274.0 246258.0 239669.0 92219.0 100052.0 313941.0 321753.0 222713.0 218412.0 353965.0 345794.0 179754.0 175526.0 229938.0 222170.0 172045.0 178998.0 212307.0 216563.0 259800.0 263687.0 179171.0 181141.0 157487.0 158181.0 181668.0 174016.0 12134.0 10896.0 194603.0 188394.0 176813.0 172619.0 249539.0 244091.0 295495.0 303550.0 234909.0 231845.0 159893.0 159122.0 169415.0 173622.0 132786.0 132782.0 42858.0 34774.0 33796.0 41251.0 198020.0 194484.0 71104.0 78614.0 200462.0 206257.0 184935.0 186182.0 58642.0 58633.0 160219.0 160491.0 253603.0 254889.0 261813.0 254451.0 103485.0 100317.0 275715.0 275950.0 261379.0 256321.0 265403.0 268723.0 359748.0 352334.0 193095.0 184552.0 347795.0 352566.0 157015.0 162863.0 169589.0 165111.0 84412.0 89195.0 157255.0 158117.0 235742.0 241341.0 230110.0 230855.0 223002.0 216055.0 266764.0 271762.0 279587.0 265317.0 279587.0 279587.0 279587.0 279587.0 265317.0 265317.0 265317.0 265317.0
223187.0 215649.0 58555.0 62117.0 180204.0 185903.0 380114.0 372885.0 50999.0 42930.0 135633.0 143831.0 26864.0 34900.0 219306.0 212808.0 137568.0 138397.0 118547.0 125966.0 64576.0 72019.0 190350.0 193944.0 134645.0 126947.0 137235.0 134872.0 124209.0 118678.0 159232.0 154462.0 357711.0 364564.0 190903.0 187201.0 89381.0 93659.0 136280.0 135856.0 128143.0 121251.0 38122.0 45908.0 260032.0 255314.0 319619.0 314258.0 159600.0 153785.0 118442.0 121704.0 341561.0 349445.0 92313.0 98292.0 296350.0 289467.0 158947.0 167168.0 126570.0 119660.0 250212.0 246714.0 365923.0 363983.0 164055.0 156249.0 57569.0 62581.0 252803.0 250927.0 0.0 7962.0 127231.0 123472.0 261089.0 266945.0 124223.0 131349.0 137558.0 144412.0 44634.0 36686.0 38813.0 31594.0 333796.0 329635.0 269377.0 264506.0 77721.0 69537.0 378850.0 377721.0 247781.0 251825.0 85546.0 77880.0 191393.0 199194.0 14718.0 18392.0 81689.0 74096.0 184981.0 183562.0 11955.0 19443.0 159321.0 151860.0 297118.0 301604.0 234649.0 239195.0 332594.0 324427.0 189256.0 182278.0 27985.0 32787.0 93135.0 90630.0 139885.0 145914.0 210352.0 218343.0 168533.0 160246.0 131082.0 123814.0 85526.0 89574.0 239841.0 240553.0 56327.0 62746.0 176433.0 169719.0 24795.0 31366.0 313649.0 319098.0 222290.0 227878.0 109117.0 104589.0 160864.0 167684.0 118709.0 118146.0 268070.0 264600.0 228814.0 227072.0 109179.0 103497.0 180190.0 173384.0 138289.0 132369.0 77714.0 82063.0 225564.0 218340.0 90722.0 90845.0 49312.0 41930.0 25791.0 20478.0 176120.0 184231.0 24949.0 25582.0 272060.0 273819.0 44000.0 51609.0 372490.0 364525.0 101268.0 104546.0 338938.0 339147.0 104011.0 95887.0 139200.0 146928.0 168166.0 162280.0 145837.0 153464.0 45780.0 50961.0 28126.0 34032.0 45216.0 52867.0 19976.0 27654.0 88720.0 210223.0 88720.0 88720.0 88720.0 88720.0 210223.0 210223.0 210223.0 210223.0
217890.0 210275.0 63839.0 66670.0 182887.0 188352.0 383280.0 375985.0 58678.0 50684.0 134540.0 142717.0 21636.0 29951.0 220068.0 213377.0 132369.0 133565.0 117148.0 124702.0 57898.0 65112.0 191333.0 194634.0 128594.0 121055.0 137774.0 135854.0 122572.0 116680.0 152738.0 147778.0 360902.0 367755.0 186532.0 182581.0 88535.0 93401.0 131975.0 131950.0 128717.0 121581.0 34918.0 43104.0 261992.0 257083.0 322001.0 316497.0 159620.0 154124.0 118071.0 120836.0 344751.0 352636.0 92042.0 98443.0 298419.0 291445.0 154332.0 162579.0 122096.0 114961.0 246009.0 242310.0 369114.0 367174.0 163355.0 155382.0 51695.0 57275.0 247384.0 245326.0 7962.0 0.0 121303.0 117254.0 264280.0 270136.0 118414.0 125712.0 138306.0 145377.0 51266.0 43236.0 46609.0 39463.0 336957.0 332811.0 271114.0 266059.0 77882.0 69777.0 382041.0 380912.0 244394.0 248631.0 83191.0 75370.0 194431.0 202138.0 20811.0 25889.0 80719.0 73442.0 187272.0 185665.0 5358.0 11616.0 154074.0 146734.0 300260.0 304794.0 236044.0 240367.0 335785.0 327618.0 189457.0 182318.0 20072.0 25323.0 90797.0 88940.0 141809.0 148040.0 213534.0 221529.0 168745.0 160540.0 129575.0 122082.0 77859.0 82113.0 234129.0 235033.0 50909.0 57806.0 176537.0 169623.0 30407.0 35859.0 316017.0 321607.0 224324.0 229712.0 106716.0 101728.0 160575.0 167631.0 113615.0 112643.0 263393.0 259747.0 223863.0 222341.0 110026.0 103942.0 174423.0 167466.0 139553.0 133957.0 75563.0 80559.0 221377.0 214061.0 85326.0 84929.0 54972.0 47920.0 33265.0 27215.0 172808.0 180974.0 30550.0 32605.0 274158.0 275712.0 51001.0 58602.0 375535.0 367530.0 101533.0 104190.0 342129.0 342338.0 100826.0 92564.0 138673.0 146265.0 163084.0 157005.0 144703.0 152511.0 49109.0 55152.0 28515.0 35660.0 46229.0 53280.0 22318.0 29070.0 94953.0 213414.0 94953.0 94953.0 94953.0 94953.0 213414.0 213414.0 213414.0 213414.0
98046.0 90149.0 138236.0 132811.0 177072.0 177646.0 362073.0 354097.0 160709.0 155888.0 89734.0 93366.0 100378.0 92556.0 176928.0 168510.0 19735.0 26995.0 79024.0 83264.0 64488.0 58991.0 157451.0 155508.0 7946.0 867.0 115335.0 120676.0 77020.0 70153.0 35462.0 34362.0 351507.0 358239.0 75592.0 69217.0 83235.0 90081.0 35929.0 43077.0 111299.0 104798.0 92330.0 87299.0 231242.0 223953.0 292091.0 284762.0 120429.0 121772.0 93817.0 87727.0 330586.0 337589.0 89824.0 95615.0 265554.0 257806.0 44697.0 51828.0 30121.0 26053.0 133436.0 128083.0 357670.0 357141.0 111870.0 104297.0 69676.0 65070.0 126862.0 124314.0 127231.0 121303.0 0.0 7940.0 259729.0 263794.0 4004.0 7946.0 118638.0 125759.0 143987.0 139141.0 153502.0 149332.0 321256.0 314931.0 235817.0 228502.0 94227.0 95548.0 370136.0 367044.0 140271.0 146462.0 67596.0 69126.0 191522.0 196195.0 141802.0 144903.0 82648.0 86971.0 174381.0 170278.0 122033.0 115360.0 36514.0 31472.0 287519.0 294057.0 200016.0 200265.0 326384.0 318223.0 144108.0 136345.0 105629.0 97858.0 65687.0 73609.0 137457.0 144209.0 209248.0 215961.0 129357.0 125138.0 81391.0 75459.0 62453.0 54327.0 112937.0 114245.0 71080.0 65697.0 133145.0 125293.0 128743.0 124472.0 286368.0 293743.0 200091.0 201462.0 63177.0 57005.0 116348.0 124584.0 19238.0 12764.0 146606.0 141868.0 105919.0 106032.0 107353.0 100422.0 53230.0 46166.0 126726.0 128188.0 72395.0 77206.0 109998.0 102142.0 37591.0 36393.0 137624.0 137147.0 140571.0 132867.0 78260.0 85535.0 151810.0 152572.0 244178.0 242350.0 147227.0 151860.0 352752.0 344555.0 97617.0 90374.0 328265.0 330684.0 52674.0 53247.0 100183.0 102114.0 46449.0 38942.0 94098.0 101248.0 119249.0 126273.0 108777.0 111051.0 105322.0 99895.0 142516.0 147448.0 169876.0 212006.0 169876.0 169876.0 169876.0 169876.0 212006.0 212006.0 212006.0 212006.0
103867.0 95883.0 137800.0 132729.0 182341.0 183173.0 368861.0 360895.0 158924.0 153780.0 95544.0 99574.0 96724.0 89138.0 183908.0 175503.0 27671.0 34826.0 83888.0 88591.0 59751.0 53659.0 163890.0 162164.0 12001.0 8532.0 120477.0 125509.0 82368.0 75198.0 36484.0 33588.0 357631.0 364424.0 83128.0 76581.0 85580.0 92780.0 43350.0 50243.0 116008.0 109245.0 89695.0 85248.0 238025.0 230795.0 299039.0 291754.0 126645.0 127640.0 98348.0 92636.0 337036.0 344092.0 92414.0 98622.0 272533.0 264789.0 52560.0 59574.0 36711.0 31527.0 140521.0 134995.0 364036.0 363401.0 118576.0 110851.0 65984.0 62096.0 132245.0 129340.0 123472.0 117254.0 7940.0 0.0 265450.0 269658.0 9542.0 15885.0 123695.0 130981.0 142513.0 137320.0 151223.0 146748.0 327752.0 321495.0 242785.0 235523.0 95608.0 96258.0 376546.0 373547.0 147925.0 154180.0 69255.0 69891.0 196792.0 201662.0 137915.0 141388.0 84276.0 87959.0 179984.0 175962.0 117684.0 110749.0 43685.0 39119.0 293797.0 300257.0 206855.0 207258.0 332523.0 324349.0 150927.0 143112.0 100862.0 93258.0 68190.0 75989.0 142031.0 148888.0 214740.0 221565.0 135724.0 131233.0 87130.0 80812.0 55272.0 47164.0 117761.0 119491.0 67826.0 63135.0 139756.0 131846.0 126416.0 122579.0 293292.0 300623.0 206445.0 207995.0 67406.0 60705.0 122757.0 131064.0 24197.0 16450.0 153058.0 148110.0 112287.0 112731.0 110923.0 103738.0 58324.0 50757.0 131566.0 132633.0 73310.0 78769.0 117296.0 109430.0 35906.0 33041.0 136628.0 135705.0 138008.0 130212.0 86183.0 93473.0 147804.0 148959.0 250983.0 249272.0 145596.0 150539.0 359579.0 351373.0 100819.0 93938.0 334697.0 337016.0 56222.0 55659.0 105907.0 108232.0 53625.0 45947.0 100401.0 107752.0 118301.0 125602.0 106392.0 109215.0 104215.0 99285.0 138079.0 142727.0 169977.0 217317.0 169977.0 169977.0 169977.0 169977.0 217317.0 217317.0 217317.0 217317.0
275863.0 274900.0 205971.0 200237.0 84639.0 82530.0 123469.0 116900.0 234676.0 239326.0 169995.0 166800.0 253754.0 249830.0 100857.0 107468.0 245552.0 237736.0 182407.0 176998.0 262108.0 266947.0 105975.0 110725.0 264519.0 258865.0 145771.0 142094.0 183176.0 190630.0 285277.0 289077.0 98138.0 104990.0 236271.0 242040.0 193105.0 185067.0 226693.0 218853.0 151806.0 159509.0 240124.0 233752.0 61164.0 67063.0 79602.0 79023.0 140106.0 137987.0 169446.0 173738.0 82938.0 90970.0 186149.0 178163.0 71600.0 70555.0 235658.0 236491.0 229835.0 233953.0 252875.0 257797.0 106350.0 104410.0 151470.0 157533.0 252268.0 246087.0 295181.0 300610.0 261089.0 264280.0 259729.0 265450.0 0.0 8101.0 256445.0 254109.0 142895.0 135177.0 224829.0 230260.0 241895.0 246434.0 76416.0 73948.0 70507.0 75457.0 194242.0 200588.0 119290.0 118287.0 225985.0 221523.0 209472.0 214649.0 70707.0 64494.0 268157.0 262342.0 199262.0 202271.0 85536.0 89488.0 269526.0 271689.0 251154.0 246497.0 40827.0 42998.0 79946.0 86136.0 73021.0 64854.0 123513.0 129608.0 271075.0 266457.0 205757.0 200231.0 128155.0 120973.0 51499.0 44114.0 132163.0 135041.0 178360.0 184722.0 288839.0 284421.0 298423.0 292058.0 247984.0 242462.0 130631.0 137464.0 237406.0 229925.0 75191.0 76170.0 65785.0 68955.0 199880.0 207605.0 145035.0 137552.0 241253.0 249092.0 277659.0 281835.0 267273.0 259495.0 163707.0 171667.0 272107.0 273911.0 136246.0 137782.0 211534.0 203459.0 242074.0 242211.0 245421.0 253571.0 215692.0 223384.0 243701.0 243617.0 206671.0 206034.0 274420.0 267087.0 59167.0 66595.0 228258.0 223401.0 117041.0 109680.0 174932.0 178362.0 80262.0 79626.0 212133.0 216321.0 159567.0 157931.0 249209.0 252627.0 166334.0 160182.0 215358.0 210446.0 236724.0 228899.0 219450.0 214279.0 278794.0 286523.0 209336.0 50865.0 209336.0 209336.0 209336.0 209336.0 50865.0 50865.0 50865.0 50865.0
277180.0 276450.0 211828.0 206094.0 90016.0 87349.0 115871.0 109199.0 240532.0 245182.0 174119.0 170614.0 259610.0 255687.0 101394.0 108390.0 249239.0 241364.0 187017.0 181405.0 267753.0 272446.0 108701.0 112995.0 268413.0 262932.0 150517.0 147153.0 187545.0 195099.0 288688.0 292670.0 91057.0 97910.0 238179.0 244127.0 198632.0 190639.0 230361.0 222534.0 156837.0 164619.0 245980.0 239580.0 57972.0 64480.0 71737.0 71411.0 143739.0 142035.0 174366.0 178399.0 75664.0 83676.0 191747.0 183750.0 64916.0 64434.0 238631.0 239201.0 233807.0 238135.0 252893.0 258021.0 99269.0 97329.0 154584.0 160928.0 258051.0 251763.0 295847.0 301436.0 266945.0 270136.0 263794.0 269658.0 8101.0 0.0 260573.0 258024.0 147745.0 139944.0 230685.0 236116.0 247751.0 252290.0 68834.0 66108.0 66403.0 71962.0 200095.0 206428.0 112209.0 111207.0 225664.0 220973.0 214819.0 220162.0 76406.0 69769.0 274014.0 268198.0 204930.0 208096.0 90144.0 93881.0 275382.0 277545.0 254219.0 249758.0 32890.0 35545.0 79499.0 85153.0 65941.0 57773.0 125754.0 132151.0 276932.0 272313.0 210910.0 205559.0 133698.0 126545.0 57003.0 49302.0 135497.0 138797.0 182528.0 189081.0 294210.0 289649.0 299570.0 293070.0 253800.0 248144.0 133515.0 140576.0 243262.0 235781.0 67449.0 68209.0 67343.0 69619.0 204571.0 212361.0 148461.0 140782.0 245473.0 253353.0 277480.0 281856.0 268271.0 260436.0 169307.0 177238.0 274741.0 276773.0 141382.0 143263.0 217098.0 209023.0 242821.0 243219.0 250407.0 258568.0 221548.0 229241.0 249557.0 249474.0 208925.0 207978.0 280276.0 272943.0 54433.0 61902.0 234114.0 229257.0 109278.0 101845.0 180492.0 183657.0 72997.0 72546.0 216865.0 221270.0 163759.0 161780.0 251982.0 255612.0 170064.0 163664.0 221214.0 216302.0 242580.0 234756.0 225307.0 220135.0 284651.0 292379.0 215192.0 57106.0 215192.0 215192.0 215192.0 215192.0 57106.0 57106.0 57106.0 57106.0
100314.0 92482.0 134385.0 128915.0 173608.0 174277.0 359384.0 351415.0 157097.0 152353.0 86463.0 90293.0 97359.0 89463.0 174385.0 165978.0 19246.0 25785.0 75405.0 79796.0 62011.0 56847.0 154523.0 152719.0 11804.0 3281.0 111816.0 117064.0 73555.0 66582.0 39388.0 38364.0 348413.0 355177.0 76280.0 70179.0 79240.0 86106.0 33864.0 40703.0 107650.0 101081.0 88983.0 83797.0 228547.0 221301.0 289524.0 282231.0 117367.0 118537.0 90116.0 84125.0 327672.0 334708.0 85842.0 91665.0 263012.0 255267.0 44722.0 52174.0 27238.0 22548.0 134643.0 129473.0 354707.0 354119.0 109111.0 101433.0 66731.0 61882.0 129351.0 126990.0 124223.0 118414.0 4004.0 9542.0 256445.0 260573.0 0.0 8186.0 115093.0 122270.0 140314.0 135545.0 150012.0 145926.0 318370.0 312088.0 233266.0 225995.0 90229.0 91586.0 367200.0 364163.0 140674.0 146731.0 63595.0 65170.0 188060.0 192805.0 138833.0 141793.0 78646.0 82993.0 171041.0 166971.0 119269.0 112720.0 37885.0 32177.0 284505.0 291001.0 197361.0 197734.0 323299.0 315129.0 141435.0 133633.0 103074.0 95236.0 61695.0 69614.0 133780.0 140560.0 205868.0 212626.0 126382.0 122014.0 78085.0 71995.0 61690.0 53581.0 115720.0 116820.0 67971.0 62378.0 130323.0 122432.0 125277.0 120900.0 283781.0 291122.0 197116.0 198595.0 59389.0 53119.0 113396.0 121676.0 15509.0 8763.0 148385.0 143808.0 107800.0 107642.0 103473.0 96506.0 56009.0 49203.0 123118.0 124477.0 68426.0 73206.0 110975.0 103143.0 34148.0 33507.0 133862.0 133469.0 137163.0 129490.0 77336.0 84790.0 148881.0 149494.0 241499.0 239761.0 143586.0 148153.0 350091.0 341888.0 93687.0 86487.0 325340.0 327702.0 48763.0 49248.0 96878.0 98996.0 47741.0 40478.0 91078.0 98351.0 115485.0 122461.0 105341.0 107474.0 101596.0 96085.0 139774.0 144832.0 165956.0 208560.0 165956.0 165956.0 165956.0 165956.0 208560.0 208560.0 208560.0 208560.0
92551.0 84782.0 139106.0 133347.0 171989.0 172289.0 355317.0 347332.0 162845.0 158349.0 84254.0 87421.0 104496.0 96495.0 170017.0 161589.0 11796.0 19244.0 74669.0 78361.0 69799.0 64850.0 151137.0 148962.0 10427.0 7406.0 110506.0 116164.0 72131.0 65663.0 36216.0 36891.0 345439.0 352108.0 68149.0 61999.0 81578.0 87998.0 28771.0 36217.0 106953.0 100760.0 95539.0 89990.0 224520.0 217170.0 285181.0 277807.0 114410.0 116132.0 89740.0 83266.0 324185.0 331131.0 87857.0 93168.0 258616.0 250865.0 36865.0 44151.0 24330.0 22106.0 126457.0 121302.0 351350.0 350932.0 105318.0 97931.0 74027.0 68822.0 121770.0 119617.0 131349.0 125712.0 7946.0 15885.0 254109.0 258024.0 8186.0 0.0 113891.0 120814.0 145862.0 141368.0 156135.0 152272.0 314810.0 308415.0 228897.0 221528.0 93482.0 95475.0 363769.0 360581.0 132650.0 138768.0 66826.0 69249.0 186422.0 190884.0 146005.0 148744.0 81741.0 86683.0 168947.0 164762.0 126720.0 120308.0 29741.0 24017.0 281308.0 287925.0 193247.0 193330.0 320304.0 312160.0 137393.0 129695.0 110750.0 102856.0 64057.0 72009.0 133180.0 139804.0 203898.0 210488.0 123156.0 119242.0 76030.0 70574.0 69797.0 61679.0 108494.0 109337.0 75023.0 69068.0 126669.0 118892.0 131493.0 126818.0 279483.0 286903.0 193838.0 195016.0 59687.0 54203.0 110120.0 118265.0 16737.0 13449.0 140314.0 135811.0 99785.0 99522.0 104246.0 97619.0 48914.0 42588.0 122191.0 124071.0 72326.0 76420.0 102797.0 94963.0 40765.0 41016.0 139049.0 139010.0 143512.0 135919.0 70333.0 77591.0 156104.0 156490.0 237428.0 235477.0 149247.0 153563.0 345957.0 337770.0 94952.0 87367.0 321884.0 324407.0 50121.0 51928.0 94760.0 96244.0 39572.0 32380.0 88043.0 94946.0 120694.0 127418.0 111661.0 113397.0 106992.0 101109.0 147237.0 152426.0 170149.0 206844.0 170149.0 170149.0 170149.0 170149.0 206844.0 206844.0 206844.0 206844.0
161995.0 157951.0 95667.0 87842.0 58783.0 60409.0 254187.0 246457.0 129127.0 130798.0 31702.0 33315.0 122672.0 116850.0 81777.0 75280.0 107008.0 99874.0 39850.0 35552.0 122274.0 126094.0 53143.0 56386.0 124268.0 117772.0 3661.0 4795.0 41766.0 48517.0 147839.0 150308.0 237138.0 243990.0 118329.0 120958.0 53789.0 46694.0 88909.0 81300.0 9949.0 17871.0 107643.0 99965.0 126544.0 120781.0 188132.0 181875.0 25589.0 17702.0 26648.0 31099.0 218854.0 226365.0 48009.0 40542.0 163092.0 155744.0 104206.0 108006.0 89709.0 92587.0 161564.0 162398.0 244871.0 243400.0 37576.0 34698.0 113732.0 106723.0 188840.0 191515.0 137558.0 138306.0 118638.0 123695.0 142895.0 147745.0 115093.0 113891.0 0.0 7968.0 114054.0 116376.0 131819.0 133725.0 210126.0 204689.0 134544.0 128867.0 60659.0 68619.0 257676.0 255554.0 145388.0 145921.0 68259.0 74541.0 73205.0 78509.0 148411.0 144808.0 61192.0 66624.0 57655.0 54240.0 142993.0 142834.0 117828.0 111494.0 174508.0 180267.0 98550.0 102338.0 212021.0 203854.0 52631.0 46574.0 139581.0 133443.0 63567.0 59040.0 21083.0 26627.0 91601.0 98783.0 32398.0 24030.0 38777.0 43320.0 147215.0 142253.0 185057.0 181036.0 109847.0 103214.0 40587.0 35653.0 118068.0 109874.0 182138.0 188527.0 90120.0 94137.0 57068.0 64723.0 29941.0 33449.0 99634.0 107245.0 186069.0 186590.0 158810.0 152773.0 28385.0 34536.0 142189.0 141571.0 9100.0 15218.0 71938.0 64112.0 140737.0 136775.0 102687.0 110852.0 103548.0 109776.0 128029.0 124940.0 88154.0 92418.0 156919.0 151377.0 139277.0 139772.0 118279.0 116494.0 245564.0 237356.0 37253.0 37481.0 216361.0 217757.0 69263.0 73539.0 22194.0 26663.0 119073.0 120026.0 34265.0 34505.0 94569.0 93486.0 109870.0 103543.0 92362.0 85027.0 157259.0 165087.0 110237.0 93760.0 110237.0 110237.0 110237.0 110237.0 93760.0 93760.0 93760.0 93760.0
165583.0 161847.0 100765.0 93063.0 51361.0 52652.0 246225.0 238497.0 134047.0 136090.0 37469.0 37651.0 130113.0 124421.0 74951.0 68777.0 113580.0 106287.0 47313.0 42500.0 130228.0 134062.0 45961.0 49750.0 131218.0 124892.0 10596.0 9541.0 48745.0 55794.0 154339.0 157033.0 229245.0 236097.0 121945.0 125006.0 61638.0 54423.0 95251.0 87548.0 17798.0 25772.0 115147.0 107548.0 118742.0 113063.0 180267.0 174050.0 23314.0 14868.0 34546.0 38598.0 210898.0 218405.0 55724.0 48132.0 155307.0 147988.0 109554.0 112937.0 96547.0 99731.0 162890.0 164117.0 236942.0 235500.0 37306.0 36245.0 121640.0 114656.0 191858.0 194823.0 144412.0 145377.0 125759.0 130981.0 135177.0 139944.0 122270.0 120814.0 7968.0 0.0 119441.0 122131.0 137290.0 139494.0 202163.0 196721.0 126875.0 121302.0 67994.0 75854.0 249740.0 247600.0 145503.0 145608.0 76225.0 82478.0 65811.0 70884.0 154968.0 151137.0 68970.0 74218.0 49813.0 46323.0 150127.0 150157.0 123565.0 117463.0 166567.0 172350.0 91033.0 95033.0 204128.0 195961.0 47244.0 41926.0 147097.0 141055.0 71521.0 67002.0 17962.0 21785.0 83982.0 91078.0 28001.0 20170.0 45110.0 50306.0 155171.0 150182.0 188757.0 184467.0 117734.0 111141.0 36044.0 32426.0 124412.0 116227.0 174272.0 180629.0 82199.0 86309.0 64706.0 72437.0 28802.0 30279.0 106856.0 114539.0 187688.0 188543.0 161793.0 155512.0 35359.0 41974.0 147570.0 147285.0 8047.0 16094.0 79848.0 71993.0 142768.0 139184.0 110548.0 118715.0 108971.0 115436.0 134069.0 131265.0 91340.0 95019.0 163302.0 157560.0 131442.0 132028.0 123619.0 121462.0 237610.0 229402.0 44811.0 45397.0 208408.0 209826.0 76958.0 81396.0 27253.0 29863.0 124340.0 125665.0 38246.0 36770.0 100852.0 99331.0 116891.0 110380.0 99291.0 92118.0 164015.0 171862.0 113779.0 86341.0 113779.0 113779.0 113779.0 113779.0 86341.0 86341.0 86341.0 86341.0
232236.0 225412.0 19247.0 26463.0 145992.0 152590.0 343852.0 336628.0 17643.0 16822.0 122206.0 130025.0 56489.0 60108.0 193126.0 187697.0 148786.0 147155.0 108113.0 114170.0 91554.0 99706.0 163717.0 168661.0 151913.0 143468.0 114847.0 110298.0 114664.0 111647.0 178907.0 175835.0 321451.0 328304.0 194501.0 192544.0 79203.0 79555.0 141774.0 138886.0 106124.0 101020.0 55050.0 57609.0 227808.0 223966.0 285208.0 280451.0 138860.0 131623.0 102270.0 108021.0 305301.0 313185.0 78475.0 81287.0 263359.0 256908.0 165298.0 173009.0 133737.0 128724.0 251309.0 249196.0 329663.0 327723.0 146988.0 140434.0 80908.0 81912.0 262179.0 261661.0 44634.0 51266.0 143987.0 142513.0 224829.0 230685.0 140314.0 145862.0 114054.0 119441.0 0.0 8039.0 17902.0 21604.0 297536.0 293374.0 238027.0 234010.0 64009.0 57331.0 342590.0 341462.0 243773.0 246557.0 84458.0 78992.0 155523.0 163591.0 45902.0 38795.0 73521.0 65738.0 152381.0 151828.0 56256.0 62449.0 169868.0 161903.0 260858.0 265344.0 205232.0 210744.0 296335.0 288167.0 166562.0 160619.0 68115.0 69153.0 90823.0 85005.0 110330.0 115148.0 174093.0 182084.0 146443.0 138050.0 120290.0 114838.0 118678.0 120421.0 251585.0 250868.0 77480.0 80062.0 154631.0 149191.0 21669.0 20999.0 279326.0 284191.0 190186.0 196581.0 105294.0 103898.0 141716.0 147009.0 130370.0 132527.0 272011.0 269793.0 235333.0 232127.0 87178.0 84264.0 193699.0 188210.0 112091.0 104840.0 76872.0 76810.0 227058.0 220601.0 106673.0 110089.0 10515.0 6852.0 20418.0 24167.0 173569.0 181049.0 50293.0 42494.0 239138.0 241751.0 4308.0 8458.0 336257.0 328322.0 83276.0 89629.0 302679.0 302888.0 105269.0 98873.0 122420.0 130465.0 177253.0 172902.0 132031.0 138261.0 26005.0 22088.0 38585.0 33644.0 38925.0 45608.0 57273.0 64357.0 44275.0 173963.0 44275.0 44275.0 44275.0 44275.0 173963.0 173963.0 173963.0 173963.0
228962.0 222002.0 24339.0 30377.0 150957.0 157358.0 349283.0 342059.0 21604.0 17482.0 122463.0 130423.0 49012.0 53097.0 196396.0 190723.0 144827.0 143583.0 107630.0 114024.0 84910.0 93060.0 166996.0 171663.0 147035.0 138654.0 116927.0 112829.0 114079.0 110544.0 173787.0 170453.0 326882.0 333735.0 192032.0 189769.0 78204.0 79378.0 138707.0 136217.0 108046.0 102494.0 48742.0 52092.0 232474.0 228431.0 290427.0 285530.0 140752.0 133775.0 102887.0 108189.0 310731.0 318616.0 78220.0 81770.0 268240.0 261685.0 162230.0 170065.0 130330.0 124966.0 249445.0 247084.0 335094.0 333154.0 148162.0 141312.0 74544.0 76061.0 258918.0 258174.0 36686.0 43236.0 139141.0 137320.0 230260.0 236116.0 135545.0 141368.0 116376.0 122131.0 8039.0 0.0 16582.0 17363.0 302967.0 298805.0 242512.0 238301.0 63352.0 56105.0 348021.0 346892.0 242806.0 245826.0 81832.0 75855.0 160916.0 168935.0 38869.0 32259.0 71981.0 64010.0 156979.0 156222.0 48248.0 54411.0 166130.0 158207.0 266289.0 270775.0 209236.0 214547.0 301765.0 293598.0 169002.0 162815.0 60166.0 61416.0 88542.0 83232.0 114019.0 119156.0 179524.0 187515.0 148664.0 140248.0 120006.0 114144.0 111535.0 113547.0 247911.0 247428.0 71317.0 74442.0 156830.0 151094.0 13805.0 14763.0 284520.0 289522.0 194762.0 200987.0 103511.0 101527.0 143289.0 148933.0 126212.0 127964.0 269695.0 267256.0 232492.0 229527.0 88874.0 85291.0 189582.0 183866.0 115006.0 108009.0 74030.0 74785.0 225063.0 218453.0 101640.0 104623.0 14574.0 6940.0 13538.0 16208.0 172096.0 179725.0 44189.0 36896.0 243976.0 246401.0 8891.0 15949.0 341688.0 333753.0 84011.0 89807.0 308109.0 308318.0 102572.0 95787.0 123365.0 131407.0 173787.0 169166.0 132444.0 139000.0 24161.0 22919.0 31951.0 28112.0 35239.0 42689.0 50130.0 57431.0 52073.0 179394.0 52073.0 52073.0 52073.0 52073.0 179394.0 179394.0 179394.0 179394.0
244699.0 237646.0 37057.0 44365.0 163392.0 170102.0 360918.0 353694.0 12504.0 4241.0 138909.0 146835.0 58504.0 64153.0 211028.0 205594.0 160114.0 159188.0 124195.0 130549.0 96383.0 104437.0 181619.0 186555.0 161333.0 153057.0 132540.0 128113.0 130652.0 127119.0 187695.0 183978.0 338517.0 345370.0 208244.0 205834.0 94786.0 95891.0 154655.0 152378.0 123757.0 118459.0 61632.0 66214.0 245337.0 241596.0 302341.0 297696.0 156497.0 149346.0 119218.0 124650.0 322367.0 330251.0 94745.0 98127.0 280750.0 274365.0 178152.0 186052.0 146076.0 140464.0 265860.0 263419.0 346729.0 344789.0 164297.0 157570.0 86815.0 89312.0 274649.0 273738.0 38813.0 46609.0 153502.0 151223.0 241895.0 247751.0 150012.0 156135.0 131819.0 137290.0 17902.0 16582.0 0.0 7456.0 314602.0 310440.0 255644.0 251710.0 79916.0 72686.0 359656.0 358528.0 259380.0 262408.0 98096.0 91901.0 172590.0 180691.0 34471.0 26360.0 88534.0 80545.0 169980.0 169517.0 50673.0 58212.0 181573.0 173695.0 277924.0 282410.0 223032.0 228589.0 313401.0 305233.0 184372.0 178364.0 65974.0 69071.0 104915.0 99740.0 128212.0 132974.0 191159.0 199150.0 164192.0 155789.0 136552.0 130723.0 121220.0 124098.0 263331.0 263034.0 84053.0 88089.0 172375.0 166835.0 24808.0 29663.0 296481.0 301228.0 207777.0 214246.0 119999.0 117852.0 159223.0 164661.0 141359.0 142692.0 285945.0 283407.0 248499.0 245662.0 104705.0 101452.0 204655.0 198714.0 129970.0 122739.0 90224.0 91250.0 241443.0 234782.0 115911.0 118267.0 28321.0 22332.0 14177.0 21991.0 188617.0 196268.0 35920.0 27475.0 256564.0 259284.0 13903.0 18831.0 353323.0 345388.0 100286.0 106255.0 319745.0 319954.0 118764.0 111801.0 139588.0 147635.0 189432.0 184606.0 148853.0 155308.0 40743.0 38906.0 44834.0 42906.0 51295.0 58999.0 45599.0 51655.0 57108.0 191029.0 57108.0 57108.0 57108.0 57108.0 191029.0 191029.0 191029.0 191029.0
241701.0 234539.0 40667.0 47369.0 167538.0 174081.0 365456.0 358232.0 19957.0 11696.0 139127.0 147151.0 52582.0 58717.0 213721.0 208075.0 156710.0 156126.0 123854.0 130460.0 90860.0 98839.0 184317.0 189016.0 157104.0 148918.0 134249.0 130191.0 130207.0 126265.0 183164.0 179218.0 343055.0 349908.0 206012.0 203340.0 94188.0 95921.0 152047.0 150119.0 125347.0 119699.0 57063.0 62310.0 249274.0 245351.0 306805.0 302030.0 158032.0 151102.0 119775.0 124832.0 326905.0 334790.0 94721.0 98652.0 284895.0 278414.0 175468.0 183456.0 143209.0 137316.0 264074.0 261419.0 351267.0 349327.0 165228.0 158263.0 81693.0 84671.0 271624.0 270513.0 31594.0 39463.0 149332.0 146748.0 246434.0 252290.0 145926.0 152272.0 133725.0 139494.0 21604.0 17363.0 7456.0 0.0 319140.0 314978.0 259422.0 255313.0 79698.0 72127.0 364195.0 363066.0 258383.0 261615.0 96180.0 89627.0 177127.0 185194.0 27135.0 19108.0 87567.0 79515.0 173811.0 173169.0 43380.0 51032.0 178295.0 170477.0 282462.0 286948.0 226370.0 231752.0 317939.0 309772.0 186354.0 180142.0 59056.0 62522.0 103224.0 98497.0 131236.0 136267.0 195697.0 203689.0 165996.0 157579.0 136333.0 130188.0 114982.0 118130.0 259954.0 259864.0 79175.0 83686.0 174158.0 168373.0 20997.0 27424.0 300920.0 305795.0 211614.0 217936.0 118622.0 116002.0 160491.0 166216.0 137857.0 138824.0 283741.0 281013.0 245878.0 243256.0 106146.0 102383.0 200985.0 194855.0 132360.0 125335.0 88209.0 89878.0 239571.0 232786.0 111778.0 113718.0 31237.0 24133.0 8764.0 16558.0 187281.0 195044.0 29382.0 21190.0 260661.0 263212.0 18404.0 24764.0 357861.0 349926.0 100996.0 106509.0 324283.0 324492.0 116638.0 109395.0 140364.0 148396.0 186373.0 181322.0 149178.0 155891.0 40547.0 40243.0 40611.0 39944.0 49414.0 57448.0 38363.0 44657.0 63495.0 195567.0 63495.0 63495.0 63495.0 63495.0 195567.0 195567.0 195567.0 195567.0
319023.0 319765.0 278678.0 272944.0 155254.0 151100.0 47053.0 40632.0 307383.0 312033.0 233104.0 228305.0 326272.0 322081.0 146791.0 155084.0 305002.0 296940.0 247850.0 241473.0 332051.0 336165.0 163865.0 165876.0 324986.0 320413.0 212462.0 210302.0 247353.0 255225.0 342561.0 347456.0 39872.0 43059.0 284442.0 291314.0 262887.0 255115.0 286290.0 278643.0 219740.0 227701.0 312399.0 305754.0 91700.0 99564.0 44034.0 51331.0 201328.0 201422.0 236611.0 239560.0 9862.0 16346.0 256302.0 248333.0 65112.0 71733.0 290859.0 289997.0 291165.0 296430.0 286709.0 293119.0 37573.0 39616.0 209498.0 216959.0 322895.0 316247.0 333070.0 339631.0 333796.0 336957.0 321256.0 327752.0 76416.0 68834.0 318370.0 314810.0 210126.0 202163.0 297536.0 302967.0 314602.0 319140.0 0.0 7962.0 90801.0 98814.0 265843.0 272590.0 49257.0 45796.0 258008.0 251882.0 278292.0 284218.0 142747.0 135316.0 340864.0 335049.0 269643.0 273496.0 153158.0 156073.0 342213.0 344385.0 306689.0 303333.0 36701.0 33444.0 122787.0 124575.0 27211.0 24960.0 177750.0 185258.0 343610.0 338780.0 273670.0 269033.0 198647.0 191675.0 123475.0 115486.0 192061.0 197059.0 241550.0 248827.0 357318.0 352187.0 339908.0 332650.0 318778.0 312668.0 188143.0 195964.0 310112.0 302632.0 46516.0 39065.0 121493.0 119799.0 265516.0 273492.0 204998.0 196694.0 303867.0 311852.0 309277.0 314951.0 308253.0 300225.0 234058.0 241821.0 324527.0 327808.0 204887.0 207892.0 281361.0 273340.0 281803.0 283866.0 312171.0 320318.0 288399.0 296091.0 316408.0 316324.0 257872.0 255209.0 347127.0 339794.0 79539.0 83679.0 300965.0 296108.0 41035.0 34353.0 245007.0 247203.0 8332.0 14879.0 277849.0 283116.0 223236.0 219827.0 302901.0 307633.0 227392.0 220021.0 288065.0 283153.0 309425.0 301606.0 292110.0 286769.0 351501.0 359230.0 282043.0 124850.0 282043.0 282043.0 282043.0 282043.0 124850.0 124850.0 124850.0 124850.0
311521.0 312334.0 274516.0 268782.0 150577.0 146140.0 50478.0 43364.0 303221.0 307870.0 227106.0 222159.0 321747.0 317411.0 139894.0 148226.0 298508.0 290436.0 242080.0 235604.0 326791.0 330780.0 157672.0 159453.0 318556.0 314091.0 206946.0 205002.0 241436.0 249337.0 335840.0 340818.0 47798.0 51003.0 277212.0 284133.0 257701.0 249988.0 279838.0 272221.0 214370.0 222346.0 307747.0 300998.0 84728.0 92526.0 36180.0 43397.0 195244.0 195563.0 231089.0 233856.0 17613.0 23063.0 251191.0 243242.0 57260.0 63976.0 284050.0 283073.0 284864.0 290235.0 278939.0 285382.0 45060.0 47469.0 203099.0 210655.0 317770.0 311045.0 325374.0 331965.0 329635.0 332811.0 314931.0 321495.0 73948.0 66108.0 312088.0 308415.0 204689.0 196721.0 293374.0 298805.0 310440.0 314978.0 7962.0 0.0 83370.0 91377.0 261011.0 267867.0 56333.0 52291.0 250221.0 244064.0 272922.0 278959.0 138407.0 130822.0 336702.0 330886.0 264548.0 268563.0 148054.0 150815.0 338045.0 340060.0 299881.0 296627.0 33285.0 31726.0 115945.0 117480.0 33350.0 29523.0 171192.0 178768.0 339089.0 334134.0 268172.0 263677.0 193746.0 186836.0 119291.0 111298.0 185893.0 191071.0 235539.0 242898.0 351794.0 346561.0 332325.0 325041.0 313689.0 307478.0 181786.0 189656.0 305950.0 298440.0 38558.0 31153.0 115534.0 113502.0 259730.0 267722.0 198783.0 190438.0 297674.0 305664.0 301443.0 307144.0 300679.0 292649.0 229030.0 236741.0 317487.0 320860.0 199668.0 202895.0 276150.0 268151.0 274212.0 276343.0 306451.0 314588.0 284237.0 291929.0 312246.0 312162.0 250857.0 248082.0 342964.0 335632.0 72372.0 76255.0 296803.0 291945.0 43250.0 35737.0 239906.0 241897.0 16285.0 22671.0 272051.0 277447.0 217327.0 213744.0 295971.0 300786.0 221205.0 213743.0 283911.0 278990.0 305129.0 297368.0 287732.0 282248.0 347339.0 355067.0 277881.0 121060.0 277881.0 277881.0 277881.0 277881.0 121060.0 121060.0 121060.0 121060.0
228234.0 228973.0 218801.0 212144.0 92857.0 85709.0 126882.0 118866.0 249322.0 253466.0 151300.0 145243.0 256822.0 251277.0 58889.0 67311.0 218440.0 210353.0 167856.0 160688.0 255468.0 258383.0 82356.0 81848.0 238776.0 235002.0 135961.0 136155.0 166017.0 174022.0 254417.0 259796.0 127821.0 132740.0 194015.0 201040.0 188207.0 181238.0 200130.0 192757.0 144488.0 152318.0 241951.0 234413.0 12001.0 14091.0 56284.0 48986.0 119468.0 121787.0 159270.0 160375.0 100656.0 106373.0 182552.0 175007.0 29752.0 22018.0 202335.0 200841.0 206103.0 212147.0 197100.0 203205.0 128362.0 130024.0 124555.0 132706.0 247682.0 240406.0 242830.0 249233.0 269377.0 271114.0 235817.0 242785.0 70507.0 66403.0 233266.0 228897.0 134544.0 126875.0 238027.0 242512.0 255644.0 259422.0 90801.0 83370.0 0.0 8013.0 194670.0 202347.0 139646.0 135100.0 168664.0 162968.0 201498.0 208372.0 86680.0 78792.0 278572.0 273705.0 195711.0 201091.0 85665.0 86298.0 276048.0 276603.0 218127.0 215384.0 66258.0 74243.0 36602.0 35570.0 105318.0 97317.0 92064.0 100006.0 273898.0 267927.0 195750.0 192553.0 129510.0 123700.0 74070.0 68620.0 109651.0 116271.0 159467.0 167360.0 278095.0 272136.0 249232.0 242043.0 243967.0 237000.0 104047.0 112117.0 247507.0 239517.0 50621.0 58200.0 47890.0 41572.0 185071.0 193067.0 121795.0 113319.0 219548.0 227504.0 220411.0 225686.0 217565.0 209541.0 161861.0 168813.0 234771.0 238467.0 131870.0 137159.0 206034.0 198398.0 191164.0 193099.0 231695.0 239661.0 228201.0 235575.0 255539.0 254152.0 168325.0 165163.0 285960.0 279281.0 13028.0 7123.0 241777.0 237658.0 117335.0 109217.0 171684.0 171733.0 98826.0 103361.0 197100.0 203455.0 142477.0 137513.0 213687.0 218851.0 143987.0 135949.0 224202.0 220916.0 242630.0 235593.0 224896.0 218216.0 288422.0 296288.0 224102.0 80125.0 224102.0 224102.0 224102.0 224102.0 80125.0 80125.0 80125.0 80125.0
220221.0 220962.0 214766.0 207969.0 89770.0 82347.0 134580.0 126561.0 245696.0 249634.0 144634.0 138414.0 251394.0 245707.0 51645.0 60027.0 210996.0 202913.0 161385.0 154132.0 249209.0 251976.0 76222.0 75230.0 231361.0 227692.0 130141.0 130673.0 159367.0 167366.0 246750.0 252187.0 135771.0 140729.0 186060.0 193106.0 182364.0 175528.0 192757.0 185429.0 138789.0 146553.0 236449.0 228827.0 14422.0 11601.0 63761.0 56284.0 112940.0 115594.0 153198.0 154043.0 108669.0 114373.0 176853.0 169397.0 37139.0 29395.0 194642.0 193062.0 198868.0 205006.0 189233.0 195299.0 136374.0 138030.0 117512.0 125741.0 241601.0 234267.0 234878.0 241263.0 264506.0 266059.0 228502.0 235523.0 75457.0 71962.0 225995.0 221528.0 128867.0 121302.0 234010.0 238301.0 251710.0 255313.0 98814.0 91377.0 8013.0 0.0 189245.0 197005.0 147643.0 143065.0 160843.0 155209.0 195340.0 202313.0 84739.0 77083.0 273972.0 269265.0 189936.0 195486.0 81959.0 82194.0 270945.0 271316.0 210421.0 207761.0 73847.0 81822.0 30363.0 28300.0 113139.0 105102.0 85046.0 93021.0 268399.0 262311.0 189466.0 186463.0 124802.0 119224.0 73664.0 68904.0 103095.0 109935.0 152733.0 160688.0 271489.0 265440.0 241231.0 234050.0 237943.0 230889.0 97241.0 105308.0 242938.0 234902.0 58200.0 65887.0 44614.0 37555.0 178487.0 186464.0 115041.0 106581.0 212392.0 220336.0 212631.0 217856.0 209562.0 201539.0 156471.0 163276.0 226903.0 230651.0 126585.0 132151.0 200047.0 192485.0 183168.0 185088.0 225007.0 232937.0 224077.0 231372.0 251221.0 249629.0 160504.0 157270.0 281526.0 274976.0 20470.0 15136.0 237821.0 233892.0 124984.0 116895.0 166091.0 165857.0 106838.0 111353.0 190446.0 196926.0 135998.0 130825.0 205896.0 211115.0 137112.0 129001.0 219543.0 216488.0 237552.0 230629.0 219831.0 213016.0 283685.0 291555.0 220667.0 80081.0 220667.0 220667.0 220667.0 220667.0 80081.0 80081.0 80081.0 80081.0
171896.0 165604.0 50482.0 43191.0 110632.0 114893.0 311171.0 303619.0 81424.0 80232.0 59566.0 67671.0 62156.0 56800.0 142294.0 135516.0 92990.0 89415.0 44279.0 50762.0 69095.0 75039.0 113800.0 116834.0 101896.0 93502.0 59948.0 58575.0 50752.0 47701.0 129391.0 128508.0 290742.0 297595.0 132150.0 130985.0 15349.0 16374.0 81982.0 77719.0 50932.0 43700.0 47332.0 40095.0 186136.0 180761.0 247148.0 241222.0 81884.0 76242.0 40995.0 45283.0 274057.0 281817.0 15109.0 20587.0 222718.0 215523.0 104994.0 112164.0 75722.0 72812.0 187772.0 185991.0 298954.0 297014.0 86820.0 79349.0 58543.0 53101.0 201607.0 201857.0 77721.0 77882.0 94227.0 95608.0 194242.0 200095.0 90229.0 93482.0 60659.0 67994.0 64009.0 63352.0 79916.0 79698.0 265843.0 261011.0 194670.0 189245.0 0.0 8189.0 311889.0 310503.0 179767.0 182608.0 26677.0 26221.0 123724.0 130745.0 89639.0 87171.0 11809.0 8746.0 113173.0 110874.0 82453.0 82180.0 112253.0 104296.0 229448.0 234435.0 159014.0 162978.0 265625.0 257458.0 111617.0 104570.0 79250.0 73542.0 30323.0 22906.0 67283.0 74179.0 143163.0 151016.0 90895.0 82664.0 56672.0 50868.0 97643.0 94881.0 192552.0 190969.0 54144.0 49496.0 98744.0 91999.0 60989.0 53062.0 241144.0 247176.0 148900.0 153676.0 42378.0 42846.0 83211.0 89963.0 76770.0 81521.0 209095.0 207299.0 173676.0 169890.0 32813.0 26140.0 137419.0 133291.0 62851.0 58364.0 22633.0 17065.0 163727.0 157518.0 62600.0 69503.0 54323.0 57979.0 72475.0 67755.0 109758.0 117131.0 98845.0 94388.0 198634.0 199627.0 68233.0 69524.0 302930.0 294791.0 23651.0 27229.0 271476.0 272075.0 45489.0 41647.0 61835.0 69726.0 118271.0 115205.0 69702.0 76773.0 39247.0 41999.0 49678.0 44148.0 32781.0 24859.0 97645.0 105375.0 78028.0 143376.0 78028.0 78028.0 78028.0 78028.0 143376.0 143376.0 143376.0 143376.0
176609.0 170121.0 45297.0 38573.0 117336.0 121857.0 318108.0 310594.0 74901.0 73226.0 67472.0 75611.0 54532.0 49580.0 150328.0 143600.0 95958.0 92981.0 51732.0 58464.0 64579.0 71051.0 121735.0 124879.0 103361.0 94867.0 68003.0 66386.0 58085.0 54460.0 130952.0 129565.0 297189.0 304042.0 137652.0 136119.0 22107.0 24429.0 86250.0 82547.0 58959.0 51818.0 39973.0 33181.0 193683.0 188406.0 254528.0 248678.0 90064.0 84370.0 49142.0 53221.0 280708.0 288503.0 23127.0 28758.0 230250.0 223097.0 109557.0 116962.0 79283.0 75628.0 194005.0 191993.0 305394.0 303461.0 94954.0 87428.0 53567.0 48876.0 206437.0 206420.0 69537.0 69777.0 95548.0 96258.0 200588.0 206428.0 91586.0 95475.0 68619.0 75854.0 57331.0 56105.0 72686.0 72127.0 272590.0 267867.0 202347.0 197005.0 8189.0 0.0 318339.0 317078.0 186718.0 189724.0 29196.0 26432.0 130169.0 137342.0 81473.0 79097.0 16264.0 9037.0 120267.0 118114.0 74395.0 74320.0 115901.0 107904.0 236112.0 240970.0 166818.0 170880.0 272073.0 263906.0 119773.0 112747.0 71745.0 66329.0 34382.0 27860.0 74321.0 81086.0 149605.0 157503.0 99050.0 90803.0 64242.0 58093.0 93676.0 91514.0 196852.0 195552.0 49080.0 45373.0 106914.0 100185.0 53057.0 45223.0 248524.0 254478.0 156329.0 161242.0 48055.0 47388.0 91398.0 98148.0 78919.0 83006.0 214935.0 212921.0 178901.0 175369.0 40542.0 34170.0 140763.0 136235.0 70478.0 65647.0 23178.0 20240.0 169806.0 163436.0 61940.0 68249.0 48052.0 51062.0 64713.0 59779.0 116249.0 123771.0 90719.0 86368.0 206120.0 207229.0 61479.0 63339.0 309944.0 301823.0 31780.0 35329.0 278116.0 278582.0 49436.0 44415.0 69979.0 77848.0 122395.0 118892.0 77641.0 84816.0 31946.0 35624.0 41512.0 35979.0 24616.0 16672.0 89457.0 97190.0 74759.0 149722.0 74759.0 74759.0 74759.0 74759.0 149722.0 149722.0 149722.0 149722.0
367632.0 368548.0 323732.0 317998.0 201390.0 197892.0 32595.0 35851.0 352437.0 357087.0 281594.0 277008.0 371356.0 367573.0 196048.0 204340.0 354059.0 346006.0 295959.0 289755.0 379013.0 383409.0 212685.0 214922.0 373979.0 369290.0 260160.0 257577.0 295707.0 303523.0 391770.0 396618.0 28460.0 20951.0 333545.0 340464.0 309793.0 301899.0 335312.0 327638.0 267134.0 275048.0 357864.0 351509.0 140943.0 148788.0 88254.0 96259.0 249972.0 249740.0 284277.0 287561.0 39645.0 33281.0 303048.0 295053.0 112594.0 119702.0 340102.0 339254.0 340025.0 345157.0 334145.0 340763.0 12954.0 17418.0 258498.0 265859.0 369555.0 363099.0 380929.0 387638.0 378850.0 382041.0 370136.0 376546.0 119290.0 112209.0 367200.0 363769.0 257676.0 249740.0 342590.0 348021.0 359656.0 364195.0 49257.0 56333.0 139646.0 147643.0 311889.0 318339.0 0.0 8049.0 305345.0 298981.0 325576.0 331249.0 188183.0 181187.0 385918.0 380103.0 316323.0 319779.0 200238.0 203445.0 387287.0 389450.0 355932.0 352537.0 83190.0 77556.0 172044.0 173777.0 49264.0 55828.0 226890.0 234347.0 388646.0 384174.0 321228.0 316303.0 245077.0 237989.0 168743.0 160874.0 240823.0 245577.0 290053.0 297197.0 404841.0 399922.0 388256.0 380903.0 365357.0 359496.0 237113.0 244880.0 355166.0 347686.0 92301.0 84272.0 170111.0 168781.0 313630.0 321570.0 253804.0 245553.0 352586.0 360564.0 356165.0 362087.0 356640.0 348609.0 280666.0 288530.0 373762.0 377064.0 252006.0 254510.0 328289.0 320230.0 330138.0 332421.0 360121.0 368283.0 333453.0 341145.0 361462.0 361378.0 307114.0 304399.0 392181.0 384848.0 128690.0 132540.0 346019.0 341162.0 38726.0 42065.0 291756.0 294405.0 41892.0 39932.0 325974.0 331000.0 271602.0 268451.0 352158.0 356884.0 276147.0 268889.0 333119.0 328207.0 354485.0 346660.0 337211.0 331939.0 396555.0 404284.0 327097.0 170417.0 327097.0 327097.0 327097.0 327097.0 170417.0 170417.0 170417.0 170417.0
362682.0 363738.0 322604.0 316870.0 199887.0 196107.0 24611.0 27857.0 351308.0 355958.0 278867.0 274098.0 370377.0 366435.0 192163.0 200505.0 350736.0 342668.0 293511.0 287186.0 377232.0 381485.0 209661.0 211632.0 370747.0 366201.0 257956.0 255601.0 293087.0 300944.0 388131.0 393100.0 32603.0 26016.0 329114.0 336115.0 308020.0 300181.0 332041.0 324405.0 265099.0 273041.0 356733.0 350259.0 136986.0 144746.0 82487.0 90537.0 247113.0 247139.0 282099.0 285182.0 36710.0 29455.0 301348.0 293362.0 107439.0 114706.0 336334.0 335314.0 336955.0 342225.0 328581.0 335284.0 14310.0 21292.0 255265.0 262748.0 367917.0 361368.0 375532.0 382312.0 377721.0 380912.0 367044.0 373547.0 118287.0 111207.0 364163.0 360581.0 255554.0 247600.0 341462.0 346892.0 358528.0 363066.0 45796.0 52291.0 135100.0 143065.0 310503.0 317078.0 8049.0 0.0 299757.0 293307.0 323618.0 329422.0 186931.0 179762.0 384790.0 378974.0 314659.0 318295.0 198322.0 201389.0 386158.0 388321.0 352164.0 348917.0 81170.0 76123.0 168231.0 169640.0 50233.0 55954.0 223443.0 230988.0 387691.0 383080.0 319120.0 314349.0 243490.0 236447.0 167516.0 159588.0 237856.0 242824.0 287316.0 294565.0 402768.0 397725.0 383122.0 375715.0 363756.0 357775.0 233920.0 241751.0 354038.0 346557.0 86816.0 78762.0 167264.0 165583.0 311181.0 319146.0 250794.0 242487.0 349661.0 357647.0 350383.0 356391.0 351541.0 343513.0 279021.0 286842.0 369637.0 373083.0 250105.0 252846.0 326511.0 318468.0 325019.0 327445.0 357786.0 365939.0 332324.0 340017.0 360333.0 360250.0 303039.0 300148.0 391052.0 383719.0 124520.0 128027.0 344890.0 340033.0 30736.0 34444.0 290050.0 292480.0 39193.0 38674.0 323520.0 328702.0 268969.0 265611.0 348207.0 353059.0 273187.0 265813.0 331990.0 327078.0 353356.0 345532.0 335990.0 330910.0 395427.0 403155.0 325969.0 168223.0 325969.0 325969.0 325969.0 325969.0 168223.0 168223.0 168223.0 168223.0
71642.0 76306.0 229004.0 221158.0 173765.0 168274.0 286377.0 278651.0 261123.0 259925.0 123814.0 117070.0 223060.0 214805.0 125767.0 120344.0 121630.0 116776.0 135812.0 130350.0 196765.0 193964.0 132499.0 124969.0 137236.0 139906.0 142523.0 150178.0 129201.0 132263.0 134319.0 142309.0 296224.0 300743.0 64975.0 72160.0 164656.0 164464.0 114505.0 112989.0 148119.0 149430.0 209735.0 201877.0 171603.0 163834.0 217274.0 209220.0 122591.0 130857.0 144157.0 137154.0 267820.0 272612.0 165466.0 163810.0 193009.0 186279.0 96087.0 88504.0 124837.0 132849.0 28841.0 35963.0 295078.0 297614.0 108221.0 110904.0 196732.0 189505.0 76466.0 83788.0 247781.0 244394.0 140271.0 147925.0 225985.0 225664.0 140674.0 132650.0 145388.0 145503.0 243773.0 242806.0 259380.0 258383.0 258008.0 250221.0 168664.0 160843.0 179767.0 186718.0 305345.0 299757.0 0.0 7817.0 163009.0 170306.0 183724.0 182506.0 262040.0 262039.0 170883.0 178911.0 164356.0 159806.0 247045.0 242520.0 104854.0 108815.0 234512.0 242448.0 146184.0 140702.0 273976.0 265944.0 114453.0 113073.0 234414.0 226323.0 155628.0 159895.0 163251.0 165194.0 191472.0 193807.0 121861.0 127005.0 124033.0 128962.0 202322.0 194231.0 87051.0 79047.0 195764.0 187968.0 116555.0 115563.0 238212.0 231010.0 213045.0 221082.0 161878.0 157355.0 139897.0 143425.0 116745.0 117305.0 136867.0 141537.0 51939.0 57028.0 57995.0 50890.0 162729.0 162526.0 103224.0 110901.0 152935.0 160425.0 171032.0 168547.0 35042.0 41985.0 164309.0 168583.0 233958.0 237705.0 250454.0 244446.0 71667.0 63611.0 272191.0 269833.0 181263.0 175634.0 247999.0 249007.0 276458.0 269158.0 162541.0 155065.0 266261.0 271398.0 143775.0 151911.0 127253.0 120108.0 95211.0 103125.0 115278.0 111712.0 218659.0 221730.0 221697.0 219422.0 209090.0 200961.0 266686.0 273310.0 250760.0 197841.0 250760.0 250760.0 250760.0 250760.0 197841.0 197841.0 197841.0 197841.0
79453.0 84115.0 231411.0 223518.0 171739.0 165996.0 279630.0 271936.0 263806.0 262837.0 125712.0 118689.0 227406.0 219185.0 121832.0 116784.0 127596.0 122470.0 138453.0 132693.0 201947.0 199369.0 130159.0 122501.0 143668.0 146072.0 143183.0 150716.0 131893.0 135356.0 141498.0 149449.0 290298.0 294704.0 71548.0 78927.0 167623.0 167073.0 119687.0 117775.0 149153.0 150869.0 213864.0 205924.0 166291.0 158592.0 210824.0 202780.0 122483.0 130841.0 146104.0 139326.0 261673.0 266350.0 168115.0 166110.0 186814.0 180186.0 102037.0 94635.0 130019.0 138096.0 35717.0 43197.0 288839.0 291498.0 108482.0 111736.0 201564.0 194247.0 83598.0 91043.0 251825.0 248631.0 146462.0 154180.0 221523.0 220973.0 146731.0 138768.0 145921.0 145608.0 246557.0 245826.0 262408.0 261615.0 251882.0 244064.0 162968.0 155209.0 182608.0 189724.0 298981.0 293307.0 7817.0 0.0 166717.0 174133.0 181247.0 179704.0 265984.0 265771.0 174049.0 182100.0 162122.0 157647.0 251404.0 247060.0 111392.0 115066.0 228995.0 236950.0 141601.0 135863.0 268275.0 260285.0 112465.0 111621.0 239118.0 231046.0 159263.0 163232.0 163193.0 164805.0 188292.0 190342.0 121126.0 126678.0 126439.0 131740.0 208285.0 200215.0 94623.0 86590.0 200460.0 192604.0 115424.0 114972.0 241617.0 234302.0 206686.0 214709.0 157971.0 153169.0 143417.0 147287.0 116807.0 116800.0 142369.0 147283.0 57469.0 63110.0 65788.0 58706.0 164367.0 164535.0 110588.0 118177.0 153192.0 160819.0 174718.0 171922.0 42716.0 49488.0 169489.0 173997.0 236631.0 240587.0 253793.0 247933.0 75852.0 67661.0 276095.0 273532.0 175665.0 169888.0 250805.0 251591.0 269716.0 262473.0 164701.0 157428.0 260155.0 265391.0 147849.0 156070.0 128543.0 121182.0 101857.0 109762.0 116838.0 112764.0 221666.0 224480.0 225450.0 222931.0 212449.0 204275.0 270889.0 277613.0 252484.0 194778.0 252484.0 252484.0 252484.0 252484.0 194778.0 194778.0 194778.0 194778.0
147995.0 141346.0 74242.0 67735.0 124851.0 127735.0 322443.0 314705.0 102081.0 99308.0 53630.0 61503.0 63111.0 55505.0 145588.0 137986.0 66793.0 63820.0 35697.0 43474.0 54109.0 57874.0 119156.0 120491.0 75234.0 66863.0 66183.0 68017.0 40189.0 33657.0 102715.0 101917.0 304759.0 311612.0 110202.0 108089.0 17385.0 25430.0 57481.0 54444.0 58556.0 50591.0 48370.0 40105.0 194150.0 188019.0 255954.0 249503.0 83023.0 79746.0 42290.0 41664.0 286940.0 294501.0 24671.0 32174.0 230539.0 223062.0 80952.0 88579.0 50138.0 46485.0 167896.0 165334.0 312725.0 311017.0 83191.0 74764.0 46342.0 38928.0 177900.0 177648.0 85546.0 83191.0 67596.0 69255.0 209472.0 214819.0 63595.0 66826.0 68259.0 76225.0 84458.0 81832.0 98096.0 96180.0 278292.0 272922.0 201498.0 195340.0 26677.0 29196.0 325576.0 323618.0 163009.0 166717.0 0.0 7924.0 138827.0 145069.0 99426.0 99059.0 15059.0 20182.0 125339.0 122237.0 86652.0 83818.0 86742.0 78741.0 242490.0 248058.0 165022.0 167816.0 279643.0 271475.0 112741.0 104984.0 77878.0 70521.0 7607.0 9274.0 81416.0 88611.0 157982.0 165537.0 92819.0 85494.0 47409.0 39477.0 79391.0 75048.0 167906.0 166804.0 42906.0 35581.0 99717.0 92009.0 75556.0 68795.0 249977.0 256517.0 158262.0 161931.0 23574.0 19825.0 82310.0 90306.0 50134.0 54870.0 187867.0 185447.0 150875.0 147738.0 46338.0 38382.0 111567.0 107093.0 73578.0 71736.0 8031.0 9617.0 143411.0 136695.0 38148.0 45835.0 76012.0 77811.0 87935.0 81589.0 91479.0 99419.0 109464.0 106834.0 207010.0 207068.0 88378.0 91209.0 313798.0 305585.0 35122.0 31185.0 284428.0 285644.0 20811.0 15231.0 60171.0 66754.0 93419.0 89741.0 63375.0 71640.0 58454.0 63704.0 58734.0 56589.0 46847.0 39143.0 105084.0 112221.0 103862.0 159119.0 103862.0 103862.0 103862.0 103862.0 159119.0 159119.0 159119.0 159119.0
153253.0 146422.0 70148.0 64141.0 130146.0 133359.0 328637.0 320933.0 96527.0 93327.0 61386.0 69312.0 55196.0 47582.0 152850.0 145328.0 70476.0 68277.0 43464.0 51240.0 47835.0 52298.0 126093.0 127656.0 76955.0 68450.0 72671.0 73961.0 48086.0 41577.0 104549.0 103140.0 310307.0 317159.0 116406.0 113940.0 21545.0 29626.0 62865.0 60513.0 64702.0 56715.0 40506.0 32267.0 200832.0 194812.0 262563.0 256193.0 90341.0 86758.0 49116.0 49095.0 292776.0 300385.0 28608.0 36540.0 237289.0 229849.0 86394.0 94210.0 54772.0 50174.0 174570.0 171804.0 318372.0 316525.0 90927.0 82533.0 39313.0 32182.0 183202.0 182680.0 77880.0 75370.0 69126.0 69891.0 214649.0 220162.0 65170.0 69249.0 74541.0 82478.0 78992.0 75855.0 91901.0 89627.0 284218.0 278959.0 208372.0 202313.0 26221.0 26432.0 331249.0 329422.0 170306.0 174133.0 7924.0 0.0 143944.0 150397.0 91878.0 91746.0 16293.0 18113.0 131102.0 128157.0 78776.0 75895.0 91109.0 83115.0 248259.0 253699.0 171967.0 174924.0 285190.0 277023.0 120169.0 112460.0 69988.0 62676.0 15474.0 15878.0 86497.0 93676.0 163216.0 170860.0 100096.0 92627.0 55294.0 47391.0 74362.0 70618.0 172688.0 171880.0 35645.0 28690.0 107122.0 99483.0 68824.0 62373.0 256577.0 263034.0 164659.0 168526.0 31346.0 26882.0 89830.0 97740.0 52845.0 56622.0 194133.0 191512.0 156641.0 153763.0 50984.0 43001.0 115469.0 110553.0 79333.0 76900.0 3612.0 11317.0 150016.0 143176.0 36383.0 43420.0 71054.0 72243.0 81246.0 74670.0 98686.0 106695.0 101966.0 99559.0 213647.0 213855.0 82783.0 86080.0 320067.0 311864.0 39729.0 37098.0 290248.0 291323.0 27039.0 19933.0 67630.0 74376.0 98283.0 94134.0 71199.0 79430.0 53065.0 58961.0 51406.0 49787.0 40636.0 33387.0 97331.0 104419.0 100912.0 164086.0 100912.0 100912.0 100912.0 100912.0 164086.0 164086.0 164086.0 164086.0
220716.0 218357.0 136643.0 130833.0 14452.0 16043.0 188862.0 181555.0 165374.0 170024.0 102338.0 100489.0 183552.0 179507.0 66278.0 67658.0 178737.0 171211.0 113043.0 108265.0 191420.0 196241.0 51250.0 58768.0 196844.0 190655.0 76335.0 71927.0 114508.0 121602.0 219247.0 222333.0 167031.0 173884.0 178369.0 182967.0 122399.0 114360.0 160115.0 152305.0 81644.0 89182.0 169806.0 163347.0 75254.0 73407.0 129756.0 125257.0 75548.0 71388.0 99423.0 104298.0 150656.0 158504.0 115445.0 107457.0 108925.0 103054.0 172024.0 174148.0 162105.0 165515.0 207083.0 210360.0 175242.0 173303.0 89304.0 93535.0 181653.0 175410.0 243839.0 248117.0 191393.0 194431.0 191522.0 196792.0 70707.0 76406.0 188060.0 186422.0 73205.0 65811.0 155523.0 160916.0 172590.0 177127.0 142747.0 138407.0 86680.0 84739.0 123724.0 130169.0 188183.0 186931.0 183724.0 181247.0 138827.0 143944.0 0.0 8150.0 198704.0 192961.0 128577.0 131692.0 20052.0 24843.0 199654.0 201670.0 186893.0 181410.0 106123.0 110812.0 62433.0 70226.0 141915.0 133747.0 69686.0 72790.0 200885.0 196164.0 135284.0 129602.0 57455.0 50269.0 19441.0 27343.0 69796.0 70055.0 110424.0 116068.0 218164.0 213831.0 243936.0 238523.0 177396.0 171786.0 71321.0 76120.0 167879.0 160324.0 123909.0 128669.0 41056.0 49018.0 130228.0 137782.0 81388.0 75469.0 172662.0 180350.0 232582.0 235216.0 214328.0 207104.0 93001.0 100960.0 209658.0 210346.0 65968.0 67101.0 140828.0 132752.0 191450.0 189820.0 175118.0 183245.0 146352.0 154031.0 174340.0 174146.0 147478.0 148731.0 205059.0 197759.0 85164.0 88963.0 158956.0 154099.0 181118.0 173136.0 104225.0 107774.0 148046.0 148413.0 142344.0 146116.0 91819.0 91673.0 186362.0 188715.0 100412.0 95639.0 145624.0 140905.0 166728.0 158962.0 149369.0 144055.0 209277.0 217027.0 140034.0 20556.0 140034.0 140034.0 140034.0 140034.0 20556.0 20556.0 20556.0 20556.0
221952.0 219877.0 144680.0 138810.0 20253.0 18629.0 181240.0 173883.0 173475.0 178124.0 106639.0 104247.0 190967.0 186784.0 62168.0 64468.0 182868.0 175230.0 118193.0 113073.0 198022.0 202678.0 50715.0 57786.0 201311.0 195329.0 81475.0 77605.0 119295.0 126579.0 223166.0 226490.0 160072.0 166925.0 180069.0 184950.0 128871.0 120892.0 164133.0 156299.0 87321.0 95015.0 177095.0 170522.0 67280.0 65669.0 121650.0 117117.0 78514.0 75102.0 104993.0 109482.0 143367.0 151171.0 122010.0 114011.0 100782.0 94937.0 175145.0 176920.0 166554.0 170262.0 206549.0 210119.0 168264.0 166344.0 91614.0 96452.0 188411.0 182050.0 244397.0 248900.0 199194.0 202138.0 196195.0 201662.0 64494.0 69769.0 192805.0 190884.0 78509.0 70884.0 163591.0 168935.0 180691.0 185194.0 135316.0 130822.0 78792.0 77083.0 130745.0 137342.0 181187.0 179762.0 182506.0 179704.0 145069.0 150397.0 8150.0 0.0 206640.0 200948.0 135227.0 138593.0 22208.0 26780.0 207344.0 209249.0 190226.0 184980.0 98776.0 103694.0 55986.0 63925.0 134956.0 126789.0 69463.0 73388.0 208307.0 203472.0 141269.0 135814.0 63964.0 56836.0 13099.0 20470.0 71957.0 73125.0 114867.0 120850.0 224458.0 219960.0 245095.0 239483.0 184193.0 178435.0 72576.0 78042.0 175775.0 168181.0 115795.0 120606.0 34066.0 42107.0 135563.0 143230.0 84094.0 77611.0 177484.0 185246.0 232018.0 234917.0 215108.0 207755.0 99581.0 107495.0 212536.0 213524.0 71752.0 73501.0 147344.0 139270.0 191710.0 190410.0 180933.0 189081.0 154378.0 162043.0 182344.0 182074.0 149357.0 150172.0 213061.0 205793.0 77051.0 80935.0 167042.0 162199.0 173403.0 165392.0 110743.0 113923.0 140773.0 141340.0 147772.0 151845.0 96126.0 95371.0 189299.0 191951.0 104026.0 98749.0 153415.0 148801.0 174335.0 166617.0 156912.0 151463.0 217172.0 224935.0 148135.0 16669.0 148135.0 148135.0 148135.0 148135.0 16669.0 16669.0 16669.0 16669.0
237899.0 230355.0 62922.0 67963.0 188147.0 194202.0 387180.0 379956.0 46900.0 38679.0 148416.0 156610.0 41511.0 49604.0 229908.0 223661.0 152283.0 153107.0 131641.0 138925.0 78692.0 85921.0 200733.0 204688.0 149169.0 141531.0 148339.0 145448.0 137474.0 132224.0 173508.0 168584.0 364779.0 371632.0 205534.0 201880.0 102144.0 105855.0 150909.0 150375.0 139248.0 132667.0 52628.0 60223.0 268911.0 264484.0 327761.0 322633.0 171214.0 165059.0 130612.0 134331.0 348629.0 356514.0 104532.0 110040.0 305011.0 298275.0 173630.0 181845.0 141237.0 134359.0 264790.0 261344.0 372991.0 371051.0 176403.0 168773.0 72126.0 77273.0 267505.0 265601.0 14718.0 20811.0 141802.0 137915.0 268157.0 274014.0 138833.0 146005.0 148411.0 154968.0 45902.0 38869.0 34471.0 27135.0 340864.0 336702.0 278572.0 273972.0 89639.0 81473.0 385918.0 384790.0 262040.0 265984.0 99426.0 91878.0 198704.0 206640.0 0.0 8198.0 94609.0 86812.0 193531.0 192403.0 21864.0 30056.0 174034.0 166578.0 304186.0 308672.0 244386.0 249229.0 339663.0 331496.0 200594.0 193813.0 39926.0 45991.0 106977.0 104053.0 149171.0 154874.0 217421.0 225413.0 179909.0 171552.0 144226.0 137152.0 98037.0 102620.0 254489.0 255241.0 70998.0 77463.0 187910.0 181431.0 31077.0 39070.0 321820.0 327037.0 231129.0 237004.0 122952.0 118697.0 172806.0 179356.0 133427.0 132826.0 282752.0 279304.0 243527.0 241764.0 120070.0 114892.0 194821.0 187966.0 148489.0 142167.0 91506.0 95397.0 240141.0 232944.0 105413.0 105410.0 53170.0 45373.0 25501.0 24576.0 190374.0 198452.0 10258.0 12311.0 280710.0 282776.0 43917.0 51110.0 379468.0 371580.0 112875.0 116770.0 346007.0 346216.0 118278.0 110230.0 151444.0 159283.0 182884.0 176991.0 158629.0 166075.0 54450.0 57930.0 41011.0 45493.0 56858.0 64910.0 11410.0 18572.0 89757.0 217291.0 89757.0 89757.0 89757.0 89757.0 217291.0 217291.0 217291.0 217291.0
240099.0 232658.0 56574.0 62142.0 182720.0 188944.0 381365.0 374141.0 38746.0 30547.0 146476.0 154644.0 44676.0 52346.0 225972.0 219911.0 154495.0 154901.0 130093.0 137201.0 82844.0 90360.0 196689.0 200887.0 152413.0 144588.0 144921.0 141660.0 136109.0 131233.0 177318.0 172668.0 358964.0 365816.0 206696.0 203329.0 100377.0 103518.0 152133.0 151178.0 135861.0 129544.0 53932.0 60967.0 263875.0 259613.0 322301.0 317293.0 168137.0 161727.0 128132.0 132274.0 342813.0 350698.0 102223.0 107290.0 299831.0 293178.0 175130.0 183297.0 142676.0 136067.0 265678.0 262466.0 367176.0 365236.0 173960.0 166517.0 75404.0 79937.0 269833.0 268160.0 18392.0 25889.0 144903.0 141388.0 262342.0 268198.0 141793.0 148744.0 144808.0 151137.0 38795.0 32259.0 26360.0 19108.0 335049.0 330886.0 273705.0 269265.0 87171.0 79097.0 380103.0 378974.0 262039.0 265771.0 99059.0 91746.0 192961.0 200948.0 8198.0 0.0 93056.0 85107.0 188405.0 187436.0 28184.0 36404.0 176257.0 168674.0 298371.0 302856.0 239870.0 244893.0 333847.0 325680.0 197240.0 190627.0 45825.0 51120.0 106513.0 103023.0 144550.0 150051.0 211605.0 219597.0 176622.0 168229.0 142697.0 135878.0 103749.0 107929.0 257199.0 257704.0 73828.0 79766.0 184689.0 178414.0 26741.0 34934.0 316377.0 321477.0 226107.0 232135.0 122410.0 118626.0 170002.0 176310.0 135572.0 135438.0 284169.0 280931.0 245305.0 243285.0 116601.0 111829.0 197650.0 190995.0 144436.0 137877.0 91053.0 94310.0 241043.0 233960.0 107998.0 108581.0 46792.0 39022.0 18722.0 19874.0 190431.0 198431.0 12261.0 7888.0 275541.0 277772.0 36469.0 43460.0 373770.0 365835.0 109992.0 114399.0 340191.0 340400.0 118523.0 110669.0 148965.0 156886.0 184898.0 179241.0 156671.0 163913.0 50285.0 52789.0 40342.0 43440.0 54618.0 62844.0 19257.0 25729.0 82210.0 211476.0 82210.0 82210.0 82210.0 82210.0 211476.0 211476.0 211476.0 211476.0
160613.0 154219.0 61349.0 54351.0 114982.0 118569.0 314445.0 306799.0 91118.0 89242.0 53946.0 62143.0 62750.0 56240.0 141558.0 134378.0 81185.0 77680.0 37059.0 44324.0 62847.0 67940.0 113862.0 116133.0 90265.0 81911.0 59795.0 59989.0 43067.0 38699.0 117715.0 116974.0 295271.0 302124.0 121408.0 119956.0 7877.0 14606.0 70452.0 66466.0 51243.0 43395.0 47510.0 39439.0 187711.0 181971.0 249197.0 243017.0 79726.0 75085.0 37814.0 40118.0 278073.0 285744.0 13366.0 21310.0 224272.0 216934.0 93613.0 100913.0 63979.0 61003.0 177789.0 175739.0 303420.0 301543.0 82644.0 74672.0 53260.0 46834.0 190395.0 190501.0 81689.0 80719.0 82648.0 84276.0 199262.0 204930.0 78646.0 81741.0 61192.0 68970.0 73521.0 71981.0 88534.0 87567.0 269643.0 264548.0 195711.0 189936.0 11809.0 16264.0 316323.0 314659.0 170883.0 174049.0 15059.0 16293.0 128577.0 135227.0 94609.0 93056.0 0.0 8061.0 116503.0 113794.0 84849.0 83427.0 100546.0 92577.0 233495.0 238772.0 159583.0 163021.0 270155.0 261988.0 109738.0 102322.0 79115.0 72584.0 18611.0 11617.0 71267.0 78395.0 147932.0 155656.0 89197.0 81283.0 49660.0 42888.0 90261.0 86774.0 181075.0 179621.0 49142.0 43214.0 96695.0 89457.0 67807.0 60303.0 243198.0 249476.0 151011.0 155278.0 31799.0 31379.0 80165.0 87546.0 65017.0 69913.0 198671.0 196668.0 162720.0 159132.0 35658.0 27823.0 125661.0 121489.0 64998.0 61819.0 12777.0 5523.0 153563.0 147176.0 52222.0 59521.0 64315.0 67169.0 79829.0 74324.0 100148.0 107745.0 104256.0 100576.0 200405.0 200963.0 77639.0 79603.0 306006.0 297825.0 24642.0 24257.0 275524.0 276422.0 33796.0 29859.0 58077.0 65572.0 106707.0 103508.0 64148.0 71829.0 47900.0 51886.0 53694.0 49626.0 38659.0 30404.0 101638.0 109162.0 89706.0 148561.0 89706.0 89706.0 89706.0 89706.0 148561.0 148561.0 148561.0 148561.0
167643.0 161126.0 54290.0 47611.0 118414.0 122428.0 318629.0 311038.0 83364.0 81317.0 61615.0 69813.0 56243.0 50226.0 147733.0 140717.0 86969.0 83945.0 44987.0 52139.0 60525.0 66353.0 119650.0 122267.0 94739.0 86274.0 65544.0 64976.0 51072.0 46755.0 122312.0 121112.0 298650.0 305503.0 128913.0 127259.0 15333.0 20211.0 77244.0 73641.0 56726.0 49103.0 41095.0 33341.0 192813.0 187258.0 254068.0 248023.0 86389.0 81334.0 44652.0 47611.0 281792.0 289521.0 18852.0 26090.0 229400.0 222134.0 100582.0 108027.0 70246.0 66650.0 185604.0 183459.0 306852.0 304922.0 89997.0 82153.0 50151.0 44493.0 197488.0 197428.0 74096.0 73442.0 86971.0 87959.0 202271.0 208096.0 82993.0 86683.0 66624.0 74218.0 65738.0 64010.0 80545.0 79515.0 273496.0 268563.0 201091.0 195486.0 8746.0 9037.0 319779.0 318295.0 178911.0 182100.0 20182.0 18113.0 131692.0 138593.0 86812.0 85107.0 8061.0 0.0 120568.0 118096.0 77725.0 76720.0 106865.0 98868.0 237185.0 242277.0 165175.0 168864.0 273534.0 265366.0 116348.0 109062.0 72989.0 66837.0 25426.0 19277.0 74850.0 81853.0 151117.0 158931.0 95702.0 87642.0 57591.0 50919.0 88942.0 86136.0 187832.0 186563.0 45805.0 40876.0 103351.0 96284.0 59757.0 52243.0 248064.0 254209.0 155804.0 160346.0 39577.0 38479.0 87152.0 94324.0 70073.0 74359.0 206312.0 204203.0 170053.0 166606.0 39672.0 32319.0 131744.0 127261.0 69620.0 65687.0 14648.0 11261.0 161324.0 154869.0 54308.0 61030.0 56728.0 59314.0 71769.0 66292.0 108088.0 115722.0 96387.0 92594.0 205409.0 206195.0 69819.0 72012.0 310306.0 302149.0 29407.0 30807.0 279223.0 279928.0 40424.0 35411.0 65237.0 72880.0 113368.0 109855.0 71828.0 79375.0 39985.0 44309.0 46013.0 41667.0 30629.0 22368.0 94068.0 101654.0 83699.0 151405.0 83699.0 83699.0 83699.0 83699.0 151405.0 151405.0 151405.0 151405.0
200702.0 198402.0 133166.0 126602.0 10588.0 4016.0 198061.0 190475.0 163755.0 167807.0 84699.0 82098.0 174592.0 169837.0 51883.0 51416.0 160789.0 153116.0 96905.0 91471.0 178922.0 183185.0 31987.0 39768.0 179372.0 173515.0 60376.0 57344.0 97659.0 105094.0 201014.0 204407.0 179525.0 186377.0 158459.0 163163.0 109733.0 101960.0 142023.0 134184.0 66937.0 74824.0 160239.0 153252.0 75497.0 71629.0 134732.0 129278.0 56319.0 52975.0 84300.0 88265.0 161674.0 169296.0 103153.0 95194.0 111481.0 104773.0 152954.0 154796.0 144626.0 148520.0 187316.0 190480.0 187394.0 185796.0 69617.0 74272.0 169744.0 163094.0 223793.0 228065.0 184981.0 187272.0 174381.0 179984.0 85536.0 90144.0 171041.0 168947.0 57655.0 49813.0 152381.0 156979.0 169980.0 173811.0 153158.0 148054.0 85665.0 81959.0 113173.0 120267.0 200238.0 198322.0 164356.0 162122.0 125339.0 131102.0 20052.0 22208.0 193531.0 188405.0 116503.0 120568.0 0.0 4794.0 192356.0 193611.0 168020.0 162779.0 117168.0 122737.0 54855.0 61685.0 154408.0 146241.0 49998.0 52784.0 191897.0 186591.0 121068.0 116066.0 45947.0 39322.0 35019.0 41585.0 50007.0 50919.0 92994.0 99208.0 204623.0 199822.0 223912.0 218478.0 165645.0 159512.0 51276.0 56234.0 162460.0 154581.0 128746.0 134424.0 37806.0 44405.0 114433.0 122217.0 61952.0 55678.0 155789.0 163602.0 212817.0 215347.0 194276.0 187055.0 80983.0 88690.0 190391.0 191329.0 51785.0 54881.0 128214.0 120185.0 171445.0 169775.0 160341.0 168507.0 142610.0 150040.0 170102.0 169011.0 127622.0 128744.0 200641.0 193812.0 87180.0 89421.0 156116.0 152016.0 189764.0 181620.0 91862.0 94175.0 159146.0 160306.0 126722.0 131192.0 74212.0 73214.0 167138.0 169750.0 81847.0 76547.0 139408.0 135674.0 159011.0 151612.0 141342.0 135264.0 203644.0 211487.0 138719.0 38758.0 138719.0 138719.0 138719.0 138719.0 38758.0 38758.0 38758.0 38758.0
195910.0 193618.0 132588.0 125860.0 14329.0 8801.0 200651.0 193013.0 163606.0 167449.0 80552.0 77740.0 172557.0 167632.0 49188.0 48097.0 156488.0 148781.0 93153.0 87548.0 175992.0 180109.0 27628.0 35482.0 175184.0 169413.0 56816.0 54230.0 93709.0 101223.0 196629.0 200097.0 182930.0 189783.0 153685.0 158411.0 106888.0 99212.0 137695.0 129853.0 63712.0 71653.0 158075.0 150968.0 76519.0 72212.0 136503.0 130851.0 51753.0 48677.0 80869.0 84564.0 164705.0 172267.0 100430.0 92510.0 112791.0 105924.0 148375.0 150148.0 140455.0 144470.0 182637.0 185762.0 190634.0 189179.0 64904.0 69676.0 166975.0 160230.0 219009.0 223274.0 183562.0 185665.0 170278.0 175962.0 89488.0 93881.0 166971.0 164762.0 54240.0 46323.0 151828.0 156222.0 169517.0 173169.0 156073.0 150815.0 86298.0 82194.0 110874.0 118114.0 203445.0 201389.0 159806.0 157647.0 122237.0 128157.0 24843.0 26780.0 192403.0 187436.0 113794.0 118096.0 4794.0 0.0 190707.0 191773.0 163486.0 158306.0 120294.0 126028.0 54180.0 60636.0 157814.0 149646.0 45388.0 48027.0 189831.0 184386.0 117783.0 112972.0 43938.0 37650.0 39419.0 45732.0 45275.0 46392.0 88891.0 95251.0 201407.0 196492.0 219119.0 213684.0 162921.0 156663.0 46483.0 51474.0 161326.0 153384.0 130505.0 136370.0 38742.0 44768.0 110739.0 118572.0 57316.0 50943.0 151765.0 159605.0 208137.0 210632.0 189485.0 182269.0 78436.0 86032.0 185759.0 186756.0 48854.0 52510.0 125335.0 117337.0 166682.0 164992.0 156852.0 165019.0 141938.0 149286.0 169242.0 167935.0 122860.0 123956.0 199687.0 192983.0 88508.0 90373.0 155629.0 151729.0 192242.0 184074.0 89164.0 91130.0 162197.0 163523.0 123054.0 127701.0 70097.0 68851.0 162519.0 165193.0 77441.0 71997.0 138133.0 134655.0 157314.0 150023.0 139607.0 133352.0 202389.0 210245.0 138832.0 43398.0 138832.0 138832.0 138832.0 138832.0 43398.0 43398.0 43398.0 43398.0
219114.0 211435.0 69152.0 72026.0 188051.0 193469.0 388511.0 381206.0 62922.0 54819.0 138521.0 146680.0 23998.0 32241.0 224723.0 217968.0 133764.0 135265.0 121011.0 128618.0 58008.0 64863.0 196067.0 199273.0 129183.0 121821.0 142392.0 140616.0 126313.0 120249.0 152801.0 147613.0 366147.0 373000.0 188533.0 184395.0 92698.0 97788.0 134088.0 134350.0 133354.0 126142.0 38285.0 46574.0 266985.0 262028.0 327087.0 321552.0 164039.0 158662.0 122376.0 124932.0 349997.0 357749.0 96426.0 102971.0 303435.0 296439.0 156177.0 164436.0 124099.0 116803.0 248098.0 244250.0 374359.0 372419.0 167483.0 159444.0 52781.0 58850.0 248483.0 246258.0 11955.0 5358.0 122033.0 117684.0 269526.0 275382.0 119269.0 126720.0 142993.0 150127.0 56256.0 48248.0 50673.0 43380.0 342213.0 338045.0 276048.0 270945.0 82453.0 74395.0 387287.0 386158.0 247045.0 251404.0 86652.0 78776.0 199654.0 207344.0 21864.0 28184.0 84849.0 77725.0 192356.0 190707.0 0.0 8242.0 155397.0 148170.0 305518.0 310040.0 240891.0 245146.0 341031.0 332864.0 193927.0 186731.0 18091.0 24653.0 94244.0 92722.0 146824.0 153098.0 218777.0 226771.0 173229.0 165058.0 133369.0 125777.0 76183.0 80878.0 234961.0 236046.0 52442.0 59691.0 180977.0 173992.0 35632.0 41209.0 321101.0 326720.0 229342.0 234678.0 110090.0 104854.0 164874.0 172017.0 115135.0 113803.0 265113.0 261327.0 225380.0 224039.0 114768.0 108562.0 175242.0 168141.0 144396.0 138891.0 79159.0 84452.0 223491.0 216111.0 86663.0 85767.0 60227.0 53103.0 37740.0 32115.0 175553.0 183747.0 30724.0 34118.0 279183.0 280687.0 55819.0 63430.0 380746.0 372734.0 106095.0 108521.0 347375.0 347584.0 103759.0 95434.0 142893.0 150421.0 164539.0 158300.0 148655.0 156537.0 54425.0 60509.0 33423.0 40779.0 51159.0 58012.0 20518.0 26335.0 100102.0 218659.0 100102.0 100102.0 100102.0 100102.0 218659.0 218659.0 218659.0 218659.0
212827.0 205087.0 73949.0 76098.0 189721.0 194885.0 390489.0 383117.0 70293.0 62296.0 136541.0 144642.0 20805.0 28383.0 224350.0 217412.0 127748.0 129599.0 118825.0 126520.0 50999.0 57527.0 195976.0 198878.0 122370.0 115182.0 142025.0 140703.0 123856.0 117470.0 145532.0 140185.0 368311.0 375164.0 183164.0 178797.0 91304.0 96924.0 128943.0 129597.0 133065.0 125650.0 35992.0 44242.0 267782.0 262632.0 328269.0 322588.0 163067.0 158029.0 121207.0 123251.0 352128.0 360033.0 95562.0 102465.0 304308.0 297223.0 150652.0 158914.0 118833.0 111351.0 242796.0 238762.0 376523.0 374583.0 165777.0 157601.0 46796.0 53376.0 242055.0 239669.0 19443.0 11616.0 115360.0 110749.0 271689.0 277545.0 112720.0 120308.0 142834.0 150157.0 62449.0 54411.0 58212.0 51032.0 344385.0 340060.0 276603.0 271316.0 82180.0 74320.0 389450.0 388321.0 242520.0 247060.0 83818.0 75895.0 201670.0 209249.0 30056.0 36404.0 83427.0 76720.0 193611.0 191773.0 8242.0 0.0 149271.0 142178.0 307717.0 312204.0 241138.0 245159.0 343194.0 335027.0 193050.0 185710.0 10159.0 17505.0 91339.0 90486.0 147834.0 154291.0 220912.0 228899.0 172420.0 164356.0 131003.0 123229.0 68065.0 72917.0 228282.0 229539.0 46995.0 54607.0 180037.0 172872.0 41171.0 45721.0 322273.0 328035.0 230266.0 235386.0 106980.0 101323.0 163588.0 170946.0 109301.0 107574.0 259348.0 255404.0 219405.0 218270.0 114862.0 108301.0 168588.0 161362.0 144750.0 139595.0 76635.0 82503.0 218235.0 210779.0 80714.0 79292.0 65458.0 58704.0 44860.0 38598.0 171238.0 179465.0 38616.0 42335.0 280109.0 281398.0 62391.0 69971.0 382597.0 374547.0 105676.0 107465.0 349497.0 349747.0 99912.0 91522.0 141458.0 148816.0 158546.0 152140.0 146588.0 154618.0 57625.0 64378.0 34976.0 42940.0 52363.0 58451.0 27458.0 32119.0 105724.0 220823.0 105724.0 105724.0 105724.0 105724.0 220823.0 220823.0 220823.0 220823.0
63868.0 56409.0 160947.0 154468.0 172779.0 171699.0 344996.0 336979.0 187256.0 183443.0 86190.0 86597.0 132606.0 124435.0 160015.0 151660.0 21764.0 22922.0 82567.0 83565.0 99207.0 94522.0 145574.0 141944.0 32474.0 36330.0 114198.0 121080.0 77931.0 73830.0 36526.0 42823.0 339457.0 345727.0 39880.0 32974.0 98324.0 103155.0 31152.0 37594.0 112961.0 108345.0 122472.0 116183.0 215193.0 207496.0 274087.0 266424.0 111739.0 115531.0 97740.0 90072.0 316303.0 322865.0 103379.0 106929.0 247481.0 239767.0 15831.0 18776.0 36620.0 41168.0 96924.0 91613.0 343854.0 344096.0 99686.0 93897.0 102622.0 96821.0 93584.0 92219.0 159321.0 154074.0 36514.0 43685.0 251154.0 254219.0 37885.0 29741.0 117828.0 123565.0 169868.0 166130.0 181573.0 178295.0 306689.0 299881.0 218127.0 210421.0 112253.0 115901.0 355932.0 352164.0 104854.0 111392.0 86742.0 91109.0 186893.0 190226.0 174034.0 176257.0 100546.0 106865.0 168020.0 163486.0 155397.0 149271.0 0.0 8004.0 274817.0 281860.0 183936.0 182819.0 314613.0 306364.0 129502.0 122472.0 139894.0 131914.0 81942.0 89449.0 138567.0 144455.0 202868.0 208741.0 119067.0 117102.0 79226.0 76538.0 98901.0 90780.0 81782.0 81600.0 103168.0 96593.0 120720.0 113696.0 157324.0 151947.0 268607.0 276303.0 187900.0 187859.0 72287.0 69634.0 106371.0 113618.0 40687.0 41727.0 110635.0 106284.0 70242.0 69786.0 115257.0 109985.0 25555.0 23743.0 126786.0 130421.0 93611.0 95783.0 73616.0 65748.0 68760.0 70211.0 162159.0 163058.0 169593.0 162243.0 51035.0 56516.0 184223.0 184086.0 227798.0 224991.0 173523.0 177136.0 335401.0 327316.0 107907.0 99527.0 314135.0 317281.0 66764.0 71617.0 96319.0 95302.0 9945.0 3036.0 86533.0 91490.0 144081.0 150052.0 137904.0 138674.0 131052.0 124336.0 175898.0 181351.0 190251.0 206726.0 190251.0 190251.0 190251.0 190251.0 206726.0 206726.0 206726.0 206726.0
71436.0 64101.0 152943.0 146469.0 167202.0 166397.0 342255.0 334241.0 179306.0 175536.0 80001.0 80934.0 125210.0 117004.0 156936.0 148535.0 14433.0 14923.0 75433.0 76815.0 92475.0 88122.0 141304.0 138019.0 28944.0 31137.0 107888.0 114598.0 71043.0 66591.0 39237.0 44441.0 335587.0 341959.0 44148.0 38031.0 90441.0 95383.0 23651.0 30540.0 106271.0 101404.0 114829.0 108437.0 212049.0 204433.0 271505.0 263916.0 106650.0 110028.0 90690.0 83138.0 312893.0 319559.0 95581.0 99278.0 244881.0 237147.0 14420.0 20534.0 28627.0 33244.0 102607.0 97658.0 340364.0 340440.0 95196.0 88986.0 95439.0 89459.0 101253.0 100052.0 151860.0 146734.0 31472.0 39119.0 246497.0 249758.0 32177.0 24017.0 111494.0 117463.0 161903.0 158207.0 173695.0 170477.0 303333.0 296627.0 215384.0 207761.0 104296.0 107904.0 352537.0 348917.0 108815.0 115066.0 78741.0 83115.0 181410.0 184980.0 166578.0 168674.0 92577.0 98868.0 162779.0 158306.0 148170.0 142178.0 8004.0 0.0 271019.0 277964.0 180729.0 179939.0 310654.0 302424.0 125749.0 118515.0 132911.0 124891.0 73979.0 81515.0 132072.0 138099.0 197723.0 203758.0 114335.0 111928.0 72753.0 69614.0 93802.0 85681.0 89709.0 89387.0 95832.0 89115.0 116437.0 109193.0 149496.0 144058.0 265958.0 273584.0 183837.0 184099.0 64589.0 61738.0 101488.0 108986.0 33151.0 34920.0 117320.0 113228.0 77229.0 76306.0 107908.0 102474.0 33288.0 30561.0 120380.0 123748.0 85608.0 87796.0 78812.0 70991.0 61512.0 63428.0 154167.0 155097.0 161787.0 154470.0 50272.0 56611.0 176785.0 176516.0 224756.0 222179.0 165570.0 169153.0 332718.0 324599.0 100332.0 92001.0 310689.0 313679.0 58808.0 63613.0 90279.0 89738.0 16371.0 11021.0 81009.0 86429.0 136101.0 142053.0 130140.0 130806.0 123106.0 116358.0 168648.0 174214.0 182282.0 201399.0 182282.0 182282.0 182282.0 182282.0 201399.0 201399.0 201399.0 201399.0
291630.0 291735.0 242000.0 236266.0 118816.0 114938.0 83440.0 76554.0 270705.0 275355.0 198605.0 194224.0 289674.0 285558.0 116313.0 124283.0 271858.0 263845.0 212794.0 206645.0 296064.0 300348.0 130203.0 133005.0 291585.0 286668.0 176975.0 174474.0 212627.0 220415.0 310231.0 314781.0 64683.0 70942.0 255006.0 261524.0 226851.0 219013.0 253034.0 245298.0 184000.0 191929.0 275867.0 269289.0 63223.0 71170.0 45194.0 47802.0 167153.0 166667.0 201097.0 204381.0 44610.0 52395.0 220181.0 212196.0 50080.0 53568.0 259030.0 258732.0 257399.0 262342.0 262741.0 268605.0 70449.0 69625.0 176289.0 183398.0 286755.0 280199.0 307791.0 313941.0 297118.0 300260.0 287519.0 293797.0 40827.0 32890.0 284505.0 281308.0 174508.0 166567.0 260858.0 266289.0 277924.0 282462.0 36701.0 33285.0 66258.0 73847.0 229448.0 236112.0 83190.0 81170.0 234512.0 228995.0 242490.0 248259.0 106123.0 98776.0 304186.0 298371.0 233495.0 237185.0 117168.0 120294.0 305518.0 307717.0 274817.0 271019.0 0.0 7987.0 92430.0 95757.0 40278.0 32013.0 145324.0 152509.0 307008.0 302240.0 238070.0 233219.0 162355.0 155332.0 86809.0 78827.0 158171.0 162641.0 207066.0 214125.0 321701.0 316743.0 313261.0 306312.0 282600.0 276606.0 154884.0 162500.0 273434.0 265954.0 42740.0 40514.0 87478.0 86958.0 230463.0 238396.0 171197.0 163055.0 269759.0 277722.0 286371.0 291473.0 281630.0 273648.0 197863.0 205676.0 293787.0 296571.0 168953.0 171687.0 245343.0 237299.0 255483.0 256827.0 276932.0 285094.0 251721.0 259413.0 279730.0 279646.0 227204.0 225222.0 310449.0 303116.0 53379.0 59599.0 264287.0 259430.0 76524.0 68999.0 208883.0 211338.0 42039.0 43330.0 242808.0 247810.0 188541.0 185589.0 271633.0 275941.0 193431.0 186362.0 251387.0 246475.0 272752.0 264922.0 255461.0 250175.0 314823.0 322552.0 245365.0 88159.0 245365.0 245365.0 245365.0 245365.0 88159.0 88159.0 88159.0 88159.0
299314.0 299357.0 246486.0 240752.0 123867.0 120347.0 80486.0 74023.0 275191.0 279840.0 204923.0 200708.0 294266.0 290313.0 123779.0 131682.0 278587.0 270592.0 218842.0 212810.0 301457.0 305874.0 136927.0 139955.0 298228.0 293203.0 182815.0 180081.0 218833.0 226576.0 317154.0 321616.0 57626.0 64184.0 262476.0 268943.0 232238.0 224343.0 259741.0 251984.0 189663.0 197560.0 280610.0 274151.0 71069.0 78996.0 50118.0 53622.0 173636.0 172911.0 206896.0 210372.0 40158.0 48151.0 225493.0 217498.0 57474.0 61277.0 266091.0 265907.0 263944.0 268770.0 270654.0 276493.0 64675.0 63242.0 183077.0 190072.0 292010.0 285543.0 315630.0 321753.0 301604.0 304794.0 294057.0 300257.0 42998.0 35545.0 291001.0 287925.0 180267.0 172350.0 265344.0 270775.0 282410.0 286948.0 33444.0 31726.0 74243.0 81822.0 234435.0 240970.0 77556.0 76123.0 242448.0 236950.0 248058.0 253699.0 110812.0 103694.0 308672.0 302856.0 238772.0 242277.0 122737.0 126028.0 310040.0 312204.0 281860.0 277964.0 7987.0 0.0 99974.0 103476.0 32831.0 24552.0 152361.0 159455.0 311585.0 306957.0 243783.0 238784.0 167535.0 160458.0 91394.0 83470.0 164770.0 169035.0 213382.0 220341.0 327360.0 322515.0 321004.0 314080.0 287819.0 281940.0 161688.0 169231.0 277920.0 270440.0 48387.0 45112.0 94213.0 94047.0 236499.0 244403.0 177808.0 169730.0 276176.0 284127.0 294316.0 299400.0 289383.0 281407.0 203116.0 210976.0 301040.0 303732.0 174481.0 176956.0 250733.0 242674.0 263268.0 264555.0 282840.0 291006.0 256207.0 263899.0 284216.0 284132.0 234506.0 232632.0 314934.0 307602.0 61356.0 67585.0 268773.0 263915.0 74284.0 67162.0 214200.0 216880.0 37500.0 37654.0 248841.0 253697.0 194785.0 192025.0 278801.0 283022.0 199960.0 193001.0 255872.0 250960.0 277238.0 269414.0 259914.0 254794.0 319309.0 327037.0 249851.0 92214.0 249851.0 249851.0 249851.0 249851.0 92214.0 92214.0 92214.0 92214.0
199517.0 199418.0 185994.0 179003.0 63979.0 56086.0 162071.0 154088.0 217522.0 221117.0 114725.0 108762.0 221145.0 215400.0 24044.0 32296.0 183033.0 174945.0 131257.0 124087.0 218939.0 221798.0 45875.0 45288.0 203250.0 199192.0 99787.0 100443.0 129433.0 137439.0 219924.0 224994.0 156887.0 162699.0 162602.0 169192.0 152004.0 145189.0 164528.0 157038.0 108461.0 116207.0 206168.0 198516.0 31341.0 23940.0 92381.0 85358.0 82867.0 85279.0 122852.0 123807.0 132449.0 138933.0 146517.0 139090.0 66146.0 58488.0 168106.0 167221.0 170144.0 176003.0 173423.0 178654.0 160087.0 160702.0 88356.0 96377.0 211263.0 203945.0 216894.0 222713.0 234649.0 236044.0 200016.0 206855.0 79946.0 79499.0 197361.0 193247.0 98550.0 91033.0 205232.0 209236.0 223032.0 226370.0 122787.0 115945.0 36602.0 30363.0 159014.0 166818.0 172044.0 168231.0 146184.0 141601.0 165022.0 171967.0 62433.0 55986.0 244386.0 239870.0 159583.0 165175.0 54855.0 54180.0 240891.0 241138.0 183936.0 180729.0 92430.0 99974.0 0.0 8078.0 132704.0 124431.0 55928.0 63779.0 238115.0 231987.0 159205.0 156124.0 95327.0 90104.0 57329.0 55609.0 73055.0 79695.0 122918.0 130783.0 241497.0 235558.0 221448.0 214690.0 207592.0 200559.0 67587.0 75649.0 213413.0 205330.0 86555.0 93785.0 22372.0 14598.0 148473.0 156471.0 85276.0 76795.0 183423.0 191398.0 197982.0 202382.0 189920.0 181994.0 126276.0 133001.0 201894.0 205045.0 96495.0 102302.0 169690.0 162123.0 164080.0 164968.0 195117.0 203095.0 195156.0 202327.0 221997.0 220150.0 135224.0 132921.0 252128.0 245746.0 44185.0 42641.0 209128.0 205509.0 152736.0 144539.0 135791.0 135495.0 130329.0 133802.0 160515.0 166853.0 105876.0 100949.0 180128.0 184854.0 107547.0 99596.0 189936.0 187163.0 207529.0 200706.0 189828.0 182914.0 253949.0 261820.0 192960.0 64459.0 192960.0 192960.0 192960.0 192960.0 64459.0 64459.0 64459.0 64459.0
195880.0 196078.0 191532.0 184420.0 71136.0 63179.0 162331.0 154320.0 223369.0 226773.0 116559.0 110216.0 225001.0 219063.0 23354.0 31757.0 182873.0 174785.0 133497.0 126159.0 221508.0 224101.0 49215.0 47361.0 203206.0 199452.0 103326.0 104532.0 131296.0 139286.0 219028.0 224326.0 159764.0 165308.0 159968.0 166766.0 155351.0 148761.0 164562.0 157199.0 112166.0 119773.0 209938.0 202177.0 32994.0 25041.0 91854.0 84499.0 85057.0 88186.0 125871.0 126336.0 134339.0 140539.0 150102.0 142832.0 65290.0 57541.0 167007.0 165732.0 170590.0 176708.0 168290.0 173749.0 162068.0 163065.0 89222.0 97475.0 214143.0 206731.0 212419.0 218412.0 239195.0 240367.0 200265.0 207258.0 86136.0 85153.0 197734.0 193330.0 102338.0 95033.0 210744.0 214547.0 228589.0 231752.0 124575.0 117480.0 35570.0 28300.0 162978.0 170880.0 173777.0 169640.0 140702.0 135863.0 167816.0 174924.0 70226.0 63925.0 249229.0 244893.0 163021.0 168864.0 61685.0 60636.0 245146.0 245159.0 182819.0 179939.0 95757.0 103476.0 8078.0 0.0 135981.0 127743.0 56773.0 64758.0 241853.0 235566.0 161777.0 159050.0 100528.0 95629.0 65403.0 63584.0 75201.0 82323.0 124596.0 132597.0 243415.0 237296.0 217529.0 210628.0 210568.0 203396.0 69093.0 77147.0 218338.0 210219.0 86183.0 93702.0 30444.0 22661.0 150466.0 158422.0 86916.0 78480.0 184096.0 192041.0 192604.0 197213.0 185915.0 177946.0 130387.0 136872.0 200010.0 203463.0 100906.0 107065.0 172770.0 165336.0 159855.0 161079.0 196878.0 204780.0 200584.0 207660.0 227176.0 225113.0 133399.0 130635.0 257140.0 250902.0 45121.0 42254.0 214690.0 211256.0 152836.0 144693.0 139568.0 138822.0 132321.0 136174.0 162355.0 168949.0 108132.0 102743.0 178611.0 183610.0 108885.0 100741.0 194806.0 192296.0 211862.0 205193.0 194208.0 187135.0 258627.0 266493.0 199086.0 72531.0 199086.0 199086.0 199086.0 199086.0 72531.0 72531.0 72531.0 72531.0
331860.0 332003.0 277477.0 271743.0 155182.0 151909.0 63039.0 59066.0 306182.0 310831.0 237097.0 233024.0 325182.0 321333.0 156563.0 164495.0 311089.0 303115.0 250796.0 244858.0 332903.0 337413.0 169490.0 172679.0 330633.0 325527.0 214629.0 211725.0 250911.0 258616.0 349823.0 354211.0 25228.0 32458.0 295263.0 301753.0 263700.0 255770.0 292227.0 284450.0 221342.0 229212.0 311625.0 305245.0 103285.0 111265.0 67941.0 74217.0 205963.0 205042.0 238665.0 242285.0 24271.0 30237.0 256905.0 248907.0 84170.0 89529.0 298855.0 298718.0 296285.0 301016.0 302363.0 308365.0 36574.0 32798.0 215666.0 222552.0 323362.0 316959.0 347738.0 353965.0 332594.0 335785.0 326384.0 332523.0 73021.0 65941.0 323299.0 320304.0 212021.0 204128.0 296335.0 301765.0 313401.0 317939.0 27211.0 33350.0 105318.0 113139.0 265625.0 272073.0 49264.0 50233.0 273976.0 268275.0 279643.0 285190.0 141915.0 134956.0 339663.0 333847.0 270155.0 273534.0 154408.0 157814.0 341031.0 343194.0 314613.0 310654.0 40278.0 32831.0 132704.0 135981.0 0.0 8282.0 185129.0 192171.0 342581.0 337949.0 275475.0 270370.0 198891.0 191783.0 122474.0 114611.0 197202.0 201291.0 245552.0 252427.0 358991.0 354230.0 353423.0 346432.0 319148.0 313350.0 194300.0 201777.0 308911.0 301430.0 68957.0 62618.0 126830.0 126851.0 268437.0 276316.0 210242.0 202224.0 308411.0 316349.0 325725.0 330993.0 321777.0 313786.0 234499.0 242386.0 333868.0 336538.0 206073.0 208366.0 282191.0 274125.0 295577.0 297013.0 314666.0 322833.0 287197.0 294890.0 315206.0 315123.0 267337.0 265445.0 345925.0 338592.0 92764.0 98389.0 299763.0 294906.0 60542.0 56123.0 245622.0 248458.0 22567.0 16121.0 280773.0 285515.0 226904.0 224304.0 311609.0 315794.0 232314.0 225444.0 286863.0 281951.0 308229.0 300405.0 290956.0 285737.0 350300.0 358028.0 280842.0 124149.0 280842.0 280842.0 280842.0 280842.0 124149.0 124149.0 124149.0 124149.0
323622.0 323746.0 269310.0 263576.0 147014.0 143742.0 66179.0 61365.0 298014.0 302664.0 228911.0 224856.0 317014.0 313166.0 148284.0 156213.0 302911.0 294931.0 242629.0 236634.0 324736.0 329246.0 161291.0 164437.0 322483.0 317366.0 206462.0 203558.0 242697.0 250387.0 341599.0 346009.0 33284.0 40238.0 286984.0 293472.0 255533.0 247602.0 284053.0 276282.0 213175.0 221044.0 303458.0 297078.0 95087.0 103062.0 62160.0 67989.0 197796.0 196848.0 230498.0 234117.0 25194.0 32462.0 248738.0 240740.0 76892.0 81997.0 290603.0 290449.0 288123.0 292841.0 294295.0 300263.0 42924.0 40042.0 207462.0 214377.0 315194.0 308792.0 339589.0 345794.0 324427.0 327618.0 318223.0 324349.0 64854.0 57773.0 315129.0 312160.0 203854.0 195961.0 288167.0 293598.0 305233.0 309772.0 24960.0 29523.0 97317.0 105102.0 257458.0 263906.0 55828.0 55954.0 265944.0 260285.0 271475.0 277023.0 133747.0 126789.0 331496.0 325680.0 261988.0 265366.0 146241.0 149646.0 332864.0 335027.0 306364.0 302424.0 32013.0 24552.0 124431.0 127743.0 8282.0 0.0 176874.0 183932.0 334414.0 329782.0 267307.0 262203.0 190723.0 183616.0 114307.0 106444.0 189030.0 193120.0 237365.0 244215.0 350824.0 346063.0 345210.0 338233.0 310981.0 305182.0 186089.0 193584.0 300744.0 293263.0 62661.0 56794.0 118613.0 118584.0 260270.0 268149.0 202070.0 194044.0 300234.0 308170.0 317723.0 322952.0 313569.0 305581.0 226332.0 234219.0 325592.0 328271.0 197906.0 200199.0 274024.0 265957.0 287384.0 288791.0 306498.0 314665.0 279030.0 286722.0 307039.0 306955.0 259057.0 257163.0 337758.0 330425.0 84692.0 90427.0 291596.0 286739.0 62504.0 57170.0 237455.0 240291.0 22884.0 18508.0 272605.0 277347.0 218705.0 216134.0 303341.0 307539.0 224146.0 217279.0 278696.0 273784.0 300062.0 292238.0 282789.0 277570.0 342133.0 349861.0 272674.0 115982.0 272674.0 272674.0 272674.0 272674.0 115982.0 115982.0 115982.0 115982.0
153462.0 151948.0 147979.0 140240.0 59318.0 53959.0 217965.0 209991.0 181291.0 183256.0 60205.0 53543.0 172460.0 165933.0 33578.0 25497.0 127331.0 119254.0 77610.0 70059.0 165772.0 167974.0 18774.0 12788.0 147454.0 143281.0 52319.0 56264.0 74900.0 82843.0 164982.0 169730.0 209956.0 216249.0 112858.0 118529.0 101887.0 96176.0 108721.0 101176.0 61382.0 68009.0 157230.0 149175.0 87137.0 79868.0 148209.0 141041.0 30015.0 35535.0 71933.0 71088.0 187248.0 194026.0 97539.0 91032.0 121802.0 114081.0 113730.0 113724.0 114216.0 120115.0 137397.0 140746.0 214654.0 214693.0 32491.0 40702.0 159001.0 151430.0 175075.0 179754.0 189256.0 189457.0 144108.0 150927.0 123513.0 125754.0 141435.0 137393.0 52631.0 47244.0 166562.0 169002.0 184372.0 186354.0 177750.0 171192.0 92064.0 85046.0 111617.0 119773.0 226890.0 223443.0 114453.0 112465.0 112741.0 120169.0 69686.0 69463.0 200594.0 197240.0 109738.0 116348.0 49998.0 45388.0 193927.0 193050.0 129502.0 125749.0 145324.0 152361.0 55928.0 56773.0 185129.0 176874.0 0.0 7999.0 188809.0 182071.0 106286.0 104356.0 60221.0 58814.0 80048.0 84094.0 20724.0 29042.0 68044.0 76144.0 186878.0 180648.0 176422.0 170544.0 155646.0 148212.0 13067.0 20788.0 170512.0 162322.0 142423.0 149706.0 58657.0 58370.0 94143.0 102030.0 30592.0 22435.0 127527.0 135495.0 162896.0 165581.0 146002.0 138535.0 80640.0 85779.0 149120.0 151483.0 54942.0 62728.0 118341.0 111342.0 122273.0 121160.0 140268.0 148120.0 156070.0 162385.0 180629.0 177391.0 83189.0 82620.0 209293.0 203906.0 100071.0 98424.0 170763.0 168701.0 208657.0 200455.0 88000.0 85589.0 185014.0 187932.0 105849.0 112690.0 52570.0 46443.0 126583.0 130665.0 52157.0 43970.0 147082.0 146117.0 161285.0 155386.0 144080.0 136417.0 209110.0 216888.0 160498.0 85675.0 160498.0 160498.0 160498.0 160498.0 85675.0 85675.0 85675.0 85675.0
148658.0 146813.0 142225.0 134413.0 61330.0 56800.0 225751.0 217783.0 175654.0 177370.0 52259.0 45547.0 165071.0 158453.0 41577.0 33475.0 119748.0 111682.0 69739.0 62154.0 157879.0 160028.0 23723.0 19504.0 139799.0 135515.0 45894.0 50515.0 66938.0 74871.0 157722.0 162340.0 217076.0 223451.0 107338.0 112717.0 94456.0 88943.0 101074.0 93483.0 54854.0 61145.0 149832.0 141738.0 94914.0 87712.0 156113.0 148973.0 22698.0 29041.0 64511.0 63366.0 194715.0 201554.0 90305.0 83989.0 129735.0 122019.0 106753.0 107060.0 106403.0 112226.0 134884.0 137817.0 222055.0 221979.0 24578.0 32721.0 151199.0 143608.0 171109.0 175526.0 182278.0 182318.0 136345.0 143112.0 129608.0 132151.0 133633.0 129695.0 46574.0 41926.0 160619.0 162815.0 178364.0 180142.0 185258.0 178768.0 100006.0 93021.0 104570.0 112747.0 234347.0 230988.0 113073.0 111621.0 104984.0 112460.0 72790.0 73388.0 193813.0 190627.0 102322.0 109062.0 52784.0 48027.0 186731.0 185710.0 122472.0 118515.0 152509.0 159455.0 63779.0 64758.0 192171.0 183932.0 7999.0 0.0 181322.0 174517.0 98461.0 96680.0 56387.0 55874.0 84613.0 89168.0 14177.0 22576.0 60060.0 68172.0 178887.0 172650.0 171755.0 166096.0 147881.0 140409.0 5989.0 12978.0 163929.0 155748.0 150314.0 157564.0 65432.0 65639.0 86185.0 94060.0 22714.0 14785.0 119644.0 127618.0 160366.0 162695.0 141731.0 134416.0 74126.0 78922.0 142591.0 144709.0 49858.0 57822.0 110693.0 103786.0 118663.0 117096.0 132272.0 140122.0 150110.0 156268.0 174238.0 170809.0 77185.0 77192.0 202626.0 197389.0 107872.0 106330.0 164849.0 163030.0 216470.0 208263.0 81023.0 78263.0 192459.0 195266.0 97865.0 104736.0 44831.0 38526.0 119866.0 123721.0 44158.0 35983.0 140586.0 139902.0 154247.0 148496.0 137161.0 129413.0 202172.0 209926.0 155671.0 89876.0 155671.0 155671.0 155671.0 155671.0 89876.0 89876.0 89876.0 89876.0
203301.0 195522.0 77541.0 78702.0 188532.0 193368.0 389436.0 381984.0 77672.0 69918.0 131225.0 139230.0 17342.0 22878.0 220627.0 213490.0 118479.0 120612.0 113359.0 121115.0 41161.0 47481.0 192639.0 195178.0 112547.0 105475.0 138531.0 137752.0 118067.0 111358.0 135472.0 130072.0 367697.0 374550.0 174362.0 169810.0 86939.0 93126.0 120411.0 121425.0 129704.0 122087.0 31951.0 39712.0 265378.0 260004.0 326272.0 320418.0 158794.0 154164.0 116880.0 118330.0 351528.0 359387.0 91778.0 99042.0 301956.0 294772.0 141754.0 150008.0 110214.0 102584.0 234010.0 229826.0 375909.0 373969.0 160670.0 152364.0 37892.0 44915.0 232425.0 229938.0 27985.0 20072.0 105629.0 100862.0 271075.0 276932.0 103074.0 110750.0 139581.0 147097.0 68115.0 60166.0 65974.0 59056.0 343610.0 339089.0 273898.0 268399.0 79250.0 71745.0 388646.0 387691.0 234414.0 239118.0 77878.0 69988.0 200885.0 208307.0 39926.0 45825.0 79115.0 72989.0 191897.0 189831.0 18091.0 10159.0 139894.0 132911.0 307008.0 311585.0 238115.0 241853.0 342581.0 334414.0 188809.0 181322.0 0.0 8114.0 85254.0 85159.0 145967.0 152621.0 220238.0 228202.0 168306.0 160391.0 125282.0 117342.0 58112.0 62810.0 218501.0 219862.0 38659.0 46542.0 175753.0 168402.0 46455.0 49567.0 320269.0 326201.0 228072.0 232922.0 100564.0 94490.0 158958.0 166537.0 100209.0 98168.0 250186.0 246123.0 210098.0 209122.0 112060.0 105123.0 158839.0 151539.0 142100.0 137390.0 71128.0 77586.0 209504.0 201988.0 71604.0 69756.0 69757.0 63619.0 52132.0 45155.0 163403.0 171649.0 48726.0 52126.0 277849.0 278877.0 68600.0 76046.0 381390.0 373296.0 102329.0 103357.0 348912.0 349080.0 92752.0 84344.0 136733.0 143873.0 149263.0 142736.0 141138.0 149306.0 59467.0 66916.0 35806.0 44024.0 51885.0 56844.0 37569.0 41865.0 110171.0 220209.0 110171.0 110171.0 110171.0 110171.0 220209.0 220209.0 220209.0 220209.0
195395.0 187637.0 76652.0 76989.0 183563.0 188182.0 384409.0 376909.0 80247.0 72822.0 124034.0 131986.0 13869.0 16755.0 214131.0 206895.0 110459.0 112526.0 106129.0 113900.0 33508.0 40213.0 186375.0 188715.0 104866.0 97684.0 132259.0 131792.0 110686.0 103853.0 128180.0 122960.0 363065.0 369918.0 166258.0 161727.0 80340.0 86818.0 112298.0 113335.0 123526.0 115814.0 26387.0 33525.0 259586.0 254085.0 320687.0 314733.0 152073.0 147661.0 110203.0 111347.0 346808.0 354635.0 85483.0 92925.0 296174.0 288935.0 133658.0 141913.0 102100.0 94474.0 225906.0 221739.0 371221.0 369337.0 153540.0 145184.0 29781.0 36819.0 224581.0 222170.0 32787.0 25323.0 97858.0 93258.0 266457.0 272313.0 95236.0 102856.0 133443.0 141055.0 69153.0 61416.0 69071.0 62522.0 338780.0 334134.0 267927.0 262311.0 73542.0 66329.0 384174.0 383080.0 226323.0 231046.0 70521.0 62676.0 196164.0 203472.0 45991.0 51120.0 72584.0 66837.0 186591.0 184386.0 24653.0 17505.0 131914.0 124891.0 302240.0 306957.0 231987.0 235566.0 337949.0 329782.0 182071.0 174517.0 8114.0 0.0 77810.0 78065.0 140647.0 147410.0 215565.0 223504.0 161655.0 153827.0 117920.0 109921.0 52806.0 56811.0 210778.0 212051.0 30590.0 38513.0 169006.0 161570.0 47619.0 49419.0 314683.0 320715.0 222431.0 227118.0 92954.0 86737.0 152057.0 159737.0 92140.0 90195.0 242142.0 238114.0 202096.0 201074.0 106263.0 99126.0 151086.0 143857.0 136309.0 131880.0 64004.0 70733.0 201395.0 193883.0 63533.0 61842.0 69569.0 64061.0 54954.0 47480.0 155354.0 163602.0 55306.0 57924.0 272132.0 273008.0 70131.0 77360.0 376268.0 368150.0 96244.0 96835.0 344204.0 344515.0 84895.0 76492.0 129815.0 136839.0 141250.0 134767.0 133875.0 142095.0 57447.0 65312.0 33803.0 41838.0 48256.0 52287.0 44850.0 49598.0 109736.0 215591.0 109736.0 109736.0 109736.0 109736.0 215591.0 215591.0 215591.0 215591.0
142228.0 135748.0 79678.0 72842.0 121137.0 123625.0 317488.0 309714.0 108466.0 105987.0 46691.0 54427.0 70662.0 62997.0 139348.0 131637.0 62792.0 59092.0 28814.0 36551.0 59745.0 62821.0 113402.0 114417.0 73056.0 64907.0 61226.0 63774.0 32901.0 26141.0 100233.0 100021.0 300591.0 307444.0 103677.0 101870.0 17561.0 24605.0 51905.0 48227.0 54132.0 46294.0 55965.0 47707.0 188654.0 182384.0 250519.0 243967.0 76786.0 73979.0 37090.0 35441.0 282419.0 289920.0 24225.0 30701.0 224938.0 217416.0 75176.0 82601.0 45399.0 42780.0 160950.0 158545.0 308412.0 306863.0 76242.0 67758.0 52756.0 45147.0 172065.0 172045.0 93135.0 90797.0 65687.0 68190.0 205757.0 210910.0 61695.0 64057.0 63567.0 71521.0 90823.0 88542.0 104915.0 103224.0 273670.0 268172.0 195750.0 189466.0 30323.0 34382.0 321228.0 319120.0 155628.0 159263.0 7607.0 15474.0 135284.0 141269.0 106977.0 106513.0 18611.0 25426.0 121068.0 117783.0 94244.0 91339.0 81942.0 73979.0 238070.0 243783.0 159205.0 161777.0 275475.0 267307.0 106286.0 98461.0 85254.0 77810.0 0.0 7955.0 78140.0 85309.0 154267.0 161707.0 86626.0 79531.0 40150.0 32112.0 83651.0 78762.0 162533.0 161174.0 49569.0 41969.0 93314.0 85509.0 82730.0 75805.0 244556.0 251196.0 153157.0 156573.0 15984.0 13089.0 75749.0 83871.0 47343.0 52937.0 181227.0 178971.0 144671.0 141320.0 44032.0 36336.0 107098.0 103052.0 69533.0 68435.0 15479.0 14166.0 136530.0 129917.0 40039.0 48084.0 82059.0 84266.0 95068.0 88856.0 84183.0 92070.0 116996.0 114268.0 201562.0 201430.0 94821.0 97323.0 308756.0 300534.0 33214.0 27684.0 279928.0 281304.0 15185.0 12531.0 53778.0 60050.0 88125.0 84901.0 56261.0 64592.0 64873.0 69665.0 66217.0 63833.0 53816.0 45921.0 112688.0 119828.0 108311.0 155705.0 108311.0 108311.0 108311.0 108311.0 155705.0 155705.0 155705.0 155705.0
149074.0 142731.0 72949.0 65892.0 115603.0 118462.0 313227.0 305497.0 102624.0 100573.0 46097.0 54165.0 69683.0 62458.0 136979.0 129475.0 70593.0 66675.0 28342.0 36038.0 63254.0 67137.0 110249.0 111778.0 81000.0 72833.0 57024.0 58749.0 33636.0 28213.0 108188.0 107952.0 295486.0 302339.0 109795.0 108348.0 9627.0 17012.0 59077.0 54903.0 49307.0 41334.0 54594.0 46290.0 185096.0 179024.0 246869.0 240456.0 74489.0 70892.0 33283.0 33340.0 277673.0 285238.0 16497.0 23458.0 221522.0 214065.0 82118.0 89356.0 53022.0 50671.0 166327.0 164201.0 303452.0 301745.0 75511.0 67217.0 55139.0 47877.0 178832.0 178998.0 90630.0 88940.0 73609.0 75989.0 200231.0 205559.0 69614.0 72009.0 59040.0 67002.0 85005.0 83232.0 99740.0 98497.0 269033.0 263677.0 192553.0 186463.0 22906.0 27860.0 316303.0 314349.0 159895.0 163232.0 9274.0 15878.0 129602.0 135814.0 104053.0 103023.0 11617.0 19277.0 116066.0 112972.0 92722.0 90486.0 89449.0 81515.0 233219.0 238784.0 156124.0 159050.0 270370.0 262203.0 104356.0 96680.0 85159.0 78065.0 7955.0 0.0 72217.0 79411.0 148737.0 156281.0 84231.0 76749.0 40648.0 33190.0 88653.0 84239.0 169652.0 168113.0 51519.0 44449.0 91301.0 83705.0 78387.0 71115.0 240888.0 247394.0 149092.0 152835.0 20301.0 19940.0 74096.0 81938.0 55298.0 60853.0 187094.0 185061.0 151107.0 147517.0 37344.0 29453.0 114711.0 110804.0 64304.0 62527.0 14063.0 8721.0 142053.0 135622.0 46666.0 54538.0 75894.0 78591.0 90574.0 84746.0 88880.0 96572.0 113902.0 110668.0 197935.0 198070.0 89094.0 91183.0 304599.0 296389.0 26231.0 21913.0 275161.0 276370.0 22761.0 20384.0 51865.0 58776.0 95368.0 92386.0 56104.0 64185.0 59254.0 63464.0 63051.0 59801.0 49219.0 41067.0 110435.0 117779.0 100915.0 149917.0 100915.0 100915.0 100915.0 100915.0 149917.0 149917.0 149917.0 149917.0
182898.0 178949.0 91176.0 83940.0 43716.0 47612.0 243887.0 236339.0 123600.0 126547.0 52658.0 54325.0 128672.0 123894.0 83051.0 78186.0 126928.0 120027.0 58515.0 55458.0 134060.0 138795.0 53755.0 59442.0 143464.0 136597.0 24737.0 17487.0 61508.0 67521.0 167773.0 169878.0 224007.0 230860.0 139229.0 141984.0 64955.0 56942.0 109179.0 101695.0 26233.0 32820.0 114292.0 107335.0 120192.0 115438.0 180439.0 174773.0 40710.0 32395.0 43686.0 49935.0 206958.0 214676.0 58050.0 50053.0 156612.0 149642.0 125155.0 129063.0 109263.0 111472.0 180850.0 182069.0 232167.0 230279.0 55161.0 54148.0 124479.0 118086.0 209484.0 212307.0 139885.0 141809.0 137457.0 142031.0 128155.0 133698.0 133780.0 133180.0 21083.0 17962.0 110330.0 114019.0 128212.0 131236.0 198647.0 193746.0 129510.0 124802.0 67283.0 74321.0 245077.0 243490.0 163251.0 163193.0 81416.0 86497.0 57455.0 63964.0 149171.0 144550.0 71267.0 74850.0 45947.0 43938.0 146824.0 147834.0 138567.0 132072.0 162355.0 167535.0 95327.0 100528.0 198891.0 190723.0 60221.0 56387.0 145967.0 140647.0 78140.0 72217.0 0.0 7195.0 76725.0 84406.0 43495.0 36729.0 59348.0 63026.0 160716.0 156455.0 206003.0 201881.0 120285.0 114472.0 50910.0 48880.0 118147.0 110100.0 174442.0 180266.0 82518.0 87993.0 74663.0 81786.0 46513.0 46859.0 118272.0 125634.0 205647.0 206472.0 179428.0 173243.0 35617.0 43541.0 163101.0 162303.0 11984.0 9706.0 83405.0 75329.0 160679.0 157013.0 118136.0 126214.0 100102.0 107135.0 126688.0 124857.0 108848.0 112770.0 156809.0 150430.0 132361.0 133946.0 114334.0 111259.0 235661.0 227529.0 46797.0 50493.0 204393.0 205189.0 86363.0 89383.0 43273.0 47201.0 140041.0 140824.0 55182.0 54517.0 94742.0 91838.0 113414.0 106198.0 95695.0 89417.0 158922.0 166790.0 100929.0 77703.0 100929.0 100929.0 100929.0 100929.0 77703.0 77703.0 77703.0 77703.0
187361.0 183628.0 95921.0 88899.0 36602.0 40772.0 237032.0 229509.0 127858.0 131146.0 58309.0 59276.0 135304.0 130664.0 79175.0 74870.0 133324.0 126313.0 65197.0 61781.0 141209.0 145974.0 50259.0 56551.0 150120.0 143346.0 30262.0 23688.0 67906.0 74151.0 174177.0 176425.0 216900.0 223753.0 143728.0 146772.0 72132.0 64106.0 115399.0 107839.0 32911.0 39792.0 121035.0 114174.0 114135.0 109611.0 174012.0 168457.0 42786.0 34878.0 50558.0 56543.0 199940.0 207676.0 65205.0 57210.0 150441.0 143558.0 130780.0 134425.0 115789.0 118192.0 183676.0 185186.0 225074.0 223172.0 57754.0 57730.0 131578.0 125223.0 213531.0 216563.0 145914.0 148040.0 144209.0 148888.0 120973.0 126545.0 140560.0 139804.0 26627.0 21785.0 115148.0 119156.0 132974.0 136267.0 191675.0 186836.0 123700.0 119224.0 74179.0 81086.0 237989.0 236447.0 165194.0 164805.0 88611.0 93676.0 50269.0 56836.0 154874.0 150051.0 78395.0 81853.0 39322.0 37650.0 153098.0 154291.0 144455.0 138099.0 155332.0 160458.0 90104.0 95629.0 191783.0 183616.0 58814.0 55874.0 152621.0 147410.0 85309.0 79411.0 7195.0 0.0 69560.0 77262.0 43972.0 38190.0 65353.0 69440.0 167908.0 163650.0 210540.0 206228.0 127369.0 121606.0 50772.0 49879.0 123807.0 115825.0 168021.0 173744.0 76377.0 82130.0 81577.0 88782.0 48905.0 48009.0 125053.0 132472.0 208660.0 209736.0 183465.0 177111.0 42763.0 50704.0 168779.0 168198.0 17751.0 16891.0 90572.0 82496.0 164054.0 160663.0 125291.0 133376.0 105052.0 112240.0 132007.0 130458.0 113090.0 116624.0 162311.0 155763.0 126157.0 127956.0 119072.0 115665.0 228859.0 220741.0 53965.0 57675.0 197370.0 198112.0 93361.0 96498.0 48522.0 51644.0 145628.0 146651.0 59959.0 58454.0 100535.0 97267.0 119727.0 112390.0 102041.0 95946.0 164784.0 172644.0 104309.0 70508.0 104309.0 104309.0 104309.0 104309.0 70508.0 70508.0 70508.0 70508.0
233256.0 231403.0 155235.0 149501.0 33140.0 31610.0 169769.0 162536.0 183940.0 188589.0 119645.0 117113.0 202911.0 198919.0 68158.0 71795.0 195803.0 188134.0 131292.0 126154.0 210763.0 215511.0 61315.0 67839.0 214325.0 208381.0 94573.0 90654.0 132373.0 139672.0 236025.0 239423.0 147591.0 154443.0 191768.0 196841.0 141677.0 133664.0 177042.0 169203.0 100373.0 108040.0 189216.0 182781.0 62146.0 62063.0 112405.0 108441.0 91131.0 87993.0 118066.0 122581.0 131290.0 139160.0 134764.0 126769.0 93181.0 87963.0 187699.0 189294.0 179571.0 183328.0 216227.0 220096.0 155801.0 153863.0 103874.0 109003.0 201049.0 194766.0 255101.0 259800.0 210352.0 213534.0 209248.0 214740.0 51499.0 57003.0 205868.0 203898.0 91601.0 83982.0 174093.0 179524.0 191159.0 195697.0 123475.0 119291.0 74070.0 73664.0 143163.0 149605.0 168743.0 167516.0 191472.0 188292.0 157982.0 163216.0 19441.0 13099.0 217421.0 211605.0 147932.0 151117.0 35019.0 39419.0 218777.0 220912.0 202868.0 197723.0 86809.0 91394.0 57329.0 65403.0 122474.0 114307.0 80048.0 84613.0 220238.0 215565.0 154267.0 148737.0 76725.0 69560.0 0.0 7995.0 84213.0 85801.0 127897.0 133928.0 237358.0 232923.0 256317.0 250543.0 196802.0 191146.0 84281.0 90135.0 186669.0 179188.0 106678.0 110953.0 35058.0 42748.0 148659.0 156320.0 96579.0 89830.0 190558.0 198328.0 241626.0 244800.0 226040.0 218583.0 112321.0 120263.0 224945.0 226084.0 84777.0 86323.0 160129.0 152054.0 202205.0 201207.0 193976.0 202120.0 164956.0 172648.0 192965.0 192881.0 161224.0 161729.0 223683.0 216351.0 70330.0 75135.0 177522.0 172664.0 162168.0 154244.0 123521.0 126864.0 128674.0 128981.0 160864.0 164901.0 109139.0 108227.0 201751.0 204549.0 116845.0 111381.0 164620.0 159709.0 185951.0 178139.0 168653.0 163424.0 228058.0 235786.0 158600.0 7151.0 158600.0 158600.0 158600.0 158600.0 7151.0 7151.0 7151.0 7151.0
237550.0 235922.0 163227.0 157493.0 40714.0 38453.0 161775.0 154548.0 191931.0 196581.0 126259.0 123427.0 210872.0 206850.0 69096.0 73559.0 202198.0 194468.0 138338.0 133029.0 218466.0 223144.0 65563.0 71586.0 220911.0 215095.0 101673.0 98001.0 139227.0 146618.0 242249.0 245798.0 139727.0 146580.0 196503.0 201775.0 149331.0 141343.0 183389.0 175545.0 107708.0 115436.0 197149.0 190683.0 56622.0 57363.0 104859.0 101088.0 97110.0 94404.0 125334.0 129655.0 123327.0 131188.0 142455.0 134458.0 86271.0 81340.0 193451.0 194806.0 186176.0 190104.0 219090.0 223203.0 147938.0 145999.0 109372.0 114849.0 208813.0 202485.0 258809.0 263687.0 218343.0 221529.0 215961.0 221565.0 44114.0 49302.0 212626.0 210488.0 98783.0 91078.0 182084.0 187515.0 199150.0 203689.0 115486.0 111298.0 68620.0 68904.0 151016.0 157503.0 160874.0 159588.0 193807.0 190342.0 165537.0 170860.0 27343.0 20470.0 225413.0 219597.0 155656.0 158931.0 41585.0 45732.0 226771.0 228899.0 208741.0 203758.0 78827.0 83470.0 55609.0 63584.0 114611.0 106444.0 84094.0 89168.0 228202.0 223504.0 161707.0 156281.0 84406.0 77262.0 7995.0 0.0 89776.0 91875.0 134571.0 140777.0 244926.0 240415.0 260513.0 254588.0 204580.0 198868.0 89278.0 95495.0 194661.0 187173.0 99180.0 103290.0 34068.0 41104.0 155784.0 163497.0 102370.0 95329.0 197371.0 205178.0 244402.0 247801.0 229985.0 222439.0 120020.0 127944.0 230477.0 231823.0 92178.0 93961.0 167800.0 159725.0 205781.0 205055.0 201322.0 209475.0 172947.0 180639.0 200956.0 200872.0 166174.0 166356.0 231675.0 224342.0 63927.0 69134.0 185513.0 180656.0 154187.0 146271.0 131195.0 134387.0 120714.0 121080.0 168028.0 172214.0 115783.0 114538.0 207356.0 210353.0 123076.0 117334.0 172613.0 167701.0 193940.0 186131.0 176633.0 171381.0 236050.0 243778.0 166591.0 11757.0 166591.0 166591.0 166591.0 166591.0 11757.0 11757.0 11757.0 11757.0
151233.0 148656.0 128055.0 120238.0 56746.0 53912.0 233873.0 225962.0 161493.0 163194.0 41714.0 36269.0 151868.0 145429.0 52769.0 45272.0 113928.0 105987.0 58306.0 51045.0 146330.0 148912.0 28224.0 27871.0 133460.0 128507.0 31769.0 36378.0 56394.0 64399.0 153194.0 157226.0 222302.0 228952.0 108608.0 113179.0 81368.0 75511.0 95054.0 87265.0 40777.0 47290.0 136650.0 128633.0 103429.0 96681.0 165203.0 158336.0 9856.0 14913.0 51451.0 51208.0 201317.0 208405.0 76874.0 70312.0 139159.0 131528.0 103696.0 105088.0 99237.0 104369.0 141837.0 144067.0 228326.0 227796.0 19666.0 25437.0 139158.0 131675.0 175296.0 179171.0 168533.0 168745.0 129357.0 135724.0 132163.0 135497.0 126382.0 123156.0 32398.0 28001.0 146443.0 148664.0 164192.0 165996.0 192061.0 185893.0 109651.0 103095.0 90895.0 99050.0 240823.0 237856.0 121861.0 121126.0 92819.0 100096.0 69796.0 71957.0 179909.0 176622.0 89197.0 95702.0 50007.0 45275.0 173229.0 172420.0 119067.0 114335.0 158171.0 164770.0 73055.0 75201.0 197202.0 189030.0 20724.0 14177.0 168306.0 161655.0 86626.0 84231.0 43495.0 43972.0 84213.0 89776.0 0.0 8419.0 49998.0 57760.0 168445.0 162516.0 174503.0 169336.0 135688.0 128385.0 8190.0 6601.0 149907.0 141721.0 159310.0 166297.0 70737.0 72439.0 75421.0 83416.0 13041.0 5674.0 111805.0 119791.0 167152.0 168882.0 145476.0 138517.0 60054.0 65064.0 140748.0 142055.0 36012.0 44036.0 98130.0 90974.0 123863.0 121450.0 122078.0 130076.0 135934.0 142105.0 160139.0 156787.0 77684.0 79183.0 188651.0 183339.0 116437.0 115624.0 150672.0 148867.0 224784.0 216553.0 67276.0 64992.0 198974.0 201329.0 87467.0 93833.0 32932.0 28020.0 117590.0 120622.0 35332.0 28258.0 126522.0 125754.0 140561.0 134672.0 123361.0 115693.0 188391.0 196167.0 141771.0 88619.0 141771.0 141771.0 141771.0 141771.0 88619.0 88619.0 88619.0 88619.0
152670.0 149672.0 119697.0 111867.0 56292.0 54624.0 239507.0 231634.0 153155.0 154807.0 36044.0 31821.0 143859.0 137521.0 60333.0 53101.0 110511.0 102701.0 51667.0 44738.0 139275.0 142112.0 34038.0 35031.0 129623.0 124279.0 23352.0 28122.0 50419.0 58372.0 150382.0 154046.0 226402.0 233193.0 109519.0 113578.0 73490.0 67434.0 91652.0 83812.0 32372.0 38998.0 128659.0 120691.0 109542.0 103039.0 171423.0 164704.0 5542.0 6503.0 43692.0 44114.0 206193.0 213402.0 68795.0 62097.0 145595.0 138022.0 102056.0 104096.0 95076.0 99736.0 145856.0 147672.0 232984.0 232211.0 20491.0 23487.0 131821.0 124412.0 177596.0 181141.0 160246.0 160540.0 125138.0 131233.0 135041.0 138797.0 122014.0 119242.0 24030.0 20170.0 138050.0 140248.0 155789.0 157579.0 197059.0 191071.0 116271.0 109935.0 82664.0 90803.0 245577.0 242824.0 127005.0 126678.0 85494.0 92627.0 70055.0 73125.0 171552.0 168229.0 81283.0 87642.0 50919.0 46392.0 165058.0 164356.0 117102.0 111928.0 162641.0 169035.0 79695.0 82323.0 201291.0 193120.0 29042.0 22576.0 160391.0 153827.0 79531.0 76749.0 36729.0 38190.0 85801.0 91875.0 8419.0 0.0 44492.0 51860.0 162018.0 156283.0 175959.0 171098.0 128265.0 121073.0 16588.0 12284.0 141510.0 133322.0 165494.0 172337.0 75568.0 77966.0 69095.0 77116.0 11750.0 10180.0 107141.0 115095.0 170995.0 172371.0 147620.0 140900.0 51647.0 56754.0 139608.0 140422.0 28216.0 36262.0 90543.0 83248.0 126953.0 124067.0 115898.0 123965.0 127539.0 133693.0 151723.0 148390.0 78487.0 80832.0 180268.0 174933.0 122522.0 122060.0 142282.0 140523.0 230529.0 222294.0 59023.0 57035.0 203807.0 205916.0 81305.0 87310.0 26402.0 23024.0 116320.0 118833.0 31293.0 25634.0 118113.0 117337.0 132306.0 126355.0 115056.0 107429.0 180086.0 187870.0 133739.0 89649.0 133739.0 133739.0 133739.0 133739.0 89649.0 89649.0 89649.0 89649.0
127441.0 122595.0 104997.0 97132.0 96005.0 96287.0 283800.0 275903.0 137426.0 136741.0 8462.0 14649.0 110218.0 102805.0 101585.0 93534.0 68479.0 61188.0 12604.0 6381.0 98327.0 100103.0 78094.0 77631.0 86456.0 80525.0 35202.0 41863.0 7256.0 14880.0 109230.0 111985.0 270634.0 277499.0 84356.0 85642.0 42375.0 40737.0 50175.0 42529.0 33917.0 30448.0 95202.0 86892.0 153426.0 146639.0 215176.0 208262.0 40376.0 40534.0 21542.0 13650.0 250684.0 257893.0 41838.0 39790.0 189062.0 181404.0 66125.0 70670.0 51701.0 55609.0 134722.0 134036.0 277444.0 276595.0 36583.0 28010.0 92465.0 84722.0 155687.0 157487.0 131082.0 129575.0 81391.0 87130.0 178360.0 182528.0 78085.0 76030.0 38777.0 45110.0 120290.0 120006.0 136552.0 136333.0 241550.0 235539.0 159467.0 152733.0 56672.0 64242.0 290053.0 287316.0 124033.0 126439.0 47409.0 55294.0 110424.0 114867.0 144226.0 142697.0 49660.0 57591.0 92994.0 88891.0 133369.0 131003.0 79226.0 72753.0 207066.0 213382.0 122918.0 124596.0 245552.0 237365.0 68044.0 60060.0 125282.0 117920.0 40150.0 40648.0 59348.0 65353.0 127897.0 134571.0 49998.0 44492.0 0.0 8237.0 118847.0 112708.0 150003.0 146746.0 89518.0 81740.0 55504.0 47449.0 117164.0 109436.0 209292.0 216295.0 120057.0 122273.0 26295.0 34050.0 37692.0 46157.0 62948.0 70845.0 157666.0 156971.0 126112.0 120967.0 40999.0 39049.0 103914.0 102958.0 47626.0 51291.0 54368.0 49053.0 111710.0 106457.0 72282.0 80205.0 110259.0 114485.0 128946.0 123789.0 56892.0 63223.0 153911.0 150177.0 166435.0 165540.0 124564.0 125163.0 274748.0 266515.0 38685.0 31033.0 248295.0 250363.0 37806.0 44823.0 18794.0 21986.0 81038.0 81510.0 16317.0 24753.0 95919.0 98204.0 103248.0 99257.0 88172.0 79913.0 150957.0 158359.0 127471.0 130820.0 127471.0 127471.0 127471.0 127471.0 130820.0 130820.0 130820.0 130820.0
128018.0 122757.0 100259.0 92514.0 101617.0 102367.0 291353.0 283472.0 132161.0 131099.0 16060.0 22874.0 102472.0 94963.0 109651.0 101640.0 63905.0 57050.0 7238.0 7806.0 90092.0 91911.0 85708.0 85513.0 80958.0 74591.0 39936.0 45753.0 1561.0 6700.0 104755.0 107026.0 277543.0 284393.0 85625.0 86146.0 36002.0 35592.0 46323.0 39074.0 36889.0 31809.0 87539.0 79230.0 161151.0 154440.0 222957.0 216094.0 48027.0 47460.0 21314.0 13535.0 257902.0 265164.0 36545.0 35896.0 196910.0 189269.0 64507.0 69848.0 46401.0 49448.0 138194.0 137051.0 284547.0 283577.0 44816.0 36245.0 84260.0 76510.0 156795.0 158181.0 123814.0 122082.0 75459.0 80812.0 184722.0 189081.0 71995.0 70574.0 43320.0 50306.0 114838.0 114144.0 130723.0 130188.0 248827.0 242898.0 167360.0 160688.0 50868.0 58093.0 297197.0 294565.0 128962.0 131740.0 39477.0 47391.0 116068.0 120850.0 137152.0 135878.0 42888.0 50919.0 99208.0 95251.0 125777.0 123229.0 76538.0 69614.0 214125.0 220341.0 130783.0 132597.0 252427.0 244215.0 76144.0 68172.0 117342.0 109921.0 32112.0 33190.0 63026.0 69440.0 133928.0 140777.0 57760.0 51860.0 8237.0 0.0 110818.0 104777.0 150197.0 147356.0 81348.0 73547.0 63512.0 55479.0 110670.0 103077.0 217059.0 224009.0 127368.0 129804.0 18072.0 25888.0 45686.0 54119.0 56635.0 64405.0 160533.0 159443.0 127582.0 122848.0 39955.0 36462.0 101710.0 100115.0 51734.0 54325.0 46644.0 41770.0 114686.0 109035.0 64336.0 72317.0 104997.0 108847.0 122612.0 117209.0 59962.0 66890.0 146933.0 143436.0 174155.0 173378.0 119078.0 120068.0 282347.0 274113.0 35438.0 27121.0 255494.0 257445.0 29760.0 36617.0 25598.0 29863.0 79322.0 79008.0 24553.0 32989.0 89989.0 92778.0 96142.0 92480.0 81545.0 73286.0 143625.0 150959.0 124066.0 136565.0 124066.0 124066.0 124066.0 124066.0 136565.0 136565.0 136565.0 136565.0
158004.0 149933.0 121595.0 119490.0 204234.0 207086.0 400988.0 393185.0 131762.0 124766.0 126861.0 133349.0 62862.0 58587.0 220431.0 212357.0 80701.0 86073.0 110354.0 117412.0 29522.0 22637.0 196056.0 196277.0 66979.0 62715.0 144860.0 147280.0 112125.0 104131.0 83725.0 77010.0 384108.0 390961.0 137945.0 131669.0 95864.0 103979.0 90959.0 95488.0 137708.0 129800.0 64939.0 65921.0 271556.0 265027.0 333441.0 326701.0 158631.0 156885.0 120712.0 118212.0 366068.0 373571.0 102970.0 110891.0 307561.0 299952.0 106259.0 113847.0 81239.0 73221.0 195789.0 190251.0 392011.0 390374.0 154942.0 146438.0 41087.0 44801.0 185364.0 181668.0 85526.0 77859.0 62453.0 55272.0 288839.0 294210.0 61690.0 69797.0 147215.0 155171.0 118678.0 111535.0 121220.0 114982.0 357318.0 351794.0 278095.0 271489.0 97643.0 93676.0 404841.0 402768.0 202322.0 208285.0 79391.0 74362.0 218164.0 224458.0 98037.0 103749.0 90261.0 88942.0 204623.0 201407.0 76183.0 68065.0 98901.0 93802.0 321701.0 327360.0 241497.0 243415.0 358991.0 350824.0 186878.0 178887.0 58112.0 52806.0 83651.0 88653.0 160716.0 167908.0 237358.0 244926.0 168445.0 162018.0 118847.0 110818.0 0.0 8126.0 169728.0 172411.0 45521.0 48315.0 174327.0 166285.0 98148.0 97782.0 327508.0 334305.0 236615.0 239751.0 93024.0 85031.0 156501.0 164936.0 67325.0 61328.0 207952.0 202738.0 167153.0 167893.0 125317.0 117326.0 111859.0 103722.0 152921.0 151064.0 77634.0 85657.0 172450.0 164593.0 46669.0 39078.0 116637.0 112701.0 107044.0 99290.0 136713.0 144611.0 106609.0 110230.0 284526.0 284020.0 120426.0 127123.0 392183.0 383953.0 114049.0 110563.0 363575.0 364912.0 81060.0 74711.0 135672.0 140676.0 108846.0 101212.0 134802.0 143141.0 100692.0 109030.0 80265.0 86600.0 87588.0 87049.0 94648.0 97329.0 154576.0 238386.0 154576.0 154576.0 154576.0 154576.0 238386.0 238386.0 238386.0 238386.0
150094.0 142031.0 122064.0 119445.0 199783.0 202386.0 395563.0 387733.0 134217.0 127495.0 120836.0 127108.0 65601.0 60462.0 214223.0 206091.0 72622.0 78084.0 104691.0 111571.0 29260.0 21351.0 190298.0 190289.0 58904.0 54590.0 139776.0 142534.0 106125.0 98119.0 76301.0 69807.0 379346.0 386199.0 129825.0 123543.0 91922.0 100071.0 83200.0 87919.0 132892.0 125051.0 65821.0 65777.0 265807.0 259180.0 327663.0 320848.0 152739.0 151301.0 115646.0 112743.0 361016.0 368468.0 99130.0 106956.0 301675.0 294041.0 98182.0 105747.0 73595.0 65644.0 187674.0 182153.0 387123.0 385617.0 148543.0 140082.0 40699.0 43047.0 177608.0 174016.0 89574.0 82113.0 54327.0 47164.0 284421.0 289649.0 53581.0 61679.0 142253.0 150182.0 120421.0 113547.0 124098.0 118130.0 352187.0 346561.0 272136.0 265440.0 94881.0 91514.0 399922.0 397725.0 194231.0 200215.0 75048.0 70618.0 213831.0 219960.0 102620.0 107929.0 86774.0 86136.0 199822.0 196492.0 80878.0 72917.0 90780.0 85681.0 316743.0 322515.0 235558.0 237296.0 354230.0 346063.0 180648.0 172650.0 62810.0 56811.0 78762.0 84239.0 156455.0 163650.0 232923.0 240415.0 162516.0 156283.0 112708.0 104777.0 8126.0 0.0 162113.0 164674.0 44899.0 46348.0 168210.0 160150.0 100446.0 99429.0 321748.0 328620.0 231214.0 234161.0 87189.0 79169.0 150399.0 158859.0 59569.0 53393.0 199936.0 194767.0 159137.0 159822.0 121297.0 113311.0 103987.0 95895.0 148268.0 146767.0 74024.0 81929.0 164324.0 156468.0 40441.0 32528.0 117688.0 114230.0 109961.0 102108.0 128888.0 136748.0 111530.0 114681.0 278796.0 278139.0 122424.0 128879.0 386689.0 378456.0 110035.0 106065.0 358541.0 360008.0 75050.0 69137.0 129889.0 134629.0 100725.0 93098.0 128504.0 136788.0 101108.0 109398.0 81840.0 87647.0 87581.0 86277.0 99948.0 103071.0 154719.0 234156.0 154719.0 154719.0 154719.0 154719.0 234156.0 234156.0 234156.0 234156.0
23290.0 27441.0 242108.0 235373.0 231239.0 227905.0 371164.0 363320.0 269010.0 265222.0 154657.0 151746.0 212984.0 204987.0 198361.0 191182.0 103247.0 104433.0 157167.0 155707.0 177340.0 171420.0 195047.0 188966.0 105967.0 113140.0 181461.0 189225.0 151282.0 149519.0 86211.0 93535.0 376808.0 381939.0 66812.0 64390.0 177939.0 181704.0 110629.0 115021.0 183029.0 180439.0 203729.0 197721.0 250144.0 242160.0 300987.0 292930.0 170481.0 176901.0 171072.0 162996.0 349770.0 355138.0 182143.0 184399.0 275705.0 268555.0 87626.0 80904.0 117930.0 122945.0 60045.0 51925.0 377384.0 379251.0 155605.0 153377.0 182437.0 177307.0 18123.0 12134.0 239841.0 234129.0 112937.0 117761.0 298423.0 299570.0 115720.0 108494.0 185057.0 188757.0 251585.0 247911.0 263331.0 259954.0 339908.0 332325.0 249232.0 241231.0 192552.0 196852.0 388256.0 383122.0 87051.0 94623.0 167906.0 172688.0 243936.0 245095.0 254489.0 257199.0 181075.0 187832.0 223912.0 219119.0 234961.0 228282.0 81782.0 89709.0 313261.0 321004.0 221448.0 217529.0 353423.0 345210.0 176422.0 171755.0 218501.0 210778.0 162533.0 169652.0 206003.0 210540.0 256317.0 260513.0 174503.0 175959.0 150003.0 150197.0 169728.0 162113.0 0.0 8118.0 183517.0 177450.0 172654.0 168017.0 239008.0 233718.0 296366.0 304417.0 232639.0 229962.0 150900.0 149723.0 164209.0 168890.0 122106.0 121761.0 51844.0 43951.0 31671.0 39691.0 190141.0 186270.0 59719.0 67004.0 194080.0 199583.0 175051.0 176618.0 58119.0 56481.0 149204.0 149223.0 243715.0 244788.0 251231.0 243803.0 97637.0 95322.0 264570.0 264963.0 261140.0 256346.0 255271.0 258768.0 361249.0 353718.0 184744.0 176189.0 348007.0 352576.0 147417.0 152977.0 162970.0 158920.0 74488.0 78746.0 150824.0 152252.0 225736.0 231518.0 219463.0 220426.0 212813.0 206009.0 255451.0 260350.0 270462.0 261626.0 270462.0 270462.0 270462.0 270462.0 261626.0 261626.0 261626.0 261626.0
19338.0 25463.0 240848.0 233972.0 226010.0 222481.0 363578.0 355748.0 268370.0 264808.0 151049.0 147778.0 213737.0 205657.0 191760.0 184693.0 103299.0 103856.0 154416.0 152584.0 178732.0 173073.0 189233.0 183005.0 107569.0 114388.0 177470.0 185292.0 148383.0 147023.0 89417.0 97009.0 369709.0 374777.0 62750.0 61216.0 176167.0 179609.0 109341.0 113259.0 179392.0 177113.0 204019.0 197784.0 243148.0 235171.0 293510.0 285449.0 165656.0 172283.0 168003.0 159926.0 342511.0 347818.0 180104.0 182029.0 268326.0 261215.0 86009.0 78862.0 117141.0 122580.0 51929.0 43817.0 370097.0 372040.0 150666.0 148798.0 183360.0 177971.0 13011.0 10896.0 240553.0 235033.0 114245.0 119491.0 292058.0 293070.0 116820.0 109337.0 181036.0 184467.0 250868.0 247428.0 263034.0 259864.0 332650.0 325041.0 242043.0 234050.0 190969.0 195552.0 380903.0 375715.0 79047.0 86590.0 166804.0 171880.0 238523.0 239483.0 255241.0 257704.0 179621.0 186563.0 218478.0 213684.0 236046.0 229539.0 81600.0 89387.0 306312.0 314080.0 214690.0 210628.0 346432.0 338233.0 170544.0 166096.0 219862.0 212051.0 161174.0 168113.0 201881.0 206228.0 250543.0 254588.0 169336.0 171098.0 146746.0 147356.0 172411.0 164674.0 8118.0 0.0 184246.0 177949.0 167202.0 162809.0 238882.0 233380.0 288931.0 296984.0 226293.0 223452.0 148997.0 148243.0 159357.0 163758.0 122232.0 122418.0 44542.0 36825.0 24800.0 32697.0 187219.0 183636.0 61167.0 68919.0 190009.0 195721.0 174113.0 175315.0 50887.0 49855.0 149831.0 150290.0 242774.0 244103.0 251173.0 243840.0 93143.0 90280.0 265376.0 265508.0 254031.0 249151.0 254623.0 257905.0 353661.0 346158.0 182233.0 173687.0 340770.0 345403.0 146155.0 152046.0 159057.0 154704.0 73643.0 78584.0 146771.0 147813.0 224937.0 230503.0 219503.0 220164.0 212241.0 205260.0 256560.0 261649.0 268692.0 255959.0 268692.0 268692.0 268692.0 268692.0 255959.0 255959.0 255959.0 255959.0
166997.0 159406.0 77378.0 74554.0 163971.0 167692.0 363565.0 355908.0 92730.0 86906.0 96259.0 103942.0 29490.0 21493.0 188454.0 180883.0 81461.0 82823.0 78375.0 86119.0 16000.0 23552.0 161721.0 163291.0 78635.0 70760.0 108129.0 108960.0 82267.0 74993.0 104104.0 100042.0 344264.0 351117.0 136206.0 131966.0 56131.0 63709.0 81951.0 82777.0 99937.0 91977.0 22592.0 20944.0 236318.0 230371.0 297975.0 291674.0 125908.0 122402.0 84747.0 84568.0 327188.0 334870.0 62498.0 70450.0 272813.0 265398.0 103766.0 112027.0 71841.0 64413.0 195823.0 191865.0 352443.0 350536.0 125800.0 117299.0 4510.0 6409.0 196538.0 194603.0 56327.0 50909.0 71080.0 67826.0 247984.0 253800.0 67971.0 75023.0 109847.0 117734.0 77480.0 71317.0 84053.0 79175.0 318778.0 313689.0 243967.0 237943.0 54144.0 49080.0 365357.0 363756.0 195764.0 200460.0 42906.0 35645.0 177396.0 184193.0 70998.0 73828.0 49142.0 45805.0 165645.0 162921.0 52442.0 46995.0 103168.0 95832.0 282600.0 287819.0 207592.0 210568.0 319148.0 310981.0 155646.0 147881.0 38659.0 30590.0 49569.0 51519.0 120285.0 127369.0 196802.0 204580.0 135688.0 128265.0 89518.0 81348.0 45521.0 44899.0 183517.0 184246.0 0.0 8042.0 142622.0 134909.0 59345.0 56662.0 291983.0 298363.0 199919.0 203959.0 63767.0 57023.0 125195.0 133211.0 62735.0 61829.0 212671.0 208916.0 172996.0 171598.0 84738.0 76958.0 123886.0 117169.0 114093.0 110914.0 37951.0 45742.0 171251.0 163812.0 34438.0 34837.0 73606.0 70951.0 70489.0 62618.0 124766.0 133015.0 81132.0 81523.0 249097.0 249406.0 80004.0 85856.0 355098.0 346911.0 73784.0 72381.0 324634.0 325473.0 54803.0 46460.0 103076.0 109576.0 112189.0 106102.0 105744.0 114114.0 56453.0 64679.0 39487.0 43936.0 42730.0 41556.0 72858.0 78669.0 109849.0 197172.0 109849.0 109849.0 109849.0 109849.0 197172.0 197172.0 197172.0 197172.0
160460.0 152957.0 78026.0 74427.0 158187.0 161669.0 357232.0 349542.0 96025.0 90681.0 88609.0 96219.0 36187.0 27920.0 181151.0 173514.0 74833.0 75767.0 70774.0 78490.0 19698.0 25682.0 154685.0 156072.0 73432.0 65308.0 101361.0 102536.0 74497.0 67141.0 99607.0 96038.0 338466.0 345319.0 128844.0 124785.0 49782.0 57599.0 74423.0 75005.0 93353.0 85370.0 26639.0 22454.0 229514.0 223470.0 291253.0 284876.0 118577.0 115298.0 77732.0 77196.0 321162.0 328804.0 56448.0 64445.0 265960.0 258511.0 96543.0 104795.0 64409.0 57164.0 188411.0 184577.0 346599.0 344738.0 118114.0 109593.0 10790.0 3633.0 190125.0 188394.0 62746.0 57806.0 65697.0 63135.0 242462.0 248144.0 62378.0 69068.0 103214.0 111141.0 80062.0 74442.0 88089.0 83686.0 312668.0 307478.0 237000.0 230889.0 49496.0 45373.0 359496.0 357775.0 187968.0 192604.0 35581.0 28690.0 171786.0 178435.0 77463.0 79766.0 43214.0 40876.0 159512.0 156663.0 59691.0 54607.0 96593.0 89115.0 276606.0 281940.0 200559.0 203396.0 313350.0 305182.0 148212.0 140409.0 46542.0 38513.0 41969.0 44449.0 114472.0 121606.0 191146.0 198868.0 128385.0 121073.0 81740.0 73547.0 48315.0 46348.0 177450.0 177949.0 8042.0 0.0 135213.0 127448.0 63281.0 59679.0 285267.0 291721.0 193334.0 197216.0 55865.0 49030.0 117703.0 125783.0 55964.0 55705.0 205587.0 201968.0 166123.0 164537.0 78855.0 70967.0 117978.0 111510.0 107810.0 104988.0 31337.0 39330.0 163809.0 156420.0 28309.0 30217.0 75219.0 73356.0 74932.0 67189.0 116863.0 125108.0 87674.0 87559.0 242335.0 242516.0 82904.0 88295.0 348694.0 340495.0 67740.0 65745.0 318621.0 319585.0 46765.0 38431.0 95657.0 102019.0 105425.0 99560.0 98001.0 106391.0 57390.0 65362.0 43257.0 46462.0 43259.0 40549.0 79962.0 86004.0 109735.0 191730.0 109735.0 109735.0 109735.0 109735.0 191730.0 191730.0 191730.0 191730.0
149462.0 147302.0 136244.0 128428.0 59143.0 55279.0 229214.0 221268.0 169678.0 171383.0 47493.0 41196.0 159428.0 152877.0 46183.0 38332.0 117001.0 108973.0 64704.0 57220.0 152874.0 155194.0 24870.0 22438.0 136866.0 132305.0 39914.0 44550.0 62226.0 70206.0 155548.0 159928.0 219305.0 225799.0 107522.0 112568.0 88839.0 83200.0 98213.0 90525.0 48887.0 55247.0 144195.0 136129.0 98453.0 91438.0 159960.0 152933.0 16972.0 23057.0 58884.0 58055.0 197519.0 204468.0 84563.0 78158.0 133708.0 126023.0 105116.0 105875.0 103090.0 108646.0 137575.0 140201.0 224730.0 224461.0 21407.0 28923.0 146000.0 138448.0 172627.0 176813.0 176433.0 176537.0 133145.0 139756.0 130631.0 133515.0 130323.0 126669.0 40587.0 36044.0 154631.0 156830.0 172375.0 174158.0 188143.0 181786.0 104047.0 97241.0 98744.0 106914.0 237113.0 233920.0 116555.0 115424.0 99717.0 107122.0 71321.0 72576.0 187910.0 184689.0 96695.0 103351.0 51276.0 46483.0 180977.0 180037.0 120720.0 116437.0 154884.0 161688.0 67587.0 69093.0 194300.0 186089.0 13067.0 5989.0 175753.0 169006.0 93314.0 91301.0 50910.0 50772.0 84281.0 89278.0 8190.0 16588.0 55504.0 63512.0 174327.0 168210.0 172654.0 167202.0 142622.0 135213.0 0.0 8071.0 157985.0 149802.0 154117.0 161259.0 67479.0 68347.0 81430.0 89362.0 17827.0 9456.0 116082.0 124070.0 163005.0 165074.0 143031.0 135862.0 68162.0 73028.0 141517.0 143299.0 44011.0 52002.0 105279.0 98275.0 120565.0 118627.0 127786.0 135700.0 144121.0 150280.0 168268.0 164865.0 76952.0 77598.0 196699.0 191436.0 111451.0 110225.0 158861.0 157053.0 220012.0 211791.0 75167.0 72572.0 195225.0 197840.0 93267.0 99951.0 39556.0 33681.0 118579.0 122098.0 39960.0 32086.0 134627.0 133918.0 148422.0 142621.0 131294.0 123574.0 196315.0 204077.0 149818.0 89199.0 149818.0 149818.0 149818.0 149818.0 89199.0 89199.0 89199.0 89199.0
144756.0 142255.0 131063.0 123175.0 63223.0 60173.0 237204.0 229263.0 164581.0 165989.0 39482.0 33126.0 152206.0 145539.0 54178.0 46240.0 109362.0 101361.0 56821.0 49280.0 144985.0 147226.0 32305.0 30451.0 129125.0 124451.0 34401.0 40002.0 54206.0 62176.0 148208.0 152445.0 226827.0 233380.0 102250.0 106941.0 81584.0 76223.0 90534.0 82807.0 43079.0 48880.0 136964.0 128848.0 106475.0 99489.0 168017.0 161000.0 10343.0 18022.0 51668.0 50388.0 205307.0 212296.0 77582.0 71450.0 141776.0 134092.0 98203.0 99318.0 95211.0 100677.0 135301.0 137489.0 232460.0 232106.0 14012.0 20999.0 138238.0 130655.0 168717.0 172619.0 169719.0 169623.0 125293.0 131846.0 137464.0 140576.0 122432.0 118892.0 35653.0 32426.0 149191.0 151094.0 166835.0 168373.0 195964.0 189656.0 112117.0 105308.0 91999.0 100185.0 244880.0 241751.0 115563.0 114972.0 92009.0 99483.0 76120.0 78042.0 181431.0 178414.0 89457.0 96284.0 56234.0 51474.0 173992.0 172872.0 113696.0 109193.0 162500.0 169231.0 75649.0 77147.0 201777.0 193584.0 20788.0 12978.0 168402.0 161570.0 85509.0 83705.0 48880.0 49879.0 90135.0 95495.0 6601.0 12284.0 47449.0 55479.0 166285.0 160150.0 168017.0 162809.0 134909.0 127448.0 8071.0 0.0 151765.0 143602.0 162170.0 169297.0 75032.0 76170.0 73428.0 81344.0 9818.0 2204.0 108115.0 116105.0 160598.0 162298.0 138912.0 131936.0 62227.0 66592.0 134990.0 136501.0 40463.0 48504.0 97723.0 90846.0 117262.0 114858.0 119730.0 127637.0 138676.0 144636.0 162274.0 158641.0 71388.0 72709.0 190354.0 185272.0 119478.0 118289.0 153449.0 151934.0 228019.0 219797.0 68559.0 65477.0 202998.0 205533.0 85226.0 91961.0 31853.0 25686.0 111913.0 115166.0 31900.0 24108.0 128540.0 128179.0 141647.0 136035.0 124681.0 116858.0 189642.0 197372.0 145762.0 94711.0 145762.0 145762.0 145762.0 145762.0 94711.0 94711.0 94711.0 94711.0
220705.0 213549.0 33760.0 37602.0 157150.0 163152.0 356310.0 349150.0 33792.0 27564.0 120521.0 128648.0 35402.0 40038.0 199274.0 193181.0 135761.0 135131.0 104591.0 111483.0 72166.0 80285.0 170015.0 174162.0 136561.0 128306.0 118193.0 114928.0 110790.0 106418.0 162887.0 159189.0 334027.0 340880.0 185139.0 182394.0 74800.0 77362.0 131087.0 129258.0 109139.0 102886.0 36852.0 41508.0 237834.0 233417.0 296755.0 291591.0 141473.0 135007.0 101796.0 106255.0 317877.0 325762.0 76096.0 80829.0 273941.0 267199.0 154491.0 162492.0 122216.0 116325.0 243374.0 240620.0 342239.0 340299.0 147582.0 140272.0 62245.0 64522.0 250630.0 249539.0 24795.0 30407.0 128743.0 126416.0 237406.0 243262.0 125277.0 131493.0 118068.0 124412.0 21669.0 13805.0 24808.0 20997.0 310112.0 305950.0 247507.0 242938.0 60989.0 53057.0 355166.0 354038.0 238212.0 241617.0 75556.0 68824.0 167879.0 175775.0 31077.0 26741.0 67807.0 59757.0 162460.0 161326.0 35632.0 41171.0 157324.0 149496.0 273434.0 277920.0 213413.0 218338.0 308911.0 300744.0 170512.0 163929.0 46455.0 47619.0 82730.0 78387.0 118147.0 123807.0 186669.0 194661.0 149907.0 141510.0 117164.0 110670.0 98148.0 100446.0 239008.0 238882.0 59345.0 63281.0 157985.0 151765.0 0.0 8193.0 290808.0 296071.0 200051.0 205937.0 98322.0 95374.0 143437.0 149652.0 116930.0 118044.0 262862.0 260080.0 224904.0 222325.0 89873.0 85209.0 180126.0 174081.0 117756.0 111281.0 67548.0 69696.0 218835.0 211996.0 91154.0 93460.0 24611.0 17546.0 12431.0 6880.0 166900.0 174741.0 38893.0 33534.0 249639.0 251700.0 22537.0 29754.0 348813.0 340894.0 83455.0 88176.0 315255.0 315464.0 95860.0 88511.0 122594.0 130557.0 165378.0 160352.0 130678.0 137740.0 23574.0 26974.0 20025.0 19041.0 29186.0 37413.0 41398.0 49167.0 64593.0 186539.0 64593.0 64593.0 64593.0 64593.0 186539.0 186539.0 186539.0 186539.0
215035.0 207987.0 28234.0 30861.0 149418.0 155331.0 348915.0 341719.0 36358.0 31558.0 112626.0 120732.0 36164.0 39195.0 191100.0 184994.0 130534.0 129530.0 96890.0 103687.0 70561.0 78714.0 161852.0 165977.0 132355.0 123994.0 110003.0 106740.0 103154.0 98989.0 159051.0 155692.0 326547.0 333400.0 178776.0 176254.0 67123.0 69421.0 125033.0 122886.0 100950.0 94722.0 34136.0 37338.0 229901.0 225430.0 288989.0 283771.0 133305.0 126819.0 93760.0 98345.0 310397.0 318281.0 68170.0 72752.0 266058.0 259285.0 148517.0 156438.0 116414.0 110820.0 236689.0 234094.0 334759.0 332819.0 139517.0 132257.0 59989.0 61320.0 244985.0 244091.0 31366.0 35859.0 124472.0 122579.0 229925.0 235781.0 120900.0 126818.0 109874.0 116227.0 20999.0 14763.0 29663.0 27424.0 302632.0 298440.0 239517.0 234902.0 53062.0 45223.0 347686.0 346557.0 231010.0 234302.0 68795.0 62373.0 160324.0 168181.0 39070.0 34934.0 60303.0 52243.0 154581.0 153384.0 41209.0 45721.0 151947.0 144058.0 265954.0 270440.0 205330.0 210219.0 301430.0 293263.0 162322.0 155748.0 49567.0 49419.0 75805.0 71115.0 110100.0 115825.0 179188.0 187173.0 141721.0 133322.0 109436.0 103077.0 97782.0 99429.0 233718.0 233380.0 56662.0 59679.0 149802.0 143602.0 8193.0 0.0 283035.0 288354.0 192120.0 197952.0 91207.0 88610.0 135304.0 141485.0 111831.0 113396.0 256500.0 253872.0 218885.0 216119.0 81683.0 77062.0 175176.0 169357.0 109592.0 103155.0 60847.0 62476.0 212204.0 205457.0 86939.0 89862.0 20220.0 14953.0 19535.0 15070.0 159861.0 167636.0 47075.0 41674.0 241756.0 243754.0 23343.0 29454.0 341353.0 333412.0 75343.0 80196.0 307774.0 307983.0 89332.0 82229.0 114537.0 122514.0 159772.0 154981.0 122762.0 129753.0 15417.0 19598.0 17589.0 13428.0 21990.0 30049.0 49089.0 56916.0 60608.0 179059.0 60608.0 60608.0 60608.0 60608.0 179059.0 179059.0 179059.0 179059.0
276089.0 277330.0 260338.0 254265.0 133677.0 127748.0 76439.0 68423.0 289269.0 293916.0 201022.0 195252.0 303020.0 297943.0 109467.0 117897.0 269056.0 260968.0 217154.0 210177.0 304081.0 307358.0 131460.0 131744.0 289382.0 285550.0 183906.0 183224.0 215676.0 223676.0 304948.0 310381.0 86327.0 89458.0 243507.0 250704.0 235910.0 228611.0 250721.0 243323.0 192060.0 200009.0 288443.0 281191.0 55953.0 62682.0 6004.0 5370.0 169036.0 170685.0 207694.0 209396.0 55915.0 59828.0 229889.0 222134.0 21170.0 28846.0 252834.0 251181.0 256592.0 262536.0 241850.0 248500.0 82346.0 85659.0 174891.0 182932.0 295842.0 288740.0 288722.0 295495.0 313649.0 316017.0 286368.0 293292.0 75191.0 67449.0 283781.0 279483.0 182138.0 174272.0 279326.0 284520.0 296481.0 300920.0 46516.0 38558.0 50621.0 58200.0 241144.0 248524.0 92301.0 86816.0 213045.0 206686.0 249977.0 256577.0 123909.0 115795.0 321820.0 316377.0 243198.0 248064.0 128746.0 130505.0 321101.0 322273.0 268607.0 265958.0 42740.0 48387.0 86555.0 86183.0 68957.0 62661.0 142423.0 150314.0 320269.0 314683.0 244556.0 240888.0 174442.0 168021.0 106678.0 99180.0 159310.0 165494.0 209292.0 217059.0 327508.0 321748.0 296366.0 288931.0 291983.0 285267.0 154117.0 162170.0 290808.0 283035.0 0.0 8055.0 92263.0 88054.0 234564.0 242582.0 171739.0 163261.0 269950.0 277918.0 263910.0 269794.0 264813.0 256788.0 208450.0 215772.0 284801.0 288698.0 178444.0 182879.0 254056.0 246250.0 238281.0 240837.0 281330.0 289358.0 269992.0 277605.0 297859.0 297249.0 218559.0 215109.0 328548.0 321410.0 42998.0 44020.0 282812.0 277978.0 66796.0 58739.0 218783.0 219604.0 54816.0 61101.0 246713.0 252798.0 191867.0 187306.0 263993.0 269281.0 194070.0 186149.0 267978.0 263890.0 287746.0 280357.0 270062.0 263856.0 332124.0 339942.0 263929.0 110557.0 263929.0 263929.0 263929.0 263929.0 110557.0 110557.0 110557.0 110557.0
284124.0 285347.0 265282.0 259338.0 138937.0 133255.0 68694.0 60676.0 294041.0 298691.0 207992.0 202337.0 308924.0 303966.0 116923.0 125357.0 276537.0 268448.0 223968.0 217059.0 310626.0 314014.0 138331.0 138850.0 296837.0 292922.0 190378.0 189487.0 222614.0 230607.0 312612.0 317995.0 78936.0 81813.0 251432.0 258608.0 242252.0 234877.0 258151.0 250721.0 198427.0 206393.0 294430.0 287255.0 62869.0 69855.0 5370.0 12310.0 175983.0 177428.0 214258.0 216129.0 48270.0 51915.0 236144.0 228348.0 29054.0 36644.0 260519.0 258938.0 263915.0 269785.0 249890.0 256548.0 74423.0 77899.0 182139.0 190121.0 302259.0 295212.0 296775.0 303550.0 319098.0 321607.0 293743.0 300623.0 76170.0 68209.0 291122.0 286903.0 188527.0 180629.0 284191.0 289522.0 301228.0 305795.0 39065.0 31153.0 58200.0 65887.0 247176.0 254478.0 84272.0 78762.0 221082.0 214709.0 256517.0 263034.0 128669.0 120606.0 327037.0 321477.0 249476.0 254209.0 134424.0 136370.0 326720.0 328035.0 276303.0 273584.0 40514.0 45112.0 93785.0 93702.0 62618.0 56794.0 149706.0 157564.0 326201.0 320715.0 251196.0 247394.0 180266.0 173744.0 110953.0 103290.0 166297.0 172337.0 216295.0 224009.0 334305.0 328620.0 304417.0 296984.0 298363.0 291721.0 161259.0 169297.0 296071.0 288354.0 8055.0 0.0 98465.0 94622.0 241431.0 249452.0 178815.0 170344.0 277206.0 285182.0 271915.0 277816.0 272862.0 264837.0 214557.0 221954.0 292645.0 296492.0 184605.0 188844.0 260465.0 252621.0 246331.0 248874.0 288225.0 296274.0 274971.0 282621.0 302907.0 302461.0 226347.0 222962.0 333617.0 326390.0 49860.0 51456.0 287619.0 282766.0 59138.0 51018.0 224995.0 226007.0 47301.0 53812.0 253616.0 259602.0 198732.0 194313.0 271762.0 277002.0 201187.0 193323.0 273373.0 269121.0 293411.0 285951.0 275757.0 269668.0 337429.0 345230.0 268701.0 114448.0 268701.0 268701.0 268701.0 268701.0 114448.0 114448.0 114448.0 114448.0
210088.0 209201.0 170972.0 164385.0 45165.0 37848.0 164374.0 156574.0 201439.0 205581.0 111612.0 106897.0 210852.0 205697.0 36140.0 41956.0 184394.0 176390.0 126607.0 120073.0 212347.0 215947.0 42728.0 46009.0 204109.0 199242.0 92079.0 91022.0 125904.0 133804.0 222995.0 227406.0 151827.0 158349.0 170836.0 176810.0 143797.0 136413.0 165562.0 157821.0 99995.0 107971.0 196215.0 188932.0 37782.0 33908.0 98267.0 92352.0 79869.0 80042.0 116101.0 118472.0 130657.0 137837.0 137681.0 129897.0 74095.0 67183.0 172185.0 172365.0 169972.0 175045.0 188052.0 192661.0 157592.0 157097.0 88864.0 95921.0 203838.0 196841.0 229574.0 234909.0 222290.0 224324.0 200091.0 206445.0 65785.0 67343.0 197116.0 193838.0 90120.0 82199.0 190186.0 194762.0 207777.0 211614.0 121493.0 115534.0 47890.0 44614.0 148900.0 156329.0 170111.0 167264.0 161878.0 157971.0 158262.0 164659.0 41056.0 34066.0 231129.0 226107.0 151011.0 155804.0 37806.0 38742.0 229342.0 230266.0 187900.0 183837.0 87478.0 94213.0 22372.0 30444.0 126830.0 118613.0 58657.0 65432.0 228072.0 222431.0 153157.0 149092.0 82518.0 76377.0 35058.0 34068.0 70737.0 75568.0 120057.0 127368.0 236615.0 231214.0 232639.0 226293.0 199919.0 193334.0 67479.0 75032.0 200051.0 192120.0 92263.0 98465.0 0.0 8049.0 144239.0 152241.0 83746.0 75578.0 182475.0 190453.0 213113.0 216952.0 201516.0 193757.0 116188.0 123520.0 207776.0 210089.0 86183.0 90712.0 162046.0 154178.0 176440.0 176455.0 191004.0 199127.0 180409.0 187823.0 207853.0 206645.0 141696.0 140639.0 238352.0 231577.0 49849.0 51665.0 193918.0 189769.0 155600.0 147376.0 126545.0 127594.0 128290.0 130593.0 156547.0 162077.0 101793.0 98359.0 185209.0 189152.0 106045.0 98892.0 176875.0 173342.0 195931.0 188700.0 178207.0 171816.0 241131.0 248987.0 176257.0 42206.0 176257.0 176257.0 176257.0 176257.0 42206.0 42206.0 42206.0 42206.0
207627.0 207038.0 177344.0 170627.0 52424.0 44864.0 161549.0 153670.0 208149.0 212133.0 113882.0 108705.0 215768.0 210416.0 31902.0 38783.0 185283.0 177235.0 129471.0 122693.0 216038.0 219392.0 44219.0 46165.0 205207.0 200620.0 95857.0 95386.0 128375.0 136337.0 223325.0 227978.0 151608.0 157880.0 169198.0 175412.0 147926.0 140716.0 166532.0 158864.0 104074.0 112004.0 201006.0 193594.0 32468.0 27481.0 94037.0 87741.0 81903.0 82873.0 119655.0 121545.0 129175.0 136128.0 142008.0 134324.0 69056.0 61855.0 172075.0 171868.0 171379.0 176739.0 183986.0 188847.0 156439.0 156348.0 89719.0 97168.0 207800.0 200687.0 226317.0 231845.0 227878.0 229712.0 201462.0 207995.0 68955.0 69619.0 198595.0 195016.0 94137.0 86309.0 196581.0 200987.0 214246.0 217936.0 119799.0 113502.0 41572.0 37555.0 153676.0 161242.0 168781.0 165583.0 157355.0 153169.0 161931.0 168526.0 49018.0 42107.0 237004.0 232135.0 155278.0 160346.0 44405.0 44768.0 234678.0 235386.0 187859.0 184099.0 86958.0 94047.0 14598.0 22661.0 126851.0 118584.0 58370.0 65639.0 232922.0 227118.0 156573.0 152835.0 87993.0 82130.0 42748.0 41104.0 72439.0 77966.0 122273.0 129804.0 239751.0 234161.0 229962.0 223452.0 203959.0 197216.0 68347.0 76170.0 205937.0 197952.0 88054.0 94622.0 8049.0 0.0 147009.0 155029.0 85289.0 76936.0 184179.0 192169.0 208869.0 212937.0 198652.0 190820.0 120878.0 128027.0 207065.0 209687.0 90828.0 95814.0 166022.0 158240.0 173250.0 173600.0 193823.0 201908.0 186705.0 194051.0 213987.0 212580.0 140643.0 139125.0 244391.0 237733.0 45140.0 46017.0 200365.0 196371.0 152565.0 144331.0 130981.0 131579.0 126889.0 129627.0 159254.0 165075.0 104357.0 100378.0 184758.0 188992.0 107720.0 100245.0 182645.0 179346.0 201255.0 194147.0 183519.0 176951.0 246876.0 254740.0 183114.0 49871.0 183114.0 183114.0 183114.0 183114.0 49871.0 49871.0 49871.0 49871.0
129826.0 123742.0 92829.0 85565.0 115828.0 117351.0 308490.0 300639.0 122905.0 120867.0 33946.0 40942.0 86395.0 78599.0 127604.0 119637.0 55594.0 50264.0 17672.0 24395.0 72048.0 73855.0 103110.0 103263.0 69662.0 62327.0 54111.0 58432.0 19251.0 11428.0 95494.0 96566.0 293553.0 300388.0 89780.0 88671.0 27245.0 30977.0 41194.0 35901.0 48804.0 41852.0 71841.0 63613.0 178620.0 172026.0 240484.0 233700.0 65608.0 64211.0 31028.0 26175.0 274483.0 281833.0 31313.0 34713.0 214547.0 206932.0 63304.0 70138.0 37321.0 37593.0 146027.0 143940.0 300912.0 299730.0 62874.0 54301.0 66499.0 58714.0 159419.0 159893.0 109117.0 106716.0 63177.0 67406.0 199880.0 204571.0 59389.0 59687.0 57068.0 64706.0 105294.0 103511.0 119999.0 118622.0 265516.0 259730.0 185071.0 178487.0 42378.0 48055.0 313630.0 311181.0 139897.0 143417.0 23574.0 31346.0 130228.0 135563.0 122952.0 122410.0 31799.0 39577.0 114433.0 110739.0 110090.0 106980.0 72287.0 64589.0 230463.0 236499.0 148473.0 150466.0 268437.0 260270.0 94143.0 86185.0 100564.0 92954.0 15984.0 20301.0 74663.0 81577.0 148659.0 155784.0 75421.0 69095.0 26295.0 18072.0 93024.0 87189.0 150900.0 148997.0 63767.0 55865.0 81430.0 73428.0 98322.0 91207.0 234564.0 241431.0 144239.0 147009.0 0.0 8022.0 63615.0 72003.0 43941.0 51065.0 166895.0 164973.0 131316.0 127520.0 44616.0 38339.0 97829.0 94798.0 64470.0 65230.0 31447.0 28764.0 121769.0 115381.0 46814.0 54908.0 96106.0 98891.0 110594.0 104554.0 68664.0 76435.0 132958.0 130143.0 191607.0 191007.0 109390.0 111392.0 299566.0 291332.0 35949.0 27908.0 272044.0 273790.0 12345.0 18555.0 42700.0 47750.0 77206.0 75098.0 42595.0 51035.0 79554.0 83679.0 82150.0 79535.0 69241.0 61178.0 128651.0 135763.0 119700.0 150783.0 119700.0 119700.0 119700.0 119700.0 150783.0 150783.0 150783.0 150783.0
129249.0 122840.0 92662.0 85729.0 123411.0 125088.0 316506.0 308656.0 121540.0 118988.0 41870.0 48685.0 80965.0 72978.0 135522.0 127526.0 51415.0 46983.0 25644.0 32408.0 64525.0 66061.0 111129.0 111247.0 63855.0 56175.0 61851.0 65885.0 27139.0 19190.0 90336.0 90893.0 301433.0 308258.0 90605.0 88788.0 28706.0 34146.0 39137.0 35164.0 56199.0 48990.0 66820.0 58744.0 186639.0 180037.0 248501.0 241711.0 73610.0 72221.0 38386.0 34033.0 282445.0 289807.0 34175.0 38991.0 222554.0 214936.0 62234.0 69576.0 33455.0 32207.0 148080.0 145569.0 308843.0 307627.0 70564.0 61993.0 59507.0 51701.0 159056.0 159122.0 104589.0 101728.0 57005.0 60705.0 207605.0 212361.0 53119.0 54203.0 64723.0 72437.0 103898.0 101527.0 117852.0 116002.0 273492.0 267722.0 193067.0 186464.0 42846.0 47388.0 321570.0 319146.0 143425.0 147287.0 19825.0 26882.0 137782.0 143230.0 118697.0 118626.0 31379.0 38479.0 122217.0 118572.0 104854.0 101323.0 69634.0 61738.0 238396.0 244403.0 156471.0 158422.0 276316.0 268149.0 102030.0 94060.0 94490.0 86737.0 13089.0 19940.0 81786.0 88782.0 156320.0 163497.0 83416.0 77116.0 34050.0 25888.0 85031.0 79169.0 149723.0 148243.0 57023.0 49030.0 89362.0 81344.0 95374.0 88610.0 242582.0 249452.0 152241.0 155029.0 8022.0 0.0 71539.0 79946.0 37907.0 44575.0 168189.0 165894.0 131587.0 128236.0 50353.0 43471.0 94997.0 91362.0 71895.0 72248.0 27827.0 27229.0 123609.0 116933.0 38794.0 46893.0 95145.0 97325.0 107758.0 101373.0 71807.0 79814.0 128811.0 126435.0 199627.0 199014.0 107885.0 110411.0 307585.0 299351.0 40756.0 33369.0 280003.0 281720.0 4579.0 10884.0 50720.0 55684.0 75431.0 72550.0 50279.0 58711.0 77935.0 82748.0 78285.0 76392.0 66647.0 58858.0 123858.0 130796.0 120848.0 158330.0 120848.0 120848.0 120848.0 120848.0 158330.0 158330.0 158330.0 158330.0
140920.0 137938.0 123921.0 115972.0 67811.0 65753.0 246581.0 238654.0 157462.0 158537.0 29672.0 23523.0 142879.0 136113.0 63989.0 56056.0 100897.0 92965.0 47028.0 39467.0 135182.0 137409.0 41133.0 40000.0 120421.0 115499.0 27900.0 34638.0 44401.0 52379.0 140257.0 144225.0 235343.0 241989.0 97786.0 101912.0 72288.0 67227.0 82021.0 74228.0 35857.0 40796.0 127637.0 119482.0 115959.0 109060.0 177603.0 170633.0 6325.0 14134.0 42504.0 40756.0 214280.0 221340.0 68579.0 62771.0 151420.0 143750.0 91124.0 92846.0 86229.0 91452.0 134776.0 136386.0 241323.0 240822.0 8902.0 12502.0 128494.0 120896.0 165912.0 169415.0 160864.0 160575.0 116348.0 122757.0 145035.0 148461.0 113396.0 110120.0 29941.0 28802.0 141716.0 143289.0 159223.0 160491.0 204998.0 198783.0 121795.0 115041.0 83211.0 91398.0 253804.0 250794.0 116745.0 116807.0 82310.0 89830.0 81388.0 84094.0 172806.0 170002.0 80165.0 87152.0 61952.0 57316.0 164874.0 163588.0 106371.0 101488.0 171197.0 177808.0 85276.0 86916.0 210242.0 202070.0 30592.0 22714.0 158958.0 152057.0 75749.0 74096.0 46513.0 48905.0 96579.0 102370.0 13041.0 11750.0 37692.0 45686.0 156501.0 150399.0 164209.0 159357.0 125195.0 117703.0 17827.0 9818.0 143437.0 135304.0 171739.0 178815.0 83746.0 85289.0 63615.0 71539.0 0.0 8481.0 98891.0 106881.0 159802.0 161019.0 135919.0 129239.0 54539.0 58256.0 128444.0 129508.0 36455.0 44247.0 88137.0 81373.0 115485.0 112465.0 109970.0 117896.0 131217.0 136943.0 154173.0 150300.0 66754.0 69100.0 181859.0 176970.0 128969.0 127913.0 145998.0 144814.0 237442.0 229215.0 60010.0 56388.0 211945.0 214338.0 75441.0 82145.0 22244.0 15869.0 105206.0 107997.0 22441.0 15225.0 120389.0 120413.0 132755.0 127340.0 115973.0 108054.0 180817.0 188512.0 139943.0 100704.0 139943.0 139943.0 139943.0 139943.0 100704.0 100704.0 100704.0 100704.0
145616.0 143005.0 128870.0 120984.0 62381.0 59585.0 238146.0 230215.0 162385.0 163805.0 38080.0 31994.0 150296.0 143668.0 55630.0 47786.0 108867.0 100892.0 55249.0 47769.0 143419.0 145746.0 32875.0 31520.0 128531.0 123738.0 32207.0 37802.0 52817.0 60806.0 147923.0 152058.0 227303.0 233899.0 102946.0 107505.0 79678.0 74235.0 90013.0 82255.0 40906.0 46767.0 135056.0 126956.0 107494.0 100581.0 169124.0 162152.0 8189.0 15823.0 49740.0 48654.0 206004.0 213032.0 75596.0 69402.0 142940.0 135270.0 98196.0 99494.0 94478.0 99815.0 136792.0 138882.0 233102.0 232675.0 14049.0 20344.0 136572.0 129010.0 169801.0 173622.0 167684.0 167631.0 124584.0 131064.0 137552.0 140782.0 121676.0 118265.0 33449.0 30279.0 147009.0 148933.0 164661.0 166216.0 196694.0 190438.0 113319.0 106581.0 89963.0 98148.0 245553.0 242487.0 117305.0 116800.0 90306.0 97740.0 75469.0 77611.0 179356.0 176310.0 87546.0 94324.0 55678.0 50943.0 172017.0 170946.0 113618.0 108986.0 163055.0 169730.0 76795.0 78480.0 202224.0 194044.0 22435.0 14785.0 166537.0 159737.0 83871.0 81938.0 46859.0 48009.0 89830.0 95329.0 5674.0 10180.0 46157.0 54119.0 164936.0 158859.0 168890.0 163758.0 133211.0 125783.0 9456.0 2204.0 149652.0 141485.0 163261.0 170344.0 75578.0 76936.0 72003.0 79946.0 8481.0 0.0 107254.0 115245.0 162051.0 163668.0 139949.0 133030.0 60071.0 64496.0 135160.0 136537.0 38310.0 46347.0 95938.0 89005.0 118526.0 116004.0 118426.0 126362.0 136495.0 142467.0 160136.0 156529.0 72014.0 73568.0 188259.0 183154.0 120502.0 119432.0 151266.0 149739.0 228994.0 220768.0 66492.0 63518.0 203681.0 206144.0 83878.0 90514.0 30135.0 24263.0 112027.0 115139.0 30868.0 23336.0 126410.0 126016.0 139623.0 133974.0 122624.0 114819.0 187601.0 195337.0 143565.0 94275.0 143565.0 143565.0 143565.0 143565.0 94275.0 94275.0 94275.0 94275.0
104532.0 97095.0 122910.0 116986.0 158210.0 158985.0 345291.0 337340.0 147551.0 143385.0 71372.0 75579.0 92070.0 83856.0 160747.0 152379.0 18936.0 20516.0 59909.0 64423.0 60473.0 57127.0 140011.0 138517.0 25962.0 18387.0 96378.0 101567.0 58192.0 51116.0 52891.0 53014.0 333512.0 340330.0 74480.0 69625.0 64882.0 71412.0 23636.0 28748.0 92144.0 85580.0 81794.0 75620.0 214491.0 207352.0 275735.0 268533.0 102623.0 103470.0 74610.0 68636.0 313111.0 320211.0 71235.0 76730.0 249298.0 241565.0 41764.0 49967.0 14291.0 7440.0 134040.0 129659.0 340046.0 339346.0 95067.0 87159.0 62507.0 56347.0 134271.0 132786.0 118709.0 113615.0 19238.0 24197.0 241253.0 245473.0 15509.0 16737.0 99634.0 106856.0 130370.0 126212.0 141359.0 137857.0 303867.0 297674.0 219548.0 212392.0 76770.0 78919.0 352586.0 349661.0 136867.0 142369.0 50134.0 52845.0 172662.0 177484.0 133427.0 135572.0 65017.0 70073.0 155789.0 151765.0 115135.0 109301.0 40687.0 33151.0 269759.0 276176.0 183423.0 184096.0 308411.0 300234.0 127527.0 119644.0 100209.0 92140.0 47343.0 55298.0 118272.0 125053.0 190558.0 197371.0 111805.0 107141.0 62948.0 56635.0 67325.0 59569.0 122106.0 122232.0 62735.0 55964.0 116082.0 108115.0 116930.0 111831.0 269950.0 277206.0 182475.0 184179.0 43941.0 37907.0 98891.0 107254.0 0.0 7991.0 150048.0 146192.0 110261.0 108970.0 88207.0 81375.0 63372.0 57914.0 107622.0 108974.0 55825.0 59714.0 109690.0 102056.0 28607.0 31768.0 123214.0 123525.0 129129.0 121702.0 69414.0 77373.0 143634.0 143404.0 227473.0 225949.0 133875.0 137914.0 336065.0 327850.0 78626.0 71247.0 310758.0 313005.0 33672.0 35192.0 81717.0 84170.0 49476.0 43680.0 76476.0 84008.0 104918.0 111412.0 97360.0 98469.0 91445.0 85226.0 135585.0 141259.0 153652.0 193176.0 153652.0 153652.0 153652.0 153652.0 193176.0 193176.0 193176.0 193176.0
105311.0 97646.0 126122.0 120529.0 165900.0 166772.0 353277.0 345326.0 149460.0 144919.0 79282.0 83558.0 91320.0 83260.0 168690.0 160317.0 20607.0 24825.0 67441.0 72174.0 57563.0 53303.0 147999.0 146504.0 20386.0 12006.0 104030.0 109069.0 65959.0 58751.0 47954.0 47125.0 341446.0 348276.0 78084.0 72621.0 70479.0 77369.0 30310.0 36135.0 99582.0 92869.0 82123.0 76541.0 222474.0 215328.0 283700.0 276490.0 110596.0 111377.0 81948.0 76187.0 321093.0 328197.0 77095.0 82972.0 257255.0 249521.0 45604.0 53570.0 21812.0 15430.0 137266.0 132504.0 348018.0 347304.0 103043.0 95147.0 61030.0 55571.0 134741.0 132782.0 118146.0 112643.0 12764.0 16450.0 249092.0 253353.0 8763.0 13449.0 107245.0 114539.0 132527.0 127964.0 142692.0 138824.0 311852.0 305664.0 227504.0 220336.0 81521.0 83006.0 360564.0 357647.0 141537.0 147283.0 54870.0 56622.0 180350.0 185246.0 132826.0 135438.0 69913.0 74359.0 163602.0 159605.0 113803.0 107574.0 41727.0 34920.0 277722.0 284127.0 191398.0 192041.0 316349.0 308170.0 135495.0 127618.0 98168.0 90195.0 52937.0 60853.0 125634.0 132472.0 198328.0 205178.0 119791.0 115095.0 70845.0 64405.0 61328.0 53393.0 121761.0 122418.0 61829.0 55705.0 124070.0 116105.0 118044.0 113396.0 277918.0 285182.0 190453.0 192169.0 51065.0 44575.0 106881.0 115245.0 7991.0 0.0 152209.0 147989.0 111952.0 111219.0 94912.0 87877.0 62289.0 56037.0 115126.0 116264.0 59831.0 64484.0 113183.0 105437.0 27444.0 28523.0 125843.0 125676.0 130065.0 122477.0 75601.0 83392.0 142958.0 143204.0 235455.0 233915.0 135881.0 140275.0 344049.0 335833.0 85031.0 77920.0 318738.0 320974.0 40166.0 40485.0 89595.0 92135.0 51186.0 44572.0 84464.0 91998.0 107473.0 114310.0 98214.0 99972.0 93695.0 87959.0 134318.0 139671.0 157491.0 200878.0 157491.0 157491.0 157491.0 157491.0 200878.0 200878.0 200878.0 200878.0
51266.0 59230.0 259559.0 252105.0 221688.0 216803.0 336153.0 328539.0 289651.0 287165.0 159759.0 154491.0 241768.0 233477.0 177115.0 171309.0 131737.0 129852.0 167762.0 163987.0 209770.0 205151.0 181445.0 174232.0 141133.0 146543.0 182809.0 190727.0 161198.0 162030.0 128083.0 136112.0 347760.0 352135.0 77729.0 80873.0 193769.0 195498.0 132057.0 133623.0 186817.0 186426.0 230311.0 223236.0 223525.0 215766.0 267939.0 259915.0 166019.0 173782.0 179092.0 171316.0 319055.0 323646.0 196260.0 196426.0 244184.0 237610.0 109123.0 100910.0 141534.0 148447.0 25501.0 23734.0 346150.0 348893.0 150922.0 151584.0 212555.0 206264.0 34815.0 42858.0 268070.0 263393.0 146606.0 153058.0 277659.0 277480.0 148385.0 140314.0 186069.0 187688.0 272011.0 269695.0 285945.0 283741.0 309277.0 301443.0 220411.0 212631.0 209095.0 214935.0 356165.0 350383.0 51939.0 57469.0 187867.0 194133.0 232582.0 232018.0 282752.0 284169.0 198671.0 206312.0 212817.0 208137.0 265113.0 259348.0 110635.0 117320.0 286371.0 294316.0 197982.0 192604.0 325725.0 317723.0 162896.0 160366.0 250186.0 242142.0 181227.0 187094.0 205647.0 208660.0 241626.0 244402.0 167152.0 170995.0 157666.0 160533.0 207952.0 199936.0 51844.0 44542.0 212671.0 205587.0 163005.0 160598.0 262862.0 256500.0 263910.0 271915.0 213113.0 208869.0 166895.0 168189.0 159802.0 162051.0 150048.0 152209.0 0.0 8088.0 40799.0 41079.0 198490.0 196587.0 96856.0 105255.0 194437.0 201279.0 195720.0 195201.0 45960.0 51607.0 178638.0 180731.0 262985.0 265488.0 275293.0 268468.0 100784.0 94723.0 293006.0 292056.0 233074.0 227343.0 276038.0 278273.0 326258.0 319152.0 195880.0 187652.0 317559.0 322836.0 167185.0 174353.0 165592.0 159551.0 101025.0 107936.0 153017.0 151565.0 246096.0 250555.0 244492.0 243829.0 234655.0 227007.0 285506.0 291292.0 284593.0 247775.0 284593.0 284593.0 284593.0 284593.0 247775.0 247775.0 247775.0 247775.0
45137.0 53206.0 257780.0 250420.0 224008.0 219348.0 342466.0 334815.0 287435.0 284737.0 159479.0 154542.0 238151.0 229886.0 181092.0 175045.0 127660.0 126211.0 166681.0 163241.0 205488.0 200649.0 184239.0 177170.0 136137.0 141844.0 183259.0 191194.0 160178.0 160614.0 122015.0 129977.0 353243.0 357730.0 75296.0 77705.0 192019.0 194072.0 129033.0 131040.0 186907.0 186171.0 227014.0 220086.0 228476.0 220664.0 273914.0 265874.0 167285.0 174884.0 178480.0 170611.0 324751.0 329457.0 194787.0 195279.0 249904.0 243235.0 105813.0 97687.0 138268.0 144948.0 28965.0 24880.0 351943.0 354564.0 152119.0 152328.0 208647.0 202519.0 26743.0 34774.0 264600.0 259747.0 141868.0 148110.0 281835.0 281856.0 143808.0 135811.0 186590.0 188543.0 269793.0 267256.0 283407.0 281013.0 314951.0 307144.0 225686.0 217856.0 207299.0 212921.0 362087.0 356391.0 57028.0 63110.0 185447.0 191512.0 235216.0 234917.0 279304.0 280931.0 196668.0 204203.0 215347.0 210632.0 261327.0 255404.0 106284.0 113228.0 291473.0 299400.0 202382.0 197213.0 330993.0 322952.0 165581.0 162695.0 246123.0 238114.0 178971.0 185061.0 206472.0 209736.0 244800.0 247801.0 168882.0 172371.0 156971.0 159443.0 202738.0 194767.0 43951.0 36825.0 208916.0 201968.0 165074.0 162298.0 260080.0 253872.0 269794.0 277816.0 216952.0 212937.0 164973.0 165894.0 161019.0 163668.0 146192.0 147989.0 8088.0 0.0 36042.0 37756.0 197925.0 195707.0 91183.0 99530.0 195101.0 201765.0 193227.0 193029.0 45856.0 50515.0 174711.0 176493.0 260928.0 263211.0 272504.0 265569.0 100135.0 94558.0 289548.0 288812.0 238263.0 232661.0 273774.0 276214.0 332561.0 325391.0 194869.0 186550.0 323215.0 328395.0 164684.0 171646.0 165741.0 159971.0 96864.0 103502.0 153143.0 152134.0 243824.0 248503.0 241479.0 241071.0 232118.0 224578.0 281773.0 287424.0 283373.0 250835.0 283373.0 283373.0 283373.0 283373.0 250835.0 250835.0 250835.0 250835.0
13938.0 20347.0 224045.0 216867.0 202012.0 198286.0 339782.0 331919.0 252954.0 249968.0 129700.0 125786.0 202290.0 194042.0 166961.0 159896.0 91657.0 90432.0 134772.0 132179.0 169446.0 164631.0 164726.0 158402.0 100349.0 105878.0 155306.0 163200.0 128476.0 128004.0 88027.0 96140.0 345139.0 350269.0 41968.0 42802.0 158540.0 161219.0 93853.0 96468.0 157846.0 156158.0 191373.0 184577.0 218495.0 210513.0 269474.0 261421.0 142240.0 149142.0 147605.0 139577.0 318115.0 323506.0 161836.0 163013.0 244111.0 236938.0 70413.0 62447.0 102784.0 109242.0 34883.0 27010.0 345738.0 347586.0 127135.0 125789.0 172667.0 166607.0 30066.0 33796.0 228814.0 223863.0 105919.0 112287.0 267273.0 268271.0 107800.0 99785.0 158810.0 161793.0 235333.0 232492.0 248499.0 245878.0 308253.0 300679.0 217565.0 209562.0 173676.0 178901.0 356640.0 351541.0 57995.0 65788.0 150875.0 156641.0 214328.0 215108.0 243527.0 245305.0 162720.0 170053.0 194276.0 189485.0 225380.0 219405.0 70242.0 77229.0 281630.0 289383.0 189920.0 185915.0 321777.0 313569.0 146002.0 141731.0 210098.0 202096.0 144671.0 151107.0 179428.0 183465.0 226040.0 229985.0 145476.0 147620.0 126112.0 127582.0 167153.0 159137.0 31671.0 24800.0 172996.0 166123.0 143031.0 138912.0 224904.0 218885.0 264813.0 272862.0 201516.0 198652.0 131316.0 131587.0 135919.0 139949.0 110261.0 111952.0 40799.0 36042.0 0.0 8030.0 167011.0 164044.0 56380.0 64804.0 167670.0 173719.0 158525.0 158814.0 26537.0 25062.0 138735.0 140452.0 226727.0 228677.0 237309.0 230262.0 70666.0 66908.0 253761.0 253178.0 229470.0 224679.0 239243.0 241984.0 329872.0 322301.0 162910.0 154439.0 316347.0 320907.0 130064.0 136715.0 137106.0 132252.0 60859.0 67461.0 124636.0 125027.0 209329.0 214335.0 206078.0 205945.0 197275.0 189897.0 245843.0 251443.0 250648.0 231534.0 250648.0 250648.0 250648.0 250648.0 231534.0 231534.0 231534.0 231534.0
20806.0 25733.0 220348.0 213059.0 194925.0 191069.0 331782.0 323915.0 249766.0 247009.0 124183.0 119946.0 200722.0 192436.0 159095.0 152081.0 90705.0 88785.0 130070.0 127123.0 168780.0 164286.0 157282.0 150872.0 100918.0 105925.0 149308.0 157226.0 123674.0 123621.0 90684.0 98842.0 337129.0 342249.0 37740.0 39976.0 154658.0 156996.0 91295.0 93311.0 152160.0 150767.0 189388.0 182400.0 210502.0 202521.0 261454.0 253402.0 135564.0 142619.0 142504.0 134523.0 310087.0 315476.0 157664.0 158507.0 236082.0 228908.0 68160.0 59992.0 100609.0 107421.0 30104.0 23025.0 337709.0 339561.0 120410.0 119384.0 171476.0 165192.0 36784.0 41251.0 227072.0 222341.0 106032.0 112731.0 259495.0 260436.0 107642.0 99522.0 152773.0 155512.0 232127.0 229527.0 245662.0 243256.0 300225.0 292649.0 209541.0 201539.0 169890.0 175369.0 348609.0 343513.0 50890.0 58706.0 147738.0 153763.0 207104.0 207755.0 241764.0 243285.0 159132.0 166606.0 187055.0 182269.0 224039.0 218270.0 69786.0 76306.0 273648.0 281407.0 181994.0 177946.0 313786.0 305581.0 138535.0 134416.0 209122.0 201074.0 141320.0 147517.0 173243.0 177111.0 218583.0 222439.0 138517.0 140900.0 120967.0 122848.0 167893.0 159822.0 39691.0 32697.0 171598.0 164537.0 135862.0 131936.0 222325.0 216119.0 256788.0 264837.0 193757.0 190820.0 127520.0 128236.0 129239.0 133030.0 108970.0 111219.0 41079.0 37756.0 8030.0 0.0 161952.0 159276.0 58724.0 67094.0 161561.0 167774.0 155498.0 155408.0 18525.0 17383.0 137562.0 139734.0 223332.0 225526.0 234750.0 227826.0 64820.0 60494.0 252015.0 251169.0 221457.0 216655.0 236091.0 238613.0 321873.0 314296.0 158267.0 149854.0 308320.0 312886.0 126961.0 133892.0 131258.0 126146.0 60069.0 67166.0 118722.0 118751.0 206145.0 210915.0 203756.0 203316.0 194375.0 186858.0 244439.0 250213.0 246410.0 224138.0 246410.0 246410.0 246410.0 246410.0 224138.0 224138.0 224138.0 224138.0
167883.0 162701.0 69544.0 61562.0 79332.0 82960.0 279026.0 271417.0 103052.0 103999.0 39105.0 45687.0 94961.0 89546.0 110133.0 103663.0 100016.0 94198.0 33122.0 34839.0 98446.0 103263.0 81307.0 84767.0 114101.0 106520.0 28320.0 25859.0 38861.0 41484.0 140110.0 141086.0 259615.0 266468.0 125153.0 126005.0 29453.0 21366.0 84259.0 77721.0 19278.0 14001.0 80131.0 72750.0 153342.0 147948.0 214454.0 208470.0 51886.0 45145.0 19458.0 27438.0 242450.0 250136.0 22444.0 14457.0 189928.0 182719.0 104144.0 109747.0 81749.0 82140.0 175212.0 174812.0 267763.0 265887.0 60059.0 54114.0 88900.0 82469.0 196457.0 198020.0 109179.0 110026.0 107353.0 110923.0 163707.0 169307.0 103473.0 104246.0 28385.0 35359.0 87178.0 88874.0 104705.0 106146.0 234058.0 229030.0 161861.0 156471.0 32813.0 40542.0 280666.0 279021.0 162729.0 164367.0 46338.0 50984.0 93001.0 99581.0 120070.0 116601.0 35658.0 39672.0 80983.0 78436.0 114768.0 114862.0 115257.0 107908.0 197863.0 203116.0 126276.0 130387.0 234499.0 226332.0 80640.0 74126.0 112060.0 106263.0 44032.0 37344.0 35617.0 42763.0 112321.0 120020.0 60054.0 51647.0 40999.0 39955.0 125317.0 121297.0 190141.0 187219.0 84738.0 78855.0 68162.0 62227.0 89873.0 81683.0 208450.0 214557.0 116188.0 120878.0 44616.0 50353.0 54539.0 60071.0 88207.0 94912.0 198490.0 197925.0 167011.0 161952.0 0.0 7992.0 140717.0 138432.0 30051.0 26176.0 47830.0 39756.0 152534.0 147412.0 83926.0 91858.0 76680.0 82453.0 100117.0 96752.0 97799.0 103834.0 128667.0 123286.0 165870.0 166817.0 91461.0 90419.0 270668.0 262504.0 11271.0 16993.0 239896.0 240767.0 54749.0 56077.0 36260.0 44138.0 118824.0 117891.0 47529.0 52355.0 66468.0 65964.0 81553.0 75160.0 63998.0 56760.0 128874.0 136702.0 88120.0 113104.0 88120.0 88120.0 88120.0 88120.0 113104.0 113104.0 113104.0 113104.0
164304.0 158857.0 67481.0 59491.0 87243.0 90747.0 286675.0 279045.0 100708.0 101047.0 38838.0 46222.0 88156.0 82464.0 116164.0 109437.0 93932.0 88444.0 29285.0 32677.0 90527.0 95289.0 87677.0 90711.0 107326.0 99598.0 33833.0 32666.0 35602.0 36812.0 133652.0 134361.0 267503.0 274355.0 122085.0 122467.0 21464.0 13402.0 78855.0 72671.0 24796.0 17781.0 73172.0 65604.0 160494.0 154960.0 221775.0 215709.0 56337.0 50288.0 18449.0 25504.0 250252.0 257921.0 14519.0 6522.0 197081.0 189819.0 99553.0 105531.0 75657.0 75544.0 173768.0 172999.0 275633.0 273774.0 62871.0 56170.0 81082.0 74574.0 193216.0 194484.0 103497.0 103942.0 100422.0 103738.0 171667.0 177238.0 96506.0 97619.0 34536.0 41974.0 84264.0 85291.0 101452.0 102383.0 241821.0 236741.0 168813.0 163276.0 26140.0 34170.0 288530.0 286842.0 162526.0 164535.0 38382.0 43001.0 100960.0 107495.0 114892.0 111829.0 27823.0 32319.0 88690.0 86032.0 108562.0 108301.0 109985.0 102474.0 205676.0 210976.0 133001.0 136872.0 242386.0 234219.0 85779.0 78922.0 105123.0 99126.0 36336.0 29453.0 43541.0 50704.0 120263.0 127944.0 65064.0 56754.0 39049.0 36462.0 117326.0 113311.0 186270.0 183636.0 76958.0 70967.0 73028.0 66592.0 85209.0 77062.0 215772.0 221954.0 123520.0 128027.0 38339.0 43471.0 58256.0 64496.0 81375.0 87877.0 196587.0 195707.0 164044.0 159276.0 7992.0 0.0 135522.0 132888.0 37350.0 34022.0 39869.0 31793.0 150652.0 145227.0 76095.0 83990.0 73869.0 79120.0 95932.0 92079.0 95812.0 102268.0 123763.0 118735.0 173094.0 173885.0 88571.0 88168.0 278271.0 270098.0 3279.0 10482.0 247703.0 248622.0 47748.0 48547.0 38159.0 46205.0 114051.0 112696.0 48182.0 54030.0 62144.0 62546.0 75604.0 69608.0 58303.0 50720.0 123333.0 131117.0 88461.0 121085.0 88461.0 88461.0 88461.0 88461.0 121085.0 121085.0 121085.0 121085.0
46193.0 38106.0 185563.0 179269.0 195754.0 194171.0 361213.0 353203.0 210917.0 206733.0 110487.0 110144.0 153327.0 145372.0 177850.0 169673.0 45004.0 48038.0 107904.0 108545.0 117683.0 111920.0 166139.0 161814.0 46408.0 53423.0 138537.0 145635.0 103066.0 99252.0 31984.0 40144.0 358460.0 364478.0 43323.0 35375.0 123703.0 128664.0 56706.0 62998.0 137798.0 133471.0 144407.0 138675.0 232827.0 224975.0 290094.0 282270.0 134134.0 138615.0 122986.0 115222.0 334250.0 340543.0 128868.0 132483.0 263632.0 256001.0 38017.0 35672.0 61702.0 65300.0 88535.0 81748.0 361937.0 362582.0 121112.0 116148.0 122737.0 117717.0 73937.0 71104.0 180190.0 174423.0 53230.0 58324.0 272107.0 274741.0 56009.0 48914.0 142189.0 147570.0 193699.0 189582.0 204655.0 200985.0 324527.0 317487.0 234771.0 226903.0 137419.0 140763.0 373762.0 369637.0 103224.0 110588.0 111567.0 115469.0 209658.0 212536.0 194821.0 197650.0 125661.0 131744.0 190391.0 185759.0 175242.0 168588.0 25555.0 33288.0 293787.0 301040.0 201894.0 200010.0 333868.0 325592.0 149120.0 142591.0 158839.0 151086.0 107098.0 114711.0 163101.0 168779.0 224945.0 230477.0 140748.0 139608.0 103914.0 101710.0 111859.0 103987.0 59719.0 61167.0 123886.0 117978.0 141517.0 134990.0 180126.0 175176.0 284801.0 292645.0 207776.0 207065.0 97829.0 94997.0 128444.0 135160.0 63372.0 62289.0 96856.0 91183.0 56380.0 58724.0 140717.0 135522.0 0.0 8425.0 151224.0 155205.0 118151.0 120776.0 68714.0 61312.0 89679.0 89506.0 186351.0 186859.0 192234.0 184699.0 66671.0 69700.0 204883.0 205387.0 245130.0 241771.0 197233.0 201168.0 351489.0 343509.0 133458.0 125069.0 332173.0 335689.0 91965.0 96354.0 120352.0 118625.0 23321.0 22833.0 109869.0 114026.0 168127.0 174392.0 160395.0 161794.0 154779.0 148391.0 195734.0 200672.0 215326.0 229147.0 215326.0 215326.0 215326.0 215326.0 229147.0 229147.0 229147.0 229147.0
54478.0 46386.0 180699.0 174600.0 196291.0 195046.0 365137.0 357121.0 205297.0 200901.0 109929.0 110212.0 146526.0 138660.0 181021.0 172760.0 40314.0 44545.0 105992.0 107228.0 110385.0 104417.0 168073.0 164080.0 38994.0 46438.0 137941.0 144817.0 101529.0 97150.0 23725.0 31873.0 361253.0 367384.0 49458.0 41420.0 119998.0 125348.0 54182.0 61061.0 136652.0 131920.0 138058.0 132578.0 236138.0 228340.0 294062.0 286291.0 135011.0 139044.0 121237.0 113647.0 337490.0 343896.0 125469.0 129508.0 267531.0 259865.0 38385.0 37848.0 57908.0 60611.0 96835.0 90113.0 365130.0 365604.0 122528.0 117087.0 115840.0 111082.0 81787.0 78614.0 173384.0 167466.0 46166.0 50757.0 273911.0 276773.0 49203.0 42588.0 141571.0 147285.0 188210.0 183866.0 198714.0 194855.0 327808.0 320860.0 238467.0 230651.0 133291.0 136235.0 377064.0 373083.0 110901.0 118177.0 107093.0 110553.0 210346.0 213524.0 187966.0 190995.0 121489.0 127261.0 191329.0 186756.0 168141.0 161362.0 23743.0 30561.0 296571.0 303732.0 205045.0 203463.0 336538.0 328271.0 151483.0 144709.0 151539.0 143857.0 103052.0 110804.0 162303.0 168198.0 226084.0 231823.0 142055.0 140422.0 102958.0 100115.0 103722.0 95895.0 67004.0 68919.0 117169.0 111510.0 143299.0 136501.0 174081.0 169357.0 288698.0 296492.0 210089.0 209687.0 94798.0 91362.0 129508.0 136537.0 57914.0 56037.0 105255.0 99530.0 64804.0 67094.0 138432.0 132888.0 8425.0 0.0 150528.0 154120.0 113376.0 116458.0 76632.0 69120.0 83211.0 82558.0 181128.0 181360.0 186094.0 178486.0 70147.0 73977.0 197976.0 198690.0 248570.0 245421.0 191660.0 195806.0 355457.0 347435.0 130675.0 122407.0 335375.0 338735.0 88059.0 91865.0 120035.0 118867.0 24940.0 21661.0 110092.0 114788.0 162828.0 169304.0 154243.0 155944.0 149293.0 143139.0 188601.0 193400.0 210954.0 230070.0 210954.0 210954.0 210954.0 210954.0 230070.0 230070.0 230070.0 230070.0
170996.0 167001.0 93285.0 85658.0 51688.0 54165.0 249474.0 241815.0 126453.0 128671.0 40743.0 42364.0 124973.0 119596.0 81548.0 75717.0 115593.0 108563.0 47714.0 44048.0 127164.0 131405.0 52260.0 56657.0 132531.0 125862.0 12758.0 6057.0 50194.0 56590.0 156444.0 158750.0 231189.0 238042.0 127327.0 130022.0 58035.0 50398.0 97648.0 90093.0 15698.0 23263.0 110178.0 102791.0 123291.0 117932.0 184448.0 178430.0 31199.0 22764.0 33509.0 39000.0 213450.0 221053.0 51634.0 43768.0 159876.0 152673.0 113255.0 117099.0 98115.0 100683.0 169788.0 170805.0 239150.0 237453.0 44732.0 42858.0 118129.0 111379.0 197715.0 200462.0 138289.0 139553.0 126726.0 131566.0 136246.0 141382.0 123118.0 122191.0 9100.0 8047.0 112091.0 115006.0 129970.0 132360.0 204887.0 199668.0 131870.0 126585.0 62851.0 70478.0 252006.0 250105.0 152935.0 153192.0 73578.0 79333.0 65968.0 71752.0 148489.0 144436.0 64998.0 69620.0 51785.0 48854.0 144396.0 144750.0 126786.0 120380.0 168953.0 174481.0 96495.0 100906.0 206073.0 197906.0 54942.0 49858.0 142100.0 136309.0 69533.0 64304.0 11984.0 17751.0 84777.0 92178.0 36012.0 28216.0 47626.0 51734.0 152921.0 148268.0 194080.0 190009.0 114093.0 107810.0 44011.0 40463.0 117756.0 109592.0 178444.0 184605.0 86183.0 90828.0 64470.0 71895.0 36455.0 38310.0 107622.0 115126.0 194437.0 195101.0 167670.0 161561.0 30051.0 37350.0 151224.0 150528.0 0.0 8047.0 76485.0 68484.0 149268.0 145448.0 109203.0 117345.0 101654.0 108256.0 127140.0 124583.0 97042.0 101134.0 156640.0 150724.0 135825.0 136779.0 116238.0 113898.0 241011.0 232829.0 40415.0 42399.0 210925.0 212074.0 76469.0 80159.0 31289.0 35423.0 128130.0 129010.0 43259.0 42980.0 94182.0 92305.0 111038.0 104291.0 93348.0 86434.0 157750.0 165612.0 105814.0 86491.0 105814.0 105814.0 105814.0 105814.0 86491.0 86491.0 86491.0 86491.0
176608.0 172374.0 85906.0 78379.0 53248.0 56792.0 252942.0 245355.0 118916.0 121331.0 45225.0 47969.0 120149.0 115128.0 88388.0 82859.0 118118.0 111372.0 49435.0 46939.0 124540.0 129191.0 58988.0 63833.0 134310.0 127329.0 18511.0 10574.0 52838.0 58489.0 158925.0 160848.0 233482.0 240335.0 132974.0 135327.0 55370.0 47405.0 100629.0 93262.0 17477.0 23398.0 105586.0 98459.0 128188.0 123137.0 188882.0 183062.0 39149.0 30739.0 34374.0 41004.0 216275.0 223963.0 48541.0 40544.0 164715.0 157633.0 117387.0 121648.0 100302.0 102257.0 176781.0 177602.0 241611.0 239754.0 52341.0 49893.0 115072.0 108596.0 203718.0 206257.0 132369.0 133957.0 128188.0 132633.0 137782.0 143263.0 124477.0 124071.0 15218.0 16094.0 104840.0 108009.0 122739.0 125335.0 207892.0 202895.0 137159.0 132151.0 58364.0 65647.0 254510.0 252846.0 160425.0 160819.0 71736.0 76900.0 67101.0 73501.0 142167.0 137877.0 61819.0 65687.0 54881.0 52510.0 138891.0 139595.0 130421.0 123748.0 171687.0 176956.0 102302.0 107065.0 208366.0 200199.0 62728.0 57822.0 137390.0 131880.0 68435.0 62527.0 9706.0 16891.0 86323.0 93961.0 44036.0 36262.0 51291.0 54325.0 151064.0 146767.0 199583.0 195721.0 110914.0 104988.0 52002.0 48504.0 111281.0 103155.0 182879.0 188844.0 90712.0 95814.0 65230.0 72248.0 44247.0 46347.0 108974.0 116264.0 201279.0 201765.0 173719.0 167774.0 26176.0 34022.0 155205.0 154120.0 8047.0 0.0 73845.0 65773.0 155909.0 151877.0 108437.0 116512.0 94454.0 101205.0 120347.0 118069.0 103055.0 107502.0 150112.0 144011.0 140536.0 141830.0 108950.0 106404.0 244634.0 236483.0 37256.0 40787.0 213720.0 214605.0 76820.0 79715.0 36668.0 41798.0 132299.0 132756.0 49083.0 49718.0 87741.0 85457.0 105472.0 98479.0 87738.0 81148.0 151650.0 159520.0 97865.0 87390.0 97865.0 97865.0 97865.0 97865.0 87390.0 87390.0 87390.0 87390.0
155398.0 148650.0 67413.0 61228.0 127091.0 130416.0 325895.0 318207.0 94463.0 91512.0 60099.0 68124.0 55853.0 48486.0 150839.0 143395.0 73200.0 70725.0 42258.0 50000.0 50726.0 55447.0 123829.0 125569.0 80194.0 71708.0 70180.0 71201.0 47232.0 41117.0 107781.0 106487.0 307308.0 314161.0 118024.0 115767.0 18495.0 26468.0 64906.0 62188.0 62052.0 54076.0 40899.0 32592.0 198370.0 192423.0 260046.0 253728.0 88426.0 84585.0 46900.0 47387.0 289882.0 297510.0 25396.0 33373.0 234863.0 227449.0 88426.0 96150.0 57130.0 52863.0 175867.0 173251.0 315403.0 313580.0 89555.0 81236.0 41794.0 34895.0 185330.0 184935.0 77714.0 75563.0 72395.0 73310.0 211534.0 217098.0 68426.0 72326.0 71938.0 79848.0 76872.0 74030.0 90224.0 88209.0 281361.0 276150.0 206034.0 200047.0 22633.0 23178.0 328289.0 326511.0 171032.0 174718.0 8031.0 3612.0 140828.0 147344.0 91506.0 91053.0 12777.0 14648.0 128214.0 125335.0 79159.0 76635.0 93611.0 85608.0 245343.0 250733.0 169690.0 172770.0 282191.0 274024.0 118341.0 110693.0 71128.0 64004.0 15479.0 14063.0 83405.0 90572.0 160129.0 167800.0 98130.0 90543.0 54368.0 46644.0 77634.0 74024.0 175051.0 174113.0 37951.0 31337.0 105279.0 97723.0 67548.0 60847.0 254056.0 260465.0 162046.0 166022.0 31447.0 27827.0 88137.0 95938.0 55825.0 59831.0 195720.0 193227.0 158525.0 155498.0 47830.0 39869.0 118151.0 113376.0 76485.0 73845.0 0.0 8076.0 151364.0 144613.0 39985.0 47032.0 68676.0 70174.0 79936.0 73562.0 99509.0 107446.0 101517.0 98821.0 211156.0 211458.0 80736.0 83793.0 317363.0 309166.0 36609.0 34458.0 287347.0 288368.0 28546.0 22077.0 65898.0 72839.0 100589.0 96628.0 70046.0 78182.0 50880.0 56473.0 50743.0 48568.0 38938.0 31374.0 97337.0 104544.0 97835.0 160920.0 97835.0 97835.0 97835.0 97835.0 160920.0 160920.0 160920.0 160920.0
156386.0 149882.0 65533.0 58771.0 119017.0 122367.0 317931.0 310253.0 94450.0 92178.0 54093.0 62236.0 61711.0 54754.0 143580.0 136240.0 76144.0 72878.0 36590.0 44166.0 58783.0 63513.0 116296.0 118236.0 84851.0 76475.0 62459.0 63254.0 42146.0 36923.0 112331.0 111517.0 299241.0 306094.0 117734.0 116016.0 10452.0 18392.0 66009.0 62387.0 54196.0 46241.0 46520.0 38263.0 190621.0 184741.0 252244.0 245968.0 81353.0 77190.0 39558.0 40788.0 281845.0 289480.0 17331.0 25299.0 227140.0 219751.0 89327.0 96767.0 59170.0 55891.0 174672.0 172418.0 307342.0 305513.0 83278.0 75106.0 49685.0 42908.0 186228.0 186182.0 82063.0 80559.0 77206.0 78769.0 203459.0 209023.0 73206.0 76420.0 64112.0 71993.0 76810.0 74785.0 91250.0 89878.0 273340.0 268151.0 198398.0 192485.0 17065.0 20240.0 320230.0 318468.0 168547.0 171922.0 9617.0 11317.0 132752.0 139270.0 95397.0 94310.0 5523.0 11261.0 120185.0 117337.0 84452.0 82503.0 95783.0 87796.0 237299.0 242674.0 162123.0 165336.0 274125.0 265957.0 111342.0 103786.0 77586.0 70733.0 14166.0 8721.0 75329.0 82496.0 152054.0 159725.0 90974.0 83248.0 49053.0 41770.0 85657.0 81929.0 176618.0 175315.0 45742.0 39330.0 98275.0 90846.0 69696.0 62476.0 246250.0 252621.0 154178.0 158240.0 28764.0 27229.0 81373.0 89005.0 59714.0 64484.0 195201.0 193029.0 158814.0 155408.0 39756.0 31793.0 120776.0 116458.0 68484.0 65773.0 8076.0 0.0 150330.0 143809.0 46790.0 54169.0 67932.0 70311.0 81908.0 76036.0 97425.0 105166.0 105220.0 101949.0 203380.0 203764.0 80848.0 83207.0 309421.0 301228.0 28533.0 26678.0 279308.0 280312.0 29200.0 24650.0 59148.0 66357.0 102171.0 98763.0 64206.0 72146.0 50930.0 55526.0 54388.0 51082.0 40545.0 32430.0 101913.0 109306.0 94554.0 152851.0 94554.0 94554.0 94554.0 94554.0 152851.0 152851.0 152851.0 152851.0
38714.0 42115.0 214115.0 206581.0 179700.0 175461.0 313258.0 305391.0 244673.0 242490.0 113853.0 108746.0 199767.0 191445.0 141428.0 134606.0 92654.0 89174.0 121905.0 118036.0 170158.0 166440.0 141046.0 134371.0 105988.0 109749.0 137403.0 145338.0 115320.0 116389.0 100271.0 108358.0 318823.0 323894.0 35210.0 40800.0 148379.0 149819.0 89411.0 89866.0 141106.0 140536.0 187516.0 180115.0 192297.0 184326.0 242937.0 234884.0 121781.0 129247.0 133133.0 125359.0 291665.0 297019.0 150615.0 150581.0 217594.0 210437.0 67926.0 59746.0 99416.0 106923.0 24648.0 22365.0 319271.0 321170.0 106586.0 106532.0 171617.0 164861.0 53141.0 58642.0 225564.0 221377.0 109998.0 117296.0 242074.0 242821.0 110975.0 102797.0 140737.0 142768.0 227058.0 225063.0 241443.0 239571.0 281803.0 274212.0 191164.0 183168.0 163727.0 169806.0 330138.0 325019.0 35042.0 42716.0 143411.0 150016.0 191450.0 191710.0 240141.0 241043.0 153563.0 161324.0 171445.0 166682.0 223491.0 218235.0 73616.0 78812.0 255483.0 263268.0 164080.0 159855.0 295577.0 287384.0 122273.0 118663.0 209504.0 201395.0 136530.0 142053.0 160679.0 164054.0 202205.0 205781.0 123863.0 126953.0 111710.0 114686.0 172450.0 164324.0 58119.0 50887.0 171251.0 163809.0 120565.0 117262.0 218835.0 212204.0 238281.0 246331.0 176440.0 173250.0 121769.0 123609.0 115485.0 118526.0 109690.0 113183.0 45960.0 45856.0 26537.0 18525.0 152534.0 150652.0 68714.0 76632.0 149268.0 155909.0 151364.0 150330.0 0.0 7871.0 138094.0 141291.0 217837.0 220623.0 231251.0 224655.0 54841.0 48827.0 250392.0 248924.0 203145.0 198274.0 231141.0 233112.0 303349.0 295771.0 149981.0 141792.0 289912.0 294522.0 122977.0 130510.0 119918.0 114115.0 63688.0 71472.0 107323.0 106292.0 201255.0 205417.0 200982.0 199803.0 190255.0 182444.0 243654.0 249812.0 238750.0 207941.0 238750.0 238750.0 238750.0 238750.0 207941.0 207941.0 207941.0 207941.0
35253.0 37323.0 207970.0 200503.0 177731.0 173790.0 316187.0 308285.0 238232.0 235903.0 109046.0 104323.0 192438.0 184116.0 141932.0 134839.0 84886.0 81541.0 116270.0 112731.0 162508.0 158716.0 139911.0 133489.0 98117.0 101898.0 133371.0 141306.0 109738.0 110430.0 92695.0 100758.0 320498.0 325715.0 27625.0 32965.0 142185.0 143900.0 82091.0 82839.0 136667.0 135731.0 180335.0 173004.0 193754.0 185764.0 245607.0 237572.0 118786.0 126009.0 127966.0 120098.0 293727.0 299233.0 144657.0 144910.0 220014.0 212758.0 60302.0 52090.0 92011.0 99433.0 32023.0 28638.0 321393.0 323109.0 103599.0 102960.0 164111.0 157415.0 54019.0 58633.0 218340.0 214061.0 102142.0 109430.0 242211.0 243219.0 103143.0 94963.0 136775.0 139184.0 220601.0 218453.0 234782.0 232786.0 283866.0 276343.0 193099.0 185088.0 157518.0 163436.0 332421.0 327445.0 41985.0 49488.0 136695.0 143176.0 189820.0 190410.0 232944.0 233960.0 147176.0 154869.0 169775.0 164992.0 216111.0 210779.0 65748.0 70991.0 256827.0 264555.0 164968.0 161079.0 297013.0 288791.0 121160.0 117096.0 201988.0 193883.0 129917.0 135622.0 157013.0 160663.0 201207.0 205055.0 121450.0 124067.0 106457.0 109035.0 164593.0 156468.0 56481.0 49855.0 163812.0 156420.0 118627.0 114858.0 211996.0 205457.0 240837.0 248874.0 176455.0 173600.0 115381.0 116933.0 112465.0 116004.0 102056.0 105437.0 51607.0 50515.0 25062.0 17383.0 147412.0 145227.0 61312.0 69120.0 145448.0 151877.0 144613.0 143809.0 7871.0 0.0 130514.0 133604.0 211488.0 214120.0 224421.0 217750.0 49634.0 44380.0 243199.0 241844.0 204872.0 200220.0 224656.0 226773.0 306293.0 298639.0 144434.0 136155.0 291922.0 296377.0 116149.0 123563.0 115583.0 110113.0 55818.0 63600.0 102992.0 102502.0 194735.0 199060.0 193981.0 192956.0 183539.0 175792.0 236318.0 242420.0 233058.0 206777.0 233058.0 233058.0 233058.0 233058.0 206777.0 206777.0 206777.0 206777.0
132565.0 124968.0 102051.0 97214.0 160889.0 163058.0 355295.0 347448.0 123230.0 118312.0 80395.0 86726.0 63920.0 55827.0 173835.0 165732.0 47101.0 49028.0 64400.0 71167.0 32461.0 30605.0 149895.0 149848.0 45435.0 37153.0 100037.0 103328.0 65685.0 57679.0 72234.0 69428.0 339782.0 346555.0 102900.0 98211.0 55523.0 63496.0 49815.0 52325.0 93615.0 85949.0 54856.0 49713.0 225396.0 218748.0 287241.0 280412.0 112307.0 111007.0 76046.0 72611.0 321078.0 328474.0 62794.0 70108.0 261237.0 253601.0 70221.0 78462.0 39479.0 31479.0 162524.0 158238.0 347363.0 346025.0 108275.0 99777.0 33936.0 28141.0 162102.0 160219.0 90722.0 85326.0 37591.0 35906.0 245421.0 250407.0 34148.0 40765.0 102687.0 110548.0 106673.0 101640.0 115911.0 111778.0 312171.0 306451.0 231695.0 225007.0 62600.0 61940.0 360121.0 357786.0 164309.0 169489.0 38148.0 36383.0 175118.0 180933.0 105413.0 107998.0 52222.0 54308.0 160341.0 156852.0 86663.0 80714.0 68760.0 61512.0 276932.0 282840.0 195117.0 196878.0 314666.0 306498.0 140268.0 132272.0 71604.0 63533.0 40039.0 46666.0 118136.0 125291.0 193976.0 201322.0 122078.0 115898.0 72282.0 64336.0 46669.0 40441.0 149204.0 149831.0 34438.0 28309.0 127786.0 119730.0 91154.0 86939.0 281330.0 288225.0 191004.0 193823.0 46814.0 38794.0 109970.0 118426.0 28607.0 27444.0 178638.0 174711.0 138735.0 137562.0 83926.0 76095.0 89679.0 83211.0 109203.0 108437.0 39985.0 46790.0 138094.0 130514.0 0.0 8167.0 100725.0 99853.0 103015.0 95343.0 94836.0 103034.0 115563.0 115760.0 238390.0 237701.0 109819.0 114661.0 346379.0 338145.0 72889.0 67722.0 318623.0 320239.0 34617.0 29152.0 89497.0 94190.0 77883.0 71682.0 88155.0 96480.0 82406.0 89768.0 71199.0 73531.0 68309.0 63515.0 107151.0 112713.0 134550.0 195588.0 134550.0 134550.0 134550.0 134550.0 195588.0 195588.0 195588.0 195588.0
133554.0 125797.0 106722.0 102304.0 169027.0 171219.0 363398.0 355546.0 126218.0 120893.0 88372.0 94582.0 64001.0 56248.0 181696.0 173563.0 49054.0 52189.0 72520.0 79227.0 29047.0 25382.0 157943.0 157815.0 43832.0 36129.0 108204.0 111478.0 73686.0 65683.0 69452.0 65831.0 347949.0 354722.0 106099.0 100936.0 63216.0 71253.0 54506.0 57879.0 101767.0 94087.0 56682.0 52549.0 233434.0 226755.0 295263.0 288411.0 120323.0 119115.0 84210.0 80760.0 329233.0 336624.0 70506.0 77931.0 269226.0 261582.0 73408.0 81548.0 44272.0 36102.0 165527.0 160912.0 355526.0 354192.0 116026.0 107557.0 33284.0 29056.0 162771.0 160491.0 90845.0 84929.0 36393.0 33041.0 253571.0 258568.0 33507.0 41016.0 110852.0 118715.0 110089.0 104623.0 118267.0 113718.0 320318.0 314588.0 239661.0 232937.0 69503.0 68249.0 368283.0 365939.0 168583.0 173997.0 45835.0 43420.0 183245.0 189081.0 105410.0 108581.0 59521.0 61030.0 168507.0 165019.0 85767.0 79292.0 70211.0 63428.0 285094.0 291006.0 203095.0 204780.0 322833.0 314665.0 148120.0 140122.0 69756.0 61842.0 48084.0 54538.0 126214.0 133376.0 202120.0 209475.0 130076.0 123965.0 80205.0 72317.0 39078.0 32528.0 149223.0 150290.0 34837.0 30217.0 135700.0 127637.0 93460.0 89862.0 289358.0 296274.0 199127.0 201908.0 54908.0 46893.0 117896.0 126362.0 31768.0 28523.0 180731.0 176493.0 140452.0 139734.0 91858.0 83990.0 89506.0 82558.0 117345.0 116512.0 47032.0 54169.0 141291.0 133604.0 8167.0 0.0 104752.0 103332.0 104983.0 97178.0 100117.0 108240.0 115422.0 116221.0 246431.0 245695.0 113028.0 118242.0 354469.0 346235.0 80767.0 75766.0 326778.0 328402.0 42661.0 37319.0 97563.0 102149.0 79708.0 73022.0 95975.0 104262.0 86596.0 94244.0 73436.0 76581.0 72404.0 68311.0 106276.0 111411.0 139846.0 203707.0 139846.0 139846.0 139846.0 139846.0 203707.0 203707.0 203707.0 203707.0
224004.0 217312.0 9783.0 16165.0 136469.0 142929.0 334715.0 327491.0 27175.0 27323.0 111975.0 119746.0 56137.0 58344.0 182787.0 177298.0 141355.0 139328.0 98186.0 104091.0 88493.0 96581.0 153376.0 158254.0 145570.0 137065.0 104332.0 99807.0 104771.0 102024.0 172827.0 170135.0 312314.0 319167.0 185640.0 183925.0 69625.0 69559.0 133487.0 130267.0 95611.0 90540.0 51870.0 52973.0 218090.0 214127.0 275894.0 271026.0 128347.0 121111.0 91954.0 97835.0 296163.0 304048.0 68519.0 71040.0 253787.0 247265.0 156964.0 164555.0 125785.0 121139.0 241989.0 240039.0 320526.0 318586.0 136533.0 130032.0 77379.0 77429.0 253912.0 253603.0 49312.0 54972.0 137624.0 136628.0 215692.0 221548.0 133862.0 139049.0 103548.0 108971.0 10515.0 14574.0 28321.0 31237.0 288399.0 284237.0 228201.0 224077.0 54323.0 48052.0 333453.0 332324.0 233958.0 236631.0 76012.0 71054.0 146352.0 154378.0 53170.0 46792.0 64315.0 56728.0 142610.0 141938.0 60227.0 65458.0 162159.0 154167.0 251721.0 256207.0 195156.0 200584.0 287197.0 279030.0 156070.0 150110.0 69757.0 69569.0 82059.0 75894.0 100102.0 105052.0 164956.0 172947.0 135934.0 127539.0 110259.0 104997.0 116637.0 117688.0 243715.0 242774.0 73606.0 75219.0 144121.0 138676.0 24611.0 20220.0 269992.0 274971.0 180409.0 186705.0 96106.0 95145.0 131217.0 136495.0 123214.0 125843.0 262985.0 260928.0 226727.0 223332.0 76680.0 73869.0 186351.0 181128.0 101654.0 94454.0 68676.0 67932.0 217837.0 211488.0 100725.0 104752.0 0.0 7799.0 28077.0 29373.0 164066.0 171454.0 58761.0 51422.0 229535.0 232024.0 14782.0 15289.0 327120.0 319185.0 72953.0 79469.0 293541.0 293750.0 96776.0 90753.0 112013.0 120055.0 169263.0 165186.0 121746.0 127889.0 18377.0 12430.0 36698.0 30063.0 32420.0 37989.0 64297.0 71739.0 40422.0 164826.0 40422.0 40422.0 40422.0 40422.0 164826.0 164826.0 164826.0 164826.0
225496.0 218650.0 17574.0 23438.0 144028.0 150421.0 342407.0 335183.0 24291.0 22261.0 116666.0 124563.0 51019.0 54123.0 189591.0 183966.0 141954.0 140362.0 102210.0 108426.0 85241.0 93385.0 160185.0 164908.0 145074.0 136626.0 110399.0 106171.0 108720.0 105488.0 172087.0 169050.0 320006.0 326859.0 187928.0 185898.0 73056.0 73765.0 135060.0 132254.0 101564.0 96163.0 48634.0 50905.0 225534.0 221494.0 283514.0 278605.0 134294.0 127232.0 96909.0 102427.0 303856.0 311740.0 72648.0 75833.0 261304.0 254747.0 158588.0 166324.0 126965.0 121908.0 244918.0 242729.0 328218.0 326278.0 141969.0 135240.0 74462.0 75268.0 255443.0 254889.0 41930.0 47920.0 137147.0 135705.0 223384.0 229241.0 133469.0 139010.0 109776.0 115436.0 6852.0 6940.0 22332.0 24133.0 296091.0 291929.0 235575.0 231372.0 57979.0 51062.0 341145.0 340017.0 237705.0 240587.0 77811.0 72243.0 154031.0 162043.0 45373.0 39022.0 67169.0 59314.0 150040.0 149286.0 53103.0 58704.0 163058.0 155097.0 259413.0 263899.0 202327.0 207660.0 294890.0 286722.0 162385.0 156268.0 63619.0 64061.0 84266.0 78591.0 107135.0 112240.0 172648.0 180639.0 142105.0 133693.0 114485.0 108847.0 112701.0 114230.0 244788.0 244103.0 70951.0 73356.0 150280.0 144636.0 17546.0 14953.0 277605.0 282621.0 187823.0 194051.0 98891.0 97325.0 136943.0 142467.0 123525.0 125676.0 265488.0 263211.0 228677.0 225526.0 82453.0 79120.0 186859.0 181360.0 108256.0 101205.0 70174.0 70311.0 220623.0 214120.0 99853.0 103332.0 7799.0 0.0 20325.0 21744.0 167297.0 174832.0 51038.0 43823.0 237039.0 239461.0 10567.0 14943.0 334812.0 326877.0 77963.0 84025.0 301234.0 301443.0 98619.0 92142.0 117256.0 125303.0 170478.0 166093.0 126578.0 132988.0 19393.0 16574.0 32446.0 27031.0 32081.0 38857.0 56518.0 63944.0 47048.0 172518.0 47048.0 47048.0 47048.0 47048.0 172518.0 172518.0 172518.0 172518.0
233044.0 225861.0 37857.0 43598.0 164241.0 170558.0 362724.0 355500.0 25547.0 17873.0 132032.0 140113.0 44359.0 50205.0 208662.0 202806.0 147992.0 147468.0 116410.0 123169.0 82408.0 90428.0 179301.0 183752.0 148345.0 140155.0 128371.0 124669.0 122685.0 118506.0 174433.0 170525.0 340323.0 347176.0 197570.0 194815.0 86653.0 88803.0 143503.0 141689.0 119385.0 113448.0 48315.0 53560.0 245596.0 241451.0 303774.0 298825.0 151947.0 145227.0 112971.0 117740.0 324172.0 332057.0 87568.0 91891.0 281454.0 274853.0 166896.0 174906.0 134599.0 128646.0 255783.0 253047.0 348535.0 346595.0 158627.0 151488.0 73074.0 75943.0 262959.0 261813.0 25791.0 33265.0 140571.0 138008.0 243701.0 249557.0 137163.0 143512.0 128029.0 134069.0 20418.0 13538.0 14177.0 8764.0 316408.0 312246.0 255539.0 251221.0 72475.0 64713.0 361462.0 360333.0 250454.0 253793.0 87935.0 81246.0 174340.0 182344.0 25501.0 18722.0 79829.0 71769.0 170102.0 169242.0 37740.0 44860.0 169593.0 161787.0 279730.0 284216.0 221997.0 227176.0 315206.0 307039.0 180629.0 174238.0 52132.0 54954.0 95068.0 90574.0 126688.0 132007.0 192965.0 200956.0 160139.0 151723.0 128946.0 122612.0 107044.0 109961.0 251231.0 251173.0 70489.0 74932.0 168268.0 162274.0 12431.0 19535.0 297859.0 302907.0 207853.0 213987.0 110594.0 107758.0 154173.0 160136.0 129129.0 130065.0 275293.0 272504.0 237309.0 234750.0 100117.0 95932.0 192234.0 186094.0 127140.0 120347.0 79936.0 81908.0 231251.0 224421.0 103015.0 104983.0 28077.0 20325.0 0.0 7927.0 179213.0 187027.0 30719.0 23756.0 257176.0 259511.0 18777.0 26267.0 355129.0 347194.0 94372.0 99517.0 321550.0 321759.0 108280.0 100942.0 133683.0 141689.0 177709.0 172619.0 142143.0 149035.0 33789.0 34896.0 31851.0 31470.0 41364.0 49518.0 36858.0 44010.0 64505.0 192835.0 64505.0 64505.0 64505.0 64505.0 192835.0 192835.0 192835.0 192835.0
225801.0 218566.0 38942.0 43503.0 163574.0 169652.0 362640.0 355281.0 32767.0 25480.0 127251.0 135389.0 36518.0 42278.0 206112.0 200038.0 140595.0 140243.0 111203.0 118152.0 74484.0 82510.0 176840.0 181015.0 140620.0 132462.0 125072.0 121786.0 117358.0 112852.0 166617.0 162660.0 340239.0 347092.0 190773.0 187864.0 81414.0 84128.0 136537.0 134941.0 116018.0 109762.0 40552.0 46082.0 244425.0 240062.0 303189.0 298074.0 148350.0 141887.0 108610.0 112997.0 324089.0 331973.0 82855.0 87668.0 280485.0 273772.0 159860.0 167913.0 127494.0 121396.0 249227.0 246356.0 348451.0 346511.0 154410.0 147071.0 65163.0 68126.0 255693.0 254451.0 20478.0 27215.0 132867.0 130212.0 243617.0 249474.0 129490.0 135919.0 124940.0 131265.0 24167.0 16208.0 21991.0 16558.0 316324.0 312162.0 254152.0 249629.0 67755.0 59779.0 361378.0 360250.0 244446.0 247933.0 81589.0 74670.0 174146.0 182074.0 24576.0 19874.0 74324.0 66292.0 169011.0 167935.0 32115.0 38598.0 162243.0 154470.0 279646.0 284132.0 220150.0 225113.0 315123.0 306955.0 177391.0 170809.0 45155.0 47480.0 88856.0 84746.0 124857.0 130458.0 192881.0 200872.0 156787.0 148390.0 123789.0 117209.0 99290.0 102108.0 243803.0 243840.0 62618.0 67189.0 164865.0 158641.0 6880.0 15070.0 297249.0 302461.0 206645.0 212580.0 104554.0 101373.0 150300.0 156529.0 121702.0 122477.0 268468.0 265569.0 230262.0 227826.0 96752.0 92079.0 184699.0 178486.0 124583.0 118069.0 73562.0 76036.0 224655.0 217750.0 95343.0 97178.0 29373.0 21744.0 7927.0 0.0 173036.0 180921.0 32058.0 26682.0 256185.0 258303.0 23799.0 31391.0 354969.0 347070.0 90310.0 94962.0 321467.0 321676.0 101697.0 94191.0 129418.0 137374.0 170462.0 165263.0 137419.0 144523.0 30415.0 33364.0 24343.0 25025.0 35664.0 43924.0 35263.0 42921.0 68264.0 192751.0 68264.0 68264.0 68264.0 68264.0 192751.0 192751.0 192751.0 192751.0
74380.0 71185.0 159889.0 152247.0 134308.0 131558.0 294998.0 286982.0 191098.0 189390.0 59471.0 55149.0 151556.0 143333.0 111180.0 103016.0 58540.0 51563.0 67156.0 63205.0 127118.0 125243.0 100907.0 95970.0 78079.0 77651.0 84642.0 92534.0 60543.0 62098.0 87509.0 93815.0 291860.0 297836.0 31032.0 35617.0 94440.0 95333.0 45826.0 42537.0 87342.0 86134.0 138092.0 130214.0 166172.0 158334.0 223938.0 216185.0 72976.0 79265.0 78364.0 70543.0 267588.0 273908.0 96188.0 95827.0 197394.0 189722.0 35972.0 32794.0 55882.0 64053.0 78244.0 77190.0 295270.0 295917.0 58337.0 55740.0 126033.0 118611.0 100686.0 103485.0 176120.0 172808.0 78260.0 86183.0 206671.0 208925.0 77336.0 70333.0 88154.0 91340.0 173569.0 172096.0 188617.0 187281.0 257872.0 250857.0 168325.0 160504.0 109758.0 116249.0 307114.0 303039.0 71667.0 75852.0 91479.0 98686.0 147478.0 149357.0 190374.0 190431.0 100148.0 108088.0 127622.0 122860.0 175553.0 171238.0 51035.0 50272.0 227204.0 234506.0 135224.0 133399.0 267337.0 259057.0 83189.0 77185.0 163403.0 155354.0 84183.0 88880.0 108848.0 113090.0 161224.0 166174.0 77684.0 78487.0 56892.0 59962.0 136713.0 128888.0 97637.0 93143.0 124766.0 116863.0 76952.0 71388.0 166900.0 159861.0 218559.0 226347.0 141696.0 140643.0 68664.0 71807.0 66754.0 72014.0 69414.0 75601.0 100784.0 100135.0 70666.0 64820.0 97799.0 95812.0 66671.0 70147.0 97042.0 103055.0 99509.0 97425.0 54841.0 49634.0 94836.0 100117.0 164066.0 167297.0 179213.0 173036.0 0.0 8254.0 200528.0 198242.0 178520.0 175288.0 177728.0 179282.0 285327.0 277297.0 95163.0 87022.0 265506.0 269022.0 72110.0 80270.0 66467.0 61647.0 45476.0 51249.0 53972.0 54674.0 148048.0 151696.0 150091.0 148015.0 137884.0 129841.0 195082.0 201772.0 183973.0 166018.0 183973.0 183973.0 183973.0 183973.0 166018.0 166018.0 166018.0 166018.0
72051.0 69705.0 167072.0 159371.0 135924.0 132722.0 291514.0 283505.0 198537.0 196971.0 65037.0 59996.0 159749.0 151535.0 108932.0 100950.0 65803.0 59095.0 74013.0 69591.0 135340.0 133406.0 100826.0 95387.0 84941.0 84957.0 88999.0 96933.0 67365.0 69430.0 92662.0 99303.0 289787.0 295616.0 30242.0 36314.0 101856.0 102425.0 53849.0 50760.0 92359.0 91713.0 146229.0 138323.0 163564.0 155658.0 220394.0 212570.0 75410.0 82234.0 84495.0 76834.0 264972.0 271145.0 103324.0 102607.0 193941.0 186319.0 42191.0 37821.0 63977.0 72151.0 71500.0 71011.0 292696.0 293555.0 60387.0 58907.0 134287.0 126864.0 96957.0 100317.0 184231.0 180974.0 85535.0 93473.0 206034.0 207978.0 84790.0 77591.0 92418.0 95019.0 181049.0 179725.0 196268.0 195044.0 255209.0 248082.0 165163.0 157270.0 117131.0 123771.0 304399.0 300148.0 63611.0 67661.0 99419.0 106695.0 148731.0 150172.0 198452.0 198431.0 107745.0 115722.0 128744.0 123956.0 183747.0 179465.0 56516.0 56611.0 225222.0 232632.0 132921.0 130635.0 265445.0 257163.0 82620.0 77192.0 171649.0 163602.0 92070.0 96572.0 112770.0 116624.0 161729.0 166356.0 79183.0 80832.0 63223.0 66890.0 144611.0 136748.0 95322.0 90280.0 133015.0 125108.0 77598.0 72709.0 174741.0 167636.0 215109.0 222962.0 140639.0 139125.0 76435.0 79814.0 69100.0 73568.0 77373.0 83392.0 94723.0 94558.0 66908.0 60494.0 103834.0 102268.0 69700.0 73977.0 101134.0 107502.0 107446.0 105166.0 48827.0 44380.0 103034.0 108240.0 171454.0 174832.0 187027.0 180921.0 8254.0 0.0 208594.0 206230.0 175711.0 172187.0 185229.0 186635.0 281789.0 273810.0 101784.0 93789.0 262940.0 266650.0 80224.0 88418.0 71228.0 65758.0 49933.0 56372.0 58631.0 58263.0 155635.0 159115.0 158089.0 155896.0 145675.0 137596.0 203238.0 209953.0 190633.0 166783.0 190633.0 190633.0 190633.0 190633.0 166783.0 166783.0 166783.0 166783.0
248082.0 240522.0 68525.0 74285.0 194906.0 201162.0 393443.0 386219.0 47623.0 39827.0 157924.0 166109.0 51643.0 59788.0 238166.0 232068.0 162478.0 163346.0 141313.0 148526.0 88382.0 95450.0 208898.0 213052.0 159129.0 151551.0 156982.0 153813.0 147221.0 142101.0 183241.0 178191.0 371042.0 377894.0 215791.0 212135.0 111706.0 115145.0 161167.0 160615.0 147910.0 141507.0 62876.0 70430.0 276117.0 271869.0 334467.0 329486.0 180095.0 173767.0 139838.0 143778.0 354891.0 362776.0 113835.0 119102.0 312053.0 305412.0 183884.0 192100.0 151494.0 144607.0 275041.0 271602.0 379254.0 377313.0 185665.0 178132.0 82151.0 87431.0 277664.0 275715.0 24949.0 30550.0 151810.0 147804.0 274420.0 280276.0 148881.0 156104.0 156919.0 163302.0 50293.0 44189.0 35920.0 29382.0 347127.0 342964.0 285960.0 281526.0 98845.0 90719.0 392181.0 391052.0 272191.0 276095.0 109464.0 101966.0 205059.0 213061.0 10258.0 12261.0 104256.0 96387.0 200641.0 199687.0 30724.0 38616.0 184223.0 176785.0 310449.0 314934.0 252128.0 257140.0 345925.0 337758.0 209293.0 202626.0 48726.0 55306.0 116996.0 113902.0 156809.0 162311.0 223683.0 231675.0 188651.0 180268.0 153911.0 146933.0 106609.0 111530.0 264570.0 265376.0 81132.0 87674.0 196699.0 190354.0 38893.0 47075.0 328548.0 333617.0 238352.0 244391.0 132958.0 128811.0 181859.0 188259.0 143634.0 142958.0 293006.0 289548.0 253761.0 252015.0 128667.0 123763.0 204883.0 197976.0 156640.0 150112.0 101517.0 105220.0 250392.0 243199.0 115563.0 115422.0 58761.0 51038.0 30719.0 32058.0 200528.0 208594.0 0.0 8543.0 287766.0 290017.0 47583.0 54146.0 385848.0 377913.0 121859.0 126049.0 352269.0 352478.0 128449.0 120426.0 160679.0 168565.0 193099.0 187175.0 168132.0 175481.0 62465.0 65047.0 50867.0 54824.0 66132.0 74288.0 13306.0 16595.0 92852.0 223554.0 92852.0 92852.0 92852.0 92852.0 223554.0 223554.0 223554.0 223554.0
247936.0 240481.0 61116.0 67236.0 187851.0 194231.0 386110.0 378886.0 39084.0 31327.0 153818.0 161971.0 52242.0 60031.0 232268.0 226329.0 162323.0 162768.0 137577.0 144624.0 90155.0 97558.0 202931.0 207284.0 160049.0 152267.0 151596.0 148120.0 143642.0 138867.0 184793.0 180044.0 363709.0 370562.0 214583.0 211214.0 107822.0 110757.0 160021.0 159058.0 142562.0 136393.0 61806.0 68855.0 269310.0 265194.0 327315.0 322426.0 174971.0 168431.0 135281.0 139586.0 347559.0 355443.0 109475.0 114350.0 305120.0 298546.0 183013.0 191182.0 150560.0 143938.0 273558.0 270352.0 371921.0 369981.0 181088.0 173727.0 82994.0 87670.0 277656.0 275950.0 25582.0 32605.0 152572.0 148959.0 267087.0 272943.0 149494.0 156490.0 151377.0 157560.0 42494.0 36896.0 27475.0 21190.0 339794.0 335632.0 279281.0 274976.0 94388.0 86368.0 384848.0 383719.0 269833.0 273532.0 106834.0 99559.0 197759.0 205793.0 12311.0 7888.0 100576.0 92594.0 193812.0 192983.0 34118.0 42335.0 184086.0 176516.0 303116.0 307602.0 245746.0 250902.0 338592.0 330425.0 203906.0 197389.0 52126.0 57924.0 114268.0 110668.0 150430.0 155763.0 216351.0 224342.0 183339.0 174933.0 150177.0 143436.0 110230.0 114681.0 264963.0 265508.0 81523.0 87559.0 191436.0 185272.0 33534.0 41674.0 321410.0 326390.0 231577.0 237733.0 130143.0 126435.0 176970.0 183154.0 143404.0 143204.0 292056.0 288812.0 253178.0 251169.0 123286.0 118735.0 205387.0 198690.0 150724.0 144011.0 98821.0 101949.0 248924.0 241844.0 115760.0 116221.0 51422.0 43823.0 23756.0 26682.0 198242.0 206230.0 8543.0 0.0 280851.0 283229.0 39551.0 45892.0 378515.0 370580.0 116988.0 121610.0 344936.0 345145.0 126368.0 118533.0 156095.0 164045.0 192750.0 187067.0 164000.0 171161.0 56824.0 58606.0 48153.0 50956.0 62019.0 70271.0 20429.0 24950.0 84514.0 216221.0 84514.0 84514.0 84514.0 84514.0 216221.0 216221.0 216221.0 216221.0
239920.0 240453.0 219994.0 213615.0 93172.0 86621.0 117896.0 109920.0 249695.0 254203.0 158134.0 152492.0 260650.0 255413.0 67821.0 76222.0 227214.0 219125.0 174174.0 167226.0 261108.0 264361.0 88498.0 89026.0 247436.0 243351.0 140984.0 140481.0 172762.0 180758.0 263911.0 269076.0 115679.0 120850.0 204904.0 211784.0 193065.0 185836.0 208713.0 201217.0 149212.0 157144.0 245964.0 238616.0 13010.0 20324.0 48957.0 42617.0 126127.0 127688.0 164722.0 166399.0 89340.0 95434.0 187124.0 179416.0 24302.0 17897.0 211974.0 210819.0 214272.0 220045.0 209604.0 215606.0 117085.0 118355.0 132428.0 140342.0 252930.0 245799.0 255067.0 261379.0 272060.0 274158.0 244178.0 250983.0 59167.0 54433.0 241499.0 237428.0 139277.0 131442.0 239138.0 243976.0 256564.0 260661.0 79539.0 72372.0 13028.0 20470.0 198634.0 206120.0 128690.0 124520.0 181263.0 175665.0 207010.0 213647.0 85164.0 77051.0 280710.0 275541.0 200405.0 205409.0 87180.0 88508.0 279183.0 280109.0 227798.0 224756.0 53379.0 61356.0 44185.0 45121.0 92764.0 84692.0 100071.0 107872.0 277849.0 272132.0 201562.0 197935.0 132361.0 126157.0 70330.0 63927.0 116437.0 122522.0 166435.0 174155.0 284526.0 278796.0 261140.0 254031.0 249097.0 242335.0 111451.0 119478.0 249639.0 241756.0 42998.0 49860.0 49849.0 45140.0 191607.0 199627.0 128969.0 120502.0 227473.0 235455.0 233074.0 238263.0 229470.0 221457.0 165870.0 173094.0 245130.0 248570.0 135825.0 140536.0 211156.0 203380.0 203145.0 204872.0 238390.0 246431.0 229535.0 237039.0 257176.0 256185.0 178520.0 175711.0 287766.0 280851.0 0.0 7469.0 242769.0 238309.0 108600.0 100391.0 176070.0 176717.0 87382.0 91543.0 203777.0 209816.0 148907.0 144453.0 223705.0 228636.0 151355.0 143531.0 226561.0 222840.0 245775.0 238524.0 228054.0 221658.0 290809.0 298656.0 224357.0 75676.0 224357.0 224357.0 224357.0 224357.0 75676.0 75676.0 75676.0 75676.0
235356.0 236093.0 222555.0 216023.0 96065.0 89183.0 120080.0 112068.0 252702.0 257020.0 157323.0 151402.0 261746.0 256326.0 65473.0 73906.0 225084.0 216995.0 173707.0 166613.0 261103.0 264142.0 88054.0 87918.0 245393.0 241532.0 141305.0 141220.0 172017.0 180022.0 261246.0 266575.0 120759.0 125641.0 201089.0 208095.0 193520.0 186445.0 206719.0 199309.0 149721.0 157598.0 246947.0 239483.0 13949.0 19050.0 49785.0 42722.0 125406.0 127453.0 164797.0 166115.0 93533.0 99264.0 187750.0 180135.0 23540.0 15995.0 209190.0 207767.0 212574.0 218539.0 204104.0 210243.0 121241.0 122907.0 130903.0 138984.0 253167.0 245945.0 249903.0 256321.0 273819.0 275712.0 242350.0 249272.0 66595.0 61902.0 239761.0 235477.0 139772.0 132028.0 241751.0 246401.0 259284.0 263212.0 83679.0 76255.0 7123.0 15136.0 199627.0 207229.0 132540.0 128027.0 175634.0 169888.0 207068.0 213855.0 88963.0 80935.0 282776.0 277772.0 200963.0 206195.0 89421.0 90373.0 280687.0 281398.0 224991.0 222179.0 59599.0 67585.0 42641.0 42254.0 98389.0 90427.0 98424.0 106330.0 278877.0 273008.0 201430.0 198070.0 133946.0 127956.0 75135.0 69134.0 115624.0 122060.0 165540.0 173378.0 284020.0 278139.0 256346.0 249151.0 249406.0 242516.0 110225.0 118289.0 251700.0 243754.0 44020.0 51456.0 51665.0 46017.0 191007.0 199014.0 127913.0 119432.0 225949.0 233915.0 227343.0 232661.0 224679.0 216655.0 166817.0 173885.0 241771.0 245421.0 136779.0 141830.0 211458.0 203764.0 198274.0 200220.0 237701.0 245695.0 232024.0 239461.0 259511.0 258303.0 175288.0 172187.0 290017.0 283229.0 7469.0 0.0 245447.0 241166.0 110584.0 102439.0 176801.0 177087.0 91704.0 96258.0 203090.0 209336.0 148353.0 143563.0 220623.0 225739.0 150185.0 142212.0 228487.0 225005.0 247263.0 240132.0 229529.0 222966.0 292739.0 300598.0 227389.0 80817.0 227389.0 227389.0 227389.0 227389.0 80817.0 80817.0 80817.0 80817.0
236035.0 229173.0 23163.0 30581.0 149603.0 156269.0 347281.0 340057.0 13747.0 12542.0 126506.0 134329.0 57865.0 61981.0 197191.0 191808.0 152365.0 150856.0 112370.0 118451.0 93744.0 101896.0 167786.0 172779.0 155142.0 146722.0 119095.0 114500.0 118913.0 115843.0 182031.0 178831.0 324880.0 331733.0 198489.0 196465.0 83398.0 83827.0 145614.0 142821.0 110388.0 105312.0 57462.0 60482.0 231501.0 227726.0 288684.0 283984.0 143121.0 135862.0 106577.0 112317.0 308729.0 316614.0 82742.0 85590.0 266971.0 260558.0 169143.0 176886.0 137482.0 132363.0 255415.0 253260.0 333092.0 331152.0 151288.0 144741.0 83300.0 84627.0 265985.0 265403.0 44000.0 51001.0 147227.0 145596.0 228258.0 234114.0 143586.0 149247.0 118279.0 123619.0 4308.0 8891.0 13903.0 18404.0 300965.0 296803.0 241777.0 237821.0 68233.0 61479.0 346019.0 344890.0 247999.0 250805.0 88378.0 82783.0 158956.0 167042.0 43917.0 36469.0 77639.0 69819.0 156116.0 155629.0 55819.0 62391.0 173523.0 165570.0 264287.0 268773.0 209128.0 214690.0 299763.0 291596.0 170763.0 164849.0 68600.0 70131.0 94821.0 89094.0 114334.0 119072.0 177522.0 185513.0 150672.0 142282.0 124564.0 119078.0 120426.0 122424.0 255271.0 254623.0 80004.0 82904.0 158861.0 153449.0 22537.0 23343.0 282812.0 287619.0 193918.0 200365.0 109390.0 107885.0 145998.0 151266.0 133875.0 135881.0 276038.0 273774.0 239243.0 236091.0 91461.0 88571.0 197233.0 191660.0 116238.0 108950.0 80736.0 80848.0 231141.0 224656.0 109819.0 113028.0 14782.0 10567.0 18777.0 23799.0 177728.0 185229.0 47583.0 39551.0 242769.0 245447.0 0.0 7611.0 339686.0 331751.0 87583.0 93923.0 306107.0 306316.0 109185.0 102691.0 126727.0 134771.0 180991.0 176558.0 136335.0 142568.0 29951.0 26362.0 40750.0 36449.0 42481.0 49403.0 55327.0 62179.0 45843.0 177392.0 45843.0 45843.0 45843.0 45843.0 177392.0 177392.0 177392.0 177392.0
239176.0 232443.0 20893.0 28857.0 145159.0 152002.0 342423.0 335200.0 12650.0 15940.0 126604.0 134271.0 64844.0 68560.0 194292.0 189150.0 156200.0 154347.0 113198.0 118949.0 99999.0 108150.0 164933.0 170180.0 159796.0 151327.0 117533.0 112534.0 119806.0 117213.0 186885.0 183923.0 320022.0 326875.0 200924.0 199182.0 84849.0 84547.0 148662.0 145518.0 109017.0 104386.0 63468.0 65845.0 227217.0 223641.0 283822.0 279260.0 141648.0 134167.0 106434.0 112555.0 303872.0 311757.0 83541.0 85706.0 262450.0 256141.0 172156.0 179777.0 140848.0 136049.0 257246.0 255320.0 328235.0 326294.0 150462.0 144207.0 89320.0 90210.0 269096.0 268723.0 51609.0 58602.0 151860.0 150539.0 223401.0 229257.0 148153.0 153563.0 116494.0 121462.0 8458.0 15949.0 18831.0 24764.0 296108.0 291945.0 237658.0 233892.0 69524.0 63339.0 341162.0 340033.0 249007.0 251591.0 91209.0 86080.0 154099.0 162199.0 51110.0 43460.0 79603.0 72012.0 152016.0 151729.0 63430.0 69971.0 177136.0 169153.0 259430.0 263915.0 205509.0 211256.0 294906.0 286739.0 168701.0 163030.0 76046.0 77360.0 97323.0 91183.0 111259.0 115665.0 172664.0 180656.0 148867.0 140523.0 125163.0 120068.0 127123.0 128879.0 258768.0 257905.0 85856.0 88295.0 157053.0 151934.0 29754.0 29454.0 277978.0 282766.0 189769.0 196371.0 111392.0 110411.0 144814.0 149739.0 137914.0 140275.0 278273.0 276214.0 241984.0 238613.0 90419.0 88168.0 201168.0 195806.0 113898.0 106404.0 83793.0 83207.0 233112.0 226773.0 114661.0 118242.0 15289.0 14943.0 26267.0 31391.0 179282.0 186635.0 54146.0 45892.0 238309.0 241166.0 7611.0 0.0 334828.0 326894.0 87455.0 94253.0 301250.0 301459.0 111993.0 105861.0 126192.0 134210.0 184350.0 180166.0 136256.0 142169.0 33059.0 27718.0 47041.0 41961.0 46580.0 52809.0 62510.0 69185.0 38771.0 172534.0 38771.0 38771.0 38771.0 38771.0 172534.0 172534.0 172534.0 172534.0
341524.0 343091.0 317399.0 311665.0 192902.0 188087.0 9922.0 2881.0 346104.0 350754.0 266389.0 260956.0 364054.0 359523.0 176031.0 184465.0 335638.0 327549.0 282003.0 275258.0 367838.0 371536.0 196658.0 197576.0 355918.0 351927.0 247633.0 246168.0 280926.0 288895.0 371732.0 377131.0 54703.0 51147.0 309968.0 317245.0 298991.0 291409.0 317217.0 309759.0 255367.0 263355.0 349891.0 342996.0 121574.0 128799.0 61399.0 69235.0 234376.0 235389.0 271692.0 273987.0 37325.0 30334.0 292640.0 284740.0 87943.0 95641.0 319626.0 317968.0 322868.0 328635.0 305284.0 312277.0 37772.0 45511.0 241027.0 248920.0 359104.0 352230.0 352728.0 359748.0 372490.0 375535.0 352752.0 359579.0 117041.0 109278.0 350091.0 345957.0 245564.0 237610.0 336257.0 341688.0 353323.0 357861.0 41035.0 43250.0 117335.0 124984.0 302930.0 309944.0 38726.0 30736.0 276458.0 269716.0 313798.0 320067.0 181118.0 173403.0 379468.0 373770.0 306006.0 310306.0 189764.0 192242.0 380746.0 382597.0 335401.0 332718.0 76524.0 74284.0 152736.0 152836.0 60542.0 62504.0 208657.0 216470.0 381390.0 376268.0 308756.0 304599.0 235661.0 228859.0 162168.0 154187.0 224784.0 230529.0 274748.0 282347.0 392183.0 386689.0 361249.0 353661.0 355098.0 348694.0 220012.0 228019.0 348813.0 341353.0 66796.0 59138.0 155600.0 152565.0 299566.0 307585.0 237442.0 228994.0 336065.0 344049.0 326258.0 332561.0 329872.0 321873.0 270668.0 278271.0 351489.0 355457.0 241011.0 244634.0 317363.0 309421.0 303349.0 306293.0 346379.0 354469.0 327120.0 334812.0 355129.0 354969.0 285327.0 281789.0 385848.0 378515.0 108600.0 110584.0 339686.0 334828.0 0.0 8235.0 281392.0 282969.0 39744.0 44580.0 311819.0 317570.0 256922.0 252797.0 330773.0 336077.0 259862.0 252097.0 326732.0 321865.0 347715.0 340018.0 330239.0 324586.0 390186.0 397890.0 320764.0 164164.0 320764.0 320764.0 320764.0 320764.0 164164.0 164164.0 164164.0 164164.0
333880.0 335377.0 309464.0 303730.0 184836.0 179969.0 17704.0 9697.0 338169.0 342819.0 258155.0 252728.0 355962.0 351403.0 167868.0 176301.0 327468.0 319378.0 273770.0 267023.0 359630.0 363317.0 188425.0 189355.0 347740.0 343730.0 239417.0 237974.0 272691.0 280661.0 363630.0 369006.0 53717.0 51322.0 302072.0 309322.0 290800.0 283227.0 309034.0 301569.0 247163.0 255151.0 341776.0 334862.0 113360.0 120605.0 53428.0 61327.0 226143.0 227155.0 263472.0 265756.0 32114.0 26140.0 284460.0 276564.0 79904.0 87582.0 311534.0 309918.0 314663.0 320419.0 297994.0 304932.0 38521.0 45743.0 232817.0 240702.0 350911.0 344029.0 345356.0 352334.0 364525.0 367530.0 344555.0 351373.0 109680.0 101845.0 341888.0 337770.0 237356.0 229402.0 328322.0 333753.0 345388.0 349926.0 34353.0 35737.0 109217.0 116895.0 294791.0 301823.0 42065.0 34444.0 269158.0 262473.0 305585.0 311864.0 173136.0 165392.0 371580.0 365835.0 297825.0 302149.0 181620.0 184074.0 372734.0 374547.0 327316.0 324599.0 68999.0 67162.0 144539.0 144693.0 56123.0 57170.0 200455.0 208263.0 373296.0 368150.0 300534.0 296389.0 227529.0 220741.0 154244.0 146271.0 216553.0 222294.0 266515.0 274113.0 383953.0 378456.0 353718.0 346158.0 346911.0 340495.0 211791.0 219797.0 340894.0 333412.0 58739.0 51018.0 147376.0 144331.0 291332.0 299351.0 229215.0 220768.0 327850.0 335833.0 319152.0 325391.0 322301.0 314296.0 262504.0 270098.0 343509.0 347435.0 232829.0 236483.0 309166.0 301228.0 295771.0 298639.0 338145.0 346235.0 319185.0 326877.0 347194.0 347070.0 277297.0 273810.0 377913.0 370580.0 100391.0 102439.0 331751.0 326894.0 8235.0 0.0 273215.0 274767.0 34295.0 40002.0 303584.0 309338.0 248687.0 244565.0 322732.0 328006.0 251636.0 243877.0 318760.0 313938.0 339678.0 331996.0 322186.0 316503.0 382275.0 389988.0 312829.0 156343.0 312829.0 312829.0 312829.0 312829.0 156343.0 156343.0 156343.0 156343.0
162911.0 157356.0 66908.0 58950.0 90490.0 93948.0 289814.0 282175.0 99931.0 100011.0 39187.0 46820.0 85432.0 79617.0 118696.0 111874.0 91510.0 86176.0 28204.0 32309.0 87284.0 92020.0 90357.0 93228.0 104587.0 96798.0 36352.0 35595.0 34696.0 35229.0 131043.0 131635.0 270738.0 277591.0 120942.0 121123.0 18189.0 10149.0 76756.0 70743.0 27406.0 20049.0 70389.0 62739.0 163443.0 157856.0 224785.0 218687.0 58369.0 52594.0 19002.0 25389.0 253453.0 261115.0 11298.0 3353.0 200027.0 192745.0 97782.0 103915.0 73253.0 72910.0 173264.0 172342.0 278861.0 277010.0 64263.0 57301.0 77889.0 71344.0 191952.0 193095.0 101268.0 101533.0 97617.0 100819.0 174932.0 180492.0 93687.0 94952.0 37253.0 44811.0 83276.0 84011.0 100286.0 100996.0 245007.0 239906.0 171684.0 166091.0 23651.0 31780.0 291756.0 290050.0 162541.0 164701.0 35122.0 39729.0 104225.0 110743.0 112875.0 109992.0 24642.0 29407.0 91862.0 89164.0 106095.0 105676.0 107907.0 100332.0 208883.0 214200.0 135791.0 139568.0 245622.0 237455.0 88000.0 81023.0 102329.0 96244.0 33214.0 26231.0 46797.0 53965.0 123521.0 131195.0 67276.0 59023.0 38685.0 35438.0 114049.0 110035.0 184744.0 182233.0 73784.0 67740.0 75167.0 68559.0 83455.0 75343.0 218783.0 224995.0 126545.0 130981.0 35949.0 40756.0 60010.0 66492.0 78626.0 85031.0 195880.0 194869.0 162910.0 158267.0 11271.0 3279.0 133458.0 130675.0 40415.0 37256.0 36609.0 28533.0 149981.0 144434.0 72889.0 80767.0 72953.0 77963.0 94372.0 90310.0 95163.0 101784.0 121859.0 116988.0 176070.0 176801.0 87583.0 87455.0 281392.0 273215.0 0.0 8555.0 250906.0 251845.0 44964.0 45498.0 39368.0 47404.0 112185.0 110648.0 48812.0 55025.0 60599.0 61406.0 73287.0 67484.0 56141.0 48418.0 121150.0 128910.0 88850.0 124359.0 88850.0 88850.0 88850.0 88850.0 124359.0 124359.0 124359.0 124359.0
154368.0 148802.0 73984.0 66105.0 93725.0 96551.0 291541.0 283835.0 106597.0 106226.0 32657.0 40643.0 86879.0 80487.0 117302.0 110134.0 83489.0 77964.0 19890.0 24737.0 84905.0 89011.0 89707.0 91880.0 97164.0 89542.0 35783.0 36902.0 26479.0 26675.0 123328.0 124171.0 273574.0 280427.0 112474.0 112591.0 16529.0 10915.0 68389.0 62269.0 27609.0 19625.0 71658.0 63659.0 163949.0 158065.0 225596.0 219299.0 55603.0 50829.0 13899.0 18403.0 255812.0 263393.0 12245.0 8819.0 200464.0 193073.0 89254.0 95362.0 65211.0 65269.0 165209.0 164157.0 281549.0 279832.0 59634.0 52121.0 76251.0 69266.0 183435.0 184552.0 104546.0 104190.0 90374.0 93938.0 178362.0 183657.0 86487.0 87367.0 37481.0 45397.0 89629.0 89807.0 106255.0 106509.0 247203.0 241897.0 171733.0 165857.0 27229.0 35329.0 294405.0 292480.0 155065.0 157428.0 31185.0 37098.0 107774.0 113923.0 116770.0 114399.0 24257.0 30807.0 94175.0 91130.0 108521.0 107465.0 99527.0 92001.0 211338.0 216880.0 135495.0 138822.0 248458.0 240291.0 85589.0 78263.0 103357.0 96835.0 27684.0 21913.0 50493.0 57675.0 126864.0 134387.0 64992.0 57035.0 31033.0 27121.0 110563.0 106065.0 176189.0 173687.0 72381.0 65745.0 72572.0 65477.0 88176.0 80196.0 219604.0 226007.0 127594.0 131579.0 27908.0 33369.0 56388.0 63518.0 71247.0 77920.0 187652.0 186550.0 154439.0 149854.0 16993.0 10482.0 125069.0 122407.0 42399.0 40787.0 34458.0 26678.0 141792.0 136155.0 67722.0 75766.0 79469.0 84025.0 99517.0 94962.0 87022.0 93789.0 126049.0 121610.0 176717.0 177087.0 93923.0 94253.0 282969.0 274767.0 8555.0 0.0 253294.0 254472.0 37756.0 39350.0 34683.0 42520.0 103689.0 102247.0 42669.0 49564.0 65963.0 67584.0 76422.0 71284.0 59933.0 51869.0 124515.0 132179.0 96959.0 128140.0 96959.0 96959.0 96959.0 96959.0 128140.0 128140.0 128140.0 128140.0
327059.0 327744.0 283821.0 278087.0 160844.0 156959.0 44180.0 38769.0 312526.0 317175.0 239840.0 235180.0 331585.0 327534.0 154361.0 162617.0 312168.0 304115.0 254373.0 248089.0 338063.0 342297.0 170819.0 173031.0 332090.0 327419.0 218769.0 216412.0 254011.0 261852.0 349924.0 354745.0 31693.0 34728.0 292257.0 299086.0 268858.0 261033.0 293421.0 285749.0 225907.0 233850.0 317839.0 311295.0 99379.0 107286.0 52203.0 59589.0 208159.0 208051.0 242910.0 246025.0 2678.0 10717.0 262205.0 254222.0 73415.0 79983.0 298308.0 297547.0 298157.0 303326.0 294950.0 301337.0 29764.0 31355.0 216607.0 223980.0 328784.0 322211.0 341256.0 347795.0 338938.0 342129.0 328265.0 334697.0 80262.0 72997.0 325340.0 321884.0 216361.0 208408.0 302679.0 308109.0 319745.0 324283.0 8332.0 16285.0 98826.0 106838.0 271476.0 278116.0 41892.0 39193.0 266261.0 260155.0 284428.0 290248.0 148046.0 140773.0 346007.0 340191.0 275524.0 279223.0 159146.0 162197.0 347375.0 349497.0 314135.0 310689.0 42039.0 37500.0 130329.0 132321.0 22567.0 22884.0 185014.0 192459.0 348912.0 344204.0 279928.0 275161.0 204393.0 197370.0 128674.0 120714.0 198974.0 203807.0 248295.0 255494.0 363575.0 358541.0 348007.0 340770.0 324634.0 318621.0 195225.0 202998.0 315255.0 307774.0 54816.0 47301.0 128290.0 126889.0 272044.0 280003.0 211945.0 203681.0 310758.0 318738.0 317559.0 323215.0 316347.0 308320.0 239896.0 247703.0 332173.0 335375.0 210925.0 213720.0 287347.0 279308.0 289912.0 291922.0 318623.0 326778.0 293541.0 301234.0 321550.0 321467.0 265506.0 262940.0 352269.0 344936.0 87382.0 91704.0 306107.0 301250.0 39744.0 34295.0 250906.0 253294.0 0.0 7469.0 284386.0 289531.0 229897.0 226647.0 310455.0 315113.0 234303.0 227017.0 293207.0 288295.0 314523.0 306749.0 297295.0 292095.0 356644.0 364372.0 287186.0 129679.0 287186.0 287186.0 287186.0 287186.0 129679.0 129679.0 129679.0 129679.0
331452.0 331987.0 284030.0 278296.0 161520.0 157964.0 47731.0 43234.0 312734.0 317384.0 241902.0 237445.0 331771.0 327887.0 157845.0 166022.0 314840.0 306807.0 256122.0 249972.0 339094.0 343477.0 173270.0 175787.0 334657.0 329835.0 220256.0 217646.0 255949.0 263742.0 352914.0 357605.0 25269.0 29390.0 296130.0 302866.0 269873.0 261987.0 296047.0 288338.0 227205.0 235117.0 318181.0 311760.0 103180.0 111144.0 58849.0 66024.0 210384.0 209986.0 244366.0 247702.0 8434.0 14253.0 263139.0 255145.0 78967.0 85255.0 301466.0 300890.0 300565.0 305582.0 300024.0 306314.0 27124.0 26905.0 219245.0 226476.0 329662.0 323187.0 346107.0 352566.0 339147.0 342338.0 330684.0 337016.0 79626.0 72546.0 327702.0 324407.0 217757.0 209826.0 302888.0 308318.0 319954.0 324492.0 14879.0 22671.0 103361.0 111353.0 272075.0 278582.0 39932.0 38674.0 271398.0 265391.0 285644.0 291323.0 148413.0 141340.0 346216.0 340400.0 276422.0 279928.0 160306.0 163523.0 347584.0 349747.0 317281.0 313679.0 43330.0 37654.0 133802.0 136174.0 16121.0 18508.0 187932.0 195266.0 349080.0 344515.0 281304.0 276370.0 205189.0 198112.0 128981.0 121080.0 201329.0 205916.0 250363.0 257445.0 364912.0 360008.0 352576.0 345403.0 325473.0 319585.0 197840.0 205533.0 315464.0 307983.0 61101.0 53812.0 130593.0 129627.0 273790.0 281720.0 214338.0 206144.0 313005.0 320974.0 322836.0 328395.0 320907.0 312886.0 240767.0 248622.0 335689.0 338735.0 212074.0 214605.0 288368.0 280312.0 294522.0 296377.0 320239.0 328402.0 293750.0 301443.0 321759.0 321676.0 269022.0 266650.0 352478.0 345145.0 91543.0 96258.0 306316.0 301459.0 44580.0 40002.0 251845.0 254472.0 7469.0 0.0 286135.0 291110.0 231858.0 228840.0 313801.0 318321.0 236624.0 229471.0 293416.0 288504.0 314782.0 306958.0 297509.0 292319.0 356853.0 364581.0 287395.0 129575.0 287395.0 287395.0 287395.0 287395.0 129575.0 129575.0 129575.0 129575.0
127278.0 120711.0 94713.0 87966.0 127969.0 129610.0 320763.0 312905.0 122891.0 120053.0 45812.0 52373.0 79788.0 71678.0 139384.0 131340.0 47905.0 43938.0 30016.0 36566.0 61408.0 62545.0 115285.0 115258.0 59633.0 51850.0 66367.0 70455.0 31084.0 23081.0 86313.0 86686.0 305889.0 312721.0 89480.0 87280.0 31981.0 37933.0 36822.0 33652.0 60772.0 53569.0 66016.0 58104.0 190782.0 184132.0 252623.0 245798.0 77691.0 76508.0 42959.0 38494.0 286823.0 294169.0 37861.0 43069.0 226626.0 218995.0 60214.0 67784.0 30266.0 28282.0 147533.0 144781.0 313257.0 312071.0 74147.0 65593.0 57022.0 49231.0 157159.0 157015.0 104011.0 100826.0 52674.0 56222.0 212133.0 216865.0 48763.0 50121.0 69263.0 76958.0 105269.0 102572.0 118764.0 116638.0 277849.0 272051.0 197100.0 190446.0 45489.0 49436.0 325974.0 323520.0 143775.0 147849.0 20811.0 27039.0 142344.0 147772.0 118278.0 118523.0 33796.0 40424.0 126722.0 123054.0 103759.0 99912.0 66764.0 58808.0 242808.0 248841.0 160515.0 162355.0 280773.0 272605.0 105849.0 97865.0 92752.0 84895.0 15185.0 22761.0 86363.0 93361.0 160864.0 168028.0 87467.0 81305.0 37806.0 29760.0 81060.0 75050.0 147417.0 146155.0 54803.0 46765.0 93267.0 85226.0 95860.0 89332.0 246713.0 253616.0 156547.0 159254.0 12345.0 4579.0 75441.0 83878.0 33672.0 40166.0 167185.0 164684.0 130064.0 126961.0 54749.0 47748.0 91965.0 88059.0 76469.0 76820.0 28546.0 29200.0 122977.0 116149.0 34617.0 42661.0 96776.0 98619.0 108280.0 101697.0 72110.0 80224.0 128449.0 126368.0 203777.0 203090.0 109185.0 111993.0 311819.0 303584.0 44964.0 37756.0 284386.0 286135.0 0.0 8408.0 54903.0 59622.0 72976.0 69720.0 53897.0 62300.0 79265.0 84435.0 78243.0 76826.0 67471.0 59898.0 123054.0 129856.0 123494.0 162894.0 123494.0 123494.0 123494.0 123494.0 162894.0 162894.0 162894.0 162894.0
133364.0 126584.0 89330.0 82921.0 131844.0 133922.0 326430.0 318604.0 116432.0 113257.0 52486.0 59471.0 71450.0 63316.0 146131.0 138182.0 51562.0 48706.0 35644.0 42796.0 53643.0 55300.0 121348.0 121696.0 60697.0 52477.0 70887.0 74248.0 37806.0 29943.0 88007.0 87602.0 310631.0 317484.0 96628.0 94033.0 30008.0 37127.0 42934.0 40755.0 64528.0 56939.0 57825.0 50010.0 196845.0 190332.0 258730.0 252004.0 83996.0 82202.0 46904.0 43606.0 291993.0 299411.0 36756.0 43113.0 232876.0 225280.0 66464.0 74279.0 35072.0 31263.0 155114.0 152164.0 318234.0 316877.0 81382.0 72808.0 48782.0 40979.0 163306.0 162863.0 95887.0 92564.0 53247.0 55659.0 216321.0 221270.0 49248.0 51928.0 73539.0 81396.0 98873.0 95787.0 111801.0 109395.0 283116.0 277447.0 203455.0 196926.0 41647.0 44415.0 331000.0 328702.0 151911.0 156070.0 15231.0 19933.0 146116.0 151845.0 110230.0 110669.0 29859.0 35411.0 131192.0 127701.0 95434.0 91522.0 71617.0 63613.0 247810.0 253697.0 166853.0 168949.0 285515.0 277347.0 112690.0 104736.0 84344.0 76492.0 12531.0 20384.0 89383.0 96498.0 164901.0 172214.0 93833.0 87310.0 44823.0 36617.0 74711.0 69137.0 152977.0 152046.0 46460.0 38431.0 99951.0 91961.0 88511.0 82229.0 252798.0 259602.0 162077.0 165075.0 18555.0 10884.0 82145.0 90514.0 35192.0 40485.0 174353.0 171646.0 136715.0 133892.0 56077.0 48547.0 96354.0 91865.0 80159.0 79715.0 22077.0 24650.0 130510.0 123563.0 29152.0 37319.0 90753.0 92142.0 100942.0 94191.0 80270.0 88418.0 120426.0 118533.0 209816.0 209336.0 102691.0 105861.0 317570.0 309338.0 45498.0 39350.0 289531.0 291110.0 8408.0 0.0 60985.0 66276.0 78511.0 74626.0 61095.0 69533.0 72906.0 78541.0 70488.0 69476.0 60561.0 53288.0 114820.0 121571.0 119091.0 166617.0 119091.0 119091.0 119091.0 119091.0 166617.0 166617.0 166617.0 166617.0
139959.0 135815.0 105405.0 97405.0 77436.0 77530.0 265885.0 258018.0 138771.0 139206.0 10523.0 11320.0 120721.0 113897.0 85579.0 77865.0 86923.0 79451.0 25388.0 18337.0 113427.0 115986.0 60410.0 60795.0 105187.0 99317.0 18553.0 26255.0 24118.0 32016.0 127520.0 130514.0 252020.0 258865.0 96314.0 98799.0 50209.0 45596.0 68368.0 60594.0 21239.0 22424.0 105483.0 97303.0 135921.0 129355.0 197790.0 191029.0 23075.0 21876.0 20841.0 18535.0 232304.0 239572.0 46928.0 41797.0 171893.0 164295.0 82336.0 85907.0 70432.0 74394.0 141516.0 141863.0 258956.0 258015.0 24996.0 18022.0 106444.0 98898.0 167083.0 169589.0 139200.0 138673.0 100183.0 105907.0 159567.0 163759.0 96878.0 94760.0 22194.0 27253.0 122420.0 123365.0 139588.0 140364.0 223236.0 217327.0 142477.0 135998.0 61835.0 69979.0 271602.0 268969.0 127253.0 128543.0 60171.0 67630.0 91819.0 96126.0 151444.0 148965.0 58077.0 65237.0 74212.0 70097.0 142893.0 141458.0 96319.0 90279.0 188541.0 194785.0 105876.0 108132.0 226904.0 218705.0 52570.0 44831.0 136733.0 129815.0 53778.0 51865.0 43273.0 48522.0 109139.0 115783.0 32932.0 26402.0 18794.0 25598.0 135672.0 129889.0 162970.0 159057.0 103076.0 95657.0 39556.0 31853.0 122594.0 114537.0 191867.0 198732.0 101793.0 104357.0 42700.0 50720.0 22244.0 30135.0 81717.0 89595.0 165592.0 165741.0 137106.0 131258.0 36260.0 38159.0 120352.0 120035.0 31289.0 36668.0 65898.0 59148.0 119918.0 115583.0 89497.0 97563.0 112013.0 117256.0 133683.0 129418.0 66467.0 71228.0 160679.0 156095.0 148907.0 148353.0 126727.0 126192.0 256922.0 248687.0 39368.0 34683.0 229897.0 231858.0 54903.0 60985.0 0.0 8048.0 97150.0 98413.0 12599.0 16095.0 99938.0 100684.0 111074.0 105953.0 94595.0 86550.0 159173.0 166817.0 124185.0 112154.0 124185.0 124185.0 124185.0 124185.0 112154.0 112154.0 112154.0 112154.0
135767.0 131985.0 113410.0 105410.0 77491.0 76753.0 261870.0 253965.0 146796.0 147252.0 13816.0 8890.0 128044.0 121087.0 79856.0 71921.0 87668.0 79933.0 31259.0 23631.0 119357.0 121541.0 56169.0 55667.0 106635.0 101255.0 23289.0 31225.0 28553.0 36545.0 127800.0 131260.0 249417.0 256192.0 92113.0 95153.0 57733.0 53431.0 68851.0 61008.0 28011.0 30201.0 112825.0 104601.0 131443.0 124654.0 193191.0 186284.0 18501.0 20297.0 28763.0 25570.0 229016.0 236173.0 54752.0 49798.0 167089.0 159437.0 80709.0 83567.0 72056.0 76754.0 135200.0 135854.0 255890.0 255180.0 17130.0 10000.0 112806.0 105174.0 162300.0 165111.0 146928.0 146265.0 102114.0 108232.0 157931.0 161780.0 98996.0 96244.0 26663.0 29863.0 130465.0 131407.0 147635.0 148396.0 219827.0 213744.0 137513.0 130825.0 69726.0 77848.0 268451.0 265611.0 120108.0 121182.0 66754.0 74376.0 91673.0 95371.0 159283.0 156886.0 65572.0 72880.0 73214.0 68851.0 150421.0 148816.0 95302.0 89738.0 185589.0 192025.0 100949.0 102743.0 224304.0 216134.0 46443.0 38526.0 143873.0 136839.0 60050.0 58776.0 47201.0 51644.0 108227.0 114538.0 28020.0 23024.0 21986.0 29863.0 140676.0 134629.0 158920.0 154704.0 109576.0 102019.0 33681.0 25686.0 130557.0 122514.0 187306.0 194313.0 98359.0 100378.0 47750.0 55684.0 15869.0 24263.0 84170.0 92135.0 159551.0 159971.0 132252.0 126146.0 44138.0 46205.0 118625.0 118867.0 35423.0 41798.0 72839.0 66357.0 114115.0 110113.0 94190.0 102149.0 120055.0 125303.0 141689.0 137374.0 61647.0 65758.0 168565.0 164045.0 144453.0 143563.0 134771.0 134210.0 252797.0 244565.0 47404.0 42520.0 226647.0 228840.0 59622.0 66276.0 8048.0 0.0 95314.0 97208.0 8775.0 8418.0 107955.0 108732.0 118808.0 113802.0 102453.0 94375.0 166904.0 174522.0 131866.0 111706.0 131866.0 131866.0 131866.0 131866.0 111706.0 111706.0 111706.0 111706.0
55339.0 48218.0 167631.0 160941.0 172441.0 170905.0 340431.0 332413.0 194738.0 191175.0 87389.0 86858.0 141546.0 133328.0 156111.0 147839.0 30798.0 30251.0 85778.0 85898.0 108745.0 104226.0 143300.0 139203.0 42334.0 46255.0 115415.0 122603.0 80619.0 77385.0 42977.0 50055.0 336316.0 342445.0 30315.0 23144.0 103899.0 108180.0 36298.0 41469.0 114955.0 110921.0 131011.0 124495.0 211245.0 203461.0 269391.0 261649.0 110856.0 115294.0 100635.0 92751.0 312576.0 319001.0 108511.0 111472.0 242833.0 235151.0 14913.0 12910.0 43516.0 49068.0 86988.0 81732.0 340209.0 340668.0 97987.0 92875.0 111810.0 105811.0 85252.0 84412.0 168166.0 163084.0 46449.0 53625.0 249209.0 251982.0 47741.0 39572.0 119073.0 124340.0 177253.0 173787.0 189432.0 186373.0 302901.0 295971.0 213687.0 205896.0 118271.0 122395.0 352158.0 348207.0 95211.0 101857.0 93419.0 98283.0 186362.0 189299.0 182884.0 184898.0 106707.0 113368.0 167138.0 162519.0 164539.0 158546.0 9945.0 16371.0 271633.0 278801.0 180128.0 178611.0 311609.0 303341.0 126583.0 119866.0 149263.0 141250.0 88125.0 95368.0 140041.0 145628.0 201751.0 207356.0 117590.0 116320.0 81038.0 79322.0 108846.0 100725.0 74488.0 73643.0 112189.0 105425.0 118579.0 111913.0 165378.0 159772.0 263993.0 271762.0 185209.0 184758.0 77206.0 75431.0 105206.0 112027.0 49476.0 51186.0 101025.0 96864.0 60859.0 60069.0 118824.0 114051.0 23321.0 24940.0 128130.0 132299.0 100589.0 102171.0 63688.0 55818.0 77883.0 79708.0 169263.0 170478.0 177709.0 170462.0 45476.0 49933.0 193099.0 192750.0 223705.0 220623.0 180991.0 184350.0 330773.0 322732.0 112185.0 103689.0 310455.0 313801.0 72976.0 78511.0 97150.0 95314.0 0.0 7913.0 86562.0 90724.0 151347.0 157044.0 146156.0 146593.0 138598.0 131649.0 185014.0 190585.0 196277.0 205896.0 196277.0 196277.0 196277.0 196277.0 205896.0 205896.0 205896.0 205896.0
60908.0 53417.0 163954.0 157461.0 174643.0 173452.0 345694.0 337675.0 190291.0 186478.0 88354.0 88551.0 135551.0 127389.0 160895.0 152563.0 24747.0 25923.0 85121.0 85957.0 101991.0 97218.0 146929.0 143165.0 34516.0 38799.0 116389.0 123339.0 80385.0 76434.0 36315.0 42992.0 340601.0 346829.0 38215.0 31042.0 101229.0 105997.0 33922.0 40180.0 115309.0 110802.0 125471.0 119200.0 216074.0 208348.0 274734.0 267044.0 113441.0 117394.0 100249.0 92536.0 317267.0 323787.0 106234.0 109708.0 248141.0 240436.0 16982.0 18567.0 39609.0 44204.0 94577.0 89142.0 344845.0 345154.0 101167.0 95548.0 105521.0 99762.0 90593.0 89195.0 162280.0 157005.0 38942.0 45947.0 252627.0 255612.0 40478.0 32380.0 120026.0 125665.0 172902.0 169166.0 184606.0 181322.0 307633.0 300786.0 218851.0 211115.0 115205.0 118892.0 356884.0 353059.0 103125.0 109762.0 89741.0 94134.0 188715.0 191951.0 176991.0 179241.0 103508.0 109855.0 169750.0 165193.0 158300.0 152140.0 3036.0 11021.0 275941.0 283022.0 184854.0 183610.0 315794.0 307539.0 130665.0 123721.0 142736.0 134767.0 84901.0 92386.0 140824.0 146651.0 204549.0 210353.0 120622.0 118833.0 81510.0 79008.0 101212.0 93098.0 78746.0 78584.0 106102.0 99560.0 122098.0 115166.0 160352.0 154981.0 269281.0 277002.0 189152.0 188992.0 75098.0 72550.0 107997.0 115139.0 43680.0 44572.0 107936.0 103502.0 67461.0 67166.0 117891.0 112696.0 22833.0 21661.0 129010.0 132756.0 96628.0 98763.0 71472.0 63600.0 71682.0 73022.0 165186.0 166093.0 172619.0 165263.0 51249.0 56372.0 187175.0 187067.0 228636.0 225739.0 176558.0 180166.0 336077.0 328006.0 110648.0 102247.0 315113.0 318321.0 69720.0 74626.0 98413.0 97208.0 7913.0 0.0 88433.0 93203.0 147112.0 153074.0 140923.0 141707.0 134088.0 127368.0 178804.0 184229.0 193212.0 208479.0 193212.0 193212.0 193212.0 193212.0 208479.0 208479.0 208479.0 208479.0
127739.0 123775.0 115640.0 107658.0 86251.0 85421.0 269013.0 261083.0 148742.0 148718.0 10213.0 2030.0 125784.0 118530.0 85735.0 77588.0 79218.0 71419.0 27787.0 20068.0 114638.0 116337.0 63535.0 62337.0 98401.0 93245.0 30708.0 38573.0 23517.0 31168.0 119189.0 122763.0 257429.0 264143.0 84070.0 86845.0 56498.0 53345.0 60362.0 52521.0 33800.0 34169.0 110663.0 102370.0 138349.0 131388.0 199917.0 192891.0 26366.0 29023.0 29823.0 24423.0 236648.0 243735.0 54593.0 50755.0 173664.0 165974.0 71940.0 74873.0 63985.0 69039.0 129005.0 129285.0 263636.0 263049.0 20287.0 11714.0 108741.0 101010.0 154640.0 157255.0 145837.0 144703.0 94098.0 100401.0 166334.0 170064.0 91078.0 88043.0 34265.0 38246.0 132031.0 132444.0 148853.0 149178.0 227392.0 221205.0 143987.0 137112.0 69702.0 77641.0 276147.0 273187.0 115278.0 116838.0 63375.0 71199.0 100412.0 104026.0 158629.0 156671.0 64148.0 71828.0 81847.0 77441.0 148655.0 146588.0 86533.0 81009.0 193431.0 199960.0 107547.0 108885.0 232314.0 224146.0 52157.0 44158.0 141138.0 133875.0 56261.0 56104.0 55182.0 59959.0 116845.0 123076.0 35332.0 31293.0 16317.0 24553.0 134802.0 128504.0 150824.0 146771.0 105744.0 98001.0 39960.0 31900.0 130678.0 122762.0 194070.0 201187.0 106045.0 107720.0 42595.0 50279.0 22441.0 30868.0 76476.0 84464.0 153017.0 153143.0 124636.0 118722.0 47529.0 48182.0 109869.0 110092.0 43259.0 49083.0 70046.0 64206.0 107323.0 102992.0 88155.0 95975.0 121746.0 126578.0 142143.0 137419.0 53972.0 58631.0 168132.0 164000.0 151355.0 150185.0 136335.0 136256.0 259862.0 251636.0 48812.0 42669.0 234303.0 236624.0 53897.0 61095.0 12599.0 8775.0 86562.0 88433.0 0.0 8440.0 108631.0 110070.0 117815.0 113316.0 102058.0 93857.0 165784.0 173290.0 135648.0 120401.0 135648.0 135648.0 135648.0 135648.0 120401.0 120401.0 120401.0 120401.0
129024.0 125532.0 121415.0 113416.0 81746.0 80259.0 261297.0 253353.0 154728.0 155019.0 18087.0 10172.0 133815.0 126642.0 77527.0 69330.0 85672.0 77741.0 35967.0 28197.0 123078.0 124765.0 56208.0 54523.0 105230.0 100403.0 31289.0 39180.0 31935.0 39608.0 125095.0 129011.0 250549.0 257179.0 85473.0 88956.0 64086.0 60404.0 66797.0 59008.0 36415.0 38485.0 118656.0 110379.0 130535.0 123484.0 191976.0 184893.0 20250.0 24939.0 36119.0 31765.0 229338.0 236357.0 61692.0 57244.0 165658.0 157953.0 76423.0 78587.0 71145.0 76570.0 127087.0 127898.0 256435.0 255985.0 11854.0 3298.0 117139.0 109416.0 155093.0 158117.0 153464.0 152511.0 101248.0 107752.0 160182.0 163664.0 98351.0 94946.0 34505.0 36770.0 138261.0 139000.0 155308.0 155891.0 220021.0 213743.0 135949.0 129001.0 76773.0 84816.0 268889.0 265813.0 111712.0 112764.0 71640.0 79430.0 95639.0 98749.0 166075.0 163913.0 71829.0 79375.0 76547.0 71997.0 156537.0 154618.0 91490.0 86429.0 186362.0 193001.0 99596.0 100741.0 225444.0 217279.0 43970.0 35983.0 149306.0 142095.0 64592.0 64185.0 54517.0 58454.0 111381.0 117334.0 28258.0 25634.0 24753.0 32989.0 143141.0 136788.0 152252.0 147813.0 114114.0 106391.0 32086.0 24108.0 137740.0 129753.0 186149.0 193323.0 98892.0 100245.0 51035.0 58711.0 15225.0 23336.0 84008.0 91998.0 151565.0 152134.0 125027.0 118751.0 52355.0 54030.0 114026.0 114788.0 42980.0 49718.0 78182.0 72146.0 106292.0 102502.0 96480.0 104262.0 127889.0 132988.0 149035.0 144523.0 54674.0 58263.0 175481.0 171161.0 143531.0 142212.0 142568.0 142169.0 252097.0 243877.0 55025.0 49564.0 227017.0 229471.0 62300.0 69533.0 16095.0 8418.0 90724.0 93203.0 8440.0 0.0 115380.0 116430.0 125387.0 120662.0 109353.0 101200.0 173430.0 180983.0 140215.0 115283.0 140215.0 140215.0 140215.0 140215.0 115283.0 115283.0 115283.0 115283.0
206267.0 199477.0 20956.0 19599.0 134453.0 140237.0 334388.0 327140.0 43629.0 41342.0 98582.0 106605.0 43578.0 43753.0 175701.0 169627.0 123150.0 121307.0 83506.0 89984.0 71853.0 79812.0 146442.0 150601.0 127194.0 118688.0 94773.0 91378.0 89936.0 86397.0 154465.0 151830.0 311980.0 318832.0 168539.0 166542.0 54043.0 55393.0 115786.0 112887.0 85746.0 79686.0 35870.0 35541.0 214651.0 210118.0 273941.0 268653.0 118222.0 111612.0 79278.0 84289.0 295829.0 303714.0 54205.0 58167.0 250862.0 244052.0 139306.0 147006.0 107835.0 102990.0 225570.0 223348.0 320192.0 318251.0 124862.0 117787.0 60461.0 59803.0 236205.0 235742.0 45780.0 49109.0 119249.0 118301.0 215358.0 221214.0 115485.0 120694.0 94569.0 100852.0 26005.0 24161.0 40743.0 40547.0 288065.0 283911.0 224202.0 219543.0 39247.0 31946.0 333119.0 331990.0 218659.0 221666.0 58454.0 53065.0 145624.0 153415.0 54450.0 50285.0 47900.0 39985.0 139408.0 138133.0 54425.0 57625.0 144081.0 136101.0 251387.0 255872.0 189936.0 194806.0 286863.0 278696.0 147082.0 140586.0 59467.0 57447.0 64873.0 59254.0 94742.0 100535.0 164620.0 172613.0 126522.0 118113.0 95919.0 89989.0 100692.0 101108.0 225736.0 224937.0 56453.0 57390.0 134627.0 128540.0 23574.0 15417.0 267978.0 273373.0 176875.0 182645.0 79554.0 77935.0 120389.0 126410.0 104918.0 107473.0 246096.0 243824.0 209329.0 206145.0 66468.0 62144.0 168127.0 162828.0 94182.0 87741.0 50880.0 50930.0 201255.0 194735.0 82406.0 86596.0 18377.0 19393.0 33789.0 30415.0 148048.0 155635.0 62465.0 56824.0 226561.0 228487.0 29951.0 33059.0 326732.0 318760.0 60599.0 65963.0 293207.0 293416.0 79265.0 72906.0 99938.0 107955.0 151347.0 147112.0 108631.0 115380.0 0.0 8344.0 23743.0 15610.0 14198.0 19750.0 64256.0 72112.0 53939.0 164492.0 53939.0 53939.0 53939.0 53939.0 164492.0 164492.0 164492.0 164492.0
211695.0 205043.0 12705.0 11791.0 130218.0 136291.0 329390.0 322214.0 39426.0 38652.0 100196.0 108058.0 51467.0 51995.0 173797.0 168007.0 129388.0 127187.0 86032.0 92090.0 80150.0 88087.0 144424.0 148947.0 134216.0 125689.0 94011.0 89989.0 92590.0 89688.0 161604.0 159174.0 307068.0 313920.0 173218.0 171534.0 57263.0 57467.0 121185.0 117884.0 85127.0 79624.0 44211.0 43742.0 211116.0 206825.0 269832.0 264711.0 117836.0 110861.0 80366.0 85984.0 290917.0 298802.0 56388.0 59316.0 247137.0 240444.0 144641.0 152200.0 113603.0 109120.0 229582.0 227614.0 315280.0 313339.0 125398.0 118671.0 68729.0 67873.0 241591.0 241341.0 50961.0 55152.0 126273.0 125602.0 210446.0 216302.0 122461.0 127418.0 93486.0 99331.0 22088.0 22919.0 38906.0 40243.0 283153.0 278990.0 220916.0 216488.0 41999.0 35624.0 328207.0 327078.0 221730.0 224480.0 63704.0 58961.0 140905.0 148801.0 57930.0 52789.0 51886.0 44309.0 135674.0 134655.0 60509.0 64378.0 150052.0 142053.0 246475.0 250960.0 187163.0 192296.0 281951.0 273784.0 146117.0 139902.0 66916.0 65312.0 69665.0 63464.0 91838.0 97267.0 159709.0 167701.0 125754.0 117337.0 98204.0 92778.0 109030.0 109398.0 231518.0 230503.0 64679.0 65362.0 133918.0 128179.0 26974.0 19598.0 263890.0 269121.0 173342.0 179346.0 83679.0 82748.0 120413.0 126016.0 111412.0 114310.0 250555.0 248503.0 214335.0 210915.0 65964.0 62546.0 174392.0 169304.0 92305.0 85457.0 56473.0 55526.0 205417.0 199060.0 89768.0 94244.0 12430.0 16574.0 34896.0 33364.0 151696.0 159115.0 65047.0 58606.0 222840.0 225005.0 26362.0 27718.0 321865.0 313938.0 61406.0 67584.0 288295.0 288504.0 84435.0 78541.0 100684.0 108732.0 157044.0 153074.0 110070.0 116430.0 8344.0 0.0 31510.0 23577.0 22113.0 26378.0 68372.0 76137.0 45598.0 159580.0 45598.0 45598.0 45598.0 45598.0 159580.0 159580.0 159580.0 159580.0
201492.0 194239.0 43029.0 43208.0 154887.0 160182.0 355569.0 348216.0 53254.0 47503.0 107605.0 115804.0 19971.0 21723.0 191646.0 185023.0 116252.0 115953.0 90674.0 98014.0 53008.0 61161.0 162851.0 166231.0 116577.0 108350.0 109413.0 107363.0 96470.0 91239.0 142862.0 139182.0 333345.0 340198.0 166861.0 163781.0 61324.0 65539.0 112466.0 111144.0 100338.0 93312.0 16906.0 21742.0 233565.0 228607.0 293735.0 288164.0 131558.0 125864.0 90319.0 93622.0 317155.0 325061.0 64192.0 70265.0 270021.0 263018.0 135706.0 143795.0 103295.0 97098.0 225596.0 222547.0 341557.0 339617.0 135936.0 128153.0 42605.0 44525.0 231373.0 230110.0 28126.0 28515.0 108777.0 106392.0 236724.0 242580.0 105341.0 111661.0 109870.0 116891.0 38585.0 31951.0 44834.0 40611.0 309425.0 305129.0 242630.0 237552.0 49678.0 41512.0 354485.0 353356.0 221697.0 225450.0 58734.0 51406.0 166728.0 174335.0 41011.0 40342.0 53694.0 46013.0 159011.0 157314.0 33423.0 34976.0 137904.0 130140.0 272752.0 277238.0 207529.0 211862.0 308229.0 300062.0 161285.0 154247.0 35806.0 33803.0 66217.0 63051.0 113414.0 119727.0 185951.0 193940.0 140561.0 132306.0 103248.0 96142.0 80265.0 81840.0 219463.0 219503.0 39487.0 43257.0 148422.0 141647.0 20025.0 17589.0 287746.0 293411.0 195931.0 201255.0 82150.0 78285.0 132755.0 139623.0 97360.0 98214.0 244492.0 241479.0 206078.0 203756.0 81553.0 75604.0 160395.0 154243.0 111038.0 105472.0 50743.0 54388.0 200982.0 193981.0 71199.0 73436.0 36698.0 32446.0 31851.0 24343.0 150091.0 158089.0 50867.0 48153.0 245775.0 247263.0 40750.0 47041.0 347715.0 339678.0 73287.0 76422.0 314523.0 314782.0 78243.0 70488.0 111074.0 118808.0 146156.0 140923.0 117815.0 125387.0 23743.0 31510.0 0.0 8219.0 17736.0 24884.0 48100.0 55760.0 76270.0 185857.0 76270.0 76270.0 76270.0 76270.0 185857.0 185857.0 185857.0 185857.0
201893.0 194794.0 35505.0 35168.0 147277.0 152698.0 347823.0 340495.0 49712.0 44958.0 103110.0 111291.0 27970.0 28631.0 185279.0 178808.0 117209.0 116342.0 86654.0 93774.0 58491.0 66604.0 156320.0 159926.0 118938.0 110571.0 103268.0 100840.0 92689.0 87964.0 145677.0 142394.0 325521.0 332374.0 166104.0 163396.0 56945.0 60371.0 112106.0 110220.0 94173.0 87385.0 21829.0 24033.0 226391.0 221547.0 286341.0 280845.0 125853.0 119879.0 85119.0 88954.0 309287.0 317204.0 59052.0 64597.0 262793.0 255840.0 135540.0 143516.0 103325.0 97585.0 224349.0 221580.0 333733.0 331793.0 130918.0 123327.0 47523.0 48268.0 231833.0 230855.0 34032.0 35660.0 111051.0 109215.0 228899.0 234756.0 107474.0 113397.0 103543.0 110380.0 33644.0 28112.0 42906.0 39944.0 301606.0 297368.0 235593.0 230629.0 44148.0 35979.0 346660.0 345532.0 219422.0 222931.0 56589.0 49787.0 158962.0 166617.0 45493.0 43440.0 49626.0 41667.0 151612.0 150023.0 40779.0 42940.0 138674.0 130806.0 264922.0 269414.0 200706.0 205193.0 300405.0 292238.0 155386.0 148496.0 44024.0 41838.0 63833.0 59801.0 106198.0 112390.0 178139.0 186131.0 134672.0 126355.0 99257.0 92480.0 86600.0 87647.0 220426.0 220164.0 43936.0 46462.0 142621.0 136035.0 19041.0 13428.0 280357.0 285951.0 188700.0 194147.0 79535.0 76392.0 127340.0 133974.0 98469.0 99972.0 243829.0 241071.0 205945.0 203316.0 75160.0 69608.0 161794.0 155944.0 104291.0 98479.0 48568.0 51082.0 199803.0 192956.0 73531.0 76581.0 30063.0 27031.0 31470.0 25025.0 148015.0 155896.0 54824.0 50956.0 238524.0 240132.0 36449.0 41961.0 340018.0 331996.0 67484.0 71284.0 306749.0 306958.0 76826.0 69476.0 105953.0 113802.0 146593.0 141707.0 113316.0 120662.0 15610.0 23577.0 8219.0 0.0 11368.0 19464.0 53744.0 61555.0 68795.0 178033.0 68795.0 68795.0 68795.0 68795.0 178033.0 178033.0 178033.0 178033.0
193737.0 186804.0 34802.0 31912.0 137358.0 142558.0 338149.0 330766.0 56205.0 52699.0 91860.0 100032.0 34771.0 32765.0 174130.0 167596.0 109888.0 108423.0 75577.0 82607.0 58403.0 66235.0 145249.0 148747.0 113264.0 104779.0 92019.0 89754.0 81700.0 77233.0 140450.0 137715.0 316072.0 322925.0 156949.0 154573.0 45806.0 49023.0 103472.0 101084.0 82928.0 76071.0 23734.0 21804.0 215833.0 210872.0 276053.0 270457.0 114509.0 108588.0 73758.0 77672.0 299920.0 307806.0 47708.0 53237.0 252296.0 245286.0 126993.0 134840.0 95117.0 89888.0 214723.0 212178.0 324284.0 322344.0 119565.0 112000.0 46883.0 45763.0 223693.0 223002.0 45216.0 46229.0 105322.0 104215.0 219450.0 225307.0 101596.0 106992.0 92362.0 99291.0 38925.0 35239.0 51295.0 49414.0 292110.0 287732.0 224896.0 219831.0 32781.0 24616.0 337211.0 335990.0 209090.0 212449.0 46847.0 40636.0 149369.0 156912.0 56858.0 54618.0 38659.0 30629.0 141342.0 139607.0 51159.0 52363.0 131052.0 123106.0 255461.0 259914.0 189828.0 194208.0 290956.0 282789.0 144080.0 137161.0 51885.0 48256.0 53816.0 49219.0 95695.0 102041.0 168653.0 176633.0 123361.0 115056.0 88172.0 81545.0 87588.0 87581.0 212813.0 212241.0 42730.0 43259.0 131294.0 124681.0 29186.0 21990.0 270062.0 275757.0 178207.0 183519.0 69241.0 66647.0 115973.0 122624.0 91445.0 93695.0 234655.0 232118.0 197275.0 194375.0 63998.0 58303.0 154779.0 149293.0 93348.0 87738.0 38938.0 40545.0 190255.0 183539.0 68309.0 72404.0 32420.0 32081.0 41364.0 35664.0 137884.0 145675.0 66132.0 62019.0 228054.0 229529.0 42481.0 46580.0 330239.0 322186.0 56141.0 59933.0 297295.0 297509.0 67471.0 60561.0 94595.0 102453.0 138598.0 134088.0 102058.0 109353.0 14198.0 22113.0 17736.0 11368.0 0.0 8263.0 65030.0 72816.0 67138.0 168584.0 67138.0 67138.0 67138.0 67138.0 168584.0 168584.0 168584.0 168584.0
186639.0 179804.0 38536.0 34071.0 131703.0 136636.0 332605.0 325165.0 63145.0 60166.0 83653.0 91832.0 39504.0 35905.0 166794.0 160144.0 103407.0 101577.0 67316.0 74362.0 57545.0 65007.0 138064.0 141368.0 107839.0 99312.0 84533.0 82605.0 73438.0 69012.0 135231.0 132868.0 310854.0 317707.0 149344.0 147142.0 37551.0 40954.0 96213.0 93549.0 75463.0 68432.0 26252.0 21648.0 209335.0 204227.0 269855.0 264144.0 106733.0 100983.0 65730.0 69490.0 294708.0 302559.0 39627.0 45425.0 245857.0 238780.0 119743.0 127507.0 88133.0 83240.0 206871.0 204427.0 319066.0 317126.0 111497.0 103874.0 45962.0 43489.0 216586.0 216055.0 52867.0 53280.0 99895.0 99285.0 214279.0 220135.0 96085.0 101109.0 85027.0 92118.0 45608.0 42689.0 58999.0 57448.0 286769.0 282248.0 218216.0 213016.0 24859.0 16672.0 331939.0 330910.0 200961.0 204275.0 39143.0 33387.0 144055.0 151463.0 64910.0 62844.0 30404.0 22368.0 135264.0 133352.0 58012.0 58451.0 124336.0 116358.0 250175.0 254794.0 182914.0 187135.0 285737.0 277570.0 136417.0 129413.0 56844.0 52287.0 45921.0 41067.0 89417.0 95946.0 163424.0 171381.0 115693.0 107429.0 79913.0 73286.0 87049.0 86277.0 206009.0 205260.0 41556.0 40549.0 123574.0 116858.0 37413.0 30049.0 263856.0 269668.0 171816.0 176951.0 61178.0 58858.0 108054.0 114819.0 85226.0 87959.0 227007.0 224578.0 189897.0 186858.0 56760.0 50720.0 148391.0 143139.0 86434.0 81148.0 31374.0 32430.0 182444.0 175792.0 63515.0 68311.0 37989.0 38857.0 49518.0 43924.0 129841.0 137596.0 74288.0 70271.0 221658.0 222966.0 49403.0 52809.0 324586.0 316503.0 48418.0 51869.0 292095.0 292319.0 59898.0 53288.0 86550.0 94375.0 131649.0 127368.0 93857.0 101200.0 19750.0 26378.0 24884.0 19464.0 8263.0 0.0 72786.0 80519.0 69266.0 163413.0 69266.0 69266.0 69266.0 69266.0 163413.0 163413.0 163413.0 163413.0
239628.0 231952.0 74009.0 78764.0 198496.0 204418.0 397652.0 390511.0 57925.0 49766.0 155583.0 163780.0 43887.0 52209.0 238953.0 232535.0 154249.0 155655.0 138442.0 145889.0 78344.0 84980.0 209908.0 213632.0 149628.0 142311.0 157012.0 154477.0 144048.0 138396.0 172984.0 167637.0 375416.0 382269.0 208771.0 204739.0 109345.0 113624.0 154244.0 154267.0 147917.0 141102.0 57056.0 65128.0 278906.0 274342.0 338077.0 332856.0 179505.0 173615.0 138410.0 141673.0 359266.0 367151.0 112279.0 118199.0 315110.0 308308.0 176502.0 184756.0 144328.0 137123.0 268280.0 264529.0 383628.0 381688.0 184032.0 176220.0 73291.0 79258.0 269001.0 266764.0 19976.0 22318.0 142516.0 138079.0 278794.0 284651.0 139774.0 147237.0 157259.0 164015.0 57273.0 50130.0 45599.0 38363.0 351501.0 347339.0 288422.0 283685.0 97645.0 89457.0 396555.0 395427.0 266686.0 270889.0 105084.0 97331.0 209277.0 217172.0 11410.0 19257.0 101638.0 94068.0 203644.0 202389.0 20518.0 27458.0 175898.0 168648.0 314823.0 319309.0 253949.0 258627.0 350300.0 342133.0 209110.0 202172.0 37569.0 44850.0 112688.0 110435.0 158922.0 164784.0 228058.0 236050.0 188391.0 180086.0 150957.0 143625.0 94648.0 99948.0 255451.0 256560.0 72858.0 79962.0 196315.0 189642.0 41398.0 49089.0 332124.0 337429.0 241131.0 246876.0 128651.0 123858.0 180817.0 187601.0 135585.0 134318.0 285506.0 281773.0 245843.0 244439.0 128874.0 123333.0 195734.0 188601.0 157750.0 151650.0 97337.0 101913.0 243654.0 236318.0 107151.0 106276.0 64297.0 56518.0 36858.0 35263.0 195082.0 203238.0 13306.0 20429.0 290809.0 292739.0 55327.0 62510.0 390186.0 382275.0 121150.0 124515.0 356644.0 356853.0 123054.0 114820.0 159173.0 166904.0 185014.0 178804.0 165784.0 173430.0 64256.0 68372.0 48100.0 53744.0 65030.0 72786.0 0.0 7871.0 101167.0 227928.0 101167.0 101167.0 101167.0 101167.0 227928.0 227928.0 227928.0 227928.0
244941.0 237205.0 81486.0 86413.0 206302.0 212247.0 405328.0 398203.0 63724.0 55721.0 163098.0 171291.0 50258.0 58542.0 246794.0 240359.0 159790.0 161470.0 145873.0 153358.0 83016.0 89267.0 217762.0 221465.0 154407.0 147279.0 164820.0 162323.0 151411.0 145645.0 177161.0 171577.0 383144.0 389997.0 214834.0 210633.0 116901.0 121299.0 160415.0 160673.0 155725.0 148879.0 63989.0 72160.0 286763.0 282208.0 345893.0 340687.0 187251.0 181404.0 146077.0 149237.0 366994.0 374879.0 119951.0 125942.0 322958.0 316162.0 182435.0 190696.0 150410.0 143073.0 274414.0 270528.0 391357.0 389416.0 191645.0 183794.0 78777.0 85078.0 274172.0 271762.0 27654.0 29070.0 147448.0 142727.0 286523.0 292379.0 144832.0 152426.0 165087.0 171862.0 64357.0 57431.0 51655.0 44657.0 359230.0 355067.0 296288.0 291555.0 105375.0 97190.0 404284.0 403155.0 273310.0 277613.0 112221.0 104419.0 217027.0 224935.0 18572.0 25729.0 109162.0 101654.0 211487.0 210245.0 26335.0 32119.0 181351.0 174214.0 322552.0 327037.0 261820.0 266493.0 358028.0 349861.0 216888.0 209926.0 41865.0 49598.0 119828.0 117779.0 166790.0 172644.0 235786.0 243778.0 196167.0 187870.0 158359.0 150959.0 97329.0 103071.0 260350.0 261649.0 78669.0 86004.0 204077.0 197372.0 49167.0 56916.0 339942.0 345230.0 248987.0 254740.0 135763.0 130796.0 188512.0 195337.0 141259.0 139671.0 291292.0 287424.0 251443.0 250213.0 136702.0 131117.0 200672.0 193400.0 165612.0 159520.0 104544.0 109306.0 249812.0 242420.0 112713.0 111411.0 71739.0 63944.0 44010.0 42921.0 201772.0 209953.0 16595.0 24950.0 298656.0 300598.0 62179.0 69185.0 397890.0 389988.0 128910.0 132179.0 364372.0 364581.0 129856.0 121571.0 166817.0 174522.0 190585.0 184229.0 173290.0 180983.0 72112.0 76137.0 55760.0 61555.0 72816.0 80519.0 7871.0 0.0 107939.0 235656.0 107939.0 107939.0 107939.0 107939.0 235656.0 235656.0 235656.0 235656.0
249526.0 243402.0 33292.0 35337.0 131325.0 138409.0 328359.0 321135.0 46895.0 53539.0 126955.0 133796.0 96105.0 97414.0 183483.0 179018.0 170653.0 167380.0 116844.0 121091.0 125530.0 133371.0 154464.0 160365.0 177758.0 169228.0 112043.0 105770.0 123436.0 122800.0 205338.0 203519.0 305958.0 312811.0 208797.0 208225.0 92538.0 89435.0 159981.0 155476.0 104539.0 101763.0 89809.0 88942.0 213451.0 210164.0 269783.0 265195.0 135822.0 127741.0 106667.0 113965.0 289808.0 297692.0 88814.0 88170.0 248445.0 242216.0 182844.0 189830.0 153675.0 150345.0 262112.0 261115.0 314170.0 312230.0 146755.0 141709.0 114021.0 112529.0 279075.0 279587.0 88720.0 94953.0 169876.0 169977.0 209336.0 215192.0 165956.0 170149.0 110237.0 113779.0 44275.0 52073.0 57108.0 63495.0 282043.0 277881.0 224102.0 220667.0 78028.0 74759.0 327097.0 325969.0 250760.0 252484.0 103862.0 100912.0 140034.0 148135.0 89757.0 82210.0 89706.0 83699.0 138719.0 138832.0 100102.0 105724.0 190251.0 182282.0 245365.0 249851.0 192960.0 199086.0 280842.0 272674.0 160498.0 155671.0 110171.0 109736.0 108311.0 100915.0 100929.0 104309.0 158600.0 166591.0 141771.0 133739.0 127471.0 124066.0 154576.0 154719.0 270462.0 268692.0 109849.0 109735.0 149818.0 145762.0 64593.0 60608.0 263929.0 268701.0 176257.0 183114.0 119700.0 120848.0 139943.0 143565.0 153652.0 157491.0 284593.0 283373.0 250648.0 246410.0 88120.0 88461.0 215326.0 210954.0 105814.0 97865.0 97835.0 94554.0 238750.0 233058.0 134550.0 139846.0 40422.0 47048.0 64505.0 68264.0 183973.0 190633.0 92852.0 84514.0 224357.0 227389.0 45843.0 38771.0 320764.0 312829.0 88850.0 96959.0 287186.0 287395.0 123494.0 119091.0 124185.0 131866.0 196277.0 193212.0 135648.0 140215.0 53939.0 45598.0 76270.0 68795.0 67138.0 69266.0 101167.0 107939.0 0.0 158470.0 0.0 0.0 0.0 0.0 158470.0 158470.0 158470.0 158470.0
238506.0 236487.0 155105.0 149371.0 34986.0 35028.0 171494.0 164411.0 183810.0 188460.0 122677.0 120562.0 202888.0 198964.0 75084.0 78498.0 199028.0 191448.0 133594.0 128765.0 211398.0 216364.0 66901.0 73696.0 217268.0 211139.0 96878.0 92464.0 135005.0 142135.0 239442.0 242642.0 149265.0 156118.0 196710.0 201614.0 142547.0 134468.0 180349.0 172526.0 102177.0 109679.0 189257.0 182886.0 68145.0 68493.0 116178.0 112592.0 95068.0 91411.0 119965.0 124850.0 132322.0 140267.0 135524.0 127556.0 97988.0 93095.0 191700.0 193544.0 182518.0 186013.0 222342.0 226086.0 157477.0 155537.0 108273.0 113029.0 201470.0 195359.0 260732.0 265317.0 210223.0 213414.0 212006.0 217317.0 50865.0 57106.0 208560.0 206844.0 93760.0 86341.0 173963.0 179394.0 191029.0 195567.0 124850.0 121060.0 80125.0 80081.0 143376.0 149722.0 170417.0 168223.0 197841.0 194778.0 159119.0 164086.0 20556.0 16669.0 217291.0 211476.0 148561.0 151405.0 38758.0 43398.0 218659.0 220823.0 206726.0 201399.0 88159.0 92214.0 64459.0 72531.0 124149.0 115982.0 85675.0 89876.0 220209.0 215591.0 155705.0 149917.0 77703.0 70508.0 7151.0 11757.0 88619.0 89649.0 130820.0 136565.0 238386.0 234156.0 261626.0 255959.0 197172.0 191730.0 89199.0 94711.0 186539.0 179059.0 110557.0 114448.0 42206.0 49871.0 150783.0 158330.0 100704.0 94275.0 193176.0 200878.0 247775.0 250835.0 231534.0 224138.0 113104.0 121085.0 229147.0 230070.0 86491.0 87390.0 160920.0 152851.0 207941.0 206777.0 195588.0 203707.0 164826.0 172518.0 192835.0 192751.0 166018.0 166783.0 223554.0 216221.0 75676.0 80817.0 177392.0 172534.0 164164.0 156343.0 124359.0 128140.0 129679.0 129575.0 162894.0 166617.0 112154.0 111706.0 205896.0 208479.0 120401.0 115283.0 164492.0 159580.0 185857.0 178033.0 168584.0 163413.0 227928.0 235656.0 158470.0 0.0 158470.0 158470.0 158470.0 158470.0 0.0 0.0 0.0 0.0
249526.0 243402.0 33292.0 35337.0 131325.0 138409.0 328359.0 321135.0 46895.0 53539.0 126955.0 133796.0 96105.0 97414.0 183483.0 179018.0 170653.0 167380.0 116844.0 121091.0 125530.0 133371.0 154464.0 160365.0 177758.0 169228.0 112043.0 105770.0 123436.0 122800.0 205338.0 203519.0 305958.0 312811.0 208797.0 208225.0 92538.0 89435.0 159981.0 155476.0 104539.0 101763.0 89809.0 88942.0 213451.0 210164.0 269783.0 265195.0 135822.0 127741.0 106667.0 113965.0 289808.0 297692.0 88814.0 88170.0 248445.0 242216.0 182844.0 189830.0 153675.0 150345.0 262112.0 261115.0 314170.0 312230.0 146755.0 141709.0 114021.0 112529.0 279075.0 279587.0 88720.0 94953.0 169876.0 169977.0 209336.0 215192.0 165956.0 170149.0 110237.0 113779.0 44275.0 52073.0 57108.0 63495.0 282043.0 277881.0 224102.0 220667.0 78028.0 74759.0 327097.0 325969.0 250760.0 252484.0 103862.0 100912.0 140034.0 148135.0 89757.0 82210.0 89706.0 83699.0 138719.0 138832.0 100102.0 105724.0 190251.0 182282.0 245365.0 249851.0 192960.0 199086.0 280842.0 272674.0 160498.0 155671.0 110171.0 109736.0 108311.0 100915.0 100929.0 104309.0 158600.0 166591.0 141771.0 133739.0 127471.0 124066.0 154576.0 154719.0 270462.0 268692.0 109849.0 109735.0 149818.0 145762.0 64593.0 60608.0 263929.0 268701.0 176257.0 183114.0 119700.0 120848.0 139943.0 143565.0 153652.0 157491.0 284593.0 283373.0 250648.0 246410.0 88120.0 88461.0 215326.0 210954.0 105814.0 97865.0 97835.0 94554.0 238750.0 233058.0 134550.0 139846.0 40422.0 47048.0 64505.0 68264.0 183973.0 190633.0 92852.0 84514.0 224357.0 227389.0 45843.0 38771.0 320764.0 312829.0 88850.0 96959.0 287186.0 287395.0 123494.0 119091.0 124185.0 131866.0 196277.0 193212.0 135648.0 140215.0 53939.0 45598.0 76270.0 68795.0 67138.0 69266.0 101167.0 107939.0 0.0 158470.0 0.0 0.0 0.0 0.0 158470.0 158470.0 158470.0 158470.0
249526.0 243402.0 33292.0 35337.0 131325.0 138409.0 328359.0 321135.0 46895.0 53539.0 126955.0 133796.0 96105.0 97414.0 183483.0 179018.0 170653.0 167380.0 116844.0 121091.0 125530.0 133371.0 154464.0 160365.0 177758.0 169228.0 112043.0 105770.0 123436.0 122800.0 205338.0 203519.0 305958.0 312811.0 208797.0 208225.0 92538.0 89435.0 159981.0 155476.0 104539.0 101763.0 89809.0 88942.0 213451.0 210164.0 269783.0 265195.0 135822.0 127741.0 106667.0 113965.0 289808.0 297692.0 88814.0 88170.0 248445.0 242216.0 182844.0 189830.0 153675.0 150345.0 262112.0 261115.0 314170.0 312230.0 146755.0 141709.0 114021.0 112529.0 279075.0 279587.0 88720.0 94953.0 169876.0 169977.0 209336.0 215192.0 165956.0 170149.0 110237.0 113779.0 44275.0 52073.0 57108.0 63495.0 282043.0 277881.0 224102.0 220667.0 78028.0 74759.0 327097.0 325969.0 250760.0 252484.0 103862.0 100912.0 140034.0 148135.0 89757.0 82210.0 89706.0 83699.0 138719.0 138832.0 100102.0 105724.0 190251.0 182282.0 245365.0 249851.0 192960.0 199086.0 280842.0 272674.0 160498.0 155671.0 110171.0 109736.0 108311.0 100915.0 100929.0 104309.0 158600.0 166591.0 141771.0 133739.0 127471.0 124066.0 154576.0 154719.0 270462.0 268692.0 109849.0 109735.0 149818.0 145762.0 64593.0 60608.0 263929.0 268701.0 176257.0 183114.0 119700.0 120848.0 139943.0 143565.0 153652.0 157491.0 284593.0 283373.0 250648.0 246410.0 88120.0 88461.0 215326.0 210954.0 105814.0 97865.0 97835.0 94554.0 238750.0 233058.0 134550.0 139846.0 40422.0 47048.0 64505.0 68264.0 183973.0 190633.0 92852.0 84514.0 224357.0 227389.0 45843.0 38771.0 320764.0 312829.0 88850.0 96959.0 287186.0 287395.0 123494.0 119091.0 124185.0 131866.0 196277.0 193212.0 135648.0 140215.0 53939.0 45598.0 76270.0 68795.0 67138.0 69266.0 101167.0 107939.0 0.0 158470.0 0.0 0.0 0.0 0.0 158470.0 158470.0 158470.0 158470.0
249526.0 243402.0 33292.0 35337.0 131325.0 138409.0 328359.0 321135.0 46895.0 53539.0 126955.0 133796.0 96105.0 97414.0 183483.0 179018.0 170653.0 167380.0 116844.0 121091.0 125530.0 133371.0 154464.0 160365.0 177758.0 169228.0 112043.0 105770.0 123436.0 122800.0 205338.0 203519.0 305958.0 312811.0 208797.0 208225.0 92538.0 89435.0 159981.0 155476.0 104539.0 101763.0 89809.0 88942.0 213451.0 210164.0 269783.0 265195.0 135822.0 127741.0 106667.0 113965.0 289808.0 297692.0 88814.0 88170.0 248445.0 242216.0 182844.0 189830.0 153675.0 150345.0 262112.0 261115.0 314170.0 312230.0 146755.0 141709.0 114021.0 112529.0 279075.0 279587.0 88720.0 94953.0 169876.0 169977.0 209336.0 215192.0 165956.0 170149.0 110237.0 113779.0 44275.0 52073.0 57108.0 63495.0 282043.0 277881.0 224102.0 220667.0 78028.0 74759.0 327097.0 325969.0 250760.0 252484.0 103862.0 100912.0 140034.0 148135.0 89757.0 82210.0 89706.0 83699.0 138719.0 138832.0 100102.0 105724.0 190251.0 182282.0 245365.0 249851.0 192960.0 199086.0 280842.0 272674.0 160498.0 155671.0 110171.0 109736.0 108311.0 100915.0 100929.0 104309.0 158600.0 166591.0 141771.0 133739.0 127471.0 124066.0 154576.0 154719.0 270462.0 268692.0 109849.0 109735.0 149818.0 145762.0 64593.0 60608.0 263929.0 268701.0 176257.0 183114.0 119700.0 120848.0 139943.0 143565.0 153652.0 157491.0 284593.0 283373.0 250648.0 246410.0 88120.0 88461.0 215326.0 210954.0 105814.0 97865.0 97835.0 94554.0 238750.0 233058.0 134550.0 139846.0 40422.0 47048.0 64505.0 68264.0 183973.0 190633.0 92852.0 84514.0 224357.0 227389.0 45843.0 38771.0 320764.0 312829.0 88850.0 96959.0 287186.0 287395.0 123494.0 119091.0 124185.0 131866.0 196277.0 193212.0 135648.0 140215.0 53939.0 45598.0 76270.0 68795.0 67138.0 69266.0 101167.0 107939.0 0.0 158470.0 0.0 0.0 0.0 0.0 158470.0 158470.0 158470.0 158470.0
249526.0 243402.0 33292.0 35337.0 131325.0 138409.0 328359.0 321135.0 46895.0 53539.0 126955.0 133796.0 96105.0 97414.0 183483.0 179018.0 170653.0 167380.0 116844.0 121091.0 125530.0 133371.0 154464.0 160365.0 177758.0 169228.0 112043.0 105770.0 123436.0 122800.0 205338.0 203519.0 305958.0 312811.0 208797.0 208225.0 92538.0 89435.0 159981.0 155476.0 104539.0 101763.0 89809.0 88942.0 213451.0 210164.0 269783.0 265195.0 135822.0 127741.0 106667.0 113965.0 289808.0 297692.0 88814.0 88170.0 248445.0 242216.0 182844.0 189830.0 153675.0 150345.0 262112.0 261115.0 314170.0 312230.0 146755.0 141709.0 114021.0 112529.0 279075.0 279587.0 88720.0 94953.0 169876.0 169977.0 209336.0 215192.0 165956.0 170149.0 110237.0 113779.0 44275.0 52073.0 57108.0 63495.0 282043.0 277881.0 224102.0 220667.0 78028.0 74759.0 327097.0 325969.0 250760.0 252484.0 103862.0 100912.0 140034.0 148135.0 89757.0 82210.0 89706.0 83699.0 138719.0 138832.0 100102.0 105724.0 190251.0 182282.0 245365.0 249851.0 192960.0 199086.0 280842.0 272674.0 160498.0 155671.0 110171.0 109736.0 108311.0 100915.0 100929.0 104309.0 158600.0 166591.0 141771.0 133739.0 127471.0 124066.0 154576.0 154719.0 270462.0 268692.0 109849.0 109735.0 149818.0 145762.0 64593.0 60608.0 263929.0 268701.0 176257.0 183114.0 119700.0 120848.0 139943.0 143565.0 153652.0 157491.0 284593.0 283373.0 250648.0 246410.0 88120.0 88461.0 215326.0 210954.0 105814.0 97865.0 97835.0 94554.0 238750.0 233058.0 134550.0 139846.0 40422.0 47048.0 64505.0 68264.0 183973.0 190633.0 92852.0 84514.0 224357.0 227389.0 45843.0 38771.0 320764.0 312829.0 88850.0 96959.0 287186.0 287395.0 123494.0 119091.0 124185.0 131866.0 196277.0 193212.0 135648.0 140215.0 53939.0 45598.0 76270.0 68795.0 67138.0 69266.0 101167.0 107939.0 0.0 158470.0 0.0 0.0 0.0 0.0 158470.0 158470.0 158470.0 158470.0
238506.0 236487.0 155105.0 149371.0 34986.0 35028.0 171494.0 164411.0 183810.0 188460.0 122677.0 120562.0 202888.0 198964.0 75084.0 78498.0 199028.0 191448.0 133594.0 128765.0 211398.0 216364.0 66901.0 73696.0 217268.0 211139.0 96878.0 92464.0 135005.0 142135.0 239442.0 242642.0 149265.0 156118.0 196710.0 201614.0 142547.0 134468.0 180349.0 172526.0 102177.0 109679.0 189257.0 182886.0 68145.0 68493.0 116178.0 112592.0 95068.0 91411.0 119965.0 124850.0 132322.0 140267.0 135524.0 127556.0 97988.0 93095.0 191700.0 193544.0 182518.0 186013.0 222342.0 226086.0 157477.0 155537.0 108273.0 113029.0 201470.0 195359.0 260732.0 265317.0 210223.0 213414.0 212006.0 217317.0 50865.0 57106.0 208560.0 206844.0 93760.0 86341.0 173963.0 179394.0 191029.0 195567.0 124850.0 121060.0 80125.0 80081.0 143376.0 149722.0 170417.0 168223.0 197841.0 194778.0 159119.0 164086.0 20556.0 16669.0 217291.0 211476.0 148561.0 151405.0 38758.0 43398.0 218659.0 220823.0 206726.0 201399.0 88159.0 92214.0 64459.0 72531.0 124149.0 115982.0 85675.0 89876.0 220209.0 215591.0 155705.0 149917.0 77703.0 70508.0 7151.0 11757.0 88619.0 89649.0 130820.0 136565.0 238386.0 234156.0 261626.0 255959.0 197172.0 191730.0 89199.0 94711.0 186539.0 179059.0 110557.0 114448.0 42206.0 49871.0 150783.0 158330.0 100704.0 94275.0 193176.0 200878.0 247775.0 250835.0 231534.0 224138.0 113104.0 121085.0 229147.0 230070.0 86491.0 87390.0 160920.0 152851.0 207941.0 206777.0 195588.0 203707.0 164826.0 172518.0 192835.0 192751.0 166018.0 166783.0 223554.0 216221.0 75676.0 80817.0 177392.0 172534.0 164164.0 156343.0 124359.0 128140.0 129679.0 129575.0 162894.0 166617.0 112154.0 111706.0 205896.0 208479.0 120401.0 115283.0 164492.0 159580.0 185857.0 178033.0 168584.0 163413.0 227928.0 235656.0 158470.0 0.0 158470.0 158470.0 158470.0 158470.0 0.0 0.0 0.0 0.0
238506.0 236487.0 155105.0 149371.0 34986.0 35028.0 171494.0 164411.0 183810.0 188460.0 122677.0 120562.0 202888.0 198964.0 75084.0 78498.0 199028.0 191448.0 133594.0 128765.0 211398.0 216364.0 66901.0 73696.0 217268.0 211139.0 96878.0 92464.0 135005.0 142135.0 239442.0 242642.0 149265.0 156118.0 196710.0 201614.0 142547.0 134468.0 180349.0 172526.0 102177.0 109679.0 189257.0 182886.0 68145.0 68493.0 116178.0 112592.0 95068.0 91411.0 119965.0 124850.0 132322.0 140267.0 135524.0 127556.0 97988.0 93095.0 191700.0 193544.0 182518.0 186013.0 222342.0 226086.0 157477.0 155537.0 108273.0 113029.0 201470.0 195359.0 260732.0 265317.0 210223.0 213414.0 212006.0 217317.0 50865.0 57106.0 208560.0 206844.0 93760.0 86341.0 173963.0 179394.0 191029.0 195567.0 124850.0 121060.0 80125.0 80081.0 143376.0 149722.0 170417.0 168223.0 197841.0 194778.0 159119.0 164086.0 20556.0 16669.0 217291.0 211476.0 148561.0 151405.0 38758.0 43398.0 218659.0 220823.0 206726.0 201399.0 88159.0 92214.0 64459.0 72531.0 124149.0 115982.0 85675.0 89876.0 220209.0 215591.0 155705.0 149917.0 77703.0 70508.0 7151.0 11757.0 88619.0 89649.0 130820.0 136565.0 238386.0 234156.0 261626.0 255959.0 197172.0 191730.0 89199.0 94711.0 186539.0 179059.0 110557.0 114448.0 42206.0 49871.0 150783.0 158330.0 100704.0 94275.0 193176.0 200878.0 247775.0 250835.0 231534.0 224138.0 113104.0 121085.0 229147.0 230070.0 86491.0 87390.0 160920.0 152851.0 207941.0 206777.0 195588.0 203707.0 164826.0 172518.0 192835.0 192751.0 166018.0 166783.0 223554.0 216221.0 75676.0 80817.0 177392.0 172534.0 164164.0 156343.0 124359.0 128140.0 129679.0 129575.0 162894.0 166617.0 112154.0 111706.0 205896.0 208479.0 120401.0 115283.0 164492.0 159580.0 185857.0 178033.0 168584.0 163413.0 227928.0 235656.0 158470.0 0.0 158470.0 158470.0 158470.0 158470.0 0.0 0.0 0.0 0.0
238506.0 236487.0 155105.0 149371.0 34986.0 35028.0 171494.0 164411.0 183810.0 188460.0 122677.0 120562.0 202888.0 198964.0 75084.0 78498.0 199028.0 191448.0 133594.0 128765.0 211398.0 216364.0 66901.0 73696.0 217268.0 211139.0 96878.0 92464.0 135005.0 142135.0 239442.0 242642.0 149265.0 156118.0 196710.0 201614.0 142547.0 134468.0 180349.0 172526.0 102177.0 109679.0 189257.0 182886.0 68145.0 68493.0 116178.0 112592.0 95068.0 91411.0 119965.0 124850.0 132322.0 140267.0 135524.0 127556.0 97988.0 93095.0 191700.0 193544.0 182518.0 186013.0 222342.0 226086.0 157477.0 155537.0 108273.0 113029.0 201470.0 195359.0 260732.0 265317.0 210223.0 213414.0 212006.0 217317.0 50865.0 57106.0 208560.0 206844.0 93760.0 86341.0 173963.0 179394.0 191029.0 195567.0 124850.0 121060.0 80125.0 80081.0 143376.0 149722.0 170417.0 168223.0 197841.0 194778.0 159119.0 164086.0 20556.0 16669.0 217291.0 211476.0 148561.0 151405.0 38758.0 43398.0 218659.0 220823.0 206726.0 201399.0 88159.0 92214.0 64459.0 72531.0 124149.0 115982.0 85675.0 89876.0 220209.0 215591.0 155705.0 149917.0 77703.0 70508.0 7151.0 11757.0 88619.0 89649.0 130820.0 136565.0 238386.0 234156.0 261626.0 255959.0 197172.0 191730.0 89199.0 94711.0 186539.0 179059.0 110557.0 114448.0 42206.0 49871.0 150783.0 158330.0 100704.0 94275.0 193176.0 200878.0 247775.0 250835.0 231534.0 224138.0 113104.0 121085.0 229147.0 230070.0 86491.0 87390.0 160920.0 152851.0 207941.0 206777.0 195588.0 203707.0 164826.0 172518.0 192835.0 192751.0 166018.0 166783.0 223554.0 216221.0 75676.0 80817.0 177392.0 172534.0 164164.0 156343.0 124359.0 128140.0 129679.0 129575.0 162894.0 166617.0 112154.0 111706.0 205896.0 208479.0 120401.0 115283.0 164492.0 159580.0 185857.0 178033.0 168584.0 163413.0 227928.0 235656.0 158470.0 0.0 158470.0 158470.0 158470.0 158470.0 0.0 0.0 0.0 0.0
238506.0 236487.0 155105.0 149371.0 34986.0 35028.0 171494.0 164411.0 183810.0 188460.0 122677.0 120562.0 202888.0 198964.0 75084.0 78498.0 199028.0 191448.0 133594.0 128765.0 211398.0 216364.0 66901.0 73696.0 217268.0 211139.0 96878.0 92464.0 135005.0 142135.0 239442.0 242642.0 149265.0 156118.0 196710.0 201614.0 142547.0 134468.0 180349.0 172526.0 102177.0 109679.0 189257.0 182886.0 68145.0 68493.0 116178.0 112592.0 95068.0 91411.0 119965.0 124850.0 132322.0 140267.0 135524.0 127556.0 97988.0 93095.0 191700.0 193544.0 182518.0 186013.0 222342.0 226086.0 157477.0 155537.0 108273.0 113029.0 201470.0 195359.0 260732.0 265317.0 210223.0 213414.0 212006.0 217317.0 50865.0 57106.0 208560.0 206844.0 93760.0 86341.0 173963.0 179394.0 191029.0 195567.0 124850.0 121060.0 80125.0 80081.0 143376.0 149722.0 170417.0 168223.0 197841.0 194778.0 159119.0 164086.0 20556.0 16669.0 217291.0 211476.0 148561.0 151405.0 38758.0 43398.0 218659.0 220823.0 206726.0 201399.0 88159.0 92214.0 64459.0 72531.0 124149.0 115982.0 85675.0 89876.0 220209.0 215591.0 155705.0 149917.0 77703.0 70508.0 7151.0 11757.0 88619.0 89649.0 130820.0 136565.0 238386.0 234156.0 261626.0 255959.0 197172.0 191730.0 89199.0 94711.0 186539.0 179059.0 110557.0 114448.0 42206.0 49871.0 150783.0 158330.0 100704.0 94275.0 193176.0 200878.0 247775.0 250835.0 231534.0 224138.0 113104.0 121085.0 229147.0 230070.0 86491.0 87390.0 160920.0 152851.0 207941.0 206777.0 195588.0 203707.0 164826.0 172518.0 192835.0 192751.0 166018.0 166783.0 223554.0 216221.0 75676.0 80817.0 177392.0 172534.0 164164.0 156343.0 124359.0 128140.0 129679.0 129575.0 162894.0 166617.0 112154.0 111706.0 205896.0 208479.0 120401.0 115283.0 164492.0 159580.0 185857.0 178033.0 168584.0 163413.0 227928.0 235656.0 158470.0 0.0 158470.0 158470.0 158470.0 158470.0 0.0 0.0 0.0 0.0
FIXED_EDGES_SECTION
1 2
3 4
5 6
7 8
9 10
11 12
13 14
15 16
17 18
19 20
21 22
23 24
25 26
27 28
29 30
31 32
33 34
35 36
37 38
39 40
41 42
43 44
45 46
47 48
49 50
51 52
53 54
55 56
57 58
59 60
61 62
63 64
65 66
67 68
69 70
71 72
73 74
75 76
77 78
79 80
81 82
83 84
85 86
87 88
89 90
91 92
93 94
95 96
97 98
99 100
101 102
103 104
105 106
107 108
109 110
111 112
113 114
115 116
117 118
119 120
121 122
123 124
125 126
127 128
129 130
131 132
133 134
135 136
137 138
139 140
141 142
143 144
145 146
147 148
149 150
151 152
153 154
155 156
157 158
159 160
161 162
163 164
165 166
167 168
169 170
171 172
173 174
175 176
177 178
179 180
181 182
183 184
185 186
187 188
189 190
191 192
193 194
195 196
197 198
199 200
-1 
DEMAND_SECTION
1 380
2 380
3 485
4 485
5 100
6 100
7 229
8 229
9 292
10 292
11 94
12 94
13 375
14 375
15 68
16 68
17 479
18 479
19 191
20 191
21 55
22 55
23 342
24 342
25 217
26 217
27 214
28 214
29 256
30 256
31 68
32 68
33 280
34 280
35 157
36 157
37 171
38 171
39 82
40 82
41 432
42 432
43 57
44 57
45 319
46 319
47 268
48 268
49 119
50 119
51 114
52 114
53 99
54 99
55 277
56 277
57 244
58 244
59 74
60 74
61 211
62 211
63 234
64 234
65 71
66 71
67 271
68 271
69 497
70 497
71 138
72 138
73 274
74 274
75 224
76 224
77 114
78 114
79 211
80 211
81 80
82 80
83 104
84 104
85 219
86 219
87 322
88 322
89 336
90 336
91 394
92 394
93 491
94 491
95 321
96 321
97 353
98 353
99 235
100 235
101 216
102 216
103 207
104 207
105 399
106 399
107 500
108 500
109 186
110 186
111 184
112 184
113 84
114 84
115 224
116 224
117 130
118 130
119 265
120 265
121 341
122 341
123 75
124 75
125 37
126 37
127 223
128 223
129 89
130 89
131 497
132 497
133 542
134 542
135 461
136 461
137 158
138 158
139 396
140 396
141 350
142 350
143 313
144 313
145 96
146 96
147 421
148 421
149 90
150 90
151 120
152 120
153 258
154 258
155 56
156 56
157 76
158 76
159 373
160 373
161 293
162 293
163 277
164 277
165 247
166 247
167 618
168 618
169 247
170 247
171 112
172 112
173 251
174 251
175 620
176 620
177 341
178 341
179 421
180 421
181 94
182 94
183 60
184 60
185 349
186 349
187 380
188 380
189 72
190 72
191 279
192 279
193 100
194 100
195 493
196 493
197 155
198 155
199 316
200 316
201 0
202 0
203 0
204 0
205 0
206 0
207 0
208 0
209 0
210 0
DEPOT_SECTION
201 
-1 
CAPACITIES_SECTION
12500 
13750 
15000 
-1 
EOF