NAME: GFS_20_1
TYPE: GFSP
DIMENSION: 46
VEHICLES: 2
CAPACITY: 5000.0
TRIP_DIST_LIMIT: 600000.0
TOTAL_DIST_LIMIT: 2100000.0
EDGE_WEIGHT_TYPE: EXPLICIT
EDGE_WEIGHT_FORMAT: FULL_MATRIX
EDGE_WEIGHT_SECTION
0.0 8006.0 20035.0 12156.0 38861.0 35602.0 132373.0 139227.0 47795.0 40507.0 34696.0 26479.0 32901.0 33636.0 183404.0 181853.0 214621.0 207572.0 80619.0 80385.0 47232.0 42146.0 127804.0 130367.0 91195.0 93105.0 195552.0 187916.0 24872.0 17052.0 215676.0 222614.0 53379.0 47594.0 65784.0 71036.0 212627.0 218833.0 27083.0 34992.0 123436.0 135005.0 123436.0 123436.0 135005.0 135005.0
8006.0 0.0 24384.0 17608.0 41484.0 36812.0 139672.0 146618.0 42994.0 36255.0 35229.0 26675.0 26141.0 28213.0 191219.0 189737.0 222596.0 215558.0 77385.0 76434.0 41117.0 36923.0 125520.0 128536.0 83476.0 85227.0 203557.0 195921.0 32440.0 24540.0 223676.0 230607.0 61296.0 55357.0 62789.0 68724.0 220415.0 226576.0 23497.0 31434.0 122800.0 142135.0 122800.0 122800.0 142135.0 142135.0
20035.0 24384.0 0.0 8078.0 19458.0 18449.0 118066.0 125334.0 67206.0 60182.0 19002.0 13899.0 37090.0 33283.0 172237.0 171470.0 205704.0 199018.0 100635.0 100249.0 46900.0 39558.0 113718.0 115407.0 96387.0 99846.0 188258.0 180791.0 31416.0 26609.0 207694.0 214258.0 52086.0 48845.0 85814.0 91035.0 201097.0 206896.0 23735.0 29071.0 106667.0 119965.0 106667.0 106667.0 119965.0 119965.0
12156.0 17608.0 8078.0 0.0 27438.0 25504.0 122581.0 129655.0 59789.0 52598.0 25389.0 18403.0 35441.0 33340.0 175327.0 174202.0 207814.0 200962.0 92751.0 92536.0 47387.0 40788.0 120110.0 122112.0 95181.0 98027.0 189640.0 182091.0 26028.0 20020.0 209396.0 216129.0 50294.0 45967.0 77901.0 83021.0 204381.0 210372.0 24509.0 31342.0 113965.0 124850.0 113965.0 113965.0 124850.0 124850.0
38861.0 41484.0 19458.0 27438.0 0.0 7992.0 112321.0 120020.0 84259.0 77721.0 11271.0 16993.0 44032.0 37344.0 169726.0 169899.0 205457.0 199229.0 118824.0 117891.0 47830.0 39756.0 97024.0 98015.0 98446.0 103263.0 189928.0 182719.0 49038.0 45429.0 208450.0 214557.0 63540.0 62300.0 104144.0 109747.0 197863.0 203116.0 28952.0 29109.0 88120.0 113104.0 88120.0 88120.0 113104.0 113104.0
35602.0 36812.0 18449.0 25504.0 7992.0 0.0 120263.0 127944.0 78855.0 72671.0 3279.0 10482.0 36336.0 29453.0 177458.0 177525.0 212930.0 206630.0 114051.0 112696.0 39869.0 31793.0 95326.0 96958.0 90527.0 95289.0 197081.0 189819.0 49762.0 45020.0 215772.0 221954.0 67580.0 65492.0 99553.0 105531.0 205676.0 210976.0 21399.0 21117.0 88461.0 121085.0 88461.0 88461.0 121085.0 121085.0
132373.0 139672.0 118066.0 122581.0 112321.0 120263.0 0.0 7995.0 177042.0 169203.0 123521.0 126864.0 154267.0 148737.0 60798.0 63494.0 100688.0 96261.0 201751.0 204549.0 160129.0 152054.0 174821.0 172170.0 210763.0 215511.0 93181.0 87963.0 116760.0 122118.0 106678.0 110953.0 93134.0 100833.0 187699.0 189294.0 86809.0 91394.0 139437.0 141249.0 158600.0 7151.0 158600.0 158600.0 7151.0 7151.0
139227.0 146618.0 125334.0 129655.0 120020.0 127944.0 7995.0 0.0 183389.0 175545.0 131195.0 134387.0 161707.0 156281.0 52885.0 55805.0 92968.0 88710.0 207356.0 210353.0 167800.0 159725.0 182812.0 180161.0 218466.0 223144.0 86271.0 81340.0 122924.0 128512.0 99180.0 103290.0 98401.0 106188.0 193451.0 194806.0 78827.0 83470.0 146937.0 148888.0 166591.0 11757.0 166591.0 166591.0 11757.0 11757.0
47795.0 42994.0 67206.0 59789.0 84259.0 78855.0 177042.0 183389.0 0.0 7844.0 76756.0 68389.0 51905.0 59077.0 223668.0 221059.0 251158.0 243651.0 36298.0 33922.0 64906.0 66009.0 157774.0 162162.0 82275.0 79803.0 229846.0 222096.0 60624.0 54927.0 250721.0 258151.0 88367.0 80683.0 23531.0 31411.0 253034.0 259741.0 60629.0 66892.0 159981.0 180349.0 159981.0 159981.0 180349.0 180349.0
40507.0 36255.0 60182.0 52598.0 77721.0 72671.0 169203.0 175545.0 7844.0 0.0 70743.0 62269.0 48227.0 54903.0 215930.0 213372.0 243651.0 236173.0 41469.0 40180.0 62188.0 62387.0 154485.0 158571.0 84581.0 82814.0 222489.0 214740.0 52792.0 47092.0 243323.0 250721.0 80683.0 73038.0 27405.0 34453.0 245298.0 251984.0 55412.0 62134.0 155476.0 172526.0 155476.0 155476.0 172526.0 172526.0
34696.0 35229.0 19002.0 25389.0 11271.0 3279.0 123521.0 131195.0 76756.0 70743.0 0.0 8555.0 33214.0 26231.0 180633.0 180658.0 216001.0 209674.0 112185.0 110648.0 36609.0 28533.0 94831.0 96728.0 87284.0 92020.0 200027.0 192745.0 50408.0 45245.0 218783.0 224995.0 69424.0 67020.0 97782.0 103915.0 208883.0 214200.0 18400.0 17838.0 88850.0 124359.0 88850.0 88850.0 124359.0 124359.0
26479.0 26675.0 13899.0 18403.0 16993.0 10482.0 126864.0 134387.0 68389.0 62269.0 8555.0 0.0 27684.0 21913.0 182774.0 182419.0 217237.0 210718.0 103689.0 102247.0 34458.0 26678.0 101939.0 104184.0 84905.0 89011.0 200464.0 193073.0 44278.0 38407.0 219604.0 226007.0 65962.0 62711.0 89254.0 95362.0 211338.0 216880.0 12612.0 15754.0 96959.0 128140.0 96959.0 96959.0 128140.0 128140.0
32901.0 26141.0 37090.0 35441.0 44032.0 36336.0 154267.0 161707.0 51905.0 48227.0 33214.0 27684.0 0.0 7955.0 209276.0 208558.0 242721.0 235980.0 88125.0 84901.0 15479.0 14166.0 106261.0 110390.0 59745.0 62821.0 224938.0 217416.0 57678.0 49934.0 244556.0 251196.0 85132.0 79981.0 75176.0 82601.0 238070.0 243783.0 15137.0 17193.0 108311.0 155705.0 108311.0 108311.0 155705.0 155705.0
33636.0 28213.0 33283.0 33340.0 37344.0 29453.0 148737.0 156281.0 59077.0 54903.0 26231.0 21913.0 7955.0 0.0 204605.0 204149.0 238742.0 232131.0 95368.0 92386.0 14063.0 8721.0 99940.0 103764.0 63254.0 67137.0 221522.0 214065.0 57615.0 50189.0 240888.0 247394.0 83632.0 79077.0 82118.0 89356.0 233219.0 238784.0 9620.0 9326.0 100915.0 149917.0 100915.0 100915.0 149917.0 149917.0
183404.0 191219.0 172237.0 175327.0 169726.0 177458.0 60798.0 52885.0 223668.0 215930.0 180633.0 182774.0 209276.0 204605.0 0.0 8300.0 40965.0 38242.0 242565.0 246774.0 216947.0 208931.0 235515.0 232864.0 267628.0 271738.0 42682.0 41635.0 163546.0 170260.0 48826.0 51548.0 135374.0 143160.0 229844.0 229674.0 29371.0 36247.0 195049.0 197931.0 219294.0 63526.0 219294.0 219294.0 63526.0 63526.0
181853.0 189737.0 171470.0 174202.0 169899.0 177525.0 63494.0 55805.0 221059.0 213372.0 180658.0 182419.0 208558.0 204149.0 8300.0 0.0 37198.0 33112.0 238916.0 243331.0 216747.0 208776.0 237714.0 235064.0 267324.0 271216.0 35143.0 33554.0 161315.0 168223.0 43700.0 47485.0 132693.0 140395.0 226452.0 226009.0 32927.0 40505.0 194555.0 197750.0 221494.0 67000.0 221494.0 221494.0 67000.0 67000.0
214621.0 222596.0 205704.0 207814.0 205457.0 212930.0 100688.0 92968.0 251158.0 243651.0 216001.0 217237.0 242721.0 238742.0 40965.0 37198.0 0.0 8032.0 265845.0 270891.0 251682.0 243795.0 274850.0 272199.0 301996.0 305534.0 25501.0 32199.0 192779.0 200063.0 10953.0 10620.0 163424.0 170813.0 254283.0 252978.0 31804.0 37473.0 229123.0 232763.0 258629.0 104040.0 258629.0 258629.0 104040.0 104040.0
207572.0 215558.0 199018.0 200962.0 199229.0 206630.0 96261.0 88710.0 243651.0 236173.0 209674.0 210718.0 235980.0 232131.0 38242.0 33112.0 8032.0 0.0 258030.0 263121.0 245175.0 237323.0 269940.0 267289.0 295371.0 298801.0 17690.0 24186.0 185517.0 192855.0 10620.0 15330.0 156091.0 163424.0 246542.0 245171.0 35399.0 42028.0 222512.0 226298.0 253719.0 100037.0 253719.0 253719.0 100037.0 100037.0
80619.0 77385.0 100635.0 92751.0 118824.0 114051.0 201751.0 207356.0 36298.0 41469.0 112185.0 103689.0 88125.0 95368.0 242565.0 238916.0 265845.0 258030.0 0.0 7913.0 100589.0 102171.0 193562.0 198152.0 108745.0 104226.0 242833.0 235151.0 86259.0 82805.0 263993.0 271762.0 109108.0 101255.0 14913.0 12910.0 271633.0 278801.0 96718.0 103150.0 196277.0 205896.0 196277.0 196277.0 205896.0 205896.0
80385.0 76434.0 100249.0 92536.0 117891.0 112696.0 204549.0 210353.0 33922.0 40180.0 110648.0 102247.0 84901.0 92386.0 246774.0 243331.0 270891.0 263121.0 7913.0 0.0 96628.0 98763.0 189463.0 194280.0 101991.0 97218.0 248141.0 240436.0 88270.0 84187.0 269281.0 277002.0 112479.0 104595.0 16982.0 18567.0 275941.0 283022.0 94482.0 100534.0 193212.0 208479.0 193212.0 193212.0 208479.0 208479.0
47232.0 41117.0 46900.0 47387.0 47830.0 39869.0 160129.0 167800.0 64906.0 62188.0 36609.0 34458.0 15479.0 14063.0 216947.0 216747.0 251682.0 245175.0 100589.0 96628.0 0.0 8076.0 92975.0 97654.0 50726.0 55447.0 234863.0 227449.0 71538.0 64016.0 254056.0 260465.0 97681.0 93134.0 88426.0 96150.0 245343.0 250733.0 23219.0 19016.0 97835.0 160920.0 97835.0 97835.0 160920.0 160920.0
42146.0 36923.0 39558.0 40788.0 39756.0 31793.0 152054.0 159725.0 66009.0 62387.0 28533.0 26678.0 14166.0 8721.0 208931.0 208776.0 243795.0 237323.0 102171.0 98763.0 8076.0 0.0 92111.0 96226.0 58783.0 63513.0 227140.0 219751.0 65743.0 58466.0 246250.0 252621.0 90957.0 86745.0 89327.0 96767.0 237299.0 242674.0 16283.0 11034.0 94554.0 152851.0 94554.0 94554.0 152851.0 152851.0
127804.0 125520.0 113718.0 120110.0 97024.0 95326.0 174821.0 182812.0 157774.0 154485.0 94831.0 101939.0 106261.0 99940.0 235515.0 237714.0 274850.0 269940.0 193562.0 189463.0 92975.0 92111.0 0.0 7995.0 109301.0 117454.0 264666.0 258437.0 145088.0 140063.0 280150.0 284922.0 159618.0 159142.0 181242.0 188808.0 261586.0 266072.0 102072.0 94257.0 36893.0 174691.0 36893.0 36893.0 174691.0 174691.0
130367.0 128536.0 115407.0 122112.0 98015.0 96958.0 172170.0 180161.0 162162.0 158571.0 96728.0 104184.0 110390.0 103764.0 232864.0 235064.0 272199.0 267289.0 198152.0 194280.0 97654.0 96226.0 7995.0 0.0 116384.0 124532.0 262015.0 255786.0 146617.0 141932.0 277499.0 282271.0 159784.0 159702.0 185544.0 192985.0 258935.0 263421.0 105235.0 97560.0 31861.0 172040.0 31861.0 31861.0 172040.0 172040.0
91195.0 83476.0 96387.0 95181.0 98446.0 90527.0 210763.0 218466.0 82275.0 84581.0 87284.0 84905.0 59745.0 63254.0 267628.0 267324.0 301996.0 295371.0 108745.0 101991.0 50726.0 58783.0 109301.0 116384.0 0.0 8154.0 284592.0 277094.0 115916.0 108013.0 304081.0 310626.0 144416.0 138787.0 102234.0 110421.0 296064.0 301457.0 72873.0 69729.0 125530.0 211398.0 125530.0 125530.0 211398.0 211398.0
93105.0 85227.0 99846.0 98027.0 103263.0 95289.0 215511.0 223144.0 79803.0 82814.0 92020.0 89011.0 62821.0 67137.0 271738.0 271216.0 305534.0 298801.0 104226.0 97218.0 55447.0 63513.0 117454.0 124532.0 8154.0 0.0 287666.0 280117.0 117544.0 109647.0 307358.0 314014.0 146482.0 140555.0 98647.0 106736.0 300348.0 305874.0 76692.0 74262.0 133371.0 216364.0 133371.0 133371.0 216364.0 216364.0
195552.0 203557.0 188258.0 189640.0 189928.0 197081.0 93181.0 86271.0 229846.0 222489.0 200027.0 200464.0 224938.0 221522.0 42682.0 35143.0 25501.0 17690.0 242833.0 248141.0 234863.0 227140.0 264666.0 262015.0 284592.0 287666.0 0.0 7751.0 172781.0 180302.0 21170.0 29054.0 143187.0 150270.0 231716.0 230025.0 50080.0 57474.0 211928.0 216166.0 248445.0 97988.0 248445.0 248445.0 97988.0 97988.0
187916.0 195921.0 180791.0 182091.0 182719.0 189819.0 87963.0 81340.0 222096.0 214740.0 192745.0 193073.0 217416.0 214065.0 41635.0 33554.0 32199.0 24186.0 235151.0 240436.0 227449.0 219751.0 258437.0 255786.0 277094.0 280117.0 7751.0 0.0 165084.0 172617.0 28846.0 36644.0 135482.0 142548.0 223998.0 222337.0 53568.0 61277.0 204479.0 208789.0 242216.0 93095.0 242216.0 242216.0 93095.0 93095.0
24872.0 32440.0 31416.0 26028.0 49038.0 49762.0 116760.0 122924.0 60624.0 52792.0 50408.0 44278.0 57678.0 57615.0 163546.0 161315.0 192779.0 185517.0 86259.0 88270.0 71538.0 65743.0 145088.0 146617.0 115916.0 117544.0 172781.0 165084.0 0.0 7905.0 193228.0 200371.0 29618.0 23061.0 71699.0 74466.0 192911.0 199476.0 49731.0 57061.0 137159.0 120399.0 137159.0 137159.0 120399.0 120399.0
17052.0 24540.0 26609.0 20020.0 45429.0 45020.0 122118.0 128512.0 54927.0 47092.0 45245.0 38407.0 49934.0 50189.0 170260.0 168223.0 200063.0 192855.0 82805.0 84187.0 64016.0 58466.0 140063.0 141932.0 108013.0 109647.0 180302.0 172617.0 7905.0 0.0 200672.0 207764.0 37272.0 30926.0 68010.0 71544.0 199604.0 206069.0 42668.0 50216.0 133236.0 125451.0 133236.0 133236.0 125451.0 125451.0
215676.0 223676.0 207694.0 209396.0 208450.0 215772.0 106678.0 99180.0 250721.0 243323.0 218783.0 219604.0 244556.0 240888.0 48826.0 43700.0 10953.0 10620.0 263993.0 269281.0 254056.0 246250.0 280150.0 277499.0 304081.0 307358.0 21170.0 28846.0 193228.0 200672.0 0.0 8055.0 163687.0 170879.0 252834.0 251181.0 42740.0 48387.0 231274.0 235239.0 263929.0 110557.0 263929.0 263929.0 110557.0 110557.0
222614.0 230607.0 214258.0 216129.0 214557.0 221954.0 110953.0 103290.0 258151.0 250721.0 224995.0 226007.0 251196.0 247394.0 51548.0 47485.0 10620.0 15330.0 271762.0 277002.0 260465.0 252621.0 284922.0 282271.0 310626.0 314014.0 29054.0 36644.0 200371.0 207764.0 8055.0 0.0 170879.0 178137.0 260519.0 258938.0 40514.0 45112.0 237776.0 241598.0 268701.0 114448.0 268701.0 268701.0 114448.0 114448.0
53379.0 61296.0 52086.0 50294.0 63540.0 67580.0 93134.0 98401.0 88367.0 80683.0 69424.0 65962.0 85132.0 83632.0 135374.0 132693.0 163424.0 156091.0 109108.0 112479.0 97681.0 90957.0 159618.0 159784.0 144416.0 146482.0 143187.0 135482.0 29618.0 37272.0 163687.0 170879.0 0.0 7886.0 95504.0 96469.0 164726.0 171519.0 74692.0 80957.0 147836.0 97785.0 147836.0 147836.0 97785.0 97785.0
47594.0 55357.0 48845.0 45967.0 62300.0 65492.0 100833.0 106188.0 80683.0 73038.0 67020.0 62711.0 79981.0 79077.0 143160.0 140395.0 170813.0 163424.0 101255.0 104595.0 93134.0 86745.0 159142.0 159702.0 138787.0 140555.0 150270.0 142548.0 23061.0 30926.0 170879.0 178137.0 7886.0 0.0 87621.0 88638.0 172502.0 179324.0 70472.0 77156.0 148365.0 105378.0 148365.0 148365.0 105378.0 105378.0
65784.0 62789.0 85814.0 77901.0 104144.0 99553.0 187699.0 193451.0 23531.0 27405.0 97782.0 89254.0 75176.0 82118.0 229844.0 226452.0 254283.0 246542.0 14913.0 16982.0 88426.0 89327.0 181242.0 185544.0 102234.0 98647.0 231716.0 223998.0 71699.0 68010.0 252834.0 260519.0 95504.0 87621.0 0.0 8262.0 259030.0 266091.0 82809.0 89521.0 182844.0 191700.0 182844.0 182844.0 191700.0 191700.0
71036.0 68724.0 91035.0 83021.0 109747.0 105531.0 189294.0 194806.0 31411.0 34453.0 103915.0 95362.0 82601.0 89356.0 229674.0 226009.0 252978.0 245171.0 12910.0 18567.0 96150.0 96767.0 188808.0 192985.0 110421.0 106736.0 230025.0 222337.0 74466.0 71544.0 251181.0 258938.0 96469.0 88638.0 8262.0 0.0 258732.0 265907.0 89557.0 96483.0 189830.0 193544.0 189830.0 189830.0 193544.0 193544.0
212627.0 220415.0 201097.0 204381.0 197863.0 205676.0 86809.0 78827.0 253034.0 245298.0 208883.0 211338.0 238070.0 233219.0 29371.0 32927.0 31804.0 35399.0 271633.0 275941.0 245343.0 237299.0 261586.0 258935.0 296064.0 300348.0 50080.0 53568.0 192911.0 199604.0 42740.0 40514.0 164726.0 172502.0 259030.0 258732.0 0.0 7987.0 223701.0 226336.0 245365.0 88159.0 245365.0 245365.0 88159.0 88159.0
218833.0 226576.0 206896.0 210372.0 203116.0 210976.0 91394.0 83470.0 259741.0 251984.0 214200.0 216880.0 243783.0 238784.0 36247.0 40505.0 37473.0 42028.0 278801.0 283022.0 250733.0 242674.0 266072.0 263421.0 301457.0 305874.0 57474.0 61277.0 199476.0 206069.0 48387.0 45112.0 171519.0 179324.0 266091.0 265907.0 7987.0 0.0 229304.0 231746.0 249851.0 92214.0 249851.0 249851.0 92214.0 92214.0
27083.0 23497.0 23735.0 24509.0 28952.0 21399.0 139437.0 146937.0 60629.0 55412.0 18400.0 12612.0 15137.0 9620.0 195049.0 194555.0 229123.0 222512.0 96718.0 94482.0 23219.0 16283.0 102072.0 105235.0 72873.0 76692.0 211928.0 204479.0 49731.0 42668.0 231274.0 237776.0 74692.0 70472.0 82809.0 89557.0 223701.0 229304.0 0.0 7986.0 100394.0 140747.0 100394.0 100394.0 140747.0 140747.0
34992.0 31434.0 29071.0 31342.0 29109.0 21117.0 141249.0 148888.0 66892.0 62134.0 17838.0 15754.0 17193.0 9326.0 197931.0 197750.0 232763.0 226298.0 103150.0 100534.0 19016.0 11034.0 94257.0 97560.0 69729.0 74262.0 216166.0 208789.0 57061.0 50216.0 235239.0 241598.0 80957.0 77156.0 89521.0 96483.0 226336.0 231746.0 7986.0 0.0 93350.0 142168.0 93350.0 93350.0 142168.0 142168.0
123436.0 122800.0 106667.0 113965.0 88120.0 88461.0 158600.0 166591.0 159981.0 155476.0 88850.0 96959.0 108311.0 100915.0 219294.0 221494.0 258629.0 253719.0 196277.0 193212.0 97835.0 94554.0 36893.0 31861.0 125530.0 133371.0 248445.0 242216.0 137159.0 133236.0 263929.0 268701.0 147836.0 148365.0 182844.0 189830.0 245365.0 249851.0 100394.0 93350.0 0.0 158470.0 0.0 0.0 158470.0 158470.0
135005.0 142135.0 119965.0 124850.0 113104.0 121085.0 7151.0 11757.0 180349.0 172526.0 124359.0 128140.0 155705.0 149917.0 63526.0 67000.0 104040.0 100037.0 205896.0 208479.0 160920.0 152851.0 174691.0 172040.0 211398.0 216364.0 97988.0 93095.0 120399.0 125451.0 110557.0 114448.0 97785.0 105378.0 191700.0 193544.0 88159.0 92214.0 140747.0 142168.0 158470.0 0.0 158470.0 158470.0 0.0 0.0
123436.0 122800.0 106667.0 113965.0 88120.0 88461.0 158600.0 166591.0 159981.0 155476.0 88850.0 96959.0 108311.0 100915.0 219294.0 221494.0 258629.0 253719.0 196277.0 193212.0 97835.0 94554.0 36893.0 31861.0 125530.0 133371.0 248445.0 242216.0 137159.0 133236.0 263929.0 268701.0 147836.0 148365.0 182844.0 189830.0 245365.0 249851.0 100394.0 93350.0 0.0 158470.0 0.0 0.0 158470.0 158470.0
123436.0 122800.0 106667.0 113965.0 88120.0 88461.0 158600.0 166591.0 159981.0 155476.0 88850.0 96959.0 108311.0 100915.0 219294.0 221494.0 258629.0 253719.0 196277.0 193212.0 97835.0 94554.0 36893.0 31861.0 125530.0 133371.0 248445.0 242216.0 137159.0 133236.0 263929.0 268701.0 147836.0 148365.0 182844.0 189830.0 245365.0 249851.0 100394.0 93350.0 0.0 158470.0 0.0 0.0 158470.0 158470.0
135005.0 142135.0 119965.0 124850.0 113104.0 121085.0 7151.0 11757.0 180349.0 172526.0 124359.0 128140.0 155705.0 149917.0 63526.0 67000.0 104040.0 100037.0 205896.0 208479.0 160920.0 152851.0 174691.0 172040.0 211398.0 216364.0 97988.0 93095.0 120399.0 125451.0 110557.0 114448.0 97785.0 105378.0 191700.0 193544.0 88159.0 92214.0 140747.0 142168.0 158470.0 0.0 158470.0 158470.0 0.0 0.0
135005.0 142135.0 119965.0 124850.0 113104.0 121085.0 7151.0 11757.0 180349.0 172526.0 124359.0 128140.0 155705.0 149917.0 63526.0 67000.0 104040.0 100037.0 205896.0 208479.0 160920.0 152851.0 174691.0 172040.0 211398.0 216364.0 97988.0 93095.0 120399.0 125451.0 110557.0 114448.0 97785.0 105378.0 191700.0 193544.0 88159.0 92214.0 140747.0 142168.0 158470.0 0.0 158470.0 158470.0 0.0 0.0
FIXED_EDGES_SECTION
1 2
3 4
5 6
7 8
9 10
11 12
13 14
15 16
17 18
19 20
21 22
23 24
25 26
27 28
29 30
31 32
33 34
35 36
37 38
39 40
-1 
DEMAND_SECTION
1 256
2 256
3 114
4 114
5 56
6 56
7 37
8 37
9 82
10 82
11 94
12 94
13 341
14 341
15 563
16 563
17 341
18 341
19 72
20 72
21 293
22 293
23 97
24 97
25 55
26 55
27 244
28 244
29 90
30 90
31 350
32 350
33 291
34 291
35 74
36 74
37 184
38 184
39 119
40 119
41 0
42 0
43 0
44 0
45 0
46 0
DEPOT_SECTION
41 
-1 
CAPACITIES_SECTION
5000 
5500 
-1 
EOF