NAME: GFS_20_1
TYPE: GFSP
DIMENSION: 48
VEHICLES: 2
CAPACITY: 5000.0
TRIP_DIST_LIMIT: 600000.0
TOTAL_DIST_LIMIT: 2100000.0
EDGE_WEIGHT_TYPE: EXPLICIT
EDGE_WEIGHT_FORMAT: FULL_MATRIX
EDGE_WEIGHT_SECTION
0.0 8042.0 297975.0 291674.0 118447.0 120317.0 71841.0 64413.0 54803.0 46460.0 82267.0 74993.0 112189.0 106102.0 29490.0 21493.0 103766.0 112027.0 135688.0 128265.0 196538.0 194603.0 81132.0 81523.0 81461.0 82823.0 195823.0 191865.0 52250.0 52150.0 84053.0 79175.0 89518.0 81348.0 73606.0 70951.0 125062.0 130763.0 72441.0 64586.0 109849.0 197172.0 109849.0 109849.0 109849.0 197172.0 197172.0 197172.0
8042.0 0.0 291253.0 284876.0 111873.0 114090.0 64409.0 57164.0 46765.0 38431.0 74497.0 67141.0 105425.0 99560.0 36187.0 27920.0 96543.0 104795.0 128385.0 121073.0 190125.0 188394.0 87674.0 87559.0 74833.0 75767.0 188411.0 184577.0 58162.0 57200.0 88089.0 83686.0 81740.0 73547.0 75219.0 73356.0 118851.0 124315.0 64608.0 56802.0 109735.0 191730.0 109735.0 109735.0 109735.0 191730.0 191730.0 191730.0
297975.0 291253.0 0.0 8065.0 179570.0 178479.0 262346.0 268324.0 252623.0 258730.0 221579.0 229580.0 269391.0 274734.0 309022.0 303947.0 258328.0 256595.0 165203.0 171423.0 293124.0 299957.0 334467.0 327315.0 274715.0 266629.0 246101.0 252833.0 312643.0 304884.0 302341.0 306805.0 215176.0 222957.0 275894.0 283514.0 173868.0 167484.0 231527.0 237945.0 269783.0 116178.0 269783.0 269783.0 269783.0 116178.0 116178.0 116178.0
291674.0 284876.0 8065.0 0.0 173368.0 172533.0 255079.0 261133.0 245798.0 252004.0 214730.0 222735.0 261649.0 267044.0 303203.0 298009.0 250680.0 248870.0 158336.0 164704.0 285059.0 291892.0 329486.0 322426.0 267278.0 259196.0 238045.0 244771.0 307258.0 299545.0 297696.0 302030.0 208262.0 216094.0 271026.0 278605.0 167962.0 161417.0 224716.0 231223.0 265195.0 112592.0 265195.0 265195.0 265195.0 112592.0 112592.0 112592.0
118447.0 111873.0 179570.0 173368.0 0.0 8532.0 97414.0 100598.0 77804.0 82222.0 49612.0 56658.0 125153.0 126496.0 130703.0 125041.0 110373.0 113735.0 28015.0 20301.0 192526.0 195512.0 163699.0 157926.0 114442.0 107146.0 163424.0 164685.0 137787.0 130654.0 137556.0 139802.0 45970.0 51174.0 109235.0 115732.0 11145.0 12792.0 57729.0 62139.0 113808.0 85477.0 113808.0 113808.0 113808.0 85477.0 85477.0 85477.0
120317.0 114090.0 178479.0 172533.0 8532.0 0.0 103907.0 106660.0 82729.0 86506.0 55956.0 62560.0 132960.0 134081.0 130725.0 125481.0 118128.0 121704.0 34707.0 27703.0 201025.0 203976.0 161363.0 155276.0 121241.0 114106.0 171894.0 173195.0 136379.0 129023.0 133932.0 136580.0 52984.0 57507.0 105663.0 112449.0 4770.0 11698.0 63372.0 67041.0 108260.0 80183.0 108260.0 108260.0 108260.0 80183.0 80183.0 80183.0
71841.0 64409.0 262346.0 255079.0 97414.0 103907.0 0.0 8174.0 30266.0 35072.0 47951.0 41818.0 43516.0 39609.0 100463.0 92146.0 32456.0 40628.0 99237.0 95076.0 128593.0 127925.0 151494.0 150560.0 18279.0 13709.0 124006.0 120214.0 121360.0 118938.0 146076.0 143209.0 51701.0 46401.0 125785.0 126965.0 108044.0 109466.0 41642.0 41425.0 153675.0 182518.0 153675.0 153675.0 153675.0 182518.0 182518.0 182518.0
64413.0 57164.0 268324.0 261133.0 100598.0 106660.0 8174.0 0.0 28282.0 31263.0 51009.0 44102.0 49068.0 44204.0 93329.0 85032.0 39380.0 47635.0 104369.0 99736.0 134313.0 133274.0 144607.0 143938.0 20343.0 18863.0 131454.0 127455.0 114634.0 112535.0 140464.0 137316.0 55609.0 49448.0 121139.0 121908.0 110956.0 112925.0 43443.0 41693.0 150345.0 186013.0 150345.0 150345.0 150345.0 186013.0 186013.0 186013.0
54803.0 46765.0 252623.0 245798.0 77804.0 82729.0 30266.0 28282.0 0.0 8408.0 31084.0 23081.0 72976.0 69720.0 79788.0 71678.0 60214.0 67784.0 87467.0 81305.0 157159.0 157015.0 128449.0 126368.0 47905.0 43938.0 147533.0 144781.0 98033.0 94329.0 118764.0 116638.0 37806.0 29760.0 96776.0 98619.0 87300.0 90544.0 21103.0 15697.0 123494.0 162894.0 123494.0 123494.0 123494.0 162894.0 162894.0 162894.0
46460.0 38431.0 258730.0 252004.0 82222.0 86506.0 35072.0 31263.0 8408.0 0.0 37806.0 29943.0 78511.0 74626.0 71450.0 63316.0 66464.0 74279.0 93833.0 87310.0 163306.0 162863.0 120426.0 118533.0 51562.0 48706.0 155114.0 152164.0 90004.0 86520.0 111801.0 109395.0 44823.0 36617.0 90753.0 92142.0 91177.0 95013.0 27654.0 20785.0 119091.0 166617.0 119091.0 119091.0 119091.0 166617.0 166617.0 166617.0
82267.0 74497.0 221579.0 214730.0 49612.0 55956.0 47951.0 51009.0 31084.0 37806.0 0.0 8006.0 80619.0 80385.0 103083.0 95627.0 65784.0 71036.0 56394.0 50419.0 157750.0 159197.0 147221.0 143642.0 65429.0 58548.0 138742.0 137685.0 117547.0 112264.0 130652.0 130207.0 7256.0 1561.0 104771.0 108720.0 60117.0 61922.0 10152.0 17698.0 123436.0 135005.0 123436.0 123436.0 123436.0 135005.0 135005.0 135005.0
74993.0 67141.0 229580.0 222735.0 56658.0 62560.0 41818.0 44102.0 23081.0 29943.0 8006.0 0.0 77385.0 76434.0 96768.0 89136.0 62789.0 68724.0 64399.0 58372.0 156848.0 157892.0 142101.0 138867.0 59751.0 53324.0 140242.0 138722.0 112145.0 107200.0 127119.0 126265.0 14880.0 6700.0 102024.0 105488.0 66878.0 69158.0 2646.0 10644.0 122800.0 142135.0 122800.0 122800.0 122800.0 142135.0 142135.0 142135.0
112189.0 105425.0 269391.0 261649.0 125153.0 132960.0 43516.0 49068.0 72976.0 78511.0 80619.0 77385.0 0.0 7913.0 141546.0 133328.0 14913.0 12910.0 117590.0 116320.0 85252.0 84412.0 193099.0 192750.0 30798.0 30251.0 86988.0 81732.0 163380.0 161523.0 189432.0 186373.0 81038.0 79322.0 169263.0 170478.0 136297.0 135428.0 78323.0 80972.0 196277.0 205896.0 196277.0 196277.0 196277.0 205896.0 205896.0 205896.0
106102.0 99560.0 274734.0 267044.0 126496.0 134081.0 39609.0 44204.0 69720.0 74626.0 80385.0 76434.0 7913.0 0.0 135551.0 127389.0 16982.0 18567.0 120622.0 118833.0 90593.0 89195.0 187175.0 187067.0 24747.0 25923.0 94577.0 89142.0 157670.0 156090.0 184606.0 181322.0 81510.0 79008.0 165186.0 166093.0 137609.0 137204.0 77117.0 79010.0 193212.0 208479.0 193212.0 193212.0 193212.0 208479.0 208479.0 208479.0
29490.0 36187.0 309022.0 303203.0 130703.0 130725.0 100463.0 93329.0 79788.0 71450.0 103083.0 96768.0 141546.0 135551.0 0.0 8322.0 132698.0 140944.0 151868.0 143859.0 226022.0 224090.0 51643.0 52242.0 110873.0 111953.0 224395.0 220675.0 23386.0 25370.0 58504.0 52582.0 110218.0 102472.0 56137.0 51019.0 135254.0 142040.0 94123.0 86133.0 96105.0 202888.0 96105.0 96105.0 96105.0 202888.0 202888.0 202888.0
21493.0 27920.0 303947.0 298009.0 125041.0 125481.0 92146.0 85032.0 71678.0 63316.0 95627.0 89136.0 133328.0 127389.0 8322.0 0.0 124395.0 132639.0 145429.0 137521.0 217903.0 216042.0 59788.0 60031.0 102689.0 103679.0 216073.0 212359.0 30795.0 31382.0 64153.0 58717.0 102805.0 94963.0 58344.0 54123.0 130080.0 136641.0 86496.0 78492.0 97414.0 198964.0 97414.0 97414.0 97414.0 198964.0 198964.0 198964.0
103766.0 96543.0 258328.0 250680.0 110373.0 118128.0 32456.0 39380.0 60214.0 66464.0 65784.0 62789.0 14913.0 16982.0 132698.0 124395.0 0.0 8262.0 103696.0 102056.0 96950.0 96889.0 183884.0 183013.0 25560.0 21249.0 92305.0 88110.0 153796.0 151386.0 178152.0 175468.0 66125.0 64507.0 156964.0 158588.0 121511.0 120796.0 63842.0 66937.0 182844.0 191700.0 182844.0 182844.0 182844.0 191700.0 191700.0 191700.0
112027.0 104795.0 256595.0 248870.0 113735.0 121704.0 40628.0 47635.0 67784.0 74279.0 71036.0 68724.0 12910.0 18567.0 140944.0 132639.0 8262.0 0.0 105088.0 104096.0 89483.0 89758.0 192100.0 191182.0 33244.0 29455.0 84076.0 79848.0 161988.0 159515.0 186052.0 183456.0 70670.0 69848.0 164555.0 166324.0 124874.0 123651.0 69981.0 73626.0 189830.0 193544.0 189830.0 189830.0 189830.0 193544.0 193544.0 193544.0
135688.0 128385.0 165203.0 158336.0 28015.0 34707.0 99237.0 104369.0 87467.0 93833.0 56394.0 64399.0 117590.0 120622.0 151868.0 145429.0 103696.0 105088.0 0.0 8419.0 175296.0 179171.0 188651.0 183339.0 113928.0 105987.0 141837.0 144067.0 161469.0 154752.0 164192.0 165996.0 49998.0 57760.0 135934.0 142105.0 33943.0 27331.0 66401.0 73105.0 141771.0 88619.0 141771.0 141771.0 141771.0 88619.0 88619.0 88619.0
128265.0 121073.0 171423.0 164704.0 20301.0 27703.0 95076.0 99736.0 81305.0 87310.0 50419.0 58372.0 116320.0 118833.0 143859.0 137521.0 102056.0 104096.0 8419.0 0.0 177596.0 181141.0 180268.0 174933.0 110511.0 102701.0 145856.0 147672.0 153176.0 146420.0 155789.0 157579.0 44492.0 51860.0 127539.0 133693.0 27741.0 22395.0 60205.0 66525.0 133739.0 89649.0 133739.0 133739.0 133739.0 89649.0 89649.0 89649.0
196538.0 190125.0 293124.0 285059.0 192526.0 201025.0 128593.0 134313.0 157159.0 163306.0 157750.0 156848.0 85252.0 90593.0 226022.0 217903.0 96950.0 89483.0 175296.0 177596.0 0.0 8111.0 277664.0 277656.0 115341.0 115500.0 47928.0 40510.0 248256.0 246648.0 274649.0 271624.0 155687.0 156795.0 253912.0 255443.0 203131.0 199664.0 158416.0 162759.0 279075.0 260732.0 279075.0 279075.0 279075.0 260732.0 260732.0 260732.0
194603.0 188394.0 299957.0 291892.0 195512.0 203976.0 127925.0 133274.0 157015.0 162863.0 159197.0 157892.0 84412.0 89195.0 224090.0 216042.0 96889.0 89758.0 179171.0 181141.0 8111.0 0.0 275715.0 275950.0 113867.0 114591.0 55494.0 47852.0 246555.0 245202.0 273738.0 270513.0 157487.0 158181.0 253603.0 254889.0 206239.0 203045.0 159350.0 163350.0 279587.0 265317.0 279587.0 279587.0 279587.0 265317.0 265317.0 265317.0
81132.0 87674.0 334467.0 329486.0 163699.0 161363.0 151494.0 144607.0 128449.0 120426.0 147221.0 142101.0 193099.0 187175.0 51643.0 59788.0 183884.0 192100.0 188651.0 180268.0 277664.0 275715.0 0.0 8543.0 162478.0 163346.0 275041.0 271602.0 30421.0 34958.0 35920.0 29382.0 153911.0 146933.0 58761.0 51038.0 165290.0 173059.0 139500.0 131814.0 92852.0 223554.0 92852.0 92852.0 92852.0 223554.0 223554.0 223554.0
81523.0 87559.0 327315.0 322426.0 157926.0 155276.0 150560.0 143938.0 126368.0 118533.0 143642.0 138867.0 192750.0 187067.0 52242.0 60031.0 183013.0 191182.0 183339.0 174933.0 277656.0 275950.0 8543.0 0.0 162323.0 162768.0 273558.0 270352.0 29401.0 32042.0 27475.0 21190.0 150177.0 143436.0 51422.0 43823.0 159100.0 166956.0 136298.0 128758.0 84514.0 216221.0 84514.0 84514.0 84514.0 216221.0 216221.0 216221.0
81461.0 74833.0 274715.0 267278.0 114442.0 121241.0 18279.0 20343.0 47905.0 51562.0 65429.0 59751.0 30798.0 24747.0 110873.0 102689.0 25560.0 33244.0 113928.0 110511.0 115341.0 113867.0 162478.0 162323.0 0.0 8090.0 116675.0 111900.0 132926.0 131360.0 160114.0 156710.0 68479.0 63905.0 141355.0 141954.0 125248.0 126200.0 59738.0 59701.0 170653.0 199028.0 170653.0 170653.0 170653.0 199028.0 199028.0 199028.0
82823.0 75767.0 266629.0 259196.0 107146.0 114106.0 13709.0 18863.0 43938.0 48706.0 58548.0 53324.0 30251.0 25923.0 111953.0 103679.0 21249.0 29455.0 105987.0 102701.0 115500.0 114591.0 163346.0 162768.0 8090.0 0.0 113531.0 109215.0 133444.0 131397.0 159188.0 156126.0 61188.0 57050.0 139328.0 140362.0 118031.0 118756.0 53548.0 54305.0 167380.0 191448.0 167380.0 167380.0 167380.0 191448.0 191448.0 191448.0
195823.0 188411.0 246101.0 238045.0 163424.0 171894.0 124006.0 131454.0 147533.0 155114.0 138742.0 140242.0 86988.0 94577.0 224395.0 216073.0 92305.0 84076.0 141837.0 145856.0 47928.0 55494.0 275041.0 273558.0 116675.0 113531.0 0.0 8242.0 244705.0 241595.0 265860.0 264074.0 134722.0 138194.0 241989.0 244918.0 173097.0 168234.0 142375.0 148505.0 262112.0 222342.0 262112.0 262112.0 262112.0 222342.0 222342.0 222342.0
191865.0 184577.0 252833.0 244771.0 164685.0 173195.0 120214.0 127455.0 144781.0 152164.0 137685.0 138722.0 81732.0 89142.0 220675.0 212359.0 88110.0 79848.0 144067.0 147672.0 40510.0 47852.0 271602.0 270352.0 111900.0 109215.0 8242.0 0.0 241347.0 238471.0 263419.0 261419.0 134036.0 137051.0 240039.0 242729.0 174613.0 170065.0 140761.0 146594.0 261115.0 226086.0 261115.0 261115.0 261115.0 226086.0 226086.0 226086.0
52250.0 58162.0 312643.0 307258.0 137787.0 136379.0 121360.0 114634.0 98033.0 90004.0 117547.0 112145.0 163380.0 157670.0 23386.0 30795.0 153796.0 161988.0 161469.0 153176.0 248256.0 246555.0 30421.0 29401.0 132926.0 133444.0 244705.0 241347.0 0.0 8072.0 37128.0 30433.0 124373.0 117182.0 43775.0 36711.0 140595.0 148026.0 109526.0 101754.0 83749.0 203425.0 83749.0 83749.0 83749.0 203425.0 203425.0 203425.0
52150.0 57200.0 304884.0 299545.0 130654.0 129023.0 118938.0 112535.0 94329.0 86520.0 112264.0 107200.0 161523.0 156090.0 25370.0 31382.0 151386.0 159515.0 154752.0 146420.0 246648.0 245202.0 34958.0 32042.0 131360.0 131397.0 241595.0 238471.0 8072.0 0.0 33135.0 27357.0 118956.0 111982.0 36032.0 29230.0 133184.0 140693.0 104608.0 96971.0 76242.0 195471.0 76242.0 76242.0 76242.0 195471.0 195471.0 195471.0
84053.0 88089.0 302341.0 297696.0 137556.0 133932.0 146076.0 140464.0 118764.0 111801.0 130652.0 127119.0 189432.0 184606.0 58504.0 64153.0 178152.0 186052.0 164192.0 155789.0 274649.0 273738.0 35920.0 27475.0 160114.0 159188.0 265860.0 263419.0 37128.0 33135.0 0.0 7456.0 136552.0 130723.0 28321.0 22332.0 137397.0 145461.0 124715.0 117853.0 57108.0 191029.0 57108.0 57108.0 57108.0 191029.0 191029.0 191029.0
79175.0 83686.0 306805.0 302030.0 139802.0 136580.0 143209.0 137316.0 116638.0 109395.0 130207.0 126265.0 186373.0 181322.0 52582.0 58717.0 175468.0 183456.0 165996.0 157579.0 271624.0 270513.0 29382.0 21190.0 156710.0 156126.0 264074.0 261419.0 30433.0 27357.0 7456.0 0.0 136333.0 130188.0 31237.0 24133.0 140207.0 148193.0 123800.0 116698.0 63495.0 195567.0 63495.0 63495.0 63495.0 195567.0 195567.0 195567.0
89518.0 81740.0 215176.0 208262.0 45970.0 52984.0 51701.0 55609.0 37806.0 44823.0 7256.0 14880.0 81038.0 81510.0 110218.0 102805.0 66125.0 70670.0 49998.0 44492.0 155687.0 157487.0 153911.0 150177.0 68479.0 61188.0 134722.0 134036.0 124373.0 118956.0 136552.0 136333.0 0.0 8237.0 110259.0 114485.0 56847.0 57800.0 17247.0 24938.0 127471.0 130820.0 127471.0 127471.0 127471.0 130820.0 130820.0 130820.0
81348.0 73547.0 222957.0 216094.0 51174.0 57507.0 46401.0 49448.0 29760.0 36617.0 1561.0 6700.0 79322.0 79008.0 102472.0 94963.0 64507.0 69848.0 57760.0 51860.0 156795.0 158181.0 146933.0 143436.0 63905.0 57050.0 138194.0 137051.0 117182.0 111982.0 130723.0 130188.0 8237.0 0.0 104997.0 108847.0 61674.0 63481.0 9010.0 16766.0 124066.0 136565.0 124066.0 124066.0 124066.0 136565.0 136565.0 136565.0
73606.0 75219.0 275894.0 271026.0 109235.0 105663.0 125785.0 121139.0 96776.0 90753.0 104771.0 102024.0 169263.0 165186.0 56137.0 58344.0 156964.0 164555.0 135934.0 127539.0 253912.0 253603.0 58761.0 51422.0 141355.0 139328.0 241989.0 240039.0 43775.0 36032.0 28321.0 31237.0 110259.0 104997.0 0.0 7799.0 109185.0 117222.0 99767.0 93490.0 40422.0 164826.0 40422.0 40422.0 40422.0 164826.0 164826.0 164826.0
70951.0 73356.0 283514.0 278605.0 115732.0 112449.0 126965.0 121908.0 98619.0 92142.0 108720.0 105488.0 170478.0 166093.0 51019.0 54123.0 158588.0 166324.0 142105.0 133693.0 255443.0 254889.0 51038.0 43823.0 141954.0 140362.0 244918.0 242729.0 36711.0 29230.0 22332.0 24133.0 114485.0 108847.0 7799.0 0.0 116077.0 124061.0 103142.0 96522.0 47048.0 172518.0 47048.0 47048.0 47048.0 172518.0 172518.0 172518.0
125062.0 118851.0 173868.0 167962.0 11145.0 4770.0 108044.0 110956.0 87300.0 91177.0 60117.0 66878.0 136297.0 137609.0 135254.0 130080.0 121511.0 124874.0 33943.0 27741.0 203131.0 206239.0 165290.0 159100.0 125248.0 118031.0 173097.0 174613.0 140595.0 133184.0 137397.0 140207.0 56847.0 61674.0 109185.0 116077.0 0.0 8186.0 67765.0 71604.0 110802.0 75595.0 110802.0 110802.0 110802.0 75595.0 75595.0 75595.0
130763.0 124315.0 167484.0 161417.0 12792.0 11698.0 109466.0 112925.0 90544.0 95013.0 61922.0 69158.0 135428.0 137204.0 142040.0 136641.0 120796.0 123651.0 27331.0 22395.0 199664.0 203045.0 173059.0 166956.0 126200.0 118756.0 168234.0 170065.0 148026.0 140693.0 145461.0 148193.0 57800.0 63481.0 117222.0 124061.0 8186.0 0.0 70323.0 74895.0 118974.0 73098.0 118974.0 118974.0 118974.0 73098.0 73098.0 73098.0
72441.0 64608.0 231527.0 224716.0 57729.0 63372.0 41642.0 43443.0 21103.0 27654.0 10152.0 2646.0 78323.0 77117.0 94123.0 86496.0 63842.0 69981.0 66401.0 60205.0 158416.0 159350.0 139500.0 136298.0 59738.0 53548.0 142375.0 140761.0 109526.0 104608.0 124715.0 123800.0 17247.0 9010.0 99767.0 103142.0 67765.0 70323.0 0.0 8006.0 120994.0 143177.0 120994.0 120994.0 120994.0 143177.0 143177.0 143177.0
64586.0 56802.0 237945.0 231223.0 62139.0 67041.0 41425.0 41693.0 15697.0 20785.0 17698.0 10644.0 80972.0 79010.0 86133.0 78492.0 66937.0 73626.0 73105.0 66525.0 162759.0 163350.0 131814.0 128758.0 59701.0 54305.0 148505.0 146594.0 101754.0 96971.0 117853.0 116698.0 24938.0 16766.0 93490.0 96522.0 71604.0 74895.0 8006.0 0.0 116316.0 147199.0 116316.0 116316.0 116316.0 147199.0 147199.0 147199.0
109849.0 109735.0 269783.0 265195.0 113808.0 108260.0 153675.0 150345.0 123494.0 119091.0 123436.0 122800.0 196277.0 193212.0 96105.0 97414.0 182844.0 189830.0 141771.0 133739.0 279075.0 279587.0 92852.0 84514.0 170653.0 167380.0 262112.0 261115.0 83749.0 76242.0 57108.0 63495.0 127471.0 124066.0 40422.0 47048.0 110802.0 118974.0 120994.0 116316.0 0.0 158470.0 0.0 0.0 0.0 158470.0 158470.0 158470.0
197172.0 191730.0 116178.0 112592.0 85477.0 80183.0 182518.0 186013.0 162894.0 166617.0 135005.0 142135.0 205896.0 208479.0 202888.0 198964.0 191700.0 193544.0 88619.0 89649.0 260732.0 265317.0 223554.0 216221.0 199028.0 191448.0 222342.0 226086.0 203425.0 195471.0 191029.0 195567.0 130820.0 136565.0 164826.0 172518.0 75595.0 73098.0 143177.0 147199.0 158470.0 0.0 158470.0 158470.0 158470.0 0.0 0.0 0.0
109849.0 109735.0 269783.0 265195.0 113808.0 108260.0 153675.0 150345.0 123494.0 119091.0 123436.0 122800.0 196277.0 193212.0 96105.0 97414.0 182844.0 189830.0 141771.0 133739.0 279075.0 279587.0 92852.0 84514.0 170653.0 167380.0 262112.0 261115.0 83749.0 76242.0 57108.0 63495.0 127471.0 124066.0 40422.0 47048.0 110802.0 118974.0 120994.0 116316.0 0.0 158470.0 0.0 0.0 0.0 158470.0 158470.0 158470.0
109849.0 109735.0 269783.0 265195.0 113808.0 108260.0 153675.0 150345.0 123494.0 119091.0 123436.0 122800.0 196277.0 193212.0 96105.0 97414.0 182844.0 189830.0 141771.0 133739.0 279075.0 279587.0 92852.0 84514.0 170653.0 167380.0 262112.0 261115.0 83749.0 76242.0 57108.0 63495.0 127471.0 124066.0 40422.0 47048.0 110802.0 118974.0 120994.0 116316.0 0.0 158470.0 0.0 0.0 0.0 158470.0 158470.0 158470.0
109849.0 109735.0 269783.0 265195.0 113808.0 108260.0 153675.0 150345.0 123494.0 119091.0 123436.0 122800.0 196277.0 193212.0 96105.0 97414.0 182844.0 189830.0 141771.0 133739.0 279075.0 279587.0 92852.0 84514.0 170653.0 167380.0 262112.0 261115.0 83749.0 76242.0 57108.0 63495.0 127471.0 124066.0 40422.0 47048.0 110802.0 118974.0 120994.0 116316.0 0.0 158470.0 0.0 0.0 0.0 158470.0 158470.0 158470.0
197172.0 191730.0 116178.0 112592.0 85477.0 80183.0 182518.0 186013.0 162894.0 166617.0 135005.0 142135.0 205896.0 208479.0 202888.0 198964.0 191700.0 193544.0 88619.0 89649.0 260732.0 265317.0 223554.0 216221.0 199028.0 191448.0 222342.0 226086.0 203425.0 195471.0 191029.0 195567.0 130820.0 136565.0 164826.0 172518.0 75595.0 73098.0 143177.0 147199.0 158470.0 0.0 158470.0 158470.0 158470.0 0.0 0.0 0.0
197172.0 191730.0 116178.0 112592.0 85477.0 80183.0 182518.0 186013.0 162894.0 166617.0 135005.0 142135.0 205896.0 208479.0 202888.0 198964.0 191700.0 193544.0 88619.0 89649.0 260732.0 265317.0 223554.0 216221.0 199028.0 191448.0 222342.0 226086.0 203425.0 195471.0 191029.0 195567.0 130820.0 136565.0 164826.0 172518.0 75595.0 73098.0 143177.0 147199.0 158470.0 0.0 158470.0 158470.0 158470.0 0.0 0.0 0.0
197172.0 191730.0 116178.0 112592.0 85477.0 80183.0 182518.0 186013.0 162894.0 166617.0 135005.0 142135.0 205896.0 208479.0 202888.0 198964.0 191700.0 193544.0 88619.0 89649.0 260732.0 265317.0 223554.0 216221.0 199028.0 191448.0 222342.0 226086.0 203425.0 195471.0 191029.0 195567.0 130820.0 136565.0 164826.0 172518.0 75595.0 73098.0 143177.0 147199.0 158470.0 0.0 158470.0 158470.0 158470.0 0.0 0.0 0.0
FIXED_EDGES_SECTION
1 2
3 4
5 6
7 8
9 10
11 12
13 14
15 16
17 18
19 20
21 22
23 24
25 26
27 28
29 30
31 32
33 34
35 36
37 38
39 40
-1 
DEMAND_SECTION
1 461
2 461
3 268
4 268
5 358
6 358
7 211
8 211
9 349
10 349
11 256
12 256
13 72
14 72
15 375
16 375
17 74
18 74
19 223
20 223
21 138
22 138
23 251
24 251
25 479
26 479
27 234
28 234
29 379
30 379
31 219
32 219
33 89
34 89
35 618
36 618
37 324
38 324
39 541
40 541
41 0
42 0
43 0
44 0
45 0
46 0
47 0
48 0
DEPOT_SECTION
41 
-1 
CAPACITIES_SECTION
5000 
5500 
-1 
EOF