NAME: GFS_20_1
TYPE: GFSP
DIMENSION: 46
VEHICLES: 2
CAPACITY: 5000.0
TRIP_DIST_LIMIT: 600000.0
TOTAL_DIST_LIMIT: 2100000.0
EDGE_WEIGHT_TYPE: EXPLICIT
EDGE_WEIGHT_FORMAT: FULL_MATRIX
EDGE_WEIGHT_SECTION
0.0 8039.0 173569.0 181049.0 17902.0 21604.0 148786.0 147155.0 174093.0 182084.0 57273.0 64357.0 87178.0 84264.0 235333.0 232127.0 114054.0 119441.0 205232.0 210744.0 102270.0 108021.0 73521.0 65738.0 329663.0 327723.0 263359.0 256908.0 119497.0 127559.0 138860.0 131623.0 190186.0 196581.0 194501.0 192544.0 169868.0 161903.0 254221.0 256937.0 44275.0 173963.0 44275.0 44275.0 173963.0 173963.0
8039.0 0.0 172096.0 179725.0 16582.0 17363.0 144827.0 143583.0 179524.0 187515.0 50130.0 57431.0 88874.0 85291.0 232492.0 229527.0 116376.0 122131.0 209236.0 214547.0 102887.0 108189.0 71981.0 64010.0 335094.0 333154.0 268240.0 261685.0 122922.0 130887.0 140752.0 133775.0 194762.0 200987.0 192032.0 189769.0 166130.0 158207.0 259652.0 262367.0 52073.0 179394.0 52073.0 52073.0 179394.0 179394.0
173569.0 172096.0 0.0 8254.0 188617.0 187281.0 58540.0 51563.0 161224.0 166174.0 195082.0 201772.0 97799.0 95812.0 70666.0 64820.0 88154.0 91340.0 135224.0 133399.0 78364.0 70543.0 100148.0 108088.0 295270.0 295917.0 197394.0 189722.0 102805.0 99926.0 72976.0 79265.0 141696.0 140643.0 31032.0 35617.0 51035.0 50272.0 224505.0 222338.0 183973.0 166018.0 183973.0 183973.0 166018.0 166018.0
181049.0 179725.0 8254.0 0.0 196268.0 195044.0 65803.0 59095.0 161729.0 166356.0 203238.0 209953.0 103834.0 102268.0 66908.0 60494.0 92418.0 95019.0 132921.0 130635.0 84495.0 76834.0 107745.0 115722.0 292696.0 293555.0 193941.0 186319.0 106193.0 102753.0 75410.0 82234.0 140639.0 139125.0 30242.0 36314.0 56516.0 56611.0 222812.0 220352.0 190633.0 166783.0 190633.0 190633.0 166783.0 166783.0
17902.0 16582.0 188617.0 196268.0 0.0 7456.0 160114.0 159188.0 191159.0 199150.0 45599.0 51655.0 104705.0 101452.0 248499.0 245662.0 131819.0 137290.0 223032.0 228589.0 119218.0 124650.0 88534.0 80545.0 346729.0 344789.0 280750.0 274365.0 137397.0 145461.0 156497.0 149346.0 207777.0 214246.0 208244.0 205834.0 181573.0 173695.0 271287.0 274003.0 57108.0 191029.0 57108.0 57108.0 191029.0 191029.0
21604.0 17363.0 187281.0 195044.0 7456.0 0.0 156710.0 156126.0 195697.0 203689.0 38363.0 44657.0 106146.0 102383.0 245878.0 243256.0 133725.0 139494.0 226370.0 231752.0 119775.0 124832.0 87567.0 79515.0 351267.0 349327.0 284895.0 278414.0 140207.0 148193.0 158032.0 151102.0 211614.0 217936.0 206012.0 203340.0 178295.0 170477.0 275825.0 278541.0 63495.0 195567.0 63495.0 63495.0 195567.0 195567.0
148786.0 144827.0 58540.0 65803.0 160114.0 156710.0 0.0 8090.0 195803.0 202198.0 154249.0 159790.0 100016.0 93932.0 91657.0 90705.0 107008.0 113580.0 183033.0 182873.0 84131.0 77114.0 81185.0 86969.0 341714.0 341454.0 248119.0 240368.0 125248.0 126200.0 105502.0 107820.0 184394.0 185283.0 57642.0 52028.0 21764.0 14433.0 267938.0 267077.0 170653.0 199028.0 170653.0 170653.0 199028.0 199028.0
147155.0 143583.0 51563.0 59095.0 159188.0 156126.0 8090.0 0.0 188134.0 194468.0 155655.0 161470.0 94198.0 88444.0 90432.0 88785.0 99874.0 106287.0 174945.0 174785.0 77674.0 70427.0 77680.0 83945.0 333670.0 333433.0 240034.0 232283.0 118031.0 118756.0 97646.0 100141.0 176390.0 177235.0 53964.0 49204.0 22922.0 14923.0 259959.0 259060.0 167380.0 191448.0 167380.0 167380.0 191448.0 191448.0
174093.0 179524.0 161224.0 161729.0 191159.0 195697.0 195803.0 188134.0 0.0 7995.0 228058.0 235786.0 112321.0 120263.0 226040.0 218583.0 91601.0 83982.0 57329.0 65403.0 118066.0 122581.0 147932.0 151117.0 155801.0 153863.0 93181.0 87963.0 73724.0 70516.0 91131.0 87993.0 35058.0 42748.0 191768.0 196841.0 202868.0 197723.0 80254.0 82861.0 158600.0 7151.0 158600.0 158600.0 7151.0 7151.0
182084.0 187515.0 166174.0 166356.0 199150.0 203689.0 202198.0 194468.0 7995.0 0.0 236050.0 243778.0 120020.0 127944.0 229985.0 222439.0 98783.0 91078.0 55609.0 63584.0 125334.0 129655.0 155656.0 158931.0 147938.0 145999.0 86271.0 81340.0 81083.0 77531.0 97110.0 94404.0 34068.0 41104.0 196503.0 201775.0 208741.0 203758.0 72322.0 74868.0 166591.0 11757.0 166591.0 166591.0 11757.0 11757.0
57273.0 50130.0 195082.0 203238.0 45599.0 38363.0 154249.0 155655.0 228058.0 236050.0 0.0 7871.0 128874.0 123333.0 245843.0 244439.0 157259.0 164015.0 253949.0 258627.0 138410.0 141673.0 101638.0 94068.0 383628.0 381688.0 315110.0 308308.0 166945.0 174489.0 179505.0 173615.0 241131.0 246876.0 208771.0 204739.0 175898.0 168648.0 308186.0 310902.0 101167.0 227928.0 101167.0 101167.0 227928.0 227928.0
64357.0 57431.0 201772.0 209953.0 51655.0 44657.0 159790.0 161470.0 235786.0 243778.0 7871.0 0.0 136702.0 131117.0 251443.0 250213.0 165087.0 171862.0 261820.0 266493.0 146077.0 149237.0 109162.0 101654.0 391357.0 389416.0 322958.0 316162.0 174815.0 182357.0 187251.0 181404.0 248987.0 254740.0 214834.0 210633.0 181351.0 174214.0 315914.0 318630.0 107939.0 235656.0 107939.0 107939.0 235656.0 235656.0
87178.0 88874.0 97799.0 103834.0 104705.0 106146.0 100016.0 94198.0 112321.0 120020.0 128874.0 136702.0 0.0 7992.0 167011.0 161952.0 28385.0 35359.0 126276.0 130387.0 19458.0 27438.0 35658.0 39672.0 267763.0 265887.0 189928.0 182719.0 40643.0 47107.0 51886.0 45145.0 116188.0 120878.0 125153.0 126005.0 115257.0 107908.0 191954.0 193557.0 88120.0 113104.0 88120.0 88120.0 113104.0 113104.0
84264.0 85291.0 95812.0 102268.0 101452.0 102383.0 93932.0 88444.0 120263.0 127944.0 123333.0 131117.0 7992.0 0.0 164044.0 159276.0 34536.0 41974.0 133001.0 136872.0 18449.0 25504.0 27823.0 32319.0 275633.0 273774.0 197081.0 189819.0 48175.0 54297.0 56337.0 50288.0 123520.0 128027.0 122085.0 122467.0 109985.0 102474.0 199816.0 201351.0 88461.0 121085.0 88461.0 88461.0 121085.0 121085.0
235333.0 232492.0 70666.0 66908.0 248499.0 245878.0 91657.0 90432.0 226040.0 229985.0 245843.0 251443.0 167011.0 164044.0 0.0 8030.0 158810.0 161793.0 189920.0 185915.0 147605.0 139577.0 162720.0 170053.0 345738.0 347586.0 244111.0 236938.0 173068.0 169643.0 142240.0 149142.0 201516.0 198652.0 41968.0 42802.0 70242.0 77229.0 280379.0 276810.0 250648.0 231534.0 250648.0 250648.0 231534.0 231534.0
232127.0 229527.0 64820.0 60494.0 245662.0 243256.0 90705.0 88785.0 218583.0 222439.0 244439.0 250213.0 161952.0 159276.0 8030.0 0.0 152773.0 155512.0 181994.0 177946.0 142504.0 134523.0 159132.0 166606.0 337709.0 339561.0 236082.0 228908.0 166663.0 163031.0 135564.0 142619.0 193757.0 190820.0 37740.0 39976.0 69786.0 76306.0 272427.0 268830.0 246410.0 224138.0 246410.0 246410.0 224138.0 224138.0
114054.0 116376.0 88154.0 92418.0 131819.0 133725.0 107008.0 99874.0 91601.0 98783.0 157259.0 165087.0 28385.0 34536.0 158810.0 152773.0 0.0 7968.0 98550.0 102338.0 26648.0 31099.0 61192.0 66624.0 244871.0 243400.0 163092.0 155744.0 18371.0 21511.0 25589.0 17702.0 90120.0 94137.0 118329.0 120958.0 117828.0 111494.0 169174.0 170021.0 110237.0 93760.0 110237.0 110237.0 93760.0 93760.0
119441.0 122131.0 91340.0 95019.0 137290.0 139494.0 113580.0 106287.0 83982.0 91078.0 164015.0 171862.0 35359.0 41974.0 161793.0 155512.0 7968.0 0.0 91033.0 95033.0 34546.0 38598.0 68970.0 74218.0 236942.0 235500.0 155307.0 147988.0 11958.0 13619.0 23314.0 14868.0 82199.0 86309.0 121945.0 125006.0 123565.0 117463.0 161265.0 162072.0 113779.0 86341.0 113779.0 113779.0 86341.0 86341.0
205232.0 209236.0 135224.0 132921.0 223032.0 226370.0 183033.0 174945.0 57329.0 55609.0 253949.0 261820.0 126276.0 133001.0 189920.0 181994.0 98550.0 91033.0 0.0 8078.0 122852.0 123807.0 159583.0 165175.0 160087.0 160702.0 66146.0 58488.0 87005.0 79547.0 82867.0 85279.0 22372.0 14598.0 162602.0 169192.0 183936.0 180729.0 90576.0 87564.0 192960.0 64459.0 192960.0 192960.0 64459.0 64459.0
210744.0 214547.0 133399.0 130635.0 228589.0 231752.0 182873.0 174785.0 65403.0 63584.0 258627.0 266493.0 130387.0 136872.0 185915.0 177946.0 102338.0 95033.0 8078.0 0.0 125871.0 126336.0 163021.0 168864.0 162068.0 163065.0 65290.0 57541.0 91850.0 84155.0 85057.0 88186.0 30444.0 22661.0 159968.0 166766.0 182819.0 179939.0 94548.0 90923.0 199086.0 72531.0 199086.0 199086.0 72531.0 72531.0
102270.0 102887.0 78364.0 84495.0 119218.0 119775.0 84131.0 77674.0 118066.0 125334.0 138410.0 146077.0 19458.0 18449.0 147605.0 142504.0 26648.0 34546.0 122852.0 125871.0 0.0 8078.0 37814.0 44652.0 271483.0 270041.0 188258.0 180791.0 44387.0 48149.0 41918.0 37685.0 116101.0 119655.0 105787.0 106815.0 97740.0 90690.0 195810.0 196591.0 106667.0 119965.0 106667.0 106667.0 119965.0 119965.0
108021.0 108189.0 70543.0 76834.0 124650.0 124832.0 77114.0 70427.0 122581.0 129655.0 141673.0 149237.0 27438.0 25504.0 139577.0 134523.0 31099.0 38598.0 123807.0 126336.0 8078.0 0.0 40118.0 47611.0 274826.0 273594.0 189640.0 182091.0 49405.0 52126.0 41384.0 38711.0 118472.0 121545.0 97736.0 98737.0 90072.0 83138.0 199340.0 199809.0 113965.0 124850.0 113965.0 113965.0 124850.0 124850.0
73521.0 71981.0 100148.0 107745.0 88534.0 87567.0 81185.0 77680.0 147932.0 155656.0 101638.0 109162.0 35658.0 27823.0 162720.0 159132.0 61192.0 68970.0 159583.0 163021.0 37814.0 40118.0 0.0 8061.0 303420.0 301543.0 224272.0 216934.0 75931.0 81777.0 79726.0 75085.0 151011.0 155278.0 121408.0 119956.0 100546.0 92577.0 227611.0 229174.0 89706.0 148561.0 89706.0 89706.0 148561.0 148561.0
65738.0 64010.0 108088.0 115722.0 80545.0 79515.0 86969.0 83945.0 151117.0 158931.0 94068.0 101654.0 39672.0 32319.0 170053.0 166606.0 66624.0 74218.0 165175.0 168864.0 44652.0 47611.0 8061.0 0.0 306852.0 304922.0 229400.0 222134.0 80314.0 86607.0 86389.0 81334.0 155804.0 160346.0 128913.0 127259.0 106865.0 98868.0 231112.0 232934.0 83699.0 151405.0 83699.0 83699.0 151405.0 151405.0
329663.0 335094.0 295270.0 292696.0 346729.0 351267.0 341714.0 333670.0 155801.0 147938.0 383628.0 391357.0 267763.0 275633.0 345738.0 337709.0 244871.0 236942.0 160087.0 162068.0 271483.0 274826.0 303420.0 306852.0 0.0 7961.0 102077.0 108962.0 228025.0 223361.0 237423.0 237087.0 157592.0 156439.0 321983.0 328830.0 343854.0 340364.0 75824.0 75065.0 314170.0 157477.0 314170.0 314170.0 157477.0 157477.0
327723.0 333154.0 295917.0 293555.0 344789.0 349327.0 341454.0 333433.0 153863.0 145999.0 381688.0 389416.0 265887.0 273774.0 347586.0 339561.0 243400.0 235500.0 160702.0 163065.0 270041.0 273594.0 301543.0 304922.0 7961.0 0.0 104720.0 111336.0 226321.0 221893.0 236758.0 236140.0 157097.0 156348.0 323027.0 329770.0 344096.0 340440.0 74256.0 74383.0 312230.0 155537.0 312230.0 312230.0 155537.0 155537.0
263359.0 268240.0 197394.0 193941.0 280750.0 284895.0 248119.0 240034.0 93181.0 86271.0 315110.0 322958.0 189928.0 197081.0 244111.0 236082.0 163092.0 155307.0 66146.0 65290.0 188258.0 189640.0 224272.0 229400.0 102077.0 104720.0 0.0 7751.0 149537.0 142829.0 148945.0 150966.0 74095.0 69056.0 222378.0 229558.0 247481.0 244881.0 54664.0 46836.0 248445.0 97988.0 248445.0 248445.0 97988.0 97988.0
256908.0 261685.0 189722.0 186319.0 274365.0 278414.0 240368.0 232283.0 87963.0 81340.0 308308.0 316162.0 182719.0 189819.0 236938.0 228908.0 155744.0 147988.0 58488.0 57541.0 180791.0 182091.0 216934.0 222134.0 108962.0 111336.0 7751.0 0.0 142416.0 135613.0 141325.0 143437.0 67183.0 61855.0 214835.0 221987.0 239767.0 237147.0 57164.0 49846.0 242216.0 93095.0 242216.0 242216.0 93095.0 93095.0
119497.0 122922.0 102805.0 106193.0 137397.0 140207.0 125248.0 118031.0 73724.0 81083.0 166945.0 174815.0 40643.0 48175.0 173068.0 166663.0 18371.0 11958.0 87005.0 91850.0 44387.0 49405.0 75931.0 80314.0 228025.0 226321.0 149537.0 142416.0 0.0 8186.0 32230.0 24302.0 75623.0 80574.0 133543.0 136752.0 135497.0 129353.0 152218.0 153454.0 110802.0 75595.0 110802.0 110802.0 75595.0 75595.0
127559.0 130887.0 99926.0 102753.0 145461.0 148193.0 126200.0 118756.0 70516.0 77531.0 174489.0 182357.0 47107.0 54297.0 169643.0 163031.0 21511.0 13619.0 79547.0 84155.0 48149.0 52126.0 81777.0 86607.0 223361.0 221893.0 142829.0 135613.0 8186.0 0.0 27523.0 20676.0 69247.0 73775.0 130880.0 134513.0 135227.0 129412.0 147664.0 148529.0 118974.0 73098.0 118974.0 118974.0 73098.0 73098.0
138860.0 140752.0 72976.0 75410.0 156497.0 158032.0 105502.0 97646.0 91131.0 97110.0 179505.0 187251.0 51886.0 56337.0 142240.0 135564.0 25589.0 23314.0 82867.0 85057.0 41918.0 41384.0 79726.0 86389.0 237423.0 236758.0 148945.0 141325.0 32230.0 27523.0 0.0 8448.0 79869.0 81903.0 104006.0 108040.0 111739.0 106650.0 162842.0 162439.0 135822.0 95068.0 135822.0 135822.0 95068.0 95068.0
131623.0 133775.0 79265.0 82234.0 149346.0 151102.0 107820.0 100141.0 87993.0 94404.0 173615.0 181404.0 45145.0 50288.0 149142.0 142619.0 17702.0 14868.0 85279.0 88186.0 37685.0 38711.0 75085.0 81334.0 237087.0 236140.0 150966.0 143437.0 24302.0 20676.0 8448.0 0.0 80042.0 82873.0 110206.0 113856.0 115531.0 110028.0 161988.0 162022.0 127741.0 91411.0 127741.0 127741.0 91411.0 91411.0
190186.0 194762.0 141696.0 140639.0 207777.0 211614.0 184394.0 176390.0 35058.0 34068.0 241131.0 248987.0 116188.0 123520.0 201516.0 193757.0 90120.0 82199.0 22372.0 30444.0 116101.0 118472.0 151011.0 155804.0 157592.0 157097.0 74095.0 67183.0 75623.0 69247.0 79869.0 80042.0 0.0 8049.0 170836.0 176810.0 187900.0 183837.0 83673.0 82715.0 176257.0 42206.0 176257.0 176257.0 42206.0 42206.0
196581.0 200987.0 140643.0 139125.0 214246.0 217936.0 185283.0 177235.0 42748.0 41104.0 246876.0 254740.0 120878.0 128027.0 198652.0 190820.0 94137.0 86309.0 14598.0 22661.0 119655.0 121545.0 155278.0 160346.0 156439.0 156348.0 69056.0 61855.0 80574.0 73775.0 81903.0 82873.0 8049.0 0.0 169198.0 175412.0 187859.0 184099.0 83884.0 82120.0 183114.0 49871.0 183114.0 183114.0 49871.0 49871.0
194501.0 192032.0 31032.0 30242.0 208244.0 206012.0 57642.0 53964.0 191768.0 196503.0 208771.0 214834.0 125153.0 122085.0 41968.0 37740.0 118329.0 121945.0 162602.0 159968.0 105787.0 97736.0 121408.0 128913.0 321983.0 323027.0 222378.0 214835.0 133543.0 130880.0 104006.0 110206.0 170836.0 169198.0 0.0 8039.0 39880.0 44148.0 252758.0 250137.0 208797.0 196710.0 208797.0 208797.0 196710.0 196710.0
192544.0 189769.0 35617.0 36314.0 205834.0 203340.0 52028.0 49204.0 196841.0 201775.0 204739.0 210633.0 126005.0 122467.0 42802.0 39976.0 120958.0 125006.0 169192.0 166766.0 106815.0 98737.0 119956.0 127259.0 328830.0 329770.0 229558.0 221987.0 136752.0 134513.0 108040.0 113856.0 176810.0 175412.0 8039.0 0.0 32974.0 38031.0 259124.0 256655.0 208225.0 201614.0 208225.0 208225.0 201614.0 201614.0
169868.0 166130.0 51035.0 56516.0 181573.0 178295.0 21764.0 22922.0 202868.0 208741.0 175898.0 181351.0 115257.0 109985.0 70242.0 69786.0 117828.0 123565.0 183936.0 182819.0 97740.0 90072.0 100546.0 106865.0 343854.0 344096.0 247481.0 239767.0 135497.0 135227.0 111739.0 115531.0 187900.0 187859.0 39880.0 32974.0 0.0 8004.0 271506.0 269978.0 190251.0 206726.0 190251.0 190251.0 206726.0 206726.0
161903.0 158207.0 50272.0 56611.0 173695.0 170477.0 14433.0 14923.0 197723.0 203758.0 168648.0 174214.0 107908.0 102474.0 77229.0 76306.0 111494.0 117463.0 180729.0 179939.0 90690.0 83138.0 92577.0 98868.0 340364.0 340440.0 244881.0 237147.0 129353.0 129412.0 106650.0 110028.0 183837.0 184099.0 44148.0 38031.0 8004.0 0.0 267507.0 266195.0 182282.0 201399.0 182282.0 182282.0 201399.0 201399.0
254221.0 259652.0 224505.0 222812.0 271287.0 275825.0 267938.0 259959.0 80254.0 72322.0 308186.0 315914.0 191954.0 199816.0 280379.0 272427.0 169174.0 161265.0 90576.0 94548.0 195810.0 199340.0 227611.0 231112.0 75824.0 74256.0 54664.0 57164.0 152218.0 147664.0 162842.0 161988.0 83673.0 83884.0 252758.0 259124.0 271506.0 267507.0 0.0 8428.0 238728.0 81174.0 238728.0 238728.0 81174.0 81174.0
256937.0 262367.0 222338.0 220352.0 274003.0 278541.0 267077.0 259060.0 82861.0 74868.0 310902.0 318630.0 193557.0 201351.0 276810.0 268830.0 170021.0 162072.0 87564.0 90923.0 196591.0 199809.0 229174.0 232934.0 75065.0 74383.0 46836.0 49846.0 153454.0 148529.0 162439.0 162022.0 82715.0 82120.0 250137.0 256655.0 269978.0 266195.0 8428.0 0.0 241444.0 84457.0 241444.0 241444.0 84457.0 84457.0
44275.0 52073.0 183973.0 190633.0 57108.0 63495.0 170653.0 167380.0 158600.0 166591.0 101167.0 107939.0 88120.0 88461.0 250648.0 246410.0 110237.0 113779.0 192960.0 199086.0 106667.0 113965.0 89706.0 83699.0 314170.0 312230.0 248445.0 242216.0 110802.0 118974.0 135822.0 127741.0 176257.0 183114.0 208797.0 208225.0 190251.0 182282.0 238728.0 241444.0 0.0 158470.0 0.0 0.0 158470.0 158470.0
173963.0 179394.0 166018.0 166783.0 191029.0 195567.0 199028.0 191448.0 7151.0 11757.0 227928.0 235656.0 113104.0 121085.0 231534.0 224138.0 93760.0 86341.0 64459.0 72531.0 119965.0 124850.0 148561.0 151405.0 157477.0 155537.0 97988.0 93095.0 75595.0 73098.0 95068.0 91411.0 42206.0 49871.0 196710.0 201614.0 206726.0 201399.0 81174.0 84457.0 158470.0 0.0 158470.0 158470.0 0.0 0.0
44275.0 52073.0 183973.0 190633.0 57108.0 63495.0 170653.0 167380.0 158600.0 166591.0 101167.0 107939.0 88120.0 88461.0 250648.0 246410.0 110237.0 113779.0 192960.0 199086.0 106667.0 113965.0 89706.0 83699.0 314170.0 312230.0 248445.0 242216.0 110802.0 118974.0 135822.0 127741.0 176257.0 183114.0 208797.0 208225.0 190251.0 182282.0 238728.0 241444.0 0.0 158470.0 0.0 0.0 158470.0 158470.0
44275.0 52073.0 183973.0 190633.0 57108.0 63495.0 170653.0 167380.0 158600.0 166591.0 101167.0 107939.0 88120.0 88461.0 250648.0 246410.0 110237.0 113779.0 192960.0 199086.0 106667.0 113965.0 89706.0 83699.0 314170.0 312230.0 248445.0 242216.0 110802.0 118974.0 135822.0 127741.0 176257.0 183114.0 208797.0 208225.0 190251.0 182282.0 238728.0 241444.0 0.0 158470.0 0.0 0.0 158470.0 158470.0
173963.0 179394.0 166018.0 166783.0 191029.0 195567.0 199028.0 191448.0 7151.0 11757.0 227928.0 235656.0 113104.0 121085.0 231534.0 224138.0 93760.0 86341.0 64459.0 72531.0 119965.0 124850.0 148561.0 151405.0 157477.0 155537.0 97988.0 93095.0 75595.0 73098.0 95068.0 91411.0 42206.0 49871.0 196710.0 201614.0 206726.0 201399.0 81174.0 84457.0 158470.0 0.0 158470.0 158470.0 0.0 0.0
173963.0 179394.0 166018.0 166783.0 191029.0 195567.0 199028.0 191448.0 7151.0 11757.0 227928.0 235656.0 113104.0 121085.0 231534.0 224138.0 93760.0 86341.0 64459.0 72531.0 119965.0 124850.0 148561.0 151405.0 157477.0 155537.0 97988.0 93095.0 75595.0 73098.0 95068.0 91411.0 42206.0 49871.0 196710.0 201614.0 206726.0 201399.0 81174.0 84457.0 158470.0 0.0 158470.0 158470.0 0.0 0.0
FIXED_EDGES_SECTION
1 2
3 4
5 6
7 8
9 10
11 12
13 14
15 16
17 18
19 20
21 22
23 24
25 26
27 28
29 30
31 32
33 34
35 36
37 38
39 40
-1 
DEMAND_SECTION
1 104
2 104
3 112
4 112
5 219
6 219
7 479
8 479
9 37
10 37
11 316
12 316
13 56
14 56
15 258
16 258
17 80
18 80
19 84
20 84
21 114
22 114
23 207
24 207
25 71
26 71
27 244
28 244
29 324
30 324
31 119
32 119
33 313
34 313
35 157
36 157
37 186
38 186
39 534
40 534
41 0
42 0
43 0
44 0
45 0
46 0
DEPOT_SECTION
41 
-1 
CAPACITIES_SECTION
5000 
5500 
-1 
EOF