NAME: GFS_20_1
TYPE: GFSP
DIMENSION: 48
VEHICLES: 2
CAPACITY: 5000.0
TRIP_DIST_LIMIT: 600000.0
TOTAL_DIST_LIMIT: 2100000.0
EDGE_WEIGHT_TYPE: EXPLICIT
EDGE_WEIGHT_FORMAT: FULL_MATRIX
EDGE_WEIGHT_SECTION
0.0 8111.0 255067.0 249903.0 248256.0 246648.0 115341.0 115500.0 231373.0 231833.0 120296.0 126982.0 93584.0 101253.0 53141.0 54019.0 157106.0 155850.0 279729.0 276337.0 341256.0 346107.0 262179.0 258918.0 268367.0 261416.0 177111.0 169055.0 165912.0 169801.0 158416.0 162759.0 172235.0 179186.0 172065.0 178832.0 165425.0 158837.0 192526.0 201025.0 279075.0 260732.0 279075.0 279075.0 279075.0 260732.0 260732.0 260732.0
8111.0 0.0 261379.0 256321.0 246555.0 245202.0 113867.0 114591.0 230110.0 230855.0 117481.0 124486.0 92219.0 100052.0 58642.0 58633.0 160676.0 159027.0 279150.0 275540.0 347795.0 352566.0 261661.0 258174.0 275049.0 268040.0 178780.0 170705.0 169415.0 173622.0 159350.0 163350.0 175727.0 182472.0 172045.0 178998.0 169342.0 162571.0 195512.0 203976.0 279587.0 265317.0 279587.0 279587.0 279587.0 265317.0 265317.0 265317.0
255067.0 261379.0 0.0 7469.0 265036.0 257375.0 227214.0 219125.0 245775.0 238524.0 247436.0 243351.0 227798.0 224756.0 203145.0 204872.0 132428.0 140342.0 249695.0 254203.0 87382.0 91543.0 239138.0 243976.0 24302.0 17897.0 164722.0 166399.0 128969.0 120502.0 182675.0 189031.0 126127.0 127688.0 201562.0 197935.0 121110.0 128439.0 130757.0 129949.0 224357.0 75676.0 224357.0 224357.0 224357.0 75676.0 75676.0 75676.0
249903.0 256321.0 7469.0 0.0 266770.0 259182.0 225084.0 216995.0 247263.0 240132.0 245393.0 241532.0 224991.0 222179.0 198274.0 200220.0 130903.0 138984.0 252702.0 257020.0 91704.0 96258.0 241751.0 246401.0 23540.0 15995.0 164797.0 166115.0 127913.0 119432.0 182013.0 188560.0 125406.0 127453.0 201430.0 198070.0 119742.0 126887.0 131375.0 131050.0 227389.0 80817.0 227389.0 227389.0 227389.0 80817.0 80817.0 80817.0
248256.0 246555.0 265036.0 266770.0 0.0 8072.0 132926.0 133444.0 21207.0 26930.0 130869.0 123007.0 154690.0 147132.0 220059.0 212901.0 157127.0 149358.0 48726.0 41009.0 332141.0 332350.0 40193.0 32154.0 289324.0 282428.0 111469.0 114830.0 153864.0 160650.0 109526.0 101754.0 152558.0 146712.0 86775.0 84025.0 163391.0 160277.0 137787.0 136379.0 83749.0 203425.0 83749.0 83749.0 83749.0 203425.0 203425.0 203425.0
246648.0 245202.0 257375.0 259182.0 8072.0 0.0 131360.0 131397.0 16121.0 20133.0 130548.0 122490.0 153084.0 145398.0 216970.0 209930.0 151012.0 143377.0 43794.0 36630.0 324187.0 324396.0 33313.0 25339.0 281670.0 274807.0 105231.0 108943.0 147473.0 154096.0 104608.0 96971.0 145969.0 139937.0 82318.0 78990.0 156958.0 154075.0 130654.0 129023.0 76242.0 195471.0 76242.0 76242.0 76242.0 195471.0 195471.0 195471.0
115341.0 113867.0 227214.0 225084.0 132926.0 131360.0 0.0 8090.0 116252.0 117209.0 20468.0 19156.0 21764.0 14433.0 92654.0 84886.0 95595.0 88537.0 166073.0 162070.0 312168.0 314840.0 148786.0 144827.0 248119.0 240368.0 84131.0 77114.0 100897.0 108867.0 59738.0 59701.0 105502.0 107820.0 62792.0 70593.0 107154.0 99433.0 114442.0 121241.0 170653.0 199028.0 170653.0 170653.0 170653.0 199028.0 199028.0 199028.0
115500.0 114591.0 219125.0 216995.0 133444.0 131397.0 8090.0 0.0 115953.0 116342.0 28497.0 26320.0 22922.0 14923.0 89174.0 81541.0 87566.0 80576.0 164599.0 160953.0 304115.0 306807.0 147155.0 143583.0 240034.0 232283.0 77674.0 70427.0 92965.0 100892.0 53548.0 54305.0 97646.0 100141.0 59092.0 66675.0 99127.0 91391.0 107146.0 114106.0 167380.0 191448.0 167380.0 167380.0 167380.0 191448.0 191448.0 191448.0
231373.0 230110.0 245775.0 247263.0 21207.0 16121.0 116252.0 115953.0 0.0 8219.0 116577.0 108350.0 137904.0 130140.0 200982.0 193981.0 135936.0 128153.0 53254.0 47503.0 314523.0 314782.0 38585.0 31951.0 270021.0 263018.0 90319.0 93622.0 132755.0 139623.0 88636.0 80949.0 131558.0 125864.0 66217.0 63051.0 142298.0 139103.0 117400.0 116428.0 76270.0 185857.0 76270.0 76270.0 76270.0 185857.0 185857.0 185857.0
231833.0 230855.0 238524.0 240132.0 26930.0 20133.0 117209.0 116342.0 8219.0 0.0 118938.0 110571.0 138674.0 130806.0 199803.0 192956.0 130918.0 123327.0 49712.0 44958.0 306749.0 306958.0 33644.0 28112.0 262793.0 255840.0 85119.0 88954.0 127340.0 133974.0 85410.0 77960.0 125853.0 119879.0 63833.0 59801.0 136825.0 133962.0 110858.0 109534.0 68795.0 178033.0 68795.0 68795.0 68795.0 178033.0 178033.0 178033.0
120296.0 117481.0 247436.0 245393.0 130869.0 130548.0 20468.0 28497.0 116577.0 118938.0 0.0 8540.0 32474.0 28944.0 105988.0 98117.0 115490.0 108189.0 168610.0 163747.0 332090.0 334657.0 151913.0 147035.0 268473.0 260722.0 99953.0 93577.0 120421.0 128531.0 75455.0 73746.0 124766.0 126547.0 73056.0 81000.0 127025.0 119379.0 132086.0 138421.0 177758.0 217268.0 177758.0 177758.0 177758.0 217268.0 217268.0 217268.0
126982.0 124486.0 243351.0 241532.0 123007.0 122490.0 19156.0 26320.0 108350.0 110571.0 8540.0 0.0 36330.0 31137.0 109749.0 101898.0 111035.0 103454.0 160216.0 155425.0 327419.0 329835.0 143468.0 138654.0 264741.0 256993.0 92958.0 86862.0 115499.0 123738.0 68588.0 66366.0 119574.0 120909.0 64907.0 72833.0 122500.0 114984.0 125759.0 131847.0 169228.0 211139.0 169228.0 169228.0 169228.0 211139.0 211139.0 211139.0
93584.0 92219.0 227798.0 224991.0 154690.0 153084.0 21764.0 22922.0 137904.0 138674.0 32474.0 36330.0 0.0 8004.0 73616.0 65748.0 99686.0 93897.0 187256.0 183443.0 314135.0 317281.0 169868.0 166130.0 247481.0 239767.0 97740.0 90072.0 106371.0 113618.0 74461.0 76219.0 111739.0 115531.0 81942.0 89449.0 111055.0 103169.0 124400.0 131918.0 190251.0 206726.0 190251.0 190251.0 190251.0 206726.0 206726.0 206726.0
101253.0 100052.0 224756.0 222179.0 147132.0 145398.0 14433.0 14923.0 130140.0 130806.0 28944.0 31137.0 8004.0 0.0 78812.0 70991.0 95196.0 88986.0 179306.0 175536.0 310689.0 313679.0 161903.0 158207.0 244881.0 237147.0 90690.0 83138.0 101488.0 108986.0 67101.0 68559.0 106650.0 110028.0 73979.0 81515.0 106677.0 98807.0 118307.0 125655.0 182282.0 201399.0 182282.0 182282.0 182282.0 201399.0 201399.0 201399.0
53141.0 58642.0 203145.0 198274.0 220059.0 216970.0 92654.0 89174.0 200982.0 199803.0 105988.0 109749.0 73616.0 78812.0 0.0 7871.0 106586.0 106532.0 244673.0 242490.0 289912.0 294522.0 227058.0 225063.0 217594.0 210437.0 133133.0 125359.0 115485.0 118526.0 118446.0 124360.0 121781.0 129247.0 136530.0 142053.0 113959.0 107864.0 143363.0 151892.0 238750.0 207941.0 238750.0 238750.0 238750.0 207941.0 207941.0 207941.0
54019.0 58633.0 204872.0 200220.0 212901.0 209930.0 84886.0 81541.0 193981.0 192956.0 98117.0 101898.0 65748.0 70991.0 7871.0 0.0 103599.0 102960.0 238232.0 235903.0 291922.0 296377.0 220601.0 218453.0 220014.0 212758.0 127966.0 120098.0 112465.0 116004.0 112410.0 118095.0 118786.0 126009.0 129917.0 135622.0 111560.0 105139.0 139810.0 148341.0 233058.0 206777.0 233058.0 233058.0 233058.0 206777.0 206777.0 206777.0
157106.0 160676.0 132428.0 130903.0 157127.0 151012.0 95595.0 87566.0 135936.0 130918.0 115490.0 111035.0 99686.0 95196.0 106586.0 103599.0 0.0 8574.0 163085.0 163800.0 216607.0 219245.0 146988.0 148162.0 154293.0 146572.0 45831.0 42557.0 8902.0 14049.0 53825.0 61390.0 15200.0 22901.0 76242.0 75511.0 11562.0 4035.0 37761.0 46114.0 146755.0 108273.0 146755.0 146755.0 146755.0 108273.0 108273.0 108273.0
155850.0 159027.0 140342.0 138984.0 149358.0 143377.0 88537.0 80576.0 128153.0 123327.0 108189.0 103454.0 93897.0 88986.0 106532.0 102960.0 8574.0 0.0 156791.0 157215.0 223980.0 226476.0 140434.0 141312.0 162421.0 154713.0 38517.0 34560.0 12502.0 20344.0 45255.0 52842.0 17989.0 23529.0 67758.0 67217.0 19246.0 12518.0 36857.0 45389.0 141709.0 113029.0 141709.0 141709.0 141709.0 113029.0 113029.0 113029.0
279729.0 279150.0 249695.0 252702.0 48726.0 43794.0 166073.0 164599.0 53254.0 49712.0 168610.0 160216.0 187256.0 179306.0 244673.0 238232.0 163085.0 156791.0 0.0 8263.0 312526.0 312734.0 17643.0 21604.0 273769.0 267556.0 118925.0 124940.0 157462.0 162385.0 126827.0 120412.0 154296.0 146805.0 108466.0 102624.0 166198.0 165346.0 134238.0 129940.0 46895.0 183810.0 46895.0 46895.0 46895.0 183810.0 183810.0 183810.0
276337.0 275540.0 254203.0 257020.0 41009.0 36630.0 162070.0 160953.0 47503.0 44958.0 163747.0 155425.0 183443.0 175536.0 242490.0 235903.0 163800.0 157215.0 8263.0 0.0 317175.0 317384.0 16822.0 17482.0 278356.0 272027.0 118992.0 124628.0 158537.0 163805.0 125316.0 118599.0 155661.0 148391.0 105987.0 100573.0 167462.0 166225.0 136331.0 132478.0 53539.0 188460.0 53539.0 53539.0 53539.0 188460.0 188460.0 188460.0
341256.0 347795.0 87382.0 91704.0 332141.0 324187.0 312168.0 304115.0 314523.0 306749.0 332090.0 327419.0 314135.0 310689.0 289912.0 291922.0 216607.0 223980.0 312526.0 317175.0 0.0 7469.0 302679.0 308109.0 73415.0 79983.0 242910.0 246025.0 211945.0 203681.0 263473.0 269008.0 208159.0 208051.0 279928.0 275161.0 205066.0 212741.0 207612.0 204597.0 287186.0 129679.0 287186.0 287186.0 287186.0 129679.0 129679.0 129679.0
346107.0 352566.0 91543.0 96258.0 332350.0 324396.0 314840.0 306807.0 314782.0 306958.0 334657.0 329835.0 317281.0 313679.0 294522.0 296377.0 219245.0 226476.0 312734.0 317384.0 7469.0 0.0 302888.0 308318.0 78967.0 85255.0 244366.0 247702.0 214338.0 206144.0 265305.0 270680.0 210384.0 209986.0 281304.0 276370.0 207687.0 215419.0 209018.0 205721.0 287395.0 129575.0 287395.0 287395.0 287395.0 129575.0 129575.0 129575.0
262179.0 261661.0 239138.0 241751.0 40193.0 33313.0 148786.0 147155.0 38585.0 33644.0 151913.0 143468.0 169868.0 161903.0 227058.0 220601.0 146988.0 140434.0 17643.0 16822.0 302679.0 302888.0 0.0 8039.0 263359.0 256908.0 102270.0 108021.0 141716.0 147009.0 109335.0 102840.0 138860.0 131623.0 90823.0 85005.0 150650.0 149404.0 119698.0 116031.0 44275.0 173963.0 44275.0 44275.0 44275.0 173963.0 173963.0 173963.0
258918.0 258174.0 243976.0 246401.0 32154.0 25339.0 144827.0 143583.0 31951.0 28112.0 147035.0 138654.0 166130.0 158207.0 225063.0 218453.0 148162.0 141312.0 21604.0 17482.0 308109.0 308318.0 8039.0 0.0 268240.0 261685.0 102887.0 108189.0 143289.0 148933.0 108145.0 101316.0 140752.0 133775.0 88542.0 83232.0 152398.0 150747.0 122440.0 119261.0 52073.0 179394.0 52073.0 52073.0 52073.0 179394.0 179394.0 179394.0
268367.0 275049.0 24302.0 23540.0 289324.0 281670.0 248119.0 240034.0 270021.0 262793.0 268473.0 264741.0 247481.0 244881.0 217594.0 220014.0 154293.0 162421.0 273769.0 278356.0 73415.0 78967.0 263359.0 268240.0 0.0 7751.0 188258.0 189640.0 151420.0 142940.0 205551.0 212099.0 148945.0 150966.0 224938.0 221522.0 143187.0 150270.0 154640.0 154059.0 248445.0 97988.0 248445.0 248445.0 248445.0 97988.0 97988.0 97988.0
261416.0 268040.0 17897.0 15995.0 282428.0 274807.0 240368.0 232283.0 263018.0 255840.0 260722.0 256993.0 239767.0 237147.0 210437.0 212758.0 146572.0 154713.0 267556.0 272027.0 79983.0 85255.0 256908.0 261685.0 7751.0 0.0 180791.0 182091.0 143750.0 135270.0 197927.0 204508.0 141325.0 143437.0 217416.0 214065.0 135482.0 142548.0 147330.0 146906.0 242216.0 93095.0 242216.0 242216.0 242216.0 93095.0 93095.0 93095.0
177111.0 178780.0 164722.0 164797.0 111469.0 105231.0 84131.0 77674.0 90319.0 85119.0 99953.0 92958.0 97740.0 90690.0 133133.0 127966.0 45831.0 38517.0 118925.0 118992.0 242910.0 244366.0 102270.0 102887.0 188258.0 180791.0 0.0 8078.0 42504.0 49740.0 24539.0 27289.0 41918.0 37685.0 37090.0 33283.0 52086.0 48845.0 35361.0 39783.0 106667.0 119965.0 106667.0 106667.0 106667.0 119965.0 119965.0 119965.0
169055.0 170705.0 166399.0 166115.0 114830.0 108943.0 77114.0 70427.0 93622.0 88954.0 93577.0 86862.0 90072.0 83138.0 125359.0 120098.0 42557.0 34560.0 124940.0 124628.0 246025.0 247702.0 108021.0 108189.0 189640.0 182091.0 8078.0 0.0 40756.0 48654.0 18360.0 22983.0 41384.0 38711.0 35441.0 33340.0 50294.0 45967.0 39454.0 45020.0 113965.0 124850.0 113965.0 113965.0 113965.0 124850.0 124850.0 124850.0
165912.0 169415.0 128969.0 127913.0 153864.0 147473.0 100897.0 92965.0 132755.0 127340.0 120421.0 115499.0 106371.0 101488.0 115485.0 112465.0 8902.0 12502.0 157462.0 158537.0 211945.0 214338.0 141716.0 143289.0 151420.0 143750.0 42504.0 40756.0 0.0 8481.0 54526.0 61599.0 6325.0 14134.0 75749.0 74096.0 9599.0 8694.0 29199.0 37434.0 139943.0 100704.0 139943.0 139943.0 139943.0 100704.0 100704.0 100704.0
169801.0 173622.0 120502.0 119432.0 160650.0 154096.0 108867.0 100892.0 139623.0 133974.0 128531.0 123738.0 113618.0 108986.0 118526.0 116004.0 14049.0 20344.0 162385.0 163805.0 203681.0 206144.0 147009.0 148933.0 142940.0 135270.0 49740.0 48654.0 8481.0 0.0 62924.0 69907.0 8189.0 15823.0 83871.0 81938.0 4886.0 11195.0 30445.0 37861.0 143565.0 94275.0 143565.0 143565.0 143565.0 94275.0 94275.0 94275.0
158416.0 159350.0 182675.0 182013.0 109526.0 104608.0 59738.0 53548.0 88636.0 85410.0 75455.0 68588.0 74461.0 67101.0 118446.0 112410.0 53825.0 45255.0 126827.0 125316.0 263473.0 265305.0 109335.0 108145.0 205551.0 197927.0 24539.0 18360.0 54526.0 62924.0 0.0 8006.0 56607.0 55480.0 23503.0 25632.0 63531.0 57709.0 57729.0 63372.0 120994.0 143177.0 120994.0 120994.0 120994.0 143177.0 143177.0 143177.0
162759.0 163350.0 189031.0 188560.0 101754.0 96971.0 59701.0 54305.0 80949.0 77960.0 73746.0 66366.0 76219.0 68559.0 124360.0 118095.0 61390.0 52842.0 120412.0 118599.0 269008.0 270680.0 102840.0 101316.0 212099.0 204508.0 27289.0 22983.0 61599.0 69907.0 8006.0 0.0 63258.0 61440.0 15497.0 18214.0 70779.0 65220.0 62139.0 67041.0 116316.0 147199.0 116316.0 116316.0 116316.0 147199.0 147199.0 147199.0
172235.0 175727.0 126127.0 125406.0 152558.0 145969.0 105502.0 97646.0 131558.0 125853.0 124766.0 119574.0 111739.0 106650.0 121781.0 118786.0 15200.0 17989.0 154296.0 155661.0 208159.0 210384.0 138860.0 140752.0 148945.0 141325.0 41918.0 41384.0 6325.0 8189.0 56607.0 63258.0 0.0 8448.0 76786.0 74489.0 12021.0 14403.0 23619.0 31617.0 135822.0 95068.0 135822.0 135822.0 135822.0 95068.0 95068.0 95068.0
179186.0 182472.0 127688.0 127453.0 146712.0 139937.0 107820.0 100141.0 125864.0 119879.0 126547.0 120909.0 115531.0 110028.0 129247.0 126009.0 22901.0 23529.0 146805.0 148391.0 208051.0 209986.0 131623.0 133775.0 150966.0 143437.0 37685.0 38711.0 14134.0 15823.0 55480.0 61440.0 8448.0 0.0 73979.0 70892.0 20213.0 22673.0 15185.0 23308.0 127741.0 91411.0 127741.0 127741.0 127741.0 91411.0 91411.0 91411.0
172065.0 172045.0 201562.0 201430.0 86775.0 82318.0 62792.0 59092.0 66217.0 63833.0 73056.0 64907.0 81942.0 73979.0 136530.0 129917.0 76242.0 67758.0 108466.0 105987.0 279928.0 281304.0 90823.0 88542.0 224938.0 217416.0 37090.0 35441.0 75749.0 83871.0 23503.0 15497.0 76786.0 73979.0 0.0 7955.0 85132.0 79981.0 72316.0 75912.0 108311.0 155705.0 108311.0 108311.0 108311.0 155705.0 155705.0 155705.0
178832.0 178998.0 197935.0 198070.0 84025.0 78990.0 70593.0 66675.0 63051.0 59801.0 81000.0 72833.0 89449.0 81515.0 142053.0 135622.0 75511.0 67217.0 102624.0 100573.0 275161.0 276370.0 85005.0 83232.0 221522.0 214065.0 33283.0 33340.0 74096.0 81938.0 25632.0 18214.0 74489.0 70892.0 7955.0 0.0 83632.0 79077.0 67762.0 70668.0 100915.0 149917.0 100915.0 100915.0 100915.0 149917.0 149917.0 149917.0
165425.0 169342.0 121110.0 119742.0 163391.0 156958.0 107154.0 99127.0 142298.0 136825.0 127025.0 122500.0 111055.0 106677.0 113959.0 111560.0 11562.0 19246.0 166198.0 167462.0 205066.0 207687.0 150650.0 152398.0 143187.0 135482.0 52086.0 50294.0 9599.0 4886.0 63531.0 70779.0 12021.0 20213.0 85132.0 83632.0 0.0 7886.0 35101.0 42654.0 147836.0 97785.0 147836.0 147836.0 147836.0 97785.0 97785.0 97785.0
158837.0 162571.0 128439.0 126887.0 160277.0 154075.0 99433.0 91391.0 139103.0 133962.0 119379.0 114984.0 103169.0 98807.0 107864.0 105139.0 4035.0 12518.0 165346.0 166225.0 212741.0 215419.0 149404.0 150747.0 150270.0 142548.0 48845.0 45967.0 8694.0 11195.0 57709.0 65220.0 14403.0 22673.0 79981.0 79077.0 7886.0 0.0 37822.0 45967.0 148365.0 105378.0 148365.0 148365.0 148365.0 105378.0 105378.0 105378.0
192526.0 195512.0 130757.0 131375.0 137787.0 130654.0 114442.0 107146.0 117400.0 110858.0 132086.0 125759.0 124400.0 118307.0 143363.0 139810.0 37761.0 36857.0 134238.0 136331.0 207612.0 209018.0 119698.0 122440.0 154640.0 147330.0 35361.0 39454.0 29199.0 30445.0 57729.0 62139.0 23619.0 15185.0 72316.0 67762.0 35101.0 37822.0 0.0 8532.0 113808.0 85477.0 113808.0 113808.0 113808.0 85477.0 85477.0 85477.0
201025.0 203976.0 129949.0 131050.0 136379.0 129023.0 121241.0 114106.0 116428.0 109534.0 138421.0 131847.0 131918.0 125655.0 151892.0 148341.0 46114.0 45389.0 129940.0 132478.0 204597.0 205721.0 116031.0 119261.0 154059.0 146906.0 39783.0 45020.0 37434.0 37861.0 63372.0 67041.0 31617.0 23308.0 75912.0 70668.0 42654.0 45967.0 8532.0 0.0 108260.0 80183.0 108260.0 108260.0 108260.0 80183.0 80183.0 80183.0
279075.0 279587.0 224357.0 227389.0 83749.0 76242.0 170653.0 167380.0 76270.0 68795.0 177758.0 169228.0 190251.0 182282.0 238750.0 233058.0 146755.0 141709.0 46895.0 53539.0 287186.0 287395.0 44275.0 52073.0 248445.0 242216.0 106667.0 113965.0 139943.0 143565.0 120994.0 116316.0 135822.0 127741.0 108311.0 100915.0 147836.0 148365.0 113808.0 108260.0 0.0 158470.0 0.0 0.0 0.0 158470.0 158470.0 158470.0
260732.0 265317.0 75676.0 80817.0 203425.0 195471.0 199028.0 191448.0 185857.0 178033.0 217268.0 211139.0 206726.0 201399.0 207941.0 206777.0 108273.0 113029.0 183810.0 188460.0 129679.0 129575.0 173963.0 179394.0 97988.0 93095.0 119965.0 124850.0 100704.0 94275.0 143177.0 147199.0 95068.0 91411.0 155705.0 149917.0 97785.0 105378.0 85477.0 80183.0 158470.0 0.0 158470.0 158470.0 158470.0 0.0 0.0 0.0
279075.0 279587.0 224357.0 227389.0 83749.0 76242.0 170653.0 167380.0 76270.0 68795.0 177758.0 169228.0 190251.0 182282.0 238750.0 233058.0 146755.0 141709.0 46895.0 53539.0 287186.0 287395.0 44275.0 52073.0 248445.0 242216.0 106667.0 113965.0 139943.0 143565.0 120994.0 116316.0 135822.0 127741.0 108311.0 100915.0 147836.0 148365.0 113808.0 108260.0 0.0 158470.0 0.0 0.0 0.0 158470.0 158470.0 158470.0
279075.0 279587.0 224357.0 227389.0 83749.0 76242.0 170653.0 167380.0 76270.0 68795.0 177758.0 169228.0 190251.0 182282.0 238750.0 233058.0 146755.0 141709.0 46895.0 53539.0 287186.0 287395.0 44275.0 52073.0 248445.0 242216.0 106667.0 113965.0 139943.0 143565.0 120994.0 116316.0 135822.0 127741.0 108311.0 100915.0 147836.0 148365.0 113808.0 108260.0 0.0 158470.0 0.0 0.0 0.0 158470.0 158470.0 158470.0
279075.0 279587.0 224357.0 227389.0 83749.0 76242.0 170653.0 167380.0 76270.0 68795.0 177758.0 169228.0 190251.0 182282.0 238750.0 233058.0 146755.0 141709.0 46895.0 53539.0 287186.0 287395.0 44275.0 52073.0 248445.0 242216.0 106667.0 113965.0 139943.0 143565.0 120994.0 116316.0 135822.0 127741.0 108311.0 100915.0 147836.0 148365.0 113808.0 108260.0 0.0 158470.0 0.0 0.0 0.0 158470.0 158470.0 158470.0
260732.0 265317.0 75676.0 80817.0 203425.0 195471.0 199028.0 191448.0 185857.0 178033.0 217268.0 211139.0 206726.0 201399.0 207941.0 206777.0 108273.0 113029.0 183810.0 188460.0 129679.0 129575.0 173963.0 179394.0 97988.0 93095.0 119965.0 124850.0 100704.0 94275.0 143177.0 147199.0 95068.0 91411.0 155705.0 149917.0 97785.0 105378.0 85477.0 80183.0 158470.0 0.0 158470.0 158470.0 158470.0 0.0 0.0 0.0
260732.0 265317.0 75676.0 80817.0 203425.0 195471.0 199028.0 191448.0 185857.0 178033.0 217268.0 211139.0 206726.0 201399.0 207941.0 206777.0 108273.0 113029.0 183810.0 188460.0 129679.0 129575.0 173963.0 179394.0 97988.0 93095.0 119965.0 124850.0 100704.0 94275.0 143177.0 147199.0 95068.0 91411.0 155705.0 149917.0 97785.0 105378.0 85477.0 80183.0 158470.0 0.0 158470.0 158470.0 158470.0 0.0 0.0 0.0
260732.0 265317.0 75676.0 80817.0 203425.0 195471.0 199028.0 191448.0 185857.0 178033.0 217268.0 211139.0 206726.0 201399.0 207941.0 206777.0 108273.0 113029.0 183810.0 188460.0 129679.0 129575.0 173963.0 179394.0 97988.0 93095.0 119965.0 124850.0 100704.0 94275.0 143177.0 147199.0 95068.0 91411.0 155705.0 149917.0 97785.0 105378.0 85477.0 80183.0 158470.0 0.0 158470.0 158470.0 158470.0 0.0 0.0 0.0
FIXED_EDGES_SECTION
1 2
3 4
5 6
7 8
9 10
11 12
13 14
15 16
17 18
19 20
21 22
23 24
25 26
27 28
29 30
31 32
33 34
35 36
37 38
39 40
-1 
DEMAND_SECTION
1 138
2 138
3 620
4 620
5 379
6 379
7 479
8 479
9 493
10 493
11 217
12 217
13 186
14 186
15 277
16 277
17 271
18 271
19 292
20 292
21 60
22 60
23 104
24 104
25 244
26 244
27 114
28 114
29 421
30 421
31 541
32 541
33 119
34 119
35 341
36 341
37 291
38 291
39 358
40 358
41 0
42 0
43 0
44 0
45 0
46 0
47 0
48 0
DEPOT_SECTION
41 
-1 
CAPACITIES_SECTION
5000 
5500 
-1 
EOF