NAME: GFS_20_1
TYPE: GFSP
DIMENSION: 48
VEHICLES: 2
CAPACITY: 5000.0
TRIP_DIST_LIMIT: 600000.0
TOTAL_DIST_LIMIT: 2100000.0
EDGE_WEIGHT_TYPE: EXPLICIT
EDGE_WEIGHT_FORMAT: FULL_MATRIX
EDGE_WEIGHT_SECTION
0.0 8025.0 57630.0 52341.0 199027.0 195702.0 117218.0 111794.0 94826.0 88641.0 216239.0 219370.0 58385.0 55033.0 209869.0 211117.0 129916.0 137809.0 176525.0 169124.0 94107.0 87502.0 71927.0 71735.0 164376.0 165526.0 166267.0 163249.0 217949.0 211049.0 108928.0 110861.0 76265.0 73960.0 83388.0 91348.0 186953.0 190926.0 21879.0 17139.0 155178.0 31579.0 155178.0 155178.0 155178.0 31579.0 31579.0 31579.0
8025.0 0.0 65623.0 60365.0 205741.0 202285.0 109630.0 104360.0 102367.0 96007.0 220506.0 223863.0 51728.0 49060.0 217509.0 218844.0 137862.0 145766.0 184195.0 176746.0 86936.0 80513.0 63901.0 63769.0 171421.0 172376.0 170054.0 166729.0 225183.0 218201.0 116916.0 118884.0 84270.0 81982.0 91414.0 99373.0 193857.0 197960.0 24862.0 17968.0 161762.0 28701.0 161762.0 161762.0 161762.0 28701.0 28701.0 28701.0
57630.0 65623.0 0.0 8186.0 150850.0 149022.0 173868.0 167962.0 50112.0 48132.0 198082.0 199173.0 112984.0 107858.0 154181.0 154812.0 75203.0 82737.0 120765.0 113792.0 149537.0 142416.0 129410.0 129358.0 121511.0 124874.0 154721.0 154417.0 165290.0 159100.0 51301.0 53526.0 21756.0 16929.0 26650.0 34357.0 137397.0 140207.0 55045.0 60677.0 110802.0 75595.0 110802.0 110802.0 110802.0 75595.0 75595.0 75595.0
52341.0 60365.0 8186.0 0.0 158966.0 157183.0 167484.0 161417.0 48867.0 45562.0 193388.0 194756.0 106241.0 100865.0 161382.0 161801.0 78272.0 86031.0 127999.0 121162.0 142829.0 135613.0 124262.0 123804.0 120796.0 123651.0 149010.0 148412.0 173059.0 166956.0 57302.0 58615.0 24182.0 21803.0 31064.0 39039.0 145461.0 148193.0 52642.0 57422.0 118974.0 73098.0 118974.0 118974.0 118974.0 73098.0 73098.0 73098.0
199027.0 205741.0 150850.0 158966.0 0.0 8285.0 313803.0 309216.0 163620.0 170008.0 300489.0 297866.0 257380.0 253883.0 56786.0 64892.0 134772.0 132497.0 57890.0 56934.0 292467.0 286226.0 263314.0 265514.0 192449.0 200399.0 274225.0 277267.0 33853.0 25792.0 114985.0 121052.0 146787.0 142143.0 138079.0 132953.0 14862.0 17281.0 184055.0 192155.0 65346.0 202490.0 65346.0 65346.0 65346.0 202490.0 202490.0 202490.0
195702.0 202285.0 149022.0 157183.0 8285.0 0.0 310306.0 305719.0 164328.0 170436.0 303585.0 301157.0 253956.0 250677.0 64557.0 72585.0 137228.0 135404.0 62947.0 61056.0 288969.0 282740.0 259818.0 262017.0 196077.0 203936.0 276102.0 278932.0 42109.0 34077.0 115532.0 122004.0 146146.0 141141.0 137607.0 132864.0 18187.0 23060.0 180558.0 188658.0 60282.0 198994.0 60282.0 60282.0 60282.0 198994.0 198994.0 198994.0
117218.0 109630.0 173868.0 167484.0 313803.0 310306.0 0.0 8065.0 199917.0 191976.0 267939.0 273914.0 61891.0 68544.0 327087.0 328269.0 240484.0 248501.0 293735.0 286341.0 26625.0 34366.0 53969.0 49217.0 258328.0 256595.0 217274.0 210824.0 334467.0 327315.0 224785.0 225596.0 189892.0 189225.0 198055.0 206003.0 302341.0 306805.0 129756.0 121650.0 269783.0 116178.0 269783.0 269783.0 269783.0 116178.0 116178.0 116178.0
111794.0 104360.0 167962.0 161417.0 309216.0 305719.0 8065.0 0.0 192891.0 184893.0 259915.0 265874.0 55362.0 61675.0 321552.0 322588.0 233700.0 241711.0 288164.0 280845.0 19238.0 26969.0 51924.0 46193.0 250680.0 248870.0 209220.0 202780.0 329486.0 322426.0 218687.0 219299.0 183548.0 183098.0 191814.0 199739.0 297696.0 302030.0 125257.0 117117.0 265195.0 112592.0 265195.0 265195.0 265195.0 112592.0 112592.0 112592.0
94826.0 102367.0 50112.0 48867.0 163620.0 164328.0 199917.0 192891.0 0.0 8440.0 153017.0 153143.0 138349.0 131388.0 148655.0 146588.0 42595.0 50279.0 117815.0 113316.0 173664.0 165974.0 164071.0 161915.0 71940.0 74873.0 115278.0 116838.0 168132.0 164000.0 48812.0 42669.0 30708.0 38573.0 33800.0 34169.0 148853.0 149178.0 100412.0 104026.0 135648.0 120401.0 135648.0 135648.0 135648.0 120401.0 120401.0 120401.0
88641.0 96007.0 48132.0 45562.0 170008.0 170436.0 191976.0 184893.0 8440.0 0.0 151565.0 152134.0 130535.0 123484.0 156537.0 154618.0 51035.0 58711.0 125387.0 120662.0 165658.0 157953.0 156991.0 154613.0 76423.0 78587.0 111712.0 112764.0 175481.0 171161.0 55025.0 49564.0 31289.0 39180.0 36415.0 38485.0 155308.0 155891.0 95639.0 98749.0 140215.0 115283.0 140215.0 140215.0 140215.0 115283.0 115283.0 115283.0
216239.0 220506.0 198082.0 193388.0 300489.0 303585.0 267939.0 259915.0 153017.0 151565.0 0.0 8088.0 223525.0 215766.0 265113.0 259348.0 166895.0 168189.0 244492.0 243829.0 244184.0 237610.0 260916.0 254638.0 109123.0 100910.0 51939.0 57469.0 293006.0 292056.0 195880.0 187652.0 182809.0 190727.0 186817.0 186426.0 285945.0 283741.0 232582.0 232018.0 284593.0 247775.0 284593.0 284593.0 284593.0 247775.0 247775.0 247775.0
219370.0 223863.0 199173.0 194756.0 297866.0 301157.0 273914.0 265874.0 153143.0 152134.0 8088.0 0.0 228476.0 220664.0 261327.0 255404.0 164973.0 165894.0 241479.0 241071.0 249904.0 243235.0 265685.0 259545.0 105813.0 97687.0 57028.0 63110.0 289548.0 288812.0 194869.0 186550.0 183259.0 191194.0 186907.0 186171.0 283407.0 281013.0 235216.0 234917.0 283373.0 250835.0 283373.0 283373.0 283373.0 250835.0 250835.0 250835.0
58385.0 51728.0 112984.0 106241.0 257380.0 253956.0 61891.0 55362.0 138349.0 130535.0 223525.0 228476.0 0.0 7996.0 266985.0 267782.0 178620.0 186639.0 233565.0 226391.0 36588.0 29453.0 37930.0 31140.0 199364.0 198346.0 171603.0 166291.0 276117.0 269310.0 163443.0 163949.0 128190.0 127848.0 136488.0 144401.0 245337.0 249274.0 75254.0 67280.0 213451.0 68145.0 213451.0 213451.0 213451.0 68145.0 68145.0 68145.0
55033.0 49060.0 107858.0 100865.0 253883.0 250677.0 68544.0 61675.0 131388.0 123484.0 215766.0 220664.0 7996.0 0.0 262028.0 262632.0 172026.0 180037.0 228607.0 221547.0 42561.0 35043.0 45342.0 38881.0 191670.0 190568.0 163834.0 158592.0 271869.0 265194.0 157856.0 158065.0 122282.0 122294.0 130730.0 138593.0 241596.0 245351.0 73407.0 65669.0 210164.0 68493.0 210164.0 210164.0 210164.0 68493.0 68493.0 68493.0
209869.0 217509.0 154181.0 161382.0 56786.0 64557.0 327087.0 321552.0 148655.0 156537.0 265113.0 261327.0 266985.0 262028.0 0.0 8242.0 110090.0 104854.0 33423.0 40779.0 303435.0 296439.0 279100.0 280512.0 156177.0 164436.0 247045.0 251404.0 30724.0 34118.0 106095.0 108521.0 142392.0 140616.0 133354.0 126142.0 50673.0 43380.0 199654.0 207344.0 100102.0 218659.0 100102.0 100102.0 100102.0 218659.0 218659.0 218659.0
211117.0 218844.0 154812.0 161801.0 64892.0 72585.0 328269.0 322588.0 146588.0 154618.0 259348.0 255404.0 267782.0 262632.0 8242.0 0.0 106980.0 101323.0 34976.0 42940.0 304308.0 297223.0 280959.0 282136.0 150652.0 158914.0 242520.0 247060.0 38616.0 42335.0 105676.0 107465.0 142025.0 140703.0 133065.0 125650.0 58212.0 51032.0 201670.0 209249.0 105724.0 220823.0 105724.0 105724.0 105724.0 220823.0 220823.0 220823.0
129916.0 137862.0 75203.0 78272.0 134772.0 137228.0 240484.0 233700.0 42595.0 51035.0 166895.0 164973.0 178620.0 172026.0 110090.0 106980.0 0.0 8022.0 82150.0 79535.0 214547.0 206932.0 201359.0 200089.0 63304.0 70138.0 139897.0 143417.0 132958.0 130143.0 35949.0 27908.0 54111.0 58432.0 48804.0 41852.0 119999.0 118622.0 130228.0 135563.0 119700.0 150783.0 119700.0 119700.0 119700.0 150783.0 150783.0 150783.0
137809.0 145766.0 82737.0 86031.0 132497.0 135404.0 248501.0 241711.0 50279.0 58711.0 168189.0 165894.0 186639.0 180037.0 104854.0 101323.0 8022.0 0.0 78285.0 76392.0 222554.0 214936.0 209312.0 208078.0 62234.0 69576.0 143425.0 147287.0 128811.0 126435.0 40756.0 33369.0 61851.0 65885.0 56199.0 48990.0 117852.0 116002.0 137782.0 143230.0 120848.0 158330.0 120848.0 120848.0 120848.0 158330.0 158330.0 158330.0
176525.0 184195.0 120765.0 127999.0 57890.0 62947.0 293735.0 288164.0 117815.0 125387.0 244492.0 241479.0 233565.0 228607.0 33423.0 34976.0 82150.0 78285.0 0.0 8219.0 270021.0 263018.0 246068.0 247337.0 135706.0 143795.0 221697.0 225450.0 50867.0 48153.0 73287.0 76422.0 109413.0 107363.0 100338.0 93312.0 44834.0 40611.0 166728.0 174335.0 76270.0 185857.0 76270.0 76270.0 76270.0 185857.0 185857.0 185857.0
169124.0 176746.0 113792.0 121162.0 56934.0 61056.0 286341.0 280845.0 113316.0 120662.0 243829.0 241071.0 226391.0 221547.0 40779.0 42940.0 79535.0 76392.0 8219.0 0.0 262793.0 255840.0 238368.0 239739.0 135540.0 143516.0 219422.0 222931.0 54824.0 50956.0 67484.0 71284.0 103268.0 100840.0 94173.0 87385.0 42906.0 39944.0 158962.0 166617.0 68795.0 178033.0 68795.0 68795.0 68795.0 178033.0 178033.0 178033.0
94107.0 86936.0 149537.0 142829.0 292467.0 288969.0 26625.0 19238.0 173664.0 165658.0 244184.0 249904.0 36588.0 42561.0 303435.0 304308.0 214547.0 222554.0 270021.0 262793.0 0.0 7751.0 42682.0 35143.0 231716.0 230025.0 193009.0 186814.0 312053.0 305120.0 200027.0 200464.0 164689.0 164432.0 173038.0 180939.0 280750.0 284895.0 108925.0 100782.0 248445.0 97988.0 248445.0 248445.0 248445.0 97988.0 97988.0 97988.0
87502.0 80513.0 142416.0 135613.0 286226.0 282740.0 34366.0 26969.0 165974.0 157953.0 237610.0 243235.0 29453.0 35043.0 296439.0 297223.0 206932.0 214936.0 263018.0 255840.0 7751.0 0.0 41635.0 33554.0 223998.0 222337.0 186279.0 180186.0 305412.0 298546.0 192745.0 193073.0 157292.0 157158.0 165693.0 173576.0 274365.0 278414.0 103054.0 94937.0 242216.0 93095.0 242216.0 242216.0 242216.0 93095.0 93095.0 93095.0
71927.0 63901.0 129410.0 124262.0 263314.0 259818.0 53969.0 51924.0 164071.0 156991.0 260916.0 265685.0 37930.0 45342.0 279100.0 280959.0 201359.0 209312.0 246068.0 238368.0 42682.0 41635.0 0.0 8300.0 229844.0 229674.0 208977.0 203848.0 284377.0 277045.0 180633.0 182774.0 148090.0 145873.0 155315.0 163274.0 251853.0 256391.0 79514.0 71756.0 219294.0 63526.0 219294.0 219294.0 219294.0 63526.0 63526.0 63526.0
71735.0 63769.0 129358.0 123804.0 265514.0 262017.0 49217.0 46193.0 161915.0 154613.0 254638.0 259545.0 31140.0 38881.0 280512.0 282136.0 200089.0 208078.0 247337.0 239739.0 35143.0 33554.0 8300.0 0.0 226452.0 226009.0 202710.0 197427.0 286559.0 279244.0 180658.0 182419.0 147336.0 145552.0 154852.0 162835.0 254053.0 258562.0 81500.0 73522.0 221494.0 67000.0 221494.0 221494.0 221494.0 67000.0 67000.0 67000.0
164376.0 171421.0 121511.0 120796.0 192449.0 196077.0 258328.0 250680.0 71940.0 76423.0 109123.0 105813.0 199364.0 191670.0 156177.0 150652.0 63304.0 62234.0 135706.0 135540.0 231716.0 223998.0 229844.0 226452.0 0.0 8262.0 96087.0 102037.0 183884.0 183013.0 97782.0 89254.0 100550.0 107708.0 100042.0 96044.0 178152.0 175468.0 172024.0 175145.0 182844.0 191700.0 182844.0 182844.0 182844.0 191700.0 191700.0 191700.0
165526.0 172376.0 124874.0 123651.0 200399.0 203936.0 256595.0 248870.0 74873.0 78587.0 100910.0 97687.0 198346.0 190568.0 164436.0 158914.0 70138.0 69576.0 143795.0 143516.0 230025.0 222337.0 229674.0 226009.0 8262.0 0.0 88504.0 94635.0 192100.0 191182.0 103915.0 95362.0 104345.0 111721.0 104473.0 100953.0 186052.0 183456.0 174148.0 176920.0 189830.0 193544.0 189830.0 189830.0 189830.0 193544.0 193544.0 193544.0
166267.0 170054.0 154721.0 149010.0 274225.0 276102.0 217274.0 209220.0 115278.0 111712.0 51939.0 57028.0 171603.0 163834.0 247045.0 242520.0 139897.0 143425.0 221697.0 219422.0 193009.0 186279.0 208977.0 202710.0 96087.0 88504.0 0.0 7817.0 272191.0 269833.0 162541.0 155065.0 142523.0 150178.0 148119.0 149430.0 259380.0 258383.0 183724.0 182506.0 250760.0 197841.0 250760.0 250760.0 250760.0 197841.0 197841.0 197841.0
163249.0 166729.0 154417.0 148412.0 277267.0 278932.0 210824.0 202780.0 116838.0 112764.0 57469.0 63110.0 166291.0 158592.0 251404.0 247060.0 143417.0 147287.0 225450.0 222931.0 186814.0 180186.0 203848.0 197427.0 102037.0 94635.0 7817.0 0.0 276095.0 273532.0 164701.0 157428.0 143183.0 150716.0 149153.0 150869.0 262408.0 261615.0 181247.0 179704.0 252484.0 194778.0 252484.0 252484.0 252484.0 194778.0 194778.0 194778.0
217949.0 225183.0 165290.0 173059.0 33853.0 42109.0 334467.0 329486.0 168132.0 175481.0 293006.0 289548.0 276117.0 271869.0 30724.0 38616.0 132958.0 128811.0 50867.0 54824.0 312053.0 305412.0 284377.0 286559.0 183884.0 192100.0 272191.0 276095.0 0.0 8543.0 121859.0 126049.0 156982.0 153813.0 147910.0 141507.0 35920.0 29382.0 205059.0 213061.0 92852.0 223554.0 92852.0 92852.0 92852.0 223554.0 223554.0 223554.0
211049.0 218201.0 159100.0 166956.0 25792.0 34077.0 327315.0 322426.0 164000.0 171161.0 292056.0 288812.0 269310.0 265194.0 34118.0 42335.0 130143.0 126435.0 48153.0 50956.0 305120.0 298546.0 277045.0 279244.0 183013.0 191182.0 269833.0 273532.0 8543.0 0.0 116988.0 121610.0 151596.0 148120.0 142562.0 136393.0 27475.0 21190.0 197759.0 205793.0 84514.0 216221.0 84514.0 84514.0 84514.0 216221.0 216221.0 216221.0
108928.0 116916.0 51301.0 57302.0 114985.0 115532.0 224785.0 218687.0 48812.0 55025.0 195880.0 194869.0 163443.0 157856.0 106095.0 105676.0 35949.0 40756.0 73287.0 67484.0 200027.0 192745.0 180633.0 180658.0 97782.0 103915.0 162541.0 164701.0 121859.0 116988.0 0.0 8555.0 36352.0 35595.0 27406.0 20049.0 100286.0 100996.0 104225.0 110743.0 88850.0 124359.0 88850.0 88850.0 88850.0 124359.0 124359.0 124359.0
110861.0 118884.0 53526.0 58615.0 121052.0 122004.0 225596.0 219299.0 42669.0 49564.0 187652.0 186550.0 163949.0 158065.0 108521.0 107465.0 27908.0 33369.0 76422.0 71284.0 200464.0 193073.0 182774.0 182419.0 89254.0 95362.0 155065.0 157428.0 126049.0 121610.0 8555.0 0.0 35783.0 36902.0 27609.0 19625.0 106255.0 106509.0 107774.0 113923.0 96959.0 128140.0 96959.0 96959.0 96959.0 128140.0 128140.0 128140.0
76265.0 84270.0 21756.0 24182.0 146787.0 146146.0 189892.0 183548.0 30708.0 31289.0 182809.0 183259.0 128190.0 122282.0 142392.0 142025.0 54111.0 61851.0 109413.0 103268.0 164689.0 157292.0 148090.0 147336.0 100550.0 104345.0 142523.0 143183.0 156982.0 151596.0 36352.0 35783.0 0.0 7938.0 9096.0 16448.0 132540.0 134249.0 76335.0 81475.0 112043.0 96878.0 112043.0 112043.0 112043.0 96878.0 96878.0 96878.0
73960.0 81982.0 16929.0 21803.0 142143.0 141141.0 189225.0 183098.0 38573.0 39180.0 190727.0 191194.0 127848.0 122294.0 140616.0 140703.0 58432.0 65885.0 107363.0 100840.0 164432.0 157158.0 145873.0 145552.0 107708.0 111721.0 150178.0 150716.0 153813.0 148120.0 35595.0 36902.0 7938.0 0.0 9723.0 17487.0 128113.0 130191.0 71927.0 77605.0 105770.0 92464.0 105770.0 105770.0 105770.0 92464.0 92464.0 92464.0
83388.0 91414.0 26650.0 31064.0 138079.0 137607.0 198055.0 191814.0 33800.0 36415.0 186817.0 186907.0 136488.0 130730.0 133354.0 133065.0 48804.0 56199.0 100338.0 94173.0 173038.0 165693.0 155315.0 154852.0 100042.0 104473.0 148119.0 149153.0 147910.0 142562.0 27406.0 27609.0 9096.0 9723.0 0.0 7988.0 123757.0 125347.0 81644.0 87321.0 104539.0 102177.0 104539.0 104539.0 104539.0 102177.0 102177.0 102177.0
91348.0 99373.0 34357.0 39039.0 132953.0 132864.0 206003.0 199739.0 34169.0 38485.0 186426.0 186171.0 144401.0 138593.0 126142.0 125650.0 41852.0 48990.0 93312.0 87385.0 180939.0 173576.0 163274.0 162835.0 96044.0 100953.0 149430.0 150869.0 141507.0 136393.0 20049.0 19625.0 16448.0 17487.0 7988.0 0.0 118459.0 119699.0 89182.0 95015.0 101763.0 109679.0 101763.0 101763.0 101763.0 109679.0 109679.0 109679.0
186953.0 193857.0 137397.0 145461.0 14862.0 18187.0 302341.0 297696.0 148853.0 155308.0 285945.0 283407.0 245337.0 241596.0 50673.0 58212.0 119999.0 117852.0 44834.0 42906.0 280750.0 274365.0 251853.0 254053.0 178152.0 186052.0 259380.0 262408.0 35920.0 27475.0 100286.0 106255.0 132540.0 128113.0 123757.0 118459.0 0.0 7456.0 172590.0 180691.0 57108.0 191029.0 57108.0 57108.0 57108.0 191029.0 191029.0 191029.0
190926.0 197960.0 140207.0 148193.0 17281.0 23060.0 306805.0 302030.0 149178.0 155891.0 283741.0 281013.0 249274.0 245351.0 43380.0 51032.0 118622.0 116002.0 40611.0 39944.0 284895.0 278414.0 256391.0 258562.0 175468.0 183456.0 258383.0 261615.0 29382.0 21190.0 100996.0 106509.0 134249.0 130191.0 125347.0 119699.0 7456.0 0.0 177127.0 185194.0 63495.0 195567.0 63495.0 63495.0 63495.0 195567.0 195567.0 195567.0
21879.0 24862.0 55045.0 52642.0 184055.0 180558.0 129756.0 125257.0 100412.0 95639.0 232582.0 235216.0 75254.0 73407.0 199654.0 201670.0 130228.0 137782.0 166728.0 158962.0 108925.0 103054.0 79514.0 81500.0 172024.0 174148.0 183724.0 181247.0 205059.0 197759.0 104225.0 107774.0 76335.0 71927.0 81644.0 89182.0 172590.0 177127.0 0.0 8150.0 140034.0 20556.0 140034.0 140034.0 140034.0 20556.0 20556.0 20556.0
17139.0 17968.0 60677.0 57422.0 192155.0 188658.0 121650.0 117117.0 104026.0 98749.0 232018.0 234917.0 67280.0 65669.0 207344.0 209249.0 135563.0 143230.0 174335.0 166617.0 100782.0 94937.0 71756.0 73522.0 175145.0 176920.0 182506.0 179704.0 213061.0 205793.0 110743.0 113923.0 81475.0 77605.0 87321.0 95015.0 180691.0 185194.0 8150.0 0.0 148135.0 16669.0 148135.0 148135.0 148135.0 16669.0 16669.0 16669.0
155178.0 161762.0 110802.0 118974.0 65346.0 60282.0 269783.0 265195.0 135648.0 140215.0 284593.0 283373.0 213451.0 210164.0 100102.0 105724.0 119700.0 120848.0 76270.0 68795.0 248445.0 242216.0 219294.0 221494.0 182844.0 189830.0 250760.0 252484.0 92852.0 84514.0 88850.0 96959.0 112043.0 105770.0 104539.0 101763.0 57108.0 63495.0 140034.0 148135.0 0.0 158470.0 0.0 0.0 0.0 158470.0 158470.0 158470.0
31579.0 28701.0 75595.0 73098.0 202490.0 198994.0 116178.0 112592.0 120401.0 115283.0 247775.0 250835.0 68145.0 68493.0 218659.0 220823.0 150783.0 158330.0 185857.0 178033.0 97988.0 93095.0 63526.0 67000.0 191700.0 193544.0 197841.0 194778.0 223554.0 216221.0 124359.0 128140.0 96878.0 92464.0 102177.0 109679.0 191029.0 195567.0 20556.0 16669.0 158470.0 0.0 158470.0 158470.0 158470.0 0.0 0.0 0.0
155178.0 161762.0 110802.0 118974.0 65346.0 60282.0 269783.0 265195.0 135648.0 140215.0 284593.0 283373.0 213451.0 210164.0 100102.0 105724.0 119700.0 120848.0 76270.0 68795.0 248445.0 242216.0 219294.0 221494.0 182844.0 189830.0 250760.0 252484.0 92852.0 84514.0 88850.0 96959.0 112043.0 105770.0 104539.0 101763.0 57108.0 63495.0 140034.0 148135.0 0.0 158470.0 0.0 0.0 0.0 158470.0 158470.0 158470.0
155178.0 161762.0 110802.0 118974.0 65346.0 60282.0 269783.0 265195.0 135648.0 140215.0 284593.0 283373.0 213451.0 210164.0 100102.0 105724.0 119700.0 120848.0 76270.0 68795.0 248445.0 242216.0 219294.0 221494.0 182844.0 189830.0 250760.0 252484.0 92852.0 84514.0 88850.0 96959.0 112043.0 105770.0 104539.0 101763.0 57108.0 63495.0 140034.0 148135.0 0.0 158470.0 0.0 0.0 0.0 158470.0 158470.0 158470.0
155178.0 161762.0 110802.0 118974.0 65346.0 60282.0 269783.0 265195.0 135648.0 140215.0 284593.0 283373.0 213451.0 210164.0 100102.0 105724.0 119700.0 120848.0 76270.0 68795.0 248445.0 242216.0 219294.0 221494.0 182844.0 189830.0 250760.0 252484.0 92852.0 84514.0 88850.0 96959.0 112043.0 105770.0 104539.0 101763.0 57108.0 63495.0 140034.0 148135.0 0.0 158470.0 0.0 0.0 0.0 158470.0 158470.0 158470.0
31579.0 28701.0 75595.0 73098.0 202490.0 198994.0 116178.0 112592.0 120401.0 115283.0 247775.0 250835.0 68145.0 68493.0 218659.0 220823.0 150783.0 158330.0 185857.0 178033.0 97988.0 93095.0 63526.0 67000.0 191700.0 193544.0 197841.0 194778.0 223554.0 216221.0 124359.0 128140.0 96878.0 92464.0 102177.0 109679.0 191029.0 195567.0 20556.0 16669.0 158470.0 0.0 158470.0 158470.0 158470.0 0.0 0.0 0.0
31579.0 28701.0 75595.0 73098.0 202490.0 198994.0 116178.0 112592.0 120401.0 115283.0 247775.0 250835.0 68145.0 68493.0 218659.0 220823.0 150783.0 158330.0 185857.0 178033.0 97988.0 93095.0 63526.0 67000.0 191700.0 193544.0 197841.0 194778.0 223554.0 216221.0 124359.0 128140.0 96878.0 92464.0 102177.0 109679.0 191029.0 195567.0 20556.0 16669.0 158470.0 0.0 158470.0 158470.0 158470.0 0.0 0.0 0.0
31579.0 28701.0 75595.0 73098.0 202490.0 198994.0 116178.0 112592.0 120401.0 115283.0 247775.0 250835.0 68145.0 68493.0 218659.0 220823.0 150783.0 158330.0 185857.0 178033.0 97988.0 93095.0 63526.0 67000.0 191700.0 193544.0 197841.0 194778.0 223554.0 216221.0 124359.0 128140.0 96878.0 92464.0 102177.0 109679.0 191029.0 195567.0 20556.0 16669.0 158470.0 0.0 158470.0 158470.0 158470.0 0.0 0.0 0.0
FIXED_EDGES_SECTION
1 2
3 4
5 6
7 8
9 10
11 12
13 14
15 16
17 18
19 20
21 22
23 24
25 26
27 28
29 30
31 32
33 34
35 36
37 38
39 40
-1 
DEMAND_SECTION
1 371
2 371
3 324
4 324
5 369
6 369
7 268
8 268
9 279
10 279
11 120
12 120
13 319
14 319
15 500
16 500
17 96
18 96
19 493
20 493
21 244
22 244
23 563
24 563
25 74
26 74
27 321
28 321
29 251
30 251
31 94
32 94
33 214
34 214
35 432
36 432
37 219
38 219
39 235
40 235
41 0
42 0
43 0
44 0
45 0
46 0
47 0
48 0
DEPOT_SECTION
41 
-1 
CAPACITIES_SECTION
5000 
5500 
-1 
EOF