NAME: GFS_20_1
TYPE: GFSP
DIMENSION: 98
VEHICLES: 2
CAPACITY: 2500.0
TRIP_DIST_LIMIT: 750000.0
TOTAL_DIST_LIMIT: 2100000.0
EDGE_WEIGHT_TYPE: EXPLICIT
EDGE_WEIGHT_FORMAT: FULL_MATRIX
EDGE_WEIGHT_SECTION
0.0 8543.0 163699.0 161363.0 121859.0 126049.0 253761.0 252015.0 48726.0 55306.0 38893.0 47075.0 98845.0 90719.0 30719.0 32058.0 109464.0 101966.0 185665.0 178132.0 120350.0 112737.0 157924.0 166109.0 208898.0 213052.0 275041.0 271602.0 156640.0 150112.0 248082.0 240522.0 194906.0 201162.0 132958.0 128811.0 13306.0 16595.0 204883.0 197976.0 272191.0 276095.0 50867.0 54824.0 323647.0 318518.0 197655.0 189817.0 139838.0 143778.0 104256.0 96387.0 62876.0 70430.0 115563.0 115422.0 139500.0 131814.0 303812.0 306527.0 156809.0 162311.0 147910.0 141507.0 285960.0 281526.0 153911.0 146933.0 128449.0 120426.0 82151.0 87431.0 30421.0 34958.0 277664.0 275715.0 168132.0 175481.0 310449.0 314934.0 92852.0 223554.0 92852.0 92852.0 92852.0 92852.0 92852.0 92852.0 92852.0 92852.0 223554.0 223554.0 223554.0 223554.0 223554.0 223554.0 223554.0 223554.0
8543.0 0.0 157926.0 155276.0 116988.0 121610.0 253178.0 251169.0 52126.0 57924.0 33534.0 41674.0 94388.0 86368.0 23756.0 26682.0 106834.0 99559.0 181088.0 173727.0 116619.0 108861.0 153818.0 161971.0 202931.0 207284.0 273558.0 270352.0 150724.0 144011.0 247936.0 240481.0 187851.0 194231.0 130143.0 126435.0 20429.0 24950.0 205387.0 198690.0 269833.0 273532.0 48153.0 50956.0 316370.0 311330.0 196053.0 188285.0 135281.0 139586.0 100576.0 92594.0 61806.0 68855.0 115760.0 116221.0 136298.0 128758.0 296479.0 299194.0 150430.0 155763.0 142562.0 136393.0 279281.0 274976.0 150177.0 143436.0 126368.0 118533.0 82994.0 87670.0 29401.0 32042.0 277656.0 275950.0 164000.0 171161.0 303116.0 307602.0 84514.0 216221.0 84514.0 84514.0 84514.0 84514.0 84514.0 84514.0 84514.0 84514.0 216221.0 216221.0 216221.0 216221.0 216221.0 216221.0 216221.0 216221.0
163699.0 157926.0 0.0 8532.0 45442.0 46128.0 162460.0 156162.0 147703.0 141684.0 124807.0 116625.0 68571.0 76410.0 134417.0 131657.0 76990.0 83216.0 37761.0 36857.0 58164.0 61681.0 38317.0 38440.0 45465.0 49363.0 163424.0 164685.0 8000.0 16024.0 166293.0 162578.0 50495.0 51806.0 65557.0 73281.0 164474.0 172323.0 148388.0 148118.0 145930.0 145994.0 117400.0 110858.0 171111.0 164618.0 103660.0 100694.0 35361.0 39454.0 69649.0 74848.0 115752.0 108172.0 111374.0 119540.0 57729.0 62139.0 160449.0 161273.0 17433.0 21068.0 18521.0 26503.0 126243.0 120699.0 45970.0 51174.0 77804.0 82222.0 122362.0 115392.0 137787.0 130654.0 192526.0 195512.0 39015.0 37433.0 165763.0 171537.0 113808.0 85477.0 113808.0 113808.0 113808.0 113808.0 113808.0 113808.0 113808.0 113808.0 85477.0 85477.0 85477.0 85477.0 85477.0 85477.0 85477.0 85477.0
161363.0 155276.0 8532.0 0.0 46570.0 48759.0 170960.0 164680.0 147903.0 142214.0 122522.0 114388.0 68689.0 76194.0 131612.0 129316.0 79942.0 85651.0 46114.0 45389.0 61226.0 63761.0 45729.0 46531.0 47737.0 52714.0 171894.0 173195.0 6380.0 11266.0 174706.0 170923.0 45338.0 47794.0 70680.0 78161.0 162812.0 170680.0 156137.0 155658.0 154164.0 154100.0 116428.0 109534.0 169492.0 163244.0 111932.0 108801.0 39783.0 45020.0 71193.0 75643.0 116015.0 108716.0 115565.0 123709.0 63372.0 67041.0 156985.0 158223.0 9094.0 12746.0 21998.0 29636.0 126257.0 121125.0 52984.0 57507.0 82729.0 86506.0 124375.0 117665.0 136379.0 129023.0 201025.0 203976.0 47220.0 45938.0 162615.0 168122.0 108260.0 80183.0 108260.0 108260.0 108260.0 108260.0 108260.0 108260.0 108260.0 108260.0 80183.0 80183.0 80183.0 80183.0 80183.0 80183.0 80183.0 80183.0
121859.0 116988.0 45442.0 46570.0 0.0 8555.0 162910.0 158267.0 102329.0 96244.0 83455.0 75343.0 23651.0 31780.0 94372.0 90310.0 35122.0 39729.0 64263.0 57301.0 18400.0 17838.0 39187.0 46820.0 90357.0 93228.0 173264.0 172342.0 40415.0 37256.0 162911.0 157356.0 90490.0 93948.0 35949.0 40756.0 121150.0 128910.0 133458.0 130675.0 162541.0 164701.0 73287.0 67484.0 216001.0 209674.0 100238.0 94310.0 19002.0 25389.0 24642.0 29407.0 70389.0 62739.0 72889.0 80767.0 33957.0 31877.0 203042.0 204550.0 46797.0 53965.0 27406.0 20049.0 171684.0 166091.0 38685.0 35438.0 44964.0 45498.0 77889.0 71344.0 94212.0 87604.0 191952.0 193095.0 48812.0 55025.0 208883.0 214200.0 88850.0 124359.0 88850.0 88850.0 88850.0 88850.0 88850.0 88850.0 88850.0 88850.0 124359.0 124359.0 124359.0 124359.0 124359.0 124359.0 124359.0 124359.0
126049.0 121610.0 46128.0 48759.0 8555.0 0.0 154439.0 149854.0 103357.0 96835.0 88176.0 80196.0 27229.0 35329.0 99517.0 94962.0 31185.0 37098.0 59634.0 52121.0 12612.0 15754.0 32657.0 40643.0 89707.0 91880.0 165209.0 164157.0 42399.0 40787.0 154368.0 148802.0 93725.0 96551.0 27908.0 33369.0 124515.0 132179.0 125069.0 122407.0 155065.0 157428.0 76422.0 71284.0 217237.0 210718.0 91771.0 85787.0 13899.0 18403.0 24257.0 30807.0 71658.0 63659.0 67722.0 75766.0 25416.0 23792.0 205744.0 206921.0 50493.0 57675.0 27609.0 19625.0 171733.0 165857.0 31033.0 27121.0 37756.0 39350.0 76251.0 69266.0 97578.0 91381.0 183435.0 184552.0 42669.0 49564.0 211338.0 216880.0 96959.0 128140.0 96959.0 96959.0 96959.0 96959.0 96959.0 96959.0 96959.0 96959.0 128140.0 128140.0 128140.0 128140.0 128140.0 128140.0 128140.0 128140.0
253761.0 253178.0 162460.0 170960.0 162910.0 154439.0 0.0 8030.0 210098.0 202096.0 224904.0 218885.0 173676.0 178901.0 237309.0 230262.0 150875.0 156641.0 127135.0 125789.0 150327.0 157655.0 129700.0 125786.0 164726.0 158402.0 34883.0 27010.0 167670.0 173719.0 13938.0 20347.0 202012.0 198286.0 131316.0 131587.0 245843.0 251443.0 56380.0 64804.0 57995.0 65788.0 206078.0 205945.0 269071.0 261039.0 62672.0 68927.0 147605.0 139577.0 162720.0 170053.0 191373.0 184577.0 138735.0 140452.0 129699.0 134474.0 280379.0 276810.0 179428.0 183465.0 157846.0 156158.0 217565.0 209562.0 126112.0 127582.0 130064.0 136715.0 172667.0 166607.0 223871.0 221688.0 30066.0 33796.0 124636.0 125027.0 281630.0 289383.0 250648.0 231534.0 250648.0 250648.0 250648.0 250648.0 250648.0 250648.0 250648.0 250648.0 231534.0 231534.0 231534.0 231534.0 231534.0 231534.0 231534.0 231534.0
252015.0 251169.0 156162.0 164680.0 158267.0 149854.0 8030.0 0.0 209122.0 201074.0 222325.0 216119.0 169890.0 175369.0 234750.0 227826.0 147738.0 153763.0 120410.0 119384.0 146283.0 153749.0 124183.0 119946.0 157282.0 150872.0 30104.0 23025.0 161561.0 167774.0 20806.0 25733.0 194925.0 191069.0 127520.0 128236.0 244439.0 250213.0 58724.0 67094.0 50890.0 58706.0 203756.0 203316.0 261040.0 253008.0 58248.0 64998.0 142504.0 134523.0 159132.0 166606.0 189388.0 182400.0 137562.0 139734.0 125422.0 130531.0 272427.0 268830.0 173243.0 177111.0 152160.0 150767.0 209541.0 201539.0 120967.0 122848.0 126961.0 133892.0 171476.0 165192.0 221955.0 219502.0 36784.0 41251.0 118722.0 118751.0 273648.0 281407.0 246410.0 224138.0 246410.0 246410.0 246410.0 246410.0 246410.0 246410.0 246410.0 246410.0 224138.0 224138.0 224138.0 224138.0 224138.0 224138.0 224138.0 224138.0
48726.0 52126.0 147703.0 147903.0 102329.0 103357.0 210098.0 209122.0 0.0 8114.0 46455.0 49567.0 79250.0 71745.0 52132.0 45155.0 77878.0 69988.0 160670.0 152364.0 93857.0 87811.0 131225.0 139230.0 192639.0 195178.0 234010.0 229826.0 142100.0 137390.0 203301.0 195522.0 188532.0 193368.0 100564.0 94490.0 37569.0 41865.0 158839.0 151539.0 234414.0 239118.0 35806.0 44024.0 316882.0 310876.0 157865.0 149896.0 116880.0 118330.0 79115.0 72989.0 31951.0 39712.0 71604.0 69756.0 108732.0 100731.0 300467.0 302956.0 145967.0 152621.0 129704.0 122087.0 273898.0 268399.0 125282.0 117342.0 92752.0 84344.0 37892.0 44915.0 28947.0 34833.0 232425.0 229938.0 141138.0 149306.0 307008.0 311585.0 110171.0 220209.0 110171.0 110171.0 110171.0 110171.0 110171.0 110171.0 110171.0 110171.0 220209.0 220209.0 220209.0 220209.0 220209.0 220209.0 220209.0 220209.0
55306.0 57924.0 141684.0 142214.0 96244.0 96835.0 202096.0 201074.0 8114.0 0.0 47619.0 49419.0 73542.0 66329.0 54954.0 47480.0 70521.0 62676.0 153540.0 145184.0 86950.0 81178.0 124034.0 131986.0 186375.0 188715.0 225906.0 221739.0 136309.0 131880.0 195395.0 187637.0 183563.0 188182.0 92954.0 86737.0 44850.0 49598.0 151086.0 143857.0 226323.0 231046.0 33803.0 41838.0 311494.0 305386.0 149754.0 141784.0 110203.0 111347.0 72584.0 66837.0 26387.0 33525.0 63533.0 61842.0 101237.0 93248.0 295820.0 298130.0 140647.0 147410.0 123526.0 115814.0 267927.0 262311.0 117920.0 109921.0 84895.0 76492.0 29781.0 36819.0 32100.0 36536.0 224581.0 222170.0 133875.0 142095.0 302240.0 306957.0 109736.0 215591.0 109736.0 109736.0 109736.0 109736.0 109736.0 109736.0 109736.0 109736.0 215591.0 215591.0 215591.0 215591.0 215591.0 215591.0 215591.0 215591.0
38893.0 33534.0 124807.0 122522.0 83455.0 88176.0 224904.0 222325.0 46455.0 47619.0 0.0 8193.0 60989.0 53057.0 12431.0 6880.0 75556.0 68824.0 147582.0 140272.0 83708.0 75844.0 120521.0 128648.0 170015.0 174162.0 243374.0 240620.0 117756.0 111281.0 220705.0 213549.0 157150.0 163152.0 98322.0 95374.0 41398.0 49167.0 180126.0 174081.0 238212.0 241617.0 20025.0 19041.0 286229.0 280893.0 165920.0 158332.0 101796.0 106255.0 67807.0 59757.0 36852.0 41508.0 91154.0 93460.0 103900.0 96595.0 266797.0 269513.0 118147.0 123807.0 109139.0 102886.0 247507.0 242938.0 117164.0 110670.0 95860.0 88511.0 62245.0 64522.0 19196.0 11738.0 250630.0 249539.0 130678.0 137740.0 273434.0 277920.0 64593.0 186539.0 64593.0 64593.0 64593.0 64593.0 64593.0 64593.0 64593.0 64593.0 186539.0 186539.0 186539.0 186539.0 186539.0 186539.0 186539.0 186539.0
47075.0 41674.0 116625.0 114388.0 75343.0 80196.0 218885.0 216119.0 49567.0 49419.0 8193.0 0.0 53062.0 45223.0 19535.0 15070.0 68795.0 62373.0 139517.0 132257.0 76078.0 68167.0 112626.0 120732.0 161852.0 165977.0 236689.0 234094.0 109592.0 103155.0 215035.0 207987.0 149418.0 155331.0 91207.0 88610.0 49089.0 56916.0 175176.0 169357.0 231010.0 234302.0 17589.0 13428.0 278552.0 273157.0 159341.0 151832.0 93760.0 98345.0 60303.0 52243.0 34136.0 37338.0 86939.0 89862.0 96501.0 89325.0 259317.0 262032.0 110100.0 115825.0 100950.0 94722.0 239517.0 234902.0 109436.0 103077.0 89332.0 82229.0 59989.0 61320.0 24953.0 16888.0 244985.0 244091.0 122762.0 129753.0 265954.0 270440.0 60608.0 179059.0 60608.0 60608.0 60608.0 60608.0 60608.0 60608.0 60608.0 60608.0 179059.0 179059.0 179059.0 179059.0 179059.0 179059.0 179059.0 179059.0
98845.0 94388.0 68571.0 68689.0 23651.0 27229.0 173676.0 169890.0 79250.0 73542.0 60989.0 53062.0 0.0 8189.0 72475.0 67755.0 26677.0 26221.0 86820.0 79349.0 24205.0 16322.0 59566.0 67671.0 113800.0 116834.0 187772.0 185991.0 62851.0 58364.0 171896.0 165604.0 110632.0 114893.0 42378.0 42846.0 97645.0 105375.0 137419.0 133291.0 179767.0 182608.0 49678.0 44148.0 237982.0 231847.0 111784.0 104900.0 40995.0 45283.0 11809.0 8746.0 47332.0 40095.0 62600.0 69503.0 45453.0 39434.0 223274.0 225240.0 67283.0 74179.0 50932.0 43700.0 194670.0 189245.0 56672.0 50868.0 45489.0 41647.0 58543.0 53101.0 70691.0 64276.0 201607.0 201857.0 69702.0 76773.0 229448.0 234435.0 78028.0 143376.0 78028.0 78028.0 78028.0 78028.0 78028.0 78028.0 78028.0 78028.0 143376.0 143376.0 143376.0 143376.0 143376.0 143376.0 143376.0 143376.0
90719.0 86368.0 76410.0 76194.0 31780.0 35329.0 178901.0 175369.0 71745.0 66329.0 53057.0 45223.0 8189.0 0.0 64713.0 59779.0 29196.0 26432.0 94954.0 87428.0 31124.0 23142.0 67472.0 75611.0 121735.0 124879.0 194005.0 191993.0 70478.0 65647.0 176609.0 170121.0 117336.0 121857.0 48055.0 47388.0 89457.0 97190.0 140763.0 136235.0 186718.0 189724.0 41512.0 35979.0 245203.0 239151.0 117489.0 110398.0 49142.0 53221.0 16264.0 9037.0 39973.0 33181.0 61940.0 68249.0 52090.0 45512.0 229817.0 231956.0 74321.0 81086.0 58959.0 51818.0 202347.0 197005.0 64242.0 58093.0 49436.0 44415.0 53567.0 48876.0 62504.0 56101.0 206437.0 206420.0 77641.0 84816.0 236112.0 240970.0 74759.0 149722.0 74759.0 74759.0 74759.0 74759.0 74759.0 74759.0 74759.0 74759.0 149722.0 149722.0 149722.0 149722.0 149722.0 149722.0 149722.0 149722.0
30719.0 23756.0 134417.0 131612.0 94372.0 99517.0 237309.0 234750.0 52132.0 54954.0 12431.0 19535.0 72475.0 64713.0 0.0 7927.0 87935.0 81246.0 158627.0 151488.0 95612.0 87696.0 132032.0 140113.0 179301.0 183752.0 255783.0 253047.0 127140.0 120347.0 233044.0 225861.0 164241.0 170558.0 110594.0 107758.0 36858.0 44010.0 192234.0 186094.0 250454.0 253793.0 31851.0 31470.0 292930.0 287816.0 178340.0 170758.0 112971.0 117740.0 79829.0 71769.0 48315.0 53560.0 103015.0 104983.0 116010.0 108788.0 273093.0 275808.0 126688.0 132007.0 119385.0 113448.0 255539.0 251221.0 128946.0 122612.0 108280.0 100942.0 73074.0 75943.0 23189.0 18996.0 262959.0 261813.0 142143.0 149035.0 279730.0 284216.0 64505.0 192835.0 64505.0 64505.0 64505.0 64505.0 64505.0 64505.0 64505.0 64505.0 192835.0 192835.0 192835.0 192835.0 192835.0 192835.0 192835.0 192835.0
32058.0 26682.0 131657.0 129316.0 90310.0 94962.0 230262.0 227826.0 45155.0 47480.0 6880.0 15070.0 67755.0 59779.0 7927.0 0.0 81589.0 74670.0 154410.0 147071.0 90286.0 82457.0 127251.0 135389.0 176840.0 181015.0 249227.0 246356.0 124583.0 118069.0 225801.0 218566.0 163574.0 169652.0 104554.0 101373.0 35263.0 42921.0 184699.0 178486.0 244446.0 247933.0 24343.0 25025.0 292584.0 287302.0 171725.0 164083.0 108610.0 112997.0 74324.0 66292.0 40552.0 46082.0 95343.0 97178.0 110317.0 102933.0 273009.0 275725.0 124857.0 130458.0 116018.0 109762.0 254152.0 249629.0 123789.0 117209.0 101697.0 94191.0 65163.0 68126.0 16390.0 11157.0 255693.0 254451.0 137419.0 144523.0 279646.0 284132.0 68264.0 192751.0 68264.0 68264.0 68264.0 68264.0 68264.0 68264.0 68264.0 68264.0 192751.0 192751.0 192751.0 192751.0 192751.0 192751.0 192751.0 192751.0
109464.0 106834.0 76990.0 79942.0 35122.0 31185.0 150875.0 147738.0 77878.0 70521.0 75556.0 68795.0 26677.0 29196.0 87935.0 81589.0 0.0 7924.0 83191.0 74764.0 18826.0 17468.0 53630.0 61503.0 119156.0 120491.0 167896.0 165334.0 73578.0 71736.0 147995.0 141346.0 124851.0 127735.0 23574.0 19825.0 105084.0 112221.0 111567.0 107093.0 163009.0 166717.0 58734.0 56589.0 247903.0 241264.0 90572.0 83126.0 42290.0 41664.0 15059.0 20182.0 48370.0 40105.0 38148.0 45835.0 31013.0 23022.0 236924.0 238058.0 81416.0 88611.0 58556.0 50591.0 201498.0 195340.0 47409.0 39477.0 20811.0 15231.0 46342.0 38928.0 79211.0 74848.0 177900.0 177648.0 63375.0 71640.0 242490.0 248058.0 103862.0 159119.0 103862.0 103862.0 103862.0 103862.0 103862.0 103862.0 103862.0 103862.0 159119.0 159119.0 159119.0 159119.0 159119.0 159119.0 159119.0 159119.0
101966.0 99559.0 83216.0 85651.0 39729.0 37098.0 156641.0 153763.0 69988.0 62676.0 68824.0 62373.0 26221.0 26432.0 81246.0 74670.0 7924.0 0.0 90927.0 82533.0 25384.0 21973.0 61386.0 69312.0 126093.0 127656.0 174570.0 171804.0 79333.0 76900.0 153253.0 146422.0 130146.0 133359.0 31346.0 26882.0 97331.0 104419.0 115469.0 110553.0 170306.0 174133.0 51406.0 49787.0 254310.0 247756.0 97097.0 89516.0 49116.0 49095.0 16293.0 18113.0 40506.0 32267.0 36383.0 43420.0 38933.0 30938.0 242549.0 243873.0 86497.0 93676.0 64702.0 56715.0 208372.0 202313.0 55294.0 47391.0 27039.0 19933.0 39313.0 32182.0 71636.0 67525.0 183202.0 182680.0 71199.0 79430.0 248259.0 253699.0 100912.0 164086.0 100912.0 100912.0 100912.0 100912.0 100912.0 100912.0 100912.0 100912.0 164086.0 164086.0 164086.0 164086.0 164086.0 164086.0 164086.0 164086.0
185665.0 181088.0 37761.0 46114.0 64263.0 59634.0 127135.0 120410.0 160670.0 153540.0 147582.0 139517.0 86820.0 94954.0 158627.0 154410.0 83191.0 90927.0 0.0 8574.0 67028.0 73842.0 29566.0 21950.0 46180.0 43648.0 125923.0 127493.0 44732.0 52341.0 132315.0 129474.0 75984.0 73495.0 62874.0 70564.0 184032.0 191645.0 121112.0 122528.0 108221.0 108482.0 135936.0 130918.0 174790.0 167413.0 72422.0 71493.0 45831.0 42557.0 82644.0 89997.0 129788.0 121542.0 108275.0 116026.0 53825.0 61390.0 172503.0 171499.0 55161.0 57754.0 42227.0 46076.0 124555.0 117512.0 36583.0 44816.0 74147.0 81382.0 128875.0 121168.0 157127.0 151012.0 157106.0 160676.0 20287.0 11854.0 176289.0 183077.0 146755.0 108273.0 146755.0 146755.0 146755.0 146755.0 146755.0 146755.0 146755.0 146755.0 108273.0 108273.0 108273.0 108273.0 108273.0 108273.0 108273.0 108273.0
178132.0 173727.0 36857.0 45389.0 57301.0 52121.0 125789.0 119384.0 152364.0 145184.0 140272.0 132257.0 79349.0 87428.0 151488.0 147071.0 74764.0 82533.0 8574.0 0.0 58906.0 65902.0 21150.0 13389.0 53207.0 51358.0 126943.0 127966.0 42858.0 49893.0 130117.0 126801.0 79765.0 78030.0 54301.0 61993.0 176220.0 183794.0 116148.0 117087.0 110904.0 111736.0 128153.0 123327.0 182634.0 175321.0 68639.0 66869.0 38517.0 34560.0 74672.0 82153.0 121626.0 113359.0 99777.0 107557.0 45255.0 52842.0 179403.0 178634.0 54148.0 57730.0 37483.0 40153.0 132706.0 125741.0 28010.0 36245.0 65593.0 72808.0 120347.0 112632.0 149358.0 143377.0 155850.0 159027.0 11714.0 3298.0 183398.0 190072.0 141709.0 113029.0 141709.0 141709.0 141709.0 141709.0 141709.0 141709.0 141709.0 141709.0 113029.0 113029.0 113029.0 113029.0 113029.0 113029.0 113029.0 113029.0
120350.0 116619.0 58164.0 61226.0 18400.0 12612.0 150327.0 146283.0 93857.0 86950.0 83708.0 76078.0 24205.0 31124.0 95612.0 90286.0 18826.0 25384.0 67028.0 58906.0 0.0 7986.0 37997.0 46179.0 100711.0 102358.0 163637.0 161966.0 54851.0 53399.0 149182.0 143183.0 106297.0 109014.0 19520.0 22811.0 117641.0 125126.0 117147.0 113855.0 155653.0 158606.0 69765.0 65686.0 229123.0 222512.0 88060.0 81409.0 23735.0 24509.0 16095.0 24024.0 62762.0 54526.0 55164.0 63185.0 21268.0 15938.0 218176.0 219260.0 63105.0 70287.0 39735.0 31778.0 182988.0 176932.0 33574.0 27007.0 26800.0 27157.0 64694.0 57477.0 90935.0 85400.0 178685.0 179287.0 48172.0 55988.0 223701.0 229304.0 100394.0 140747.0 100394.0 100394.0 100394.0 100394.0 100394.0 100394.0 100394.0 100394.0 140747.0 140747.0 140747.0 140747.0 140747.0 140747.0 140747.0 140747.0
112737.0 108861.0 61681.0 63761.0 17838.0 15754.0 157655.0 153749.0 87811.0 81178.0 75844.0 68167.0 16322.0 23142.0 87696.0 82457.0 17468.0 21973.0 73842.0 65902.0 7986.0 0.0 45269.0 53467.0 105458.0 107566.0 171451.0 169691.0 57471.0 54930.0 156194.0 150053.0 108174.0 111416.0 26386.0 28049.0 110349.0 117900.0 123036.0 119382.0 163633.0 166591.0 62338.0 57981.0 232763.0 226298.0 95582.0 88793.0 29071.0 31342.0 8818.0 16358.0 56291.0 48182.0 55556.0 63296.0 29148.0 23219.0 220594.0 221965.0 64538.0 71722.0 43179.0 35237.0 187474.0 181610.0 41333.0 34962.0 31413.0 29691.0 60719.0 53908.0 83541.0 77817.0 185805.0 186240.0 55480.0 63084.0 226336.0 231746.0 93350.0 142168.0 93350.0 93350.0 93350.0 93350.0 93350.0 93350.0 93350.0 93350.0 142168.0 142168.0 142168.0 142168.0 142168.0 142168.0 142168.0 142168.0
157924.0 153818.0 38317.0 45729.0 39187.0 32657.0 129700.0 124183.0 131225.0 124034.0 120521.0 112626.0 59566.0 67472.0 132032.0 127251.0 53630.0 61386.0 29566.0 21150.0 37997.0 45269.0 0.0 8199.0 69731.0 69453.0 136224.0 136041.0 40743.0 45225.0 131830.0 127354.0 87949.0 88037.0 33946.0 41870.0 155583.0 163098.0 110487.0 109929.0 123814.0 125712.0 107605.0 103110.0 200069.0 192979.0 68238.0 64138.0 20395.0 14296.0 53946.0 61615.0 100588.0 92306.0 80395.0 88372.0 24855.0 32055.0 194027.0 193933.0 52658.0 58309.0 28372.0 26692.0 151300.0 144634.0 8462.0 16060.0 45812.0 52486.0 99382.0 91703.0 128806.0 123045.0 159522.0 161691.0 10213.0 18087.0 198605.0 204923.0 126955.0 122677.0 126955.0 126955.0 126955.0 126955.0 126955.0 126955.0 126955.0 126955.0 122677.0 122677.0 122677.0 122677.0 122677.0 122677.0 122677.0 122677.0
166109.0 161971.0 38440.0 46531.0 46820.0 40643.0 125786.0 119946.0 139230.0 131986.0 128648.0 120732.0 67671.0 75611.0 140113.0 135389.0 61503.0 69312.0 21950.0 13389.0 46179.0 53467.0 8199.0 0.0 64493.0 63508.0 130563.0 130758.0 42364.0 47969.0 128704.0 124639.0 86268.0 85626.0 40942.0 48685.0 163780.0 171291.0 110144.0 110212.0 117070.0 118689.0 115804.0 111291.0 194630.0 187424.0 65520.0 62276.0 27840.0 22393.0 62143.0 69813.0 108707.0 100418.0 86726.0 94582.0 31880.0 39454.0 189907.0 189506.0 54325.0 59276.0 32365.0 32432.0 145243.0 138414.0 14649.0 22874.0 52373.0 59471.0 106968.0 99248.0 137004.0 131237.0 155765.0 158295.0 2030.0 10172.0 194224.0 200708.0 133796.0 120562.0 133796.0 133796.0 133796.0 133796.0 133796.0 133796.0 133796.0 133796.0 120562.0 120562.0 120562.0 120562.0 120562.0 120562.0 120562.0 120562.0
208898.0 202931.0 45465.0 47737.0 90357.0 89707.0 164726.0 157282.0 192639.0 186375.0 170015.0 161852.0 113800.0 121735.0 179301.0 176840.0 119156.0 126093.0 46180.0 53207.0 100711.0 105458.0 69731.0 64493.0 0.0 7909.0 155956.0 159424.0 52260.0 58988.0 172032.0 170360.0 41911.0 35838.0 103110.0 111129.0 209908.0 217762.0 166139.0 168073.0 132499.0 130159.0 162851.0 156320.0 130338.0 123272.0 116370.0 116507.0 76978.0 78062.0 113862.0 119650.0 160723.0 152968.0 149895.0 157943.0 94182.0 100563.0 126328.0 125432.0 53755.0 50259.0 62953.0 70567.0 82356.0 76222.0 78094.0 85708.0 115285.0 121348.0 165388.0 158075.0 183247.0 176086.0 193841.0 198490.0 63535.0 56208.0 130203.0 136927.0 154464.0 66901.0 154464.0 154464.0 154464.0 154464.0 154464.0 154464.0 154464.0 154464.0 66901.0 66901.0 66901.0 66901.0 66901.0 66901.0 66901.0 66901.0
213052.0 207284.0 49363.0 52714.0 93228.0 91880.0 158402.0 150872.0 195178.0 188715.0 174162.0 165977.0 116834.0 124879.0 183752.0 181015.0 120491.0 127656.0 43648.0 51358.0 102358.0 107566.0 69453.0 63508.0 7909.0 0.0 148764.0 152400.0 56657.0 63833.0 166062.0 164641.0 49787.0 43570.0 103263.0 111247.0 213632.0 221465.0 161814.0 164080.0 124969.0 122501.0 166231.0 159926.0 131280.0 123991.0 111747.0 112342.0 78696.0 78977.0 116133.0 122267.0 163354.0 155466.0 149848.0 157815.0 94223.0 100975.0 129562.0 128187.0 59442.0 56551.0 65920.0 73228.0 81848.0 75230.0 77631.0 85513.0 115258.0 121696.0 166829.0 159394.0 186847.0 179834.0 187310.0 192115.0 62337.0 54523.0 133005.0 139955.0 160365.0 73696.0 160365.0 160365.0 160365.0 160365.0 160365.0 160365.0 160365.0 160365.0 73696.0 73696.0 73696.0 73696.0 73696.0 73696.0 73696.0 73696.0
275041.0 273558.0 163424.0 171894.0 173264.0 165209.0 34883.0 30104.0 234010.0 225906.0 243374.0 236689.0 187772.0 194005.0 255783.0 249227.0 167896.0 174570.0 125923.0 126943.0 163637.0 171451.0 136224.0 130563.0 155956.0 148764.0 0.0 8242.0 169788.0 176781.0 48697.0 55110.0 196200.0 191302.0 146027.0 148080.0 268280.0 274414.0 88535.0 96835.0 28841.0 35717.0 225596.0 224349.0 247138.0 239151.0 77528.0 85273.0 155940.0 148326.0 177789.0 185604.0 212165.0 204757.0 162524.0 165527.0 142375.0 148505.0 262412.0 258025.0 180850.0 183676.0 162753.0 162774.0 197100.0 189233.0 134722.0 138194.0 147533.0 155114.0 196134.0 189428.0 244705.0 241595.0 47928.0 55494.0 129005.0 127087.0 262741.0 270654.0 262112.0 222342.0 262112.0 262112.0 262112.0 262112.0 262112.0 262112.0 262112.0 262112.0 222342.0 222342.0 222342.0 222342.0 222342.0 222342.0 222342.0 222342.0
271602.0 270352.0 164685.0 173195.0 172342.0 164157.0 27010.0 23025.0 229826.0 221739.0 240620.0 234094.0 185991.0 191993.0 253047.0 246356.0 165334.0 171804.0 127493.0 127966.0 161966.0 169691.0 136041.0 130758.0 159424.0 152400.0 8242.0 0.0 170805.0 177602.0 40690.0 47339.0 199128.0 194482.0 143940.0 145569.0 264529.0 270528.0 81748.0 90113.0 35963.0 43197.0 222547.0 221580.0 253594.0 245590.0 74762.0 82289.0 155431.0 147682.0 175739.0 183459.0 208765.0 201500.0 158238.0 160912.0 140761.0 146594.0 268088.0 263864.0 182069.0 185186.0 163086.0 162703.0 203205.0 195299.0 134036.0 137051.0 144781.0 152164.0 192009.0 185458.0 241347.0 238471.0 40510.0 47852.0 129285.0 127898.0 268605.0 276493.0 261115.0 226086.0 261115.0 261115.0 261115.0 261115.0 261115.0 261115.0 261115.0 261115.0 226086.0 226086.0 226086.0 226086.0 226086.0 226086.0 226086.0 226086.0
156640.0 150724.0 8000.0 6380.0 40415.0 42399.0 167670.0 161561.0 142100.0 136309.0 117756.0 109592.0 62851.0 70478.0 127140.0 124583.0 73578.0 79333.0 44732.0 42858.0 54851.0 57471.0 40743.0 42364.0 52260.0 56657.0 169788.0 170805.0 0.0 8047.0 170996.0 167001.0 51688.0 54165.0 64470.0 71895.0 157750.0 165612.0 151224.0 150528.0 152935.0 153192.0 111038.0 104291.0 175587.0 169281.0 107881.0 104429.0 33509.0 39000.0 64998.0 69620.0 110178.0 102791.0 109203.0 117345.0 57312.0 60791.0 163346.0 164550.0 11984.0 17751.0 15698.0 23263.0 131870.0 126585.0 47626.0 51734.0 76469.0 80159.0 118129.0 111379.0 131189.0 123932.0 197715.0 200462.0 43259.0 42980.0 168953.0 174481.0 105814.0 86491.0 105814.0 105814.0 105814.0 105814.0 105814.0 105814.0 105814.0 105814.0 86491.0 86491.0 86491.0 86491.0 86491.0 86491.0 86491.0 86491.0
150112.0 144011.0 16024.0 11266.0 37256.0 40787.0 173719.0 167774.0 137390.0 131880.0 111281.0 103155.0 58364.0 65647.0 120347.0 118069.0 71736.0 76900.0 52341.0 49893.0 53399.0 54930.0 45225.0 47969.0 58988.0 63833.0 176781.0 177602.0 8047.0 0.0 176608.0 172374.0 53248.0 56792.0 65230.0 72248.0 151650.0 159520.0 155205.0 154120.0 160425.0 160819.0 105472.0 98479.0 179620.0 173516.0 113204.0 109347.0 34374.0 41004.0 61819.0 65687.0 105586.0 98459.0 108437.0 116512.0 58859.0 61344.0 165796.0 167382.0 9706.0 16891.0 17477.0 23398.0 137159.0 132151.0 51291.0 54325.0 76820.0 79715.0 115072.0 108596.0 125283.0 117880.0 203718.0 206257.0 49083.0 49718.0 171687.0 176956.0 97865.0 87390.0 97865.0 97865.0 97865.0 97865.0 97865.0 97865.0 97865.0 97865.0 87390.0 87390.0 87390.0 87390.0 87390.0 87390.0 87390.0 87390.0
248082.0 247936.0 166293.0 174706.0 162911.0 154368.0 13938.0 20806.0 203301.0 195395.0 220705.0 215035.0 171896.0 176609.0 233044.0 225801.0 147995.0 153253.0 132315.0 130117.0 149182.0 156194.0 131830.0 128704.0 172032.0 166062.0 48697.0 40690.0 170996.0 176608.0 0.0 8092.0 207974.0 204691.0 129826.0 129249.0 239628.0 244941.0 46193.0 54478.0 71642.0 79453.0 201492.0 201893.0 280033.0 272006.0 63636.0 68712.0 148676.0 140599.0 160613.0 167643.0 186264.0 179821.0 132565.0 133554.0 129175.0 133245.0 290090.0 286789.0 182898.0 187361.0 160189.0 157826.0 228234.0 220221.0 127441.0 128018.0 127278.0 133364.0 166338.0 160664.0 218544.0 216822.0 29957.0 30184.0 127739.0 129024.0 291630.0 299314.0 249526.0 238506.0 249526.0 249526.0 249526.0 249526.0 249526.0 249526.0 249526.0 249526.0 238506.0 238506.0 238506.0 238506.0 238506.0 238506.0 238506.0 238506.0
240522.0 240481.0 162578.0 170923.0 157356.0 148802.0 20347.0 25733.0 195522.0 187637.0 213549.0 207987.0 165604.0 170121.0 225861.0 218566.0 141346.0 146422.0 129474.0 126801.0 143183.0 150053.0 127354.0 124639.0 170360.0 164641.0 55110.0 47339.0 167001.0 172374.0 8092.0 0.0 205377.0 202370.0 123742.0 122840.0 231952.0 237205.0 38106.0 46386.0 76306.0 84115.0 194239.0 194794.0 280979.0 272963.0 59170.0 63592.0 143635.0 135561.0 154219.0 161126.0 178880.0 172538.0 124968.0 125797.0 123490.0 127255.0 289963.0 286881.0 178949.0 183628.0 155722.0 153038.0 228973.0 220962.0 122595.0 122757.0 120711.0 126584.0 158673.0 153092.0 211082.0 209482.0 37176.0 36304.0 123775.0 125532.0 291735.0 299357.0 243402.0 236487.0 243402.0 243402.0 243402.0 243402.0 243402.0 243402.0 243402.0 243402.0 236487.0 236487.0 236487.0 236487.0 236487.0 236487.0 236487.0 236487.0
194906.0 187851.0 50495.0 45338.0 90490.0 93725.0 202012.0 194925.0 188532.0 183563.0 157150.0 149418.0 110632.0 117336.0 164241.0 163574.0 124851.0 130146.0 75984.0 79765.0 106297.0 108174.0 87949.0 86268.0 41911.0 49787.0 196200.0 199128.0 51688.0 53248.0 207974.0 205377.0 0.0 8000.0 115828.0 123411.0 198496.0 206302.0 195754.0 196291.0 173765.0 171739.0 154887.0 147277.0 129176.0 123744.0 148205.0 146632.0 85079.0 89866.0 114982.0 118414.0 157177.0 150500.0 160889.0 169027.0 108191.0 112272.0 112702.0 114626.0 43716.0 36602.0 67330.0 74940.0 92857.0 89770.0 96005.0 101617.0 127969.0 131844.0 168180.0 161801.0 173276.0 165447.0 231704.0 235760.0 86251.0 81746.0 118816.0 123867.0 131325.0 34986.0 131325.0 131325.0 131325.0 131325.0 131325.0 131325.0 131325.0 131325.0 34986.0 34986.0 34986.0 34986.0 34986.0 34986.0 34986.0 34986.0
201162.0 194231.0 51806.0 47794.0 93948.0 96551.0 198286.0 191069.0 193368.0 188182.0 163152.0 155331.0 114893.0 121857.0 170558.0 169652.0 127735.0 133359.0 73495.0 78030.0 109014.0 111416.0 88037.0 85626.0 35838.0 43570.0 191302.0 194482.0 54165.0 56792.0 204691.0 202370.0 8000.0 0.0 117351.0 125088.0 204418.0 212247.0 194171.0 195046.0 168274.0 165996.0 160182.0 152698.0 123686.0 117987.0 145917.0 144759.0 87018.0 91210.0 118569.0 122428.0 161807.0 154927.0 163058.0 171219.0 109386.0 113945.0 109203.0 110605.0 47612.0 40772.0 69511.0 77336.0 85709.0 82347.0 96287.0 102367.0 129610.0 133922.0 171829.0 165262.0 178929.0 171169.0 227808.0 232075.0 85421.0 80259.0 114938.0 120347.0 138409.0 35028.0 138409.0 138409.0 138409.0 138409.0 138409.0 138409.0 138409.0 138409.0 35028.0 35028.0 35028.0 35028.0 35028.0 35028.0 35028.0 35028.0
132958.0 130143.0 65557.0 70680.0 35949.0 27908.0 131316.0 127520.0 100564.0 92954.0 98322.0 91207.0 42378.0 48055.0 110594.0 104554.0 23574.0 31346.0 62874.0 54301.0 19520.0 26386.0 33946.0 40942.0 103110.0 103263.0 146027.0 143940.0 64470.0 65230.0 129826.0 123742.0 115828.0 117351.0 0.0 8022.0 128651.0 135763.0 97829.0 94798.0 139897.0 143417.0 82150.0 79535.0 233306.0 226336.0 69479.0 62525.0 31028.0 26175.0 31799.0 39577.0 71841.0 63613.0 46814.0 54908.0 9099.0 4124.0 225479.0 225874.0 74663.0 81577.0 48804.0 41852.0 185071.0 178487.0 26295.0 18072.0 12345.0 18555.0 66499.0 58714.0 102756.0 98235.0 159419.0 159893.0 42595.0 51035.0 230463.0 236499.0 119700.0 150783.0 119700.0 119700.0 119700.0 119700.0 119700.0 119700.0 119700.0 119700.0 150783.0 150783.0 150783.0 150783.0 150783.0 150783.0 150783.0 150783.0
128811.0 126435.0 73281.0 78161.0 40756.0 33369.0 131587.0 128236.0 94490.0 86737.0 95374.0 88610.0 42846.0 47388.0 107758.0 101373.0 19825.0 26882.0 70564.0 61993.0 22811.0 28049.0 41870.0 48685.0 111129.0 111247.0 148080.0 145569.0 71895.0 72248.0 129249.0 122840.0 123411.0 125088.0 8022.0 0.0 123858.0 130796.0 94997.0 91362.0 143425.0 147287.0 78285.0 76392.0 241327.0 234358.0 70812.0 63443.0 38386.0 34033.0 31379.0 38479.0 66820.0 58744.0 38794.0 46893.0 17027.0 11147.0 233373.0 233815.0 81786.0 88782.0 56199.0 48990.0 193067.0 186464.0 34050.0 25888.0 4579.0 10884.0 59507.0 51701.0 98446.0 94405.0 159056.0 159122.0 50279.0 58711.0 238396.0 244403.0 120848.0 158330.0 120848.0 120848.0 120848.0 120848.0 120848.0 120848.0 120848.0 120848.0 158330.0 158330.0 158330.0 158330.0 158330.0 158330.0 158330.0 158330.0
13306.0 20429.0 164474.0 162812.0 121150.0 124515.0 245843.0 244439.0 37569.0 44850.0 41398.0 49089.0 97645.0 89457.0 36858.0 35263.0 105084.0 97331.0 184032.0 176220.0 117641.0 110349.0 155583.0 163780.0 209908.0 213632.0 268280.0 264529.0 157750.0 151650.0 239628.0 231952.0 198496.0 204418.0 128651.0 123858.0 0.0 7871.0 195734.0 188601.0 266686.0 270889.0 48100.0 53744.0 327607.0 322238.0 191228.0 183316.0 138410.0 141673.0 101638.0 94068.0 57056.0 65128.0 107151.0 106276.0 135761.0 127897.0 308186.0 310902.0 158922.0 164784.0 147917.0 141102.0 288422.0 283685.0 150957.0 143625.0 123054.0 114820.0 73291.0 79258.0 26955.0 33823.0 269001.0 266764.0 165784.0 173430.0 314823.0 319309.0 101167.0 227928.0 101167.0 101167.0 101167.0 101167.0 101167.0 101167.0 101167.0 101167.0 227928.0 227928.0 227928.0 227928.0 227928.0 227928.0 227928.0 227928.0
16595.0 24950.0 172323.0 170680.0 128910.0 132179.0 251443.0 250213.0 41865.0 49598.0 49167.0 56916.0 105375.0 97190.0 44010.0 42921.0 112221.0 104419.0 191645.0 183794.0 125126.0 117900.0 163098.0 171291.0 217762.0 221465.0 274414.0 270528.0 165612.0 159520.0 244941.0 237205.0 206302.0 212247.0 135763.0 130796.0 7871.0 0.0 200672.0 193400.0 273310.0 277613.0 55760.0 61555.0 335395.0 330045.0 197558.0 189625.0 146077.0 149237.0 109162.0 101654.0 63989.0 72160.0 112713.0 111411.0 143006.0 135109.0 315914.0 318630.0 166790.0 172644.0 155725.0 148879.0 296288.0 291555.0 158359.0 150959.0 129856.0 121571.0 78777.0 85078.0 34698.0 41680.0 274172.0 271762.0 173290.0 180983.0 322552.0 327037.0 107939.0 235656.0 107939.0 107939.0 107939.0 107939.0 107939.0 107939.0 107939.0 107939.0 235656.0 235656.0 235656.0 235656.0 235656.0 235656.0 235656.0 235656.0
204883.0 205387.0 148388.0 156137.0 133458.0 125069.0 56380.0 58724.0 158839.0 151086.0 180126.0 175176.0 137419.0 140763.0 192234.0 184699.0 111567.0 115469.0 121112.0 116148.0 117147.0 123036.0 110487.0 110144.0 166139.0 161814.0 88535.0 81748.0 151224.0 155205.0 46193.0 38106.0 195754.0 194171.0 97829.0 94997.0 195734.0 200672.0 0.0 8425.0 103224.0 110588.0 160395.0 161794.0 287049.0 279173.0 50320.0 49677.0 122986.0 115222.0 125661.0 131744.0 144407.0 138675.0 89679.0 89506.0 99949.0 101770.0 290948.0 288924.0 163101.0 168779.0 137798.0 133471.0 234771.0 226903.0 103914.0 101710.0 91965.0 96354.0 122737.0 117717.0 176040.0 175090.0 73937.0 71104.0 109869.0 114026.0 293787.0 301040.0 215326.0 229147.0 215326.0 215326.0 215326.0 215326.0 215326.0 215326.0 215326.0 215326.0 229147.0 229147.0 229147.0 229147.0 229147.0 229147.0 229147.0 229147.0
197976.0 198690.0 148118.0 155658.0 130675.0 122407.0 64804.0 67094.0 151539.0 143857.0 174081.0 169357.0 133291.0 136235.0 186094.0 178486.0 107093.0 110553.0 122528.0 117087.0 113855.0 119382.0 109929.0 110212.0 168073.0 164080.0 96835.0 90113.0 150528.0 154120.0 54478.0 46386.0 196291.0 195046.0 94798.0 91362.0 188601.0 193400.0 8425.0 0.0 110901.0 118177.0 154243.0 155944.0 290665.0 282833.0 53651.0 51785.0 121237.0 113647.0 121489.0 127261.0 138058.0 132578.0 83211.0 82558.0 97635.0 98823.0 293515.0 291716.0 162303.0 168198.0 136652.0 131920.0 238467.0 230651.0 102958.0 100115.0 88059.0 91865.0 115840.0 111082.0 169403.0 168702.0 81787.0 78614.0 110092.0 114788.0 296571.0 303732.0 210954.0 230070.0 210954.0 210954.0 210954.0 210954.0 210954.0 210954.0 210954.0 210954.0 230070.0 230070.0 230070.0 230070.0 230070.0 230070.0 230070.0 230070.0
272191.0 269833.0 145930.0 154164.0 162541.0 155065.0 57995.0 50890.0 234414.0 226323.0 238212.0 231010.0 179767.0 186718.0 250454.0 244446.0 163009.0 170306.0 108221.0 110904.0 155653.0 163633.0 123814.0 117070.0 132499.0 124969.0 28841.0 35963.0 152935.0 160425.0 71642.0 76306.0 173765.0 168274.0 139897.0 143425.0 266686.0 273310.0 103224.0 110901.0 0.0 7817.0 221697.0 219422.0 218418.0 210441.0 77090.0 85004.0 144157.0 137154.0 170883.0 178911.0 209735.0 201877.0 164309.0 168583.0 134667.0 141687.0 234402.0 229827.0 163251.0 165194.0 148119.0 149430.0 168664.0 160843.0 124033.0 128962.0 143775.0 151911.0 196732.0 189505.0 241790.0 237819.0 76466.0 83788.0 115278.0 111712.0 234512.0 242448.0 250760.0 197841.0 250760.0 250760.0 250760.0 250760.0 250760.0 250760.0 250760.0 250760.0 197841.0 197841.0 197841.0 197841.0 197841.0 197841.0 197841.0 197841.0
276095.0 273532.0 145994.0 154100.0 164701.0 157428.0 65788.0 58706.0 239118.0 231046.0 241617.0 234302.0 182608.0 189724.0 253793.0 247933.0 166717.0 174133.0 108482.0 111736.0 158606.0 166591.0 125712.0 118689.0 130159.0 122501.0 35717.0 43197.0 153192.0 160819.0 79453.0 84115.0 171739.0 165996.0 143417.0 147287.0 270889.0 277613.0 110588.0 118177.0 7817.0 0.0 225450.0 222931.0 212268.0 204314.0 82506.0 90338.0 146104.0 139326.0 174049.0 182100.0 213864.0 205924.0 169489.0 173997.0 137815.0 145022.0 229091.0 224343.0 163193.0 164805.0 149153.0 150869.0 162968.0 155209.0 126439.0 131740.0 147849.0 156070.0 201564.0 194247.0 245732.0 241565.0 83598.0 91043.0 116838.0 112764.0 228995.0 236950.0 252484.0 194778.0 252484.0 252484.0 252484.0 252484.0 252484.0 252484.0 252484.0 252484.0 194778.0 194778.0 194778.0 194778.0 194778.0 194778.0 194778.0 194778.0
50867.0 48153.0 117400.0 116428.0 73287.0 76422.0 206078.0 203756.0 35806.0 33803.0 20025.0 17589.0 49678.0 41512.0 31851.0 24343.0 58734.0 51406.0 135936.0 128153.0 69765.0 62338.0 107605.0 115804.0 162851.0 166231.0 225596.0 222547.0 111038.0 105472.0 201492.0 194239.0 154887.0 160182.0 82150.0 78285.0 48100.0 55760.0 160395.0 154243.0 221697.0 225450.0 0.0 8219.0 283865.0 278120.0 148069.0 140351.0 90319.0 93622.0 53694.0 46013.0 16906.0 21742.0 71199.0 73436.0 88636.0 80949.0 266115.0 268802.0 113414.0 119727.0 100338.0 93312.0 242630.0 237552.0 103248.0 96142.0 78243.0 70488.0 42605.0 44525.0 21207.0 16121.0 231373.0 230110.0 117815.0 125387.0 272752.0 277238.0 76270.0 185857.0 76270.0 76270.0 76270.0 76270.0 76270.0 76270.0 76270.0 76270.0 185857.0 185857.0 185857.0 185857.0 185857.0 185857.0 185857.0 185857.0
54824.0 50956.0 110858.0 109534.0 67484.0 71284.0 205945.0 203316.0 44024.0 41838.0 19041.0 13428.0 44148.0 35979.0 31470.0 25025.0 56589.0 49787.0 130918.0 123327.0 65686.0 57981.0 103110.0 111291.0 156320.0 159926.0 224349.0 221580.0 104291.0 98479.0 201893.0 194794.0 147277.0 152698.0 79535.0 76392.0 53744.0 61555.0 161794.0 155944.0 219422.0 222931.0 8219.0 0.0 276351.0 270676.0 146885.0 139291.0 85119.0 88954.0 49626.0 41667.0 21829.0 24033.0 73531.0 76581.0 85410.0 77960.0 258291.0 260999.0 106198.0 112390.0 94173.0 87385.0 235593.0 230629.0 99257.0 92480.0 76826.0 69476.0 47523.0 48268.0 26930.0 20133.0 231833.0 230855.0 113316.0 120662.0 264922.0 269414.0 68795.0 178033.0 68795.0 68795.0 68795.0 68795.0 68795.0 68795.0 68795.0 68795.0 178033.0 178033.0 178033.0 178033.0 178033.0 178033.0 178033.0 178033.0
323647.0 316370.0 171111.0 169492.0 216001.0 217237.0 269071.0 261040.0 316882.0 311494.0 286229.0 278552.0 237982.0 245203.0 292930.0 292584.0 247903.0 254310.0 174790.0 182634.0 229123.0 232763.0 200069.0 194630.0 130338.0 131280.0 247138.0 253594.0 175587.0 179620.0 280033.0 280979.0 129176.0 123686.0 233306.0 241327.0 327607.0 335395.0 287049.0 290665.0 218418.0 212268.0 283865.0 276351.0 0.0 8032.0 237032.0 239363.0 205704.0 207814.0 240544.0 245127.0 285172.0 278075.0 280120.0 288200.0 224445.0 230605.0 39024.0 30639.0 170915.0 164308.0 189632.0 197612.0 52316.0 60256.0 208423.0 216038.0 245542.0 251367.0 293468.0 286491.0 302448.0 294623.0 293615.0 300235.0 193542.0 185802.0 31804.0 37473.0 258629.0 104040.0 258629.0 258629.0 258629.0 258629.0 258629.0 258629.0 258629.0 258629.0 104040.0 104040.0 104040.0 104040.0 104040.0 104040.0 104040.0 104040.0
318518.0 311330.0 164618.0 163244.0 209674.0 210718.0 261039.0 253008.0 310876.0 305386.0 280893.0 273157.0 231847.0 239151.0 287816.0 287302.0 241264.0 247756.0 167413.0 175321.0 222512.0 226298.0 192979.0 187424.0 123272.0 123991.0 239151.0 245590.0 169281.0 173516.0 272006.0 272963.0 123744.0 117987.0 226336.0 234358.0 322238.0 330045.0 279173.0 282833.0 210441.0 204314.0 278120.0 270676.0 8032.0 0.0 229192.0 231584.0 199018.0 200962.0 234163.0 238882.0 279102.0 271925.0 273142.0 281204.0 217440.0 223691.0 41575.0 33199.0 164947.0 158438.0 183131.0 191100.0 44405.0 52316.0 201306.0 208977.0 238543.0 244467.0 286969.0 279936.0 296901.0 289116.0 285598.0 292212.0 186305.0 178505.0 35399.0 42028.0 253719.0 100037.0 253719.0 253719.0 253719.0 253719.0 253719.0 253719.0 253719.0 253719.0 100037.0 100037.0 100037.0 100037.0 100037.0 100037.0 100037.0 100037.0
197655.0 196053.0 103660.0 111932.0 100238.0 91771.0 62672.0 58248.0 157865.0 149754.0 165920.0 159341.0 111784.0 117489.0 178340.0 171725.0 90572.0 97097.0 72422.0 68639.0 88060.0 95582.0 68238.0 65520.0 116370.0 111747.0 77528.0 74762.0 107881.0 113204.0 63636.0 59170.0 148205.0 145917.0 69479.0 70812.0 191228.0 197558.0 50320.0 53651.0 77090.0 82506.0 148069.0 146885.0 237032.0 229192.0 0.0 7971.0 85210.0 77146.0 101226.0 108849.0 134791.0 127294.0 87257.0 91519.0 67177.0 72369.0 240665.0 238605.0 119845.0 124664.0 96609.0 94201.0 184819.0 177001.0 63858.0 64930.0 70060.0 77587.0 120032.0 112985.0 167280.0 164075.0 91924.0 93633.0 64720.0 67050.0 243469.0 250731.0 188170.0 180652.0 188170.0 188170.0 188170.0 188170.0 188170.0 188170.0 188170.0 188170.0 180652.0 180652.0 180652.0 180652.0 180652.0 180652.0 180652.0 180652.0
189817.0 188285.0 100694.0 108801.0 94310.0 85787.0 68927.0 64998.0 149896.0 141784.0 158332.0 151832.0 104900.0 110398.0 170758.0 164083.0 83126.0 89516.0 71493.0 66869.0 81409.0 88793.0 64138.0 62276.0 116507.0 112342.0 85273.0 82289.0 104429.0 109347.0 68712.0 63592.0 146632.0 144759.0 62525.0 63443.0 183316.0 189625.0 49677.0 51785.0 85004.0 90338.0 140351.0 139291.0 239363.0 231584.0 7971.0 0.0 80055.0 71978.0 94151.0 101677.0 126944.0 119490.0 79316.0 83659.0 60820.0 65586.0 241732.0 239941.0 116413.0 121545.0 92422.0 89480.0 187303.0 179564.0 59033.0 59306.0 62503.0 69901.0 112062.0 105019.0 159457.0 156330.0 97651.0 98877.0 61697.0 64957.0 244795.0 251948.0 181724.0 179673.0 181724.0 181724.0 181724.0 181724.0 181724.0 181724.0 181724.0 181724.0 179673.0 179673.0 179673.0 179673.0 179673.0 179673.0 179673.0 179673.0
139838.0 135281.0 35361.0 39783.0 19002.0 13899.0 147605.0 142504.0 116880.0 110203.0 101796.0 93760.0 40995.0 49142.0 112971.0 108610.0 42290.0 49116.0 45831.0 38517.0 23735.0 29071.0 20395.0 27840.0 76978.0 78696.0 155940.0 155431.0 33509.0 34374.0 148676.0 143635.0 85079.0 87018.0 31028.0 38386.0 138410.0 146077.0 122986.0 121237.0 144157.0 146104.0 90319.0 85119.0 205704.0 199018.0 85210.0 80055.0 0.0 8078.0 37814.0 44652.0 85322.0 77244.0 76046.0 84210.0 24539.0 27289.0 195810.0 196591.0 43686.0 50558.0 17813.0 11022.0 159270.0 153198.0 21542.0 21314.0 42959.0 46904.0 88416.0 81149.0 111469.0 105231.0 177111.0 178780.0 29823.0 36119.0 201097.0 206896.0 106667.0 119965.0 106667.0 106667.0 106667.0 106667.0 106667.0 106667.0 106667.0 106667.0 119965.0 119965.0 119965.0 119965.0 119965.0 119965.0 119965.0 119965.0
143778.0 139586.0 39454.0 45020.0 25389.0 18403.0 139577.0 134523.0 118330.0 111347.0 106255.0 98345.0 45283.0 53221.0 117740.0 112997.0 41664.0 49095.0 42557.0 34560.0 24509.0 31342.0 14296.0 22393.0 78062.0 78977.0 148326.0 147682.0 39000.0 41004.0 140599.0 135561.0 89866.0 91210.0 26175.0 34033.0 141673.0 149237.0 115222.0 113647.0 137154.0 139326.0 93622.0 88954.0 207814.0 200962.0 77146.0 71978.0 8078.0 0.0 40118.0 47611.0 87260.0 79032.0 72611.0 80760.0 18360.0 22983.0 199340.0 199809.0 49935.0 56543.0 23702.0 18274.0 160375.0 154043.0 13650.0 13535.0 38494.0 43606.0 87977.0 80471.0 114830.0 108943.0 169055.0 170705.0 24423.0 31765.0 204381.0 210372.0 113965.0 124850.0 113965.0 113965.0 113965.0 113965.0 113965.0 113965.0 113965.0 113965.0 124850.0 124850.0 124850.0 124850.0 124850.0 124850.0 124850.0 124850.0
104256.0 100576.0 69649.0 71193.0 24642.0 24257.0 162720.0 159132.0 79115.0 72584.0 67807.0 60303.0 11809.0 16264.0 79829.0 74324.0 15059.0 16293.0 82644.0 74672.0 16095.0 8818.0 53946.0 62143.0 113862.0 116133.0 177789.0 175739.0 64998.0 61819.0 160613.0 154219.0 114982.0 118569.0 31799.0 31379.0 101638.0 109162.0 125661.0 121489.0 170883.0 174049.0 53694.0 49626.0 240544.0 234163.0 101226.0 94151.0 37814.0 40118.0 0.0 8061.0 47510.0 39439.0 52222.0 59521.0 36237.0 29358.0 227611.0 229174.0 71267.0 78395.0 51243.0 43395.0 195711.0 189936.0 49660.0 42888.0 33796.0 29859.0 53260.0 46834.0 74879.0 69305.0 190395.0 190501.0 64148.0 71829.0 233495.0 238772.0 89706.0 148561.0 89706.0 89706.0 89706.0 89706.0 89706.0 89706.0 89706.0 89706.0 148561.0 148561.0 148561.0 148561.0 148561.0 148561.0 148561.0 148561.0
96387.0 92594.0 74848.0 75643.0 29407.0 30807.0 170053.0 166606.0 72989.0 66837.0 59757.0 52243.0 8746.0 9037.0 71769.0 66292.0 20182.0 18113.0 89997.0 82153.0 24024.0 16358.0 61615.0 69813.0 119650.0 122267.0 185604.0 183459.0 69620.0 65687.0 167643.0 161126.0 118414.0 122428.0 39577.0 38479.0 94068.0 101654.0 131744.0 127261.0 178911.0 182100.0 46013.0 41667.0 245127.0 238882.0 108849.0 101677.0 44652.0 47611.0 8061.0 0.0 41095.0 33341.0 54308.0 61030.0 44285.0 37308.0 231112.0 232934.0 74850.0 81853.0 56726.0 49103.0 201091.0 195486.0 57591.0 50919.0 40424.0 35411.0 50151.0 44493.0 67220.0 61461.0 197488.0 197428.0 71828.0 79375.0 237185.0 242277.0 83699.0 151405.0 83699.0 83699.0 83699.0 83699.0 83699.0 83699.0 83699.0 83699.0 151405.0 151405.0 151405.0 151405.0 151405.0 151405.0 151405.0 151405.0
62876.0 61806.0 115752.0 116015.0 70389.0 71658.0 191373.0 189388.0 31951.0 26387.0 36852.0 34136.0 47332.0 39973.0 48315.0 40552.0 48370.0 40506.0 129788.0 121626.0 62762.0 56291.0 100588.0 108707.0 160723.0 163354.0 212165.0 208765.0 110178.0 105586.0 186264.0 178880.0 157177.0 161807.0 71841.0 66820.0 57056.0 63989.0 144407.0 138058.0 209735.0 213864.0 16906.0 21829.0 285172.0 279102.0 134791.0 126944.0 85322.0 87260.0 47510.0 41095.0 0.0 8311.0 54856.0 56682.0 79322.0 71362.0 269469.0 271751.0 114292.0 121035.0 97776.0 90196.0 241951.0 236449.0 95202.0 87539.0 66016.0 57825.0 25859.0 27681.0 32589.0 30688.0 216053.0 214544.0 110663.0 118656.0 275867.0 280610.0 89809.0 189257.0 89809.0 89809.0 89809.0 89809.0 89809.0 89809.0 89809.0 89809.0 189257.0 189257.0 189257.0 189257.0 189257.0 189257.0 189257.0 189257.0
70430.0 68855.0 108172.0 108716.0 62739.0 63659.0 184577.0 182400.0 39712.0 33525.0 41508.0 37338.0 40095.0 33181.0 53560.0 46082.0 40105.0 32267.0 121542.0 113359.0 54526.0 48182.0 92306.0 100418.0 152968.0 155466.0 204757.0 201500.0 102791.0 98459.0 179821.0 172538.0 150500.0 154927.0 63613.0 58744.0 65128.0 72160.0 138675.0 132578.0 201877.0 205924.0 21742.0 24033.0 278075.0 271925.0 127294.0 119490.0 77244.0 79032.0 39439.0 33341.0 8311.0 0.0 49713.0 52549.0 71030.0 63078.0 262998.0 265124.0 107335.0 114174.0 90063.0 82403.0 234413.0 228827.0 86892.0 79230.0 58104.0 50010.0 25081.0 24465.0 40015.0 37114.0 209685.0 208380.0 102370.0 110379.0 269289.0 274151.0 88942.0 182886.0 88942.0 88942.0 88942.0 88942.0 88942.0 88942.0 88942.0 88942.0 182886.0 182886.0 182886.0 182886.0 182886.0 182886.0 182886.0 182886.0
115563.0 115760.0 111374.0 115565.0 72889.0 67722.0 138735.0 137562.0 71604.0 63533.0 91154.0 86939.0 62600.0 61940.0 103015.0 95343.0 38148.0 36383.0 108275.0 99777.0 55164.0 55556.0 80395.0 86726.0 149895.0 149848.0 162524.0 158238.0 109203.0 108437.0 132565.0 124968.0 160889.0 163058.0 46814.0 38794.0 107151.0 112713.0 89679.0 83211.0 164309.0 169489.0 71199.0 73531.0 280120.0 273142.0 87257.0 79316.0 76046.0 72611.0 52222.0 54308.0 54856.0 49713.0 0.0 8167.0 55716.0 49642.0 271776.0 272380.0 118136.0 125291.0 93615.0 85949.0 231695.0 225007.0 72282.0 64336.0 34617.0 29152.0 33936.0 28141.0 86385.0 85491.0 162102.0 160219.0 88155.0 96480.0 276932.0 282840.0 134550.0 195588.0 134550.0 134550.0 134550.0 134550.0 134550.0 134550.0 134550.0 134550.0 195588.0 195588.0 195588.0 195588.0 195588.0 195588.0 195588.0 195588.0
115422.0 116221.0 119540.0 123709.0 80767.0 75766.0 140452.0 139734.0 69756.0 61842.0 93460.0 89862.0 69503.0 68249.0 104983.0 97178.0 45835.0 43420.0 116026.0 107557.0 63185.0 63296.0 88372.0 94582.0 157943.0 157815.0 165527.0 160912.0 117345.0 116512.0 133554.0 125797.0 169027.0 171219.0 54908.0 46893.0 106276.0 111411.0 89506.0 82558.0 168583.0 173997.0 73436.0 76581.0 288200.0 281204.0 91519.0 83659.0 84210.0 80760.0 59521.0 61030.0 56682.0 52549.0 8167.0 0.0 63764.0 57785.0 279942.0 280540.0 126214.0 133376.0 101767.0 94087.0 239661.0 232937.0 80205.0 72317.0 42661.0 37319.0 33284.0 29056.0 87043.0 86903.0 162771.0 160491.0 95975.0 104262.0 285094.0 291006.0 139846.0 203707.0 139846.0 139846.0 139846.0 139846.0 139846.0 139846.0 139846.0 139846.0 203707.0 203707.0 203707.0 203707.0 203707.0 203707.0 203707.0 203707.0
139500.0 136298.0 57729.0 63372.0 33957.0 25416.0 129699.0 125422.0 108732.0 101237.0 103900.0 96501.0 45453.0 52090.0 116010.0 110317.0 31013.0 38933.0 53825.0 45255.0 21268.0 29148.0 24855.0 31880.0 94182.0 94223.0 142375.0 140761.0 57312.0 58859.0 129175.0 123490.0 108191.0 109386.0 9099.0 17027.0 135761.0 143006.0 99949.0 97635.0 134667.0 137815.0 88636.0 85410.0 224445.0 217440.0 67177.0 60820.0 24539.0 18360.0 36237.0 44285.0 79322.0 71030.0 55716.0 63764.0 0.0 8006.0 217097.0 217363.0 68031.0 74758.0 41849.0 35560.0 176049.0 169437.0 17247.0 9010.0 21103.0 27654.0 75302.0 67541.0 109526.0 104608.0 158416.0 159350.0 33563.0 41999.0 221975.0 228088.0 120994.0 143177.0 120994.0 120994.0 120994.0 120994.0 120994.0 120994.0 120994.0 120994.0 143177.0 143177.0 143177.0 143177.0 143177.0 143177.0 143177.0 143177.0
131814.0 128758.0 62139.0 67041.0 31877.0 23792.0 134474.0 130531.0 100731.0 93248.0 96595.0 89325.0 39434.0 45512.0 108788.0 102933.0 23022.0 30938.0 61390.0 52842.0 15938.0 23219.0 32055.0 39454.0 100563.0 100975.0 148505.0 146594.0 60791.0 61344.0 133245.0 127255.0 112272.0 113945.0 4124.0 11147.0 127897.0 135109.0 101770.0 98823.0 141687.0 145022.0 80949.0 77960.0 230605.0 223691.0 72369.0 65586.0 27289.0 22983.0 29358.0 37308.0 71362.0 63078.0 49642.0 57785.0 8006.0 0.0 222296.0 222792.0 70823.0 77777.0 45100.0 38004.0 182695.0 176198.0 24938.0 16766.0 15697.0 20785.0 67532.0 59799.0 101754.0 96971.0 162759.0 163350.0 41211.0 49619.0 227361.0 233336.0 116316.0 147199.0 116316.0 116316.0 116316.0 116316.0 116316.0 116316.0 116316.0 116316.0 147199.0 147199.0 147199.0 147199.0 147199.0 147199.0 147199.0 147199.0
303812.0 296479.0 160449.0 156985.0 203042.0 205744.0 280379.0 272427.0 300467.0 295820.0 266797.0 259317.0 223274.0 229817.0 273093.0 273009.0 236924.0 242549.0 172503.0 179403.0 218176.0 220594.0 194027.0 189907.0 126328.0 129562.0 262412.0 268088.0 163346.0 165796.0 290090.0 289963.0 112702.0 109203.0 225479.0 233373.0 308186.0 315914.0 290948.0 293515.0 234402.0 229091.0 266115.0 258291.0 39024.0 41575.0 240665.0 241732.0 195810.0 199340.0 227611.0 231112.0 269469.0 262998.0 271776.0 279942.0 217097.0 222296.0 0.0 8428.0 156371.0 149294.0 178550.0 186440.0 67330.0 74557.0 202484.0 209394.0 237819.0 242629.0 280847.0 274385.0 283683.0 275729.0 306955.0 312958.0 189186.0 182305.0 8493.0 11165.0 238728.0 81174.0 238728.0 238728.0 238728.0 238728.0 238728.0 238728.0 238728.0 238728.0 81174.0 81174.0 81174.0 81174.0 81174.0 81174.0 81174.0 81174.0
306527.0 299194.0 161273.0 158223.0 204550.0 206921.0 276810.0 268830.0 302956.0 298130.0 269513.0 262032.0 225240.0 231956.0 275808.0 275725.0 238058.0 243873.0 171499.0 178634.0 219260.0 221965.0 193933.0 189506.0 125432.0 128187.0 258025.0 263864.0 164550.0 167382.0 286789.0 286881.0 114626.0 110605.0 225874.0 233815.0 310902.0 318630.0 288924.0 291716.0 229827.0 224343.0 268802.0 260999.0 30639.0 33199.0 238605.0 239941.0 196591.0 199809.0 229174.0 232934.0 271751.0 265124.0 272380.0 280540.0 217363.0 222792.0 8428.0 0.0 158088.0 151091.0 179545.0 187484.0 61739.0 69260.0 202394.0 209482.0 238219.0 243267.0 282434.0 275845.0 286361.0 278390.0 303013.0 309147.0 188701.0 181606.0 4870.0 12630.0 241444.0 84457.0 241444.0 241444.0 241444.0 241444.0 241444.0 241444.0 241444.0 241444.0 84457.0 84457.0 84457.0 84457.0 84457.0 84457.0 84457.0 84457.0
156809.0 150430.0 17433.0 9094.0 46797.0 50493.0 179428.0 173243.0 145967.0 140647.0 118147.0 110100.0 67283.0 74321.0 126688.0 124857.0 81416.0 86497.0 55161.0 54148.0 63105.0 64538.0 52658.0 54325.0 53755.0 59442.0 180850.0 182069.0 11984.0 9706.0 182898.0 178949.0 43716.0 47612.0 74663.0 81786.0 158922.0 166790.0 163101.0 162303.0 163251.0 163193.0 113414.0 106198.0 170915.0 164947.0 119845.0 116413.0 43686.0 49935.0 71267.0 74850.0 114292.0 107335.0 118136.0 126214.0 68031.0 70823.0 156371.0 158088.0 0.0 7195.0 26233.0 32820.0 129510.0 124802.0 59348.0 63026.0 86363.0 89383.0 124479.0 118086.0 132829.0 125276.0 209484.0 212307.0 55182.0 54517.0 162355.0 167535.0 100929.0 77703.0 100929.0 100929.0 100929.0 100929.0 100929.0 100929.0 100929.0 100929.0 77703.0 77703.0 77703.0 77703.0 77703.0 77703.0 77703.0 77703.0
162311.0 155763.0 21068.0 12746.0 53965.0 57675.0 183465.0 177111.0 152621.0 147410.0 123807.0 115825.0 74179.0 81086.0 132007.0 130458.0 88611.0 93676.0 57754.0 57730.0 70287.0 71722.0 58309.0 59276.0 50259.0 56551.0 183676.0 185186.0 17751.0 16891.0 187361.0 183628.0 36602.0 40772.0 81577.0 88782.0 164784.0 172644.0 168779.0 168198.0 165194.0 164805.0 119727.0 112390.0 164308.0 158438.0 124664.0 121545.0 50558.0 56543.0 78395.0 81853.0 121035.0 114174.0 125291.0 133376.0 74758.0 77777.0 149294.0 151091.0 7195.0 0.0 32911.0 39792.0 123700.0 119224.0 65353.0 69440.0 93361.0 96498.0 131578.0 125223.0 138884.0 131249.0 213531.0 216563.0 59959.0 58454.0 155332.0 160458.0 104309.0 70508.0 104309.0 104309.0 104309.0 104309.0 104309.0 104309.0 104309.0 104309.0 70508.0 70508.0 70508.0 70508.0 70508.0 70508.0 70508.0 70508.0
147910.0 142562.0 18521.0 21998.0 27406.0 27609.0 157846.0 152160.0 129704.0 123526.0 109139.0 100950.0 50932.0 58959.0 119385.0 116018.0 58556.0 64702.0 42227.0 37483.0 39735.0 43179.0 28372.0 32365.0 62953.0 65920.0 162753.0 163086.0 15698.0 17477.0 160189.0 155722.0 67330.0 69511.0 48804.0 56199.0 147917.0 155725.0 137798.0 136652.0 148119.0 149153.0 100338.0 94173.0 189632.0 183131.0 96609.0 92422.0 17813.0 23702.0 51243.0 56726.0 97776.0 90063.0 93615.0 101767.0 41849.0 45100.0 178550.0 179545.0 26233.0 32911.0 0.0 7988.0 144488.0 138789.0 33917.0 36889.0 60772.0 64528.0 103843.0 96875.0 121056.0 114186.0 187741.0 190014.0 33800.0 36415.0 184000.0 189663.0 104539.0 102177.0 104539.0 104539.0 104539.0 104539.0 104539.0 104539.0 104539.0 104539.0 102177.0 102177.0 102177.0 102177.0 102177.0 102177.0 102177.0 102177.0
141507.0 136393.0 26503.0 29636.0 20049.0 19625.0 156158.0 150767.0 122087.0 115814.0 102886.0 94722.0 43700.0 51818.0 113448.0 109762.0 50591.0 56715.0 46076.0 40153.0 31778.0 35237.0 26692.0 32432.0 70567.0 73228.0 162774.0 162703.0 23263.0 23398.0 157826.0 153038.0 74940.0 77336.0 41852.0 48990.0 141102.0 148879.0 133471.0 131920.0 149430.0 150869.0 93312.0 87385.0 197612.0 191100.0 94201.0 89480.0 11022.0 18274.0 43395.0 49103.0 90196.0 82403.0 85949.0 94087.0 35560.0 38004.0 186440.0 187484.0 32820.0 39792.0 7988.0 0.0 152318.0 146553.0 30448.0 31809.0 53569.0 56939.0 95869.0 88889.0 114183.0 107473.0 185876.0 187827.0 34169.0 38485.0 191929.0 197560.0 101763.0 109679.0 101763.0 101763.0 101763.0 101763.0 101763.0 101763.0 101763.0 101763.0 109679.0 109679.0 109679.0 109679.0 109679.0 109679.0 109679.0 109679.0
285960.0 279281.0 126243.0 126257.0 171684.0 171733.0 217565.0 209541.0 273898.0 267927.0 247507.0 239517.0 194670.0 202347.0 255539.0 254152.0 201498.0 208372.0 124555.0 132706.0 182988.0 187474.0 151300.0 145243.0 82356.0 81848.0 197100.0 203205.0 131870.0 137159.0 228234.0 228973.0 92857.0 85709.0 185071.0 193067.0 288422.0 296288.0 234771.0 238467.0 168664.0 162968.0 242630.0 235593.0 52316.0 44405.0 184819.0 187303.0 159270.0 160375.0 195711.0 201091.0 241951.0 234413.0 231695.0 239661.0 176049.0 182695.0 67330.0 61739.0 129510.0 123700.0 144488.0 152318.0 0.0 8013.0 159467.0 167360.0 197100.0 203455.0 247682.0 240406.0 262311.0 254784.0 242830.0 249233.0 143987.0 135949.0 66258.0 74243.0 224102.0 80125.0 224102.0 224102.0 224102.0 224102.0 224102.0 224102.0 224102.0 224102.0 80125.0 80125.0 80125.0 80125.0 80125.0 80125.0 80125.0 80125.0
281526.0 274976.0 120699.0 121125.0 166091.0 165857.0 209562.0 201539.0 268399.0 262311.0 242938.0 234902.0 189245.0 197005.0 251221.0 249629.0 195340.0 202313.0 117512.0 125741.0 176932.0 181610.0 144634.0 138414.0 76222.0 75230.0 189233.0 195299.0 126585.0 132151.0 220221.0 220962.0 89770.0 82347.0 178487.0 186464.0 283685.0 291555.0 226903.0 230651.0 160843.0 155209.0 237552.0 230629.0 60256.0 52316.0 177001.0 179564.0 153198.0 154043.0 189936.0 195486.0 236449.0 228827.0 225007.0 232937.0 169437.0 176198.0 74557.0 69260.0 124802.0 119224.0 138789.0 146553.0 8013.0 0.0 152733.0 160688.0 190446.0 196926.0 241601.0 234267.0 257425.0 249973.0 234878.0 241263.0 137112.0 129001.0 73847.0 81822.0 220667.0 80081.0 220667.0 220667.0 220667.0 220667.0 220667.0 220667.0 220667.0 220667.0 80081.0 80081.0 80081.0 80081.0 80081.0 80081.0 80081.0 80081.0
153911.0 150177.0 45970.0 52984.0 38685.0 31033.0 126112.0 120967.0 125282.0 117920.0 117164.0 109436.0 56672.0 64242.0 128946.0 123789.0 47409.0 55294.0 36583.0 28010.0 33574.0 41333.0 8462.0 14649.0 78094.0 77631.0 134722.0 134036.0 47626.0 51291.0 127441.0 122595.0 96005.0 96287.0 26295.0 34050.0 150957.0 158359.0 103914.0 102958.0 124033.0 126439.0 103248.0 99257.0 208423.0 201306.0 63858.0 59033.0 21542.0 13650.0 49660.0 57591.0 95202.0 86892.0 72282.0 80205.0 17247.0 24938.0 202484.0 202394.0 59348.0 65353.0 33917.0 30448.0 159467.0 152733.0 0.0 8237.0 37806.0 44823.0 92465.0 84722.0 124373.0 118956.0 155687.0 157487.0 16317.0 24753.0 207066.0 213382.0 127471.0 130820.0 127471.0 127471.0 127471.0 127471.0 127471.0 127471.0 127471.0 127471.0 130820.0 130820.0 130820.0 130820.0 130820.0 130820.0 130820.0 130820.0
146933.0 143436.0 51174.0 57507.0 35438.0 27121.0 127582.0 122848.0 117342.0 109921.0 110670.0 103077.0 50868.0 58093.0 122612.0 117209.0 39477.0 47391.0 44816.0 36245.0 27007.0 34962.0 16060.0 22874.0 85708.0 85513.0 138194.0 137051.0 51734.0 54325.0 128018.0 122757.0 101617.0 102367.0 18072.0 25888.0 143625.0 150959.0 101710.0 100115.0 128962.0 131740.0 96142.0 92480.0 216038.0 208977.0 64930.0 59306.0 21314.0 13535.0 42888.0 50919.0 87539.0 79230.0 64336.0 72317.0 9010.0 16766.0 209394.0 209482.0 63026.0 69440.0 36889.0 31809.0 167360.0 160688.0 8237.0 0.0 29760.0 36617.0 84260.0 76510.0 117182.0 111982.0 156795.0 158181.0 24553.0 32989.0 214125.0 220341.0 124066.0 136565.0 124066.0 124066.0 124066.0 124066.0 124066.0 124066.0 124066.0 124066.0 136565.0 136565.0 136565.0 136565.0 136565.0 136565.0 136565.0 136565.0
128449.0 126368.0 77804.0 82729.0 44964.0 37756.0 130064.0 126961.0 92752.0 84895.0 95860.0 89332.0 45489.0 49436.0 108280.0 101697.0 20811.0 27039.0 74147.0 65593.0 26800.0 31413.0 45812.0 52373.0 115285.0 115258.0 147533.0 144781.0 76469.0 76820.0 127278.0 120711.0 127969.0 129610.0 12345.0 4579.0 123054.0 129856.0 91965.0 88059.0 143775.0 147849.0 78243.0 76826.0 245542.0 238543.0 70060.0 62503.0 42959.0 38494.0 33796.0 40424.0 66016.0 58104.0 34617.0 42661.0 21103.0 15697.0 237819.0 238219.0 86363.0 93361.0 60772.0 53569.0 197100.0 190446.0 37806.0 29760.0 0.0 8408.0 57022.0 49231.0 98033.0 94329.0 157159.0 157015.0 53897.0 62300.0 242808.0 248841.0 123494.0 162894.0 123494.0 123494.0 123494.0 123494.0 123494.0 123494.0 123494.0 123494.0 162894.0 162894.0 162894.0 162894.0 162894.0 162894.0 162894.0 162894.0
120426.0 118533.0 82222.0 86506.0 45498.0 39350.0 136715.0 133892.0 84344.0 76492.0 88511.0 82229.0 41647.0 44415.0 100942.0 94191.0 15231.0 19933.0 81382.0 72808.0 27157.0 29691.0 52486.0 59471.0 121348.0 121696.0 155114.0 152164.0 80159.0 79715.0 133364.0 126584.0 131844.0 133922.0 18555.0 10884.0 114820.0 121571.0 96354.0 91865.0 151911.0 156070.0 70488.0 69476.0 251367.0 244467.0 77587.0 69901.0 46904.0 43606.0 29859.0 35411.0 57825.0 50010.0 29152.0 37319.0 27654.0 20785.0 242629.0 243267.0 89383.0 96498.0 64528.0 56939.0 203455.0 196926.0 44823.0 36617.0 8408.0 0.0 48782.0 40979.0 90004.0 86520.0 163306.0 162863.0 61095.0 69533.0 247810.0 253697.0 119091.0 166617.0 119091.0 119091.0 119091.0 119091.0 119091.0 119091.0 119091.0 119091.0 166617.0 166617.0 166617.0 166617.0 166617.0 166617.0 166617.0 166617.0
82151.0 82994.0 122362.0 124375.0 77889.0 76251.0 172667.0 171476.0 37892.0 29781.0 62245.0 59989.0 58543.0 53567.0 73074.0 65163.0 46342.0 39313.0 128875.0 120347.0 64694.0 60719.0 99382.0 106968.0 165388.0 166829.0 196134.0 192009.0 118129.0 115072.0 166338.0 158673.0 168180.0 171829.0 66499.0 59507.0 73291.0 78777.0 122737.0 115840.0 196732.0 201564.0 42605.0 47523.0 293468.0 286969.0 120032.0 112062.0 88416.0 87977.0 53260.0 50151.0 25859.0 25081.0 33936.0 33284.0 75302.0 67532.0 280847.0 282434.0 124479.0 131578.0 103843.0 95869.0 247682.0 241601.0 92465.0 84260.0 57022.0 48782.0 0.0 7807.0 53955.0 54467.0 195748.0 193635.0 108741.0 117139.0 286755.0 292010.0 114021.0 201470.0 114021.0 114021.0 114021.0 114021.0 114021.0 114021.0 114021.0 114021.0 201470.0 201470.0 201470.0 201470.0 201470.0 201470.0 201470.0 201470.0
87431.0 87670.0 115392.0 117665.0 71344.0 69266.0 166607.0 165192.0 44915.0 36819.0 64522.0 61320.0 53101.0 48876.0 75943.0 68126.0 38928.0 32182.0 121168.0 112632.0 57477.0 53908.0 91703.0 99248.0 158075.0 159394.0 189428.0 185458.0 111379.0 108596.0 160664.0 153092.0 161801.0 165262.0 58714.0 51701.0 79258.0 85078.0 117717.0 111082.0 189505.0 194247.0 44525.0 48268.0 286491.0 279936.0 112985.0 105019.0 81149.0 80471.0 46834.0 44493.0 27681.0 24465.0 28141.0 29056.0 67541.0 59799.0 274385.0 275845.0 118086.0 125223.0 96875.0 88889.0 240406.0 234267.0 84722.0 76510.0 49231.0 40979.0 7807.0 0.0 58332.0 57872.0 190235.0 188353.0 101010.0 109416.0 280199.0 285543.0 112529.0 195359.0 112529.0 112529.0 112529.0 112529.0 112529.0 112529.0 112529.0 112529.0 195359.0 195359.0 195359.0 195359.0 195359.0 195359.0 195359.0 195359.0
30421.0 29401.0 137787.0 136379.0 94212.0 97578.0 223871.0 221955.0 28947.0 32100.0 19196.0 24953.0 70691.0 62504.0 23189.0 16390.0 79211.0 71636.0 157127.0 149358.0 90935.0 83541.0 128806.0 137004.0 183247.0 186847.0 244705.0 241347.0 131189.0 125283.0 218544.0 211082.0 173276.0 178929.0 102756.0 98446.0 26955.0 34698.0 176040.0 169403.0 241790.0 245732.0 21207.0 26930.0 302448.0 296901.0 167280.0 159457.0 111469.0 114830.0 74879.0 67220.0 32589.0 40015.0 86385.0 87043.0 109526.0 101754.0 283683.0 286361.0 132829.0 138884.0 121056.0 114183.0 262311.0 257425.0 124373.0 117182.0 98033.0 90004.0 53955.0 58332.0 0.0 8072.0 248256.0 246555.0 139015.0 146594.0 290320.0 294806.0 83749.0 203425.0 83749.0 83749.0 83749.0 83749.0 83749.0 83749.0 83749.0 83749.0 203425.0 203425.0 203425.0 203425.0 203425.0 203425.0 203425.0 203425.0
34958.0 32042.0 130654.0 129023.0 87604.0 91381.0 221688.0 219502.0 34833.0 36536.0 11738.0 16888.0 64276.0 56101.0 18996.0 11157.0 74848.0 67525.0 151012.0 143377.0 85400.0 77817.0 123045.0 131237.0 176086.0 179834.0 241595.0 238471.0 123932.0 117880.0 216822.0 209482.0 165447.0 171169.0 98235.0 94405.0 33823.0 41680.0 175090.0 168702.0 237819.0 241565.0 16121.0 20133.0 294623.0 289116.0 164075.0 156330.0 105231.0 108943.0 69305.0 61461.0 30688.0 37114.0 85491.0 86903.0 104608.0 96971.0 275729.0 278390.0 125276.0 131249.0 114186.0 107473.0 254784.0 249973.0 118956.0 111982.0 94329.0 86520.0 54467.0 57872.0 8072.0 0.0 246648.0 245202.0 133257.0 140682.0 282366.0 286852.0 76242.0 195471.0 76242.0 76242.0 76242.0 76242.0 76242.0 76242.0 76242.0 76242.0 195471.0 195471.0 195471.0 195471.0 195471.0 195471.0 195471.0 195471.0
277664.0 277656.0 192526.0 201025.0 191952.0 183435.0 30066.0 36784.0 232425.0 224581.0 250630.0 244985.0 201607.0 206437.0 262959.0 255693.0 177900.0 183202.0 157106.0 155850.0 178685.0 185805.0 159522.0 155765.0 193841.0 187310.0 47928.0 40510.0 197715.0 203718.0 29957.0 37176.0 231704.0 227808.0 159419.0 159056.0 269001.0 274172.0 73937.0 81787.0 76466.0 83598.0 231373.0 231833.0 293615.0 285598.0 91924.0 97651.0 177111.0 169055.0 190395.0 197488.0 216053.0 209685.0 162102.0 162771.0 158416.0 162759.0 306955.0 303013.0 209484.0 213531.0 187741.0 185876.0 242830.0 234878.0 155687.0 156795.0 157159.0 163306.0 195748.0 190235.0 248256.0 246648.0 0.0 8111.0 154640.0 155093.0 307791.0 315630.0 279075.0 260732.0 279075.0 279075.0 279075.0 279075.0 279075.0 279075.0 279075.0 279075.0 260732.0 260732.0 260732.0 260732.0 260732.0 260732.0 260732.0 260732.0
275715.0 275950.0 195512.0 203976.0 193095.0 184552.0 33796.0 41251.0 229938.0 222170.0 249539.0 244091.0 201857.0 206420.0 261813.0 254451.0 177648.0 182680.0 160676.0 159027.0 179287.0 186240.0 161691.0 158295.0 198490.0 192115.0 55494.0 47852.0 200462.0 206257.0 30184.0 36304.0 235760.0 232075.0 159893.0 159122.0 266764.0 271762.0 71104.0 78614.0 83788.0 91043.0 230110.0 230855.0 300235.0 292212.0 93633.0 98877.0 178780.0 170705.0 190501.0 197428.0 214544.0 208380.0 160219.0 160491.0 159350.0 163350.0 312958.0 309147.0 212307.0 216563.0 190014.0 187827.0 249233.0 241263.0 157487.0 158181.0 157015.0 162863.0 193635.0 188353.0 246555.0 245202.0 8111.0 0.0 157255.0 158117.0 313941.0 321753.0 279587.0 265317.0 279587.0 279587.0 279587.0 279587.0 279587.0 279587.0 279587.0 279587.0 265317.0 265317.0 265317.0 265317.0 265317.0 265317.0 265317.0 265317.0
168132.0 164000.0 39015.0 47220.0 48812.0 42669.0 124636.0 118722.0 141138.0 133875.0 130678.0 122762.0 69702.0 77641.0 142143.0 137419.0 63375.0 71199.0 20287.0 11714.0 48172.0 55480.0 10213.0 2030.0 63535.0 62337.0 129005.0 129285.0 43259.0 49083.0 127739.0 123775.0 86251.0 85421.0 42595.0 50279.0 165784.0 173290.0 109869.0 110092.0 115278.0 116838.0 117815.0 113316.0 193542.0 186305.0 64720.0 61697.0 29823.0 24423.0 64148.0 71828.0 110663.0 102370.0 88155.0 95975.0 33563.0 41211.0 189186.0 188701.0 55182.0 59959.0 33800.0 34169.0 143987.0 137112.0 16317.0 24553.0 53897.0 61095.0 108741.0 101010.0 139015.0 133257.0 154640.0 157255.0 0.0 8440.0 193431.0 199960.0 135648.0 120401.0 135648.0 135648.0 135648.0 135648.0 135648.0 135648.0 135648.0 135648.0 120401.0 120401.0 120401.0 120401.0 120401.0 120401.0 120401.0 120401.0
175481.0 171161.0 37433.0 45938.0 55025.0 49564.0 125027.0 118751.0 149306.0 142095.0 137740.0 129753.0 76773.0 84816.0 149035.0 144523.0 71640.0 79430.0 11854.0 3298.0 55988.0 63084.0 18087.0 10172.0 56208.0 54523.0 127087.0 127898.0 42980.0 49718.0 129024.0 125532.0 81746.0 80259.0 51035.0 58711.0 173430.0 180983.0 114026.0 114788.0 111712.0 112764.0 125387.0 120662.0 185802.0 178505.0 67050.0 64957.0 36119.0 31765.0 71829.0 79375.0 118656.0 110379.0 96480.0 104262.0 41999.0 49619.0 182305.0 181606.0 54517.0 58454.0 36415.0 38485.0 135949.0 129001.0 24753.0 32989.0 62300.0 69533.0 117139.0 109416.0 146594.0 140682.0 155093.0 158117.0 8440.0 0.0 186362.0 193001.0 140215.0 115283.0 140215.0 140215.0 140215.0 140215.0 140215.0 140215.0 140215.0 140215.0 115283.0 115283.0 115283.0 115283.0 115283.0 115283.0 115283.0 115283.0
310449.0 303116.0 165763.0 162615.0 208883.0 211338.0 281630.0 273648.0 307008.0 302240.0 273434.0 265954.0 229448.0 236112.0 279730.0 279646.0 242490.0 248259.0 176289.0 183398.0 223701.0 226336.0 198605.0 194224.0 130203.0 133005.0 262741.0 268605.0 168953.0 171687.0 291630.0 291735.0 118816.0 114938.0 230463.0 238396.0 314823.0 322552.0 293787.0 296571.0 234512.0 228995.0 272752.0 264922.0 31804.0 35399.0 243469.0 244795.0 201097.0 204381.0 233495.0 237185.0 275867.0 269289.0 276932.0 285094.0 221975.0 227361.0 8493.0 4870.0 162355.0 155332.0 184000.0 191929.0 66258.0 73847.0 207066.0 214125.0 242808.0 247810.0 286755.0 280199.0 290320.0 282366.0 307791.0 313941.0 193431.0 186362.0 0.0 7987.0 245365.0 88159.0 245365.0 245365.0 245365.0 245365.0 245365.0 245365.0 245365.0 245365.0 88159.0 88159.0 88159.0 88159.0 88159.0 88159.0 88159.0 88159.0
314934.0 307602.0 171537.0 168122.0 214200.0 216880.0 289383.0 281407.0 311585.0 306957.0 277920.0 270440.0 234435.0 240970.0 284216.0 284132.0 248058.0 253699.0 183077.0 190072.0 229304.0 231746.0 204923.0 200708.0 136927.0 139955.0 270654.0 276493.0 174481.0 176956.0 299314.0 299357.0 123867.0 120347.0 236499.0 244403.0 319309.0 327037.0 301040.0 303732.0 242448.0 236950.0 277238.0 269414.0 37473.0 42028.0 250731.0 251948.0 206896.0 210372.0 238772.0 242277.0 280610.0 274151.0 282840.0 291006.0 228088.0 233336.0 11165.0 12630.0 167535.0 160458.0 189663.0 197560.0 74243.0 81822.0 213382.0 220341.0 248841.0 253697.0 292010.0 285543.0 294806.0 286852.0 315630.0 321753.0 199960.0 193001.0 7987.0 0.0 249851.0 92214.0 249851.0 249851.0 249851.0 249851.0 249851.0 249851.0 249851.0 249851.0 92214.0 92214.0 92214.0 92214.0 92214.0 92214.0 92214.0 92214.0
92852.0 84514.0 113808.0 108260.0 88850.0 96959.0 250648.0 246410.0 110171.0 109736.0 64593.0 60608.0 78028.0 74759.0 64505.0 68264.0 103862.0 100912.0 146755.0 141709.0 100394.0 93350.0 126955.0 133796.0 154464.0 160365.0 262112.0 261115.0 105814.0 97865.0 249526.0 243402.0 131325.0 138409.0 119700.0 120848.0 101167.0 107939.0 215326.0 210954.0 250760.0 252484.0 76270.0 68795.0 258629.0 253719.0 188170.0 181724.0 106667.0 113965.0 89706.0 83699.0 89809.0 88942.0 134550.0 139846.0 120994.0 116316.0 238728.0 241444.0 100929.0 104309.0 104539.0 101763.0 224102.0 220667.0 127471.0 124066.0 123494.0 119091.0 114021.0 112529.0 83749.0 76242.0 279075.0 279587.0 135648.0 140215.0 245365.0 249851.0 0.0 158470.0 0.0 0.0 0.0 0.0 0.0 0.0 0.0 0.0 158470.0 158470.0 158470.0 158470.0 158470.0 158470.0 158470.0 158470.0
223554.0 216221.0 85477.0 80183.0 124359.0 128140.0 231534.0 224138.0 220209.0 215591.0 186539.0 179059.0 143376.0 149722.0 192835.0 192751.0 159119.0 164086.0 108273.0 113029.0 140747.0 142168.0 122677.0 120562.0 66901.0 73696.0 222342.0 226086.0 86491.0 87390.0 238506.0 236487.0 34986.0 35028.0 150783.0 158330.0 227928.0 235656.0 229147.0 230070.0 197841.0 194778.0 185857.0 178033.0 104040.0 100037.0 180652.0 179673.0 119965.0 124850.0 148561.0 151405.0 189257.0 182886.0 195588.0 203707.0 143177.0 147199.0 81174.0 84457.0 77703.0 70508.0 102177.0 109679.0 80125.0 80081.0 130820.0 136565.0 162894.0 166617.0 201470.0 195359.0 203425.0 195471.0 260732.0 265317.0 120401.0 115283.0 88159.0 92214.0 158470.0 0.0 158470.0 158470.0 158470.0 158470.0 158470.0 158470.0 158470.0 158470.0 0.0 0.0 0.0 0.0 0.0 0.0 0.0 0.0
92852.0 84514.0 113808.0 108260.0 88850.0 96959.0 250648.0 246410.0 110171.0 109736.0 64593.0 60608.0 78028.0 74759.0 64505.0 68264.0 103862.0 100912.0 146755.0 141709.0 100394.0 93350.0 126955.0 133796.0 154464.0 160365.0 262112.0 261115.0 105814.0 97865.0 249526.0 243402.0 131325.0 138409.0 119700.0 120848.0 101167.0 107939.0 215326.0 210954.0 250760.0 252484.0 76270.0 68795.0 258629.0 253719.0 188170.0 181724.0 106667.0 113965.0 89706.0 83699.0 89809.0 88942.0 134550.0 139846.0 120994.0 116316.0 238728.0 241444.0 100929.0 104309.0 104539.0 101763.0 224102.0 220667.0 127471.0 124066.0 123494.0 119091.0 114021.0 112529.0 83749.0 76242.0 279075.0 279587.0 135648.0 140215.0 245365.0 249851.0 0.0 158470.0 0.0 0.0 0.0 0.0 0.0 0.0 0.0 0.0 158470.0 158470.0 158470.0 158470.0 158470.0 158470.0 158470.0 158470.0
92852.0 84514.0 113808.0 108260.0 88850.0 96959.0 250648.0 246410.0 110171.0 109736.0 64593.0 60608.0 78028.0 74759.0 64505.0 68264.0 103862.0 100912.0 146755.0 141709.0 100394.0 93350.0 126955.0 133796.0 154464.0 160365.0 262112.0 261115.0 105814.0 97865.0 249526.0 243402.0 131325.0 138409.0 119700.0 120848.0 101167.0 107939.0 215326.0 210954.0 250760.0 252484.0 76270.0 68795.0 258629.0 253719.0 188170.0 181724.0 106667.0 113965.0 89706.0 83699.0 89809.0 88942.0 134550.0 139846.0 120994.0 116316.0 238728.0 241444.0 100929.0 104309.0 104539.0 101763.0 224102.0 220667.0 127471.0 124066.0 123494.0 119091.0 114021.0 112529.0 83749.0 76242.0 279075.0 279587.0 135648.0 140215.0 245365.0 249851.0 0.0 158470.0 0.0 0.0 0.0 0.0 0.0 0.0 0.0 0.0 158470.0 158470.0 158470.0 158470.0 158470.0 158470.0 158470.0 158470.0
92852.0 84514.0 113808.0 108260.0 88850.0 96959.0 250648.0 246410.0 110171.0 109736.0 64593.0 60608.0 78028.0 74759.0 64505.0 68264.0 103862.0 100912.0 146755.0 141709.0 100394.0 93350.0 126955.0 133796.0 154464.0 160365.0 262112.0 261115.0 105814.0 97865.0 249526.0 243402.0 131325.0 138409.0 119700.0 120848.0 101167.0 107939.0 215326.0 210954.0 250760.0 252484.0 76270.0 68795.0 258629.0 253719.0 188170.0 181724.0 106667.0 113965.0 89706.0 83699.0 89809.0 88942.0 134550.0 139846.0 120994.0 116316.0 238728.0 241444.0 100929.0 104309.0 104539.0 101763.0 224102.0 220667.0 127471.0 124066.0 123494.0 119091.0 114021.0 112529.0 83749.0 76242.0 279075.0 279587.0 135648.0 140215.0 245365.0 249851.0 0.0 158470.0 0.0 0.0 0.0 0.0 0.0 0.0 0.0 0.0 158470.0 158470.0 158470.0 158470.0 158470.0 158470.0 158470.0 158470.0
92852.0 84514.0 113808.0 108260.0 88850.0 96959.0 250648.0 246410.0 110171.0 109736.0 64593.0 60608.0 78028.0 74759.0 64505.0 68264.0 103862.0 100912.0 146755.0 141709.0 100394.0 93350.0 126955.0 133796.0 154464.0 160365.0 262112.0 261115.0 105814.0 97865.0 249526.0 243402.0 131325.0 138409.0 119700.0 120848.0 101167.0 107939.0 215326.0 210954.0 250760.0 252484.0 76270.0 68795.0 258629.0 253719.0 188170.0 181724.0 106667.0 113965.0 89706.0 83699.0 89809.0 88942.0 134550.0 139846.0 120994.0 116316.0 238728.0 241444.0 100929.0 104309.0 104539.0 101763.0 224102.0 220667.0 127471.0 124066.0 123494.0 119091.0 114021.0 112529.0 83749.0 76242.0 279075.0 279587.0 135648.0 140215.0 245365.0 249851.0 0.0 158470.0 0.0 0.0 0.0 0.0 0.0 0.0 0.0 0.0 158470.0 158470.0 158470.0 158470.0 158470.0 158470.0 158470.0 158470.0
92852.0 84514.0 113808.0 108260.0 88850.0 96959.0 250648.0 246410.0 110171.0 109736.0 64593.0 60608.0 78028.0 74759.0 64505.0 68264.0 103862.0 100912.0 146755.0 141709.0 100394.0 93350.0 126955.0 133796.0 154464.0 160365.0 262112.0 261115.0 105814.0 97865.0 249526.0 243402.0 131325.0 138409.0 119700.0 120848.0 101167.0 107939.0 215326.0 210954.0 250760.0 252484.0 76270.0 68795.0 258629.0 253719.0 188170.0 181724.0 106667.0 113965.0 89706.0 83699.0 89809.0 88942.0 134550.0 139846.0 120994.0 116316.0 238728.0 241444.0 100929.0 104309.0 104539.0 101763.0 224102.0 220667.0 127471.0 124066.0 123494.0 119091.0 114021.0 112529.0 83749.0 76242.0 279075.0 279587.0 135648.0 140215.0 245365.0 249851.0 0.0 158470.0 0.0 0.0 0.0 0.0 0.0 0.0 0.0 0.0 158470.0 158470.0 158470.0 158470.0 158470.0 158470.0 158470.0 158470.0
92852.0 84514.0 113808.0 108260.0 88850.0 96959.0 250648.0 246410.0 110171.0 109736.0 64593.0 60608.0 78028.0 74759.0 64505.0 68264.0 103862.0 100912.0 146755.0 141709.0 100394.0 93350.0 126955.0 133796.0 154464.0 160365.0 262112.0 261115.0 105814.0 97865.0 249526.0 243402.0 131325.0 138409.0 119700.0 120848.0 101167.0 107939.0 215326.0 210954.0 250760.0 252484.0 76270.0 68795.0 258629.0 253719.0 188170.0 181724.0 106667.0 113965.0 89706.0 83699.0 89809.0 88942.0 134550.0 139846.0 120994.0 116316.0 238728.0 241444.0 100929.0 104309.0 104539.0 101763.0 224102.0 220667.0 127471.0 124066.0 123494.0 119091.0 114021.0 112529.0 83749.0 76242.0 279075.0 279587.0 135648.0 140215.0 245365.0 249851.0 0.0 158470.0 0.0 0.0 0.0 0.0 0.0 0.0 0.0 0.0 158470.0 158470.0 158470.0 158470.0 158470.0 158470.0 158470.0 158470.0
92852.0 84514.0 113808.0 108260.0 88850.0 96959.0 250648.0 246410.0 110171.0 109736.0 64593.0 60608.0 78028.0 74759.0 64505.0 68264.0 103862.0 100912.0 146755.0 141709.0 100394.0 93350.0 126955.0 133796.0 154464.0 160365.0 262112.0 261115.0 105814.0 97865.0 249526.0 243402.0 131325.0 138409.0 119700.0 120848.0 101167.0 107939.0 215326.0 210954.0 250760.0 252484.0 76270.0 68795.0 258629.0 253719.0 188170.0 181724.0 106667.0 113965.0 89706.0 83699.0 89809.0 88942.0 134550.0 139846.0 120994.0 116316.0 238728.0 241444.0 100929.0 104309.0 104539.0 101763.0 224102.0 220667.0 127471.0 124066.0 123494.0 119091.0 114021.0 112529.0 83749.0 76242.0 279075.0 279587.0 135648.0 140215.0 245365.0 249851.0 0.0 158470.0 0.0 0.0 0.0 0.0 0.0 0.0 0.0 0.0 158470.0 158470.0 158470.0 158470.0 158470.0 158470.0 158470.0 158470.0
92852.0 84514.0 113808.0 108260.0 88850.0 96959.0 250648.0 246410.0 110171.0 109736.0 64593.0 60608.0 78028.0 74759.0 64505.0 68264.0 103862.0 100912.0 146755.0 141709.0 100394.0 93350.0 126955.0 133796.0 154464.0 160365.0 262112.0 261115.0 105814.0 97865.0 249526.0 243402.0 131325.0 138409.0 119700.0 120848.0 101167.0 107939.0 215326.0 210954.0 250760.0 252484.0 76270.0 68795.0 258629.0 253719.0 188170.0 181724.0 106667.0 113965.0 89706.0 83699.0 89809.0 88942.0 134550.0 139846.0 120994.0 116316.0 238728.0 241444.0 100929.0 104309.0 104539.0 101763.0 224102.0 220667.0 127471.0 124066.0 123494.0 119091.0 114021.0 112529.0 83749.0 76242.0 279075.0 279587.0 135648.0 140215.0 245365.0 249851.0 0.0 158470.0 0.0 0.0 0.0 0.0 0.0 0.0 0.0 0.0 158470.0 158470.0 158470.0 158470.0 158470.0 158470.0 158470.0 158470.0
223554.0 216221.0 85477.0 80183.0 124359.0 128140.0 231534.0 224138.0 220209.0 215591.0 186539.0 179059.0 143376.0 149722.0 192835.0 192751.0 159119.0 164086.0 108273.0 113029.0 140747.0 142168.0 122677.0 120562.0 66901.0 73696.0 222342.0 226086.0 86491.0 87390.0 238506.0 236487.0 34986.0 35028.0 150783.0 158330.0 227928.0 235656.0 229147.0 230070.0 197841.0 194778.0 185857.0 178033.0 104040.0 100037.0 180652.0 179673.0 119965.0 124850.0 148561.0 151405.0 189257.0 182886.0 195588.0 203707.0 143177.0 147199.0 81174.0 84457.0 77703.0 70508.0 102177.0 109679.0 80125.0 80081.0 130820.0 136565.0 162894.0 166617.0 201470.0 195359.0 203425.0 195471.0 260732.0 265317.0 120401.0 115283.0 88159.0 92214.0 158470.0 0.0 158470.0 158470.0 158470.0 158470.0 158470.0 158470.0 158470.0 158470.0 0.0 0.0 0.0 0.0 0.0 0.0 0.0 0.0
223554.0 216221.0 85477.0 80183.0 124359.0 128140.0 231534.0 224138.0 220209.0 215591.0 186539.0 179059.0 143376.0 149722.0 192835.0 192751.0 159119.0 164086.0 108273.0 113029.0 140747.0 142168.0 122677.0 120562.0 66901.0 73696.0 222342.0 226086.0 86491.0 87390.0 238506.0 236487.0 34986.0 35028.0 150783.0 158330.0 227928.0 235656.0 229147.0 230070.0 197841.0 194778.0 185857.0 178033.0 104040.0 100037.0 180652.0 179673.0 119965.0 124850.0 148561.0 151405.0 189257.0 182886.0 195588.0 203707.0 143177.0 147199.0 81174.0 84457.0 77703.0 70508.0 102177.0 109679.0 80125.0 80081.0 130820.0 136565.0 162894.0 166617.0 201470.0 195359.0 203425.0 195471.0 260732.0 265317.0 120401.0 115283.0 88159.0 92214.0 158470.0 0.0 158470.0 158470.0 158470.0 158470.0 158470.0 158470.0 158470.0 158470.0 0.0 0.0 0.0 0.0 0.0 0.0 0.0 0.0
223554.0 216221.0 85477.0 80183.0 124359.0 128140.0 231534.0 224138.0 220209.0 215591.0 186539.0 179059.0 143376.0 149722.0 192835.0 192751.0 159119.0 164086.0 108273.0 113029.0 140747.0 142168.0 122677.0 120562.0 66901.0 73696.0 222342.0 226086.0 86491.0 87390.0 238506.0 236487.0 34986.0 35028.0 150783.0 158330.0 227928.0 235656.0 229147.0 230070.0 197841.0 194778.0 185857.0 178033.0 104040.0 100037.0 180652.0 179673.0 119965.0 124850.0 148561.0 151405.0 189257.0 182886.0 195588.0 203707.0 143177.0 147199.0 81174.0 84457.0 77703.0 70508.0 102177.0 109679.0 80125.0 80081.0 130820.0 136565.0 162894.0 166617.0 201470.0 195359.0 203425.0 195471.0 260732.0 265317.0 120401.0 115283.0 88159.0 92214.0 158470.0 0.0 158470.0 158470.0 158470.0 158470.0 158470.0 158470.0 158470.0 158470.0 0.0 0.0 0.0 0.0 0.0 0.0 0.0 0.0
223554.0 216221.0 85477.0 80183.0 124359.0 128140.0 231534.0 224138.0 220209.0 215591.0 186539.0 179059.0 143376.0 149722.0 192835.0 192751.0 159119.0 164086.0 108273.0 113029.0 140747.0 142168.0 122677.0 120562.0 66901.0 73696.0 222342.0 226086.0 86491.0 87390.0 238506.0 236487.0 34986.0 35028.0 150783.0 158330.0 227928.0 235656.0 229147.0 230070.0 197841.0 194778.0 185857.0 178033.0 104040.0 100037.0 180652.0 179673.0 119965.0 124850.0 148561.0 151405.0 189257.0 182886.0 195588.0 203707.0 143177.0 147199.0 81174.0 84457.0 77703.0 70508.0 102177.0 109679.0 80125.0 80081.0 130820.0 136565.0 162894.0 166617.0 201470.0 195359.0 203425.0 195471.0 260732.0 265317.0 120401.0 115283.0 88159.0 92214.0 158470.0 0.0 158470.0 158470.0 158470.0 158470.0 158470.0 158470.0 158470.0 158470.0 0.0 0.0 0.0 0.0 0.0 0.0 0.0 0.0
223554.0 216221.0 85477.0 80183.0 124359.0 128140.0 231534.0 224138.0 220209.0 215591.0 186539.0 179059.0 143376.0 149722.0 192835.0 192751.0 159119.0 164086.0 108273.0 113029.0 140747.0 142168.0 122677.0 120562.0 66901.0 73696.0 222342.0 226086.0 86491.0 87390.0 238506.0 236487.0 34986.0 35028.0 150783.0 158330.0 227928.0 235656.0 229147.0 230070.0 197841.0 194778.0 185857.0 178033.0 104040.0 100037.0 180652.0 179673.0 119965.0 124850.0 148561.0 151405.0 189257.0 182886.0 195588.0 203707.0 143177.0 147199.0 81174.0 84457.0 77703.0 70508.0 102177.0 109679.0 80125.0 80081.0 130820.0 136565.0 162894.0 166617.0 201470.0 195359.0 203425.0 195471.0 260732.0 265317.0 120401.0 115283.0 88159.0 92214.0 158470.0 0.0 158470.0 158470.0 158470.0 158470.0 158470.0 158470.0 158470.0 158470.0 0.0 0.0 0.0 0.0 0.0 0.0 0.0 0.0
223554.0 216221.0 85477.0 80183.0 124359.0 128140.0 231534.0 224138.0 220209.0 215591.0 186539.0 179059.0 143376.0 149722.0 192835.0 192751.0 159119.0 164086.0 108273.0 113029.0 140747.0 142168.0 122677.0 120562.0 66901.0 73696.0 222342.0 226086.0 86491.0 87390.0 238506.0 236487.0 34986.0 35028.0 150783.0 158330.0 227928.0 235656.0 229147.0 230070.0 197841.0 194778.0 185857.0 178033.0 104040.0 100037.0 180652.0 179673.0 119965.0 124850.0 148561.0 151405.0 189257.0 182886.0 195588.0 203707.0 143177.0 147199.0 81174.0 84457.0 77703.0 70508.0 102177.0 109679.0 80125.0 80081.0 130820.0 136565.0 162894.0 166617.0 201470.0 195359.0 203425.0 195471.0 260732.0 265317.0 120401.0 115283.0 88159.0 92214.0 158470.0 0.0 158470.0 158470.0 158470.0 158470.0 158470.0 158470.0 158470.0 158470.0 0.0 0.0 0.0 0.0 0.0 0.0 0.0 0.0
223554.0 216221.0 85477.0 80183.0 124359.0 128140.0 231534.0 224138.0 220209.0 215591.0 186539.0 179059.0 143376.0 149722.0 192835.0 192751.0 159119.0 164086.0 108273.0 113029.0 140747.0 142168.0 122677.0 120562.0 66901.0 73696.0 222342.0 226086.0 86491.0 87390.0 238506.0 236487.0 34986.0 35028.0 150783.0 158330.0 227928.0 235656.0 229147.0 230070.0 197841.0 194778.0 185857.0 178033.0 104040.0 100037.0 180652.0 179673.0 119965.0 124850.0 148561.0 151405.0 189257.0 182886.0 195588.0 203707.0 143177.0 147199.0 81174.0 84457.0 77703.0 70508.0 102177.0 109679.0 80125.0 80081.0 130820.0 136565.0 162894.0 166617.0 201470.0 195359.0 203425.0 195471.0 260732.0 265317.0 120401.0 115283.0 88159.0 92214.0 158470.0 0.0 158470.0 158470.0 158470.0 158470.0 158470.0 158470.0 158470.0 158470.0 0.0 0.0 0.0 0.0 0.0 0.0 0.0 0.0
223554.0 216221.0 85477.0 80183.0 124359.0 128140.0 231534.0 224138.0 220209.0 215591.0 186539.0 179059.0 143376.0 149722.0 192835.0 192751.0 159119.0 164086.0 108273.0 113029.0 140747.0 142168.0 122677.0 120562.0 66901.0 73696.0 222342.0 226086.0 86491.0 87390.0 238506.0 236487.0 34986.0 35028.0 150783.0 158330.0 227928.0 235656.0 229147.0 230070.0 197841.0 194778.0 185857.0 178033.0 104040.0 100037.0 180652.0 179673.0 119965.0 124850.0 148561.0 151405.0 189257.0 182886.0 195588.0 203707.0 143177.0 147199.0 81174.0 84457.0 77703.0 70508.0 102177.0 109679.0 80125.0 80081.0 130820.0 136565.0 162894.0 166617.0 201470.0 195359.0 203425.0 195471.0 260732.0 265317.0 120401.0 115283.0 88159.0 92214.0 158470.0 0.0 158470.0 158470.0 158470.0 158470.0 158470.0 158470.0 158470.0 158470.0 0.0 0.0 0.0 0.0 0.0 0.0 0.0 0.0
FIXED_EDGES_SECTION
1 2
3 4
5 6
7 8
9 10
11 12
13 14
15 16
17 18
19 20
21 22
23 24
25 26
27 28
29 30
31 32
33 34
35 36
37 38
39 40
41 42
43 44
45 46
47 48
49 50
51 52
53 54
55 56
57 58
59 60
61 62
63 64
65 66
67 68
69 70
71 72
73 74
75 76
77 78
79 80
-1 
DEMAND_SECTION
1 251
2 251
3 358
4 358
5 94
6 94
7 258
8 258
9 265
10 265
11 396
12 396
13 394
14 394
15 247
16 247
17 353
18 353
19 271
20 271
21 119
22 119
23 94
24 94
25 342
26 342
27 234
28 234
29 373
30 373
31 380
32 380
33 100
34 100
35 96
36 96
37 316
38 316
39 76
40 76
41 321
42 321
43 493
44 493
45 341
46 341
47 180
48 180
49 114
50 114
51 207
52 207
53 57
54 57
55 247
56 247
57 541
58 541
59 534
60 534
61 75
62 75
63 432
64 432
65 336
66 336
67 89
68 89
69 349
70 349
71 497
72 497
73 379
74 379
75 138
76 138
77 279
78 279
79 184
80 184
81 0
82 0
83 0
84 0
85 0
86 0
87 0
88 0
89 0
90 0
91 0
92 0
93 0
94 0
95 0
96 0
97 0
98 0
DEPOT_SECTION
81 
-1 
CAPACITIES_SECTION
2500 
2750 
-1 
EOF