NAME: GFS_20_1
TYPE: GFSP
DIMENSION: 98
VEHICLES: 2
CAPACITY: 2500.0
TRIP_DIST_LIMIT: 750000.0
TOTAL_DIST_LIMIT: 2100000.0
EDGE_WEIGHT_TYPE: EXPLICIT
EDGE_WEIGHT_FORMAT: FULL_MATRIX
EDGE_WEIGHT_SECTION
0.0 8048.0 167083.0 169589.0 138771.0 139206.0 265885.0 258018.0 32932.0 26402.0 36260.0 38159.0 183856.0 183892.0 160679.0 156095.0 60171.0 67630.0 12599.0 16095.0 109139.0 115783.0 223236.0 217327.0 252020.0 258865.0 133683.0 129418.0 136733.0 129815.0 120352.0 120035.0 94595.0 86550.0 271602.0 268969.0 85579.0 77865.0 111074.0 105953.0 122594.0 114537.0 86923.0 79451.0 58077.0 65237.0 159567.0 163759.0 141516.0 141863.0 39201.0 39306.0 25388.0 18337.0 65898.0 59148.0 88549.0 96356.0 61835.0 69979.0 52570.0 44831.0 76659.0 73144.0 96878.0 94760.0 188541.0 194785.0 226904.0 218705.0 68368.0 60594.0 74212.0 70097.0 31289.0 36668.0 16967.0 23667.0 100183.0 105907.0 124185.0 112154.0 124185.0 124185.0 124185.0 124185.0 124185.0 124185.0 124185.0 124185.0 112154.0 112154.0 112154.0 112154.0 112154.0 112154.0 112154.0 112154.0
8048.0 0.0 162300.0 165111.0 146796.0 147252.0 261870.0 253965.0 28020.0 23024.0 44138.0 46205.0 181197.0 180886.0 168565.0 164045.0 66754.0 74376.0 8775.0 8418.0 108227.0 114538.0 219827.0 213744.0 249417.0 256192.0 141689.0 137374.0 143873.0 136839.0 118625.0 118867.0 102453.0 94375.0 268451.0 265611.0 79856.0 71921.0 118808.0 113802.0 130557.0 122514.0 87668.0 79933.0 65572.0 72880.0 157931.0 161780.0 135200.0 135854.0 41616.0 40116.0 31259.0 23631.0 72839.0 66357.0 86493.0 94114.0 69726.0 77848.0 46443.0 38526.0 73072.0 70294.0 98996.0 96244.0 185589.0 192025.0 224304.0 216134.0 68851.0 61008.0 73214.0 68851.0 35423.0 41798.0 10588.0 16056.0 102114.0 108232.0 131866.0 111706.0 131866.0 131866.0 131866.0 131866.0 131866.0 131866.0 131866.0 131866.0 111706.0 111706.0 111706.0 111706.0 111706.0 111706.0 111706.0 111706.0
167083.0 162300.0 0.0 8111.0 279729.0 276337.0 362649.0 354886.0 175296.0 177596.0 196457.0 193216.0 306955.0 303013.0 277664.0 277656.0 177900.0 183202.0 154640.0 155093.0 255101.0 258809.0 333070.0 325374.0 370649.0 375496.0 262959.0 255693.0 232425.0 224581.0 73937.0 81787.0 223693.0 216586.0 380929.0 375532.0 194461.0 187719.0 231373.0 231833.0 250630.0 244985.0 115341.0 115500.0 190395.0 197488.0 295181.0 295847.0 47928.0 40510.0 203131.0 199664.0 163934.0 161671.0 185330.0 186228.0 229710.0 234895.0 201607.0 206437.0 175075.0 171109.0 91924.0 97651.0 129351.0 121770.0 307791.0 315630.0 347738.0 339589.0 120434.0 123930.0 223793.0 219009.0 197715.0 203718.0 165186.0 159694.0 126862.0 132245.0 279075.0 260732.0 279075.0 279075.0 279075.0 279075.0 279075.0 279075.0 279075.0 279075.0 260732.0 260732.0 260732.0 260732.0 260732.0 260732.0 260732.0 260732.0
169589.0 165111.0 8111.0 0.0 279150.0 275540.0 369669.0 361884.0 179171.0 181141.0 198020.0 194484.0 312958.0 309147.0 275715.0 275950.0 177648.0 182680.0 157255.0 158117.0 259800.0 263687.0 339631.0 331965.0 377022.0 381954.0 261813.0 254451.0 229938.0 222170.0 71104.0 78614.0 223002.0 216055.0 387638.0 382312.0 200049.0 193154.0 230110.0 230855.0 249539.0 244091.0 113867.0 114591.0 190501.0 197428.0 300610.0 301436.0 55494.0 47852.0 206239.0 203045.0 165252.0 163354.0 184935.0 186182.0 234465.0 239818.0 201857.0 206420.0 179754.0 175526.0 93633.0 98877.0 126990.0 119617.0 313941.0 321753.0 353965.0 345794.0 120196.0 124151.0 228065.0 223274.0 200462.0 206257.0 168457.0 163235.0 124314.0 129340.0 279587.0 265317.0 279587.0 279587.0 279587.0 279587.0 279587.0 279587.0 279587.0 279587.0 265317.0 265317.0 265317.0 265317.0 265317.0 265317.0 265317.0 265317.0
138771.0 146796.0 279729.0 279150.0 0.0 8263.0 353699.0 346475.0 161493.0 153155.0 103052.0 100708.0 264068.0 266783.0 47623.0 39084.0 102081.0 96527.0 148742.0 154728.0 183940.0 191931.0 307383.0 303221.0 331298.0 338151.0 25547.0 32767.0 77672.0 80247.0 210917.0 205297.0 56205.0 63145.0 352437.0 351308.0 206650.0 201594.0 53254.0 49712.0 33792.0 36358.0 166073.0 164599.0 91118.0 83364.0 234676.0 240532.0 268903.0 266822.0 133103.0 141257.0 125360.0 131247.0 94463.0 94450.0 180431.0 187092.0 81424.0 74901.0 181291.0 175654.0 192192.0 184951.0 157097.0 162845.0 270705.0 275191.0 306182.0 298014.0 159351.0 156517.0 163755.0 163606.0 126453.0 118916.0 153315.0 161216.0 160709.0 158924.0 46895.0 183810.0 46895.0 46895.0 46895.0 46895.0 46895.0 46895.0 46895.0 46895.0 183810.0 183810.0 183810.0 183810.0 183810.0 183810.0 183810.0 183810.0
139206.0 147252.0 276337.0 275540.0 8263.0 0.0 358349.0 351125.0 163194.0 154807.0 103999.0 101047.0 268718.0 271433.0 39827.0 31327.0 99308.0 93327.0 148718.0 155019.0 188589.0 196581.0 312033.0 307870.0 335948.0 342800.0 17873.0 25480.0 69918.0 72822.0 206733.0 200901.0 52699.0 60166.0 357087.0 355958.0 209489.0 204179.0 47503.0 44958.0 27564.0 31558.0 162070.0 160953.0 89242.0 81317.0 239326.0 245182.0 266850.0 264532.0 135846.0 143946.0 124471.0 130672.0 91512.0 92178.0 184689.0 191515.0 80232.0 73226.0 183256.0 177370.0 189791.0 182416.0 152353.0 158349.0 275355.0 279840.0 310831.0 302664.0 156170.0 153699.0 167807.0 167449.0 128671.0 121331.0 154218.0 162030.0 155888.0 153780.0 53539.0 188460.0 53539.0 53539.0 53539.0 53539.0 53539.0 53539.0 53539.0 53539.0 188460.0 188460.0 188460.0 188460.0 188460.0 188460.0 188460.0 188460.0
265885.0 261870.0 362649.0 369669.0 353699.0 358349.0 0.0 8018.0 233873.0 239507.0 279026.0 286675.0 90958.0 87037.0 393443.0 386110.0 322443.0 328637.0 269013.0 261297.0 169769.0 161775.0 47053.0 50478.0 53086.0 48255.0 362724.0 362640.0 389436.0 384409.0 361213.0 365137.0 338149.0 332605.0 32595.0 24611.0 185475.0 193906.0 355569.0 347823.0 356310.0 348915.0 345053.0 336963.0 314445.0 318629.0 123469.0 115871.0 315202.0 322198.0 238514.0 232929.0 290901.0 284216.0 325895.0 317931.0 180886.0 172904.0 311171.0 318108.0 217965.0 225751.0 311493.0 314142.0 359384.0 355317.0 83440.0 80486.0 63039.0 66179.0 326592.0 319110.0 198061.0 200651.0 249474.0 252942.0 251503.0 249352.0 362073.0 368861.0 328359.0 171494.0 328359.0 328359.0 328359.0 328359.0 328359.0 328359.0 328359.0 328359.0 171494.0 171494.0 171494.0 171494.0 171494.0 171494.0 171494.0 171494.0
258018.0 253965.0 354886.0 361884.0 346475.0 351125.0 8018.0 0.0 225962.0 231634.0 271417.0 279045.0 84264.0 79988.0 386219.0 378886.0 314705.0 320933.0 261083.0 253353.0 162536.0 154548.0 40632.0 43364.0 52321.0 48564.0 355500.0 355281.0 381984.0 376909.0 353203.0 357121.0 330766.0 325165.0 35851.0 27857.0 177472.0 185904.0 348216.0 340495.0 349150.0 341719.0 337057.0 328967.0 306799.0 311038.0 116900.0 109199.0 307483.0 314449.0 230875.0 225230.0 283059.0 276352.0 318207.0 310253.0 173255.0 165286.0 303619.0 310594.0 209991.0 217783.0 303477.0 306124.0 351415.0 347332.0 76554.0 74023.0 59066.0 61365.0 318604.0 311126.0 190475.0 193013.0 241815.0 245355.0 243587.0 241400.0 354097.0 360895.0 321135.0 164411.0 321135.0 321135.0 321135.0 321135.0 321135.0 321135.0 321135.0 321135.0 164411.0 164411.0 164411.0 164411.0 164411.0 164411.0 164411.0 164411.0
32932.0 28020.0 175296.0 179171.0 161493.0 163194.0 233873.0 225962.0 0.0 8419.0 60054.0 65064.0 154057.0 153428.0 188651.0 183339.0 92819.0 100096.0 35332.0 28258.0 84213.0 89776.0 192061.0 185893.0 222302.0 228952.0 160139.0 156787.0 168306.0 161655.0 140748.0 142055.0 123361.0 115693.0 240823.0 237856.0 52769.0 45272.0 140561.0 134672.0 149907.0 141721.0 113928.0 105987.0 89197.0 95702.0 132163.0 135497.0 141837.0 144067.0 33943.0 27331.0 58306.0 51045.0 98130.0 90974.0 60713.0 67917.0 90895.0 99050.0 20724.0 14177.0 92043.0 91150.0 126382.0 123156.0 158171.0 164770.0 197202.0 189030.0 95054.0 87265.0 50007.0 45275.0 36012.0 44036.0 17655.0 17613.0 129357.0 135724.0 141771.0 88619.0 141771.0 141771.0 141771.0 141771.0 141771.0 141771.0 141771.0 141771.0 88619.0 88619.0 88619.0 88619.0 88619.0 88619.0 88619.0 88619.0
26402.0 23024.0 177596.0 181141.0 153155.0 154807.0 239507.0 231634.0 8419.0 0.0 51647.0 56754.0 158191.0 157952.0 180268.0 174933.0 85494.0 92627.0 31293.0 25634.0 85801.0 91875.0 197059.0 191071.0 226402.0 233193.0 151723.0 148390.0 160391.0 153827.0 139608.0 140422.0 115056.0 107429.0 245577.0 242824.0 60333.0 53101.0 132306.0 126355.0 141510.0 133322.0 110511.0 102701.0 81283.0 87642.0 135041.0 138797.0 145856.0 147672.0 27741.0 22395.0 51667.0 44738.0 90543.0 83248.0 63537.0 71112.0 82664.0 90803.0 29042.0 22576.0 91971.0 90353.0 122014.0 119242.0 162641.0 169035.0 201291.0 193120.0 91652.0 83812.0 50919.0 46392.0 28216.0 36262.0 14108.0 17909.0 125138.0 131233.0 133739.0 89649.0 133739.0 133739.0 133739.0 133739.0 133739.0 133739.0 133739.0 133739.0 89649.0 89649.0 89649.0 89649.0 89649.0 89649.0 89649.0 89649.0
36260.0 44138.0 196457.0 198020.0 103052.0 103999.0 279026.0 271417.0 60054.0 51647.0 0.0 7992.0 191954.0 193557.0 128667.0 123286.0 46338.0 50984.0 47529.0 52355.0 112321.0 120020.0 234058.0 229030.0 259615.0 266468.0 100117.0 96752.0 112060.0 106263.0 140717.0 138432.0 63998.0 56760.0 280666.0 279021.0 110133.0 103663.0 81553.0 75160.0 89873.0 81683.0 100016.0 94198.0 35658.0 39672.0 163707.0 169307.0 175212.0 174812.0 40643.0 47107.0 33122.0 34839.0 47830.0 39756.0 98171.0 106131.0 32813.0 40542.0 80640.0 74126.0 104535.0 99189.0 103473.0 104246.0 197863.0 203116.0 234499.0 226332.0 84259.0 77721.0 80983.0 78436.0 30051.0 26176.0 50272.0 58165.0 107353.0 110923.0 88120.0 113104.0 88120.0 88120.0 88120.0 88120.0 88120.0 88120.0 88120.0 88120.0 113104.0 113104.0 113104.0 113104.0 113104.0 113104.0 113104.0 113104.0
38159.0 46205.0 193216.0 194484.0 100708.0 101047.0 286675.0 279045.0 65064.0 56754.0 7992.0 0.0 199816.0 201351.0 123763.0 118735.0 38382.0 43001.0 48182.0 54030.0 120263.0 127944.0 241821.0 236741.0 267503.0 274355.0 95932.0 92079.0 105123.0 99126.0 135522.0 132888.0 58303.0 50720.0 288530.0 286842.0 116164.0 109437.0 75604.0 69608.0 85209.0 77062.0 93932.0 88444.0 27823.0 32319.0 171667.0 177238.0 173768.0 172999.0 48175.0 54297.0 29285.0 32677.0 39869.0 31793.0 105791.0 113772.0 26140.0 34170.0 85779.0 78922.0 101388.0 95628.0 96506.0 97619.0 205676.0 210976.0 242386.0 234219.0 78855.0 72671.0 88690.0 86032.0 37350.0 34022.0 53601.0 61219.0 100422.0 103738.0 88461.0 121085.0 88461.0 88461.0 88461.0 88461.0 88461.0 88461.0 88461.0 88461.0 121085.0 121085.0 121085.0 121085.0 121085.0 121085.0 121085.0 121085.0
183856.0 181197.0 306955.0 312958.0 264068.0 268718.0 90958.0 84264.0 154057.0 158191.0 191954.0 199816.0 0.0 8428.0 303812.0 296479.0 236924.0 242549.0 189186.0 182305.0 80254.0 72322.0 43952.0 41243.0 68247.0 75015.0 273093.0 273009.0 300467.0 295820.0 290948.0 293515.0 248815.0 243667.0 88714.0 87266.0 114158.0 121920.0 266115.0 258291.0 266797.0 259317.0 267938.0 259959.0 227611.0 231112.0 32708.0 24935.0 262412.0 268088.0 152218.0 147664.0 207829.0 201843.0 239579.0 231519.0 95564.0 87623.0 223274.0 229817.0 142055.0 149045.0 240665.0 241732.0 280190.0 277192.0 8493.0 11165.0 43162.0 34974.0 249079.0 241308.0 111617.0 114942.0 163346.0 165796.0 171467.0 171032.0 283271.0 289423.0 238728.0 81174.0 238728.0 238728.0 238728.0 238728.0 238728.0 238728.0 238728.0 238728.0 81174.0 81174.0 81174.0 81174.0 81174.0 81174.0 81174.0 81174.0
183892.0 180886.0 303013.0 309147.0 266783.0 271433.0 87037.0 79988.0 153428.0 157952.0 193557.0 201351.0 8428.0 0.0 306527.0 299194.0 238058.0 243873.0 188701.0 181606.0 82861.0 74868.0 40655.0 36623.0 69542.0 75764.0 275808.0 275725.0 302956.0 298130.0 288924.0 291716.0 251469.0 246115.0 87755.0 85560.0 111444.0 119414.0 268802.0 260999.0 269513.0 262032.0 267077.0 259060.0 229174.0 232934.0 38419.0 30346.0 258025.0 263864.0 153454.0 148529.0 208203.0 202018.0 240976.0 232939.0 96206.0 88192.0 225240.0 231956.0 140489.0 147689.0 238605.0 239941.0 279779.0 276552.0 4870.0 12630.0 45141.0 36872.0 248258.0 240528.0 112771.0 115834.0 164550.0 167382.0 170967.0 170138.0 282782.0 289080.0 241444.0 84457.0 241444.0 241444.0 241444.0 241444.0 241444.0 241444.0 241444.0 241444.0 84457.0 84457.0 84457.0 84457.0 84457.0 84457.0 84457.0 84457.0
160679.0 168565.0 277664.0 275715.0 47623.0 39827.0 393443.0 386219.0 188651.0 180268.0 128667.0 123763.0 303812.0 306527.0 0.0 8543.0 109464.0 101966.0 168132.0 175481.0 223683.0 231675.0 347127.0 342964.0 371042.0 377894.0 30719.0 32058.0 48726.0 55306.0 204883.0 197976.0 66132.0 74288.0 392181.0 391052.0 238166.0 232068.0 50867.0 54824.0 38893.0 47075.0 162478.0 163346.0 104256.0 96387.0 274420.0 280276.0 275041.0 271602.0 165290.0 173059.0 141313.0 148526.0 101517.0 105220.0 217949.0 225183.0 98845.0 90719.0 209293.0 202626.0 197655.0 189817.0 148881.0 156104.0 310449.0 314934.0 345925.0 337758.0 161167.0 160615.0 200641.0 199687.0 156640.0 150112.0 177015.0 184303.0 151810.0 147804.0 92852.0 223554.0 92852.0 92852.0 92852.0 92852.0 92852.0 92852.0 92852.0 92852.0 223554.0 223554.0 223554.0 223554.0 223554.0 223554.0 223554.0 223554.0
156095.0 164045.0 277656.0 275950.0 39084.0 31327.0 386110.0 378886.0 183339.0 174933.0 123286.0 118735.0 296479.0 299194.0 8543.0 0.0 106834.0 99559.0 164000.0 171161.0 216351.0 224342.0 339794.0 335632.0 363709.0 370562.0 23756.0 26682.0 52126.0 57924.0 205387.0 198690.0 62019.0 70271.0 384848.0 383719.0 232268.0 226329.0 48153.0 50956.0 33534.0 41674.0 162323.0 162768.0 100576.0 92594.0 267087.0 272943.0 273558.0 270352.0 159100.0 166956.0 137577.0 144624.0 98821.0 101949.0 211049.0 218201.0 94388.0 86368.0 203906.0 197389.0 196053.0 188285.0 149494.0 156490.0 303116.0 307602.0 338592.0 330425.0 160021.0 159058.0 193812.0 192983.0 150724.0 144011.0 172218.0 179638.0 152572.0 148959.0 84514.0 216221.0 84514.0 84514.0 84514.0 84514.0 84514.0 84514.0 84514.0 84514.0 216221.0 216221.0 216221.0 216221.0 216221.0 216221.0 216221.0 216221.0
60171.0 66754.0 177900.0 177648.0 102081.0 99308.0 322443.0 314705.0 92819.0 85494.0 46338.0 38382.0 236924.0 238058.0 109464.0 106834.0 0.0 7924.0 63375.0 71640.0 157982.0 165537.0 278292.0 272922.0 304759.0 311612.0 87935.0 81589.0 77878.0 70521.0 111567.0 107093.0 46847.0 39143.0 325576.0 323618.0 145588.0 137986.0 58734.0 56589.0 75556.0 68795.0 66793.0 63820.0 15059.0 20182.0 209472.0 214819.0 167896.0 165334.0 84707.0 89620.0 35697.0 43474.0 8031.0 9617.0 141938.0 149964.0 26677.0 29196.0 112741.0 104984.0 90572.0 83126.0 63595.0 66826.0 242490.0 248058.0 279643.0 271475.0 57481.0 54444.0 125339.0 122237.0 73578.0 71736.0 76975.0 82618.0 67596.0 69255.0 103862.0 159119.0 103862.0 103862.0 103862.0 103862.0 103862.0 103862.0 103862.0 103862.0 159119.0 159119.0 159119.0 159119.0 159119.0 159119.0 159119.0 159119.0
67630.0 74376.0 183202.0 182680.0 96527.0 93327.0 328637.0 320933.0 100096.0 92627.0 50984.0 43001.0 242549.0 243873.0 101966.0 99559.0 7924.0 0.0 71199.0 79430.0 163216.0 170860.0 284218.0 278959.0 310307.0 317159.0 81246.0 74670.0 69988.0 62676.0 115469.0 110553.0 40636.0 33387.0 331249.0 329422.0 152850.0 145328.0 51406.0 49787.0 68824.0 62373.0 70476.0 68277.0 16293.0 18113.0 214649.0 220162.0 174570.0 171804.0 90419.0 95708.0 43464.0 51240.0 3612.0 11317.0 147907.0 155927.0 26221.0 26432.0 120169.0 112460.0 97097.0 89516.0 65170.0 69249.0 248259.0 253699.0 285190.0 277023.0 62865.0 60513.0 131102.0 128157.0 79333.0 76900.0 84507.0 90299.0 69126.0 69891.0 100912.0 164086.0 100912.0 100912.0 100912.0 100912.0 100912.0 100912.0 100912.0 100912.0 164086.0 164086.0 164086.0 164086.0 164086.0 164086.0 164086.0 164086.0
12599.0 8775.0 154640.0 157255.0 148742.0 148718.0 269013.0 261083.0 35332.0 31293.0 47529.0 48182.0 189186.0 188701.0 168132.0 164000.0 63375.0 71199.0 0.0 8440.0 116845.0 123076.0 227392.0 221205.0 257429.0 264143.0 142143.0 137419.0 141138.0 133875.0 109869.0 110092.0 102058.0 93857.0 276147.0 273187.0 85735.0 77588.0 117815.0 113316.0 130678.0 122762.0 79218.0 71419.0 64148.0 71828.0 166334.0 170064.0 129005.0 129285.0 50112.0 48867.0 27787.0 20068.0 70046.0 64206.0 94826.0 102367.0 69702.0 77641.0 52157.0 44158.0 64720.0 61697.0 91078.0 88043.0 193431.0 199960.0 232314.0 224146.0 60362.0 52521.0 81847.0 77441.0 43259.0 49083.0 17734.0 20341.0 94098.0 100401.0 135648.0 120401.0 135648.0 135648.0 135648.0 135648.0 135648.0 135648.0 135648.0 135648.0 120401.0 120401.0 120401.0 120401.0 120401.0 120401.0 120401.0 120401.0
16095.0 8418.0 155093.0 158117.0 154728.0 155019.0 261297.0 253353.0 28258.0 25634.0 52355.0 54030.0 182305.0 181606.0 175481.0 171161.0 71640.0 79430.0 8440.0 0.0 111381.0 117334.0 220021.0 213743.0 250549.0 257179.0 149035.0 144523.0 149306.0 142095.0 114026.0 114788.0 109353.0 101200.0 268889.0 265813.0 77527.0 69330.0 125387.0 120662.0 137740.0 129753.0 85672.0 77741.0 71829.0 79375.0 160182.0 163664.0 127087.0 127898.0 48132.0 45562.0 35967.0 28197.0 78182.0 72146.0 88641.0 96007.0 76773.0 84816.0 43970.0 35983.0 67050.0 64957.0 98351.0 94946.0 186362.0 193001.0 225444.0 217279.0 66797.0 59008.0 76547.0 71997.0 42980.0 49718.0 11529.0 12088.0 101248.0 107752.0 140215.0 115283.0 140215.0 140215.0 140215.0 140215.0 140215.0 140215.0 140215.0 140215.0 115283.0 115283.0 115283.0 115283.0 115283.0 115283.0 115283.0 115283.0
109139.0 108227.0 255101.0 259800.0 183940.0 188589.0 169769.0 162536.0 84213.0 85801.0 112321.0 120263.0 80254.0 82861.0 223683.0 216351.0 157982.0 163216.0 116845.0 111381.0 0.0 7995.0 123475.0 119291.0 147591.0 154443.0 192965.0 192881.0 220238.0 215565.0 224945.0 226084.0 168653.0 163424.0 168743.0 167516.0 68158.0 71795.0 185951.0 178139.0 186669.0 179188.0 195803.0 188134.0 147932.0 151117.0 51499.0 57003.0 216227.0 220096.0 73724.0 70516.0 131292.0 126154.0 160129.0 152054.0 25448.0 21799.0 143163.0 149605.0 80048.0 84613.0 176092.0 175363.0 205868.0 203898.0 86809.0 91394.0 122474.0 114307.0 177042.0 169203.0 35019.0 39419.0 84777.0 86323.0 99886.0 101796.0 209248.0 214740.0 158600.0 7151.0 158600.0 158600.0 158600.0 158600.0 158600.0 158600.0 158600.0 158600.0 7151.0 7151.0 7151.0 7151.0 7151.0 7151.0 7151.0 7151.0
115783.0 114538.0 258809.0 263687.0 191931.0 196581.0 161775.0 154548.0 89776.0 91875.0 120020.0 127944.0 72322.0 74868.0 231675.0 224342.0 165537.0 170860.0 123076.0 117334.0 7995.0 0.0 115486.0 111298.0 139727.0 146580.0 200956.0 200872.0 228202.0 223504.0 230477.0 231823.0 176633.0 171381.0 160874.0 159588.0 69096.0 73559.0 193940.0 186131.0 194661.0 187173.0 202198.0 194468.0 155656.0 158931.0 44114.0 49302.0 219090.0 223203.0 81083.0 77531.0 138338.0 133029.0 167800.0 159725.0 29526.0 23958.0 151016.0 157503.0 84094.0 89168.0 181291.0 180827.0 212626.0 210488.0 78827.0 83470.0 114611.0 106444.0 183389.0 175545.0 41585.0 45732.0 92178.0 93961.0 105896.0 107389.0 215961.0 221565.0 166591.0 11757.0 166591.0 166591.0 166591.0 166591.0 166591.0 166591.0 166591.0 166591.0 11757.0 11757.0 11757.0 11757.0 11757.0 11757.0 11757.0 11757.0
223236.0 219827.0 333070.0 339631.0 307383.0 312033.0 47053.0 40632.0 192061.0 197059.0 234058.0 241821.0 43952.0 40655.0 347127.0 339794.0 278292.0 284218.0 227392.0 220021.0 123475.0 115486.0 0.0 7962.0 39872.0 43059.0 316408.0 316324.0 343610.0 338780.0 324527.0 327808.0 292110.0 286769.0 49257.0 45796.0 146791.0 155084.0 309425.0 301606.0 310112.0 302632.0 305002.0 296940.0 269643.0 273496.0 76416.0 68834.0 286709.0 293119.0 193821.0 188683.0 247850.0 241473.0 281361.0 273340.0 136354.0 128328.0 265843.0 272590.0 177750.0 185258.0 274305.0 276216.0 318370.0 314810.0 36701.0 33444.0 27211.0 24960.0 286290.0 278643.0 153158.0 156073.0 204887.0 207892.0 209698.0 208313.0 321256.0 327752.0 282043.0 124850.0 282043.0 282043.0 282043.0 282043.0 282043.0 282043.0 282043.0 282043.0 124850.0 124850.0 124850.0 124850.0 124850.0 124850.0 124850.0 124850.0
217327.0 213744.0 325374.0 331965.0 303221.0 307870.0 50478.0 43364.0 185893.0 191071.0 229030.0 236741.0 41243.0 36623.0 342964.0 335632.0 272922.0 278959.0 221205.0 213743.0 119291.0 111298.0 7962.0 0.0 47798.0 51003.0 312246.0 312162.0 339089.0 334134.0 317487.0 320860.0 287732.0 282248.0 56333.0 52291.0 139894.0 148226.0 305129.0 297368.0 305950.0 298440.0 298508.0 290436.0 264548.0 268563.0 73948.0 66108.0 278939.0 285382.0 188643.0 183307.0 242080.0 235604.0 276150.0 268151.0 131055.0 123040.0 261011.0 267867.0 171192.0 178768.0 267309.0 269331.0 312088.0 308415.0 33285.0 31726.0 33350.0 29523.0 279838.0 272221.0 148054.0 150815.0 199668.0 202895.0 203544.0 201969.0 314931.0 321495.0 277881.0 121060.0 277881.0 277881.0 277881.0 277881.0 277881.0 277881.0 277881.0 277881.0 121060.0 121060.0 121060.0 121060.0 121060.0 121060.0 121060.0 121060.0
252020.0 249417.0 370649.0 377022.0 331298.0 335948.0 53086.0 52321.0 222302.0 226402.0 259615.0 267503.0 68247.0 69542.0 371042.0 363709.0 304759.0 310307.0 257429.0 250549.0 147591.0 139727.0 39872.0 47798.0 0.0 8022.0 340323.0 340239.0 367697.0 363065.0 358460.0 361253.0 316072.0 310854.0 28460.0 32603.0 180856.0 188892.0 333345.0 325521.0 334027.0 326547.0 336169.0 328183.0 295271.0 298650.0 98138.0 91057.0 324789.0 330990.0 220057.0 215634.0 275913.0 269975.0 307308.0 299241.0 163643.0 155729.0 290742.0 297189.0 209956.0 217076.0 308141.0 309475.0 348413.0 345439.0 64683.0 57626.0 25228.0 33284.0 317315.0 309548.0 179525.0 182930.0 231189.0 233482.0 239712.0 239245.0 351507.0 357631.0 305958.0 149265.0 305958.0 305958.0 305958.0 305958.0 305958.0 305958.0 305958.0 305958.0 149265.0 149265.0 149265.0 149265.0 149265.0 149265.0 149265.0 149265.0
258865.0 256192.0 375496.0 381954.0 338151.0 342800.0 48255.0 48564.0 228952.0 233193.0 266468.0 274355.0 75015.0 75764.0 377894.0 370562.0 311612.0 317159.0 264143.0 257179.0 154443.0 146580.0 43059.0 51003.0 8022.0 0.0 347176.0 347092.0 374550.0 369918.0 364478.0 367384.0 322925.0 317707.0 20951.0 26016.0 186716.0 194823.0 340198.0 332374.0 340880.0 333400.0 342742.0 334739.0 302124.0 305503.0 104990.0 97910.0 329386.0 335693.0 226910.0 222487.0 282753.0 276828.0 314161.0 306094.0 170489.0 162581.0 297595.0 304042.0 216249.0 223451.0 314161.0 315627.0 355177.0 352108.0 70942.0 64184.0 32458.0 40238.0 323904.0 316153.0 186377.0 189783.0 238042.0 240335.0 246415.0 245799.0 358239.0 364424.0 312811.0 156118.0 312811.0 312811.0 312811.0 312811.0 312811.0 312811.0 312811.0 312811.0 156118.0 156118.0 156118.0 156118.0 156118.0 156118.0 156118.0 156118.0
133683.0 141689.0 262959.0 261813.0 25547.0 17873.0 362724.0 355500.0 160139.0 151723.0 100117.0 95932.0 273093.0 275808.0 30719.0 23756.0 87935.0 81246.0 142143.0 149035.0 192965.0 200956.0 316408.0 312246.0 340323.0 347176.0 0.0 7927.0 52132.0 54954.0 192234.0 186094.0 41364.0 49518.0 361462.0 360333.0 208662.0 202806.0 31851.0 31470.0 12431.0 19535.0 147992.0 147468.0 79829.0 71769.0 243701.0 249557.0 255783.0 253047.0 135400.0 143283.0 116410.0 123169.0 79936.0 81908.0 187364.0 194553.0 72475.0 64713.0 180629.0 174238.0 178340.0 170758.0 137163.0 143512.0 279730.0 284216.0 315206.0 307039.0 143503.0 141689.0 170102.0 169242.0 127140.0 120347.0 149529.0 157078.0 140571.0 138008.0 64505.0 192835.0 64505.0 64505.0 64505.0 64505.0 64505.0 64505.0 64505.0 64505.0 192835.0 192835.0 192835.0 192835.0 192835.0 192835.0 192835.0 192835.0
129418.0 137374.0 255693.0 254451.0 32767.0 25480.0 362640.0 355281.0 156787.0 148390.0 96752.0 92079.0 273009.0 275725.0 32058.0 26682.0 81589.0 74670.0 137419.0 144523.0 192881.0 200872.0 316324.0 312162.0 340239.0 347092.0 7927.0 0.0 45155.0 47480.0 184699.0 178486.0 35664.0 43924.0 361378.0 360250.0 206112.0 200038.0 24343.0 25025.0 6880.0 15070.0 140595.0 140243.0 74324.0 66292.0 243617.0 249474.0 249227.0 246356.0 133264.0 141013.0 111203.0 118152.0 73562.0 76036.0 186388.0 193718.0 67755.0 59779.0 177391.0 170809.0 171725.0 164083.0 129490.0 135919.0 279646.0 284132.0 315123.0 306955.0 136537.0 134941.0 169011.0 167935.0 124583.0 118069.0 145540.0 152956.0 132867.0 130212.0 68264.0 192751.0 68264.0 68264.0 68264.0 68264.0 68264.0 68264.0 68264.0 68264.0 192751.0 192751.0 192751.0 192751.0 192751.0 192751.0 192751.0 192751.0
136733.0 143873.0 232425.0 229938.0 77672.0 69918.0 389436.0 381984.0 168306.0 160391.0 112060.0 105123.0 300467.0 302956.0 48726.0 52126.0 77878.0 69988.0 141138.0 149306.0 220238.0 228202.0 343610.0 339089.0 367697.0 374550.0 52132.0 45155.0 0.0 8114.0 158839.0 151539.0 51885.0 56844.0 388646.0 387691.0 220627.0 213490.0 35806.0 44024.0 46455.0 49567.0 118479.0 120612.0 79115.0 72989.0 271075.0 276932.0 234010.0 229826.0 152456.0 159164.0 113359.0 121115.0 71128.0 77586.0 209354.0 217175.0 79250.0 71745.0 188809.0 181322.0 157865.0 149896.0 103074.0 110750.0 307008.0 311585.0 342581.0 334414.0 120411.0 121425.0 191897.0 189831.0 142100.0 137390.0 153699.0 159901.0 105629.0 100862.0 110171.0 220209.0 110171.0 110171.0 110171.0 110171.0 110171.0 110171.0 110171.0 110171.0 220209.0 220209.0 220209.0 220209.0 220209.0 220209.0 220209.0 220209.0
129815.0 136839.0 224581.0 222170.0 80247.0 72822.0 384409.0 376909.0 161655.0 153827.0 106263.0 99126.0 295820.0 298130.0 55306.0 57924.0 70521.0 62676.0 133875.0 142095.0 215565.0 223504.0 338780.0 334134.0 363065.0 369918.0 54954.0 47480.0 8114.0 0.0 151086.0 143857.0 48256.0 52287.0 384174.0 383080.0 214131.0 206895.0 33803.0 41838.0 47619.0 49419.0 110459.0 112526.0 72584.0 66837.0 266457.0 272313.0 225906.0 221739.0 146820.0 153346.0 106129.0 113900.0 64004.0 70733.0 203996.0 211865.0 73542.0 66329.0 182071.0 174517.0 149754.0 141784.0 95236.0 102856.0 302240.0 306957.0 337949.0 329782.0 112298.0 113335.0 186591.0 184386.0 136309.0 131880.0 146774.0 152836.0 97858.0 93258.0 109736.0 215591.0 109736.0 109736.0 109736.0 109736.0 109736.0 109736.0 109736.0 109736.0 215591.0 215591.0 215591.0 215591.0 215591.0 215591.0 215591.0 215591.0
120352.0 118625.0 73937.0 71104.0 210917.0 206733.0 361213.0 353203.0 140748.0 139608.0 140717.0 135522.0 290948.0 288924.0 204883.0 205387.0 111567.0 115469.0 109869.0 114026.0 224945.0 230477.0 324527.0 317487.0 358460.0 364478.0 192234.0 184699.0 158839.0 151086.0 0.0 8425.0 154779.0 148391.0 373762.0 369637.0 177850.0 169673.0 160395.0 161794.0 180126.0 175176.0 45004.0 48038.0 125661.0 131744.0 272107.0 274741.0 88535.0 81748.0 159528.0 158736.0 107904.0 108545.0 118151.0 120776.0 201195.0 208026.0 137419.0 140763.0 149120.0 142591.0 50320.0 49677.0 56009.0 48914.0 293787.0 301040.0 333868.0 325592.0 56706.0 62998.0 190391.0 185759.0 151224.0 155205.0 125539.0 123150.0 53230.0 58324.0 215326.0 229147.0 215326.0 215326.0 215326.0 215326.0 215326.0 215326.0 215326.0 215326.0 229147.0 229147.0 229147.0 229147.0 229147.0 229147.0 229147.0 229147.0
120035.0 118867.0 81787.0 78614.0 205297.0 200901.0 365137.0 357121.0 142055.0 140422.0 138432.0 132888.0 293515.0 291716.0 197976.0 198690.0 107093.0 110553.0 110092.0 114788.0 226084.0 231823.0 327808.0 320860.0 361253.0 367384.0 186094.0 178486.0 151539.0 143857.0 8425.0 0.0 149293.0 143139.0 377064.0 373083.0 181021.0 172760.0 154243.0 155944.0 174081.0 169357.0 40314.0 44545.0 121489.0 127261.0 273911.0 276773.0 96835.0 90113.0 159223.0 158863.0 105992.0 107228.0 113376.0 116458.0 202708.0 209703.0 133291.0 136235.0 151483.0 144709.0 53651.0 51785.0 49203.0 42588.0 296571.0 303732.0 336538.0 328271.0 54182.0 61061.0 191329.0 186756.0 150528.0 154120.0 126315.0 124446.0 46166.0 50757.0 210954.0 230070.0 210954.0 210954.0 210954.0 210954.0 210954.0 210954.0 210954.0 210954.0 230070.0 230070.0 230070.0 230070.0 230070.0 230070.0 230070.0 230070.0
94595.0 102453.0 223693.0 223002.0 56205.0 52699.0 338149.0 330766.0 123361.0 115056.0 63998.0 58303.0 248815.0 251469.0 66132.0 62019.0 46847.0 40636.0 102058.0 109353.0 168653.0 176633.0 292110.0 287732.0 316072.0 322925.0 41364.0 35664.0 51885.0 48256.0 154779.0 149293.0 0.0 8263.0 337211.0 335990.0 174130.0 167596.0 17736.0 11368.0 29186.0 21990.0 109888.0 108423.0 38659.0 30629.0 219450.0 225307.0 214723.0 212178.0 103033.0 110289.0 75577.0 82607.0 38938.0 40545.0 158854.0 166547.0 32781.0 24616.0 144080.0 137161.0 137417.0 129943.0 101596.0 106992.0 255461.0 259914.0 290956.0 282789.0 103472.0 101084.0 141342.0 139607.0 93348.0 87738.0 111049.0 118243.0 105322.0 104215.0 67138.0 168584.0 67138.0 67138.0 67138.0 67138.0 67138.0 67138.0 67138.0 67138.0 168584.0 168584.0 168584.0 168584.0 168584.0 168584.0 168584.0 168584.0
86550.0 94375.0 216586.0 216055.0 63145.0 60166.0 332605.0 325165.0 115693.0 107429.0 56760.0 50720.0 243667.0 246115.0 74288.0 70271.0 39143.0 33387.0 93857.0 101200.0 163424.0 171381.0 286769.0 282248.0 310854.0 317707.0 49518.0 43924.0 56844.0 52287.0 148391.0 143139.0 8263.0 0.0 331939.0 330910.0 166794.0 160144.0 24884.0 19464.0 37413.0 30049.0 103407.0 101577.0 30404.0 22368.0 214279.0 220135.0 206871.0 204427.0 96381.0 103453.0 67316.0 74362.0 31374.0 32430.0 152756.0 160524.0 24859.0 16672.0 136417.0 129413.0 129669.0 122261.0 96085.0 101109.0 250175.0 254794.0 285737.0 277570.0 96213.0 93549.0 135264.0 133352.0 86434.0 81148.0 103088.0 110213.0 99895.0 99285.0 69266.0 163413.0 69266.0 69266.0 69266.0 69266.0 69266.0 69266.0 69266.0 69266.0 163413.0 163413.0 163413.0 163413.0 163413.0 163413.0 163413.0 163413.0
271602.0 268451.0 380929.0 387638.0 352437.0 357087.0 32595.0 35851.0 240823.0 245577.0 280666.0 288530.0 88714.0 87755.0 392181.0 384848.0 325576.0 331249.0 276147.0 268889.0 168743.0 160874.0 49257.0 56333.0 28460.0 20951.0 361462.0 361378.0 388646.0 384174.0 373762.0 377064.0 337211.0 331939.0 0.0 8049.0 196048.0 204340.0 354485.0 346660.0 355166.0 347686.0 354059.0 346006.0 316323.0 319779.0 119290.0 112209.0 334145.0 340763.0 240884.0 236169.0 295959.0 289755.0 328289.0 320230.0 183896.0 175895.0 311889.0 318339.0 226890.0 234347.0 323553.0 325472.0 367200.0 363769.0 83190.0 77556.0 49264.0 55828.0 335312.0 327638.0 200238.0 203445.0 252006.0 254510.0 258426.0 257258.0 370136.0 376546.0 327097.0 170417.0 327097.0 327097.0 327097.0 327097.0 327097.0 327097.0 327097.0 327097.0 170417.0 170417.0 170417.0 170417.0 170417.0 170417.0 170417.0 170417.0
268969.0 265611.0 375532.0 382312.0 351308.0 355958.0 24611.0 27857.0 237856.0 242824.0 279021.0 286842.0 87266.0 85560.0 391052.0 383719.0 323618.0 329422.0 273187.0 265813.0 167516.0 159588.0 45796.0 52291.0 32603.0 26016.0 360333.0 360250.0 387691.0 383080.0 369637.0 373083.0 335990.0 330910.0 8049.0 0.0 192163.0 200505.0 353356.0 345532.0 354038.0 346557.0 350736.0 342668.0 314659.0 318295.0 118287.0 111207.0 328581.0 335284.0 239004.0 234072.0 293511.0 287186.0 326511.0 318468.0 181736.0 173716.0 310503.0 317078.0 223443.0 230988.0 319505.0 321592.0 364163.0 360581.0 81170.0 76123.0 50233.0 55954.0 332041.0 324405.0 198322.0 201389.0 250105.0 252846.0 255492.0 254093.0 367044.0 373547.0 325969.0 168223.0 325969.0 325969.0 325969.0 325969.0 325969.0 325969.0 325969.0 325969.0 168223.0 168223.0 168223.0 168223.0 168223.0 168223.0 168223.0 168223.0
85579.0 79856.0 194461.0 200049.0 206650.0 209489.0 185475.0 177472.0 52769.0 60333.0 110133.0 116164.0 114158.0 111444.0 238166.0 232268.0 145588.0 152850.0 85735.0 77527.0 68158.0 69096.0 146791.0 139894.0 180856.0 186716.0 208662.0 206112.0 220627.0 214131.0 177850.0 181021.0 174130.0 166794.0 196048.0 192163.0 0.0 8434.0 191646.0 185279.0 199274.0 191100.0 159614.0 151524.0 141558.0 147733.0 100857.0 101394.0 152154.0 156957.0 73643.0 65567.0 110848.0 103398.0 150839.0 143580.0 45043.0 46385.0 142294.0 150328.0 33578.0 41577.0 127569.0 129439.0 174385.0 170017.0 116313.0 123779.0 156563.0 148284.0 141254.0 133868.0 51883.0 49188.0 81548.0 88388.0 69282.0 65444.0 176928.0 183908.0 183483.0 75084.0 183483.0 183483.0 183483.0 183483.0 183483.0 183483.0 183483.0 183483.0 75084.0 75084.0 75084.0 75084.0 75084.0 75084.0 75084.0 75084.0
77865.0 71921.0 187719.0 193154.0 201594.0 204179.0 193906.0 185904.0 45272.0 53101.0 103663.0 109437.0 121920.0 119414.0 232068.0 226329.0 137986.0 145328.0 77588.0 69330.0 71795.0 73559.0 155084.0 148226.0 188892.0 194823.0 202806.0 200038.0 213490.0 206895.0 169673.0 172760.0 167596.0 160144.0 204340.0 200505.0 8434.0 0.0 185023.0 178808.0 193181.0 184994.0 151180.0 143090.0 134378.0 140717.0 107468.0 108390.0 146171.0 150713.0 68513.0 60343.0 103032.0 95518.0 143395.0 136240.0 47431.0 50069.0 135516.0 143600.0 25497.0 33475.0 119369.0 121132.0 165978.0 161589.0 124283.0 131682.0 164495.0 156213.0 132825.0 125447.0 51416.0 48097.0 75717.0 82859.0 61377.0 57263.0 168510.0 175503.0 179018.0 78498.0 179018.0 179018.0 179018.0 179018.0 179018.0 179018.0 179018.0 179018.0 78498.0 78498.0 78498.0 78498.0 78498.0 78498.0 78498.0 78498.0
111074.0 118808.0 231373.0 230110.0 53254.0 47503.0 355569.0 348216.0 140561.0 132306.0 81553.0 75604.0 266115.0 268802.0 50867.0 48153.0 58734.0 51406.0 117815.0 125387.0 185951.0 193940.0 309425.0 305129.0 333345.0 340198.0 31851.0 24343.0 35806.0 33803.0 160395.0 154243.0 17736.0 24884.0 354485.0 353356.0 191646.0 185023.0 0.0 8219.0 20025.0 17589.0 116252.0 115953.0 53694.0 46013.0 236724.0 242580.0 225596.0 222547.0 120765.0 127999.0 90674.0 98014.0 50743.0 54388.0 176525.0 184195.0 49678.0 41512.0 161285.0 154247.0 148069.0 140351.0 105341.0 111661.0 272752.0 277238.0 308229.0 300062.0 112466.0 111144.0 159011.0 157314.0 111038.0 105472.0 127737.0 134737.0 108777.0 106392.0 76270.0 185857.0 76270.0 76270.0 76270.0 76270.0 76270.0 76270.0 76270.0 76270.0 185857.0 185857.0 185857.0 185857.0 185857.0 185857.0 185857.0 185857.0
105953.0 113802.0 231833.0 230855.0 49712.0 44958.0 347823.0 340495.0 134672.0 126355.0 75160.0 69608.0 258291.0 260999.0 54824.0 50956.0 56589.0 49787.0 113316.0 120662.0 178139.0 186131.0 301606.0 297368.0 325521.0 332374.0 31470.0 25025.0 44024.0 41838.0 161794.0 155944.0 11368.0 19464.0 346660.0 345532.0 185279.0 178808.0 8219.0 0.0 19041.0 13428.0 117209.0 116342.0 49626.0 41667.0 228899.0 234756.0 224349.0 221580.0 113792.0 121162.0 86654.0 93774.0 48568.0 51082.0 169124.0 176746.0 44148.0 35979.0 155386.0 148496.0 146885.0 139291.0 107474.0 113397.0 264922.0 269414.0 300405.0 292238.0 112106.0 110220.0 151612.0 150023.0 104291.0 98479.0 122417.0 129605.0 111051.0 109215.0 68795.0 178033.0 68795.0 68795.0 68795.0 68795.0 68795.0 68795.0 68795.0 68795.0 178033.0 178033.0 178033.0 178033.0 178033.0 178033.0 178033.0 178033.0
122594.0 130557.0 250630.0 249539.0 33792.0 27564.0 356310.0 349150.0 149907.0 141510.0 89873.0 85209.0 266797.0 269513.0 38893.0 33534.0 75556.0 68824.0 130678.0 137740.0 186669.0 194661.0 310112.0 305950.0 334027.0 340880.0 12431.0 6880.0 46455.0 47619.0 180126.0 174081.0 29186.0 37413.0 355166.0 354038.0 199274.0 193181.0 20025.0 19041.0 0.0 8193.0 135761.0 135131.0 67807.0 59757.0 237406.0 243262.0 243374.0 240620.0 126494.0 134220.0 104591.0 111483.0 67548.0 69696.0 179862.0 187231.0 60989.0 53057.0 170512.0 163929.0 165920.0 158332.0 125277.0 131493.0 273434.0 277920.0 308911.0 300744.0 131087.0 129258.0 162460.0 161326.0 117756.0 111281.0 138686.0 146116.0 128743.0 126416.0 64593.0 186539.0 64593.0 64593.0 64593.0 64593.0 64593.0 64593.0 64593.0 64593.0 186539.0 186539.0 186539.0 186539.0 186539.0 186539.0 186539.0 186539.0
114537.0 122514.0 244985.0 244091.0 36358.0 31558.0 348915.0 341719.0 141721.0 133322.0 81683.0 77062.0 259317.0 262032.0 47075.0 41674.0 68795.0 62373.0 122762.0 129753.0 179188.0 187173.0 302632.0 298440.0 326547.0 333400.0 19535.0 15070.0 49567.0 49419.0 175176.0 169357.0 21990.0 30049.0 347686.0 346557.0 191100.0 184994.0 17589.0 13428.0 8193.0 0.0 130534.0 129530.0 60303.0 52243.0 229925.0 235781.0 236689.0 234094.0 118384.0 126086.0 96890.0 103687.0 60847.0 62476.0 172008.0 179419.0 53062.0 45223.0 162322.0 155748.0 159341.0 151832.0 120900.0 126818.0 265954.0 270440.0 301430.0 293263.0 125033.0 122886.0 154581.0 153384.0 109592.0 103155.0 130572.0 138029.0 124472.0 122579.0 60608.0 179059.0 60608.0 60608.0 60608.0 60608.0 60608.0 60608.0 60608.0 60608.0 179059.0 179059.0 179059.0 179059.0 179059.0 179059.0 179059.0 179059.0
86923.0 87668.0 115341.0 113867.0 166073.0 162070.0 345053.0 337057.0 113928.0 110511.0 100016.0 93932.0 267938.0 267077.0 162478.0 162323.0 66793.0 70476.0 79218.0 85672.0 195803.0 202198.0 305002.0 298508.0 336169.0 342742.0 147992.0 140595.0 118479.0 110459.0 45004.0 40314.0 109888.0 103407.0 354059.0 350736.0 159614.0 151180.0 116252.0 117209.0 135761.0 130534.0 0.0 8090.0 81185.0 86969.0 245552.0 249239.0 116675.0 111900.0 125248.0 126200.0 68815.0 71546.0 73200.0 76144.0 174039.0 181542.0 92990.0 95958.0 127331.0 119748.0 45986.0 38931.0 19246.0 11796.0 271858.0 278587.0 311089.0 302911.0 18881.0 26706.0 160789.0 156488.0 115593.0 118118.0 96746.0 96945.0 19735.0 27671.0 170653.0 199028.0 170653.0 170653.0 170653.0 170653.0 170653.0 170653.0 170653.0 170653.0 199028.0 199028.0 199028.0 199028.0 199028.0 199028.0 199028.0 199028.0
79451.0 79933.0 115500.0 114591.0 164599.0 160953.0 336963.0 328967.0 105987.0 102701.0 94198.0 88444.0 259959.0 259060.0 163346.0 162768.0 63820.0 68277.0 71419.0 77741.0 188134.0 194468.0 296940.0 290436.0 328183.0 334739.0 147468.0 140243.0 120612.0 112526.0 48038.0 44545.0 108423.0 101577.0 346006.0 342668.0 151524.0 143090.0 115953.0 116342.0 135131.0 129530.0 8090.0 0.0 77680.0 83945.0 237736.0 241364.0 113531.0 109215.0 118031.0 118756.0 62334.0 64570.0 70725.0 72878.0 166204.0 173675.0 89415.0 92981.0 119254.0 111682.0 40146.0 32651.0 25785.0 19244.0 263845.0 270592.0 303115.0 294931.0 11099.0 18932.0 153116.0 148781.0 108563.0 111372.0 88877.0 88942.0 26995.0 34826.0 167380.0 191448.0 167380.0 167380.0 167380.0 167380.0 167380.0 167380.0 167380.0 167380.0 191448.0 191448.0 191448.0 191448.0 191448.0 191448.0 191448.0 191448.0
58077.0 65572.0 190395.0 190501.0 91118.0 89242.0 314445.0 306799.0 89197.0 81283.0 35658.0 27823.0 227611.0 229174.0 104256.0 100576.0 15059.0 16293.0 64148.0 71829.0 147932.0 155656.0 269643.0 264548.0 295271.0 302124.0 79829.0 74324.0 79115.0 72584.0 125661.0 121489.0 38659.0 30404.0 316323.0 314659.0 141558.0 134378.0 53694.0 49626.0 67807.0 60303.0 81185.0 77680.0 0.0 8061.0 199262.0 204930.0 177789.0 175739.0 75931.0 81777.0 37059.0 44324.0 12777.0 5523.0 133561.0 141552.0 11809.0 16264.0 109738.0 102322.0 101226.0 94151.0 78646.0 81741.0 233495.0 238772.0 270155.0 261988.0 70452.0 66466.0 116503.0 113794.0 64998.0 61819.0 74984.0 81609.0 82648.0 84276.0 89706.0 148561.0 89706.0 89706.0 89706.0 89706.0 89706.0 89706.0 89706.0 89706.0 148561.0 148561.0 148561.0 148561.0 148561.0 148561.0 148561.0 148561.0
65237.0 72880.0 197488.0 197428.0 83364.0 81317.0 318629.0 311038.0 95702.0 87642.0 39672.0 32319.0 231112.0 232934.0 96387.0 92594.0 20182.0 18113.0 71828.0 79375.0 151117.0 158931.0 273496.0 268563.0 298650.0 305503.0 71769.0 66292.0 72989.0 66837.0 131744.0 127261.0 30629.0 22368.0 319779.0 318295.0 147733.0 140717.0 46013.0 41667.0 59757.0 52243.0 86969.0 83945.0 8061.0 0.0 202271.0 208096.0 185604.0 183459.0 80314.0 86607.0 44987.0 52139.0 14648.0 11261.0 137816.0 145762.0 8746.0 9037.0 116348.0 109062.0 108849.0 101677.0 82993.0 86683.0 237185.0 242277.0 273534.0 265366.0 77244.0 73641.0 120568.0 118096.0 69620.0 65687.0 82040.0 88866.0 86971.0 87959.0 83699.0 151405.0 83699.0 83699.0 83699.0 83699.0 83699.0 83699.0 83699.0 83699.0 151405.0 151405.0 151405.0 151405.0 151405.0 151405.0 151405.0 151405.0
159567.0 157931.0 295181.0 300610.0 234676.0 239326.0 123469.0 116900.0 132163.0 135041.0 163707.0 171667.0 32708.0 38419.0 274420.0 267087.0 209472.0 214649.0 166334.0 160182.0 51499.0 44114.0 76416.0 73948.0 98138.0 104990.0 243701.0 243617.0 271075.0 266457.0 272107.0 273911.0 219450.0 214279.0 119290.0 118287.0 100857.0 107468.0 236724.0 228899.0 237406.0 229925.0 245552.0 237736.0 199262.0 202271.0 0.0 8101.0 252875.0 257797.0 125169.0 121612.0 182407.0 176998.0 211534.0 203459.0 71547.0 64259.0 194242.0 200588.0 123513.0 129608.0 222307.0 222456.0 256445.0 254109.0 40827.0 42998.0 73021.0 64854.0 226693.0 218853.0 85536.0 89488.0 136246.0 137782.0 148891.0 149675.0 259729.0 265450.0 209336.0 50865.0 209336.0 209336.0 209336.0 209336.0 209336.0 209336.0 209336.0 209336.0 50865.0 50865.0 50865.0 50865.0 50865.0 50865.0 50865.0 50865.0
163759.0 161780.0 295847.0 301436.0 240532.0 245182.0 115871.0 109199.0 135497.0 138797.0 169307.0 177238.0 24935.0 30346.0 280276.0 272943.0 214819.0 220162.0 170064.0 163664.0 57003.0 49302.0 68834.0 66108.0 91057.0 97910.0 249557.0 249474.0 276932.0 272313.0 274741.0 276773.0 225307.0 220135.0 112209.0 111207.0 101394.0 108390.0 242580.0 234756.0 243262.0 235781.0 249239.0 241364.0 204930.0 208096.0 8101.0 0.0 252893.0 258021.0 130264.0 126335.0 187017.0 181405.0 217098.0 209023.0 75298.0 67699.0 200095.0 206428.0 125754.0 132151.0 224740.0 225163.0 260573.0 258024.0 32890.0 35545.0 65941.0 57773.0 230361.0 222534.0 90144.0 93881.0 141382.0 143263.0 152493.0 152887.0 263794.0 269658.0 215192.0 57106.0 215192.0 215192.0 215192.0 215192.0 215192.0 215192.0 215192.0 215192.0 57106.0 57106.0 57106.0 57106.0 57106.0 57106.0 57106.0 57106.0
141516.0 135200.0 47928.0 55494.0 268903.0 266850.0 315202.0 307483.0 141837.0 145856.0 175212.0 173768.0 262412.0 258025.0 275041.0 273558.0 167896.0 174570.0 129005.0 127087.0 216227.0 219090.0 286709.0 278939.0 324789.0 329386.0 255783.0 249227.0 234010.0 225906.0 88535.0 96835.0 214723.0 206871.0 334145.0 328581.0 152154.0 146171.0 225596.0 224349.0 243374.0 236689.0 116675.0 113531.0 177789.0 185604.0 252875.0 252893.0 0.0 8242.0 173097.0 168234.0 145371.0 141091.0 175867.0 174672.0 190824.0 195173.0 187772.0 194005.0 137397.0 134884.0 77528.0 85273.0 134643.0 126457.0 262741.0 270654.0 302363.0 294295.0 114036.0 114500.0 187316.0 182637.0 169788.0 176781.0 135372.0 128581.0 133436.0 140521.0 262112.0 222342.0 262112.0 262112.0 262112.0 262112.0 262112.0 262112.0 262112.0 262112.0 222342.0 222342.0 222342.0 222342.0 222342.0 222342.0 222342.0 222342.0
141863.0 135854.0 40510.0 47852.0 266822.0 264532.0 322198.0 314449.0 144067.0 147672.0 174812.0 172999.0 268088.0 263864.0 271602.0 270352.0 165334.0 171804.0 129285.0 127898.0 220096.0 223203.0 293119.0 285382.0 330990.0 335693.0 253047.0 246356.0 229826.0 221739.0 81748.0 90113.0 212178.0 204427.0 340763.0 335284.0 156957.0 150713.0 222547.0 221580.0 240620.0 234094.0 111900.0 109215.0 175739.0 183459.0 257797.0 258021.0 8242.0 0.0 174613.0 170065.0 144271.0 140370.0 173251.0 172418.0 194655.0 199252.0 185991.0 191993.0 140746.0 137817.0 74762.0 82289.0 129473.0 121302.0 268605.0 276493.0 308365.0 300263.0 110436.0 111422.0 190480.0 185762.0 170805.0 177602.0 136664.0 130149.0 128083.0 134995.0 261115.0 226086.0 261115.0 261115.0 261115.0 261115.0 261115.0 261115.0 261115.0 261115.0 226086.0 226086.0 226086.0 226086.0 226086.0 226086.0 226086.0 226086.0
39201.0 41616.0 203131.0 206239.0 133103.0 135846.0 238514.0 230875.0 33943.0 27741.0 40643.0 48175.0 152218.0 153454.0 165290.0 159100.0 84707.0 90419.0 50112.0 48132.0 73724.0 81083.0 193821.0 188643.0 220057.0 226910.0 135400.0 133264.0 152456.0 146820.0 159528.0 159223.0 103033.0 96381.0 240884.0 239004.0 73643.0 68513.0 120765.0 113792.0 126494.0 118384.0 125248.0 118031.0 75931.0 80314.0 125169.0 130264.0 173097.0 174613.0 0.0 8186.0 58157.0 53892.0 87541.0 79521.0 57630.0 65623.0 73280.0 80723.0 50224.0 46515.0 114685.0 111805.0 133458.0 132248.0 157846.0 163354.0 194940.0 186773.0 107021.0 99350.0 40683.0 37864.0 11133.0 15313.0 38087.0 44517.0 137008.0 142035.0 110802.0 75595.0 110802.0 110802.0 110802.0 110802.0 110802.0 110802.0 110802.0 110802.0 75595.0 75595.0 75595.0 75595.0 75595.0 75595.0 75595.0 75595.0
39306.0 40116.0 199664.0 203045.0 141257.0 143946.0 232929.0 225230.0 27331.0 22395.0 47107.0 54297.0 147664.0 148529.0 173059.0 166956.0 89620.0 95708.0 48867.0 45562.0 70516.0 77531.0 188683.0 183307.0 215634.0 222487.0 143283.0 141013.0 159164.0 153346.0 158736.0 158863.0 110289.0 103453.0 236169.0 234072.0 65567.0 60343.0 127999.0 121162.0 134220.0 126086.0 126200.0 118756.0 81777.0 86607.0 121612.0 126335.0 168234.0 170065.0 8186.0 0.0 60808.0 55688.0 92983.0 85051.0 52341.0 60365.0 79914.0 87542.0 42326.0 39069.0 112606.0 110262.0 135472.0 133781.0 153007.0 158755.0 190517.0 182350.0 107673.0 99897.0 36197.0 32729.0 17067.0 22950.0 34649.0 40089.0 138909.0 144273.0 118974.0 73098.0 118974.0 118974.0 118974.0 118974.0 118974.0 118974.0 118974.0 118974.0 73098.0 73098.0 73098.0 73098.0 73098.0 73098.0 73098.0 73098.0
25388.0 31259.0 163934.0 165252.0 125360.0 124471.0 290901.0 283059.0 58306.0 51667.0 33122.0 29285.0 207829.0 208203.0 141313.0 137577.0 35697.0 43464.0 27787.0 35967.0 131292.0 138338.0 247850.0 242080.0 275913.0 282753.0 116410.0 111203.0 113359.0 106129.0 107904.0 105992.0 75577.0 67316.0 295959.0 293511.0 110848.0 103032.0 90674.0 86654.0 104591.0 96890.0 68815.0 62334.0 37059.0 44987.0 182407.0 187017.0 145371.0 144271.0 58157.0 60808.0 0.0 7778.0 42258.0 36590.0 112271.0 120208.0 44279.0 51732.0 77610.0 69739.0 72108.0 66378.0 75405.0 74669.0 212794.0 218842.0 250796.0 242629.0 51901.0 44976.0 96905.0 93153.0 47714.0 49435.0 41687.0 46969.0 79024.0 83888.0 116844.0 133594.0 116844.0 116844.0 116844.0 116844.0 116844.0 116844.0 116844.0 116844.0 133594.0 133594.0 133594.0 133594.0 133594.0 133594.0 133594.0 133594.0
18337.0 23631.0 161671.0 163354.0 131247.0 130672.0 284216.0 276352.0 51045.0 44738.0 34839.0 32677.0 201843.0 202018.0 148526.0 144624.0 43474.0 51240.0 20068.0 28197.0 126154.0 133029.0 241473.0 235604.0 269975.0 276828.0 123169.0 118152.0 121115.0 113900.0 108545.0 107228.0 82607.0 74362.0 289755.0 287186.0 103398.0 95518.0 98014.0 93774.0 111483.0 103687.0 71546.0 64570.0 44324.0 52139.0 176998.0 181405.0 141091.0 140370.0 53892.0 55688.0 7778.0 0.0 50000.0 44166.0 106374.0 114251.0 50762.0 58464.0 70059.0 62154.0 69772.0 64686.0 79796.0 78361.0 206645.0 212810.0 244858.0 236634.0 53735.0 46323.0 91471.0 87548.0 44048.0 46939.0 34141.0 39224.0 83264.0 88591.0 121091.0 128765.0 121091.0 121091.0 121091.0 121091.0 121091.0 121091.0 121091.0 121091.0 128765.0 128765.0 128765.0 128765.0 128765.0 128765.0 128765.0 128765.0
65898.0 72839.0 185330.0 184935.0 94463.0 91512.0 325895.0 318207.0 98130.0 90543.0 47830.0 39869.0 239579.0 240976.0 101517.0 98821.0 8031.0 3612.0 70046.0 78182.0 160129.0 167800.0 281361.0 276150.0 307308.0 314161.0 79936.0 73562.0 71128.0 64004.0 118151.0 113376.0 38938.0 31374.0 328289.0 326511.0 150839.0 143395.0 50743.0 48568.0 67548.0 60847.0 73200.0 70725.0 12777.0 14648.0 211534.0 217098.0 175867.0 173251.0 87541.0 92983.0 42258.0 50000.0 0.0 8076.0 145097.0 153110.0 22633.0 23178.0 118341.0 110693.0 98495.0 91005.0 68426.0 72326.0 245343.0 250733.0 282191.0 274024.0 64906.0 62188.0 128214.0 125335.0 76485.0 73845.0 82834.0 88832.0 72395.0 73310.0 97835.0 160920.0 97835.0 97835.0 97835.0 97835.0 97835.0 97835.0 97835.0 97835.0 160920.0 160920.0 160920.0 160920.0 160920.0 160920.0 160920.0 160920.0
59148.0 66357.0 186228.0 186182.0 94450.0 92178.0 317931.0 310253.0 90974.0 83248.0 39756.0 31793.0 231519.0 232939.0 105220.0 101949.0 9617.0 11317.0 64206.0 72146.0 152054.0 159725.0 273340.0 268151.0 299241.0 306094.0 81908.0 76036.0 77586.0 70733.0 120776.0 116458.0 40545.0 32430.0 320230.0 318468.0 143580.0 136240.0 54388.0 51082.0 69696.0 62476.0 76144.0 72878.0 5523.0 11261.0 203459.0 209023.0 174672.0 172418.0 79521.0 85051.0 36590.0 44166.0 8076.0 0.0 137103.0 145113.0 17065.0 20240.0 111342.0 103786.0 97745.0 90515.0 73206.0 76420.0 237299.0 242674.0 274125.0 265957.0 66009.0 62387.0 120185.0 117337.0 68484.0 65773.0 76114.0 82408.0 77206.0 78769.0 94554.0 152851.0 94554.0 94554.0 94554.0 94554.0 94554.0 94554.0 94554.0 94554.0 152851.0 152851.0 152851.0 152851.0 152851.0 152851.0 152851.0 152851.0
88549.0 86493.0 229710.0 234465.0 180431.0 184689.0 180886.0 173255.0 60713.0 63537.0 98171.0 105791.0 95564.0 96206.0 217949.0 211049.0 141938.0 147907.0 94826.0 88641.0 25448.0 29526.0 136354.0 131055.0 163643.0 170489.0 187364.0 186388.0 209354.0 203996.0 201195.0 202708.0 158854.0 152756.0 183896.0 181736.0 45043.0 47431.0 176525.0 169124.0 179862.0 172008.0 174039.0 166204.0 133561.0 137816.0 71547.0 75298.0 190824.0 194655.0 57630.0 52341.0 112271.0 106374.0 145097.0 137103.0 0.0 8025.0 130524.0 137687.0 54729.0 59646.0 151847.0 151523.0 185293.0 182733.0 100710.0 106599.0 138527.0 130359.0 155171.0 147335.0 17514.0 19769.0 68620.0 72173.0 77345.0 78290.0 188501.0 194405.0 155178.0 31579.0 155178.0 155178.0 155178.0 155178.0 155178.0 155178.0 155178.0 155178.0 31579.0 31579.0 31579.0 31579.0 31579.0 31579.0 31579.0 31579.0
96356.0 94114.0 234895.0 239818.0 187092.0 191515.0 172904.0 165286.0 67917.0 71112.0 106131.0 113772.0 87623.0 88192.0 225183.0 218201.0 149964.0 155927.0 102367.0 96007.0 21799.0 23958.0 128328.0 123040.0 155729.0 162581.0 194553.0 193718.0 217175.0 211865.0 208026.0 209703.0 166547.0 160524.0 175895.0 173716.0 46385.0 50069.0 184195.0 176746.0 187231.0 179419.0 181542.0 173675.0 141552.0 145762.0 64259.0 67699.0 195173.0 199252.0 65623.0 60365.0 120208.0 114251.0 153110.0 145113.0 8025.0 0.0 138425.0 145543.0 60432.0 65891.0 158450.0 158352.0 193010.0 190353.0 92706.0 98638.0 130612.0 122445.0 162665.0 154837.0 25279.0 27776.0 76629.0 80095.0 84799.0 85416.0 196190.0 202154.0 161762.0 28701.0 161762.0 161762.0 161762.0 161762.0 161762.0 161762.0 161762.0 161762.0 28701.0 28701.0 28701.0 28701.0 28701.0 28701.0 28701.0 28701.0
61835.0 69726.0 201607.0 201857.0 81424.0 80232.0 311171.0 303619.0 90895.0 82664.0 32813.0 26140.0 223274.0 225240.0 98845.0 94388.0 26677.0 26221.0 69702.0 76773.0 143163.0 151016.0 265843.0 261011.0 290742.0 297595.0 72475.0 67755.0 79250.0 73542.0 137419.0 133291.0 32781.0 24859.0 311889.0 310503.0 142294.0 135516.0 49678.0 44148.0 60989.0 53062.0 92990.0 89415.0 11809.0 8746.0 194242.0 200095.0 187772.0 185991.0 73280.0 79914.0 44279.0 50762.0 22633.0 17065.0 130524.0 138425.0 0.0 8189.0 111617.0 104570.0 111784.0 104900.0 90229.0 93482.0 229448.0 234435.0 265625.0 257458.0 81982.0 77719.0 113173.0 110874.0 62851.0 58364.0 78271.0 85472.0 94227.0 95608.0 78028.0 143376.0 78028.0 78028.0 78028.0 78028.0 78028.0 78028.0 78028.0 78028.0 143376.0 143376.0 143376.0 143376.0 143376.0 143376.0 143376.0 143376.0
69979.0 77848.0 206437.0 206420.0 74901.0 73226.0 318108.0 310594.0 99050.0 90803.0 40542.0 34170.0 229817.0 231956.0 90719.0 86368.0 29196.0 26432.0 77641.0 84816.0 149605.0 157503.0 272590.0 267867.0 297189.0 304042.0 64713.0 59779.0 71745.0 66329.0 140763.0 136235.0 24616.0 16672.0 318339.0 317078.0 150328.0 143600.0 41512.0 35979.0 53057.0 45223.0 95958.0 92981.0 16264.0 9037.0 200588.0 206428.0 194005.0 191993.0 80723.0 87542.0 51732.0 58464.0 23178.0 20240.0 137687.0 145543.0 8189.0 0.0 119773.0 112747.0 117489.0 110398.0 91586.0 95475.0 236112.0 240970.0 272073.0 263906.0 86250.0 82547.0 120267.0 118114.0 70478.0 65647.0 86450.0 93627.0 95548.0 96258.0 74759.0 149722.0 74759.0 74759.0 74759.0 74759.0 74759.0 74759.0 74759.0 74759.0 149722.0 149722.0 149722.0 149722.0 149722.0 149722.0 149722.0 149722.0
52570.0 46443.0 175075.0 179754.0 181291.0 183256.0 217965.0 209991.0 20724.0 29042.0 80640.0 85779.0 142055.0 140489.0 209293.0 203906.0 112741.0 120169.0 52157.0 43970.0 80048.0 84094.0 177750.0 171192.0 209956.0 216249.0 180629.0 177391.0 188809.0 182071.0 149120.0 151483.0 144080.0 136417.0 226890.0 223443.0 33578.0 25497.0 161285.0 155386.0 170512.0 162322.0 127331.0 119254.0 109738.0 116348.0 123513.0 125754.0 137397.0 140746.0 50224.0 42326.0 77610.0 70059.0 118341.0 111342.0 54729.0 60432.0 111617.0 119773.0 0.0 7999.0 99004.0 99716.0 141435.0 137393.0 145324.0 152361.0 185129.0 176874.0 108721.0 101176.0 49998.0 45388.0 54942.0 62728.0 35926.0 31883.0 144108.0 150927.0 160498.0 85675.0 160498.0 160498.0 160498.0 160498.0 160498.0 160498.0 160498.0 160498.0 85675.0 85675.0 85675.0 85675.0 85675.0 85675.0 85675.0 85675.0
44831.0 38526.0 171109.0 175526.0 175654.0 177370.0 225751.0 217783.0 14177.0 22576.0 74126.0 78922.0 149045.0 147689.0 202626.0 197389.0 104984.0 112460.0 44158.0 35983.0 84613.0 89168.0 185258.0 178768.0 217076.0 223451.0 174238.0 170809.0 181322.0 174517.0 142591.0 144709.0 137161.0 129413.0 234347.0 230988.0 41577.0 33475.0 154247.0 148496.0 163929.0 155748.0 119748.0 111682.0 102322.0 109062.0 129608.0 132151.0 134884.0 137817.0 46515.0 39069.0 69739.0 62154.0 110693.0 103786.0 59646.0 65891.0 104570.0 112747.0 7999.0 0.0 92699.0 93025.0 133633.0 129695.0 152509.0 159455.0 192171.0 183932.0 101074.0 93483.0 52784.0 48027.0 49858.0 57822.0 28058.0 23896.0 136345.0 143112.0 155671.0 89876.0 155671.0 155671.0 155671.0 155671.0 155671.0 155671.0 155671.0 155671.0 89876.0 89876.0 89876.0 89876.0 89876.0 89876.0 89876.0 89876.0
76659.0 73072.0 91924.0 93633.0 192192.0 189791.0 311493.0 303477.0 92043.0 91971.0 104535.0 101388.0 240665.0 238605.0 197655.0 196053.0 90572.0 97097.0 64720.0 67050.0 176092.0 181291.0 274305.0 267309.0 308141.0 314161.0 178340.0 171725.0 157865.0 149754.0 50320.0 53651.0 137417.0 129669.0 323553.0 319505.0 127569.0 119369.0 148069.0 146885.0 165920.0 159341.0 45986.0 40146.0 101226.0 108849.0 222307.0 224740.0 77528.0 74762.0 114685.0 112606.0 72108.0 69772.0 98495.0 97745.0 151847.0 158450.0 111784.0 117489.0 99004.0 92699.0 0.0 7971.0 65220.0 57626.0 243469.0 250731.0 283560.0 275283.0 37521.0 37039.0 142036.0 137316.0 107881.0 113204.0 78242.0 74677.0 65542.0 73460.0 188170.0 180652.0 188170.0 188170.0 188170.0 188170.0 188170.0 188170.0 188170.0 188170.0 180652.0 180652.0 180652.0 180652.0 180652.0 180652.0 180652.0 180652.0
73144.0 70294.0 97651.0 98877.0 184951.0 182416.0 314142.0 306124.0 91150.0 90353.0 99189.0 95628.0 241732.0 239941.0 189817.0 188285.0 83126.0 89516.0 61697.0 64957.0 175363.0 180827.0 276216.0 269331.0 309475.0 315627.0 170758.0 164083.0 149896.0 141784.0 49677.0 51785.0 129943.0 122261.0 325472.0 321592.0 129439.0 121132.0 140351.0 139291.0 158332.0 151832.0 38931.0 32651.0 94151.0 101677.0 222456.0 225163.0 85273.0 82289.0 111805.0 110262.0 66378.0 64686.0 91005.0 90515.0 151523.0 158352.0 104900.0 110398.0 99716.0 93025.0 7971.0 0.0 58067.0 50687.0 244795.0 251948.0 284753.0 276486.0 29556.0 29228.0 140941.0 136275.0 104429.0 109347.0 76383.0 73582.0 58631.0 66570.0 181724.0 179673.0 181724.0 181724.0 181724.0 181724.0 181724.0 181724.0 181724.0 181724.0 179673.0 179673.0 179673.0 179673.0 179673.0 179673.0 179673.0 179673.0
96878.0 98996.0 129351.0 126990.0 157097.0 152353.0 359384.0 351415.0 126382.0 122014.0 103473.0 96506.0 280190.0 279779.0 148881.0 149494.0 63595.0 65170.0 91078.0 98351.0 205868.0 212626.0 318370.0 312088.0 348413.0 355177.0 137163.0 129490.0 103074.0 95236.0 56009.0 49203.0 101596.0 96085.0 367200.0 364163.0 174385.0 165978.0 105341.0 107474.0 125277.0 120900.0 19246.0 25785.0 78646.0 82993.0 256445.0 260573.0 134643.0 129473.0 133458.0 135472.0 75405.0 79796.0 68426.0 73206.0 185293.0 193010.0 90229.0 91586.0 141435.0 133633.0 65220.0 58067.0 0.0 8186.0 284505.0 291001.0 323299.0 315129.0 33864.0 40703.0 171041.0 166971.0 123118.0 124477.0 108812.0 110140.0 4004.0 9542.0 165956.0 208560.0 165956.0 165956.0 165956.0 165956.0 165956.0 165956.0 165956.0 165956.0 208560.0 208560.0 208560.0 208560.0 208560.0 208560.0 208560.0 208560.0
94760.0 96244.0 121770.0 119617.0 162845.0 158349.0 355317.0 347332.0 123156.0 119242.0 104246.0 97619.0 277192.0 276552.0 156104.0 156490.0 66826.0 69249.0 88043.0 94946.0 203898.0 210488.0 314810.0 308415.0 345439.0 352108.0 143512.0 135919.0 110750.0 102856.0 48914.0 42588.0 106992.0 101109.0 363769.0 360581.0 170017.0 161589.0 111661.0 113397.0 131493.0 126818.0 11796.0 19244.0 81741.0 86683.0 254109.0 258024.0 126457.0 121302.0 132248.0 133781.0 74669.0 78361.0 72326.0 76420.0 182733.0 190353.0 93482.0 95475.0 137393.0 129695.0 57626.0 50687.0 8186.0 0.0 281308.0 287925.0 320304.0 312160.0 28771.0 36217.0 168947.0 164762.0 122191.0 124071.0 105736.0 106511.0 7946.0 15885.0 170149.0 206844.0 170149.0 170149.0 170149.0 170149.0 170149.0 170149.0 170149.0 170149.0 206844.0 206844.0 206844.0 206844.0 206844.0 206844.0 206844.0 206844.0
188541.0 185589.0 307791.0 313941.0 270705.0 275355.0 83440.0 76554.0 158171.0 162641.0 197863.0 205676.0 8493.0 4870.0 310449.0 303116.0 242490.0 248259.0 193431.0 186362.0 86809.0 78827.0 36701.0 33285.0 64683.0 70942.0 279730.0 279646.0 307008.0 302240.0 293787.0 296571.0 255461.0 250175.0 83190.0 81170.0 116313.0 124283.0 272752.0 264922.0 273434.0 265954.0 271858.0 263845.0 233495.0 237185.0 40827.0 32890.0 262741.0 268605.0 157846.0 153007.0 212794.0 206645.0 245343.0 237299.0 100710.0 92706.0 229448.0 236112.0 145324.0 152509.0 243469.0 244795.0 284505.0 281308.0 0.0 7987.0 40278.0 32013.0 253034.0 245298.0 117168.0 120294.0 168953.0 171687.0 175696.0 174915.0 287519.0 293797.0 245365.0 88159.0 245365.0 245365.0 245365.0 245365.0 245365.0 245365.0 245365.0 245365.0 88159.0 88159.0 88159.0 88159.0 88159.0 88159.0 88159.0 88159.0
194785.0 192025.0 315630.0 321753.0 275191.0 279840.0 80486.0 74023.0 164770.0 169035.0 203116.0 210976.0 11165.0 12630.0 314934.0 307602.0 248058.0 253699.0 199960.0 193001.0 91394.0 83470.0 33444.0 31726.0 57626.0 64184.0 284216.0 284132.0 311585.0 306957.0 301040.0 303732.0 259914.0 254794.0 77556.0 76123.0 123779.0 131682.0 277238.0 269414.0 277920.0 270440.0 278587.0 270592.0 238772.0 242277.0 42998.0 35545.0 270654.0 276493.0 163354.0 158755.0 218842.0 212810.0 250733.0 242674.0 106599.0 98638.0 234435.0 240970.0 152361.0 159455.0 250731.0 251948.0 291001.0 287925.0 7987.0 0.0 32831.0 24552.0 259741.0 251984.0 122737.0 126028.0 174481.0 176956.0 182231.0 181650.0 294057.0 300257.0 249851.0 92214.0 249851.0 249851.0 249851.0 249851.0 249851.0 249851.0 249851.0 249851.0 92214.0 92214.0 92214.0 92214.0 92214.0 92214.0 92214.0 92214.0
226904.0 224304.0 347738.0 353965.0 306182.0 310831.0 63039.0 59066.0 197202.0 201291.0 234499.0 242386.0 43162.0 45141.0 345925.0 338592.0 279643.0 285190.0 232314.0 225444.0 122474.0 114611.0 27211.0 33350.0 25228.0 32458.0 315206.0 315123.0 342581.0 337949.0 333868.0 336538.0 290956.0 285737.0 49264.0 50233.0 156563.0 164495.0 308229.0 300405.0 308911.0 301430.0 311089.0 303115.0 270155.0 273534.0 73021.0 65941.0 302363.0 308365.0 194940.0 190517.0 250796.0 244858.0 282191.0 274125.0 138527.0 130612.0 265625.0 272073.0 185129.0 192171.0 283560.0 284753.0 323299.0 320304.0 40278.0 32831.0 0.0 8282.0 292227.0 284450.0 154408.0 157814.0 206073.0 208366.0 214598.0 214192.0 326384.0 332523.0 280842.0 124149.0 280842.0 280842.0 280842.0 280842.0 280842.0 280842.0 280842.0 280842.0 124149.0 124149.0 124149.0 124149.0 124149.0 124149.0 124149.0 124149.0
218705.0 216134.0 339589.0 345794.0 298014.0 302664.0 66179.0 61365.0 189030.0 193120.0 226332.0 234219.0 34974.0 36872.0 337758.0 330425.0 271475.0 277023.0 224146.0 217279.0 114307.0 106444.0 24960.0 29523.0 33284.0 40238.0 307039.0 306955.0 334414.0 329782.0 325592.0 328271.0 282789.0 277570.0 55828.0 55954.0 148284.0 156213.0 300062.0 292238.0 300744.0 293263.0 302911.0 294931.0 261988.0 265366.0 64854.0 57773.0 294295.0 300263.0 186773.0 182350.0 242629.0 236634.0 274024.0 265957.0 130359.0 122445.0 257458.0 263906.0 176874.0 183932.0 275283.0 276486.0 315129.0 312160.0 32013.0 24552.0 8282.0 0.0 284053.0 276282.0 146241.0 149646.0 197906.0 200199.0 206431.0 206001.0 318223.0 324349.0 272674.0 115982.0 272674.0 272674.0 272674.0 272674.0 272674.0 272674.0 272674.0 272674.0 115982.0 115982.0 115982.0 115982.0 115982.0 115982.0 115982.0 115982.0
68368.0 68851.0 120434.0 120196.0 159351.0 156170.0 326592.0 318604.0 95054.0 91652.0 84259.0 78855.0 249079.0 248258.0 161167.0 160021.0 57481.0 62865.0 60362.0 66797.0 177042.0 183389.0 286290.0 279838.0 317315.0 323904.0 143503.0 136537.0 120411.0 112298.0 56706.0 54182.0 103472.0 96213.0 335312.0 332041.0 141254.0 132825.0 112466.0 112106.0 131087.0 125033.0 18881.0 11099.0 70452.0 77244.0 226693.0 230361.0 114036.0 110436.0 107021.0 107673.0 51901.0 53735.0 64906.0 66009.0 155171.0 162665.0 81982.0 86250.0 108721.0 101074.0 37521.0 29556.0 33864.0 28771.0 253034.0 259741.0 292227.0 284053.0 0.0 7844.0 142023.0 137695.0 97648.0 100629.0 77868.0 78121.0 35929.0 43350.0 159981.0 180349.0 159981.0 159981.0 159981.0 159981.0 159981.0 159981.0 159981.0 159981.0 180349.0 180349.0 180349.0 180349.0 180349.0 180349.0 180349.0 180349.0
60594.0 61008.0 123930.0 124151.0 156517.0 153699.0 319110.0 311126.0 87265.0 83812.0 77721.0 72671.0 241308.0 240528.0 160615.0 159058.0 54444.0 60513.0 52521.0 59008.0 169203.0 175545.0 278643.0 272221.0 309548.0 316153.0 141689.0 134941.0 121425.0 113335.0 62998.0 61061.0 101084.0 93549.0 327638.0 324405.0 133868.0 125447.0 111144.0 110220.0 129258.0 122886.0 26706.0 18932.0 66466.0 73641.0 218853.0 222534.0 114500.0 111422.0 99350.0 99897.0 44976.0 46323.0 62188.0 62387.0 147335.0 154837.0 77719.0 82547.0 101176.0 93483.0 37039.0 29228.0 40703.0 36217.0 245298.0 251984.0 284450.0 276282.0 7844.0 0.0 134184.0 129853.0 90093.0 93262.0 70043.0 70402.0 43077.0 50243.0 155476.0 172526.0 155476.0 155476.0 155476.0 155476.0 155476.0 155476.0 155476.0 155476.0 172526.0 172526.0 172526.0 172526.0 172526.0 172526.0 172526.0 172526.0
74212.0 73214.0 223793.0 228065.0 163755.0 167807.0 198061.0 190475.0 50007.0 50919.0 80983.0 88690.0 111617.0 112771.0 200641.0 193812.0 125339.0 131102.0 81847.0 76547.0 35019.0 41585.0 153158.0 148054.0 179525.0 186377.0 170102.0 169011.0 191897.0 186591.0 190391.0 191329.0 141342.0 135264.0 200238.0 198322.0 51883.0 51416.0 159011.0 151612.0 162460.0 154581.0 160789.0 153116.0 116503.0 120568.0 85536.0 90144.0 187316.0 190480.0 40683.0 36197.0 96905.0 91471.0 128214.0 120185.0 17514.0 25279.0 113173.0 120267.0 49998.0 52784.0 142036.0 140941.0 171041.0 168947.0 117168.0 122737.0 154408.0 146241.0 142023.0 134184.0 0.0 4794.0 51785.0 54881.0 65026.0 67409.0 174381.0 179984.0 138719.0 38758.0 138719.0 138719.0 138719.0 138719.0 138719.0 138719.0 138719.0 138719.0 38758.0 38758.0 38758.0 38758.0 38758.0 38758.0 38758.0 38758.0
70097.0 68851.0 219009.0 223274.0 163606.0 167449.0 200651.0 193013.0 45275.0 46392.0 78436.0 86032.0 114942.0 115834.0 199687.0 192983.0 122237.0 128157.0 77441.0 71997.0 39419.0 45732.0 156073.0 150815.0 182930.0 189783.0 169242.0 167935.0 189831.0 184386.0 185759.0 186756.0 139607.0 133352.0 203445.0 201389.0 49188.0 48097.0 157314.0 150023.0 161326.0 153384.0 156488.0 148781.0 113794.0 118096.0 89488.0 93881.0 182637.0 185762.0 37864.0 32729.0 93153.0 87548.0 125335.0 117337.0 19769.0 27776.0 110874.0 118114.0 45388.0 48027.0 137316.0 136275.0 166971.0 164762.0 120294.0 126028.0 157814.0 149646.0 137695.0 129853.0 4794.0 0.0 48854.0 52510.0 60489.0 62718.0 170278.0 175962.0 138832.0 43398.0 138832.0 138832.0 138832.0 138832.0 138832.0 138832.0 138832.0 138832.0 43398.0 43398.0 43398.0 43398.0 43398.0 43398.0 43398.0 43398.0
31289.0 35423.0 197715.0 200462.0 126453.0 128671.0 249474.0 241815.0 36012.0 28216.0 30051.0 37350.0 163346.0 164550.0 156640.0 150724.0 73578.0 79333.0 43259.0 42980.0 84777.0 92178.0 204887.0 199668.0 231189.0 238042.0 127140.0 124583.0 142100.0 136309.0 151224.0 150528.0 93348.0 86434.0 252006.0 250105.0 81548.0 75717.0 111038.0 104291.0 117756.0 109592.0 115593.0 108563.0 64998.0 69620.0 136246.0 141382.0 169788.0 170805.0 11133.0 17067.0 47714.0 44048.0 76485.0 68484.0 68620.0 76629.0 62851.0 70478.0 54942.0 49858.0 107881.0 104429.0 123118.0 122191.0 168953.0 174481.0 206073.0 197906.0 97648.0 90093.0 51785.0 48854.0 0.0 8047.0 34674.0 42167.0 126726.0 131566.0 105814.0 86491.0 105814.0 105814.0 105814.0 105814.0 105814.0 105814.0 105814.0 105814.0 86491.0 86491.0 86491.0 86491.0 86491.0 86491.0 86491.0 86491.0
36668.0 41798.0 203718.0 206257.0 118916.0 121331.0 252942.0 245355.0 44036.0 36262.0 26176.0 34022.0 165796.0 167382.0 150112.0 144011.0 71736.0 76900.0 49083.0 49718.0 86323.0 93961.0 207892.0 202895.0 233482.0 240335.0 120347.0 118069.0 137390.0 131880.0 155205.0 154120.0 87738.0 81148.0 254510.0 252846.0 88388.0 82859.0 105472.0 98479.0 111281.0 103155.0 118118.0 111372.0 61819.0 65687.0 137782.0 143263.0 176781.0 177602.0 15313.0 22950.0 49435.0 46939.0 73845.0 65773.0 72173.0 80095.0 58364.0 65647.0 62728.0 57822.0 113204.0 109347.0 124477.0 124071.0 171687.0 176956.0 208366.0 200199.0 100629.0 93262.0 54881.0 52510.0 8047.0 0.0 42148.0 49818.0 128188.0 132633.0 97865.0 87390.0 97865.0 97865.0 97865.0 97865.0 97865.0 97865.0 97865.0 97865.0 87390.0 87390.0 87390.0 87390.0 87390.0 87390.0 87390.0 87390.0
16967.0 10588.0 165186.0 168457.0 153315.0 154218.0 251503.0 243587.0 17655.0 14108.0 50272.0 53601.0 171467.0 170967.0 177015.0 172218.0 76975.0 84507.0 17734.0 11529.0 99886.0 105896.0 209698.0 203544.0 239712.0 246415.0 149529.0 145540.0 153699.0 146774.0 125539.0 126315.0 111049.0 103088.0 258426.0 255492.0 69282.0 61377.0 127737.0 122417.0 138686.0 130572.0 96746.0 88877.0 74984.0 82040.0 148891.0 152493.0 135372.0 136664.0 38087.0 34649.0 41687.0 34141.0 82834.0 76114.0 77345.0 84799.0 78271.0 86450.0 35926.0 28058.0 78242.0 76383.0 108812.0 105736.0 175696.0 182231.0 214598.0 206431.0 77868.0 70043.0 65026.0 60489.0 34674.0 42148.0 0.0 8048.0 111830.0 118128.0 136518.0 103757.0 136518.0 136518.0 136518.0 136518.0 136518.0 136518.0 136518.0 136518.0 103757.0 103757.0 103757.0 103757.0 103757.0 103757.0 103757.0 103757.0
23667.0 16056.0 159694.0 163235.0 161216.0 162030.0 249352.0 241400.0 17613.0 17909.0 58165.0 61219.0 171032.0 170138.0 184303.0 179638.0 82618.0 90299.0 20341.0 12088.0 101796.0 107389.0 208313.0 201969.0 239245.0 245799.0 157078.0 152956.0 159901.0 152836.0 123150.0 124446.0 118243.0 110213.0 257258.0 254093.0 65444.0 57263.0 134737.0 129605.0 146116.0 138029.0 96945.0 88942.0 81609.0 88866.0 149675.0 152887.0 128581.0 130149.0 44517.0 40089.0 46969.0 39224.0 88832.0 82408.0 78290.0 85416.0 85472.0 93627.0 31883.0 23896.0 74677.0 73582.0 110140.0 106511.0 174915.0 181650.0 214192.0 206001.0 78121.0 70402.0 67409.0 62718.0 42167.0 49818.0 8048.0 0.0 112962.0 119577.0 144566.0 106109.0 144566.0 144566.0 144566.0 144566.0 144566.0 144566.0 144566.0 144566.0 106109.0 106109.0 106109.0 106109.0 106109.0 106109.0 106109.0 106109.0
100183.0 102114.0 126862.0 124314.0 160709.0 155888.0 362073.0 354097.0 129357.0 125138.0 107353.0 100422.0 283271.0 282782.0 151810.0 152572.0 67596.0 69126.0 94098.0 101248.0 209248.0 215961.0 321256.0 314931.0 351507.0 358239.0 140571.0 132867.0 105629.0 97858.0 53230.0 46166.0 105322.0 99895.0 370136.0 367044.0 176928.0 168510.0 108777.0 111051.0 128743.0 124472.0 19735.0 26995.0 82648.0 86971.0 259729.0 263794.0 133436.0 128083.0 137008.0 138909.0 79024.0 83264.0 72395.0 77206.0 188501.0 196190.0 94227.0 95548.0 144108.0 136345.0 65542.0 58631.0 4004.0 7946.0 287519.0 294057.0 326384.0 318223.0 35929.0 43077.0 174381.0 170278.0 126726.0 128188.0 111830.0 112962.0 0.0 7940.0 169876.0 212006.0 169876.0 169876.0 169876.0 169876.0 169876.0 169876.0 169876.0 169876.0 212006.0 212006.0 212006.0 212006.0 212006.0 212006.0 212006.0 212006.0
105907.0 108232.0 132245.0 129340.0 158924.0 153780.0 368861.0 360895.0 135724.0 131233.0 110923.0 103738.0 289423.0 289080.0 147804.0 148959.0 69255.0 69891.0 100401.0 107752.0 214740.0 221565.0 327752.0 321495.0 357631.0 364424.0 138008.0 130212.0 100862.0 93258.0 58324.0 50757.0 104215.0 99285.0 376546.0 373547.0 183908.0 175503.0 106392.0 109215.0 126416.0 122579.0 27671.0 34826.0 84276.0 87959.0 265450.0 269658.0 140521.0 134995.0 142035.0 144273.0 83888.0 88591.0 73310.0 78769.0 194405.0 202154.0 95608.0 96258.0 150927.0 143112.0 73460.0 66570.0 9542.0 15885.0 293797.0 300257.0 332523.0 324349.0 43350.0 50243.0 179984.0 175962.0 131566.0 132633.0 118128.0 119577.0 7940.0 0.0 169977.0 217317.0 169977.0 169977.0 169977.0 169977.0 169977.0 169977.0 169977.0 169977.0 217317.0 217317.0 217317.0 217317.0 217317.0 217317.0 217317.0 217317.0
124185.0 131866.0 279075.0 279587.0 46895.0 53539.0 328359.0 321135.0 141771.0 133739.0 88120.0 88461.0 238728.0 241444.0 92852.0 84514.0 103862.0 100912.0 135648.0 140215.0 158600.0 166591.0 282043.0 277881.0 305958.0 312811.0 64505.0 68264.0 110171.0 109736.0 215326.0 210954.0 67138.0 69266.0 327097.0 325969.0 183483.0 179018.0 76270.0 68795.0 64593.0 60608.0 170653.0 167380.0 89706.0 83699.0 209336.0 215192.0 262112.0 261115.0 110802.0 118974.0 116844.0 121091.0 97835.0 94554.0 155178.0 161762.0 78028.0 74759.0 160498.0 155671.0 188170.0 181724.0 165956.0 170149.0 245365.0 249851.0 280842.0 272674.0 159981.0 155476.0 138719.0 138832.0 105814.0 97865.0 136518.0 144566.0 169876.0 169977.0 0.0 158470.0 0.0 0.0 0.0 0.0 0.0 0.0 0.0 0.0 158470.0 158470.0 158470.0 158470.0 158470.0 158470.0 158470.0 158470.0
112154.0 111706.0 260732.0 265317.0 183810.0 188460.0 171494.0 164411.0 88619.0 89649.0 113104.0 121085.0 81174.0 84457.0 223554.0 216221.0 159119.0 164086.0 120401.0 115283.0 7151.0 11757.0 124850.0 121060.0 149265.0 156118.0 192835.0 192751.0 220209.0 215591.0 229147.0 230070.0 168584.0 163413.0 170417.0 168223.0 75084.0 78498.0 185857.0 178033.0 186539.0 179059.0 199028.0 191448.0 148561.0 151405.0 50865.0 57106.0 222342.0 226086.0 75595.0 73098.0 133594.0 128765.0 160920.0 152851.0 31579.0 28701.0 143376.0 149722.0 85675.0 89876.0 180652.0 179673.0 208560.0 206844.0 88159.0 92214.0 124149.0 115982.0 180349.0 172526.0 38758.0 43398.0 86491.0 87390.0 103757.0 106109.0 212006.0 217317.0 158470.0 0.0 158470.0 158470.0 158470.0 158470.0 158470.0 158470.0 158470.0 158470.0 0.0 0.0 0.0 0.0 0.0 0.0 0.0 0.0
124185.0 131866.0 279075.0 279587.0 46895.0 53539.0 328359.0 321135.0 141771.0 133739.0 88120.0 88461.0 238728.0 241444.0 92852.0 84514.0 103862.0 100912.0 135648.0 140215.0 158600.0 166591.0 282043.0 277881.0 305958.0 312811.0 64505.0 68264.0 110171.0 109736.0 215326.0 210954.0 67138.0 69266.0 327097.0 325969.0 183483.0 179018.0 76270.0 68795.0 64593.0 60608.0 170653.0 167380.0 89706.0 83699.0 209336.0 215192.0 262112.0 261115.0 110802.0 118974.0 116844.0 121091.0 97835.0 94554.0 155178.0 161762.0 78028.0 74759.0 160498.0 155671.0 188170.0 181724.0 165956.0 170149.0 245365.0 249851.0 280842.0 272674.0 159981.0 155476.0 138719.0 138832.0 105814.0 97865.0 136518.0 144566.0 169876.0 169977.0 0.0 158470.0 0.0 0.0 0.0 0.0 0.0 0.0 0.0 0.0 158470.0 158470.0 158470.0 158470.0 158470.0 158470.0 158470.0 158470.0
124185.0 131866.0 279075.0 279587.0 46895.0 53539.0 328359.0 321135.0 141771.0 133739.0 88120.0 88461.0 238728.0 241444.0 92852.0 84514.0 103862.0 100912.0 135648.0 140215.0 158600.0 166591.0 282043.0 277881.0 305958.0 312811.0 64505.0 68264.0 110171.0 109736.0 215326.0 210954.0 67138.0 69266.0 327097.0 325969.0 183483.0 179018.0 76270.0 68795.0 64593.0 60608.0 170653.0 167380.0 89706.0 83699.0 209336.0 215192.0 262112.0 261115.0 110802.0 118974.0 116844.0 121091.0 97835.0 94554.0 155178.0 161762.0 78028.0 74759.0 160498.0 155671.0 188170.0 181724.0 165956.0 170149.0 245365.0 249851.0 280842.0 272674.0 159981.0 155476.0 138719.0 138832.0 105814.0 97865.0 136518.0 144566.0 169876.0 169977.0 0.0 158470.0 0.0 0.0 0.0 0.0 0.0 0.0 0.0 0.0 158470.0 158470.0 158470.0 158470.0 158470.0 158470.0 158470.0 158470.0
124185.0 131866.0 279075.0 279587.0 46895.0 53539.0 328359.0 321135.0 141771.0 133739.0 88120.0 88461.0 238728.0 241444.0 92852.0 84514.0 103862.0 100912.0 135648.0 140215.0 158600.0 166591.0 282043.0 277881.0 305958.0 312811.0 64505.0 68264.0 110171.0 109736.0 215326.0 210954.0 67138.0 69266.0 327097.0 325969.0 183483.0 179018.0 76270.0 68795.0 64593.0 60608.0 170653.0 167380.0 89706.0 83699.0 209336.0 215192.0 262112.0 261115.0 110802.0 118974.0 116844.0 121091.0 97835.0 94554.0 155178.0 161762.0 78028.0 74759.0 160498.0 155671.0 188170.0 181724.0 165956.0 170149.0 245365.0 249851.0 280842.0 272674.0 159981.0 155476.0 138719.0 138832.0 105814.0 97865.0 136518.0 144566.0 169876.0 169977.0 0.0 158470.0 0.0 0.0 0.0 0.0 0.0 0.0 0.0 0.0 158470.0 158470.0 158470.0 158470.0 158470.0 158470.0 158470.0 158470.0
124185.0 131866.0 279075.0 279587.0 46895.0 53539.0 328359.0 321135.0 141771.0 133739.0 88120.0 88461.0 238728.0 241444.0 92852.0 84514.0 103862.0 100912.0 135648.0 140215.0 158600.0 166591.0 282043.0 277881.0 305958.0 312811.0 64505.0 68264.0 110171.0 109736.0 215326.0 210954.0 67138.0 69266.0 327097.0 325969.0 183483.0 179018.0 76270.0 68795.0 64593.0 60608.0 170653.0 167380.0 89706.0 83699.0 209336.0 215192.0 262112.0 261115.0 110802.0 118974.0 116844.0 121091.0 97835.0 94554.0 155178.0 161762.0 78028.0 74759.0 160498.0 155671.0 188170.0 181724.0 165956.0 170149.0 245365.0 249851.0 280842.0 272674.0 159981.0 155476.0 138719.0 138832.0 105814.0 97865.0 136518.0 144566.0 169876.0 169977.0 0.0 158470.0 0.0 0.0 0.0 0.0 0.0 0.0 0.0 0.0 158470.0 158470.0 158470.0 158470.0 158470.0 158470.0 158470.0 158470.0
124185.0 131866.0 279075.0 279587.0 46895.0 53539.0 328359.0 321135.0 141771.0 133739.0 88120.0 88461.0 238728.0 241444.0 92852.0 84514.0 103862.0 100912.0 135648.0 140215.0 158600.0 166591.0 282043.0 277881.0 305958.0 312811.0 64505.0 68264.0 110171.0 109736.0 215326.0 210954.0 67138.0 69266.0 327097.0 325969.0 183483.0 179018.0 76270.0 68795.0 64593.0 60608.0 170653.0 167380.0 89706.0 83699.0 209336.0 215192.0 262112.0 261115.0 110802.0 118974.0 116844.0 121091.0 97835.0 94554.0 155178.0 161762.0 78028.0 74759.0 160498.0 155671.0 188170.0 181724.0 165956.0 170149.0 245365.0 249851.0 280842.0 272674.0 159981.0 155476.0 138719.0 138832.0 105814.0 97865.0 136518.0 144566.0 169876.0 169977.0 0.0 158470.0 0.0 0.0 0.0 0.0 0.0 0.0 0.0 0.0 158470.0 158470.0 158470.0 158470.0 158470.0 158470.0 158470.0 158470.0
124185.0 131866.0 279075.0 279587.0 46895.0 53539.0 328359.0 321135.0 141771.0 133739.0 88120.0 88461.0 238728.0 241444.0 92852.0 84514.0 103862.0 100912.0 135648.0 140215.0 158600.0 166591.0 282043.0 277881.0 305958.0 312811.0 64505.0 68264.0 110171.0 109736.0 215326.0 210954.0 67138.0 69266.0 327097.0 325969.0 183483.0 179018.0 76270.0 68795.0 64593.0 60608.0 170653.0 167380.0 89706.0 83699.0 209336.0 215192.0 262112.0 261115.0 110802.0 118974.0 116844.0 121091.0 97835.0 94554.0 155178.0 161762.0 78028.0 74759.0 160498.0 155671.0 188170.0 181724.0 165956.0 170149.0 245365.0 249851.0 280842.0 272674.0 159981.0 155476.0 138719.0 138832.0 105814.0 97865.0 136518.0 144566.0 169876.0 169977.0 0.0 158470.0 0.0 0.0 0.0 0.0 0.0 0.0 0.0 0.0 158470.0 158470.0 158470.0 158470.0 158470.0 158470.0 158470.0 158470.0
124185.0 131866.0 279075.0 279587.0 46895.0 53539.0 328359.0 321135.0 141771.0 133739.0 88120.0 88461.0 238728.0 241444.0 92852.0 84514.0 103862.0 100912.0 135648.0 140215.0 158600.0 166591.0 282043.0 277881.0 305958.0 312811.0 64505.0 68264.0 110171.0 109736.0 215326.0 210954.0 67138.0 69266.0 327097.0 325969.0 183483.0 179018.0 76270.0 68795.0 64593.0 60608.0 170653.0 167380.0 89706.0 83699.0 209336.0 215192.0 262112.0 261115.0 110802.0 118974.0 116844.0 121091.0 97835.0 94554.0 155178.0 161762.0 78028.0 74759.0 160498.0 155671.0 188170.0 181724.0 165956.0 170149.0 245365.0 249851.0 280842.0 272674.0 159981.0 155476.0 138719.0 138832.0 105814.0 97865.0 136518.0 144566.0 169876.0 169977.0 0.0 158470.0 0.0 0.0 0.0 0.0 0.0 0.0 0.0 0.0 158470.0 158470.0 158470.0 158470.0 158470.0 158470.0 158470.0 158470.0
124185.0 131866.0 279075.0 279587.0 46895.0 53539.0 328359.0 321135.0 141771.0 133739.0 88120.0 88461.0 238728.0 241444.0 92852.0 84514.0 103862.0 100912.0 135648.0 140215.0 158600.0 166591.0 282043.0 277881.0 305958.0 312811.0 64505.0 68264.0 110171.0 109736.0 215326.0 210954.0 67138.0 69266.0 327097.0 325969.0 183483.0 179018.0 76270.0 68795.0 64593.0 60608.0 170653.0 167380.0 89706.0 83699.0 209336.0 215192.0 262112.0 261115.0 110802.0 118974.0 116844.0 121091.0 97835.0 94554.0 155178.0 161762.0 78028.0 74759.0 160498.0 155671.0 188170.0 181724.0 165956.0 170149.0 245365.0 249851.0 280842.0 272674.0 159981.0 155476.0 138719.0 138832.0 105814.0 97865.0 136518.0 144566.0 169876.0 169977.0 0.0 158470.0 0.0 0.0 0.0 0.0 0.0 0.0 0.0 0.0 158470.0 158470.0 158470.0 158470.0 158470.0 158470.0 158470.0 158470.0
112154.0 111706.0 260732.0 265317.0 183810.0 188460.0 171494.0 164411.0 88619.0 89649.0 113104.0 121085.0 81174.0 84457.0 223554.0 216221.0 159119.0 164086.0 120401.0 115283.0 7151.0 11757.0 124850.0 121060.0 149265.0 156118.0 192835.0 192751.0 220209.0 215591.0 229147.0 230070.0 168584.0 163413.0 170417.0 168223.0 75084.0 78498.0 185857.0 178033.0 186539.0 179059.0 199028.0 191448.0 148561.0 151405.0 50865.0 57106.0 222342.0 226086.0 75595.0 73098.0 133594.0 128765.0 160920.0 152851.0 31579.0 28701.0 143376.0 149722.0 85675.0 89876.0 180652.0 179673.0 208560.0 206844.0 88159.0 92214.0 124149.0 115982.0 180349.0 172526.0 38758.0 43398.0 86491.0 87390.0 103757.0 106109.0 212006.0 217317.0 158470.0 0.0 158470.0 158470.0 158470.0 158470.0 158470.0 158470.0 158470.0 158470.0 0.0 0.0 0.0 0.0 0.0 0.0 0.0 0.0
112154.0 111706.0 260732.0 265317.0 183810.0 188460.0 171494.0 164411.0 88619.0 89649.0 113104.0 121085.0 81174.0 84457.0 223554.0 216221.0 159119.0 164086.0 120401.0 115283.0 7151.0 11757.0 124850.0 121060.0 149265.0 156118.0 192835.0 192751.0 220209.0 215591.0 229147.0 230070.0 168584.0 163413.0 170417.0 168223.0 75084.0 78498.0 185857.0 178033.0 186539.0 179059.0 199028.0 191448.0 148561.0 151405.0 50865.0 57106.0 222342.0 226086.0 75595.0 73098.0 133594.0 128765.0 160920.0 152851.0 31579.0 28701.0 143376.0 149722.0 85675.0 89876.0 180652.0 179673.0 208560.0 206844.0 88159.0 92214.0 124149.0 115982.0 180349.0 172526.0 38758.0 43398.0 86491.0 87390.0 103757.0 106109.0 212006.0 217317.0 158470.0 0.0 158470.0 158470.0 158470.0 158470.0 158470.0 158470.0 158470.0 158470.0 0.0 0.0 0.0 0.0 0.0 0.0 0.0 0.0
112154.0 111706.0 260732.0 265317.0 183810.0 188460.0 171494.0 164411.0 88619.0 89649.0 113104.0 121085.0 81174.0 84457.0 223554.0 216221.0 159119.0 164086.0 120401.0 115283.0 7151.0 11757.0 124850.0 121060.0 149265.0 156118.0 192835.0 192751.0 220209.0 215591.0 229147.0 230070.0 168584.0 163413.0 170417.0 168223.0 75084.0 78498.0 185857.0 178033.0 186539.0 179059.0 199028.0 191448.0 148561.0 151405.0 50865.0 57106.0 222342.0 226086.0 75595.0 73098.0 133594.0 128765.0 160920.0 152851.0 31579.0 28701.0 143376.0 149722.0 85675.0 89876.0 180652.0 179673.0 208560.0 206844.0 88159.0 92214.0 124149.0 115982.0 180349.0 172526.0 38758.0 43398.0 86491.0 87390.0 103757.0 106109.0 212006.0 217317.0 158470.0 0.0 158470.0 158470.0 158470.0 158470.0 158470.0 158470.0 158470.0 158470.0 0.0 0.0 0.0 0.0 0.0 0.0 0.0 0.0
112154.0 111706.0 260732.0 265317.0 183810.0 188460.0 171494.0 164411.0 88619.0 89649.0 113104.0 121085.0 81174.0 84457.0 223554.0 216221.0 159119.0 164086.0 120401.0 115283.0 7151.0 11757.0 124850.0 121060.0 149265.0 156118.0 192835.0 192751.0 220209.0 215591.0 229147.0 230070.0 168584.0 163413.0 170417.0 168223.0 75084.0 78498.0 185857.0 178033.0 186539.0 179059.0 199028.0 191448.0 148561.0 151405.0 50865.0 57106.0 222342.0 226086.0 75595.0 73098.0 133594.0 128765.0 160920.0 152851.0 31579.0 28701.0 143376.0 149722.0 85675.0 89876.0 180652.0 179673.0 208560.0 206844.0 88159.0 92214.0 124149.0 115982.0 180349.0 172526.0 38758.0 43398.0 86491.0 87390.0 103757.0 106109.0 212006.0 217317.0 158470.0 0.0 158470.0 158470.0 158470.0 158470.0 158470.0 158470.0 158470.0 158470.0 0.0 0.0 0.0 0.0 0.0 0.0 0.0 0.0
112154.0 111706.0 260732.0 265317.0 183810.0 188460.0 171494.0 164411.0 88619.0 89649.0 113104.0 121085.0 81174.0 84457.0 223554.0 216221.0 159119.0 164086.0 120401.0 115283.0 7151.0 11757.0 124850.0 121060.0 149265.0 156118.0 192835.0 192751.0 220209.0 215591.0 229147.0 230070.0 168584.0 163413.0 170417.0 168223.0 75084.0 78498.0 185857.0 178033.0 186539.0 179059.0 199028.0 191448.0 148561.0 151405.0 50865.0 57106.0 222342.0 226086.0 75595.0 73098.0 133594.0 128765.0 160920.0 152851.0 31579.0 28701.0 143376.0 149722.0 85675.0 89876.0 180652.0 179673.0 208560.0 206844.0 88159.0 92214.0 124149.0 115982.0 180349.0 172526.0 38758.0 43398.0 86491.0 87390.0 103757.0 106109.0 212006.0 217317.0 158470.0 0.0 158470.0 158470.0 158470.0 158470.0 158470.0 158470.0 158470.0 158470.0 0.0 0.0 0.0 0.0 0.0 0.0 0.0 0.0
112154.0 111706.0 260732.0 265317.0 183810.0 188460.0 171494.0 164411.0 88619.0 89649.0 113104.0 121085.0 81174.0 84457.0 223554.0 216221.0 159119.0 164086.0 120401.0 115283.0 7151.0 11757.0 124850.0 121060.0 149265.0 156118.0 192835.0 192751.0 220209.0 215591.0 229147.0 230070.0 168584.0 163413.0 170417.0 168223.0 75084.0 78498.0 185857.0 178033.0 186539.0 179059.0 199028.0 191448.0 148561.0 151405.0 50865.0 57106.0 222342.0 226086.0 75595.0 73098.0 133594.0 128765.0 160920.0 152851.0 31579.0 28701.0 143376.0 149722.0 85675.0 89876.0 180652.0 179673.0 208560.0 206844.0 88159.0 92214.0 124149.0 115982.0 180349.0 172526.0 38758.0 43398.0 86491.0 87390.0 103757.0 106109.0 212006.0 217317.0 158470.0 0.0 158470.0 158470.0 158470.0 158470.0 158470.0 158470.0 158470.0 158470.0 0.0 0.0 0.0 0.0 0.0 0.0 0.0 0.0
112154.0 111706.0 260732.0 265317.0 183810.0 188460.0 171494.0 164411.0 88619.0 89649.0 113104.0 121085.0 81174.0 84457.0 223554.0 216221.0 159119.0 164086.0 120401.0 115283.0 7151.0 11757.0 124850.0 121060.0 149265.0 156118.0 192835.0 192751.0 220209.0 215591.0 229147.0 230070.0 168584.0 163413.0 170417.0 168223.0 75084.0 78498.0 185857.0 178033.0 186539.0 179059.0 199028.0 191448.0 148561.0 151405.0 50865.0 57106.0 222342.0 226086.0 75595.0 73098.0 133594.0 128765.0 160920.0 152851.0 31579.0 28701.0 143376.0 149722.0 85675.0 89876.0 180652.0 179673.0 208560.0 206844.0 88159.0 92214.0 124149.0 115982.0 180349.0 172526.0 38758.0 43398.0 86491.0 87390.0 103757.0 106109.0 212006.0 217317.0 158470.0 0.0 158470.0 158470.0 158470.0 158470.0 158470.0 158470.0 158470.0 158470.0 0.0 0.0 0.0 0.0 0.0 0.0 0.0 0.0
112154.0 111706.0 260732.0 265317.0 183810.0 188460.0 171494.0 164411.0 88619.0 89649.0 113104.0 121085.0 81174.0 84457.0 223554.0 216221.0 159119.0 164086.0 120401.0 115283.0 7151.0 11757.0 124850.0 121060.0 149265.0 156118.0 192835.0 192751.0 220209.0 215591.0 229147.0 230070.0 168584.0 163413.0 170417.0 168223.0 75084.0 78498.0 185857.0 178033.0 186539.0 179059.0 199028.0 191448.0 148561.0 151405.0 50865.0 57106.0 222342.0 226086.0 75595.0 73098.0 133594.0 128765.0 160920.0 152851.0 31579.0 28701.0 143376.0 149722.0 85675.0 89876.0 180652.0 179673.0 208560.0 206844.0 88159.0 92214.0 124149.0 115982.0 180349.0 172526.0 38758.0 43398.0 86491.0 87390.0 103757.0 106109.0 212006.0 217317.0 158470.0 0.0 158470.0 158470.0 158470.0 158470.0 158470.0 158470.0 158470.0 158470.0 0.0 0.0 0.0 0.0 0.0 0.0 0.0 0.0
FIXED_EDGES_SECTION
1 2
3 4
5 6
7 8
9 10
11 12
13 14
15 16
17 18
19 20
21 22
23 24
25 26
27 28
29 30
31 32
33 34
35 36
37 38
39 40
41 42
43 44
45 46
47 48
49 50
51 52
53 54
55 56
57 58
59 60
61 62
63 64
65 66
67 68
69 70
71 72
73 74
75 76
77 78
79 80
-1 
DEMAND_SECTION
1 380
2 380
3 138
4 138
5 292
6 292
7 229
8 229
9 223
10 223
11 56
12 56
13 534
14 534
15 251
16 251
17 353
18 353
19 279
20 279
21 37
22 37
23 322
24 322
25 280
26 280
27 247
28 247
29 265
30 265
31 76
32 76
33 155
34 155
35 491
36 491
37 68
38 68
39 493
40 493
41 396
42 396
43 479
44 479
45 207
46 207
47 114
48 114
49 234
50 234
51 324
52 324
53 191
54 191
55 293
56 293
57 371
58 371
59 394
60 394
61 130
62 130
63 180
64 180
65 211
66 211
67 184
68 184
69 224
70 224
71 82
72 82
73 399
74 399
75 373
76 373
77 177
78 177
79 224
80 224
81 0
82 0
83 0
84 0
85 0
86 0
87 0
88 0
89 0
90 0
91 0
92 0
93 0
94 0
95 0
96 0
97 0
98 0
DEPOT_SECTION
81 
-1 
CAPACITIES_SECTION
2500 
2750 
-1 
EOF