NAME: GFS_20_1
TYPE: GFSP
DIMENSION: 100
VEHICLES: 2
CAPACITY: 2500.0
TRIP_DIST_LIMIT: 750000.0
TOTAL_DIST_LIMIT: 2100000.0
EDGE_WEIGHT_TYPE: EXPLICIT
EDGE_WEIGHT_FORMAT: FULL_MATRIX
EDGE_WEIGHT_SECTION
0.0 8030.0 123656.0 123713.0 137106.0 132252.0 200724.0 206141.0 189920.0 185915.0 167670.0 173719.0 105919.0 112287.0 210098.0 202096.0 244111.0 236938.0 57995.0 65788.0 206078.0 205945.0 147605.0 139577.0 269474.0 261421.0 329872.0 322301.0 223871.0 221688.0 224904.0 218885.0 218495.0 210513.0 146002.0 141731.0 237309.0 230262.0 356640.0 351541.0 100349.0 105878.0 248499.0 245878.0 129699.0 134474.0 264813.0 272862.0 252954.0 249968.0 239243.0 241984.0 56380.0 64804.0 150875.0 156641.0 155306.0 163200.0 134772.0 132179.0 107800.0 99785.0 91657.0 90432.0 253761.0 253178.0 226727.0 228677.0 124636.0 125027.0 128476.0 128004.0 254276.0 248935.0 158525.0 158814.0 162720.0 170053.0 130064.0 136715.0 250648.0 231534.0 250648.0 250648.0 250648.0 250648.0 250648.0 250648.0 250648.0 250648.0 250648.0 231534.0 231534.0 231534.0 231534.0 231534.0 231534.0 231534.0 231534.0 231534.0
8030.0 0.0 117686.0 118108.0 131258.0 126146.0 193233.0 198567.0 181994.0 177946.0 161561.0 167774.0 106032.0 112731.0 209122.0 201074.0 236082.0 228908.0 50890.0 58706.0 203756.0 203316.0 142504.0 134523.0 261454.0 253402.0 321873.0 314296.0 221955.0 219502.0 222325.0 216119.0 210502.0 202521.0 138535.0 134416.0 234750.0 227826.0 348609.0 343513.0 100918.0 105925.0 245662.0 243256.0 125422.0 130531.0 256788.0 264837.0 249766.0 247009.0 236091.0 238613.0 58724.0 67094.0 147738.0 153763.0 149308.0 157226.0 130070.0 127123.0 107642.0 99522.0 90705.0 88785.0 252015.0 251169.0 223332.0 225526.0 118722.0 118751.0 123674.0 123621.0 246337.0 240967.0 155498.0 155408.0 159132.0 166606.0 126961.0 133892.0 246410.0 224138.0 246410.0 246410.0 246410.0 246410.0 246410.0 246410.0 246410.0 246410.0 246410.0 224138.0 224138.0 224138.0 224138.0 224138.0 224138.0 224138.0 224138.0 224138.0
123656.0 117686.0 0.0 7905.0 13809.0 9113.0 94550.0 102046.0 106687.0 107927.0 44110.0 50088.0 94609.0 100986.0 142616.0 135336.0 172781.0 165084.0 113816.0 115334.0 119393.0 114910.0 31416.0 26028.0 199066.0 192013.0 259091.0 250867.0 140591.0 134846.0 132283.0 124369.0 137553.0 130552.0 51169.0 43174.0 143751.0 139022.0 275568.0 272567.0 98805.0 93759.0 150461.0 150787.0 34867.0 42569.0 193228.0 200371.0 150338.0 150323.0 137939.0 137849.0 109576.0 109921.0 64825.0 72661.0 31650.0 39549.0 29283.0 21588.0 91633.0 88468.0 79498.0 71655.0 169725.0 165602.0 123346.0 128185.0 1610.0 7250.0 24872.0 32440.0 163546.0 161315.0 71538.0 65743.0 65720.0 73412.0 55060.0 62337.0 137159.0 120399.0 137159.0 137159.0 137159.0 137159.0 137159.0 137159.0 137159.0 137159.0 137159.0 120399.0 120399.0 120399.0 120399.0 120399.0 120399.0 120399.0 120399.0 120399.0
123713.0 118108.0 7905.0 0.0 14367.0 14083.0 100567.0 108196.0 114171.0 115575.0 45594.0 50605.0 88037.0 94196.0 135010.0 127676.0 180302.0 172617.0 117552.0 119518.0 112432.0 108191.0 26609.0 20020.0 206528.0 199525.0 266390.0 258162.0 133602.0 128021.0 125837.0 118007.0 144911.0 137990.0 58864.0 50865.0 137465.0 132525.0 282412.0 279515.0 92561.0 87179.0 144609.0 144675.0 26981.0 34731.0 200672.0 207764.0 144958.0 144627.0 132329.0 132562.0 106027.0 105831.0 57157.0 65026.0 32837.0 40378.0 21878.0 14426.0 84936.0 82166.0 73695.0 66023.0 162951.0 159022.0 117855.0 122412.0 6723.0 15120.0 17052.0 24540.0 170260.0 168223.0 64016.0 58466.0 58746.0 66564.0 47184.0 54432.0 133236.0 125451.0 133236.0 133236.0 133236.0 133236.0 133236.0 133236.0 133236.0 133236.0 133236.0 125451.0 125451.0 125451.0 125451.0 125451.0 125451.0 125451.0 125451.0 125451.0
137106.0 131258.0 13809.0 14367.0 0.0 8048.0 88549.0 96356.0 105876.0 108132.0 31289.0 36668.0 100183.0 105907.0 136733.0 129815.0 171893.0 164295.0 127253.0 128543.0 111074.0 105953.0 20841.0 18535.0 197790.0 191029.0 256922.0 248687.0 132246.0 126059.0 122594.0 114537.0 135921.0 129355.0 52570.0 44831.0 133683.0 129418.0 271602.0 268969.0 105187.0 99317.0 139588.0 140364.0 33806.0 40218.0 191867.0 198732.0 138771.0 139206.0 126727.0 126192.0 120352.0 120035.0 60171.0 67630.0 18553.0 26255.0 25388.0 18337.0 96878.0 94760.0 86923.0 79451.0 160679.0 156095.0 112013.0 117256.0 12599.0 16095.0 24118.0 32016.0 159302.0 157737.0 65898.0 59148.0 58077.0 65237.0 54903.0 60985.0 124185.0 112154.0 124185.0 124185.0 124185.0 124185.0 124185.0 124185.0 124185.0 124185.0 124185.0 112154.0 112154.0 112154.0 112154.0 112154.0 112154.0 112154.0 112154.0 112154.0
132252.0 126146.0 9113.0 14083.0 8048.0 0.0 86493.0 94114.0 100949.0 102743.0 35423.0 41798.0 102114.0 108232.0 143873.0 136839.0 167089.0 159437.0 120108.0 121182.0 118808.0 113802.0 28763.0 25570.0 193191.0 186284.0 252797.0 244565.0 139998.0 133890.0 130557.0 122514.0 131443.0 124654.0 46443.0 38526.0 141689.0 137374.0 268451.0 265611.0 106635.0 101255.0 147635.0 148396.0 38665.0 45745.0 187306.0 194313.0 146796.0 147252.0 134771.0 134210.0 118625.0 118867.0 66754.0 74376.0 23289.0 31225.0 31259.0 23631.0 98996.0 96244.0 87668.0 79933.0 168565.0 164045.0 120055.0 125303.0 8775.0 8418.0 28553.0 36545.0 156257.0 154311.0 72839.0 66357.0 65572.0 72880.0 59622.0 66276.0 131866.0 111706.0 131866.0 131866.0 131866.0 131866.0 131866.0 131866.0 131866.0 131866.0 131866.0 111706.0 111706.0 111706.0 111706.0 111706.0 111706.0 111706.0 111706.0 111706.0
200724.0 193233.0 94550.0 100567.0 88549.0 86493.0 0.0 8025.0 41046.0 48655.0 68620.0 72173.0 188501.0 194405.0 209354.0 203996.0 94107.0 87502.0 166267.0 163249.0 176525.0 169124.0 100388.0 103776.0 117218.0 111794.0 172497.0 164334.0 195473.0 187751.0 179862.0 172008.0 58385.0 55033.0 54729.0 59646.0 187364.0 186388.0 183896.0 181736.0 193127.0 187639.0 186953.0 190926.0 121567.0 126737.0 111234.0 116919.0 180431.0 184689.0 173120.0 168842.0 201195.0 202708.0 141938.0 147907.0 76265.0 73960.0 112271.0 106374.0 185293.0 182733.0 174039.0 166204.0 217949.0 211049.0 159766.0 167245.0 94826.0 88641.0 112460.0 120119.0 71927.0 71735.0 145097.0 137103.0 133561.0 137816.0 142255.0 147119.0 155178.0 31579.0 155178.0 155178.0 155178.0 155178.0 155178.0 155178.0 155178.0 155178.0 155178.0 31579.0 31579.0 31579.0 31579.0 31579.0 31579.0 31579.0 31579.0 31579.0
206141.0 198567.0 102046.0 108196.0 96356.0 94114.0 8025.0 0.0 38028.0 45992.0 76629.0 80095.0 196190.0 202154.0 217175.0 211865.0 86936.0 80513.0 170054.0 166729.0 184195.0 176746.0 108399.0 111735.0 109630.0 104360.0 164545.0 156390.0 203013.0 195258.0 187231.0 179419.0 51728.0 49060.0 60432.0 65891.0 194553.0 193718.0 175895.0 173716.0 200735.0 195329.0 193857.0 197960.0 129478.0 134703.0 103659.0 109215.0 187092.0 191515.0 180059.0 175632.0 208026.0 209703.0 149964.0 155927.0 84270.0 81982.0 120208.0 114251.0 193010.0 190353.0 181542.0 173675.0 225183.0 218201.0 166853.0 174381.0 102367.0 96007.0 120317.0 128005.0 63901.0 63769.0 153110.0 145113.0 141552.0 145762.0 150204.0 155110.0 161762.0 28701.0 161762.0 161762.0 161762.0 161762.0 161762.0 161762.0 161762.0 161762.0 161762.0 28701.0 28701.0 28701.0 28701.0 28701.0 28701.0 28701.0 28701.0 28701.0
189920.0 181994.0 106687.0 114171.0 105876.0 100949.0 41046.0 38028.0 0.0 8078.0 96495.0 102302.0 200016.0 206855.0 238115.0 231987.0 66146.0 58488.0 146184.0 141601.0 207529.0 200706.0 122852.0 123807.0 92381.0 85358.0 152736.0 144539.0 227557.0 220181.0 213413.0 205330.0 31341.0 23940.0 55928.0 63779.0 221997.0 220150.0 172044.0 168231.0 203250.0 199192.0 223032.0 226370.0 139456.0 146094.0 86555.0 93785.0 217522.0 221117.0 209128.0 205509.0 201894.0 205045.0 165022.0 171967.0 99787.0 100443.0 131257.0 124087.0 197361.0 193247.0 183033.0 174945.0 252128.0 245746.0 195156.0 202327.0 107547.0 99596.0 129433.0 137439.0 64393.0 59505.0 169690.0 162123.0 159583.0 165175.0 160515.0 166853.0 192960.0 64459.0 192960.0 192960.0 192960.0 192960.0 192960.0 192960.0 192960.0 192960.0 192960.0 64459.0 64459.0 64459.0 64459.0 64459.0 64459.0 64459.0 64459.0 64459.0
185915.0 177946.0 107927.0 115575.0 108132.0 102743.0 48655.0 45992.0 8078.0 0.0 100906.0 107065.0 200265.0 207258.0 241853.0 235566.0 65290.0 57541.0 140702.0 135863.0 211862.0 205193.0 125871.0 126336.0 91854.0 84499.0 152836.0 144693.0 232095.0 224819.0 218338.0 210219.0 32994.0 25041.0 56773.0 64758.0 227176.0 225113.0 173777.0 169640.0 203206.0 199452.0 228589.0 231752.0 141396.0 148268.0 86183.0 93702.0 223369.0 226773.0 214690.0 211256.0 200010.0 203463.0 167816.0 174924.0 103326.0 104532.0 133497.0 126159.0 197734.0 193330.0 182873.0 174785.0 257140.0 250902.0 200584.0 207660.0 108885.0 100741.0 131296.0 139286.0 68623.0 63021.0 172770.0 165336.0 163021.0 168864.0 162355.0 168949.0 199086.0 72531.0 199086.0 199086.0 199086.0 199086.0 199086.0 199086.0 199086.0 199086.0 199086.0 72531.0 72531.0 72531.0 72531.0 72531.0 72531.0 72531.0 72531.0 72531.0
167670.0 161561.0 44110.0 45594.0 31289.0 35423.0 68620.0 76629.0 96495.0 100906.0 0.0 8047.0 126726.0 131566.0 142100.0 136309.0 159876.0 152673.0 152935.0 153192.0 111038.0 104291.0 33509.0 39000.0 184448.0 178430.0 241011.0 232829.0 131189.0 123932.0 117756.0 109592.0 123291.0 117932.0 54942.0 49858.0 127140.0 124583.0 252006.0 250105.0 132531.0 125862.0 129970.0 132360.0 57312.0 60791.0 178444.0 184605.0 126453.0 128671.0 116238.0 113898.0 151224.0 150528.0 73578.0 79333.0 12758.0 6057.0 47714.0 44048.0 123118.0 122191.0 115593.0 108563.0 156640.0 150724.0 101654.0 108256.0 43259.0 42980.0 50194.0 56590.0 140467.0 140314.0 76485.0 68484.0 64998.0 69620.0 76469.0 80159.0 105814.0 86491.0 105814.0 105814.0 105814.0 105814.0 105814.0 105814.0 105814.0 105814.0 105814.0 86491.0 86491.0 86491.0 86491.0 86491.0 86491.0 86491.0 86491.0 86491.0
173719.0 167774.0 50088.0 50605.0 36668.0 41798.0 72173.0 80095.0 102302.0 107065.0 8047.0 0.0 128188.0 132633.0 137390.0 131880.0 164715.0 157633.0 160425.0 160819.0 105472.0 98479.0 34374.0 41004.0 188882.0 183062.0 244634.0 236483.0 125283.0 117880.0 111281.0 103155.0 128188.0 123137.0 62728.0 57822.0 120347.0 118069.0 254510.0 252846.0 134310.0 127329.0 122739.0 125335.0 58859.0 61344.0 182879.0 188844.0 118916.0 121331.0 108950.0 106404.0 155205.0 154120.0 71736.0 76900.0 18511.0 10574.0 49435.0 46939.0 124477.0 124071.0 118118.0 111372.0 150112.0 144011.0 94454.0 101205.0 49083.0 49718.0 52838.0 58489.0 143579.0 143854.0 73845.0 65773.0 61819.0 65687.0 76820.0 79715.0 97865.0 87390.0 97865.0 97865.0 97865.0 97865.0 97865.0 97865.0 97865.0 97865.0 97865.0 87390.0 87390.0 87390.0 87390.0 87390.0 87390.0 87390.0 87390.0 87390.0
105919.0 106032.0 94609.0 88037.0 100183.0 102114.0 188501.0 196190.0 200016.0 200265.0 126726.0 128188.0 0.0 7940.0 105629.0 97858.0 265554.0 257806.0 140271.0 146462.0 108777.0 111051.0 93817.0 87727.0 292091.0 284762.0 352752.0 344555.0 123330.0 122865.0 128743.0 124472.0 231242.0 223953.0 144108.0 136345.0 140571.0 132867.0 370136.0 367044.0 7946.0 867.0 153502.0 149332.0 69451.0 67213.0 286368.0 293743.0 160709.0 155888.0 147227.0 151860.0 53230.0 46166.0 67596.0 69126.0 115335.0 120676.0 79024.0 83264.0 4004.0 7946.0 19735.0 26995.0 151810.0 152572.0 137624.0 137147.0 94098.0 101248.0 77020.0 70153.0 258155.0 255861.0 72395.0 77206.0 82648.0 86971.0 52674.0 53247.0 169876.0 212006.0 169876.0 169876.0 169876.0 169876.0 169876.0 169876.0 169876.0 169876.0 169876.0 212006.0 212006.0 212006.0 212006.0 212006.0 212006.0 212006.0 212006.0 212006.0
112287.0 112731.0 100986.0 94196.0 105907.0 108232.0 194405.0 202154.0 206855.0 207258.0 131566.0 132633.0 7940.0 0.0 100862.0 93258.0 272533.0 264789.0 147925.0 154180.0 106392.0 109215.0 98348.0 92636.0 299039.0 291754.0 359579.0 351373.0 119919.0 119937.0 126416.0 122579.0 238025.0 230795.0 150927.0 143112.0 138008.0 130212.0 376546.0 373547.0 12001.0 8532.0 151223.0 146748.0 74279.0 71337.0 293292.0 300623.0 158924.0 153780.0 145596.0 150539.0 58324.0 50757.0 69255.0 69891.0 120477.0 125509.0 83888.0 88591.0 9542.0 15885.0 27671.0 34826.0 147804.0 148959.0 136628.0 135705.0 100401.0 107752.0 82368.0 75198.0 264449.0 262301.0 73310.0 78769.0 84276.0 87959.0 56222.0 55659.0 169977.0 217317.0 169977.0 169977.0 169977.0 169977.0 169977.0 169977.0 169977.0 169977.0 169977.0 217317.0 217317.0 217317.0 217317.0 217317.0 217317.0 217317.0 217317.0 217317.0
210098.0 209122.0 142616.0 135010.0 136733.0 143873.0 209354.0 217175.0 238115.0 241853.0 142100.0 137390.0 105629.0 100862.0 0.0 8114.0 301956.0 294772.0 234414.0 239118.0 35806.0 44024.0 116880.0 118330.0 326272.0 320418.0 381390.0 373296.0 28947.0 34833.0 46455.0 49567.0 265378.0 260004.0 188809.0 181322.0 52132.0 45155.0 388646.0 387691.0 112547.0 105475.0 65974.0 59056.0 108732.0 100731.0 320269.0 326201.0 77672.0 69918.0 68600.0 76046.0 158839.0 151539.0 77878.0 69988.0 138531.0 137752.0 113359.0 121115.0 103074.0 110750.0 118479.0 120612.0 48726.0 52126.0 69757.0 63619.0 141138.0 149306.0 118067.0 111358.0 279849.0 280730.0 71128.0 77586.0 79115.0 72989.0 92752.0 84344.0 110171.0 220209.0 110171.0 110171.0 110171.0 110171.0 110171.0 110171.0 110171.0 110171.0 110171.0 220209.0 220209.0 220209.0 220209.0 220209.0 220209.0 220209.0 220209.0 220209.0
202096.0 201074.0 135336.0 127676.0 129815.0 136839.0 203996.0 211865.0 231987.0 235566.0 136309.0 131880.0 97858.0 93258.0 8114.0 0.0 296174.0 288935.0 226323.0 231046.0 33803.0 41838.0 110203.0 111347.0 320687.0 314733.0 376268.0 368150.0 32100.0 36536.0 47619.0 49419.0 259586.0 254085.0 182071.0 174517.0 54954.0 47480.0 384174.0 383080.0 104866.0 97684.0 69071.0 62522.0 101237.0 93248.0 314683.0 320715.0 80247.0 72822.0 70131.0 77360.0 151086.0 143857.0 70521.0 62676.0 132259.0 131792.0 106129.0 113900.0 95236.0 102856.0 110459.0 112526.0 55306.0 57924.0 69569.0 64061.0 133875.0 142095.0 110686.0 103853.0 274838.0 275532.0 64004.0 70733.0 72584.0 66837.0 84895.0 76492.0 109736.0 215591.0 109736.0 109736.0 109736.0 109736.0 109736.0 109736.0 109736.0 109736.0 109736.0 215591.0 215591.0 215591.0 215591.0 215591.0 215591.0 215591.0 215591.0 215591.0
244111.0 236082.0 172781.0 180302.0 171893.0 167089.0 94107.0 86936.0 66146.0 65290.0 159876.0 164715.0 265554.0 272533.0 301956.0 296174.0 0.0 7751.0 193009.0 186814.0 270021.0 262793.0 188258.0 189640.0 26625.0 19238.0 87943.0 79904.0 289324.0 281670.0 273941.0 266058.0 36588.0 42561.0 121802.0 129735.0 281454.0 280485.0 112594.0 107439.0 268473.0 264741.0 280750.0 284895.0 205551.0 212099.0 21170.0 29054.0 273769.0 278356.0 266971.0 262450.0 263632.0 267531.0 230539.0 237289.0 164689.0 164432.0 197246.0 190153.0 263012.0 258616.0 248119.0 240034.0 312053.0 305120.0 253787.0 261304.0 173664.0 165658.0 195552.0 203557.0 42682.0 35143.0 234863.0 227140.0 224272.0 229400.0 226626.0 232876.0 248445.0 97988.0 248445.0 248445.0 248445.0 248445.0 248445.0 248445.0 248445.0 248445.0 248445.0 97988.0 97988.0 97988.0 97988.0 97988.0 97988.0 97988.0 97988.0 97988.0
236938.0 228908.0 165084.0 172617.0 164295.0 159437.0 87502.0 80513.0 58488.0 57541.0 152673.0 157633.0 257806.0 264789.0 294772.0 288935.0 7751.0 0.0 186279.0 180186.0 263018.0 255840.0 180791.0 182091.0 34366.0 26969.0 95641.0 87582.0 282428.0 274807.0 267199.0 259285.0 29453.0 35043.0 114081.0 122019.0 274853.0 273772.0 119702.0 114706.0 260722.0 256993.0 274365.0 278414.0 197927.0 204508.0 28846.0 36644.0 267556.0 272027.0 260558.0 256141.0 256001.0 259865.0 223062.0 229849.0 157292.0 157158.0 189658.0 182541.0 255267.0 250865.0 240368.0 232283.0 305412.0 298546.0 247265.0 254747.0 165974.0 157953.0 187916.0 195921.0 41635.0 33554.0 227449.0 219751.0 216934.0 222134.0 218995.0 225280.0 242216.0 93095.0 242216.0 242216.0 242216.0 242216.0 242216.0 242216.0 242216.0 242216.0 242216.0 93095.0 93095.0 93095.0 93095.0 93095.0 93095.0 93095.0 93095.0 93095.0
57995.0 50890.0 113816.0 117552.0 127253.0 120108.0 166267.0 170054.0 146184.0 140702.0 152935.0 160425.0 140271.0 147925.0 234414.0 226323.0 193009.0 186279.0 0.0 7817.0 221697.0 219422.0 144157.0 137154.0 217274.0 209220.0 276458.0 269158.0 241790.0 237819.0 238212.0 231010.0 171603.0 163834.0 114453.0 113073.0 250454.0 244446.0 305345.0 299757.0 137236.0 139906.0 259380.0 258383.0 134667.0 141687.0 213045.0 221082.0 261123.0 259925.0 247999.0 249007.0 103224.0 110901.0 163009.0 170306.0 142523.0 150178.0 135812.0 130350.0 140674.0 132650.0 121630.0 116776.0 272191.0 269833.0 233958.0 237705.0 115278.0 111712.0 129201.0 132263.0 208977.0 202710.0 171032.0 168547.0 170883.0 178911.0 143775.0 151911.0 250760.0 197841.0 250760.0 250760.0 250760.0 250760.0 250760.0 250760.0 250760.0 250760.0 250760.0 197841.0 197841.0 197841.0 197841.0 197841.0 197841.0 197841.0 197841.0 197841.0
65788.0 58706.0 115334.0 119518.0 128543.0 121182.0 163249.0 166729.0 141601.0 135863.0 153192.0 160819.0 146462.0 154180.0 239118.0 231046.0 186814.0 180186.0 7817.0 0.0 225450.0 222931.0 146104.0 139326.0 210824.0 202780.0 269716.0 262473.0 245732.0 241565.0 241617.0 234302.0 166291.0 158592.0 112465.0 111621.0 253793.0 247933.0 298981.0 293307.0 143668.0 146072.0 262408.0 261615.0 137815.0 145022.0 206686.0 214709.0 263806.0 262837.0 250805.0 251591.0 110588.0 118177.0 166717.0 174133.0 143183.0 150716.0 138453.0 132693.0 146731.0 138768.0 127596.0 122470.0 276095.0 273532.0 236631.0 240587.0 116838.0 112764.0 131893.0 135356.0 203848.0 197427.0 174718.0 171922.0 174049.0 182100.0 147849.0 156070.0 252484.0 194778.0 252484.0 252484.0 252484.0 252484.0 252484.0 252484.0 252484.0 252484.0 252484.0 194778.0 194778.0 194778.0 194778.0 194778.0 194778.0 194778.0 194778.0 194778.0
206078.0 203756.0 119393.0 112432.0 111074.0 118808.0 176525.0 184195.0 207529.0 211862.0 111038.0 105472.0 108777.0 106392.0 35806.0 33803.0 270021.0 263018.0 221697.0 225450.0 0.0 8219.0 90319.0 93622.0 293735.0 288164.0 347715.0 339678.0 21207.0 16121.0 20025.0 17589.0 233565.0 228607.0 161285.0 154247.0 31851.0 24343.0 354485.0 353356.0 116577.0 108350.0 44834.0 40611.0 88636.0 80949.0 287746.0 293411.0 53254.0 47503.0 40750.0 47041.0 160395.0 154243.0 58734.0 51406.0 109413.0 107363.0 90674.0 98014.0 105341.0 111661.0 116252.0 115953.0 50867.0 48153.0 36698.0 32446.0 117815.0 125387.0 96470.0 91239.0 246068.0 247337.0 50743.0 54388.0 53694.0 46013.0 78243.0 70488.0 76270.0 185857.0 76270.0 76270.0 76270.0 76270.0 76270.0 76270.0 76270.0 76270.0 76270.0 185857.0 185857.0 185857.0 185857.0 185857.0 185857.0 185857.0 185857.0 185857.0
205945.0 203316.0 114910.0 108191.0 105953.0 113802.0 169124.0 176746.0 200706.0 205193.0 104291.0 98479.0 111051.0 109215.0 44024.0 41838.0 262793.0 255840.0 219422.0 222931.0 8219.0 0.0 85119.0 88954.0 286341.0 280845.0 340018.0 331996.0 26930.0 20133.0 19041.0 13428.0 226391.0 221547.0 155386.0 148496.0 31470.0 25025.0 346660.0 345532.0 118938.0 110571.0 42906.0 39944.0 85410.0 77960.0 280357.0 285951.0 49712.0 44958.0 36449.0 41961.0 161794.0 155944.0 56589.0 49787.0 103268.0 100840.0 86654.0 93774.0 107474.0 113397.0 117209.0 116342.0 54824.0 50956.0 30063.0 27031.0 113316.0 120662.0 92689.0 87964.0 238368.0 239739.0 48568.0 51082.0 49626.0 41667.0 76826.0 69476.0 68795.0 178033.0 68795.0 68795.0 68795.0 68795.0 68795.0 68795.0 68795.0 68795.0 68795.0 178033.0 178033.0 178033.0 178033.0 178033.0 178033.0 178033.0 178033.0 178033.0
147605.0 142504.0 31416.0 26609.0 20841.0 28763.0 100388.0 108399.0 122852.0 125871.0 33509.0 34374.0 93817.0 98348.0 116880.0 110203.0 188258.0 180791.0 144157.0 146104.0 90319.0 85119.0 0.0 8078.0 213669.0 207213.0 271692.0 263472.0 111469.0 105231.0 101796.0 93760.0 151859.0 145749.0 71933.0 64511.0 112971.0 108610.0 284277.0 282099.0 99953.0 92958.0 119218.0 119775.0 24539.0 27289.0 207694.0 214258.0 118925.0 118992.0 106577.0 106434.0 122986.0 121237.0 42290.0 49116.0 24149.0 27504.0 15340.0 15440.0 90116.0 89740.0 84131.0 77674.0 139838.0 135281.0 91954.0 96909.0 29823.0 36119.0 20035.0 24384.0 172237.0 171470.0 46900.0 39558.0 37814.0 44652.0 42959.0 46904.0 106667.0 119965.0 106667.0 106667.0 106667.0 106667.0 106667.0 106667.0 106667.0 106667.0 106667.0 119965.0 119965.0 119965.0 119965.0 119965.0 119965.0 119965.0 119965.0 119965.0
139577.0 134523.0 26028.0 20020.0 18535.0 25570.0 103776.0 111735.0 123807.0 126336.0 39000.0 41004.0 87727.0 92636.0 118330.0 111347.0 189640.0 182091.0 137154.0 139326.0 93622.0 88954.0 8078.0 0.0 215344.0 208712.0 273987.0 265756.0 114830.0 108943.0 106255.0 98345.0 153455.0 147079.0 71088.0 63366.0 117740.0 112997.0 287561.0 285182.0 93577.0 86862.0 124650.0 124832.0 18360.0 22983.0 209396.0 216129.0 124940.0 124628.0 112317.0 112555.0 115222.0 113647.0 41664.0 49095.0 28009.0 32950.0 8753.0 7401.0 84125.0 83266.0 77114.0 70427.0 143778.0 139586.0 97835.0 102427.0 24423.0 31765.0 12156.0 17608.0 175327.0 174202.0 47387.0 40788.0 40118.0 47611.0 38494.0 43606.0 113965.0 124850.0 113965.0 113965.0 113965.0 113965.0 113965.0 113965.0 113965.0 113965.0 113965.0 124850.0 124850.0 124850.0 124850.0 124850.0 124850.0 124850.0 124850.0 124850.0
269474.0 261454.0 199066.0 206528.0 197790.0 193191.0 117218.0 109630.0 92381.0 91854.0 184448.0 188882.0 292091.0 299039.0 326272.0 320687.0 26625.0 34366.0 217274.0 210824.0 293735.0 286341.0 213669.0 215344.0 0.0 8065.0 61399.0 53428.0 312643.0 304884.0 296755.0 288989.0 61891.0 68544.0 148209.0 156113.0 303774.0 303189.0 88254.0 82487.0 295058.0 291276.0 302341.0 306805.0 231527.0 237945.0 6004.0 5370.0 295123.0 299761.0 288684.0 283822.0 290094.0 294062.0 255954.0 262563.0 189892.0 189225.0 223087.0 216094.0 289524.0 285181.0 274715.0 266629.0 334467.0 327315.0 275894.0 283514.0 199917.0 191976.0 221579.0 229580.0 53969.0 49217.0 260046.0 252244.0 249197.0 254068.0 252623.0 258730.0 269783.0 116178.0 269783.0 269783.0 269783.0 269783.0 269783.0 269783.0 269783.0 269783.0 269783.0 116178.0 116178.0 116178.0 116178.0 116178.0 116178.0 116178.0 116178.0 116178.0
261421.0 253402.0 192013.0 199525.0 191029.0 186284.0 111794.0 104360.0 85358.0 84499.0 178430.0 183062.0 284762.0 291754.0 320418.0 314733.0 19238.0 26969.0 209220.0 202780.0 288164.0 280845.0 207213.0 208712.0 8065.0 0.0 69235.0 61327.0 307258.0 299545.0 291591.0 283771.0 55362.0 61675.0 141041.0 148973.0 298825.0 298074.0 96259.0 90537.0 287645.0 283950.0 297696.0 302030.0 224716.0 231223.0 5370.0 12310.0 290535.0 295192.0 283984.0 279260.0 282270.0 286291.0 249503.0 256193.0 183548.0 183098.0 216367.0 209306.0 282231.0 277807.0 267278.0 259196.0 329486.0 322426.0 271026.0 278605.0 192891.0 184893.0 214730.0 222735.0 51924.0 46193.0 253728.0 245968.0 243017.0 248023.0 245798.0 252004.0 265195.0 112592.0 265195.0 265195.0 265195.0 265195.0 265195.0 265195.0 265195.0 265195.0 265195.0 112592.0 112592.0 112592.0 112592.0 112592.0 112592.0 112592.0 112592.0 112592.0
329872.0 321873.0 259091.0 266390.0 256922.0 252797.0 172497.0 164545.0 152736.0 152836.0 241011.0 244634.0 352752.0 359579.0 381390.0 376268.0 87943.0 95641.0 276458.0 269716.0 347715.0 340018.0 271692.0 273987.0 61399.0 69235.0 0.0 8235.0 365664.0 357732.0 348813.0 341353.0 121574.0 128799.0 208657.0 216470.0 355129.0 354969.0 38726.0 30736.0 355918.0 351927.0 353323.0 357861.0 290727.0 296825.0 66796.0 59138.0 346104.0 350754.0 339686.0 334828.0 351489.0 355457.0 313798.0 320067.0 247633.0 246168.0 282003.0 275258.0 350091.0 345957.0 335638.0 327549.0 385848.0 378515.0 327120.0 334812.0 259862.0 252097.0 280926.0 288895.0 101650.0 100780.0 317363.0 309421.0 306006.0 310306.0 311819.0 317570.0 320764.0 164164.0 320764.0 320764.0 320764.0 320764.0 320764.0 320764.0 320764.0 320764.0 320764.0 164164.0 164164.0 164164.0 164164.0 164164.0 164164.0 164164.0 164164.0 164164.0
322301.0 314296.0 250867.0 258162.0 248687.0 244565.0 164334.0 156390.0 144539.0 144693.0 232829.0 236483.0 344555.0 351373.0 373296.0 368150.0 79904.0 87582.0 269158.0 262473.0 339678.0 331996.0 263472.0 265756.0 53428.0 61327.0 8235.0 0.0 357688.0 349765.0 340894.0 333412.0 113360.0 120605.0 200455.0 208263.0 347194.0 347070.0 42065.0 34444.0 347740.0 343730.0 345388.0 349926.0 282493.0 288592.0 58739.0 51018.0 338169.0 342819.0 331751.0 326894.0 343509.0 347435.0 305585.0 311864.0 239417.0 237974.0 273770.0 267023.0 341888.0 337770.0 327468.0 319378.0 377913.0 370580.0 319185.0 326877.0 251636.0 243877.0 272691.0 280661.0 93637.0 92635.0 309166.0 301228.0 297825.0 302149.0 303584.0 309338.0 312829.0 156343.0 312829.0 312829.0 312829.0 312829.0 312829.0 312829.0 312829.0 312829.0 312829.0 156343.0 156343.0 156343.0 156343.0 156343.0 156343.0 156343.0 156343.0 156343.0
223871.0 221955.0 140591.0 133602.0 132246.0 139998.0 195473.0 203013.0 227557.0 232095.0 131189.0 125283.0 123330.0 119919.0 28947.0 32100.0 289324.0 282428.0 241790.0 245732.0 21207.0 26930.0 111469.0 114830.0 312643.0 307258.0 365664.0 357688.0 0.0 8072.0 19196.0 24953.0 252990.0 248251.0 182191.0 175230.0 23189.0 16390.0 372053.0 370924.0 130869.0 123007.0 37128.0 30433.0 109526.0 101754.0 306670.0 312146.0 48726.0 41009.0 40146.0 47712.0 176040.0 169403.0 79211.0 71636.0 130149.0 127769.0 111816.0 119190.0 120200.0 127132.0 132926.0 133444.0 30421.0 29401.0 43775.0 36711.0 139015.0 146594.0 117547.0 112145.0 264060.0 265679.0 71314.0 75412.0 74879.0 67220.0 98033.0 90004.0 83749.0 203425.0 83749.0 83749.0 83749.0 83749.0 83749.0 83749.0 83749.0 83749.0 83749.0 203425.0 203425.0 203425.0 203425.0 203425.0 203425.0 203425.0 203425.0 203425.0
221688.0 219502.0 134846.0 128021.0 126059.0 133890.0 187751.0 195258.0 220181.0 224819.0 123932.0 117880.0 122865.0 119937.0 34833.0 36536.0 281670.0 274807.0 237819.0 241565.0 16121.0 20133.0 105231.0 108943.0 304884.0 299545.0 357732.0 349765.0 8072.0 0.0 11738.0 16888.0 245380.0 240714.0 175458.0 168601.0 18996.0 11157.0 364098.0 362970.0 130548.0 122490.0 33135.0 27357.0 104608.0 96971.0 298916.0 304349.0 43794.0 36630.0 33806.0 41218.0 175090.0 168702.0 74848.0 67525.0 123282.0 120660.0 106360.0 113595.0 119576.0 126210.0 131360.0 131397.0 34958.0 32042.0 36032.0 29230.0 133257.0 140682.0 112264.0 107200.0 256144.0 257816.0 66850.0 70294.0 69305.0 61461.0 94329.0 86520.0 76242.0 195471.0 76242.0 76242.0 76242.0 76242.0 76242.0 76242.0 76242.0 76242.0 76242.0 195471.0 195471.0 195471.0 195471.0 195471.0 195471.0 195471.0 195471.0 195471.0
224904.0 222325.0 132283.0 125837.0 122594.0 130557.0 179862.0 187231.0 213413.0 218338.0 117756.0 111281.0 128743.0 126416.0 46455.0 47619.0 273941.0 267199.0 238212.0 241617.0 20025.0 19041.0 101796.0 106255.0 296755.0 291591.0 348813.0 340894.0 19196.0 11738.0 0.0 8193.0 237834.0 233417.0 170512.0 163929.0 12431.0 6880.0 355166.0 354038.0 136561.0 128306.0 24808.0 20997.0 103900.0 96595.0 290808.0 296071.0 33792.0 27564.0 22537.0 29754.0 180126.0 174081.0 75556.0 68824.0 118193.0 114928.0 104591.0 111483.0 125277.0 131493.0 135761.0 135131.0 38893.0 33534.0 24611.0 17546.0 130678.0 137740.0 110790.0 106418.0 247351.0 249277.0 67548.0 69696.0 67807.0 59757.0 95860.0 88511.0 64593.0 186539.0 64593.0 64593.0 64593.0 64593.0 64593.0 64593.0 64593.0 64593.0 64593.0 186539.0 186539.0 186539.0 186539.0 186539.0 186539.0 186539.0 186539.0 186539.0
218885.0 216119.0 124369.0 118007.0 114537.0 122514.0 172008.0 179419.0 205330.0 210219.0 109592.0 103155.0 124472.0 122579.0 49567.0 49419.0 266058.0 259285.0 231010.0 234302.0 17589.0 13428.0 93760.0 98345.0 288989.0 283771.0 341353.0 333412.0 24953.0 16888.0 8193.0 0.0 229901.0 225430.0 162322.0 155748.0 19535.0 15070.0 347686.0 346557.0 132355.0 123994.0 29663.0 27424.0 96501.0 89325.0 283035.0 288354.0 36358.0 31558.0 23343.0 29454.0 175176.0 169357.0 68795.0 62373.0 110003.0 106740.0 96890.0 103687.0 120900.0 126818.0 130534.0 129530.0 47075.0 41674.0 20220.0 14953.0 122762.0 129753.0 103154.0 98989.0 239827.0 241650.0 60847.0 62476.0 60303.0 52243.0 89332.0 82229.0 60608.0 179059.0 60608.0 60608.0 60608.0 60608.0 60608.0 60608.0 60608.0 60608.0 60608.0 179059.0 179059.0 179059.0 179059.0 179059.0 179059.0 179059.0 179059.0 179059.0
218495.0 210502.0 137553.0 144911.0 135921.0 131443.0 58385.0 51728.0 31341.0 32994.0 123291.0 128188.0 231242.0 238025.0 265378.0 259586.0 36588.0 29453.0 171603.0 166291.0 233565.0 226391.0 151859.0 153455.0 61891.0 55362.0 121574.0 113360.0 252990.0 245380.0 237834.0 229901.0 0.0 7996.0 87137.0 94914.0 245596.0 244425.0 140943.0 136986.0 234548.0 230415.0 245337.0 249274.0 169681.0 176060.0 55953.0 62869.0 238759.0 243071.0 231501.0 227217.0 232827.0 236138.0 194150.0 200832.0 128190.0 127848.0 161202.0 154236.0 228547.0 224520.0 214353.0 206266.0 276117.0 269310.0 218090.0 225534.0 138349.0 130535.0 159761.0 167757.0 37930.0 31140.0 198370.0 190621.0 187711.0 192813.0 190782.0 196845.0 213451.0 68145.0 213451.0 213451.0 213451.0 213451.0 213451.0 213451.0 213451.0 213451.0 213451.0 68145.0 68145.0 68145.0 68145.0 68145.0 68145.0 68145.0 68145.0 68145.0
210513.0 202521.0 130552.0 137990.0 129355.0 124654.0 55033.0 49060.0 23940.0 25041.0 117932.0 123137.0 223953.0 230795.0 260004.0 254085.0 42561.0 35043.0 163834.0 158592.0 228607.0 221547.0 145749.0 147079.0 68544.0 61675.0 128799.0 120605.0 248251.0 240714.0 233417.0 225430.0 7996.0 0.0 79868.0 87712.0 241451.0 240062.0 148788.0 144746.0 227158.0 223128.0 241596.0 245351.0 163045.0 169552.0 62682.0 69855.0 235338.0 239436.0 227726.0 223641.0 224975.0 228340.0 188019.0 194812.0 122282.0 122294.0 154697.0 147631.0 221301.0 217170.0 206919.0 198830.0 271869.0 265194.0 214127.0 221494.0 131388.0 123484.0 153070.0 161074.0 45342.0 38881.0 192423.0 184741.0 181971.0 187258.0 184132.0 190332.0 210164.0 68493.0 210164.0 210164.0 210164.0 210164.0 210164.0 210164.0 210164.0 210164.0 210164.0 68493.0 68493.0 68493.0 68493.0 68493.0 68493.0 68493.0 68493.0 68493.0
146002.0 138535.0 51169.0 58864.0 52570.0 46443.0 54729.0 60432.0 55928.0 56773.0 54942.0 62728.0 144108.0 150927.0 188809.0 182071.0 121802.0 114081.0 114453.0 112465.0 161285.0 155386.0 71933.0 71088.0 148209.0 141041.0 208657.0 200455.0 182191.0 175458.0 170512.0 162322.0 87137.0 79868.0 0.0 7999.0 180629.0 177391.0 226890.0 223443.0 147454.0 143281.0 184372.0 186354.0 85046.0 92186.0 142423.0 149706.0 181291.0 183256.0 170763.0 168701.0 149120.0 151483.0 112741.0 120169.0 52319.0 56264.0 77610.0 70059.0 141435.0 137393.0 127331.0 119254.0 209293.0 203906.0 156070.0 162385.0 52157.0 43970.0 74900.0 82843.0 116115.0 112860.0 118341.0 111342.0 109738.0 116348.0 105849.0 112690.0 160498.0 85675.0 160498.0 160498.0 160498.0 160498.0 160498.0 160498.0 160498.0 160498.0 160498.0 85675.0 85675.0 85675.0 85675.0 85675.0 85675.0 85675.0 85675.0 85675.0
141731.0 134416.0 43174.0 50865.0 44831.0 38526.0 59646.0 65891.0 63779.0 64758.0 49858.0 57822.0 136345.0 143112.0 181322.0 174517.0 129735.0 122019.0 113073.0 111621.0 154247.0 148496.0 64511.0 63366.0 156113.0 148973.0 216470.0 208263.0 175230.0 168601.0 163929.0 155748.0 94914.0 87712.0 7999.0 0.0 174238.0 170809.0 234347.0 230988.0 139799.0 135515.0 178364.0 180142.0 77087.0 84268.0 150314.0 157564.0 175654.0 177370.0 164849.0 163030.0 142591.0 144709.0 104984.0 112460.0 45894.0 50515.0 69739.0 62154.0 133633.0 129695.0 119748.0 111682.0 202626.0 197389.0 150110.0 156268.0 44158.0 35983.0 66938.0 74871.0 123228.0 120196.0 110693.0 103786.0 102322.0 109062.0 97865.0 104736.0 155671.0 89876.0 155671.0 155671.0 155671.0 155671.0 155671.0 155671.0 155671.0 155671.0 155671.0 89876.0 89876.0 89876.0 89876.0 89876.0 89876.0 89876.0 89876.0 89876.0
237309.0 234750.0 143751.0 137465.0 133683.0 141689.0 187364.0 194553.0 221997.0 227176.0 127140.0 120347.0 140571.0 138008.0 52132.0 54954.0 281454.0 274853.0 250454.0 253793.0 31851.0 31470.0 112971.0 117740.0 303774.0 298825.0 355129.0 347194.0 23189.0 18996.0 12431.0 19535.0 245596.0 241451.0 180629.0 174238.0 0.0 7927.0 361462.0 360333.0 148345.0 140155.0 14177.0 8764.0 116010.0 108788.0 297859.0 302907.0 25547.0 17873.0 18777.0 26267.0 192234.0 186094.0 87935.0 81246.0 128371.0 124669.0 116410.0 123169.0 137163.0 143512.0 147992.0 147468.0 30719.0 23756.0 28077.0 20325.0 142143.0 149035.0 122685.0 118506.0 253659.0 255840.0 79936.0 81908.0 79829.0 71769.0 108280.0 100942.0 64505.0 192835.0 64505.0 64505.0 64505.0 64505.0 64505.0 64505.0 64505.0 64505.0 64505.0 192835.0 192835.0 192835.0 192835.0 192835.0 192835.0 192835.0 192835.0 192835.0
230262.0 227826.0 139022.0 132525.0 129418.0 137374.0 186388.0 193718.0 220150.0 225113.0 124583.0 118069.0 132867.0 130212.0 45155.0 47480.0 280485.0 273772.0 244446.0 247933.0 24343.0 25025.0 108610.0 112997.0 303189.0 298074.0 354969.0 347070.0 16390.0 11157.0 6880.0 15070.0 244425.0 240062.0 177391.0 170809.0 7927.0 0.0 361378.0 360250.0 140620.0 132462.0 21991.0 16558.0 110317.0 102933.0 297249.0 302461.0 32767.0 25480.0 23799.0 31391.0 184699.0 178486.0 81589.0 74670.0 125072.0 121786.0 111203.0 118152.0 129490.0 135919.0 140595.0 140243.0 32058.0 26682.0 29373.0 21744.0 137419.0 144523.0 117358.0 112852.0 253575.0 255592.0 73562.0 76036.0 74324.0 66292.0 101697.0 94191.0 68264.0 192751.0 68264.0 68264.0 68264.0 68264.0 68264.0 68264.0 68264.0 68264.0 68264.0 192751.0 192751.0 192751.0 192751.0 192751.0 192751.0 192751.0 192751.0 192751.0
356640.0 348609.0 275568.0 282412.0 271602.0 268451.0 183896.0 175895.0 172044.0 173777.0 252006.0 254510.0 370136.0 376546.0 388646.0 384174.0 112594.0 119702.0 305345.0 298981.0 354485.0 346660.0 284277.0 287561.0 88254.0 96259.0 38726.0 42065.0 372053.0 364098.0 355166.0 347686.0 140943.0 148788.0 226890.0 234347.0 361462.0 361378.0 0.0 8049.0 373979.0 369290.0 359656.0 364195.0 305111.0 310543.0 92301.0 84272.0 352437.0 357087.0 346019.0 341162.0 373762.0 377064.0 325576.0 331249.0 260160.0 257577.0 295959.0 289755.0 367200.0 363769.0 354059.0 346006.0 392181.0 384848.0 333453.0 341145.0 276147.0 268889.0 295707.0 303523.0 112304.0 114280.0 328289.0 320230.0 316323.0 319779.0 325974.0 331000.0 327097.0 170417.0 327097.0 327097.0 327097.0 327097.0 327097.0 327097.0 327097.0 327097.0 327097.0 170417.0 170417.0 170417.0 170417.0 170417.0 170417.0 170417.0 170417.0 170417.0
351541.0 343513.0 272567.0 279515.0 268969.0 265611.0 181736.0 173716.0 168231.0 169640.0 250105.0 252846.0 367044.0 373547.0 387691.0 383080.0 107439.0 114706.0 299757.0 293307.0 353356.0 345532.0 282099.0 285182.0 82487.0 90537.0 30736.0 34444.0 370924.0 362970.0 354038.0 346557.0 136986.0 144746.0 223443.0 230988.0 360333.0 360250.0 8049.0 0.0 370747.0 366201.0 358528.0 363066.0 302585.0 308163.0 86816.0 78762.0 351308.0 355958.0 344890.0 340033.0 369637.0 373083.0 323618.0 329422.0 257956.0 255601.0 293511.0 287186.0 364163.0 360581.0 350736.0 342668.0 391052.0 383719.0 332324.0 340017.0 273187.0 265813.0 293087.0 300944.0 109874.0 111300.0 326511.0 318468.0 314659.0 318295.0 323520.0 328702.0 325969.0 168223.0 325969.0 325969.0 325969.0 325969.0 325969.0 325969.0 325969.0 325969.0 325969.0 168223.0 168223.0 168223.0 168223.0 168223.0 168223.0 168223.0 168223.0 168223.0
100349.0 100918.0 98805.0 92561.0 105187.0 106635.0 193127.0 200735.0 203250.0 203206.0 132531.0 134310.0 7946.0 12001.0 112547.0 104866.0 268473.0 260722.0 137236.0 143668.0 116577.0 118938.0 99953.0 93577.0 295058.0 287645.0 355918.0 347740.0 130869.0 130548.0 136561.0 132355.0 234548.0 227158.0 147454.0 139799.0 148345.0 140620.0 373979.0 370747.0 0.0 8540.0 161333.0 157104.0 75455.0 73746.0 289382.0 296837.0 168610.0 163747.0 155142.0 159796.0 46408.0 38994.0 75234.0 76955.0 120894.0 126498.0 84949.0 88751.0 11804.0 10427.0 20468.0 28497.0 159129.0 160049.0 145570.0 145074.0 98401.0 105230.0 82516.0 75969.0 262214.0 259709.0 80194.0 84851.0 90265.0 94739.0 59633.0 60697.0 177758.0 217268.0 177758.0 177758.0 177758.0 177758.0 177758.0 177758.0 177758.0 177758.0 177758.0 217268.0 217268.0 217268.0 217268.0 217268.0 217268.0 217268.0 217268.0 217268.0
105878.0 105925.0 93759.0 87179.0 99317.0 101255.0 187639.0 195329.0 199192.0 199452.0 125862.0 127329.0 867.0 8532.0 105475.0 97684.0 264741.0 256993.0 139906.0 146072.0 108350.0 110571.0 92958.0 86862.0 291276.0 283950.0 351927.0 343730.0 123007.0 122490.0 128306.0 123994.0 230415.0 223128.0 143281.0 135515.0 140155.0 132462.0 369290.0 366201.0 8540.0 0.0 153057.0 148918.0 68588.0 66366.0 285550.0 292922.0 160216.0 155425.0 146722.0 151327.0 53423.0 46438.0 66863.0 68450.0 114468.0 119811.0 78161.0 82397.0 3281.0 7406.0 19156.0 26320.0 151551.0 152267.0 137065.0 136626.0 93245.0 100403.0 76152.0 69288.0 257304.0 255016.0 71708.0 76475.0 81911.0 86274.0 51850.0 52477.0 169228.0 211139.0 169228.0 169228.0 169228.0 169228.0 169228.0 169228.0 169228.0 169228.0 169228.0 211139.0 211139.0 211139.0 211139.0 211139.0 211139.0 211139.0 211139.0 211139.0
248499.0 245662.0 150461.0 144609.0 139588.0 147635.0 186953.0 193857.0 223032.0 228589.0 129970.0 122739.0 153502.0 151223.0 65974.0 69071.0 280750.0 274365.0 259380.0 262408.0 44834.0 42906.0 119218.0 124650.0 302341.0 297696.0 353323.0 345388.0 37128.0 33135.0 24808.0 29663.0 245337.0 241596.0 184372.0 178364.0 14177.0 21991.0 359656.0 358528.0 161333.0 153057.0 0.0 7456.0 124715.0 117853.0 296481.0 301228.0 12504.0 4241.0 13903.0 18831.0 204655.0 198714.0 98096.0 91901.0 132540.0 128113.0 124195.0 130549.0 150012.0 156135.0 160114.0 159188.0 35920.0 27475.0 28321.0 22332.0 148853.0 155308.0 130652.0 127119.0 251853.0 254053.0 90224.0 91250.0 88534.0 80545.0 118764.0 111801.0 57108.0 191029.0 57108.0 57108.0 57108.0 57108.0 57108.0 57108.0 57108.0 57108.0 57108.0 191029.0 191029.0 191029.0 191029.0 191029.0 191029.0 191029.0 191029.0 191029.0
245878.0 243256.0 150787.0 144675.0 140364.0 148396.0 190926.0 197960.0 226370.0 231752.0 132360.0 125335.0 149332.0 146748.0 59056.0 62522.0 284895.0 278414.0 258383.0 261615.0 40611.0 39944.0 119775.0 124832.0 306805.0 302030.0 357861.0 349926.0 30433.0 27357.0 20997.0 27424.0 249274.0 245351.0 186354.0 180142.0 8764.0 16558.0 364195.0 363066.0 157104.0 148918.0 7456.0 0.0 123800.0 116698.0 300920.0 305795.0 19957.0 11696.0 18404.0 24764.0 200985.0 194855.0 96180.0 89627.0 134249.0 130191.0 123854.0 130460.0 145926.0 152272.0 156710.0 156126.0 29382.0 21190.0 31237.0 24133.0 149178.0 155891.0 130207.0 126265.0 256391.0 258562.0 88209.0 89878.0 87567.0 79515.0 116638.0 109395.0 63495.0 195567.0 63495.0 63495.0 63495.0 63495.0 63495.0 63495.0 63495.0 63495.0 63495.0 195567.0 195567.0 195567.0 195567.0 195567.0 195567.0 195567.0 195567.0 195567.0
129699.0 125422.0 34867.0 26981.0 33806.0 38665.0 121567.0 129478.0 139456.0 141396.0 57312.0 58859.0 69451.0 74279.0 108732.0 101237.0 205551.0 197927.0 134667.0 137815.0 88636.0 85410.0 24539.0 18360.0 231527.0 224716.0 290727.0 282493.0 109526.0 104608.0 103900.0 96501.0 169681.0 163045.0 85046.0 77087.0 116010.0 110317.0 305111.0 302585.0 75455.0 68588.0 124715.0 123800.0 0.0 8006.0 225615.0 232513.0 126827.0 125316.0 113519.0 114977.0 99949.0 97635.0 31013.0 38933.0 46303.0 51257.0 9609.0 15469.0 65814.0 65214.0 59738.0 53548.0 139500.0 136298.0 99767.0 103142.0 33563.0 41999.0 10152.0 2646.0 192815.0 191421.0 38475.0 34349.0 36237.0 44285.0 21103.0 27654.0 120994.0 143177.0 120994.0 120994.0 120994.0 120994.0 120994.0 120994.0 120994.0 120994.0 120994.0 143177.0 143177.0 143177.0 143177.0 143177.0 143177.0 143177.0 143177.0 143177.0
134474.0 130531.0 42569.0 34731.0 40218.0 45745.0 126737.0 134703.0 146094.0 148268.0 60791.0 61344.0 67213.0 71337.0 100731.0 93248.0 212099.0 204508.0 141687.0 145022.0 80949.0 77960.0 27289.0 22983.0 237945.0 231223.0 296825.0 288592.0 101754.0 96971.0 96595.0 89325.0 176060.0 169552.0 92186.0 84268.0 108788.0 102933.0 310543.0 308163.0 73746.0 66366.0 117853.0 116698.0 8006.0 0.0 232012.0 238821.0 120412.0 118599.0 106976.0 108757.0 101770.0 98823.0 23022.0 30938.0 50713.0 54771.0 14858.0 22139.0 63407.0 63793.0 59701.0 54305.0 131814.0 128758.0 93490.0 96522.0 41211.0 49619.0 17698.0 10644.0 198310.0 197157.0 30566.0 26901.0 29358.0 37308.0 15697.0 20785.0 116316.0 147199.0 116316.0 116316.0 116316.0 116316.0 116316.0 116316.0 116316.0 116316.0 116316.0 147199.0 147199.0 147199.0 147199.0 147199.0 147199.0 147199.0 147199.0 147199.0
264813.0 256788.0 193228.0 200672.0 191867.0 187306.0 111234.0 103659.0 86555.0 86183.0 178444.0 182879.0 286368.0 293292.0 320269.0 314683.0 21170.0 28846.0 213045.0 206686.0 287746.0 280357.0 207694.0 209396.0 6004.0 5370.0 66796.0 58739.0 306670.0 298916.0 290808.0 283035.0 55953.0 62682.0 142423.0 150314.0 297859.0 297249.0 92301.0 86816.0 289382.0 285550.0 296481.0 300920.0 225615.0 232012.0 0.0 8055.0 289269.0 293916.0 282812.0 277978.0 284801.0 288698.0 249977.0 256577.0 183906.0 183224.0 217154.0 210177.0 283781.0 279483.0 269056.0 260968.0 328548.0 321410.0 269992.0 277605.0 194070.0 186149.0 215676.0 223676.0 48826.0 43700.0 254056.0 246250.0 243198.0 248064.0 246713.0 252798.0 263929.0 110557.0 263929.0 263929.0 263929.0 263929.0 263929.0 263929.0 263929.0 263929.0 263929.0 110557.0 110557.0 110557.0 110557.0 110557.0 110557.0 110557.0 110557.0 110557.0
272862.0 264837.0 200371.0 207764.0 198732.0 194313.0 116919.0 109215.0 93785.0 93702.0 184605.0 188844.0 293743.0 300623.0 326201.0 320715.0 29054.0 36644.0 221082.0 214709.0 293411.0 285951.0 214258.0 216129.0 5370.0 12310.0 59138.0 51018.0 312146.0 304349.0 296071.0 288354.0 62869.0 69855.0 149706.0 157564.0 302907.0 302461.0 84272.0 78762.0 296837.0 292922.0 301228.0 305795.0 232513.0 238821.0 8055.0 0.0 294041.0 298691.0 287619.0 282766.0 292645.0 296492.0 256517.0 263034.0 190378.0 189487.0 223968.0 217059.0 291122.0 286903.0 276537.0 268448.0 333617.0 326390.0 274971.0 282621.0 201187.0 193323.0 222614.0 230607.0 51548.0 47485.0 260465.0 252621.0 249476.0 254209.0 253616.0 259602.0 268701.0 114448.0 268701.0 268701.0 268701.0 268701.0 268701.0 268701.0 268701.0 268701.0 268701.0 114448.0 114448.0 114448.0 114448.0 114448.0 114448.0 114448.0 114448.0 114448.0
252954.0 249766.0 150338.0 144958.0 138771.0 146796.0 180431.0 187092.0 217522.0 223369.0 126453.0 118916.0 160709.0 158924.0 77672.0 80247.0 273769.0 267556.0 261123.0 263806.0 53254.0 49712.0 118925.0 124940.0 295123.0 290535.0 346104.0 338169.0 48726.0 43794.0 33792.0 36358.0 238759.0 235338.0 181291.0 175654.0 25547.0 32767.0 352437.0 351308.0 168610.0 160216.0 12504.0 19957.0 126827.0 120412.0 289269.0 294041.0 0.0 8263.0 13747.0 12650.0 210917.0 205297.0 102081.0 96527.0 130180.0 125150.0 125360.0 131247.0 157097.0 162845.0 166073.0 164599.0 47623.0 39084.0 27175.0 24291.0 148742.0 154728.0 131944.0 129113.0 244634.0 246834.0 94463.0 94450.0 91118.0 83364.0 122891.0 116432.0 46895.0 183810.0 46895.0 46895.0 46895.0 46895.0 46895.0 46895.0 46895.0 46895.0 46895.0 183810.0 183810.0 183810.0 183810.0 183810.0 183810.0 183810.0 183810.0 183810.0
249968.0 247009.0 150323.0 144627.0 139206.0 147252.0 184689.0 191515.0 221117.0 226773.0 128671.0 121331.0 155888.0 153780.0 69918.0 72822.0 278356.0 272027.0 259925.0 262837.0 47503.0 44958.0 118992.0 124628.0 299761.0 295192.0 350754.0 342819.0 41009.0 36630.0 27564.0 31558.0 243071.0 239436.0 183256.0 177370.0 17873.0 25480.0 357087.0 355958.0 163747.0 155425.0 4241.0 11696.0 125316.0 118599.0 293916.0 298691.0 8263.0 0.0 12542.0 15940.0 206733.0 200901.0 99308.0 93327.0 131631.0 126997.0 124471.0 130672.0 152353.0 158349.0 162070.0 160953.0 39827.0 31327.0 27323.0 22261.0 148718.0 155019.0 130978.0 127682.0 249283.0 251483.0 91512.0 92178.0 89242.0 81317.0 120053.0 113257.0 53539.0 188460.0 53539.0 53539.0 53539.0 53539.0 53539.0 53539.0 53539.0 53539.0 53539.0 188460.0 188460.0 188460.0 188460.0 188460.0 188460.0 188460.0 188460.0 188460.0
239243.0 236091.0 137939.0 132329.0 126727.0 134771.0 173120.0 180059.0 209128.0 214690.0 116238.0 108950.0 147227.0 145596.0 68600.0 70131.0 266971.0 260558.0 247999.0 250805.0 40750.0 36449.0 106577.0 112317.0 288684.0 283984.0 339686.0 331751.0 40146.0 33806.0 22537.0 23343.0 231501.0 227726.0 170763.0 164849.0 18777.0 23799.0 346019.0 344890.0 155142.0 146722.0 13903.0 18404.0 113519.0 106976.0 282812.0 287619.0 13747.0 12542.0 0.0 7611.0 197233.0 191660.0 88378.0 82783.0 119095.0 114500.0 112370.0 118451.0 143586.0 149247.0 152365.0 150856.0 47583.0 39551.0 14782.0 10567.0 136335.0 142568.0 118913.0 115843.0 238216.0 240415.0 80736.0 80848.0 77639.0 69819.0 109185.0 102691.0 45843.0 177392.0 45843.0 45843.0 45843.0 45843.0 45843.0 45843.0 45843.0 45843.0 45843.0 177392.0 177392.0 177392.0 177392.0 177392.0 177392.0 177392.0 177392.0 177392.0
241984.0 238613.0 137849.0 132562.0 126192.0 134210.0 168842.0 175632.0 205509.0 211256.0 113898.0 106404.0 151860.0 150539.0 76046.0 77360.0 262450.0 256141.0 249007.0 251591.0 47041.0 41961.0 106434.0 112555.0 283822.0 279260.0 334828.0 326894.0 47712.0 41218.0 29754.0 29454.0 227217.0 223641.0 168701.0 163030.0 26267.0 31391.0 341162.0 340033.0 159796.0 151327.0 18831.0 24764.0 114977.0 108757.0 277978.0 282766.0 12650.0 15940.0 7611.0 0.0 201168.0 195806.0 91209.0 86080.0 117533.0 112534.0 113198.0 118949.0 148153.0 153563.0 156200.0 154347.0 54146.0 45892.0 15289.0 14943.0 136256.0 142169.0 119806.0 117213.0 233358.0 235558.0 83793.0 83207.0 79603.0 72012.0 111993.0 105861.0 38771.0 172534.0 38771.0 38771.0 38771.0 38771.0 38771.0 38771.0 38771.0 38771.0 38771.0 172534.0 172534.0 172534.0 172534.0 172534.0 172534.0 172534.0 172534.0 172534.0
56380.0 58724.0 109576.0 106027.0 120352.0 118625.0 201195.0 208026.0 201894.0 200010.0 151224.0 155205.0 53230.0 58324.0 158839.0 151086.0 263632.0 256001.0 103224.0 110588.0 160395.0 161794.0 122986.0 115222.0 290094.0 282270.0 351489.0 343509.0 176040.0 175090.0 180126.0 175176.0 232827.0 224975.0 149120.0 142591.0 192234.0 184699.0 373762.0 369637.0 46408.0 53423.0 204655.0 200985.0 99949.0 101770.0 284801.0 292645.0 210917.0 206733.0 197233.0 201168.0 0.0 8425.0 111567.0 115469.0 138537.0 145635.0 107904.0 108545.0 56009.0 48914.0 45004.0 48038.0 204883.0 205387.0 186351.0 186859.0 109869.0 114026.0 103066.0 99252.0 264841.0 260979.0 118151.0 120776.0 125661.0 131744.0 91965.0 96354.0 215326.0 229147.0 215326.0 215326.0 215326.0 215326.0 215326.0 215326.0 215326.0 215326.0 215326.0 229147.0 229147.0 229147.0 229147.0 229147.0 229147.0 229147.0 229147.0 229147.0
64804.0 67094.0 109921.0 105831.0 120035.0 118867.0 202708.0 209703.0 205045.0 203463.0 150528.0 154120.0 46166.0 50757.0 151539.0 143857.0 267531.0 259865.0 110901.0 118177.0 154243.0 155944.0 121237.0 113647.0 294062.0 286291.0 355457.0 347435.0 169403.0 168702.0 174081.0 169357.0 236138.0 228340.0 151483.0 144709.0 186094.0 178486.0 377064.0 373083.0 38994.0 46438.0 198714.0 194855.0 97635.0 98823.0 288698.0 296492.0 205297.0 200901.0 191660.0 195806.0 8425.0 0.0 107093.0 110553.0 137941.0 144817.0 105992.0 107228.0 49203.0 42588.0 40314.0 44545.0 197976.0 198690.0 181128.0 181360.0 110092.0 114788.0 101529.0 97150.0 267494.0 263856.0 113376.0 116458.0 121489.0 127261.0 88059.0 91865.0 210954.0 230070.0 210954.0 210954.0 210954.0 210954.0 210954.0 210954.0 210954.0 210954.0 210954.0 230070.0 230070.0 230070.0 230070.0 230070.0 230070.0 230070.0 230070.0 230070.0
150875.0 147738.0 64825.0 57157.0 60171.0 66754.0 141938.0 149964.0 165022.0 167816.0 73578.0 71736.0 67596.0 69255.0 77878.0 70521.0 230539.0 223062.0 163009.0 166717.0 58734.0 56589.0 42290.0 41664.0 255954.0 249503.0 313798.0 305585.0 79211.0 74848.0 75556.0 68795.0 194150.0 188019.0 112741.0 104984.0 87935.0 81589.0 325576.0 323618.0 75234.0 66863.0 98096.0 96180.0 31013.0 23022.0 249977.0 256517.0 102081.0 99308.0 88378.0 91209.0 111567.0 107093.0 0.0 7924.0 66183.0 68017.0 35697.0 43474.0 63595.0 66826.0 66793.0 63820.0 109464.0 106834.0 76012.0 77811.0 63375.0 71640.0 40189.0 33657.0 213865.0 213381.0 8031.0 9617.0 15059.0 20182.0 20811.0 15231.0 103862.0 159119.0 103862.0 103862.0 103862.0 103862.0 103862.0 103862.0 103862.0 103862.0 103862.0 159119.0 159119.0 159119.0 159119.0 159119.0 159119.0 159119.0 159119.0 159119.0
156641.0 153763.0 72661.0 65026.0 67630.0 74376.0 147907.0 155927.0 171967.0 174924.0 79333.0 76900.0 69126.0 69891.0 69988.0 62676.0 237289.0 229849.0 170306.0 174133.0 51406.0 49787.0 49116.0 49095.0 262563.0 256193.0 320067.0 311864.0 71636.0 67525.0 68824.0 62373.0 200832.0 194812.0 120169.0 112460.0 81246.0 74670.0 331249.0 329422.0 76955.0 68450.0 91901.0 89627.0 38933.0 30938.0 256577.0 263034.0 96527.0 93327.0 82783.0 86080.0 115469.0 110553.0 7924.0 0.0 72671.0 73961.0 43464.0 51240.0 65170.0 69249.0 70476.0 68277.0 101966.0 99559.0 71054.0 72243.0 71199.0 79430.0 48086.0 41577.0 219794.0 219507.0 3612.0 11317.0 16293.0 18113.0 27039.0 19933.0 100912.0 164086.0 100912.0 100912.0 100912.0 100912.0 100912.0 100912.0 100912.0 100912.0 100912.0 164086.0 164086.0 164086.0 164086.0 164086.0 164086.0 164086.0 164086.0 164086.0
155306.0 149308.0 31650.0 32837.0 18553.0 23289.0 76265.0 84270.0 99787.0 103326.0 12758.0 18511.0 115335.0 120477.0 138531.0 132259.0 164689.0 157292.0 142523.0 143183.0 109413.0 103268.0 24149.0 28009.0 189892.0 183548.0 247633.0 239417.0 130149.0 123282.0 118193.0 110003.0 128190.0 122282.0 52319.0 45894.0 128371.0 125072.0 260160.0 257956.0 120894.0 114468.0 132540.0 134249.0 46303.0 50713.0 183906.0 190378.0 130180.0 131631.0 119095.0 117533.0 138537.0 137941.0 66183.0 72671.0 0.0 7938.0 36734.0 32145.0 111816.0 110506.0 103513.0 96341.0 156982.0 151596.0 104332.0 110399.0 30708.0 31289.0 38378.0 45279.0 148090.0 147336.0 70180.0 62459.0 59795.0 65544.0 66367.0 70887.0 112043.0 96878.0 112043.0 112043.0 112043.0 112043.0 112043.0 112043.0 112043.0 112043.0 112043.0 96878.0 96878.0 96878.0 96878.0 96878.0 96878.0 96878.0 96878.0 96878.0
163200.0 157226.0 39549.0 40378.0 26255.0 31225.0 73960.0 81982.0 100443.0 104532.0 6057.0 10574.0 120676.0 125509.0 137752.0 131792.0 164432.0 157158.0 150178.0 150716.0 107363.0 100840.0 27504.0 32950.0 189225.0 183098.0 246168.0 237974.0 127769.0 120660.0 114928.0 106740.0 127848.0 122294.0 56264.0 50515.0 124669.0 121786.0 257577.0 255601.0 126498.0 119811.0 128113.0 130191.0 51257.0 54771.0 183224.0 189487.0 125150.0 126997.0 114500.0 112534.0 145635.0 144817.0 68017.0 73961.0 7938.0 0.0 41660.0 38101.0 117064.0 116164.0 109639.0 102655.0 153813.0 148120.0 99807.0 106171.0 38573.0 39180.0 44218.0 50547.0 145873.0 145552.0 71201.0 63254.0 59989.0 64976.0 70455.0 74248.0 105770.0 92464.0 105770.0 105770.0 105770.0 105770.0 105770.0 105770.0 105770.0 105770.0 105770.0 92464.0 92464.0 92464.0 92464.0 92464.0 92464.0 92464.0 92464.0 92464.0
134772.0 130070.0 29283.0 21878.0 25388.0 31259.0 112271.0 120208.0 131257.0 133497.0 47714.0 49435.0 79024.0 83888.0 113359.0 106129.0 197246.0 189658.0 135812.0 138453.0 90674.0 86654.0 15340.0 8753.0 223087.0 216367.0 282003.0 273770.0 111816.0 106360.0 104591.0 96890.0 161202.0 154697.0 77610.0 69739.0 116410.0 111203.0 295959.0 293511.0 84949.0 78161.0 124195.0 123854.0 9609.0 14858.0 217154.0 223968.0 125360.0 124471.0 112370.0 113198.0 107904.0 105992.0 35697.0 43464.0 36734.0 41660.0 0.0 7778.0 75405.0 74669.0 68815.0 62334.0 141313.0 137577.0 98186.0 102210.0 27787.0 35967.0 6654.0 9070.0 183687.0 182434.0 42258.0 36590.0 37059.0 44987.0 30016.0 35644.0 116844.0 133594.0 116844.0 116844.0 116844.0 116844.0 116844.0 116844.0 116844.0 116844.0 116844.0 133594.0 133594.0 133594.0 133594.0 133594.0 133594.0 133594.0 133594.0 133594.0
132179.0 127123.0 21588.0 14426.0 18337.0 23631.0 106374.0 114251.0 124087.0 126159.0 44048.0 46939.0 83264.0 88591.0 121115.0 113900.0 190153.0 182541.0 130350.0 132693.0 98014.0 93774.0 15440.0 7401.0 216094.0 209306.0 275258.0 267023.0 119190.0 113595.0 111483.0 103687.0 154236.0 147631.0 70059.0 62154.0 123169.0 118152.0 289755.0 287186.0 88751.0 82397.0 130549.0 130460.0 15469.0 22139.0 210177.0 217059.0 131247.0 130672.0 118451.0 118949.0 108545.0 107228.0 43474.0 51240.0 32145.0 38101.0 7778.0 0.0 79796.0 78361.0 71546.0 64570.0 148526.0 144624.0 104091.0 108426.0 20068.0 28197.0 6245.0 13770.0 177451.0 175993.0 50000.0 44166.0 44324.0 52139.0 36566.0 42796.0 121091.0 128765.0 121091.0 121091.0 121091.0 121091.0 121091.0 121091.0 121091.0 121091.0 121091.0 128765.0 128765.0 128765.0 128765.0 128765.0 128765.0 128765.0 128765.0 128765.0
107800.0 107642.0 91633.0 84936.0 96878.0 98996.0 185293.0 193010.0 197361.0 197734.0 123118.0 124477.0 4004.0 9542.0 103074.0 95236.0 263012.0 255267.0 140674.0 146731.0 105341.0 107474.0 90116.0 84125.0 289524.0 282231.0 350091.0 341888.0 120200.0 119576.0 125277.0 120900.0 228547.0 221301.0 141435.0 133633.0 137163.0 129490.0 367200.0 364163.0 11804.0 3281.0 150012.0 145926.0 65814.0 63407.0 283781.0 291122.0 157097.0 152353.0 143586.0 148153.0 56009.0 49203.0 63595.0 65170.0 111816.0 117064.0 75405.0 79796.0 0.0 8186.0 19246.0 25785.0 148881.0 149494.0 133862.0 133469.0 91078.0 98351.0 73555.0 66582.0 255149.0 252939.0 68426.0 73206.0 78646.0 82993.0 48763.0 49248.0 165956.0 208560.0 165956.0 165956.0 165956.0 165956.0 165956.0 165956.0 165956.0 165956.0 165956.0 208560.0 208560.0 208560.0 208560.0 208560.0 208560.0 208560.0 208560.0 208560.0
99785.0 99522.0 88468.0 82166.0 94760.0 96244.0 182733.0 190353.0 193247.0 193330.0 122191.0 124071.0 7946.0 15885.0 110750.0 102856.0 258616.0 250865.0 132650.0 138768.0 111661.0 113397.0 89740.0 83266.0 285181.0 277807.0 345957.0 337770.0 127132.0 126210.0 131493.0 126818.0 224520.0 217170.0 137393.0 129695.0 143512.0 135919.0 363769.0 360581.0 10427.0 7406.0 156135.0 152272.0 65214.0 63793.0 279483.0 286903.0 162845.0 158349.0 149247.0 153563.0 48914.0 42588.0 66826.0 69249.0 110506.0 116164.0 74669.0 78361.0 8186.0 0.0 11796.0 19244.0 156104.0 156490.0 139049.0 139010.0 88043.0 94946.0 72131.0 65663.0 251937.0 249492.0 72326.0 76420.0 81741.0 86683.0 50121.0 51928.0 170149.0 206844.0 170149.0 170149.0 170149.0 170149.0 170149.0 170149.0 170149.0 170149.0 170149.0 206844.0 206844.0 206844.0 206844.0 206844.0 206844.0 206844.0 206844.0 206844.0
91657.0 90705.0 79498.0 73695.0 86923.0 87668.0 174039.0 181542.0 183033.0 182873.0 115593.0 118118.0 19735.0 27671.0 118479.0 110459.0 248119.0 240368.0 121630.0 127596.0 116252.0 117209.0 84131.0 77114.0 274715.0 267278.0 335638.0 327468.0 132926.0 131360.0 135761.0 130534.0 214353.0 206919.0 127331.0 119748.0 147992.0 140595.0 354059.0 350736.0 20468.0 19156.0 160114.0 156710.0 59738.0 59701.0 269056.0 276537.0 166073.0 162070.0 152365.0 156200.0 45004.0 40314.0 66793.0 70476.0 103513.0 109639.0 68815.0 71546.0 19246.0 11796.0 0.0 8090.0 162478.0 162323.0 141355.0 141954.0 79218.0 85672.0 65429.0 59751.0 242495.0 239828.0 73200.0 76144.0 81185.0 86969.0 47905.0 51562.0 170653.0 199028.0 170653.0 170653.0 170653.0 170653.0 170653.0 170653.0 170653.0 170653.0 170653.0 199028.0 199028.0 199028.0 199028.0 199028.0 199028.0 199028.0 199028.0 199028.0
90432.0 88785.0 71655.0 66023.0 79451.0 79933.0 166204.0 173675.0 174945.0 174785.0 108563.0 111372.0 26995.0 34826.0 120612.0 112526.0 240034.0 232283.0 116776.0 122470.0 115953.0 116342.0 77674.0 70427.0 266629.0 259196.0 327549.0 319378.0 133444.0 131397.0 135131.0 129530.0 206266.0 198830.0 119254.0 111682.0 147468.0 140243.0 346006.0 342668.0 28497.0 26320.0 159188.0 156126.0 53548.0 54305.0 260968.0 268448.0 164599.0 160953.0 150856.0 154347.0 48038.0 44545.0 63820.0 68277.0 96341.0 102655.0 62334.0 64570.0 25785.0 19244.0 8090.0 0.0 163346.0 162768.0 139328.0 140362.0 71419.0 77741.0 58548.0 53324.0 234486.0 231784.0 70725.0 72878.0 77680.0 83945.0 43938.0 48706.0 167380.0 191448.0 167380.0 167380.0 167380.0 167380.0 167380.0 167380.0 167380.0 167380.0 167380.0 191448.0 191448.0 191448.0 191448.0 191448.0 191448.0 191448.0 191448.0 191448.0
253761.0 252015.0 169725.0 162951.0 160679.0 168565.0 217949.0 225183.0 252128.0 257140.0 156640.0 150112.0 151810.0 147804.0 48726.0 55306.0 312053.0 305412.0 272191.0 276095.0 50867.0 54824.0 139838.0 143778.0 334467.0 329486.0 385848.0 377913.0 30421.0 34958.0 38893.0 47075.0 276117.0 271869.0 209293.0 202626.0 30719.0 32058.0 392181.0 391052.0 159129.0 151551.0 35920.0 29382.0 139500.0 131814.0 328548.0 333617.0 47623.0 39827.0 47583.0 54146.0 204883.0 197976.0 109464.0 101966.0 156982.0 153813.0 141313.0 148526.0 148881.0 156104.0 162478.0 163346.0 0.0 8543.0 58761.0 51038.0 168132.0 175481.0 147221.0 142101.0 284377.0 286559.0 101517.0 105220.0 104256.0 96387.0 128449.0 120426.0 92852.0 223554.0 92852.0 92852.0 92852.0 92852.0 92852.0 92852.0 92852.0 92852.0 92852.0 223554.0 223554.0 223554.0 223554.0 223554.0 223554.0 223554.0 223554.0 223554.0
253178.0 251169.0 165602.0 159022.0 156095.0 164045.0 211049.0 218201.0 245746.0 250902.0 150724.0 144011.0 152572.0 148959.0 52126.0 57924.0 305120.0 298546.0 269833.0 273532.0 48153.0 50956.0 135281.0 139586.0 327315.0 322426.0 378515.0 370580.0 29401.0 32042.0 33534.0 41674.0 269310.0 265194.0 203906.0 197389.0 23756.0 26682.0 384848.0 383719.0 160049.0 152267.0 27475.0 21190.0 136298.0 128758.0 321410.0 326390.0 39084.0 31327.0 39551.0 45892.0 205387.0 198690.0 106834.0 99559.0 151596.0 148120.0 137577.0 144624.0 149494.0 156490.0 162323.0 162768.0 8543.0 0.0 51422.0 43823.0 164000.0 171161.0 143642.0 138867.0 277045.0 279244.0 98821.0 101949.0 100576.0 92594.0 126368.0 118533.0 84514.0 216221.0 84514.0 84514.0 84514.0 84514.0 84514.0 84514.0 84514.0 84514.0 84514.0 216221.0 216221.0 216221.0 216221.0 216221.0 216221.0 216221.0 216221.0 216221.0
226727.0 223332.0 123346.0 117855.0 112013.0 120055.0 159766.0 166853.0 195156.0 200584.0 101654.0 94454.0 137624.0 136628.0 69757.0 69569.0 253787.0 247265.0 233958.0 236631.0 36698.0 30063.0 91954.0 97835.0 275894.0 271026.0 327120.0 319185.0 43775.0 36032.0 24611.0 20220.0 218090.0 214127.0 156070.0 150110.0 28077.0 29373.0 333453.0 332324.0 145570.0 137065.0 28321.0 31237.0 99767.0 93490.0 269992.0 274971.0 27175.0 27323.0 14782.0 15289.0 186351.0 181128.0 76012.0 71054.0 104332.0 99807.0 98186.0 104091.0 133862.0 139049.0 141355.0 139328.0 58761.0 51422.0 0.0 7799.0 121746.0 127889.0 104771.0 102024.0 225650.0 227847.0 68676.0 67932.0 64315.0 56728.0 96776.0 90753.0 40422.0 164826.0 40422.0 40422.0 40422.0 40422.0 40422.0 40422.0 40422.0 40422.0 40422.0 164826.0 164826.0 164826.0 164826.0 164826.0 164826.0 164826.0 164826.0 164826.0
228677.0 225526.0 128185.0 122412.0 117256.0 125303.0 167245.0 174381.0 202327.0 207660.0 108256.0 101205.0 137147.0 135705.0 63619.0 64061.0 261304.0 254747.0 237705.0 240587.0 32446.0 27031.0 96909.0 102427.0 283514.0 278605.0 334812.0 326877.0 36711.0 29230.0 17546.0 14953.0 225534.0 221494.0 162385.0 156268.0 20325.0 21744.0 341145.0 340017.0 145074.0 136626.0 22332.0 24133.0 103142.0 96522.0 277605.0 282621.0 24291.0 22261.0 10567.0 14943.0 186859.0 181360.0 77811.0 72243.0 110399.0 106171.0 102210.0 108426.0 133469.0 139010.0 141954.0 140362.0 51038.0 43823.0 7799.0 0.0 126578.0 132988.0 108720.0 105488.0 233342.0 235530.0 70174.0 70311.0 67169.0 59314.0 98619.0 92142.0 47048.0 172518.0 47048.0 47048.0 47048.0 47048.0 47048.0 47048.0 47048.0 47048.0 47048.0 172518.0 172518.0 172518.0 172518.0 172518.0 172518.0 172518.0 172518.0 172518.0
124636.0 118722.0 1610.0 6723.0 12599.0 8775.0 94826.0 102367.0 107547.0 108885.0 43259.0 49083.0 94098.0 100401.0 141138.0 133875.0 173664.0 165974.0 115278.0 116838.0 117815.0 113316.0 29823.0 24423.0 199917.0 192891.0 259862.0 251636.0 139015.0 133257.0 130678.0 122762.0 138349.0 131388.0 52157.0 44158.0 142143.0 137419.0 276147.0 273187.0 98401.0 93245.0 148853.0 149178.0 33563.0 41211.0 194070.0 201187.0 148742.0 148718.0 136335.0 136256.0 109869.0 110092.0 63375.0 71199.0 30708.0 38573.0 27787.0 20068.0 91078.0 88043.0 79218.0 71419.0 168132.0 164000.0 121746.0 126578.0 0.0 8440.0 23517.0 31168.0 164071.0 161915.0 70046.0 64206.0 64148.0 71828.0 53897.0 61095.0 135648.0 120401.0 135648.0 135648.0 135648.0 135648.0 135648.0 135648.0 135648.0 135648.0 135648.0 120401.0 120401.0 120401.0 120401.0 120401.0 120401.0 120401.0 120401.0 120401.0
125027.0 118751.0 7250.0 15120.0 16095.0 8418.0 88641.0 96007.0 99596.0 100741.0 42980.0 49718.0 101248.0 107752.0 149306.0 142095.0 165658.0 157953.0 111712.0 112764.0 125387.0 120662.0 36119.0 31765.0 191976.0 184893.0 252097.0 243877.0 146594.0 140682.0 137740.0 129753.0 130535.0 123484.0 43970.0 35983.0 149035.0 144523.0 268889.0 265813.0 105230.0 100403.0 155308.0 155891.0 41999.0 49619.0 186149.0 193323.0 154728.0 155019.0 142568.0 142169.0 114026.0 114788.0 71640.0 79430.0 31289.0 39180.0 35967.0 28197.0 98351.0 94946.0 85672.0 77741.0 175481.0 171161.0 127889.0 132988.0 8440.0 0.0 31935.0 39608.0 156991.0 154613.0 78182.0 72146.0 71829.0 79375.0 62300.0 69533.0 140215.0 115283.0 140215.0 140215.0 140215.0 140215.0 140215.0 140215.0 140215.0 140215.0 140215.0 115283.0 115283.0 115283.0 115283.0 115283.0 115283.0 115283.0 115283.0 115283.0
128476.0 123674.0 24872.0 17052.0 24118.0 28553.0 112460.0 120317.0 129433.0 131296.0 50194.0 52838.0 77020.0 82368.0 118067.0 110686.0 195552.0 187916.0 129201.0 131893.0 96470.0 92689.0 20035.0 12156.0 221579.0 214730.0 280926.0 272691.0 117547.0 112264.0 110790.0 103154.0 159761.0 153070.0 74900.0 66938.0 122685.0 117358.0 295707.0 293087.0 82516.0 76152.0 130652.0 130207.0 10152.0 17698.0 215676.0 222614.0 131944.0 130978.0 118913.0 119806.0 103066.0 101529.0 40189.0 48086.0 38378.0 44218.0 6654.0 6245.0 73555.0 72131.0 65429.0 58548.0 147221.0 143642.0 104771.0 108720.0 23517.0 31935.0 0.0 8006.0 183404.0 181853.0 47232.0 42146.0 43067.0 51072.0 31084.0 37806.0 123436.0 135005.0 123436.0 123436.0 123436.0 123436.0 123436.0 123436.0 123436.0 123436.0 123436.0 135005.0 135005.0 135005.0 135005.0 135005.0 135005.0 135005.0 135005.0 135005.0
128004.0 123621.0 32440.0 24540.0 32016.0 36545.0 120119.0 128005.0 137439.0 139286.0 56590.0 58489.0 70153.0 75198.0 111358.0 103853.0 203557.0 195921.0 132263.0 135356.0 91239.0 87964.0 24384.0 17608.0 229580.0 222735.0 288895.0 280661.0 112145.0 107200.0 106418.0 98989.0 167757.0 161074.0 82843.0 74871.0 118506.0 112852.0 303523.0 300944.0 75969.0 69288.0 127119.0 126265.0 2646.0 10644.0 223676.0 230607.0 129113.0 127682.0 115843.0 117213.0 99252.0 97150.0 33657.0 41577.0 45279.0 50547.0 9070.0 13770.0 66582.0 65663.0 59751.0 53324.0 142101.0 138867.0 102024.0 105488.0 31168.0 39608.0 8006.0 0.0 191219.0 189737.0 41117.0 36923.0 38699.0 46755.0 23081.0 29943.0 122800.0 142135.0 122800.0 122800.0 122800.0 122800.0 122800.0 122800.0 122800.0 122800.0 122800.0 142135.0 142135.0 142135.0 142135.0 142135.0 142135.0 142135.0 142135.0 142135.0
254276.0 246337.0 163546.0 170260.0 159302.0 156257.0 71927.0 63901.0 64393.0 68623.0 140467.0 143579.0 258155.0 264449.0 279849.0 274838.0 42682.0 41635.0 208977.0 203848.0 246068.0 238368.0 172237.0 175327.0 53969.0 51924.0 101650.0 93637.0 264060.0 256144.0 247351.0 239827.0 37930.0 45342.0 116115.0 123228.0 253659.0 253575.0 112304.0 109874.0 262214.0 257304.0 251853.0 256391.0 192815.0 198310.0 48826.0 51548.0 244634.0 249283.0 238216.0 233358.0 264841.0 267494.0 213865.0 219794.0 148090.0 145873.0 183687.0 177451.0 255149.0 251937.0 242495.0 234486.0 284377.0 277045.0 225650.0 233342.0 164071.0 156991.0 183404.0 191219.0 0.0 8300.0 216947.0 208931.0 205273.0 209238.0 213702.0 218831.0 219294.0 63526.0 219294.0 219294.0 219294.0 219294.0 219294.0 219294.0 219294.0 219294.0 219294.0 63526.0 63526.0 63526.0 63526.0 63526.0 63526.0 63526.0 63526.0 63526.0
248935.0 240967.0 161315.0 168223.0 157737.0 154311.0 71735.0 63769.0 59505.0 63021.0 140314.0 143854.0 255861.0 262301.0 280730.0 275532.0 35143.0 33554.0 202710.0 197427.0 247337.0 239739.0 171470.0 174202.0 49217.0 46193.0 100780.0 92635.0 265679.0 257816.0 249277.0 241650.0 31140.0 38881.0 112860.0 120196.0 255840.0 255592.0 114280.0 111300.0 259709.0 255016.0 254053.0 258562.0 191421.0 197157.0 43700.0 47485.0 246834.0 251483.0 240415.0 235558.0 260979.0 263856.0 213381.0 219507.0 147336.0 145552.0 182434.0 175993.0 252939.0 249492.0 239828.0 231784.0 286559.0 279244.0 227847.0 235530.0 161915.0 154613.0 181853.0 189737.0 8300.0 0.0 216747.0 208776.0 205286.0 209529.0 212414.0 217792.0 221494.0 67000.0 221494.0 221494.0 221494.0 221494.0 221494.0 221494.0 221494.0 221494.0 221494.0 67000.0 67000.0 67000.0 67000.0 67000.0 67000.0 67000.0 67000.0 67000.0
158525.0 155498.0 71538.0 64016.0 65898.0 72839.0 145097.0 153110.0 169690.0 172770.0 76485.0 73845.0 72395.0 73310.0 71128.0 64004.0 234863.0 227449.0 171032.0 174718.0 50743.0 48568.0 46900.0 47387.0 260046.0 253728.0 317363.0 309166.0 71314.0 66850.0 67548.0 60847.0 198370.0 192423.0 118341.0 110693.0 79936.0 73562.0 328289.0 326511.0 80194.0 71708.0 90224.0 88209.0 38475.0 30566.0 254056.0 260465.0 94463.0 91512.0 80736.0 83793.0 118151.0 113376.0 8031.0 3612.0 70180.0 71201.0 42258.0 50000.0 68426.0 72326.0 73200.0 70725.0 101517.0 98821.0 68676.0 70174.0 70046.0 78182.0 47232.0 41117.0 216947.0 216747.0 0.0 8076.0 12777.0 14648.0 28546.0 22077.0 97835.0 160920.0 97835.0 97835.0 97835.0 97835.0 97835.0 97835.0 97835.0 97835.0 97835.0 160920.0 160920.0 160920.0 160920.0 160920.0 160920.0 160920.0 160920.0 160920.0
158814.0 155408.0 65743.0 58466.0 59148.0 66357.0 137103.0 145113.0 162123.0 165336.0 68484.0 65773.0 77206.0 78769.0 77586.0 70733.0 227140.0 219751.0 168547.0 171922.0 54388.0 51082.0 39558.0 40788.0 252244.0 245968.0 309421.0 301228.0 75412.0 70294.0 69696.0 62476.0 190621.0 184741.0 111342.0 103786.0 81908.0 76036.0 320230.0 318468.0 84851.0 76475.0 91250.0 89878.0 34349.0 26901.0 246250.0 252621.0 94450.0 92178.0 80848.0 83207.0 120776.0 116458.0 9617.0 11317.0 62459.0 63254.0 36590.0 44166.0 73206.0 76420.0 76144.0 72878.0 105220.0 101949.0 67932.0 70311.0 64206.0 72146.0 42146.0 36923.0 208931.0 208776.0 8076.0 0.0 5523.0 11261.0 29200.0 24650.0 94554.0 152851.0 94554.0 94554.0 94554.0 94554.0 94554.0 94554.0 94554.0 94554.0 94554.0 152851.0 152851.0 152851.0 152851.0 152851.0 152851.0 152851.0 152851.0 152851.0
162720.0 159132.0 65720.0 58746.0 58077.0 65572.0 133561.0 141552.0 159583.0 163021.0 64998.0 61819.0 82648.0 84276.0 79115.0 72584.0 224272.0 216934.0 170883.0 174049.0 53694.0 49626.0 37814.0 40118.0 249197.0 243017.0 306006.0 297825.0 74879.0 69305.0 67807.0 60303.0 187711.0 181971.0 109738.0 102322.0 79829.0 74324.0 316323.0 314659.0 90265.0 81911.0 88534.0 87567.0 36237.0 29358.0 243198.0 249476.0 91118.0 89242.0 77639.0 79603.0 125661.0 121489.0 15059.0 16293.0 59795.0 59989.0 37059.0 44324.0 78646.0 81741.0 81185.0 77680.0 104256.0 100576.0 64315.0 67169.0 64148.0 71829.0 43067.0 38699.0 205273.0 205286.0 12777.0 5523.0 0.0 8061.0 33796.0 29859.0 89706.0 148561.0 89706.0 89706.0 89706.0 89706.0 89706.0 89706.0 89706.0 89706.0 89706.0 148561.0 148561.0 148561.0 148561.0 148561.0 148561.0 148561.0 148561.0 148561.0
170053.0 166606.0 73412.0 66564.0 65237.0 72880.0 137816.0 145762.0 165175.0 168864.0 69620.0 65687.0 86971.0 87959.0 72989.0 66837.0 229400.0 222134.0 178911.0 182100.0 46013.0 41667.0 44652.0 47611.0 254068.0 248023.0 310306.0 302149.0 67220.0 61461.0 59757.0 52243.0 192813.0 187258.0 116348.0 109062.0 71769.0 66292.0 319779.0 318295.0 94739.0 86274.0 80545.0 79515.0 44285.0 37308.0 248064.0 254209.0 83364.0 81317.0 69819.0 72012.0 131744.0 127261.0 20182.0 18113.0 65544.0 64976.0 44987.0 52139.0 82993.0 86683.0 86969.0 83945.0 96387.0 92594.0 56728.0 59314.0 71828.0 79375.0 51072.0 46755.0 209238.0 209529.0 14648.0 11261.0 8061.0 0.0 40424.0 35411.0 83699.0 151405.0 83699.0 83699.0 83699.0 83699.0 83699.0 83699.0 83699.0 83699.0 83699.0 151405.0 151405.0 151405.0 151405.0 151405.0 151405.0 151405.0 151405.0 151405.0
130064.0 126961.0 55060.0 47184.0 54903.0 59622.0 142255.0 150204.0 160515.0 162355.0 76469.0 76820.0 52674.0 56222.0 92752.0 84895.0 226626.0 218995.0 143775.0 147849.0 78243.0 76826.0 42959.0 38494.0 252623.0 245798.0 311819.0 303584.0 98033.0 94329.0 95860.0 89332.0 190782.0 184132.0 105849.0 97865.0 108280.0 101697.0 325974.0 323520.0 59633.0 51850.0 118764.0 116638.0 21103.0 15697.0 246713.0 253616.0 122891.0 120053.0 109185.0 111993.0 91965.0 88059.0 20811.0 27039.0 66367.0 70455.0 30016.0 36566.0 48763.0 50121.0 47905.0 43938.0 128449.0 126368.0 96776.0 98619.0 53897.0 62300.0 31084.0 23081.0 213702.0 212414.0 28546.0 29200.0 33796.0 40424.0 0.0 8408.0 123494.0 162894.0 123494.0 123494.0 123494.0 123494.0 123494.0 123494.0 123494.0 123494.0 123494.0 162894.0 162894.0 162894.0 162894.0 162894.0 162894.0 162894.0 162894.0 162894.0
136715.0 133892.0 62337.0 54432.0 60985.0 66276.0 147119.0 155110.0 166853.0 168949.0 80159.0 79715.0 53247.0 55659.0 84344.0 76492.0 232876.0 225280.0 151911.0 156070.0 70488.0 69476.0 46904.0 43606.0 258730.0 252004.0 317570.0 309338.0 90004.0 86520.0 88511.0 82229.0 196845.0 190332.0 112690.0 104736.0 100942.0 94191.0 331000.0 328702.0 60697.0 52477.0 111801.0 109395.0 27654.0 20785.0 252798.0 259602.0 116432.0 113257.0 102691.0 105861.0 96354.0 91865.0 15231.0 19933.0 70887.0 74248.0 35644.0 42796.0 49248.0 51928.0 51562.0 48706.0 120426.0 118533.0 90753.0 92142.0 61095.0 69533.0 37806.0 29943.0 218831.0 217792.0 22077.0 24650.0 29859.0 35411.0 8408.0 0.0 119091.0 166617.0 119091.0 119091.0 119091.0 119091.0 119091.0 119091.0 119091.0 119091.0 119091.0 166617.0 166617.0 166617.0 166617.0 166617.0 166617.0 166617.0 166617.0 166617.0
250648.0 246410.0 137159.0 133236.0 124185.0 131866.0 155178.0 161762.0 192960.0 199086.0 105814.0 97865.0 169876.0 169977.0 110171.0 109736.0 248445.0 242216.0 250760.0 252484.0 76270.0 68795.0 106667.0 113965.0 269783.0 265195.0 320764.0 312829.0 83749.0 76242.0 64593.0 60608.0 213451.0 210164.0 160498.0 155671.0 64505.0 68264.0 327097.0 325969.0 177758.0 169228.0 57108.0 63495.0 120994.0 116316.0 263929.0 268701.0 46895.0 53539.0 45843.0 38771.0 215326.0 210954.0 103862.0 100912.0 112043.0 105770.0 116844.0 121091.0 165956.0 170149.0 170653.0 167380.0 92852.0 84514.0 40422.0 47048.0 135648.0 140215.0 123436.0 122800.0 219294.0 221494.0 97835.0 94554.0 89706.0 83699.0 123494.0 119091.0 0.0 158470.0 0.0 0.0 0.0 0.0 0.0 0.0 0.0 0.0 0.0 158470.0 158470.0 158470.0 158470.0 158470.0 158470.0 158470.0 158470.0 158470.0
231534.0 224138.0 120399.0 125451.0 112154.0 111706.0 31579.0 28701.0 64459.0 72531.0 86491.0 87390.0 212006.0 217317.0 220209.0 215591.0 97988.0 93095.0 197841.0 194778.0 185857.0 178033.0 119965.0 124850.0 116178.0 112592.0 164164.0 156343.0 203425.0 195471.0 186539.0 179059.0 68145.0 68493.0 85675.0 89876.0 192835.0 192751.0 170417.0 168223.0 217268.0 211139.0 191029.0 195567.0 143177.0 147199.0 110557.0 114448.0 183810.0 188460.0 177392.0 172534.0 229147.0 230070.0 159119.0 164086.0 96878.0 92464.0 133594.0 128765.0 208560.0 206844.0 199028.0 191448.0 223554.0 216221.0 164826.0 172518.0 120401.0 115283.0 135005.0 142135.0 63526.0 67000.0 160920.0 152851.0 148561.0 151405.0 162894.0 166617.0 158470.0 0.0 158470.0 158470.0 158470.0 158470.0 158470.0 158470.0 158470.0 158470.0 158470.0 0.0 0.0 0.0 0.0 0.0 0.0 0.0 0.0 0.0
250648.0 246410.0 137159.0 133236.0 124185.0 131866.0 155178.0 161762.0 192960.0 199086.0 105814.0 97865.0 169876.0 169977.0 110171.0 109736.0 248445.0 242216.0 250760.0 252484.0 76270.0 68795.0 106667.0 113965.0 269783.0 265195.0 320764.0 312829.0 83749.0 76242.0 64593.0 60608.0 213451.0 210164.0 160498.0 155671.0 64505.0 68264.0 327097.0 325969.0 177758.0 169228.0 57108.0 63495.0 120994.0 116316.0 263929.0 268701.0 46895.0 53539.0 45843.0 38771.0 215326.0 210954.0 103862.0 100912.0 112043.0 105770.0 116844.0 121091.0 165956.0 170149.0 170653.0 167380.0 92852.0 84514.0 40422.0 47048.0 135648.0 140215.0 123436.0 122800.0 219294.0 221494.0 97835.0 94554.0 89706.0 83699.0 123494.0 119091.0 0.0 158470.0 0.0 0.0 0.0 0.0 0.0 0.0 0.0 0.0 0.0 158470.0 158470.0 158470.0 158470.0 158470.0 158470.0 158470.0 158470.0 158470.0
250648.0 246410.0 137159.0 133236.0 124185.0 131866.0 155178.0 161762.0 192960.0 199086.0 105814.0 97865.0 169876.0 169977.0 110171.0 109736.0 248445.0 242216.0 250760.0 252484.0 76270.0 68795.0 106667.0 113965.0 269783.0 265195.0 320764.0 312829.0 83749.0 76242.0 64593.0 60608.0 213451.0 210164.0 160498.0 155671.0 64505.0 68264.0 327097.0 325969.0 177758.0 169228.0 57108.0 63495.0 120994.0 116316.0 263929.0 268701.0 46895.0 53539.0 45843.0 38771.0 215326.0 210954.0 103862.0 100912.0 112043.0 105770.0 116844.0 121091.0 165956.0 170149.0 170653.0 167380.0 92852.0 84514.0 40422.0 47048.0 135648.0 140215.0 123436.0 122800.0 219294.0 221494.0 97835.0 94554.0 89706.0 83699.0 123494.0 119091.0 0.0 158470.0 0.0 0.0 0.0 0.0 0.0 0.0 0.0 0.0 0.0 158470.0 158470.0 158470.0 158470.0 158470.0 158470.0 158470.0 158470.0 158470.0
250648.0 246410.0 137159.0 133236.0 124185.0 131866.0 155178.0 161762.0 192960.0 199086.0 105814.0 97865.0 169876.0 169977.0 110171.0 109736.0 248445.0 242216.0 250760.0 252484.0 76270.0 68795.0 106667.0 113965.0 269783.0 265195.0 320764.0 312829.0 83749.0 76242.0 64593.0 60608.0 213451.0 210164.0 160498.0 155671.0 64505.0 68264.0 327097.0 325969.0 177758.0 169228.0 57108.0 63495.0 120994.0 116316.0 263929.0 268701.0 46895.0 53539.0 45843.0 38771.0 215326.0 210954.0 103862.0 100912.0 112043.0 105770.0 116844.0 121091.0 165956.0 170149.0 170653.0 167380.0 92852.0 84514.0 40422.0 47048.0 135648.0 140215.0 123436.0 122800.0 219294.0 221494.0 97835.0 94554.0 89706.0 83699.0 123494.0 119091.0 0.0 158470.0 0.0 0.0 0.0 0.0 0.0 0.0 0.0 0.0 0.0 158470.0 158470.0 158470.0 158470.0 158470.0 158470.0 158470.0 158470.0 158470.0
250648.0 246410.0 137159.0 133236.0 124185.0 131866.0 155178.0 161762.0 192960.0 199086.0 105814.0 97865.0 169876.0 169977.0 110171.0 109736.0 248445.0 242216.0 250760.0 252484.0 76270.0 68795.0 106667.0 113965.0 269783.0 265195.0 320764.0 312829.0 83749.0 76242.0 64593.0 60608.0 213451.0 210164.0 160498.0 155671.0 64505.0 68264.0 327097.0 325969.0 177758.0 169228.0 57108.0 63495.0 120994.0 116316.0 263929.0 268701.0 46895.0 53539.0 45843.0 38771.0 215326.0 210954.0 103862.0 100912.0 112043.0 105770.0 116844.0 121091.0 165956.0 170149.0 170653.0 167380.0 92852.0 84514.0 40422.0 47048.0 135648.0 140215.0 123436.0 122800.0 219294.0 221494.0 97835.0 94554.0 89706.0 83699.0 123494.0 119091.0 0.0 158470.0 0.0 0.0 0.0 0.0 0.0 0.0 0.0 0.0 0.0 158470.0 158470.0 158470.0 158470.0 158470.0 158470.0 158470.0 158470.0 158470.0
250648.0 246410.0 137159.0 133236.0 124185.0 131866.0 155178.0 161762.0 192960.0 199086.0 105814.0 97865.0 169876.0 169977.0 110171.0 109736.0 248445.0 242216.0 250760.0 252484.0 76270.0 68795.0 106667.0 113965.0 269783.0 265195.0 320764.0 312829.0 83749.0 76242.0 64593.0 60608.0 213451.0 210164.0 160498.0 155671.0 64505.0 68264.0 327097.0 325969.0 177758.0 169228.0 57108.0 63495.0 120994.0 116316.0 263929.0 268701.0 46895.0 53539.0 45843.0 38771.0 215326.0 210954.0 103862.0 100912.0 112043.0 105770.0 116844.0 121091.0 165956.0 170149.0 170653.0 167380.0 92852.0 84514.0 40422.0 47048.0 135648.0 140215.0 123436.0 122800.0 219294.0 221494.0 97835.0 94554.0 89706.0 83699.0 123494.0 119091.0 0.0 158470.0 0.0 0.0 0.0 0.0 0.0 0.0 0.0 0.0 0.0 158470.0 158470.0 158470.0 158470.0 158470.0 158470.0 158470.0 158470.0 158470.0
250648.0 246410.0 137159.0 133236.0 124185.0 131866.0 155178.0 161762.0 192960.0 199086.0 105814.0 97865.0 169876.0 169977.0 110171.0 109736.0 248445.0 242216.0 250760.0 252484.0 76270.0 68795.0 106667.0 113965.0 269783.0 265195.0 320764.0 312829.0 83749.0 76242.0 64593.0 60608.0 213451.0 210164.0 160498.0 155671.0 64505.0 68264.0 327097.0 325969.0 177758.0 169228.0 57108.0 63495.0 120994.0 116316.0 263929.0 268701.0 46895.0 53539.0 45843.0 38771.0 215326.0 210954.0 103862.0 100912.0 112043.0 105770.0 116844.0 121091.0 165956.0 170149.0 170653.0 167380.0 92852.0 84514.0 40422.0 47048.0 135648.0 140215.0 123436.0 122800.0 219294.0 221494.0 97835.0 94554.0 89706.0 83699.0 123494.0 119091.0 0.0 158470.0 0.0 0.0 0.0 0.0 0.0 0.0 0.0 0.0 0.0 158470.0 158470.0 158470.0 158470.0 158470.0 158470.0 158470.0 158470.0 158470.0
250648.0 246410.0 137159.0 133236.0 124185.0 131866.0 155178.0 161762.0 192960.0 199086.0 105814.0 97865.0 169876.0 169977.0 110171.0 109736.0 248445.0 242216.0 250760.0 252484.0 76270.0 68795.0 106667.0 113965.0 269783.0 265195.0 320764.0 312829.0 83749.0 76242.0 64593.0 60608.0 213451.0 210164.0 160498.0 155671.0 64505.0 68264.0 327097.0 325969.0 177758.0 169228.0 57108.0 63495.0 120994.0 116316.0 263929.0 268701.0 46895.0 53539.0 45843.0 38771.0 215326.0 210954.0 103862.0 100912.0 112043.0 105770.0 116844.0 121091.0 165956.0 170149.0 170653.0 167380.0 92852.0 84514.0 40422.0 47048.0 135648.0 140215.0 123436.0 122800.0 219294.0 221494.0 97835.0 94554.0 89706.0 83699.0 123494.0 119091.0 0.0 158470.0 0.0 0.0 0.0 0.0 0.0 0.0 0.0 0.0 0.0 158470.0 158470.0 158470.0 158470.0 158470.0 158470.0 158470.0 158470.0 158470.0
250648.0 246410.0 137159.0 133236.0 124185.0 131866.0 155178.0 161762.0 192960.0 199086.0 105814.0 97865.0 169876.0 169977.0 110171.0 109736.0 248445.0 242216.0 250760.0 252484.0 76270.0 68795.0 106667.0 113965.0 269783.0 265195.0 320764.0 312829.0 83749.0 76242.0 64593.0 60608.0 213451.0 210164.0 160498.0 155671.0 64505.0 68264.0 327097.0 325969.0 177758.0 169228.0 57108.0 63495.0 120994.0 116316.0 263929.0 268701.0 46895.0 53539.0 45843.0 38771.0 215326.0 210954.0 103862.0 100912.0 112043.0 105770.0 116844.0 121091.0 165956.0 170149.0 170653.0 167380.0 92852.0 84514.0 40422.0 47048.0 135648.0 140215.0 123436.0 122800.0 219294.0 221494.0 97835.0 94554.0 89706.0 83699.0 123494.0 119091.0 0.0 158470.0 0.0 0.0 0.0 0.0 0.0 0.0 0.0 0.0 0.0 158470.0 158470.0 158470.0 158470.0 158470.0 158470.0 158470.0 158470.0 158470.0
250648.0 246410.0 137159.0 133236.0 124185.0 131866.0 155178.0 161762.0 192960.0 199086.0 105814.0 97865.0 169876.0 169977.0 110171.0 109736.0 248445.0 242216.0 250760.0 252484.0 76270.0 68795.0 106667.0 113965.0 269783.0 265195.0 320764.0 312829.0 83749.0 76242.0 64593.0 60608.0 213451.0 210164.0 160498.0 155671.0 64505.0 68264.0 327097.0 325969.0 177758.0 169228.0 57108.0 63495.0 120994.0 116316.0 263929.0 268701.0 46895.0 53539.0 45843.0 38771.0 215326.0 210954.0 103862.0 100912.0 112043.0 105770.0 116844.0 121091.0 165956.0 170149.0 170653.0 167380.0 92852.0 84514.0 40422.0 47048.0 135648.0 140215.0 123436.0 122800.0 219294.0 221494.0 97835.0 94554.0 89706.0 83699.0 123494.0 119091.0 0.0 158470.0 0.0 0.0 0.0 0.0 0.0 0.0 0.0 0.0 0.0 158470.0 158470.0 158470.0 158470.0 158470.0 158470.0 158470.0 158470.0 158470.0
231534.0 224138.0 120399.0 125451.0 112154.0 111706.0 31579.0 28701.0 64459.0 72531.0 86491.0 87390.0 212006.0 217317.0 220209.0 215591.0 97988.0 93095.0 197841.0 194778.0 185857.0 178033.0 119965.0 124850.0 116178.0 112592.0 164164.0 156343.0 203425.0 195471.0 186539.0 179059.0 68145.0 68493.0 85675.0 89876.0 192835.0 192751.0 170417.0 168223.0 217268.0 211139.0 191029.0 195567.0 143177.0 147199.0 110557.0 114448.0 183810.0 188460.0 177392.0 172534.0 229147.0 230070.0 159119.0 164086.0 96878.0 92464.0 133594.0 128765.0 208560.0 206844.0 199028.0 191448.0 223554.0 216221.0 164826.0 172518.0 120401.0 115283.0 135005.0 142135.0 63526.0 67000.0 160920.0 152851.0 148561.0 151405.0 162894.0 166617.0 158470.0 0.0 158470.0 158470.0 158470.0 158470.0 158470.0 158470.0 158470.0 158470.0 158470.0 0.0 0.0 0.0 0.0 0.0 0.0 0.0 0.0 0.0
231534.0 224138.0 120399.0 125451.0 112154.0 111706.0 31579.0 28701.0 64459.0 72531.0 86491.0 87390.0 212006.0 217317.0 220209.0 215591.0 97988.0 93095.0 197841.0 194778.0 185857.0 178033.0 119965.0 124850.0 116178.0 112592.0 164164.0 156343.0 203425.0 195471.0 186539.0 179059.0 68145.0 68493.0 85675.0 89876.0 192835.0 192751.0 170417.0 168223.0 217268.0 211139.0 191029.0 195567.0 143177.0 147199.0 110557.0 114448.0 183810.0 188460.0 177392.0 172534.0 229147.0 230070.0 159119.0 164086.0 96878.0 92464.0 133594.0 128765.0 208560.0 206844.0 199028.0 191448.0 223554.0 216221.0 164826.0 172518.0 120401.0 115283.0 135005.0 142135.0 63526.0 67000.0 160920.0 152851.0 148561.0 151405.0 162894.0 166617.0 158470.0 0.0 158470.0 158470.0 158470.0 158470.0 158470.0 158470.0 158470.0 158470.0 158470.0 0.0 0.0 0.0 0.0 0.0 0.0 0.0 0.0 0.0
231534.0 224138.0 120399.0 125451.0 112154.0 111706.0 31579.0 28701.0 64459.0 72531.0 86491.0 87390.0 212006.0 217317.0 220209.0 215591.0 97988.0 93095.0 197841.0 194778.0 185857.0 178033.0 119965.0 124850.0 116178.0 112592.0 164164.0 156343.0 203425.0 195471.0 186539.0 179059.0 68145.0 68493.0 85675.0 89876.0 192835.0 192751.0 170417.0 168223.0 217268.0 211139.0 191029.0 195567.0 143177.0 147199.0 110557.0 114448.0 183810.0 188460.0 177392.0 172534.0 229147.0 230070.0 159119.0 164086.0 96878.0 92464.0 133594.0 128765.0 208560.0 206844.0 199028.0 191448.0 223554.0 216221.0 164826.0 172518.0 120401.0 115283.0 135005.0 142135.0 63526.0 67000.0 160920.0 152851.0 148561.0 151405.0 162894.0 166617.0 158470.0 0.0 158470.0 158470.0 158470.0 158470.0 158470.0 158470.0 158470.0 158470.0 158470.0 0.0 0.0 0.0 0.0 0.0 0.0 0.0 0.0 0.0
231534.0 224138.0 120399.0 125451.0 112154.0 111706.0 31579.0 28701.0 64459.0 72531.0 86491.0 87390.0 212006.0 217317.0 220209.0 215591.0 97988.0 93095.0 197841.0 194778.0 185857.0 178033.0 119965.0 124850.0 116178.0 112592.0 164164.0 156343.0 203425.0 195471.0 186539.0 179059.0 68145.0 68493.0 85675.0 89876.0 192835.0 192751.0 170417.0 168223.0 217268.0 211139.0 191029.0 195567.0 143177.0 147199.0 110557.0 114448.0 183810.0 188460.0 177392.0 172534.0 229147.0 230070.0 159119.0 164086.0 96878.0 92464.0 133594.0 128765.0 208560.0 206844.0 199028.0 191448.0 223554.0 216221.0 164826.0 172518.0 120401.0 115283.0 135005.0 142135.0 63526.0 67000.0 160920.0 152851.0 148561.0 151405.0 162894.0 166617.0 158470.0 0.0 158470.0 158470.0 158470.0 158470.0 158470.0 158470.0 158470.0 158470.0 158470.0 0.0 0.0 0.0 0.0 0.0 0.0 0.0 0.0 0.0
231534.0 224138.0 120399.0 125451.0 112154.0 111706.0 31579.0 28701.0 64459.0 72531.0 86491.0 87390.0 212006.0 217317.0 220209.0 215591.0 97988.0 93095.0 197841.0 194778.0 185857.0 178033.0 119965.0 124850.0 116178.0 112592.0 164164.0 156343.0 203425.0 195471.0 186539.0 179059.0 68145.0 68493.0 85675.0 89876.0 192835.0 192751.0 170417.0 168223.0 217268.0 211139.0 191029.0 195567.0 143177.0 147199.0 110557.0 114448.0 183810.0 188460.0 177392.0 172534.0 229147.0 230070.0 159119.0 164086.0 96878.0 92464.0 133594.0 128765.0 208560.0 206844.0 199028.0 191448.0 223554.0 216221.0 164826.0 172518.0 120401.0 115283.0 135005.0 142135.0 63526.0 67000.0 160920.0 152851.0 148561.0 151405.0 162894.0 166617.0 158470.0 0.0 158470.0 158470.0 158470.0 158470.0 158470.0 158470.0 158470.0 158470.0 158470.0 0.0 0.0 0.0 0.0 0.0 0.0 0.0 0.0 0.0
231534.0 224138.0 120399.0 125451.0 112154.0 111706.0 31579.0 28701.0 64459.0 72531.0 86491.0 87390.0 212006.0 217317.0 220209.0 215591.0 97988.0 93095.0 197841.0 194778.0 185857.0 178033.0 119965.0 124850.0 116178.0 112592.0 164164.0 156343.0 203425.0 195471.0 186539.0 179059.0 68145.0 68493.0 85675.0 89876.0 192835.0 192751.0 170417.0 168223.0 217268.0 211139.0 191029.0 195567.0 143177.0 147199.0 110557.0 114448.0 183810.0 188460.0 177392.0 172534.0 229147.0 230070.0 159119.0 164086.0 96878.0 92464.0 133594.0 128765.0 208560.0 206844.0 199028.0 191448.0 223554.0 216221.0 164826.0 172518.0 120401.0 115283.0 135005.0 142135.0 63526.0 67000.0 160920.0 152851.0 148561.0 151405.0 162894.0 166617.0 158470.0 0.0 158470.0 158470.0 158470.0 158470.0 158470.0 158470.0 158470.0 158470.0 158470.0 0.0 0.0 0.0 0.0 0.0 0.0 0.0 0.0 0.0
231534.0 224138.0 120399.0 125451.0 112154.0 111706.0 31579.0 28701.0 64459.0 72531.0 86491.0 87390.0 212006.0 217317.0 220209.0 215591.0 97988.0 93095.0 197841.0 194778.0 185857.0 178033.0 119965.0 124850.0 116178.0 112592.0 164164.0 156343.0 203425.0 195471.0 186539.0 179059.0 68145.0 68493.0 85675.0 89876.0 192835.0 192751.0 170417.0 168223.0 217268.0 211139.0 191029.0 195567.0 143177.0 147199.0 110557.0 114448.0 183810.0 188460.0 177392.0 172534.0 229147.0 230070.0 159119.0 164086.0 96878.0 92464.0 133594.0 128765.0 208560.0 206844.0 199028.0 191448.0 223554.0 216221.0 164826.0 172518.0 120401.0 115283.0 135005.0 142135.0 63526.0 67000.0 160920.0 152851.0 148561.0 151405.0 162894.0 166617.0 158470.0 0.0 158470.0 158470.0 158470.0 158470.0 158470.0 158470.0 158470.0 158470.0 158470.0 0.0 0.0 0.0 0.0 0.0 0.0 0.0 0.0 0.0
231534.0 224138.0 120399.0 125451.0 112154.0 111706.0 31579.0 28701.0 64459.0 72531.0 86491.0 87390.0 212006.0 217317.0 220209.0 215591.0 97988.0 93095.0 197841.0 194778.0 185857.0 178033.0 119965.0 124850.0 116178.0 112592.0 164164.0 156343.0 203425.0 195471.0 186539.0 179059.0 68145.0 68493.0 85675.0 89876.0 192835.0 192751.0 170417.0 168223.0 217268.0 211139.0 191029.0 195567.0 143177.0 147199.0 110557.0 114448.0 183810.0 188460.0 177392.0 172534.0 229147.0 230070.0 159119.0 164086.0 96878.0 92464.0 133594.0 128765.0 208560.0 206844.0 199028.0 191448.0 223554.0 216221.0 164826.0 172518.0 120401.0 115283.0 135005.0 142135.0 63526.0 67000.0 160920.0 152851.0 148561.0 151405.0 162894.0 166617.0 158470.0 0.0 158470.0 158470.0 158470.0 158470.0 158470.0 158470.0 158470.0 158470.0 158470.0 0.0 0.0 0.0 0.0 0.0 0.0 0.0 0.0 0.0
231534.0 224138.0 120399.0 125451.0 112154.0 111706.0 31579.0 28701.0 64459.0 72531.0 86491.0 87390.0 212006.0 217317.0 220209.0 215591.0 97988.0 93095.0 197841.0 194778.0 185857.0 178033.0 119965.0 124850.0 116178.0 112592.0 164164.0 156343.0 203425.0 195471.0 186539.0 179059.0 68145.0 68493.0 85675.0 89876.0 192835.0 192751.0 170417.0 168223.0 217268.0 211139.0 191029.0 195567.0 143177.0 147199.0 110557.0 114448.0 183810.0 188460.0 177392.0 172534.0 229147.0 230070.0 159119.0 164086.0 96878.0 92464.0 133594.0 128765.0 208560.0 206844.0 199028.0 191448.0 223554.0 216221.0 164826.0 172518.0 120401.0 115283.0 135005.0 142135.0 63526.0 67000.0 160920.0 152851.0 148561.0 151405.0 162894.0 166617.0 158470.0 0.0 158470.0 158470.0 158470.0 158470.0 158470.0 158470.0 158470.0 158470.0 158470.0 0.0 0.0 0.0 0.0 0.0 0.0 0.0 0.0 0.0
FIXED_EDGES_SECTION
1 2
3 4
5 6
7 8
9 10
11 12
13 14
15 16
17 18
19 20
21 22
23 24
25 26
27 28
29 30
31 32
33 34
35 36
37 38
39 40
41 42
43 44
45 46
47 48
49 50
51 52
53 54
55 56
57 58
59 60
61 62
63 64
65 66
67 68
69 70
71 72
73 74
75 76
77 78
79 80
-1 
DEMAND_SECTION
1 258
2 258
3 90
4 90
5 380
6 380
7 371
8 371
9 84
10 84
11 373
12 373
13 224
14 224
15 265
16 265
17 244
18 244
19 321
20 321
21 493
22 493
23 114
24 114
25 268
26 268
27 421
28 421
29 379
30 379
31 396
32 396
33 319
34 319
35 130
36 130
37 247
38 247
39 491
40 491
41 217
42 217
43 219
44 219
45 541
46 541
47 350
48 350
49 292
50 292
51 341
52 341
53 76
54 76
55 353
56 353
57 214
58 214
59 191
60 191
61 211
62 211
63 479
64 479
65 251
66 251
67 618
68 618
69 279
70 279
71 256
72 256
73 563
74 563
75 293
76 293
77 207
78 207
79 349
80 349
81 0
82 0
83 0
84 0
85 0
86 0
87 0
88 0
89 0
90 0
91 0
92 0
93 0
94 0
95 0
96 0
97 0
98 0
99 0
100 0
DEPOT_SECTION
81 
-1 
CAPACITIES_SECTION
2500 
2750 
-1 
EOF