NAME: GFS_20_1
TYPE: GFSP
DIMENSION: 96
VEHICLES: 2
CAPACITY: 2500.0
TRIP_DIST_LIMIT: 750000.0
TOTAL_DIST_LIMIT: 2100000.0
EDGE_WEIGHT_TYPE: EXPLICIT
EDGE_WEIGHT_FORMAT: FULL_MATRIX
EDGE_WEIGHT_SECTION
0.0 7962.0 357318.0 352187.0 43952.0 40655.0 241550.0 248827.0 233104.0 228305.0 146791.0 155084.0 37573.0 39616.0 278678.0 272944.0 340864.0 335049.0 212462.0 210302.0 163865.0 165876.0 333796.0 336957.0 309425.0 301606.0 9862.0 16346.0 347127.0 339794.0 324527.0 327808.0 76416.0 68834.0 265516.0 273492.0 197974.0 205610.0 342213.0 344385.0 312399.0 305754.0 306689.0 303333.0 278292.0 284218.0 291050.0 284333.0 342561.0 347456.0 281361.0 273340.0 308253.0 300225.0 314602.0 319140.0 281803.0 283866.0 265843.0 272590.0 318778.0 312668.0 198647.0 191675.0 302901.0 307633.0 290859.0 289997.0 286290.0 278643.0 204998.0 196694.0 226771.0 233723.0 300965.0 296108.0 298264.0 295613.0 210126.0 202163.0 282043.0 124850.0 282043.0 282043.0 282043.0 282043.0 282043.0 282043.0 282043.0 124850.0 124850.0 124850.0 124850.0 124850.0 124850.0 124850.0
7962.0 0.0 351794.0 346561.0 41243.0 36623.0 235539.0 242898.0 227106.0 222159.0 139894.0 148226.0 45060.0 47469.0 274516.0 268782.0 336702.0 330886.0 206946.0 205002.0 157672.0 159453.0 329635.0 332811.0 305129.0 297368.0 17613.0 23063.0 342964.0 335632.0 317487.0 320860.0 73948.0 66108.0 259730.0 267722.0 191600.0 199187.0 338045.0 340060.0 307747.0 300998.0 299881.0 296627.0 272922.0 278959.0 285613.0 278806.0 335840.0 340818.0 276150.0 268151.0 300679.0 292649.0 310440.0 314978.0 274212.0 276343.0 261011.0 267867.0 313689.0 307478.0 193746.0 186836.0 295971.0 300786.0 284050.0 283073.0 279838.0 272221.0 198783.0 190438.0 220551.0 227585.0 296803.0 291945.0 294102.0 291451.0 204689.0 196721.0 277881.0 121060.0 277881.0 277881.0 277881.0 277881.0 277881.0 277881.0 277881.0 121060.0 121060.0 121060.0 121060.0 121060.0 121060.0 121060.0
357318.0 351794.0 0.0 8126.0 316238.0 317229.0 118847.0 110818.0 126861.0 133349.0 220431.0 212357.0 392011.0 390374.0 121595.0 119490.0 98037.0 103749.0 144860.0 147280.0 196056.0 196277.0 85526.0 77859.0 80265.0 86600.0 366068.0 373571.0 106609.0 110230.0 111859.0 103722.0 288839.0 294210.0 93024.0 85031.0 165288.0 158942.0 76183.0 68065.0 64939.0 65921.0 98901.0 93802.0 79391.0 74362.0 66405.0 72989.0 83725.0 77010.0 77634.0 85657.0 167153.0 167893.0 121220.0 114982.0 172450.0 164593.0 97643.0 93676.0 45521.0 48315.0 160716.0 167908.0 108846.0 101212.0 106259.0 113847.0 90959.0 95488.0 156501.0 164936.0 135891.0 128079.0 120426.0 127123.0 136157.0 143559.0 147215.0 155171.0 154576.0 238386.0 154576.0 154576.0 154576.0 154576.0 154576.0 154576.0 154576.0 238386.0 238386.0 238386.0 238386.0 238386.0 238386.0 238386.0
352187.0 346561.0 8126.0 0.0 311415.0 312234.0 112708.0 104777.0 120836.0 127108.0 214223.0 206091.0 387123.0 385617.0 122064.0 119445.0 102620.0 107929.0 139776.0 142534.0 190298.0 190289.0 89574.0 82113.0 81840.0 87647.0 361016.0 368468.0 111530.0 114681.0 103987.0 95895.0 284421.0 289649.0 87189.0 79169.0 159051.0 152558.0 80878.0 72917.0 65821.0 65777.0 90780.0 85681.0 75048.0 70618.0 61935.0 68026.0 76301.0 69807.0 74024.0 81929.0 159137.0 159822.0 124098.0 118130.0 164324.0 156468.0 94881.0 91514.0 44899.0 46348.0 156455.0 163650.0 100725.0 93098.0 98182.0 105747.0 83200.0 87919.0 150399.0 158859.0 129546.0 121788.0 122424.0 128879.0 138081.0 145302.0 142253.0 150182.0 154719.0 234156.0 154719.0 154719.0 154719.0 154719.0 154719.0 154719.0 154719.0 234156.0 234156.0 234156.0 234156.0 234156.0 234156.0 234156.0
43952.0 41243.0 316238.0 311415.0 0.0 8428.0 202484.0 209394.0 194027.0 189907.0 114158.0 121920.0 75824.0 74256.0 235363.0 229629.0 297549.0 291734.0 171743.0 168958.0 126328.0 129562.0 290481.0 293672.0 266115.0 258291.0 51149.0 59099.0 303812.0 296479.0 290948.0 293515.0 32708.0 24935.0 225479.0 233373.0 160954.0 168782.0 298917.0 301081.0 269469.0 262998.0 271506.0 267507.0 236924.0 242549.0 249839.0 243398.0 306668.0 311049.0 239579.0 231519.0 280379.0 272427.0 271287.0 275825.0 254388.0 255475.0 223274.0 229817.0 276656.0 270781.0 156371.0 149294.0 268597.0 272710.0 255761.0 255716.0 249079.0 241308.0 167097.0 159071.0 188726.0 195255.0 257650.0 252792.0 254949.0 252298.0 169174.0 161265.0 238728.0 81174.0 238728.0 238728.0 238728.0 238728.0 238728.0 238728.0 238728.0 81174.0 81174.0 81174.0 81174.0 81174.0 81174.0 81174.0
40655.0 36623.0 317229.0 312234.0 8428.0 0.0 202394.0 209482.0 193933.0 189506.0 111444.0 119414.0 75065.0 74383.0 238079.0 232345.0 300265.0 294449.0 172458.0 170041.0 125432.0 128187.0 293131.0 296385.0 268802.0 260999.0 48906.0 56587.0 306527.0 299194.0 288924.0 291716.0 38419.0 30346.0 225874.0 233815.0 159937.0 167706.0 301633.0 303757.0 271751.0 265124.0 269978.0 266195.0 238058.0 243873.0 250884.0 244282.0 305411.0 309977.0 240976.0 232939.0 276810.0 268830.0 274003.0 278541.0 250676.0 251998.0 225240.0 231956.0 278294.0 272256.0 158088.0 151091.0 266778.0 271096.0 254189.0 253876.0 248258.0 240528.0 166450.0 158293.0 188173.0 194891.0 260365.0 255508.0 257664.0 255013.0 170021.0 162072.0 241444.0 84457.0 241444.0 241444.0 241444.0 241444.0 241444.0 241444.0 241444.0 84457.0 84457.0 84457.0 84457.0 84457.0 84457.0 84457.0
241550.0 235539.0 118847.0 112708.0 202484.0 202394.0 0.0 8237.0 8462.0 14649.0 101585.0 93534.0 277444.0 276595.0 104997.0 97132.0 144226.0 142697.0 35202.0 41863.0 78094.0 77631.0 131082.0 129575.0 103248.0 99257.0 250684.0 257893.0 153911.0 150177.0 103914.0 102958.0 178360.0 182528.0 26295.0 34050.0 46469.0 40479.0 133369.0 131003.0 95202.0 86892.0 79226.0 72753.0 47409.0 55294.0 56749.0 48731.0 109230.0 111985.0 54368.0 49053.0 126112.0 120967.0 136552.0 136333.0 111710.0 106457.0 56672.0 64242.0 89518.0 81740.0 59348.0 65353.0 81038.0 81510.0 66125.0 70670.0 50175.0 42529.0 37692.0 46157.0 17639.0 9797.0 124564.0 125163.0 132948.0 135206.0 38777.0 45110.0 127471.0 130820.0 127471.0 127471.0 127471.0 127471.0 127471.0 127471.0 127471.0 130820.0 130820.0 130820.0 130820.0 130820.0 130820.0 130820.0
248827.0 242898.0 110818.0 104777.0 209394.0 209482.0 8237.0 0.0 16060.0 22874.0 109651.0 101640.0 284547.0 283577.0 100259.0 92514.0 137152.0 135878.0 39936.0 45753.0 85708.0 85513.0 123814.0 122082.0 96142.0 92480.0 257902.0 265164.0 146933.0 143436.0 101710.0 100115.0 184722.0 189081.0 18072.0 25888.0 54598.0 48705.0 125777.0 123229.0 87539.0 79230.0 76538.0 69614.0 39477.0 47391.0 48535.0 40507.0 104755.0 107026.0 46644.0 41770.0 127582.0 122848.0 130723.0 130188.0 114686.0 109035.0 50868.0 58093.0 81348.0 73547.0 63026.0 69440.0 79322.0 79008.0 64507.0 69848.0 46323.0 39074.0 45686.0 54119.0 25865.0 17992.0 119078.0 120068.0 128130.0 130782.0 43320.0 50306.0 124066.0 136565.0 124066.0 124066.0 124066.0 124066.0 124066.0 124066.0 124066.0 136565.0 136565.0 136565.0 136565.0 136565.0 136565.0 136565.0
233104.0 227106.0 126861.0 120836.0 194027.0 193933.0 8462.0 16060.0 0.0 8199.0 93660.0 85696.0 268983.0 268134.0 106094.0 98135.0 148416.0 146476.0 28052.0 35255.0 69731.0 69453.0 135633.0 134540.0 107605.0 103110.0 242231.0 249447.0 157924.0 153818.0 110487.0 109929.0 169995.0 174119.0 33946.0 41870.0 38736.0 33290.0 138521.0 136541.0 100588.0 92306.0 86190.0 80001.0 53630.0 61386.0 63801.0 55897.0 117041.0 119996.0 60099.0 54093.0 129700.0 124183.0 138909.0 139127.0 113853.0 109046.0 59566.0 67472.0 96259.0 88609.0 52658.0 58309.0 87389.0 88354.0 72511.0 76475.0 57895.0 50143.0 29672.0 38080.0 11801.0 6326.0 126506.0 126604.0 134015.0 135790.0 31702.0 37469.0 126955.0 122677.0 126955.0 126955.0 126955.0 126955.0 126955.0 126955.0 126955.0 122677.0 122677.0 122677.0 122677.0 122677.0 122677.0 122677.0
228305.0 222159.0 133349.0 127108.0 189907.0 189506.0 14649.0 22874.0 8199.0 0.0 87115.0 79009.0 264475.0 263831.0 113667.0 105687.0 156610.0 154644.0 29715.0 37514.0 64493.0 63508.0 143831.0 142717.0 115804.0 111291.0 237535.0 244651.0 166109.0 161971.0 110144.0 110212.0 166800.0 170614.0 40942.0 48685.0 31946.0 25832.0 146680.0 144642.0 108707.0 100418.0 86597.0 80934.0 61503.0 69312.0 71287.0 63302.0 118919.0 122371.0 68124.0 62236.0 125786.0 119946.0 146835.0 147151.0 108746.0 104323.0 67671.0 75611.0 103942.0 96219.0 54325.0 59276.0 86858.0 88551.0 72166.0 75308.0 59962.0 52118.0 23523.0 31994.0 3638.0 5435.0 134329.0 134271.0 141542.0 143121.0 33315.0 37651.0 133796.0 120562.0 133796.0 133796.0 133796.0 133796.0 133796.0 133796.0 133796.0 120562.0 120562.0 120562.0 120562.0 120562.0 120562.0 120562.0
146791.0 139894.0 220431.0 214223.0 114158.0 111444.0 101585.0 109651.0 93660.0 87115.0 0.0 8434.0 184121.0 184743.0 174069.0 166669.0 229908.0 225972.0 82350.0 84484.0 29411.0 25472.0 219306.0 220068.0 191646.0 185279.0 156469.0 162907.0 238166.0 232268.0 177850.0 181021.0 100857.0 101394.0 127604.0 135522.0 55172.0 61903.0 224723.0 224350.0 188816.0 180915.0 160015.0 156936.0 145588.0 152850.0 156885.0 149187.0 196092.0 201270.0 150839.0 143580.0 166961.0 159095.0 211028.0 213721.0 141428.0 141932.0 142294.0 150328.0 188454.0 181151.0 83051.0 79175.0 156111.0 160895.0 144187.0 143206.0 141254.0 133868.0 63989.0 55630.0 84738.0 92442.0 197191.0 194292.0 198626.0 197005.0 81777.0 74951.0 183483.0 75084.0 183483.0 183483.0 183483.0 183483.0 183483.0 183483.0 183483.0 75084.0 75084.0 75084.0 75084.0 75084.0 75084.0 75084.0
155084.0 148226.0 212357.0 206091.0 121920.0 119414.0 93534.0 101640.0 85696.0 79009.0 8434.0 0.0 192371.0 192912.0 168749.0 161237.0 223661.0 219911.0 75611.0 78254.0 24618.0 19060.0 212808.0 213377.0 185023.0 178808.0 164743.0 171224.0 232068.0 226329.0 169673.0 172760.0 107468.0 108390.0 119637.0 127526.0 47070.0 53643.0 217968.0 217412.0 181755.0 173792.0 151660.0 148535.0 137986.0 145328.0 149123.0 141372.0 187703.0 192857.0 143395.0 136240.0 159896.0 152081.0 205594.0 208075.0 134606.0 134839.0 135516.0 143600.0 180883.0 173514.0 78186.0 74870.0 147839.0 152563.0 135830.0 134931.0 132825.0 125447.0 56056.0 47786.0 76558.0 84305.0 191808.0 189150.0 193780.0 192441.0 75280.0 68777.0 179018.0 78498.0 179018.0 179018.0 179018.0 179018.0 179018.0 179018.0 179018.0 78498.0 78498.0 78498.0 78498.0 78498.0 78498.0 78498.0
37573.0 45060.0 392011.0 387123.0 75824.0 75065.0 277444.0 284547.0 268983.0 264475.0 184121.0 192371.0 0.0 7961.0 310805.0 305071.0 372991.0 367176.0 247377.0 244737.0 200227.0 202601.0 365923.0 369114.0 341557.0 333733.0 27746.0 22520.0 379254.0 371921.0 361937.0 365130.0 106350.0 99269.0 300912.0 308843.0 234575.0 242281.0 374359.0 376523.0 344912.0 338563.0 343854.0 340364.0 312725.0 318372.0 325621.0 319126.0 379601.0 384376.0 315403.0 307342.0 345738.0 337709.0 346729.0 351267.0 319271.0 321393.0 298954.0 305394.0 352443.0 346599.0 232167.0 225074.0 340209.0 344845.0 328029.0 327300.0 322942.0 315249.0 241323.0 233102.0 263076.0 269871.0 333092.0 328235.0 330391.0 327740.0 244871.0 236942.0 314170.0 157477.0 314170.0 314170.0 314170.0 314170.0 314170.0 314170.0 314170.0 157477.0 157477.0 157477.0 157477.0 157477.0 157477.0 157477.0
39616.0 47469.0 390374.0 385617.0 74256.0 74383.0 276595.0 283577.0 268134.0 263831.0 184743.0 192912.0 7961.0 0.0 308865.0 303131.0 371051.0 365236.0 245990.0 243113.0 199815.0 202486.0 363983.0 367174.0 339617.0 331793.0 29861.0 26510.0 377313.0 369981.0 362582.0 365604.0 104410.0 97329.0 299730.0 307627.0 234306.0 242063.0 372419.0 374583.0 343013.0 336634.0 344096.0 340440.0 311017.0 316525.0 323969.0 317593.0 379670.0 384306.0 313580.0 305513.0 347586.0 339561.0 344789.0 349327.0 321170.0 323109.0 297014.0 303461.0 350536.0 344738.0 230279.0 223172.0 340668.0 345154.0 328286.0 327758.0 322639.0 314910.0 240822.0 232675.0 262534.0 269206.0 331152.0 326294.0 328451.0 325800.0 243400.0 235500.0 312230.0 155537.0 312230.0 312230.0 312230.0 312230.0 312230.0 312230.0 312230.0 155537.0 155537.0 155537.0 155537.0 155537.0 155537.0 155537.0
278678.0 274516.0 121595.0 122064.0 235363.0 238079.0 104997.0 100259.0 106094.0 113667.0 174069.0 168749.0 310805.0 308865.0 0.0 8000.0 62922.0 56574.0 96663.0 91759.0 144670.0 149737.0 58555.0 63839.0 43029.0 35505.0 286443.0 294328.0 68525.0 61116.0 185563.0 180699.0 205971.0 211828.0 92829.0 92662.0 132661.0 131823.0 69152.0 73949.0 56691.0 56444.0 160947.0 152943.0 74242.0 70148.0 80163.0 82718.0 173638.0 171387.0 67413.0 65533.0 224045.0 220348.0 37057.0 40667.0 214115.0 207970.0 50482.0 45297.0 77378.0 78026.0 91176.0 95921.0 167631.0 163954.0 154854.0 162236.0 131534.0 127802.0 123921.0 128870.0 117227.0 112124.0 23163.0 20893.0 27956.0 30848.0 95667.0 100765.0 33292.0 155105.0 33292.0 33292.0 33292.0 33292.0 33292.0 33292.0 33292.0 155105.0 155105.0 155105.0 155105.0 155105.0 155105.0 155105.0
272944.0 268782.0 119490.0 119445.0 229629.0 232345.0 97132.0 92514.0 98135.0 105687.0 166669.0 161237.0 305071.0 303131.0 8000.0 0.0 67963.0 62142.0 88779.0 83989.0 137259.0 142204.0 62117.0 66670.0 43208.0 35168.0 280709.0 288594.0 74285.0 67236.0 179269.0 174600.0 200237.0 206094.0 85565.0 85729.0 124745.0 123851.0 72026.0 76098.0 55079.0 53685.0 154468.0 146469.0 67735.0 64141.0 74456.0 76485.0 168266.0 166296.0 61228.0 58771.0 216867.0 213059.0 44365.0 47369.0 206581.0 200503.0 43191.0 38573.0 74554.0 74427.0 83940.0 88899.0 160941.0 157461.0 147962.0 155247.0 124747.0 120795.0 115972.0 120984.0 109243.0 104180.0 30581.0 28857.0 35883.0 38321.0 87842.0 93063.0 35337.0 149371.0 35337.0 35337.0 35337.0 35337.0 35337.0 35337.0 35337.0 149371.0 149371.0 149371.0 149371.0 149371.0 149371.0 149371.0
340864.0 336702.0 98037.0 102620.0 297549.0 300265.0 144226.0 137152.0 148416.0 156610.0 229908.0 223661.0 372991.0 371051.0 62922.0 67963.0 0.0 8198.0 148339.0 145448.0 200733.0 204688.0 14718.0 20811.0 41011.0 45493.0 348629.0 356514.0 10258.0 12311.0 194821.0 187966.0 268157.0 274014.0 122952.0 118697.0 182273.0 179455.0 21864.0 30056.0 52628.0 60223.0 174034.0 166578.0 99426.0 91878.0 96441.0 103255.0 173508.0 168584.0 91506.0 95397.0 243527.0 241764.0 34471.0 27135.0 240141.0 232944.0 89639.0 81473.0 70998.0 77463.0 149171.0 154874.0 182884.0 176991.0 173630.0 181845.0 150909.0 150375.0 172806.0 179356.0 160216.0 153350.0 43917.0 51110.0 55855.0 63619.0 148411.0 154968.0 89757.0 217291.0 89757.0 89757.0 89757.0 89757.0 89757.0 89757.0 89757.0 217291.0 217291.0 217291.0 217291.0 217291.0 217291.0 217291.0
335049.0 330886.0 103749.0 107929.0 291734.0 294449.0 142697.0 135878.0 146476.0 154644.0 225972.0 219911.0 367176.0 365236.0 56574.0 62142.0 8198.0 0.0 144921.0 141660.0 196689.0 200887.0 18392.0 25889.0 40342.0 43440.0 342813.0 350698.0 12261.0 7888.0 197650.0 190995.0 262342.0 268198.0 122410.0 118626.0 179391.0 176893.0 28184.0 36404.0 53932.0 60967.0 176257.0 168674.0 99059.0 91746.0 97153.0 103588.0 177318.0 172668.0 91053.0 94310.0 245305.0 243285.0 26360.0 19108.0 241043.0 233960.0 87171.0 79097.0 73828.0 79766.0 144550.0 150051.0 184898.0 179241.0 175130.0 183297.0 152133.0 151178.0 170002.0 176310.0 158269.0 151613.0 36469.0 43460.0 47817.0 55527.0 144808.0 151137.0 82210.0 211476.0 82210.0 82210.0 82210.0 82210.0 82210.0 82210.0 82210.0 211476.0 211476.0 211476.0 211476.0 211476.0 211476.0 211476.0
212462.0 206946.0 144860.0 139776.0 171743.0 172458.0 35202.0 39936.0 28052.0 29715.0 82350.0 75611.0 247377.0 245990.0 96663.0 88779.0 148339.0 144921.0 0.0 7938.0 54119.0 56887.0 137235.0 137774.0 109413.0 103268.0 221249.0 228724.0 156982.0 151596.0 138537.0 137941.0 145771.0 150517.0 54111.0 61851.0 36096.0 36379.0 142392.0 142025.0 106632.0 98851.0 114198.0 107888.0 66183.0 72671.0 78704.0 71872.0 144332.0 146860.0 70180.0 62459.0 155306.0 149308.0 132540.0 134249.0 137403.0 133371.0 59948.0 68003.0 108129.0 101361.0 24737.0 30262.0 115415.0 116389.0 100550.0 104345.0 85360.0 77731.0 27900.0 32207.0 31650.0 32837.0 119095.0 117533.0 123525.0 123722.0 3661.0 10596.0 112043.0 96878.0 112043.0 112043.0 112043.0 112043.0 112043.0 112043.0 112043.0 96878.0 96878.0 96878.0 96878.0 96878.0 96878.0 96878.0
210302.0 205002.0 147280.0 142534.0 168958.0 170041.0 41863.0 45753.0 35255.0 37514.0 84484.0 78254.0 244737.0 243113.0 91759.0 83989.0 145448.0 141660.0 7938.0 0.0 55495.0 59248.0 134872.0 135854.0 107363.0 100840.0 218925.0 226497.0 153813.0 148120.0 145635.0 144817.0 142094.0 147153.0 58432.0 65885.0 42083.0 43282.0 140616.0 140703.0 105802.0 98270.0 121080.0 114598.0 68017.0 73961.0 80884.0 74513.0 150492.0 152749.0 71201.0 63254.0 163200.0 157226.0 128113.0 130191.0 145338.0 141306.0 58575.0 66386.0 108960.0 102536.0 17487.0 23688.0 122603.0 123339.0 107708.0 111721.0 91768.0 84250.0 34638.0 37802.0 39549.0 40378.0 114500.0 112534.0 118140.0 117962.0 4795.0 9541.0 105770.0 92464.0 105770.0 105770.0 105770.0 105770.0 105770.0 105770.0 105770.0 92464.0 92464.0 92464.0 92464.0 92464.0 92464.0 92464.0
163865.0 157672.0 196056.0 190298.0 126328.0 125432.0 78094.0 85708.0 69731.0 64493.0 29411.0 24618.0 200227.0 199815.0 144670.0 137259.0 200733.0 196689.0 54119.0 55495.0 0.0 7909.0 190350.0 191333.0 162851.0 156320.0 173149.0 180208.0 208898.0 202931.0 166139.0 168073.0 105975.0 108701.0 103110.0 111129.0 34643.0 42499.0 196067.0 195976.0 160723.0 152968.0 145574.0 141304.0 119156.0 126093.0 131055.0 123651.0 180401.0 184722.0 123829.0 116296.0 164726.0 157282.0 181619.0 184317.0 141046.0 139911.0 113800.0 121735.0 161721.0 154685.0 53755.0 50259.0 143300.0 146929.0 129947.0 130545.0 122833.0 115096.0 41133.0 32875.0 62906.0 69923.0 167786.0 164933.0 169382.0 167923.0 53143.0 45961.0 154464.0 66901.0 154464.0 154464.0 154464.0 154464.0 154464.0 154464.0 154464.0 66901.0 66901.0 66901.0 66901.0 66901.0 66901.0 66901.0
165876.0 159453.0 196277.0 190289.0 129562.0 128187.0 77631.0 85513.0 69453.0 63508.0 25472.0 19060.0 202601.0 202486.0 149737.0 142204.0 204688.0 200887.0 56887.0 59248.0 7909.0 0.0 193944.0 194634.0 166231.0 159926.0 175301.0 182187.0 213052.0 207284.0 161814.0 164080.0 110725.0 112995.0 103263.0 111247.0 32180.0 39737.0 199273.0 198878.0 163354.0 155466.0 141944.0 138019.0 120491.0 127656.0 132021.0 124431.0 177226.0 181823.0 125569.0 118236.0 158402.0 150872.0 186555.0 189016.0 134371.0 133489.0 116834.0 124879.0 163291.0 156072.0 59442.0 56551.0 139203.0 143165.0 126207.0 126365.0 120413.0 112775.0 40000.0 31520.0 61529.0 68928.0 172779.0 170180.0 174914.0 173709.0 56386.0 49750.0 160365.0 73696.0 160365.0 160365.0 160365.0 160365.0 160365.0 160365.0 160365.0 73696.0 73696.0 73696.0 73696.0 73696.0 73696.0 73696.0
333796.0 329635.0 85526.0 89574.0 290481.0 293131.0 131082.0 123814.0 135633.0 143831.0 219306.0 212808.0 365923.0 363983.0 58555.0 62117.0 14718.0 18392.0 137235.0 134872.0 190350.0 193944.0 0.0 7962.0 28126.0 34032.0 341561.0 349445.0 24949.0 25582.0 180190.0 173384.0 261089.0 266945.0 109117.0 104589.0 170399.0 167229.0 11955.0 19443.0 38122.0 45908.0 159321.0 151860.0 85546.0 77880.0 82012.0 88975.0 159232.0 154462.0 77714.0 82063.0 228814.0 227072.0 38813.0 31594.0 225564.0 218340.0 77721.0 69537.0 56327.0 62746.0 139885.0 145914.0 168166.0 162280.0 158947.0 167168.0 136280.0 135856.0 160864.0 167684.0 147409.0 140365.0 44000.0 51609.0 58400.0 66395.0 137558.0 144412.0 88720.0 210223.0 88720.0 88720.0 88720.0 88720.0 88720.0 88720.0 88720.0 210223.0 210223.0 210223.0 210223.0 210223.0 210223.0 210223.0
336957.0 332811.0 77859.0 82113.0 293672.0 296385.0 129575.0 122082.0 134540.0 142717.0 220068.0 213377.0 369114.0 367174.0 63839.0 66670.0 20811.0 25889.0 137774.0 135854.0 191333.0 194634.0 7962.0 0.0 28515.0 35660.0 344751.0 352636.0 30550.0 32605.0 174423.0 167466.0 264280.0 270136.0 106716.0 101728.0 170152.0 166645.0 5358.0 11616.0 34918.0 43104.0 154074.0 146734.0 83191.0 75370.0 78535.0 85826.0 152738.0 147778.0 75563.0 80559.0 223863.0 222341.0 46609.0 39463.0 221377.0 214061.0 77882.0 69777.0 50909.0 57806.0 141809.0 148040.0 163084.0 157005.0 154332.0 162579.0 131975.0 131950.0 160575.0 167631.0 146254.0 139024.0 51001.0 58602.0 65773.0 73761.0 138306.0 145377.0 94953.0 213414.0 94953.0 94953.0 94953.0 94953.0 94953.0 94953.0 94953.0 213414.0 213414.0 213414.0 213414.0 213414.0 213414.0 213414.0
309425.0 305129.0 80265.0 81840.0 266115.0 268802.0 103248.0 96142.0 107605.0 115804.0 191646.0 185023.0 341557.0 339617.0 43029.0 43208.0 41011.0 40342.0 109413.0 107363.0 162851.0 166231.0 28126.0 28515.0 0.0 8219.0 317155.0 325061.0 50867.0 48153.0 160395.0 154243.0 236724.0 242580.0 82150.0 78285.0 142298.0 139103.0 33423.0 34976.0 16906.0 21742.0 137904.0 130140.0 58734.0 51406.0 57224.0 63368.0 142862.0 139182.0 50743.0 54388.0 206078.0 203756.0 44834.0 40611.0 200982.0 193981.0 49678.0 41512.0 39487.0 43257.0 113414.0 119727.0 146156.0 140923.0 135706.0 143795.0 112466.0 111144.0 132755.0 139623.0 119393.0 112432.0 40750.0 47041.0 56298.0 63462.0 109870.0 116891.0 76270.0 185857.0 76270.0 76270.0 76270.0 76270.0 76270.0 76270.0 76270.0 185857.0 185857.0 185857.0 185857.0 185857.0 185857.0 185857.0
301606.0 297368.0 86600.0 87647.0 258291.0 260999.0 99257.0 92480.0 103110.0 111291.0 185279.0 178808.0 333733.0 331793.0 35505.0 35168.0 45493.0 43440.0 103268.0 100840.0 156320.0 159926.0 34032.0 35660.0 8219.0 0.0 309287.0 317204.0 54824.0 50956.0 161794.0 155944.0 228899.0 234756.0 79535.0 76392.0 136825.0 133962.0 40779.0 42940.0 21829.0 24033.0 138674.0 130806.0 56589.0 49787.0 56937.0 62307.0 145677.0 142394.0 48568.0 51082.0 205945.0 203316.0 42906.0 39944.0 199803.0 192956.0 44148.0 35979.0 43936.0 46462.0 106198.0 112390.0 146593.0 141707.0 135540.0 143516.0 112106.0 110220.0 127340.0 133974.0 114910.0 108191.0 36449.0 41961.0 51447.0 58165.0 103543.0 110380.0 68795.0 178033.0 68795.0 68795.0 68795.0 68795.0 68795.0 68795.0 68795.0 178033.0 178033.0 178033.0 178033.0 178033.0 178033.0 178033.0
9862.0 17613.0 366068.0 361016.0 51149.0 48906.0 250684.0 257902.0 242231.0 237535.0 156469.0 164743.0 27746.0 29861.0 286443.0 280709.0 348629.0 342813.0 221249.0 218925.0 173149.0 175301.0 341561.0 344751.0 317155.0 309287.0 0.0 8039.0 354891.0 347559.0 334250.0 337490.0 82938.0 75664.0 274483.0 282445.0 207357.0 215021.0 349997.0 352128.0 320441.0 313887.0 316303.0 312893.0 286940.0 292776.0 299747.0 293102.0 352126.0 356975.0 289882.0 281845.0 318115.0 310087.0 322367.0 326905.0 291665.0 293727.0 274057.0 280708.0 327188.0 321162.0 206958.0 199940.0 312576.0 317267.0 300475.0 299670.0 295703.0 288039.0 214280.0 206004.0 236050.0 242946.0 308729.0 303872.0 306028.0 303378.0 218854.0 210898.0 289808.0 132322.0 289808.0 289808.0 289808.0 289808.0 289808.0 289808.0 289808.0 132322.0 132322.0 132322.0 132322.0 132322.0 132322.0 132322.0
16346.0 23063.0 373571.0 368468.0 59099.0 56587.0 257893.0 265164.0 249447.0 244651.0 162907.0 171224.0 22520.0 26510.0 294328.0 288594.0 356514.0 350698.0 228724.0 226497.0 180208.0 182187.0 349445.0 352636.0 325061.0 317204.0 8039.0 0.0 362776.0 355443.0 340543.0 343896.0 90970.0 83676.0 281833.0 289807.0 214296.0 221923.0 357749.0 360033.0 328262.0 321678.0 322865.0 319559.0 294501.0 300385.0 307280.0 300591.0 358782.0 363711.0 297510.0 289480.0 323506.0 315476.0 330251.0 334790.0 297019.0 299233.0 281817.0 288503.0 334870.0 328804.0 214676.0 207676.0 319001.0 323787.0 307034.0 306101.0 302599.0 294959.0 221340.0 213032.0 243113.0 250069.0 316614.0 311757.0 313913.0 311262.0 226365.0 218405.0 297692.0 140267.0 297692.0 297692.0 297692.0 297692.0 297692.0 297692.0 297692.0 140267.0 140267.0 140267.0 140267.0 140267.0 140267.0 140267.0
347127.0 342964.0 106609.0 111530.0 303812.0 306527.0 153911.0 146933.0 157924.0 166109.0 238166.0 232068.0 379254.0 377313.0 68525.0 74285.0 10258.0 12261.0 156982.0 153813.0 208898.0 213052.0 24949.0 30550.0 50867.0 54824.0 354891.0 362776.0 0.0 8543.0 204883.0 197976.0 274420.0 280276.0 132958.0 128811.0 191281.0 188652.0 30724.0 38616.0 62876.0 70430.0 184223.0 176785.0 109464.0 101966.0 106664.0 113434.0 183241.0 178191.0 101517.0 105220.0 253761.0 252015.0 35920.0 29382.0 250392.0 243199.0 98845.0 90719.0 81132.0 87674.0 156809.0 162311.0 193099.0 187175.0 183884.0 192100.0 161167.0 160615.0 181859.0 188259.0 169725.0 162951.0 47583.0 54146.0 57298.0 64628.0 156919.0 163302.0 92852.0 223554.0 92852.0 92852.0 92852.0 92852.0 92852.0 92852.0 92852.0 223554.0 223554.0 223554.0 223554.0 223554.0 223554.0 223554.0
339794.0 335632.0 110230.0 114681.0 296479.0 299194.0 150177.0 143436.0 153818.0 161971.0 232268.0 226329.0 371921.0 369981.0 61116.0 67236.0 12311.0 7888.0 151596.0 148120.0 202931.0 207284.0 25582.0 32605.0 48153.0 50956.0 347559.0 355443.0 8543.0 0.0 205387.0 198690.0 267087.0 272943.0 130143.0 126435.0 186315.0 183967.0 34118.0 42335.0 61806.0 68855.0 184086.0 176516.0 106834.0 99559.0 105034.0 111445.0 184793.0 180044.0 98821.0 101949.0 253178.0 251169.0 27475.0 21190.0 248924.0 241844.0 94388.0 86368.0 81523.0 87559.0 150430.0 155763.0 192750.0 187067.0 183013.0 191182.0 160021.0 159058.0 176970.0 183154.0 165602.0 159022.0 39551.0 45892.0 48785.0 56088.0 151377.0 157560.0 84514.0 216221.0 84514.0 84514.0 84514.0 84514.0 84514.0 84514.0 84514.0 216221.0 216221.0 216221.0 216221.0 216221.0 216221.0 216221.0
324527.0 317487.0 111859.0 103987.0 290948.0 288924.0 103914.0 101710.0 110487.0 110144.0 177850.0 169673.0 361937.0 362582.0 185563.0 179269.0 194821.0 197650.0 138537.0 145635.0 166139.0 161814.0 180190.0 174423.0 160395.0 161794.0 334250.0 340543.0 204883.0 205387.0 0.0 8425.0 272107.0 274741.0 97829.0 94997.0 132136.0 124309.0 175242.0 168588.0 144407.0 138675.0 25555.0 33288.0 111567.0 115469.0 105957.0 102847.0 31984.0 40144.0 118151.0 120776.0 56380.0 58724.0 204655.0 200985.0 68714.0 61312.0 137419.0 140763.0 123886.0 117978.0 163101.0 168779.0 23321.0 22833.0 38017.0 35672.0 56706.0 62998.0 128444.0 135160.0 109576.0 106027.0 197233.0 201168.0 210553.0 215632.0 142189.0 147570.0 215326.0 229147.0 215326.0 215326.0 215326.0 215326.0 215326.0 215326.0 215326.0 229147.0 229147.0 229147.0 229147.0 229147.0 229147.0 229147.0
327808.0 320860.0 103722.0 95895.0 293515.0 291716.0 102958.0 100115.0 109929.0 110212.0 181021.0 172760.0 365130.0 365604.0 180699.0 174600.0 187966.0 190995.0 137941.0 144817.0 168073.0 164080.0 173384.0 167466.0 154243.0 155944.0 337490.0 343896.0 197976.0 198690.0 8425.0 0.0 273911.0 276773.0 94798.0 91362.0 133756.0 125882.0 168141.0 161362.0 138058.0 132578.0 23743.0 30561.0 107093.0 110553.0 100726.0 98121.0 23725.0 31873.0 113376.0 116458.0 64804.0 67094.0 198714.0 194855.0 76632.0 69120.0 133291.0 136235.0 117169.0 111510.0 162303.0 168198.0 24940.0 21661.0 38385.0 37848.0 54182.0 61061.0 129508.0 136537.0 109921.0 105831.0 191660.0 195806.0 205243.0 210514.0 141571.0 147285.0 210954.0 230070.0 210954.0 210954.0 210954.0 210954.0 210954.0 210954.0 210954.0 230070.0 230070.0 230070.0 230070.0 230070.0 230070.0 230070.0
76416.0 73948.0 288839.0 284421.0 32708.0 38419.0 178360.0 184722.0 169995.0 166800.0 100857.0 107468.0 106350.0 104410.0 205971.0 200237.0 268157.0 262342.0 145771.0 142094.0 105975.0 110725.0 261089.0 264280.0 236724.0 228899.0 82938.0 90970.0 274420.0 267087.0 272107.0 273911.0 0.0 8101.0 199880.0 207605.0 140161.0 148040.0 269526.0 271689.0 240124.0 233752.0 251154.0 246497.0 209472.0 214649.0 222533.0 216497.0 285277.0 289077.0 211534.0 203459.0 267273.0 259495.0 241895.0 246434.0 242074.0 242211.0 194242.0 200588.0 247984.0 242462.0 128155.0 120973.0 249209.0 252627.0 235658.0 236491.0 226693.0 218853.0 145035.0 137552.0 166082.0 171980.0 228258.0 223401.0 225557.0 222906.0 142895.0 135177.0 209336.0 50865.0 209336.0 209336.0 209336.0 209336.0 209336.0 209336.0 209336.0 50865.0 50865.0 50865.0 50865.0 50865.0 50865.0 50865.0
68834.0 66108.0 294210.0 289649.0 24935.0 30346.0 182528.0 189081.0 174119.0 170614.0 101394.0 108390.0 99269.0 97329.0 211828.0 206094.0 274014.0 268198.0 150517.0 147153.0 108701.0 112995.0 266945.0 270136.0 242580.0 234756.0 75664.0 83676.0 280276.0 272943.0 274741.0 276773.0 8101.0 0.0 204571.0 212361.0 143167.0 151053.0 275382.0 277545.0 245980.0 239580.0 254219.0 249758.0 214819.0 220162.0 227837.0 221653.0 288688.0 292670.0 217098.0 209023.0 268271.0 260436.0 247751.0 252290.0 242821.0 243219.0 200095.0 206428.0 253800.0 248144.0 133698.0 126545.0 251982.0 255612.0 238631.0 239201.0 230361.0 222534.0 148461.0 140782.0 169744.0 175858.0 234114.0 229257.0 231413.0 228762.0 147745.0 139944.0 215192.0 57106.0 215192.0 215192.0 215192.0 215192.0 215192.0 215192.0 215192.0 57106.0 57106.0 57106.0 57106.0 57106.0 57106.0 57106.0
265516.0 259730.0 93024.0 87189.0 225479.0 225874.0 26295.0 18072.0 33946.0 40942.0 127604.0 119637.0 300912.0 299730.0 92829.0 85565.0 122952.0 122410.0 54111.0 58432.0 103110.0 103263.0 109117.0 106716.0 82150.0 79535.0 274483.0 281833.0 132958.0 130143.0 97829.0 94798.0 199880.0 204571.0 0.0 8022.0 72630.0 66773.0 110090.0 106980.0 71841.0 63613.0 72287.0 64589.0 23574.0 31346.0 30803.0 22718.0 95494.0 96566.0 31447.0 28764.0 131316.0 127520.0 119999.0 118622.0 121769.0 115381.0 42378.0 48055.0 63767.0 55865.0 74663.0 81577.0 77206.0 75098.0 63304.0 70138.0 41194.0 35901.0 63615.0 72003.0 43868.0 35967.0 109390.0 111392.0 120064.0 123676.0 57068.0 64706.0 119700.0 150783.0 119700.0 119700.0 119700.0 119700.0 119700.0 119700.0 119700.0 150783.0 150783.0 150783.0 150783.0 150783.0 150783.0 150783.0
273492.0 267722.0 85031.0 79169.0 233373.0 233815.0 34050.0 25888.0 41870.0 48685.0 135522.0 127526.0 308843.0 307627.0 92662.0 85729.0 118697.0 118626.0 61851.0 65885.0 111129.0 111247.0 104589.0 101728.0 78285.0 76392.0 282445.0 289807.0 128811.0 126435.0 94997.0 91362.0 207605.0 212361.0 8022.0 0.0 80486.0 74495.0 104854.0 101323.0 66820.0 58744.0 69634.0 61738.0 19825.0 26882.0 24159.0 16199.0 90336.0 90893.0 27827.0 27229.0 131587.0 128236.0 117852.0 116002.0 123609.0 116933.0 42846.0 47388.0 57023.0 49030.0 81786.0 88782.0 75431.0 72550.0 62234.0 69576.0 39137.0 35164.0 71539.0 79946.0 51501.0 43598.0 107885.0 110411.0 119339.0 123413.0 64723.0 72437.0 120848.0 158330.0 120848.0 120848.0 120848.0 120848.0 120848.0 120848.0 120848.0 158330.0 158330.0 158330.0 158330.0 158330.0 158330.0 158330.0
197974.0 191600.0 165288.0 159051.0 160954.0 159937.0 46469.0 54598.0 38736.0 31946.0 55172.0 47070.0 234575.0 234306.0 132661.0 124745.0 182273.0 179391.0 36096.0 42083.0 34643.0 32180.0 170399.0 170152.0 142298.0 136825.0 207357.0 214296.0 191281.0 186315.0 132136.0 133756.0 140161.0 143167.0 72630.0 80486.0 0.0 7886.0 174461.0 173187.0 137235.0 129077.0 111055.0 106677.0 91774.0 99334.0 102445.0 94594.0 145758.0 150101.0 97681.0 90957.0 135629.0 128644.0 168235.0 169642.0 113959.0 111560.0 92717.0 100906.0 134634.0 127100.0 51677.0 52894.0 109108.0 112479.0 95504.0 96469.0 88367.0 80683.0 9599.0 4886.0 29618.0 37272.0 154920.0 153548.0 159618.0 159784.0 37608.0 34895.0 147836.0 97785.0 147836.0 147836.0 147836.0 147836.0 147836.0 147836.0 147836.0 97785.0 97785.0 97785.0 97785.0 97785.0 97785.0 97785.0
205610.0 199187.0 158942.0 152558.0 168782.0 167706.0 40479.0 48705.0 33290.0 25832.0 61903.0 53643.0 242281.0 242063.0 131823.0 123851.0 179455.0 176893.0 36379.0 43282.0 42499.0 39737.0 167229.0 166645.0 139103.0 133962.0 215021.0 221923.0 188652.0 183967.0 124309.0 125882.0 148040.0 151053.0 66773.0 74495.0 7886.0 0.0 170819.0 169218.0 133227.0 124998.0 103169.0 98807.0 86869.0 94571.0 97035.0 89082.0 137906.0 142293.0 93134.0 86745.0 128936.0 122087.0 166803.0 167873.0 107864.0 105139.0 89825.0 97983.0 129549.0 121892.0 55059.0 57166.0 101255.0 104595.0 87621.0 88638.0 80683.0 73038.0 8694.0 11195.0 23061.0 30926.0 153698.0 152708.0 159142.0 159702.0 38559.0 37448.0 148365.0 105378.0 148365.0 148365.0 148365.0 148365.0 148365.0 148365.0 148365.0 105378.0 105378.0 105378.0 105378.0 105378.0 105378.0 105378.0
342213.0 338045.0 76183.0 80878.0 298917.0 301633.0 133369.0 125777.0 138521.0 146680.0 224723.0 217968.0 374359.0 372419.0 69152.0 72026.0 21864.0 28184.0 142392.0 140616.0 196067.0 199273.0 11955.0 5358.0 33423.0 40779.0 349997.0 357749.0 30724.0 34118.0 175242.0 168141.0 269526.0 275382.0 110090.0 104854.0 174461.0 170819.0 0.0 8242.0 38285.0 46574.0 155397.0 148170.0 86652.0 78776.0 81356.0 88826.0 152801.0 147613.0 79159.0 84452.0 225380.0 224039.0 50673.0 43380.0 223491.0 216111.0 82453.0 74395.0 52442.0 59691.0 146824.0 153098.0 164539.0 158300.0 156177.0 164436.0 134088.0 134350.0 164874.0 172017.0 150195.0 142886.0 55819.0 63430.0 70345.0 78341.0 142993.0 150127.0 100102.0 218659.0 100102.0 100102.0 100102.0 100102.0 100102.0 100102.0 100102.0 218659.0 218659.0 218659.0 218659.0 218659.0 218659.0 218659.0
344385.0 340060.0 68065.0 72917.0 301081.0 303757.0 131003.0 123229.0 136541.0 144642.0 224350.0 217412.0 376523.0 374583.0 73949.0 76098.0 30056.0 36404.0 142025.0 140703.0 195976.0 198878.0 19443.0 11616.0 34976.0 42940.0 352128.0 360033.0 38616.0 42335.0 168588.0 161362.0 271689.0 277545.0 106980.0 101323.0 173187.0 169218.0 8242.0 0.0 35992.0 44242.0 149271.0 142178.0 83818.0 75895.0 77448.0 85161.0 145532.0 140185.0 76635.0 82503.0 219405.0 218270.0 58212.0 51032.0 218235.0 210779.0 82180.0 74320.0 46995.0 54607.0 147834.0 154291.0 158546.0 152140.0 150652.0 158914.0 128943.0 129597.0 163588.0 170946.0 148101.0 140638.0 62391.0 69971.0 77313.0 85293.0 142834.0 150157.0 105724.0 220823.0 105724.0 105724.0 105724.0 105724.0 105724.0 105724.0 105724.0 220823.0 220823.0 220823.0 220823.0 220823.0 220823.0 220823.0
312399.0 307747.0 64939.0 65821.0 269469.0 271751.0 95202.0 87539.0 100588.0 108707.0 188816.0 181755.0 344912.0 343013.0 56691.0 55079.0 52628.0 53932.0 106632.0 105802.0 160723.0 163354.0 38122.0 34918.0 16906.0 21829.0 320441.0 328262.0 62876.0 61806.0 144407.0 138058.0 240124.0 245980.0 71841.0 66820.0 137235.0 133227.0 38285.0 35992.0 0.0 8311.0 122472.0 114829.0 48370.0 40506.0 43899.0 50989.0 126134.0 122346.0 40899.0 46520.0 191373.0 189388.0 61632.0 57063.0 187516.0 180335.0 47332.0 39973.0 22592.0 26639.0 114292.0 121035.0 131011.0 125471.0 121229.0 129412.0 98345.0 97753.0 127637.0 135056.0 112185.0 104781.0 57462.0 63468.0 72853.0 79801.0 107643.0 115147.0 89809.0 189257.0 89809.0 89809.0 89809.0 89809.0 89809.0 89809.0 89809.0 189257.0 189257.0 189257.0 189257.0 189257.0 189257.0 189257.0
305754.0 300998.0 65921.0 65777.0 262998.0 265124.0 86892.0 79230.0 92306.0 100418.0 180915.0 173792.0 338563.0 336634.0 56444.0 53685.0 60223.0 60967.0 98851.0 98270.0 152968.0 155466.0 45908.0 43104.0 21742.0 24033.0 313887.0 321678.0 70430.0 68855.0 138675.0 132578.0 233752.0 239580.0 63613.0 58744.0 129077.0 124998.0 46574.0 44242.0 8311.0 0.0 116183.0 108437.0 40105.0 32267.0 36255.0 43068.0 121726.0 118369.0 32592.0 38263.0 184577.0 182400.0 66214.0 62310.0 180115.0 173004.0 40095.0 33181.0 20944.0 22454.0 107335.0 114174.0 124495.0 119200.0 114274.0 122410.0 91183.0 90267.0 119482.0 126956.0 103890.0 96475.0 60482.0 65845.0 75370.0 81873.0 99965.0 107548.0 88942.0 182886.0 88942.0 88942.0 88942.0 88942.0 88942.0 88942.0 88942.0 182886.0 182886.0 182886.0 182886.0 182886.0 182886.0 182886.0
306689.0 299881.0 98901.0 90780.0 271506.0 269978.0 79226.0 76538.0 86190.0 86597.0 160015.0 151660.0 343854.0 344096.0 160947.0 154468.0 174034.0 176257.0 114198.0 121080.0 145574.0 141944.0 159321.0 154074.0 137904.0 138674.0 316303.0 322865.0 184223.0 184086.0 25555.0 23743.0 251154.0 254219.0 72287.0 69634.0 111055.0 103169.0 155397.0 149271.0 122472.0 116183.0 0.0 8004.0 86742.0 91109.0 82094.0 78330.0 36526.0 42823.0 93611.0 95783.0 70242.0 69786.0 181573.0 178295.0 73616.0 65748.0 112253.0 115901.0 103168.0 96593.0 138567.0 144455.0 9945.0 3036.0 15831.0 18776.0 31152.0 37594.0 106371.0 113618.0 86414.0 82147.0 173523.0 177136.0 186435.0 191261.0 117828.0 123565.0 190251.0 206726.0 190251.0 190251.0 190251.0 190251.0 190251.0 190251.0 190251.0 206726.0 206726.0 206726.0 206726.0 206726.0 206726.0 206726.0
303333.0 296627.0 93802.0 85681.0 267507.0 266195.0 72753.0 69614.0 80001.0 80934.0 156936.0 148535.0 340364.0 340440.0 152943.0 146469.0 166578.0 168674.0 107888.0 114598.0 141304.0 138019.0 151860.0 146734.0 130140.0 130806.0 312893.0 319559.0 176785.0 176516.0 33288.0 30561.0 246497.0 249758.0 64589.0 61738.0 106677.0 98807.0 148170.0 142178.0 114829.0 108437.0 8004.0 0.0 78741.0 83115.0 74153.0 70329.0 39237.0 44441.0 85608.0 87796.0 77229.0 76306.0 173695.0 170477.0 78812.0 70991.0 104296.0 107904.0 95832.0 89115.0 132072.0 138099.0 16371.0 11021.0 14420.0 20534.0 23651.0 30540.0 101488.0 108986.0 81002.0 76282.0 165570.0 169153.0 178445.0 183260.0 111494.0 117463.0 182282.0 201399.0 182282.0 182282.0 182282.0 182282.0 182282.0 182282.0 182282.0 201399.0 201399.0 201399.0 201399.0 201399.0 201399.0 201399.0
278292.0 272922.0 79391.0 75048.0 236924.0 238058.0 47409.0 39477.0 53630.0 61503.0 145588.0 137986.0 312725.0 311017.0 74242.0 67735.0 99426.0 99059.0 66183.0 68017.0 119156.0 120491.0 85546.0 83191.0 58734.0 56589.0 286940.0 294501.0 109464.0 106834.0 111567.0 107093.0 209472.0 214819.0 23574.0 19825.0 91774.0 86869.0 86652.0 83818.0 48370.0 40105.0 86742.0 78741.0 0.0 7924.0 13130.0 9610.0 102715.0 101917.0 8031.0 9617.0 150875.0 147738.0 98096.0 96180.0 143411.0 136695.0 26677.0 29196.0 42906.0 35581.0 81416.0 88611.0 93419.0 89741.0 80952.0 88579.0 57481.0 54444.0 82310.0 90306.0 64825.0 57157.0 88378.0 91209.0 100295.0 104738.0 68259.0 76225.0 103862.0 159119.0 103862.0 103862.0 103862.0 103862.0 103862.0 103862.0 103862.0 159119.0 159119.0 159119.0 159119.0 159119.0 159119.0 159119.0
284218.0 278959.0 74362.0 70618.0 242549.0 243873.0 55294.0 47391.0 61386.0 69312.0 152850.0 145328.0 318372.0 316525.0 70148.0 64141.0 91878.0 91746.0 72671.0 73961.0 126093.0 127656.0 77880.0 75370.0 51406.0 49787.0 292776.0 300385.0 101966.0 99559.0 115469.0 110553.0 214649.0 220162.0 31346.0 26882.0 99334.0 94571.0 78776.0 75895.0 40506.0 32267.0 91109.0 83115.0 7924.0 0.0 10919.0 12870.0 104549.0 103140.0 3612.0 11317.0 156641.0 153763.0 91901.0 89627.0 150016.0 143176.0 26221.0 26432.0 35645.0 28690.0 86497.0 93676.0 98283.0 94134.0 86394.0 94210.0 62865.0 60513.0 89830.0 97740.0 72661.0 65026.0 82783.0 86080.0 95339.0 100194.0 74541.0 82478.0 100912.0 164086.0 100912.0 100912.0 100912.0 100912.0 100912.0 100912.0 100912.0 164086.0 164086.0 164086.0 164086.0 164086.0 164086.0 164086.0
291050.0 285613.0 66405.0 61935.0 249839.0 250884.0 56749.0 48535.0 63801.0 71287.0 156885.0 149123.0 325621.0 323969.0 80163.0 74456.0 96441.0 97153.0 78704.0 80884.0 131055.0 132021.0 82012.0 78535.0 57224.0 56937.0 299747.0 307280.0 106664.0 105034.0 105957.0 100726.0 222533.0 227837.0 30803.0 24159.0 102445.0 97035.0 81356.0 77448.0 43899.0 36255.0 82094.0 74153.0 13130.0 10919.0 0.0 8087.0 93910.0 92337.0 14443.0 21121.0 149052.0 146575.0 99703.0 96841.0 143891.0 136820.0 37055.0 37247.0 32976.0 25063.0 94520.0 101715.0 89745.0 85130.0 78639.0 86664.0 55283.0 54028.0 93143.0 101338.0 74387.0 66527.0 91436.0 95213.0 104598.0 109788.0 80930.0 88896.0 111434.0 172222.0 111434.0 111434.0 111434.0 111434.0 111434.0 111434.0 111434.0 172222.0 172222.0 172222.0 172222.0 172222.0 172222.0 172222.0
284333.0 278806.0 72989.0 68026.0 243398.0 244282.0 48731.0 40507.0 55897.0 63302.0 149187.0 141372.0 319126.0 317593.0 82718.0 76485.0 103255.0 103588.0 71872.0 74513.0 123651.0 124431.0 88975.0 85826.0 63368.0 62307.0 293102.0 300591.0 113434.0 111445.0 102847.0 98121.0 216497.0 221653.0 22718.0 16199.0 94594.0 89082.0 88826.0 85161.0 50989.0 43068.0 78330.0 70329.0 9610.0 12870.0 8087.0 0.0 93191.0 92319.0 15306.0 19198.0 143844.0 141052.0 104659.0 102227.0 137655.0 130722.0 36220.0 38178.0 41062.0 33147.0 88819.0 95995.0 85423.0 81350.0 73552.0 81401.0 50028.0 47922.0 85346.0 93591.0 66369.0 58497.0 95650.0 98929.0 108166.0 112933.0 74264.0 82209.0 112936.0 166420.0 112936.0 112936.0 112936.0 112936.0 112936.0 112936.0 112936.0 166420.0 166420.0 166420.0 166420.0 166420.0 166420.0 166420.0
342561.0 335840.0 83725.0 76301.0 306668.0 305411.0 109230.0 104755.0 117041.0 118919.0 196092.0 187703.0 379601.0 379670.0 173638.0 168266.0 173508.0 177318.0 144332.0 150492.0 180401.0 177226.0 159232.0 152738.0 142862.0 145677.0 352126.0 358782.0 183241.0 184793.0 31984.0 23725.0 285277.0 288688.0 95494.0 90336.0 145758.0 137906.0 152801.0 145532.0 126134.0 121726.0 36526.0 39237.0 102715.0 104549.0 93910.0 93191.0 0.0 8160.0 107781.0 112331.0 88027.0 90684.0 187695.0 183164.0 100271.0 92695.0 129391.0 130952.0 104104.0 99607.0 167773.0 174177.0 42977.0 36315.0 52157.0 54881.0 59153.0 66945.0 140257.0 147923.0 119325.0 113991.0 182031.0 186885.0 196426.0 202318.0 147839.0 154339.0 205338.0 239442.0 205338.0 205338.0 205338.0 205338.0 205338.0 205338.0 205338.0 239442.0 239442.0 239442.0 239442.0 239442.0 239442.0 239442.0
347456.0 340818.0 77010.0 69807.0 311049.0 309977.0 111985.0 107026.0 119996.0 122371.0 201270.0 192857.0 384376.0 384306.0 171387.0 166296.0 168584.0 172668.0 146860.0 152749.0 184722.0 181823.0 154462.0 147778.0 139182.0 142394.0 356975.0 363711.0 178191.0 180044.0 40144.0 31873.0 289077.0 292670.0 96566.0 90893.0 150101.0 142293.0 147613.0 140185.0 122346.0 118369.0 42823.0 44441.0 101917.0 103140.0 92337.0 92319.0 8160.0 0.0 106487.0 111517.0 96140.0 98842.0 183978.0 179218.0 108358.0 100758.0 128508.0 129565.0 100042.0 96038.0 169878.0 176425.0 50055.0 42992.0 58057.0 61489.0 62411.0 70254.0 144225.0 152058.0 122996.0 117309.0 178831.0 183923.0 193471.0 199568.0 150308.0 157033.0 203519.0 242642.0 203519.0 203519.0 203519.0 203519.0 203519.0 203519.0 203519.0 242642.0 242642.0 242642.0 242642.0 242642.0 242642.0 242642.0
281361.0 276150.0 77634.0 74024.0 239579.0 240976.0 54368.0 46644.0 60099.0 68124.0 150839.0 143395.0 315403.0 313580.0 67413.0 61228.0 91506.0 91053.0 70180.0 71201.0 123829.0 125569.0 77714.0 75563.0 50743.0 48568.0 289882.0 297510.0 101517.0 98821.0 118151.0 113376.0 211534.0 217098.0 31447.0 27827.0 97681.0 93134.0 79159.0 76635.0 40899.0 32592.0 93611.0 85608.0 8031.0 3612.0 14443.0 15306.0 107781.0 106487.0 0.0 8076.0 158525.0 155498.0 90224.0 88209.0 151364.0 144613.0 22633.0 23178.0 37951.0 31337.0 83405.0 90572.0 100589.0 96628.0 88426.0 96150.0 64906.0 62188.0 88137.0 95938.0 71538.0 64016.0 80736.0 83793.0 92975.0 97654.0 71938.0 79848.0 97835.0 160920.0 97835.0 97835.0 97835.0 97835.0 97835.0 97835.0 97835.0 160920.0 160920.0 160920.0 160920.0 160920.0 160920.0 160920.0
273340.0 268151.0 85657.0 81929.0 231519.0 232939.0 49053.0 41770.0 54093.0 62236.0 143580.0 136240.0 307342.0 305513.0 65533.0 58771.0 95397.0 94310.0 62459.0 63254.0 116296.0 118236.0 82063.0 80559.0 54388.0 51082.0 281845.0 289480.0 105220.0 101949.0 120776.0 116458.0 203459.0 209023.0 28764.0 27229.0 90957.0 86745.0 84452.0 82503.0 46520.0 38263.0 95783.0 87796.0 9617.0 11317.0 21121.0 19198.0 112331.0 111517.0 8076.0 0.0 158814.0 155408.0 91250.0 89878.0 150330.0 143809.0 17065.0 20240.0 45742.0 39330.0 75329.0 82496.0 102171.0 98763.0 89327.0 96767.0 66009.0 62387.0 81373.0 89005.0 65743.0 58466.0 80848.0 83207.0 92111.0 96226.0 64112.0 71993.0 94554.0 152851.0 94554.0 94554.0 94554.0 94554.0 94554.0 94554.0 94554.0 152851.0 152851.0 152851.0 152851.0 152851.0 152851.0 152851.0
308253.0 300679.0 167153.0 159137.0 280379.0 276810.0 126112.0 127582.0 129700.0 125786.0 166961.0 159896.0 345738.0 347586.0 224045.0 216867.0 243527.0 245305.0 155306.0 163200.0 164726.0 158402.0 228814.0 223863.0 206078.0 205945.0 318115.0 323506.0 253761.0 253178.0 56380.0 64804.0 267273.0 268271.0 131316.0 131587.0 135629.0 128936.0 225380.0 219405.0 191373.0 184577.0 70242.0 77229.0 150875.0 156641.0 149052.0 143844.0 88027.0 96140.0 158525.0 158814.0 0.0 8030.0 248499.0 245878.0 26537.0 25062.0 173676.0 178901.0 172996.0 166123.0 179428.0 183465.0 60859.0 67461.0 70413.0 62447.0 93853.0 96468.0 135919.0 139949.0 123656.0 123713.0 239243.0 241984.0 250925.0 254870.0 158810.0 161793.0 250648.0 231534.0 250648.0 250648.0 250648.0 250648.0 250648.0 250648.0 250648.0 231534.0 231534.0 231534.0 231534.0 231534.0 231534.0 231534.0
300225.0 292649.0 167893.0 159822.0 272427.0 268830.0 120967.0 122848.0 124183.0 119946.0 159095.0 152081.0 337709.0 339561.0 220348.0 213059.0 241764.0 243285.0 149308.0 157226.0 157282.0 150872.0 227072.0 222341.0 203756.0 203316.0 310087.0 315476.0 252015.0 251169.0 58724.0 67094.0 259495.0 260436.0 127520.0 128236.0 128644.0 122087.0 224039.0 218270.0 189388.0 182400.0 69786.0 76306.0 147738.0 153763.0 146575.0 141052.0 90684.0 98842.0 155498.0 155408.0 8030.0 0.0 245662.0 243256.0 18525.0 17383.0 169890.0 175369.0 171598.0 164537.0 173243.0 177111.0 60069.0 67166.0 68160.0 59992.0 91295.0 93311.0 129239.0 133030.0 117686.0 118108.0 236091.0 238613.0 247450.0 251195.0 152773.0 155512.0 246410.0 224138.0 246410.0 246410.0 246410.0 246410.0 246410.0 246410.0 246410.0 224138.0 224138.0 224138.0 224138.0 224138.0 224138.0 224138.0
314602.0 310440.0 121220.0 124098.0 271287.0 274003.0 136552.0 130723.0 138909.0 146835.0 211028.0 205594.0 346729.0 344789.0 37057.0 44365.0 34471.0 26360.0 132540.0 128113.0 181619.0 186555.0 38813.0 46609.0 44834.0 42906.0 322367.0 330251.0 35920.0 27475.0 204655.0 198714.0 241895.0 247751.0 119999.0 117852.0 168235.0 166803.0 50673.0 58212.0 61632.0 66214.0 181573.0 173695.0 98096.0 91901.0 99703.0 104659.0 187695.0 183978.0 90224.0 91250.0 248499.0 245662.0 0.0 7456.0 241443.0 234782.0 79916.0 72686.0 84053.0 88089.0 128212.0 132974.0 189432.0 184606.0 178152.0 186052.0 154655.0 152378.0 159223.0 164661.0 150461.0 144609.0 13903.0 18831.0 21521.0 29168.0 131819.0 137290.0 57108.0 191029.0 57108.0 57108.0 57108.0 57108.0 57108.0 57108.0 57108.0 191029.0 191029.0 191029.0 191029.0 191029.0 191029.0 191029.0
319140.0 314978.0 114982.0 118130.0 275825.0 278541.0 136333.0 130188.0 139127.0 147151.0 213721.0 208075.0 351267.0 349327.0 40667.0 47369.0 27135.0 19108.0 134249.0 130191.0 184317.0 189016.0 31594.0 39463.0 40611.0 39944.0 326905.0 334790.0 29382.0 21190.0 200985.0 194855.0 246434.0 252290.0 118622.0 116002.0 169642.0 167873.0 43380.0 51032.0 57063.0 62310.0 178295.0 170477.0 96180.0 89627.0 96841.0 102227.0 183164.0 179218.0 88209.0 89878.0 245878.0 243256.0 7456.0 0.0 239571.0 232786.0 79698.0 72127.0 79175.0 83686.0 131236.0 136267.0 186373.0 181322.0 175468.0 183456.0 152047.0 150119.0 160491.0 166216.0 150787.0 144675.0 18404.0 24764.0 28723.0 36493.0 133725.0 139494.0 63495.0 195567.0 63495.0 63495.0 63495.0 63495.0 63495.0 63495.0 63495.0 195567.0 195567.0 195567.0 195567.0 195567.0 195567.0 195567.0
281803.0 274212.0 172450.0 164324.0 254388.0 250676.0 111710.0 114686.0 113853.0 108746.0 141428.0 134606.0 319271.0 321170.0 214115.0 206581.0 240141.0 241043.0 137403.0 145338.0 141046.0 134371.0 225564.0 221377.0 200982.0 199803.0 291665.0 297019.0 250392.0 248924.0 68714.0 76632.0 242074.0 242821.0 121769.0 123609.0 113959.0 107864.0 223491.0 218235.0 187516.0 180115.0 73616.0 78812.0 143411.0 150016.0 143891.0 137655.0 100271.0 108358.0 151364.0 150330.0 26537.0 18525.0 241443.0 239571.0 0.0 7871.0 163727.0 169806.0 171251.0 163809.0 160679.0 164054.0 63688.0 71472.0 67926.0 59746.0 89411.0 89866.0 115485.0 118526.0 106137.0 107599.0 231141.0 233112.0 241660.0 244893.0 140737.0 142768.0 238750.0 207941.0 238750.0 238750.0 238750.0 238750.0 238750.0 238750.0 238750.0 207941.0 207941.0 207941.0 207941.0 207941.0 207941.0 207941.0
283866.0 276343.0 164593.0 156468.0 255475.0 251998.0 106457.0 109035.0 109046.0 104323.0 141932.0 134839.0 321393.0 323109.0 207970.0 200503.0 232944.0 233960.0 133371.0 141306.0 139911.0 133489.0 218340.0 214061.0 193981.0 192956.0 293727.0 299233.0 243199.0 241844.0 61312.0 69120.0 242211.0 243219.0 115381.0 116933.0 111560.0 105139.0 216111.0 210779.0 180335.0 173004.0 65748.0 70991.0 136695.0 143176.0 136820.0 130722.0 92695.0 100758.0 144613.0 143809.0 25062.0 17383.0 234782.0 232786.0 7871.0 0.0 157518.0 163436.0 163812.0 156420.0 157013.0 160663.0 55818.0 63600.0 60302.0 52090.0 82091.0 82839.0 112465.0 116004.0 101877.0 102857.0 224656.0 226773.0 235405.0 238786.0 136775.0 139184.0 233058.0 206777.0 233058.0 233058.0 233058.0 233058.0 233058.0 233058.0 233058.0 206777.0 206777.0 206777.0 206777.0 206777.0 206777.0 206777.0
265843.0 261011.0 97643.0 94881.0 223274.0 225240.0 56672.0 50868.0 59566.0 67671.0 142294.0 135516.0 298954.0 297014.0 50482.0 43191.0 89639.0 87171.0 59948.0 58575.0 113800.0 116834.0 77721.0 77882.0 49678.0 44148.0 274057.0 281817.0 98845.0 94388.0 137419.0 133291.0 194242.0 200095.0 42378.0 42846.0 92717.0 89825.0 82453.0 82180.0 47332.0 40095.0 112253.0 104296.0 26677.0 26221.0 37055.0 36220.0 129391.0 128508.0 22633.0 17065.0 173676.0 169890.0 79916.0 79698.0 163727.0 157518.0 0.0 8189.0 54144.0 49496.0 67283.0 74179.0 118271.0 115205.0 104994.0 112164.0 81982.0 77719.0 83211.0 89963.0 71308.0 65002.0 68233.0 69524.0 77938.0 81327.0 60659.0 67994.0 78028.0 143376.0 78028.0 78028.0 78028.0 78028.0 78028.0 78028.0 78028.0 143376.0 143376.0 143376.0 143376.0 143376.0 143376.0 143376.0
272590.0 267867.0 93676.0 91514.0 229817.0 231956.0 64242.0 58093.0 67472.0 75611.0 150328.0 143600.0 305394.0 303461.0 45297.0 38573.0 81473.0 79097.0 68003.0 66386.0 121735.0 124879.0 69537.0 69777.0 41512.0 35979.0 280708.0 288503.0 90719.0 86368.0 140763.0 136235.0 200588.0 206428.0 48055.0 47388.0 100906.0 97983.0 74395.0 74320.0 39973.0 33181.0 115901.0 107904.0 29196.0 26432.0 37247.0 38178.0 130952.0 129565.0 23178.0 20240.0 178901.0 175369.0 72686.0 72127.0 169806.0 163436.0 8189.0 0.0 49080.0 45373.0 74321.0 81086.0 122395.0 118892.0 109557.0 116962.0 86250.0 82547.0 91398.0 98148.0 79244.0 72791.0 61479.0 63339.0 72083.0 76025.0 68619.0 75854.0 74759.0 149722.0 74759.0 74759.0 74759.0 74759.0 74759.0 74759.0 74759.0 149722.0 149722.0 149722.0 149722.0 149722.0 149722.0 149722.0
318778.0 313689.0 45521.0 44899.0 276656.0 278294.0 89518.0 81348.0 96259.0 103942.0 188454.0 180883.0 352443.0 350536.0 77378.0 74554.0 70998.0 73828.0 108129.0 108960.0 161721.0 163291.0 56327.0 50909.0 39487.0 43936.0 327188.0 334870.0 81132.0 81523.0 123886.0 117169.0 247984.0 253800.0 63767.0 57023.0 134634.0 129549.0 52442.0 46995.0 22592.0 20944.0 103168.0 95832.0 42906.0 35645.0 32976.0 41062.0 104104.0 100042.0 37951.0 45742.0 172996.0 171598.0 84053.0 79175.0 171251.0 163812.0 54144.0 49080.0 0.0 8042.0 120285.0 127369.0 112189.0 106102.0 103766.0 112027.0 81951.0 82777.0 125195.0 133211.0 107130.0 99314.0 80004.0 85856.0 95298.0 102101.0 109847.0 117734.0 109849.0 197172.0 109849.0 109849.0 109849.0 109849.0 109849.0 109849.0 109849.0 197172.0 197172.0 197172.0 197172.0 197172.0 197172.0 197172.0
312668.0 307478.0 48315.0 46348.0 270781.0 272256.0 81740.0 73547.0 88609.0 96219.0 181151.0 173514.0 346599.0 344738.0 78026.0 74427.0 77463.0 79766.0 101361.0 102536.0 154685.0 156072.0 62746.0 57806.0 43257.0 46462.0 321162.0 328804.0 87674.0 87559.0 117978.0 111510.0 242462.0 248144.0 55865.0 49030.0 127100.0 121892.0 59691.0 54607.0 26639.0 22454.0 96593.0 89115.0 35581.0 28690.0 25063.0 33147.0 99607.0 96038.0 31337.0 39330.0 166123.0 164537.0 88089.0 83686.0 163809.0 156420.0 49496.0 45373.0 8042.0 0.0 114472.0 121606.0 105425.0 99560.0 96543.0 104795.0 74423.0 75005.0 117703.0 125783.0 99369.0 91530.0 82904.0 88295.0 97822.0 104281.0 103214.0 111141.0 109735.0 191730.0 109735.0 109735.0 109735.0 109735.0 109735.0 109735.0 109735.0 191730.0 191730.0 191730.0 191730.0 191730.0 191730.0 191730.0
198647.0 193746.0 160716.0 156455.0 156371.0 158088.0 59348.0 63026.0 52658.0 54325.0 83051.0 78186.0 232167.0 230279.0 91176.0 83940.0 149171.0 144550.0 24737.0 17487.0 53755.0 59442.0 139885.0 141809.0 113414.0 106198.0 206958.0 214676.0 156809.0 150430.0 163101.0 162303.0 128155.0 133698.0 74663.0 81786.0 51677.0 55059.0 146824.0 147834.0 114292.0 107335.0 138567.0 132072.0 81416.0 86497.0 94520.0 88819.0 167773.0 169878.0 83405.0 75329.0 179428.0 173243.0 128212.0 131236.0 160679.0 157013.0 67283.0 74321.0 120285.0 114472.0 0.0 7195.0 140041.0 140824.0 125155.0 129063.0 109179.0 101695.0 46513.0 46859.0 55995.0 57574.0 114334.0 111259.0 115629.0 114275.0 21083.0 17962.0 100929.0 77703.0 100929.0 100929.0 100929.0 100929.0 100929.0 100929.0 100929.0 77703.0 77703.0 77703.0 77703.0 77703.0 77703.0 77703.0
191675.0 186836.0 167908.0 163650.0 149294.0 151091.0 65353.0 69440.0 58309.0 59276.0 79175.0 74870.0 225074.0 223172.0 95921.0 88899.0 154874.0 150051.0 30262.0 23688.0 50259.0 56551.0 145914.0 148040.0 119727.0 112390.0 199940.0 207676.0 162311.0 155763.0 168779.0 168198.0 120973.0 126545.0 81577.0 88782.0 52894.0 57166.0 153098.0 154291.0 121035.0 114174.0 144455.0 138099.0 88611.0 93676.0 101715.0 95995.0 174177.0 176425.0 90572.0 82496.0 183465.0 177111.0 132974.0 136267.0 164054.0 160663.0 74179.0 81086.0 127369.0 121606.0 7195.0 0.0 145628.0 146651.0 130780.0 134425.0 115399.0 107839.0 48905.0 48009.0 60638.0 62889.0 119072.0 115665.0 119599.0 117834.0 26627.0 21785.0 104309.0 70508.0 104309.0 104309.0 104309.0 104309.0 104309.0 104309.0 104309.0 70508.0 70508.0 70508.0 70508.0 70508.0 70508.0 70508.0
302901.0 295971.0 108846.0 100725.0 268597.0 266778.0 81038.0 79322.0 87389.0 86858.0 156111.0 147839.0 340209.0 340668.0 167631.0 160941.0 182884.0 184898.0 115415.0 122603.0 143300.0 139203.0 168166.0 163084.0 146156.0 146593.0 312576.0 319001.0 193099.0 192750.0 23321.0 24940.0 249209.0 251982.0 77206.0 75431.0 109108.0 101255.0 164539.0 158546.0 131011.0 124495.0 9945.0 16371.0 93419.0 98283.0 89745.0 85423.0 42977.0 50055.0 100589.0 102171.0 60859.0 60069.0 189432.0 186373.0 63688.0 55818.0 118271.0 122395.0 112189.0 105425.0 140041.0 145628.0 0.0 7913.0 14913.0 12910.0 36298.0 41469.0 105206.0 112027.0 86259.0 82805.0 180991.0 184350.0 193562.0 198152.0 119073.0 124340.0 196277.0 205896.0 196277.0 196277.0 196277.0 196277.0 196277.0 196277.0 196277.0 205896.0 205896.0 205896.0 205896.0 205896.0 205896.0 205896.0
307633.0 300786.0 101212.0 93098.0 272710.0 271096.0 81510.0 79008.0 88354.0 88551.0 160895.0 152563.0 344845.0 345154.0 163954.0 157461.0 176991.0 179241.0 116389.0 123339.0 146929.0 143165.0 162280.0 157005.0 140923.0 141707.0 317267.0 323787.0 187175.0 187067.0 22833.0 21661.0 252627.0 255612.0 75098.0 72550.0 112479.0 104595.0 158300.0 152140.0 125471.0 119200.0 3036.0 11021.0 89741.0 94134.0 85130.0 81350.0 36315.0 42992.0 96628.0 98763.0 67461.0 67166.0 184606.0 181322.0 71472.0 63600.0 115205.0 118892.0 106102.0 99560.0 140824.0 146651.0 7913.0 0.0 16982.0 18567.0 33922.0 40180.0 107997.0 115139.0 88270.0 84187.0 176558.0 180166.0 189463.0 194280.0 120026.0 125665.0 193212.0 208479.0 193212.0 193212.0 193212.0 193212.0 193212.0 193212.0 193212.0 208479.0 208479.0 208479.0 208479.0 208479.0 208479.0 208479.0
290859.0 284050.0 106259.0 98182.0 255761.0 254189.0 66125.0 64507.0 72511.0 72166.0 144187.0 135830.0 328029.0 328286.0 154854.0 147962.0 173630.0 175130.0 100550.0 107708.0 129947.0 126207.0 158947.0 154332.0 135706.0 135540.0 300475.0 307034.0 183884.0 183013.0 38017.0 38385.0 235658.0 238631.0 63304.0 62234.0 95504.0 87621.0 156177.0 150652.0 121229.0 114274.0 15831.0 14420.0 80952.0 86394.0 78639.0 73552.0 52157.0 58057.0 88426.0 89327.0 70413.0 68160.0 178152.0 175468.0 67926.0 60302.0 104994.0 109557.0 103766.0 96543.0 125155.0 130780.0 14913.0 16982.0 0.0 8262.0 23531.0 27405.0 91124.0 98196.0 71699.0 68010.0 169143.0 172156.0 181242.0 185544.0 104206.0 109554.0 182844.0 191700.0 182844.0 182844.0 182844.0 182844.0 182844.0 182844.0 182844.0 191700.0 191700.0 191700.0 191700.0 191700.0 191700.0 191700.0
289997.0 283073.0 113847.0 105747.0 255716.0 253876.0 70670.0 69848.0 76475.0 75308.0 143206.0 134931.0 327300.0 327758.0 162236.0 155247.0 181845.0 183297.0 104345.0 111721.0 130545.0 126365.0 167168.0 162579.0 143795.0 143516.0 299670.0 306101.0 192100.0 191182.0 35672.0 37848.0 236491.0 239201.0 70138.0 69576.0 96469.0 88638.0 164436.0 158914.0 129412.0 122410.0 18776.0 20534.0 88579.0 94210.0 86664.0 81401.0 54881.0 61489.0 96150.0 96767.0 62447.0 59992.0 186052.0 183456.0 59746.0 52090.0 112164.0 116962.0 112027.0 104795.0 129063.0 134425.0 12910.0 18567.0 8262.0 0.0 31411.0 34453.0 92846.0 99494.0 74466.0 71544.0 176886.0 179777.0 188808.0 192985.0 108006.0 112937.0 189830.0 193544.0 189830.0 189830.0 189830.0 189830.0 189830.0 189830.0 189830.0 193544.0 193544.0 193544.0 193544.0 193544.0 193544.0 193544.0
286290.0 279838.0 90959.0 83200.0 249079.0 248258.0 50175.0 46323.0 57895.0 59962.0 141254.0 132825.0 322942.0 322639.0 131534.0 124747.0 150909.0 152133.0 85360.0 91768.0 122833.0 120413.0 136280.0 131975.0 112466.0 112106.0 295703.0 302599.0 161167.0 160021.0 56706.0 54182.0 226693.0 230361.0 41194.0 39137.0 88367.0 80683.0 134088.0 128943.0 98345.0 91183.0 31152.0 23651.0 57481.0 62865.0 55283.0 50028.0 59153.0 62411.0 64906.0 66009.0 93853.0 91295.0 154655.0 152047.0 89411.0 82091.0 81982.0 86250.0 81951.0 74423.0 109179.0 115399.0 36298.0 33922.0 23531.0 31411.0 0.0 7844.0 82021.0 90013.0 60624.0 54927.0 145614.0 148662.0 157774.0 162162.0 88909.0 95251.0 159981.0 180349.0 159981.0 159981.0 159981.0 159981.0 159981.0 159981.0 159981.0 180349.0 180349.0 180349.0 180349.0 180349.0 180349.0 180349.0
278643.0 272221.0 95488.0 87919.0 241308.0 240528.0 42529.0 39074.0 50143.0 52118.0 133868.0 125447.0 315249.0 314910.0 127802.0 120795.0 150375.0 151178.0 77731.0 84250.0 115096.0 112775.0 135856.0 131950.0 111144.0 110220.0 288039.0 294959.0 160615.0 159058.0 62998.0 61061.0 218853.0 222534.0 35901.0 35164.0 80683.0 73038.0 134350.0 129597.0 97753.0 90267.0 37594.0 30540.0 54444.0 60513.0 54028.0 47922.0 66945.0 70254.0 62188.0 62387.0 96468.0 93311.0 152378.0 150119.0 89866.0 82839.0 77719.0 82547.0 82777.0 75005.0 101695.0 107839.0 41469.0 40180.0 27405.0 34453.0 7844.0 0.0 74228.0 82255.0 52792.0 47092.0 142821.0 145518.0 154485.0 158571.0 81300.0 87548.0 155476.0 172526.0 155476.0 155476.0 155476.0 155476.0 155476.0 155476.0 155476.0 172526.0 172526.0 172526.0 172526.0 172526.0 172526.0 172526.0
204998.0 198783.0 156501.0 150399.0 167097.0 166450.0 37692.0 45686.0 29672.0 23523.0 63989.0 56056.0 241323.0 240822.0 123921.0 115972.0 172806.0 170002.0 27900.0 34638.0 41133.0 40000.0 160864.0 160575.0 132755.0 127340.0 214280.0 221340.0 181859.0 176970.0 128444.0 129508.0 145035.0 148461.0 63615.0 71539.0 9599.0 8694.0 164874.0 163588.0 127637.0 119482.0 106371.0 101488.0 82310.0 89830.0 93143.0 85346.0 140257.0 144225.0 88137.0 81373.0 135919.0 129239.0 159223.0 160491.0 115485.0 112465.0 83211.0 91398.0 125195.0 117703.0 46513.0 48905.0 105206.0 107997.0 91124.0 92846.0 82021.0 74228.0 0.0 8481.0 21773.0 28953.0 145998.0 144814.0 151086.0 151489.0 29941.0 28802.0 139943.0 100704.0 139943.0 139943.0 139943.0 139943.0 139943.0 139943.0 139943.0 100704.0 100704.0 100704.0 100704.0 100704.0 100704.0 100704.0
196694.0 190438.0 164936.0 158859.0 159071.0 158293.0 46157.0 54119.0 38080.0 31994.0 55630.0 47786.0 233102.0 232675.0 128870.0 120984.0 179356.0 176310.0 32207.0 37802.0 32875.0 31520.0 167684.0 167631.0 139623.0 133974.0 206004.0 213032.0 188259.0 183154.0 135160.0 136537.0 137552.0 140782.0 72003.0 79946.0 4886.0 11195.0 172017.0 170946.0 135056.0 126956.0 113618.0 108986.0 90306.0 97740.0 101338.0 93591.0 147923.0 152058.0 95938.0 89005.0 139949.0 133030.0 164661.0 166216.0 118526.0 116004.0 89963.0 98148.0 133211.0 125783.0 46859.0 48009.0 112027.0 115139.0 98196.0 99494.0 90013.0 82255.0 8481.0 0.0 30134.0 37419.0 151266.0 149739.0 155667.0 155692.0 33449.0 30279.0 143565.0 94275.0 143565.0 143565.0 143565.0 143565.0 143565.0 143565.0 143565.0 94275.0 94275.0 94275.0 94275.0 94275.0 94275.0 94275.0
226771.0 220551.0 135891.0 129546.0 188726.0 188173.0 17639.0 25865.0 11801.0 3638.0 84738.0 76558.0 263076.0 262534.0 117227.0 109243.0 160216.0 158269.0 31650.0 39549.0 62906.0 61529.0 147409.0 146254.0 119393.0 114910.0 236050.0 243113.0 169725.0 165602.0 109576.0 109921.0 166082.0 169744.0 43868.0 51501.0 29618.0 23061.0 150195.0 148101.0 112185.0 103890.0 86414.0 81002.0 64825.0 72661.0 74387.0 66369.0 119325.0 122996.0 71538.0 65743.0 123656.0 117686.0 150461.0 150787.0 106137.0 101877.0 71308.0 79244.0 107130.0 99369.0 55995.0 60638.0 86259.0 88270.0 71699.0 74466.0 60624.0 52792.0 21773.0 30134.0 0.0 7905.0 137939.0 137849.0 145088.0 146617.0 35170.0 38881.0 137159.0 120399.0 137159.0 137159.0 137159.0 137159.0 137159.0 137159.0 137159.0 120399.0 120399.0 120399.0 120399.0 120399.0 120399.0 120399.0
233723.0 227585.0 128079.0 121788.0 195255.0 194891.0 9797.0 17992.0 6326.0 5435.0 92442.0 84305.0 269871.0 269206.0 112124.0 104180.0 153350.0 151613.0 32837.0 40378.0 69923.0 68928.0 140365.0 139024.0 112432.0 108191.0 242946.0 250069.0 162951.0 159022.0 106027.0 105831.0 171980.0 175858.0 35967.0 43598.0 37272.0 30926.0 142886.0 140638.0 104781.0 96475.0 82147.0 76282.0 57157.0 65026.0 66527.0 58497.0 113991.0 117309.0 64016.0 58466.0 123713.0 118108.0 144609.0 144675.0 107599.0 102857.0 65002.0 72791.0 99314.0 91530.0 57574.0 62889.0 82805.0 84187.0 68010.0 71544.0 54927.0 47092.0 28953.0 37419.0 7905.0 0.0 132329.0 132562.0 140063.0 141932.0 36494.0 41544.0 133236.0 125451.0 133236.0 133236.0 133236.0 133236.0 133236.0 133236.0 133236.0 125451.0 125451.0 125451.0 125451.0 125451.0 125451.0 125451.0
300965.0 296803.0 120426.0 122424.0 257650.0 260365.0 124564.0 119078.0 126506.0 134329.0 197191.0 191808.0 333092.0 331152.0 23163.0 30581.0 43917.0 36469.0 119095.0 114500.0 167786.0 172779.0 44000.0 51001.0 40750.0 36449.0 308729.0 316614.0 47583.0 39551.0 197233.0 191660.0 228258.0 234114.0 109390.0 107885.0 154920.0 153698.0 55819.0 62391.0 57462.0 60482.0 173523.0 165570.0 88378.0 82783.0 91436.0 95650.0 182031.0 178831.0 80736.0 80848.0 239243.0 236091.0 13903.0 18404.0 231141.0 224656.0 68233.0 61479.0 80004.0 82904.0 114334.0 119072.0 180991.0 176558.0 169143.0 176886.0 145614.0 142821.0 145998.0 151266.0 137939.0 132329.0 0.0 7611.0 15748.0 23411.0 118279.0 123619.0 45843.0 177392.0 45843.0 45843.0 45843.0 45843.0 45843.0 45843.0 45843.0 177392.0 177392.0 177392.0 177392.0 177392.0 177392.0 177392.0
296108.0 291945.0 127123.0 128879.0 252792.0 255508.0 125163.0 120068.0 126604.0 134271.0 194292.0 189150.0 328235.0 326294.0 20893.0 28857.0 51110.0 43460.0 117533.0 112534.0 164933.0 170180.0 51609.0 58602.0 47041.0 41961.0 303872.0 311757.0 54146.0 45892.0 201168.0 195806.0 223401.0 229257.0 111392.0 110411.0 153548.0 152708.0 63430.0 69971.0 63468.0 65845.0 177136.0 169153.0 91209.0 86080.0 95213.0 98929.0 186885.0 183923.0 83793.0 83207.0 241984.0 238613.0 18831.0 24764.0 233112.0 226773.0 69524.0 63339.0 85856.0 88295.0 111259.0 115665.0 184350.0 180166.0 172156.0 179777.0 148662.0 145518.0 144814.0 149739.0 137849.0 132562.0 7611.0 0.0 9548.0 16438.0 116494.0 121462.0 38771.0 172534.0 38771.0 38771.0 38771.0 38771.0 38771.0 38771.0 38771.0 172534.0 172534.0 172534.0 172534.0 172534.0 172534.0 172534.0
298264.0 294102.0 136157.0 138081.0 254949.0 257664.0 132948.0 128130.0 134015.0 141542.0 198626.0 193780.0 330391.0 328451.0 27956.0 35883.0 55855.0 47817.0 123525.0 118140.0 169382.0 174914.0 58400.0 65773.0 56298.0 51447.0 306028.0 313913.0 57298.0 48785.0 210553.0 205243.0 225557.0 231413.0 120064.0 119339.0 159618.0 159142.0 70345.0 77313.0 72853.0 75370.0 186435.0 178445.0 100295.0 95339.0 104598.0 108166.0 196426.0 193471.0 92975.0 92111.0 250925.0 247450.0 21521.0 28723.0 241660.0 235405.0 77938.0 72083.0 95298.0 97822.0 115629.0 119599.0 193562.0 189463.0 181242.0 188808.0 157774.0 154485.0 151086.0 155667.0 145088.0 140063.0 15748.0 9548.0 0.0 7995.0 122268.0 126829.0 36893.0 174691.0 36893.0 36893.0 36893.0 36893.0 36893.0 36893.0 36893.0 174691.0 174691.0 174691.0 174691.0 174691.0 174691.0 174691.0
295613.0 291451.0 143559.0 145302.0 252298.0 255013.0 135206.0 130782.0 135790.0 143121.0 197005.0 192441.0 327740.0 325800.0 30848.0 38321.0 63619.0 55527.0 123722.0 117962.0 167923.0 173709.0 66395.0 73761.0 63462.0 58165.0 303378.0 311262.0 64628.0 56088.0 215632.0 210514.0 222906.0 228762.0 123676.0 123413.0 159784.0 159702.0 78341.0 85293.0 79801.0 81873.0 191261.0 183260.0 104738.0 100194.0 109788.0 112933.0 202318.0 199568.0 97654.0 96226.0 254870.0 251195.0 29168.0 36493.0 244893.0 238786.0 81327.0 76025.0 102101.0 104281.0 114275.0 117834.0 198152.0 194280.0 185544.0 192985.0 162162.0 158571.0 151489.0 155692.0 146617.0 141932.0 23411.0 16438.0 7995.0 0.0 122243.0 126376.0 31861.0 172040.0 31861.0 31861.0 31861.0 31861.0 31861.0 31861.0 31861.0 172040.0 172040.0 172040.0 172040.0 172040.0 172040.0 172040.0
210126.0 204689.0 147215.0 142253.0 169174.0 170021.0 38777.0 43320.0 31702.0 33315.0 81777.0 75280.0 244871.0 243400.0 95667.0 87842.0 148411.0 144808.0 3661.0 4795.0 53143.0 56386.0 137558.0 138306.0 109870.0 103543.0 218854.0 226365.0 156919.0 151377.0 142189.0 141571.0 142895.0 147745.0 57068.0 64723.0 37608.0 38559.0 142993.0 142834.0 107643.0 99965.0 117828.0 111494.0 68259.0 74541.0 80930.0 74264.0 147839.0 150308.0 71938.0 64112.0 158810.0 152773.0 131819.0 133725.0 140737.0 136775.0 60659.0 68619.0 109847.0 103214.0 21083.0 26627.0 119073.0 120026.0 104206.0 108006.0 88909.0 81300.0 29941.0 33449.0 35170.0 36494.0 118279.0 116494.0 122268.0 122243.0 0.0 7968.0 110237.0 93760.0 110237.0 110237.0 110237.0 110237.0 110237.0 110237.0 110237.0 93760.0 93760.0 93760.0 93760.0 93760.0 93760.0 93760.0
202163.0 196721.0 155171.0 150182.0 161265.0 162072.0 45110.0 50306.0 37469.0 37651.0 74951.0 68777.0 236942.0 235500.0 100765.0 93063.0 154968.0 151137.0 10596.0 9541.0 45961.0 49750.0 144412.0 145377.0 116891.0 110380.0 210898.0 218405.0 163302.0 157560.0 147570.0 147285.0 135177.0 139944.0 64706.0 72437.0 34895.0 37448.0 150127.0 150157.0 115147.0 107548.0 123565.0 117463.0 76225.0 82478.0 88896.0 82209.0 154339.0 157033.0 79848.0 71993.0 161793.0 155512.0 137290.0 139494.0 142768.0 139184.0 67994.0 75854.0 117734.0 111141.0 17962.0 21785.0 124340.0 125665.0 109554.0 112937.0 95251.0 87548.0 28802.0 30279.0 38881.0 41544.0 123619.0 121462.0 126829.0 126376.0 7968.0 0.0 113779.0 86341.0 113779.0 113779.0 113779.0 113779.0 113779.0 113779.0 113779.0 86341.0 86341.0 86341.0 86341.0 86341.0 86341.0 86341.0
282043.0 277881.0 154576.0 154719.0 238728.0 241444.0 127471.0 124066.0 126955.0 133796.0 183483.0 179018.0 314170.0 312230.0 33292.0 35337.0 89757.0 82210.0 112043.0 105770.0 154464.0 160365.0 88720.0 94953.0 76270.0 68795.0 289808.0 297692.0 92852.0 84514.0 215326.0 210954.0 209336.0 215192.0 119700.0 120848.0 147836.0 148365.0 100102.0 105724.0 89809.0 88942.0 190251.0 182282.0 103862.0 100912.0 111434.0 112936.0 205338.0 203519.0 97835.0 94554.0 250648.0 246410.0 57108.0 63495.0 238750.0 233058.0 78028.0 74759.0 109849.0 109735.0 100929.0 104309.0 196277.0 193212.0 182844.0 189830.0 159981.0 155476.0 139943.0 143565.0 137159.0 133236.0 45843.0 38771.0 36893.0 31861.0 110237.0 113779.0 0.0 158470.0 0.0 0.0 0.0 0.0 0.0 0.0 0.0 158470.0 158470.0 158470.0 158470.0 158470.0 158470.0 158470.0
124850.0 121060.0 238386.0 234156.0 81174.0 84457.0 130820.0 136565.0 122677.0 120562.0 75084.0 78498.0 157477.0 155537.0 155105.0 149371.0 217291.0 211476.0 96878.0 92464.0 66901.0 73696.0 210223.0 213414.0 185857.0 178033.0 132322.0 140267.0 223554.0 216221.0 229147.0 230070.0 50865.0 57106.0 150783.0 158330.0 97785.0 105378.0 218659.0 220823.0 189257.0 182886.0 206726.0 201399.0 159119.0 164086.0 172222.0 166420.0 239442.0 242642.0 160920.0 152851.0 231534.0 224138.0 191029.0 195567.0 207941.0 206777.0 143376.0 149722.0 197172.0 191730.0 77703.0 70508.0 205896.0 208479.0 191700.0 193544.0 180349.0 172526.0 100704.0 94275.0 120399.0 125451.0 177392.0 172534.0 174691.0 172040.0 93760.0 86341.0 158470.0 0.0 158470.0 158470.0 158470.0 158470.0 158470.0 158470.0 158470.0 0.0 0.0 0.0 0.0 0.0 0.0 0.0
282043.0 277881.0 154576.0 154719.0 238728.0 241444.0 127471.0 124066.0 126955.0 133796.0 183483.0 179018.0 314170.0 312230.0 33292.0 35337.0 89757.0 82210.0 112043.0 105770.0 154464.0 160365.0 88720.0 94953.0 76270.0 68795.0 289808.0 297692.0 92852.0 84514.0 215326.0 210954.0 209336.0 215192.0 119700.0 120848.0 147836.0 148365.0 100102.0 105724.0 89809.0 88942.0 190251.0 182282.0 103862.0 100912.0 111434.0 112936.0 205338.0 203519.0 97835.0 94554.0 250648.0 246410.0 57108.0 63495.0 238750.0 233058.0 78028.0 74759.0 109849.0 109735.0 100929.0 104309.0 196277.0 193212.0 182844.0 189830.0 159981.0 155476.0 139943.0 143565.0 137159.0 133236.0 45843.0 38771.0 36893.0 31861.0 110237.0 113779.0 0.0 158470.0 0.0 0.0 0.0 0.0 0.0 0.0 0.0 158470.0 158470.0 158470.0 158470.0 158470.0 158470.0 158470.0
282043.0 277881.0 154576.0 154719.0 238728.0 241444.0 127471.0 124066.0 126955.0 133796.0 183483.0 179018.0 314170.0 312230.0 33292.0 35337.0 89757.0 82210.0 112043.0 105770.0 154464.0 160365.0 88720.0 94953.0 76270.0 68795.0 289808.0 297692.0 92852.0 84514.0 215326.0 210954.0 209336.0 215192.0 119700.0 120848.0 147836.0 148365.0 100102.0 105724.0 89809.0 88942.0 190251.0 182282.0 103862.0 100912.0 111434.0 112936.0 205338.0 203519.0 97835.0 94554.0 250648.0 246410.0 57108.0 63495.0 238750.0 233058.0 78028.0 74759.0 109849.0 109735.0 100929.0 104309.0 196277.0 193212.0 182844.0 189830.0 159981.0 155476.0 139943.0 143565.0 137159.0 133236.0 45843.0 38771.0 36893.0 31861.0 110237.0 113779.0 0.0 158470.0 0.0 0.0 0.0 0.0 0.0 0.0 0.0 158470.0 158470.0 158470.0 158470.0 158470.0 158470.0 158470.0
282043.0 277881.0 154576.0 154719.0 238728.0 241444.0 127471.0 124066.0 126955.0 133796.0 183483.0 179018.0 314170.0 312230.0 33292.0 35337.0 89757.0 82210.0 112043.0 105770.0 154464.0 160365.0 88720.0 94953.0 76270.0 68795.0 289808.0 297692.0 92852.0 84514.0 215326.0 210954.0 209336.0 215192.0 119700.0 120848.0 147836.0 148365.0 100102.0 105724.0 89809.0 88942.0 190251.0 182282.0 103862.0 100912.0 111434.0 112936.0 205338.0 203519.0 97835.0 94554.0 250648.0 246410.0 57108.0 63495.0 238750.0 233058.0 78028.0 74759.0 109849.0 109735.0 100929.0 104309.0 196277.0 193212.0 182844.0 189830.0 159981.0 155476.0 139943.0 143565.0 137159.0 133236.0 45843.0 38771.0 36893.0 31861.0 110237.0 113779.0 0.0 158470.0 0.0 0.0 0.0 0.0 0.0 0.0 0.0 158470.0 158470.0 158470.0 158470.0 158470.0 158470.0 158470.0
282043.0 277881.0 154576.0 154719.0 238728.0 241444.0 127471.0 124066.0 126955.0 133796.0 183483.0 179018.0 314170.0 312230.0 33292.0 35337.0 89757.0 82210.0 112043.0 105770.0 154464.0 160365.0 88720.0 94953.0 76270.0 68795.0 289808.0 297692.0 92852.0 84514.0 215326.0 210954.0 209336.0 215192.0 119700.0 120848.0 147836.0 148365.0 100102.0 105724.0 89809.0 88942.0 190251.0 182282.0 103862.0 100912.0 111434.0 112936.0 205338.0 203519.0 97835.0 94554.0 250648.0 246410.0 57108.0 63495.0 238750.0 233058.0 78028.0 74759.0 109849.0 109735.0 100929.0 104309.0 196277.0 193212.0 182844.0 189830.0 159981.0 155476.0 139943.0 143565.0 137159.0 133236.0 45843.0 38771.0 36893.0 31861.0 110237.0 113779.0 0.0 158470.0 0.0 0.0 0.0 0.0 0.0 0.0 0.0 158470.0 158470.0 158470.0 158470.0 158470.0 158470.0 158470.0
282043.0 277881.0 154576.0 154719.0 238728.0 241444.0 127471.0 124066.0 126955.0 133796.0 183483.0 179018.0 314170.0 312230.0 33292.0 35337.0 89757.0 82210.0 112043.0 105770.0 154464.0 160365.0 88720.0 94953.0 76270.0 68795.0 289808.0 297692.0 92852.0 84514.0 215326.0 210954.0 209336.0 215192.0 119700.0 120848.0 147836.0 148365.0 100102.0 105724.0 89809.0 88942.0 190251.0 182282.0 103862.0 100912.0 111434.0 112936.0 205338.0 203519.0 97835.0 94554.0 250648.0 246410.0 57108.0 63495.0 238750.0 233058.0 78028.0 74759.0 109849.0 109735.0 100929.0 104309.0 196277.0 193212.0 182844.0 189830.0 159981.0 155476.0 139943.0 143565.0 137159.0 133236.0 45843.0 38771.0 36893.0 31861.0 110237.0 113779.0 0.0 158470.0 0.0 0.0 0.0 0.0 0.0 0.0 0.0 158470.0 158470.0 158470.0 158470.0 158470.0 158470.0 158470.0
282043.0 277881.0 154576.0 154719.0 238728.0 241444.0 127471.0 124066.0 126955.0 133796.0 183483.0 179018.0 314170.0 312230.0 33292.0 35337.0 89757.0 82210.0 112043.0 105770.0 154464.0 160365.0 88720.0 94953.0 76270.0 68795.0 289808.0 297692.0 92852.0 84514.0 215326.0 210954.0 209336.0 215192.0 119700.0 120848.0 147836.0 148365.0 100102.0 105724.0 89809.0 88942.0 190251.0 182282.0 103862.0 100912.0 111434.0 112936.0 205338.0 203519.0 97835.0 94554.0 250648.0 246410.0 57108.0 63495.0 238750.0 233058.0 78028.0 74759.0 109849.0 109735.0 100929.0 104309.0 196277.0 193212.0 182844.0 189830.0 159981.0 155476.0 139943.0 143565.0 137159.0 133236.0 45843.0 38771.0 36893.0 31861.0 110237.0 113779.0 0.0 158470.0 0.0 0.0 0.0 0.0 0.0 0.0 0.0 158470.0 158470.0 158470.0 158470.0 158470.0 158470.0 158470.0
282043.0 277881.0 154576.0 154719.0 238728.0 241444.0 127471.0 124066.0 126955.0 133796.0 183483.0 179018.0 314170.0 312230.0 33292.0 35337.0 89757.0 82210.0 112043.0 105770.0 154464.0 160365.0 88720.0 94953.0 76270.0 68795.0 289808.0 297692.0 92852.0 84514.0 215326.0 210954.0 209336.0 215192.0 119700.0 120848.0 147836.0 148365.0 100102.0 105724.0 89809.0 88942.0 190251.0 182282.0 103862.0 100912.0 111434.0 112936.0 205338.0 203519.0 97835.0 94554.0 250648.0 246410.0 57108.0 63495.0 238750.0 233058.0 78028.0 74759.0 109849.0 109735.0 100929.0 104309.0 196277.0 193212.0 182844.0 189830.0 159981.0 155476.0 139943.0 143565.0 137159.0 133236.0 45843.0 38771.0 36893.0 31861.0 110237.0 113779.0 0.0 158470.0 0.0 0.0 0.0 0.0 0.0 0.0 0.0 158470.0 158470.0 158470.0 158470.0 158470.0 158470.0 158470.0
124850.0 121060.0 238386.0 234156.0 81174.0 84457.0 130820.0 136565.0 122677.0 120562.0 75084.0 78498.0 157477.0 155537.0 155105.0 149371.0 217291.0 211476.0 96878.0 92464.0 66901.0 73696.0 210223.0 213414.0 185857.0 178033.0 132322.0 140267.0 223554.0 216221.0 229147.0 230070.0 50865.0 57106.0 150783.0 158330.0 97785.0 105378.0 218659.0 220823.0 189257.0 182886.0 206726.0 201399.0 159119.0 164086.0 172222.0 166420.0 239442.0 242642.0 160920.0 152851.0 231534.0 224138.0 191029.0 195567.0 207941.0 206777.0 143376.0 149722.0 197172.0 191730.0 77703.0 70508.0 205896.0 208479.0 191700.0 193544.0 180349.0 172526.0 100704.0 94275.0 120399.0 125451.0 177392.0 172534.0 174691.0 172040.0 93760.0 86341.0 158470.0 0.0 158470.0 158470.0 158470.0 158470.0 158470.0 158470.0 158470.0 0.0 0.0 0.0 0.0 0.0 0.0 0.0
124850.0 121060.0 238386.0 234156.0 81174.0 84457.0 130820.0 136565.0 122677.0 120562.0 75084.0 78498.0 157477.0 155537.0 155105.0 149371.0 217291.0 211476.0 96878.0 92464.0 66901.0 73696.0 210223.0 213414.0 185857.0 178033.0 132322.0 140267.0 223554.0 216221.0 229147.0 230070.0 50865.0 57106.0 150783.0 158330.0 97785.0 105378.0 218659.0 220823.0 189257.0 182886.0 206726.0 201399.0 159119.0 164086.0 172222.0 166420.0 239442.0 242642.0 160920.0 152851.0 231534.0 224138.0 191029.0 195567.0 207941.0 206777.0 143376.0 149722.0 197172.0 191730.0 77703.0 70508.0 205896.0 208479.0 191700.0 193544.0 180349.0 172526.0 100704.0 94275.0 120399.0 125451.0 177392.0 172534.0 174691.0 172040.0 93760.0 86341.0 158470.0 0.0 158470.0 158470.0 158470.0 158470.0 158470.0 158470.0 158470.0 0.0 0.0 0.0 0.0 0.0 0.0 0.0
124850.0 121060.0 238386.0 234156.0 81174.0 84457.0 130820.0 136565.0 122677.0 120562.0 75084.0 78498.0 157477.0 155537.0 155105.0 149371.0 217291.0 211476.0 96878.0 92464.0 66901.0 73696.0 210223.0 213414.0 185857.0 178033.0 132322.0 140267.0 223554.0 216221.0 229147.0 230070.0 50865.0 57106.0 150783.0 158330.0 97785.0 105378.0 218659.0 220823.0 189257.0 182886.0 206726.0 201399.0 159119.0 164086.0 172222.0 166420.0 239442.0 242642.0 160920.0 152851.0 231534.0 224138.0 191029.0 195567.0 207941.0 206777.0 143376.0 149722.0 197172.0 191730.0 77703.0 70508.0 205896.0 208479.0 191700.0 193544.0 180349.0 172526.0 100704.0 94275.0 120399.0 125451.0 177392.0 172534.0 174691.0 172040.0 93760.0 86341.0 158470.0 0.0 158470.0 158470.0 158470.0 158470.0 158470.0 158470.0 158470.0 0.0 0.0 0.0 0.0 0.0 0.0 0.0
124850.0 121060.0 238386.0 234156.0 81174.0 84457.0 130820.0 136565.0 122677.0 120562.0 75084.0 78498.0 157477.0 155537.0 155105.0 149371.0 217291.0 211476.0 96878.0 92464.0 66901.0 73696.0 210223.0 213414.0 185857.0 178033.0 132322.0 140267.0 223554.0 216221.0 229147.0 230070.0 50865.0 57106.0 150783.0 158330.0 97785.0 105378.0 218659.0 220823.0 189257.0 182886.0 206726.0 201399.0 159119.0 164086.0 172222.0 166420.0 239442.0 242642.0 160920.0 152851.0 231534.0 224138.0 191029.0 195567.0 207941.0 206777.0 143376.0 149722.0 197172.0 191730.0 77703.0 70508.0 205896.0 208479.0 191700.0 193544.0 180349.0 172526.0 100704.0 94275.0 120399.0 125451.0 177392.0 172534.0 174691.0 172040.0 93760.0 86341.0 158470.0 0.0 158470.0 158470.0 158470.0 158470.0 158470.0 158470.0 158470.0 0.0 0.0 0.0 0.0 0.0 0.0 0.0
124850.0 121060.0 238386.0 234156.0 81174.0 84457.0 130820.0 136565.0 122677.0 120562.0 75084.0 78498.0 157477.0 155537.0 155105.0 149371.0 217291.0 211476.0 96878.0 92464.0 66901.0 73696.0 210223.0 213414.0 185857.0 178033.0 132322.0 140267.0 223554.0 216221.0 229147.0 230070.0 50865.0 57106.0 150783.0 158330.0 97785.0 105378.0 218659.0 220823.0 189257.0 182886.0 206726.0 201399.0 159119.0 164086.0 172222.0 166420.0 239442.0 242642.0 160920.0 152851.0 231534.0 224138.0 191029.0 195567.0 207941.0 206777.0 143376.0 149722.0 197172.0 191730.0 77703.0 70508.0 205896.0 208479.0 191700.0 193544.0 180349.0 172526.0 100704.0 94275.0 120399.0 125451.0 177392.0 172534.0 174691.0 172040.0 93760.0 86341.0 158470.0 0.0 158470.0 158470.0 158470.0 158470.0 158470.0 158470.0 158470.0 0.0 0.0 0.0 0.0 0.0 0.0 0.0
124850.0 121060.0 238386.0 234156.0 81174.0 84457.0 130820.0 136565.0 122677.0 120562.0 75084.0 78498.0 157477.0 155537.0 155105.0 149371.0 217291.0 211476.0 96878.0 92464.0 66901.0 73696.0 210223.0 213414.0 185857.0 178033.0 132322.0 140267.0 223554.0 216221.0 229147.0 230070.0 50865.0 57106.0 150783.0 158330.0 97785.0 105378.0 218659.0 220823.0 189257.0 182886.0 206726.0 201399.0 159119.0 164086.0 172222.0 166420.0 239442.0 242642.0 160920.0 152851.0 231534.0 224138.0 191029.0 195567.0 207941.0 206777.0 143376.0 149722.0 197172.0 191730.0 77703.0 70508.0 205896.0 208479.0 191700.0 193544.0 180349.0 172526.0 100704.0 94275.0 120399.0 125451.0 177392.0 172534.0 174691.0 172040.0 93760.0 86341.0 158470.0 0.0 158470.0 158470.0 158470.0 158470.0 158470.0 158470.0 158470.0 0.0 0.0 0.0 0.0 0.0 0.0 0.0
124850.0 121060.0 238386.0 234156.0 81174.0 84457.0 130820.0 136565.0 122677.0 120562.0 75084.0 78498.0 157477.0 155537.0 155105.0 149371.0 217291.0 211476.0 96878.0 92464.0 66901.0 73696.0 210223.0 213414.0 185857.0 178033.0 132322.0 140267.0 223554.0 216221.0 229147.0 230070.0 50865.0 57106.0 150783.0 158330.0 97785.0 105378.0 218659.0 220823.0 189257.0 182886.0 206726.0 201399.0 159119.0 164086.0 172222.0 166420.0 239442.0 242642.0 160920.0 152851.0 231534.0 224138.0 191029.0 195567.0 207941.0 206777.0 143376.0 149722.0 197172.0 191730.0 77703.0 70508.0 205896.0 208479.0 191700.0 193544.0 180349.0 172526.0 100704.0 94275.0 120399.0 125451.0 177392.0 172534.0 174691.0 172040.0 93760.0 86341.0 158470.0 0.0 158470.0 158470.0 158470.0 158470.0 158470.0 158470.0 158470.0 0.0 0.0 0.0 0.0 0.0 0.0 0.0
FIXED_EDGES_SECTION
1 2
3 4
5 6
7 8
9 10
11 12
13 14
15 16
17 18
19 20
21 22
23 24
25 26
27 28
29 30
31 32
33 34
35 36
37 38
39 40
41 42
43 44
45 46
47 48
49 50
51 52
53 54
55 56
57 58
59 60
61 62
63 64
65 66
67 68
69 70
71 72
73 74
75 76
77 78
79 80
-1 
DEMAND_SECTION
1 322
2 322
3 497
4 497
5 534
6 534
7 89
8 89
9 94
10 94
11 68
12 68
13 71
14 71
15 485
16 485
17 216
18 216
19 214
20 214
21 342
22 342
23 274
24 274
25 493
26 493
27 99
28 99
29 251
30 251
31 76
32 76
33 114
34 114
35 96
36 96
37 291
38 291
39 500
40 500
41 57
42 57
43 186
44 186
45 353
46 353
47 583
48 583
49 68
50 68
51 293
52 293
53 258
54 258
55 219
56 219
57 277
58 277
59 394
60 394
61 461
62 461
63 75
64 75
65 72
66 72
67 74
68 74
69 82
70 82
71 421
72 421
73 90
74 90
75 341
76 341
77 97
78 97
79 80
80 80
81 0
82 0
83 0
84 0
85 0
86 0
87 0
88 0
89 0
90 0
91 0
92 0
93 0
94 0
95 0
96 0
DEPOT_SECTION
81 
-1 
CAPACITIES_SECTION
2500 
2750 
-1 
EOF