NAME: GFS_20_1
TYPE: GFSP
DIMENSION: 98
VEHICLES: 2
CAPACITY: 2500.0
TRIP_DIST_LIMIT: 750000.0
TOTAL_DIST_LIMIT: 2100000.0
EDGE_WEIGHT_TYPE: EXPLICIT
EDGE_WEIGHT_FORMAT: FULL_MATRIX
EDGE_WEIGHT_SECTION
0.0 8055.0 328548.0 321410.0 281330.0 289358.0 306670.0 298916.0 286368.0 293292.0 269992.0 277605.0 290808.0 283035.0 229889.0 222134.0 304081.0 307358.0 321820.0 316377.0 268607.0 265958.0 68957.0 62661.0 174442.0 168021.0 250721.0 243323.0 50621.0 58200.0 128746.0 130505.0 287746.0 280357.0 264813.0 256788.0 270062.0 263856.0 243198.0 248064.0 235910.0 228611.0 86327.0 89458.0 276089.0 277330.0 66796.0 58739.0 267978.0 263890.0 297859.0 297249.0 154117.0 162170.0 75191.0 67449.0 332124.0 339942.0 76439.0 68423.0 42740.0 48387.0 109467.0 117897.0 10953.0 10620.0 174891.0 182932.0 313649.0 316017.0 123909.0 115795.0 241850.0 248500.0 167864.0 161482.0 304948.0 310381.0 279326.0 284520.0 263929.0 110557.0 263929.0 263929.0 263929.0 263929.0 263929.0 263929.0 263929.0 263929.0 110557.0 110557.0 110557.0 110557.0 110557.0 110557.0 110557.0 110557.0
8055.0 0.0 333617.0 326390.0 288225.0 296274.0 312146.0 304349.0 293743.0 300623.0 274971.0 282621.0 296071.0 288354.0 236144.0 228348.0 310626.0 314014.0 327037.0 321477.0 276303.0 273584.0 62618.0 56794.0 180266.0 173744.0 258151.0 250721.0 58200.0 65887.0 134424.0 136370.0 293411.0 285951.0 272862.0 264837.0 275757.0 269668.0 249476.0 254209.0 242252.0 234877.0 78936.0 81813.0 284124.0 285347.0 59138.0 51018.0 273373.0 269121.0 302907.0 302461.0 161259.0 169297.0 76170.0 68209.0 337429.0 345230.0 68694.0 60676.0 40514.0 45112.0 116923.0 125357.0 10620.0 15330.0 182139.0 190121.0 319098.0 321607.0 128669.0 120606.0 249890.0 256548.0 173926.0 167707.0 312612.0 317995.0 284191.0 289522.0 268701.0 114448.0 268701.0 268701.0 268701.0 268701.0 268701.0 268701.0 268701.0 268701.0 114448.0 114448.0 114448.0 114448.0 114448.0 114448.0 114448.0 114448.0
328548.0 333617.0 0.0 8543.0 115563.0 115422.0 30421.0 34958.0 151810.0 147804.0 58761.0 51038.0 38893.0 47075.0 113835.0 119102.0 88382.0 95450.0 10258.0 12261.0 184223.0 176785.0 345925.0 337758.0 156809.0 162311.0 161167.0 160615.0 285960.0 281526.0 200641.0 199687.0 50867.0 54824.0 253761.0 252015.0 66132.0 74288.0 104256.0 96387.0 111706.0 115145.0 371042.0 377894.0 248082.0 240522.0 385848.0 377913.0 62465.0 65047.0 30719.0 32058.0 196699.0 190354.0 274420.0 280276.0 13306.0 16595.0 393443.0 386219.0 310449.0 314934.0 238166.0 232068.0 323647.0 318518.0 185665.0 178132.0 24949.0 30550.0 205059.0 213061.0 275041.0 271602.0 165290.0 173059.0 183241.0 178191.0 50293.0 44189.0 92852.0 223554.0 92852.0 92852.0 92852.0 92852.0 92852.0 92852.0 92852.0 92852.0 223554.0 223554.0 223554.0 223554.0 223554.0 223554.0 223554.0 223554.0
321410.0 326390.0 8543.0 0.0 115760.0 116221.0 29401.0 32042.0 152572.0 148959.0 51422.0 43823.0 33534.0 41674.0 109475.0 114350.0 90155.0 97558.0 12311.0 7888.0 184086.0 176516.0 338592.0 330425.0 150430.0 155763.0 160021.0 159058.0 279281.0 274976.0 193812.0 192983.0 48153.0 50956.0 253178.0 251169.0 62019.0 70271.0 100576.0 92594.0 107822.0 110757.0 363709.0 370562.0 247936.0 240481.0 378515.0 370580.0 56824.0 58606.0 23756.0 26682.0 191436.0 185272.0 267087.0 272943.0 20429.0 24950.0 386110.0 378886.0 303116.0 307602.0 232268.0 226329.0 316370.0 311330.0 181088.0 173727.0 25582.0 32605.0 197759.0 205793.0 273558.0 270352.0 159100.0 166956.0 184793.0 180044.0 42494.0 36896.0 84514.0 216221.0 84514.0 84514.0 84514.0 84514.0 84514.0 84514.0 84514.0 84514.0 216221.0 216221.0 216221.0 216221.0 216221.0 216221.0 216221.0 216221.0
281330.0 288225.0 115563.0 115760.0 0.0 8167.0 86385.0 85491.0 37591.0 35906.0 100725.0 99853.0 91154.0 86939.0 62794.0 70108.0 32461.0 30605.0 105413.0 107998.0 68760.0 61512.0 314666.0 306498.0 118136.0 125291.0 49815.0 52325.0 231695.0 225007.0 160341.0 156852.0 71199.0 73531.0 138735.0 137562.0 68309.0 63515.0 52222.0 54308.0 55523.0 63496.0 339782.0 346555.0 132565.0 124968.0 346379.0 338145.0 82406.0 89768.0 103015.0 95343.0 127786.0 119730.0 245421.0 250407.0 107151.0 112713.0 355295.0 347448.0 276932.0 282840.0 173835.0 165732.0 280120.0 273142.0 108275.0 99777.0 90722.0 85326.0 175118.0 180933.0 162524.0 158238.0 120256.0 124165.0 72234.0 69428.0 106673.0 101640.0 134550.0 195588.0 134550.0 134550.0 134550.0 134550.0 134550.0 134550.0 134550.0 134550.0 195588.0 195588.0 195588.0 195588.0 195588.0 195588.0 195588.0 195588.0
289358.0 296274.0 115422.0 116221.0 8167.0 0.0 87043.0 86903.0 36393.0 33041.0 104752.0 103332.0 93460.0 89862.0 70506.0 77931.0 29047.0 25382.0 105410.0 108581.0 70211.0 63428.0 322833.0 314665.0 126214.0 133376.0 54506.0 57879.0 239661.0 232937.0 168507.0 165019.0 73436.0 76581.0 140452.0 139734.0 72404.0 68311.0 59521.0 61030.0 63216.0 71253.0 347949.0 354722.0 133554.0 125797.0 354469.0 346235.0 86596.0 94244.0 104983.0 97178.0 135700.0 127637.0 253571.0 258568.0 106276.0 111411.0 363398.0 355546.0 285094.0 291006.0 181696.0 173563.0 288200.0 281204.0 116026.0 107557.0 90845.0 84929.0 183245.0 189081.0 165527.0 160912.0 128404.0 132332.0 69452.0 65831.0 110089.0 104623.0 139846.0 203707.0 139846.0 139846.0 139846.0 139846.0 139846.0 139846.0 139846.0 139846.0 203707.0 203707.0 203707.0 203707.0 203707.0 203707.0 203707.0 203707.0
306670.0 312146.0 30421.0 29401.0 86385.0 87043.0 0.0 8072.0 123330.0 119919.0 43775.0 36711.0 19196.0 24953.0 85338.0 91250.0 61910.0 69646.0 20253.0 21613.0 154690.0 147132.0 325797.0 317630.0 132829.0 138884.0 130932.0 130243.0 262311.0 257425.0 177981.0 176533.0 21207.0 26930.0 223871.0 221955.0 38131.0 45832.0 74879.0 67220.0 82529.0 86681.0 350913.0 357766.0 218544.0 211082.0 365664.0 357688.0 38935.0 44455.0 23189.0 16390.0 169379.0 162689.0 254292.0 260148.0 26955.0 34698.0 373322.0 366074.0 290320.0 294806.0 212206.0 205715.0 302448.0 296901.0 157127.0 149358.0 7103.0 11212.0 184552.0 192329.0 244705.0 241347.0 140595.0 148026.0 155967.0 151473.0 40193.0 32154.0 83749.0 203425.0 83749.0 83749.0 83749.0 83749.0 83749.0 83749.0 83749.0 83749.0 203425.0 203425.0 203425.0 203425.0 203425.0 203425.0 203425.0 203425.0
298916.0 304349.0 34958.0 32042.0 85491.0 86903.0 8072.0 0.0 122865.0 119937.0 36032.0 29230.0 11738.0 16888.0 79141.0 84728.0 63503.0 71489.0 25396.0 24221.0 153084.0 145398.0 317843.0 309676.0 125276.0 131249.0 128253.0 127110.0 254784.0 249973.0 170272.0 168890.0 16121.0 20133.0 221688.0 219502.0 31500.0 39516.0 69305.0 61461.0 76789.0 80466.0 342959.0 349812.0 216822.0 209482.0 357732.0 349765.0 31015.0 36386.0 18996.0 11157.0 162718.0 156159.0 246337.0 252194.0 33823.0 41680.0 365365.0 358131.0 282366.0 286852.0 205140.0 198755.0 294623.0 289116.0 151012.0 143377.0 14764.0 19049.0 176631.0 184429.0 241595.0 238471.0 133184.0 140693.0 156254.0 152123.0 33313.0 25339.0 76242.0 195471.0 76242.0 76242.0 76242.0 76242.0 76242.0 76242.0 76242.0 76242.0 195471.0 195471.0 195471.0 195471.0 195471.0 195471.0 195471.0 195471.0
286368.0 293743.0 151810.0 152572.0 37591.0 36393.0 123330.0 122865.0 0.0 7940.0 137624.0 137147.0 128743.0 124472.0 89824.0 95615.0 64488.0 58991.0 141802.0 144903.0 36514.0 31472.0 326384.0 318223.0 137457.0 144209.0 35929.0 43077.0 235817.0 228502.0 174381.0 170278.0 108777.0 111051.0 105919.0 106032.0 105322.0 99895.0 82648.0 86971.0 83235.0 90081.0 351507.0 358239.0 98046.0 90149.0 352752.0 344555.0 119249.0 126273.0 140571.0 132867.0 133145.0 125293.0 259729.0 263794.0 142516.0 147448.0 362073.0 354097.0 287519.0 294057.0 176928.0 168510.0 286592.0 279149.0 111870.0 104297.0 127231.0 121303.0 191522.0 196195.0 133436.0 128083.0 137008.0 138909.0 35462.0 34362.0 143987.0 139141.0 169876.0 212006.0 169876.0 169876.0 169876.0 169876.0 169876.0 169876.0 169876.0 169876.0 212006.0 212006.0 212006.0 212006.0 212006.0 212006.0 212006.0 212006.0
293292.0 300623.0 147804.0 148959.0 35906.0 33041.0 119919.0 119937.0 7940.0 0.0 136628.0 135705.0 126416.0 122579.0 92414.0 98622.0 59751.0 53659.0 137915.0 141388.0 43685.0 39119.0 332523.0 324349.0 142031.0 148888.0 43350.0 50243.0 242785.0 235523.0 179984.0 175962.0 106392.0 109215.0 112287.0 112731.0 104215.0 99285.0 84276.0 87959.0 85580.0 92780.0 357631.0 364424.0 103867.0 95883.0 359579.0 351373.0 118301.0 125602.0 138008.0 130212.0 139756.0 131846.0 265450.0 269658.0 138079.0 142727.0 368861.0 360895.0 293797.0 300257.0 183908.0 175503.0 293363.0 285965.0 118576.0 110851.0 123472.0 117254.0 196792.0 201662.0 140521.0 134995.0 142035.0 144273.0 36484.0 33588.0 142513.0 137320.0 169977.0 217317.0 169977.0 169977.0 169977.0 169977.0 169977.0 169977.0 169977.0 169977.0 217317.0 217317.0 217317.0 217317.0 217317.0 217317.0 217317.0 217317.0
269992.0 274971.0 58761.0 51422.0 100725.0 104752.0 43775.0 36032.0 137624.0 136628.0 0.0 7799.0 24611.0 20220.0 68519.0 71040.0 88493.0 96581.0 53170.0 46792.0 162159.0 154167.0 287197.0 279030.0 100102.0 105052.0 133487.0 130267.0 228201.0 224077.0 142610.0 141938.0 36698.0 30063.0 226727.0 223332.0 32420.0 37989.0 64315.0 56728.0 69625.0 69559.0 312314.0 319167.0 224004.0 217312.0 327120.0 319185.0 18377.0 12430.0 28077.0 29373.0 144121.0 138676.0 215692.0 221548.0 64297.0 71739.0 334715.0 327491.0 251721.0 256207.0 182787.0 177298.0 264960.0 259908.0 136533.0 130032.0 49312.0 54972.0 146352.0 154378.0 241989.0 240039.0 109185.0 117222.0 172827.0 170135.0 10515.0 14574.0 40422.0 164826.0 40422.0 40422.0 40422.0 40422.0 40422.0 40422.0 40422.0 40422.0 164826.0 164826.0 164826.0 164826.0 164826.0 164826.0 164826.0 164826.0
277605.0 282621.0 51038.0 43823.0 99853.0 103332.0 36711.0 29230.0 137147.0 135705.0 7799.0 0.0 17546.0 14953.0 72648.0 75833.0 85241.0 93385.0 45373.0 39022.0 163058.0 155097.0 294890.0 286722.0 107135.0 112240.0 135060.0 132254.0 235575.0 231372.0 150040.0 149286.0 32446.0 27031.0 228677.0 225526.0 32081.0 38857.0 67169.0 59314.0 73056.0 73765.0 320006.0 326859.0 225496.0 218650.0 334812.0 326877.0 19393.0 16574.0 20325.0 21744.0 150280.0 144636.0 223384.0 229241.0 56518.0 63944.0 342407.0 335183.0 259413.0 263899.0 189591.0 183966.0 272629.0 267542.0 141969.0 135240.0 41930.0 47920.0 154031.0 162043.0 244918.0 242729.0 116077.0 124061.0 172087.0 169050.0 6852.0 6940.0 47048.0 172518.0 47048.0 47048.0 47048.0 47048.0 47048.0 47048.0 47048.0 47048.0 172518.0 172518.0 172518.0 172518.0 172518.0 172518.0 172518.0 172518.0
290808.0 296071.0 38893.0 33534.0 91154.0 93460.0 19196.0 11738.0 128743.0 126416.0 24611.0 17546.0 0.0 8193.0 76096.0 80829.0 72166.0 80285.0 31077.0 26741.0 157324.0 149496.0 308911.0 300744.0 118147.0 123807.0 131087.0 129258.0 247507.0 242938.0 162460.0 161326.0 20025.0 19041.0 224904.0 222325.0 29186.0 37413.0 67807.0 59757.0 74800.0 77362.0 334027.0 340880.0 220705.0 213549.0 348813.0 340894.0 23574.0 26974.0 12431.0 6880.0 157985.0 151765.0 237406.0 243262.0 41398.0 49167.0 356310.0 349150.0 273434.0 277920.0 199274.0 193181.0 286229.0 280893.0 147582.0 140272.0 24795.0 30407.0 167879.0 175775.0 243374.0 240620.0 126494.0 134220.0 162887.0 159189.0 21669.0 13805.0 64593.0 186539.0 64593.0 64593.0 64593.0 64593.0 64593.0 64593.0 64593.0 64593.0 186539.0 186539.0 186539.0 186539.0 186539.0 186539.0 186539.0 186539.0
283035.0 288354.0 47075.0 41674.0 86939.0 89862.0 24953.0 16888.0 124472.0 122579.0 20220.0 14953.0 8193.0 0.0 68170.0 72752.0 70561.0 78714.0 39070.0 34934.0 151947.0 144058.0 301430.0 293263.0 110100.0 115825.0 125033.0 122886.0 239517.0 234902.0 154581.0 153384.0 17589.0 13428.0 218885.0 216119.0 21990.0 30049.0 60303.0 52243.0 67123.0 69421.0 326547.0 333400.0 215035.0 207987.0 341353.0 333412.0 15417.0 19598.0 19535.0 15070.0 149802.0 143602.0 229925.0 235781.0 49089.0 56916.0 348915.0 341719.0 265954.0 270440.0 191100.0 184994.0 278552.0 273157.0 139517.0 132257.0 31366.0 35859.0 160324.0 168181.0 236689.0 234094.0 118384.0 126086.0 159051.0 155692.0 20999.0 14763.0 60608.0 179059.0 60608.0 60608.0 60608.0 60608.0 60608.0 60608.0 60608.0 60608.0 179059.0 179059.0 179059.0 179059.0 179059.0 179059.0 179059.0 179059.0
229889.0 236144.0 113835.0 109475.0 62794.0 70506.0 85338.0 79141.0 89824.0 92414.0 68519.0 72648.0 76096.0 68170.0 0.0 7999.0 76012.0 80842.0 104532.0 102223.0 103379.0 95581.0 256905.0 248738.0 58050.0 65205.0 72405.0 67199.0 182552.0 176853.0 103153.0 100430.0 64192.0 59052.0 161836.0 157664.0 47708.0 39627.0 13366.0 18852.0 7295.0 1363.0 282022.0 288875.0 160875.0 154924.0 292640.0 284460.0 54205.0 56388.0 87568.0 82855.0 84563.0 77582.0 186149.0 191747.0 112279.0 119951.0 301080.0 293433.0 220181.0 225493.0 128891.0 121865.0 227193.0 220828.0 71871.0 64302.0 92313.0 92042.0 115445.0 122010.0 174405.0 172953.0 62567.0 68438.0 124073.0 124112.0 78475.0 78220.0 88814.0 135524.0 88814.0 88814.0 88814.0 88814.0 88814.0 88814.0 88814.0 88814.0 135524.0 135524.0 135524.0 135524.0 135524.0 135524.0 135524.0 135524.0
222134.0 228348.0 119102.0 114350.0 70108.0 77931.0 91250.0 84728.0 95615.0 98622.0 71040.0 75833.0 80829.0 72752.0 7999.0 0.0 84010.0 88809.0 110040.0 107290.0 106929.0 99278.0 248907.0 240740.0 50053.0 57210.0 75787.0 70002.0 175007.0 169397.0 95194.0 92510.0 70265.0 64597.0 163013.0 158507.0 53237.0 45425.0 21310.0 26090.0 15040.0 6914.0 274024.0 280876.0 162727.0 157050.0 284740.0 276564.0 58167.0 59316.0 91891.0 87668.0 78158.0 71450.0 178163.0 183750.0 118199.0 125942.0 293158.0 285522.0 212196.0 217498.0 121888.0 115020.0 219354.0 213027.0 66766.0 59621.0 98292.0 98443.0 107457.0 114011.0 174023.0 172946.0 54647.0 60653.0 129324.0 129740.0 81287.0 81770.0 88170.0 127556.0 88170.0 88170.0 88170.0 88170.0 88170.0 88170.0 88170.0 88170.0 127556.0 127556.0 127556.0 127556.0 127556.0 127556.0 127556.0 127556.0
304081.0 310626.0 88382.0 90155.0 32461.0 29047.0 61910.0 63503.0 64488.0 59751.0 88493.0 85241.0 72166.0 70561.0 76012.0 84010.0 0.0 8154.0 78692.0 82844.0 99207.0 92475.0 332903.0 324736.0 134060.0 141209.0 82275.0 84581.0 255468.0 249209.0 178922.0 175992.0 53008.0 58491.0 169446.0 168780.0 58403.0 57545.0 62847.0 60525.0 69221.0 77135.0 358019.0 364872.0 162315.0 154493.0 367838.0 359630.0 71853.0 80150.0 82408.0 74484.0 152874.0 144985.0 262108.0 267753.0 78344.0 83016.0 376438.0 368721.0 296064.0 301457.0 198996.0 191203.0 301996.0 295371.0 134909.0 126337.0 64576.0 57898.0 191420.0 198022.0 194468.0 189927.0 138241.0 143519.0 94859.0 89906.0 91554.0 84910.0 125530.0 211398.0 125530.0 125530.0 125530.0 125530.0 125530.0 125530.0 125530.0 125530.0 211398.0 211398.0 211398.0 211398.0 211398.0 211398.0 211398.0 211398.0
307358.0 314014.0 95450.0 97558.0 30605.0 25382.0 69646.0 71489.0 58991.0 53659.0 96581.0 93385.0 80285.0 78714.0 80842.0 88809.0 8154.0 0.0 85921.0 90360.0 94522.0 88122.0 337413.0 329246.0 138795.0 145974.0 79803.0 82814.0 258383.0 251976.0 183185.0 180109.0 61161.0 66604.0 164631.0 164286.0 66235.0 65007.0 67940.0 66353.0 73842.0 81898.0 362530.0 369383.0 157036.0 149137.0 371536.0 363317.0 79812.0 88087.0 90428.0 82510.0 155194.0 147226.0 266947.0 272446.0 84980.0 89267.0 380231.0 372473.0 300348.0 305874.0 201375.0 193460.0 305534.0 298801.0 136619.0 128050.0 72019.0 65112.0 196241.0 202678.0 190567.0 185773.0 142525.0 147488.0 88005.0 82753.0 99706.0 93060.0 133371.0 216364.0 133371.0 133371.0 133371.0 133371.0 133371.0 133371.0 133371.0 133371.0 216364.0 216364.0 216364.0 216364.0 216364.0 216364.0 216364.0 216364.0
321820.0 327037.0 10258.0 12311.0 105413.0 105410.0 20253.0 25396.0 141802.0 137915.0 53170.0 45373.0 31077.0 39070.0 104532.0 110040.0 78692.0 85921.0 0.0 8198.0 174034.0 166578.0 339663.0 331496.0 149171.0 154874.0 150909.0 150375.0 278572.0 273972.0 193531.0 192403.0 41011.0 45493.0 243527.0 241764.0 56858.0 64910.0 94609.0 86812.0 102144.0 105855.0 364779.0 371632.0 237899.0 230355.0 379468.0 371580.0 54450.0 57930.0 25501.0 24576.0 187910.0 181431.0 268157.0 274014.0 11410.0 18572.0 387180.0 379956.0 304186.0 308672.0 229908.0 223661.0 317158.0 311877.0 176403.0 168773.0 14718.0 20811.0 198704.0 206640.0 264790.0 261344.0 157417.0 165078.0 173508.0 168584.0 45902.0 38869.0 89757.0 217291.0 89757.0 89757.0 89757.0 89757.0 89757.0 89757.0 89757.0 89757.0 217291.0 217291.0 217291.0 217291.0 217291.0 217291.0 217291.0 217291.0
316377.0 321477.0 12261.0 7888.0 107998.0 108581.0 21613.0 24221.0 144903.0 141388.0 46792.0 39022.0 26741.0 34934.0 102223.0 107290.0 82844.0 90360.0 8198.0 0.0 176257.0 168674.0 333847.0 325680.0 144550.0 150051.0 152133.0 151178.0 273705.0 269265.0 188405.0 187436.0 40342.0 43440.0 245305.0 243285.0 54618.0 62844.0 93056.0 85107.0 100377.0 103518.0 358964.0 365816.0 240099.0 232658.0 373770.0 365835.0 50285.0 52789.0 18722.0 19874.0 184689.0 178414.0 262342.0 268198.0 19257.0 25729.0 381365.0 374141.0 298371.0 302856.0 225972.0 219911.0 311527.0 306364.0 173960.0 166517.0 18392.0 25889.0 192961.0 200948.0 265678.0 262466.0 153045.0 160825.0 177318.0 172668.0 38795.0 32259.0 82210.0 211476.0 82210.0 82210.0 82210.0 82210.0 82210.0 82210.0 82210.0 82210.0 211476.0 211476.0 211476.0 211476.0 211476.0 211476.0 211476.0 211476.0
268607.0 276303.0 184223.0 184086.0 68760.0 70211.0 154690.0 153084.0 36514.0 43685.0 162159.0 163058.0 157324.0 151947.0 103379.0 106929.0 99207.0 94522.0 174034.0 176257.0 0.0 8004.0 314613.0 306364.0 138567.0 144455.0 31152.0 37594.0 218127.0 210421.0 168020.0 163486.0 137904.0 138674.0 70242.0 69786.0 131052.0 124336.0 100546.0 106865.0 98324.0 103155.0 339457.0 345727.0 63868.0 56409.0 335401.0 327316.0 144081.0 150052.0 169593.0 162243.0 120720.0 113696.0 251154.0 254219.0 175898.0 181351.0 344996.0 336979.0 274817.0 281860.0 160015.0 151660.0 270098.0 262351.0 99686.0 93897.0 159321.0 154074.0 186893.0 190226.0 96924.0 91613.0 135497.0 135227.0 36526.0 42823.0 169868.0 166130.0 190251.0 206726.0 190251.0 190251.0 190251.0 190251.0 190251.0 190251.0 190251.0 190251.0 206726.0 206726.0 206726.0 206726.0 206726.0 206726.0 206726.0 206726.0
265958.0 273584.0 176785.0 176516.0 61512.0 63428.0 147132.0 145398.0 31472.0 39119.0 154167.0 155097.0 149496.0 144058.0 95581.0 99278.0 92475.0 88122.0 166578.0 168674.0 8004.0 0.0 310654.0 302424.0 132072.0 138099.0 23651.0 30540.0 215384.0 207761.0 162779.0 158306.0 130140.0 130806.0 77229.0 76306.0 123106.0 116358.0 92577.0 98868.0 90441.0 95383.0 335587.0 341959.0 71436.0 64101.0 332718.0 324599.0 136101.0 142053.0 161787.0 154470.0 116437.0 109193.0 246497.0 249758.0 168648.0 174214.0 342255.0 334241.0 271019.0 277964.0 156936.0 148535.0 267145.0 259460.0 95196.0 88986.0 151860.0 146734.0 181410.0 184980.0 102607.0 97658.0 129353.0 129412.0 39237.0 44441.0 161903.0 158207.0 182282.0 201399.0 182282.0 182282.0 182282.0 182282.0 182282.0 182282.0 182282.0 182282.0 201399.0 201399.0 201399.0 201399.0 201399.0 201399.0 201399.0 201399.0
68957.0 62618.0 345925.0 338592.0 314666.0 322833.0 325797.0 317843.0 326384.0 332523.0 287197.0 294890.0 308911.0 301430.0 256905.0 248907.0 332903.0 337413.0 339663.0 333847.0 314613.0 310654.0 0.0 8282.0 198891.0 191783.0 292227.0 284450.0 105318.0 113139.0 154408.0 157814.0 308229.0 300405.0 321777.0 313786.0 290956.0 285737.0 270155.0 273534.0 263700.0 255770.0 25228.0 32458.0 331860.0 332003.0 60542.0 56123.0 286863.0 281951.0 315206.0 315123.0 194300.0 201777.0 73021.0 65941.0 350300.0 358028.0 63039.0 59066.0 40278.0 32831.0 156563.0 164495.0 59713.0 66740.0 215666.0 222552.0 332594.0 335785.0 141915.0 134956.0 302363.0 308365.0 194940.0 190517.0 349823.0 354211.0 296335.0 301765.0 280842.0 124149.0 280842.0 280842.0 280842.0 280842.0 280842.0 280842.0 280842.0 280842.0 124149.0 124149.0 124149.0 124149.0 124149.0 124149.0 124149.0 124149.0
62661.0 56794.0 337758.0 330425.0 306498.0 314665.0 317630.0 309676.0 318223.0 324349.0 279030.0 286722.0 300744.0 293263.0 248738.0 240740.0 324736.0 329246.0 331496.0 325680.0 306364.0 302424.0 8282.0 0.0 190723.0 183616.0 284053.0 276282.0 97317.0 105102.0 146241.0 149646.0 300062.0 292238.0 313569.0 305581.0 282789.0 277570.0 261988.0 265366.0 255533.0 247602.0 33284.0 40238.0 323622.0 323746.0 62504.0 57170.0 278696.0 273784.0 307039.0 306955.0 186089.0 193584.0 64854.0 57773.0 342133.0 349861.0 66179.0 61365.0 32013.0 24552.0 148284.0 156213.0 52958.0 59666.0 207462.0 214377.0 324427.0 327618.0 133747.0 126789.0 294295.0 300263.0 186773.0 182350.0 341599.0 346009.0 288167.0 293598.0 272674.0 115982.0 272674.0 272674.0 272674.0 272674.0 272674.0 272674.0 272674.0 272674.0 115982.0 115982.0 115982.0 115982.0 115982.0 115982.0 115982.0 115982.0
174442.0 180266.0 156809.0 150430.0 118136.0 126214.0 132829.0 125276.0 137457.0 142031.0 100102.0 107135.0 118147.0 110100.0 58050.0 50053.0 134060.0 138795.0 149171.0 144550.0 138567.0 132072.0 198891.0 190723.0 0.0 7195.0 109179.0 101695.0 129510.0 124802.0 45947.0 43938.0 113414.0 106198.0 179428.0 173243.0 95695.0 89417.0 71267.0 74850.0 64955.0 56942.0 224007.0 230860.0 182898.0 178949.0 235661.0 227529.0 94742.0 91838.0 126688.0 124857.0 50910.0 48880.0 128155.0 133698.0 158922.0 166790.0 243887.0 236339.0 162355.0 167535.0 83051.0 78186.0 170915.0 164947.0 55161.0 54148.0 139885.0 141809.0 57455.0 63964.0 180850.0 182069.0 10000.0 18084.0 167773.0 169878.0 110330.0 114019.0 100929.0 77703.0 100929.0 100929.0 100929.0 100929.0 100929.0 100929.0 100929.0 100929.0 77703.0 77703.0 77703.0 77703.0 77703.0 77703.0 77703.0 77703.0
168021.0 173744.0 162311.0 155763.0 125291.0 133376.0 138884.0 131249.0 144209.0 148888.0 105052.0 112240.0 123807.0 115825.0 65205.0 57210.0 141209.0 145974.0 154874.0 150051.0 144455.0 138099.0 191783.0 183616.0 7195.0 0.0 115399.0 107839.0 123700.0 119224.0 39322.0 37650.0 119727.0 112390.0 183465.0 177111.0 102041.0 95946.0 78395.0 81853.0 72132.0 64106.0 216900.0 223753.0 187361.0 183628.0 228859.0 220741.0 100535.0 97267.0 132007.0 130458.0 50772.0 49879.0 120973.0 126545.0 164784.0 172644.0 237032.0 229509.0 155332.0 160458.0 79175.0 74870.0 164308.0 158438.0 57754.0 57730.0 145914.0 148040.0 50269.0 56836.0 183676.0 185186.0 10579.0 16824.0 174177.0 176425.0 115148.0 119156.0 104309.0 70508.0 104309.0 104309.0 104309.0 104309.0 104309.0 104309.0 104309.0 104309.0 70508.0 70508.0 70508.0 70508.0 70508.0 70508.0 70508.0 70508.0
250721.0 258151.0 161167.0 160021.0 49815.0 54506.0 130932.0 128253.0 35929.0 43350.0 133487.0 135060.0 131087.0 125033.0 72405.0 75787.0 82275.0 79803.0 150909.0 152133.0 31152.0 23651.0 292227.0 284053.0 109179.0 115399.0 0.0 7844.0 200130.0 192757.0 142023.0 137695.0 112466.0 112106.0 93853.0 91295.0 103472.0 96213.0 70452.0 77244.0 67628.0 72134.0 317315.0 323904.0 90517.0 83892.0 317217.0 309034.0 115786.0 121185.0 143503.0 136537.0 98213.0 90534.0 226693.0 230361.0 154244.0 160415.0 326592.0 318604.0 253034.0 259741.0 141254.0 132825.0 251158.0 243651.0 76816.0 69676.0 136280.0 131975.0 160115.0 164133.0 114036.0 110436.0 107021.0 107673.0 59153.0 62411.0 141774.0 138707.0 159981.0 180349.0 159981.0 159981.0 159981.0 159981.0 159981.0 159981.0 159981.0 159981.0 180349.0 180349.0 180349.0 180349.0 180349.0 180349.0 180349.0 180349.0
243323.0 250721.0 160615.0 159058.0 52325.0 57879.0 130243.0 127110.0 43077.0 50243.0 130267.0 132254.0 129258.0 122886.0 67199.0 70002.0 84581.0 82814.0 150375.0 151178.0 37594.0 30540.0 284450.0 276282.0 101695.0 107839.0 7844.0 0.0 192757.0 185429.0 134184.0 129853.0 111144.0 110220.0 96468.0 93311.0 101084.0 93549.0 66466.0 73641.0 62938.0 66817.0 309548.0 316153.0 94179.0 87929.0 309759.0 301569.0 112887.0 117884.0 141689.0 134941.0 90525.0 82807.0 218853.0 222534.0 154267.0 160673.0 319110.0 311126.0 245298.0 251984.0 133868.0 125447.0 243651.0 236173.0 69146.0 61912.0 135856.0 131950.0 152305.0 156299.0 114500.0 111422.0 99350.0 99897.0 66945.0 70254.0 138886.0 136217.0 155476.0 172526.0 155476.0 155476.0 155476.0 155476.0 155476.0 155476.0 155476.0 155476.0 172526.0 172526.0 172526.0 172526.0 172526.0 172526.0 172526.0 172526.0
50621.0 58200.0 285960.0 279281.0 231695.0 239661.0 262311.0 254784.0 235817.0 242785.0 228201.0 235575.0 247507.0 239517.0 182552.0 175007.0 255468.0 258383.0 278572.0 273705.0 218127.0 215384.0 105318.0 97317.0 129510.0 123700.0 200130.0 192757.0 0.0 8013.0 85665.0 86298.0 242630.0 235593.0 217565.0 209541.0 224896.0 218216.0 195711.0 201091.0 188207.0 181238.0 127821.0 132740.0 228234.0 228973.0 117335.0 109217.0 224202.0 220916.0 255539.0 254152.0 104047.0 112117.0 70507.0 66403.0 288422.0 296288.0 126882.0 118866.0 66258.0 74243.0 58889.0 67311.0 52316.0 44405.0 124555.0 132706.0 269377.0 271114.0 86680.0 78792.0 197100.0 203205.0 121869.0 114808.0 254417.0 259796.0 238027.0 242512.0 224102.0 80125.0 224102.0 224102.0 224102.0 224102.0 224102.0 224102.0 224102.0 224102.0 80125.0 80125.0 80125.0 80125.0 80125.0 80125.0 80125.0 80125.0
58200.0 65887.0 281526.0 274976.0 225007.0 232937.0 257425.0 249973.0 228502.0 235523.0 224077.0 231372.0 242938.0 234902.0 176853.0 169397.0 249209.0 251976.0 273972.0 269265.0 210421.0 207761.0 113139.0 105102.0 124802.0 119224.0 192757.0 185429.0 8013.0 0.0 81959.0 82194.0 237552.0 230629.0 209562.0 201539.0 219831.0 213016.0 189936.0 195486.0 182364.0 175528.0 135771.0 140729.0 220221.0 220962.0 124984.0 116895.0 219543.0 216488.0 251221.0 249629.0 97241.0 105308.0 75457.0 71962.0 283685.0 291555.0 134580.0 126561.0 73847.0 81822.0 51645.0 60027.0 60256.0 52316.0 117512.0 125741.0 264506.0 266059.0 84739.0 77083.0 189233.0 195299.0 116838.0 109567.0 246750.0 252187.0 234010.0 238301.0 220667.0 80081.0 220667.0 220667.0 220667.0 220667.0 220667.0 220667.0 220667.0 220667.0 80081.0 80081.0 80081.0 80081.0 80081.0 80081.0 80081.0 80081.0
128746.0 134424.0 200641.0 193812.0 160341.0 168507.0 177981.0 170272.0 174381.0 179984.0 142610.0 150040.0 162460.0 154581.0 103153.0 95194.0 178922.0 183185.0 193531.0 188405.0 168020.0 162779.0 154408.0 146241.0 45947.0 39322.0 142023.0 134184.0 85665.0 81959.0 0.0 4794.0 159011.0 151612.0 194276.0 187055.0 141342.0 135264.0 116503.0 120568.0 109733.0 101960.0 179525.0 186377.0 200702.0 198402.0 189764.0 181620.0 139408.0 135674.0 170102.0 169011.0 51276.0 56234.0 85536.0 90144.0 203644.0 211487.0 198061.0 190475.0 117168.0 122737.0 51883.0 51416.0 124996.0 119121.0 69617.0 74272.0 184981.0 187272.0 20052.0 22208.0 187316.0 190480.0 40683.0 36197.0 201014.0 204407.0 152381.0 156979.0 138719.0 38758.0 138719.0 138719.0 138719.0 138719.0 138719.0 138719.0 138719.0 138719.0 38758.0 38758.0 38758.0 38758.0 38758.0 38758.0 38758.0 38758.0
130505.0 136370.0 199687.0 192983.0 156852.0 165019.0 176533.0 168890.0 170278.0 175962.0 141938.0 149286.0 161326.0 153384.0 100430.0 92510.0 175992.0 180109.0 192403.0 187436.0 163486.0 158306.0 157814.0 149646.0 43938.0 37650.0 137695.0 129853.0 86298.0 82194.0 4794.0 0.0 157314.0 150023.0 189485.0 182269.0 139607.0 133352.0 113794.0 118096.0 106888.0 99212.0 182930.0 189783.0 195910.0 193618.0 192242.0 184074.0 138133.0 134655.0 169242.0 167935.0 46483.0 51474.0 89488.0 93881.0 202389.0 210245.0 200651.0 193013.0 120294.0 126028.0 49188.0 48097.0 127110.0 121045.0 64904.0 69676.0 183562.0 185665.0 24843.0 26780.0 182637.0 185762.0 37864.0 32729.0 196629.0 200097.0 151828.0 156222.0 138832.0 43398.0 138832.0 138832.0 138832.0 138832.0 138832.0 138832.0 138832.0 138832.0 43398.0 43398.0 43398.0 43398.0 43398.0 43398.0 43398.0 43398.0
287746.0 293411.0 50867.0 48153.0 71199.0 73436.0 21207.0 16121.0 108777.0 106392.0 36698.0 32446.0 20025.0 17589.0 64192.0 70265.0 53008.0 61161.0 41011.0 40342.0 137904.0 130140.0 308229.0 300062.0 113414.0 119727.0 112466.0 111144.0 242630.0 237552.0 159011.0 157314.0 0.0 8219.0 206078.0 203756.0 17736.0 24884.0 53694.0 46013.0 61324.0 65539.0 333345.0 340198.0 201492.0 194239.0 347715.0 339678.0 23743.0 31510.0 31851.0 24343.0 148422.0 141647.0 236724.0 242580.0 48100.0 55760.0 355569.0 348216.0 272752.0 277238.0 191646.0 185023.0 283865.0 278120.0 135936.0 128153.0 28126.0 28515.0 166728.0 174335.0 225596.0 222547.0 120765.0 127999.0 142862.0 139182.0 38585.0 31951.0 76270.0 185857.0 76270.0 76270.0 76270.0 76270.0 76270.0 76270.0 76270.0 76270.0 185857.0 185857.0 185857.0 185857.0 185857.0 185857.0 185857.0 185857.0
280357.0 285951.0 54824.0 50956.0 73531.0 76581.0 26930.0 20133.0 111051.0 109215.0 30063.0 27031.0 19041.0 13428.0 59052.0 64597.0 58491.0 66604.0 45493.0 43440.0 138674.0 130806.0 300405.0 292238.0 106198.0 112390.0 112106.0 110220.0 235593.0 230629.0 151612.0 150023.0 8219.0 0.0 205945.0 203316.0 11368.0 19464.0 49626.0 41667.0 56945.0 60371.0 325521.0 332374.0 201893.0 194794.0 340018.0 331996.0 15610.0 23577.0 31470.0 25025.0 142621.0 136035.0 228899.0 234756.0 53744.0 61555.0 347823.0 340495.0 264922.0 269414.0 185279.0 178808.0 276351.0 270676.0 130918.0 123327.0 34032.0 35660.0 158962.0 166617.0 224349.0 221580.0 113792.0 121162.0 145677.0 142394.0 33644.0 28112.0 68795.0 178033.0 68795.0 68795.0 68795.0 68795.0 68795.0 68795.0 68795.0 68795.0 178033.0 178033.0 178033.0 178033.0 178033.0 178033.0 178033.0 178033.0
264813.0 272862.0 253761.0 253178.0 138735.0 140452.0 223871.0 221688.0 105919.0 112287.0 226727.0 228677.0 224904.0 218885.0 161836.0 163013.0 169446.0 164631.0 243527.0 245305.0 70242.0 77229.0 321777.0 313569.0 179428.0 183465.0 93853.0 96468.0 217565.0 209562.0 194276.0 189485.0 206078.0 205945.0 0.0 8030.0 197275.0 189897.0 162720.0 170053.0 158540.0 161219.0 345139.0 350269.0 13938.0 20347.0 329872.0 322301.0 209329.0 214335.0 237309.0 230262.0 143031.0 138912.0 267273.0 268271.0 245843.0 251443.0 339782.0 331919.0 281630.0 289383.0 166961.0 159896.0 269071.0 261039.0 127135.0 125789.0 228814.0 223863.0 214328.0 215108.0 34883.0 27010.0 173068.0 169643.0 88027.0 96140.0 235333.0 232492.0 250648.0 231534.0 250648.0 250648.0 250648.0 250648.0 250648.0 250648.0 250648.0 250648.0 231534.0 231534.0 231534.0 231534.0 231534.0 231534.0 231534.0 231534.0
256788.0 264837.0 252015.0 251169.0 137562.0 139734.0 221955.0 219502.0 106032.0 112731.0 223332.0 225526.0 222325.0 216119.0 157664.0 158507.0 168780.0 164286.0 241764.0 243285.0 69786.0 76306.0 313786.0 305581.0 173243.0 177111.0 91295.0 93311.0 209541.0 201539.0 187055.0 182269.0 203756.0 203316.0 8030.0 0.0 194375.0 186858.0 159132.0 166606.0 154658.0 156996.0 337129.0 342249.0 20806.0 25733.0 321873.0 314296.0 206145.0 210915.0 234750.0 227826.0 135862.0 131936.0 259495.0 260436.0 244439.0 250213.0 331782.0 323915.0 273648.0 281407.0 159095.0 152081.0 261040.0 253008.0 120410.0 119384.0 227072.0 222341.0 207104.0 207755.0 30104.0 23025.0 166663.0 163031.0 90684.0 98842.0 232127.0 229527.0 246410.0 224138.0 246410.0 246410.0 246410.0 246410.0 246410.0 246410.0 246410.0 246410.0 224138.0 224138.0 224138.0 224138.0 224138.0 224138.0 224138.0 224138.0
270062.0 275757.0 66132.0 62019.0 68309.0 72404.0 38131.0 31500.0 105322.0 104215.0 32420.0 32081.0 29186.0 21990.0 47708.0 53237.0 58403.0 66235.0 56858.0 54618.0 131052.0 123106.0 290956.0 282789.0 95695.0 102041.0 103472.0 101084.0 224896.0 219831.0 141342.0 139607.0 17736.0 11368.0 197275.0 194375.0 0.0 8263.0 38659.0 30629.0 45806.0 49023.0 316072.0 322925.0 193737.0 186804.0 330239.0 322186.0 14198.0 22113.0 41364.0 35664.0 131294.0 124681.0 219450.0 225307.0 65030.0 72816.0 338149.0 330766.0 255461.0 259914.0 174130.0 167596.0 266243.0 260461.0 119565.0 112000.0 45216.0 46229.0 149369.0 156912.0 214723.0 212178.0 103033.0 110289.0 140450.0 137715.0 38925.0 35239.0 67138.0 168584.0 67138.0 67138.0 67138.0 67138.0 67138.0 67138.0 67138.0 67138.0 168584.0 168584.0 168584.0 168584.0 168584.0 168584.0 168584.0 168584.0
263856.0 269668.0 74288.0 70271.0 63515.0 68311.0 45832.0 39516.0 99895.0 99285.0 37989.0 38857.0 37413.0 30049.0 39627.0 45425.0 57545.0 65007.0 64910.0 62844.0 124336.0 116358.0 285737.0 277570.0 89417.0 95946.0 96213.0 93549.0 218216.0 213016.0 135264.0 133352.0 24884.0 19464.0 189897.0 186858.0 8263.0 0.0 30404.0 22368.0 37551.0 40954.0 310854.0 317707.0 186639.0 179804.0 324586.0 316503.0 19750.0 26378.0 49518.0 43924.0 123574.0 116858.0 214279.0 220135.0 72786.0 80519.0 332605.0 325165.0 250175.0 254794.0 166794.0 160144.0 260255.0 254353.0 111497.0 103874.0 52867.0 53280.0 144055.0 151463.0 206871.0 204427.0 96381.0 103453.0 135231.0 132868.0 45608.0 42689.0 69266.0 163413.0 69266.0 69266.0 69266.0 69266.0 69266.0 69266.0 69266.0 69266.0 163413.0 163413.0 163413.0 163413.0 163413.0 163413.0 163413.0 163413.0
243198.0 249476.0 104256.0 100576.0 52222.0 59521.0 74879.0 69305.0 82648.0 84276.0 64315.0 67169.0 67807.0 60303.0 13366.0 21310.0 62847.0 67940.0 94609.0 93056.0 100546.0 92577.0 270155.0 261988.0 71267.0 78395.0 70452.0 66466.0 195711.0 189936.0 116503.0 113794.0 53694.0 49626.0 162720.0 159132.0 38659.0 30404.0 0.0 8061.0 7877.0 14606.0 295271.0 302124.0 160613.0 154219.0 306006.0 297825.0 47900.0 51886.0 79829.0 74324.0 96695.0 89457.0 199262.0 204930.0 101638.0 109162.0 314445.0 306799.0 233495.0 238772.0 141558.0 134378.0 240544.0 234163.0 82644.0 74672.0 81689.0 80719.0 128577.0 135227.0 177789.0 175739.0 75931.0 81777.0 117715.0 116974.0 73521.0 71981.0 89706.0 148561.0 89706.0 89706.0 89706.0 89706.0 89706.0 89706.0 89706.0 89706.0 148561.0 148561.0 148561.0 148561.0 148561.0 148561.0 148561.0 148561.0
248064.0 254209.0 96387.0 92594.0 54308.0 61030.0 67220.0 61461.0 86971.0 87959.0 56728.0 59314.0 59757.0 52243.0 18852.0 26090.0 60525.0 66353.0 86812.0 85107.0 106865.0 98868.0 273534.0 265366.0 74850.0 81853.0 77244.0 73641.0 201091.0 195486.0 120568.0 118096.0 46013.0 41667.0 170053.0 166606.0 30629.0 22368.0 8061.0 0.0 15333.0 20211.0 298650.0 305503.0 167643.0 161126.0 310306.0 302149.0 39985.0 44309.0 71769.0 66292.0 103351.0 96284.0 202271.0 208096.0 94068.0 101654.0 318629.0 311038.0 237185.0 242277.0 147733.0 140717.0 245127.0 238882.0 89997.0 82153.0 74096.0 73442.0 131692.0 138593.0 185604.0 183459.0 80314.0 86607.0 122312.0 121112.0 65738.0 64010.0 83699.0 151405.0 83699.0 83699.0 83699.0 83699.0 83699.0 83699.0 83699.0 83699.0 151405.0 151405.0 151405.0 151405.0 151405.0 151405.0 151405.0 151405.0
235910.0 242252.0 111706.0 107822.0 55523.0 63216.0 82529.0 76789.0 83235.0 85580.0 69625.0 73056.0 74800.0 67123.0 7295.0 15040.0 69221.0 73842.0 102144.0 100377.0 98324.0 90441.0 263700.0 255533.0 64955.0 72132.0 67628.0 62938.0 188207.0 182364.0 109733.0 106888.0 61324.0 56945.0 158540.0 154658.0 45806.0 37551.0 7877.0 15333.0 0.0 8151.0 288817.0 295670.0 157027.0 150864.0 298991.0 290800.0 54043.0 57263.0 86653.0 81414.0 88839.0 81584.0 193105.0 198632.0 109345.0 116901.0 307491.0 299818.0 226851.0 232238.0 133792.0 126573.0 233397.0 226949.0 74821.0 66896.0 89381.0 88535.0 122399.0 128871.0 172426.0 170647.0 69069.0 74634.0 117772.0 117577.0 79203.0 78204.0 92538.0 142547.0 92538.0 92538.0 92538.0 92538.0 92538.0 92538.0 92538.0 92538.0 142547.0 142547.0 142547.0 142547.0 142547.0 142547.0 142547.0 142547.0
228611.0 234877.0 115145.0 110757.0 63496.0 71253.0 86681.0 80466.0 90081.0 92780.0 69559.0 73765.0 77362.0 69421.0 1363.0 6914.0 77135.0 81898.0 105855.0 103518.0 103155.0 95383.0 255770.0 247602.0 56942.0 64106.0 72134.0 66817.0 181238.0 175528.0 101960.0 99212.0 65539.0 60371.0 161219.0 156996.0 49023.0 40954.0 14606.0 20211.0 8151.0 0.0 280886.0 287739.0 160366.0 154459.0 291409.0 283227.0 55393.0 57467.0 88803.0 84128.0 83200.0 76223.0 185067.0 190639.0 113624.0 121299.0 299859.0 292208.0 219013.0 224343.0 127536.0 120506.0 225938.0 219562.0 70548.0 63001.0 93659.0 93401.0 114360.0 120892.0 173565.0 172164.0 61353.0 67174.0 124210.0 124338.0 79555.0 79378.0 89435.0 134468.0 89435.0 89435.0 89435.0 89435.0 89435.0 89435.0 89435.0 89435.0 134468.0 134468.0 134468.0 134468.0 134468.0 134468.0 134468.0 134468.0
86327.0 78936.0 371042.0 363709.0 339782.0 347949.0 350913.0 342959.0 351507.0 357631.0 312314.0 320006.0 334027.0 326547.0 282022.0 274024.0 358019.0 362530.0 364779.0 358964.0 339457.0 335587.0 25228.0 33284.0 224007.0 216900.0 317315.0 309548.0 127821.0 135771.0 179525.0 182930.0 333345.0 325521.0 345139.0 337129.0 316072.0 310854.0 295271.0 298650.0 288817.0 280886.0 0.0 8022.0 355480.0 355825.0 54703.0 53717.0 311980.0 307068.0 340323.0 340239.0 219305.0 226827.0 98138.0 91057.0 375416.0 383144.0 53086.0 52321.0 64683.0 57626.0 180856.0 188892.0 78747.0 86463.0 240689.0 247639.0 357711.0 360902.0 167031.0 160072.0 324789.0 330990.0 220057.0 215634.0 374779.0 379233.0 321451.0 326882.0 305958.0 149265.0 305958.0 305958.0 305958.0 305958.0 305958.0 305958.0 305958.0 305958.0 149265.0 149265.0 149265.0 149265.0 149265.0 149265.0 149265.0 149265.0
89458.0 81813.0 377894.0 370562.0 346555.0 354722.0 357766.0 349812.0 358239.0 364424.0 319167.0 326859.0 340880.0 333400.0 288875.0 280876.0 364872.0 369383.0 371632.0 365816.0 345727.0 341959.0 32458.0 40238.0 230860.0 223753.0 323904.0 316153.0 132740.0 140729.0 186377.0 189783.0 340198.0 332374.0 350269.0 342249.0 322925.0 317707.0 302124.0 305503.0 295670.0 287739.0 8022.0 0.0 360769.0 361249.0 51147.0 51322.0 318832.0 313920.0 347176.0 347092.0 225799.0 233380.0 104990.0 97910.0 382269.0 389997.0 48255.0 48564.0 70942.0 64184.0 186716.0 194823.0 82585.0 90459.0 247199.0 254242.0 364564.0 367755.0 173884.0 166925.0 329386.0 335693.0 226910.0 222487.0 381173.0 385713.0 328304.0 333735.0 312811.0 156118.0 312811.0 312811.0 312811.0 312811.0 312811.0 312811.0 312811.0 312811.0 156118.0 156118.0 156118.0 156118.0 156118.0 156118.0 156118.0 156118.0
276089.0 284124.0 248082.0 247936.0 132565.0 133554.0 218544.0 216822.0 98046.0 103867.0 224004.0 225496.0 220705.0 215035.0 160875.0 162727.0 162315.0 157036.0 237899.0 240099.0 63868.0 71436.0 331860.0 323622.0 182898.0 187361.0 90517.0 94179.0 228234.0 220221.0 200702.0 195910.0 201492.0 201893.0 13938.0 20806.0 193737.0 186639.0 160613.0 167643.0 157027.0 160366.0 355480.0 360769.0 0.0 8092.0 341524.0 333880.0 206267.0 211695.0 233044.0 225801.0 149462.0 144756.0 275863.0 277180.0 239628.0 244941.0 351420.0 343523.0 291630.0 299314.0 176193.0 168853.0 280033.0 272006.0 132315.0 130117.0 223187.0 217890.0 220716.0 221952.0 48697.0 40690.0 177137.0 174288.0 76898.0 84889.0 232236.0 228962.0 249526.0 238506.0 249526.0 249526.0 249526.0 249526.0 249526.0 249526.0 249526.0 249526.0 238506.0 238506.0 238506.0 238506.0 238506.0 238506.0 238506.0 238506.0
277330.0 285347.0 240522.0 240481.0 124968.0 125797.0 211082.0 209482.0 90149.0 95883.0 217312.0 218650.0 213549.0 207987.0 154924.0 157050.0 154493.0 149137.0 230355.0 232658.0 56409.0 64101.0 332003.0 323746.0 178949.0 183628.0 83892.0 87929.0 228973.0 220962.0 198402.0 193618.0 194239.0 194794.0 20347.0 25733.0 186804.0 179804.0 154219.0 161126.0 150864.0 154459.0 355825.0 361249.0 8092.0 0.0 343091.0 335377.0 199477.0 205043.0 225861.0 218566.0 147302.0 142255.0 274900.0 276450.0 231952.0 237205.0 352968.0 345042.0 291735.0 299357.0 175863.0 168336.0 280979.0 272963.0 129474.0 126801.0 215649.0 210275.0 218357.0 219877.0 55110.0 47339.0 173522.0 170998.0 68870.0 76884.0 225412.0 222002.0 243402.0 236487.0 243402.0 243402.0 243402.0 243402.0 243402.0 243402.0 243402.0 243402.0 236487.0 236487.0 236487.0 236487.0 236487.0 236487.0 236487.0 236487.0
66796.0 59138.0 385848.0 378515.0 346379.0 354469.0 365664.0 357732.0 352752.0 359579.0 327120.0 334812.0 348813.0 341353.0 292640.0 284740.0 367838.0 371536.0 379468.0 373770.0 335401.0 332718.0 60542.0 62504.0 235661.0 228859.0 317217.0 309759.0 117335.0 124984.0 189764.0 192242.0 347715.0 340018.0 329872.0 321873.0 330239.0 324586.0 306006.0 310306.0 298991.0 291409.0 54703.0 51147.0 341524.0 343091.0 0.0 8235.0 326732.0 321865.0 355129.0 354969.0 220012.0 228019.0 117041.0 109278.0 390186.0 397890.0 9922.0 2881.0 76524.0 74284.0 176031.0 184465.0 66330.0 73615.0 241027.0 248920.0 372490.0 375535.0 181118.0 173403.0 305284.0 312277.0 230097.0 224380.0 371732.0 377131.0 336257.0 341688.0 320764.0 164164.0 320764.0 320764.0 320764.0 320764.0 320764.0 320764.0 320764.0 320764.0 164164.0 164164.0 164164.0 164164.0 164164.0 164164.0 164164.0 164164.0
58739.0 51018.0 377913.0 370580.0 338145.0 346235.0 357688.0 349765.0 344555.0 351373.0 319185.0 326877.0 340894.0 333412.0 284460.0 276564.0 359630.0 363317.0 371580.0 365835.0 327316.0 324599.0 56123.0 57170.0 227529.0 220741.0 309034.0 301569.0 109217.0 116895.0 181620.0 184074.0 339678.0 331996.0 322301.0 314296.0 322186.0 316503.0 297825.0 302149.0 290800.0 283227.0 53717.0 51322.0 333880.0 335377.0 8235.0 0.0 318760.0 313938.0 347194.0 347070.0 211791.0 219797.0 109680.0 101845.0 382275.0 389988.0 17704.0 9697.0 68999.0 67162.0 167868.0 176301.0 58100.0 65409.0 232817.0 240702.0 364525.0 367530.0 173136.0 165392.0 297994.0 304932.0 221923.0 216183.0 363630.0 369006.0 328322.0 333753.0 312829.0 156343.0 312829.0 312829.0 312829.0 312829.0 312829.0 312829.0 312829.0 312829.0 156343.0 156343.0 156343.0 156343.0 156343.0 156343.0 156343.0 156343.0
267978.0 273373.0 62465.0 56824.0 82406.0 86596.0 38935.0 31015.0 119249.0 118301.0 18377.0 19393.0 23574.0 15417.0 54205.0 58167.0 71853.0 79812.0 54450.0 50285.0 144081.0 136101.0 286863.0 278696.0 94742.0 100535.0 115786.0 112887.0 224202.0 219543.0 139408.0 138133.0 23743.0 15610.0 209329.0 206145.0 14198.0 19750.0 47900.0 39985.0 54043.0 55393.0 311980.0 318832.0 206267.0 199477.0 326732.0 318760.0 0.0 8344.0 33789.0 30415.0 134627.0 128540.0 215358.0 221214.0 64256.0 72112.0 334388.0 327140.0 251387.0 255872.0 175701.0 169627.0 263627.0 258150.0 124862.0 117787.0 45780.0 49109.0 145624.0 153415.0 225570.0 223348.0 102976.0 110671.0 154465.0 151830.0 26005.0 24161.0 53939.0 164492.0 53939.0 53939.0 53939.0 53939.0 53939.0 53939.0 53939.0 53939.0 164492.0 164492.0 164492.0 164492.0 164492.0 164492.0 164492.0 164492.0
263890.0 269121.0 65047.0 58606.0 89768.0 94244.0 44455.0 36386.0 126273.0 125602.0 12430.0 16574.0 26974.0 19598.0 56388.0 59316.0 80150.0 88087.0 57930.0 52789.0 150052.0 142053.0 281951.0 273784.0 91838.0 97267.0 121185.0 117884.0 220916.0 216488.0 135674.0 134655.0 31510.0 23577.0 214335.0 210915.0 22113.0 26378.0 51886.0 44309.0 57263.0 57467.0 307068.0 313920.0 211695.0 205043.0 321865.0 313938.0 8344.0 0.0 34896.0 33364.0 133918.0 128179.0 210446.0 216302.0 68372.0 76137.0 329390.0 322214.0 246475.0 250960.0 173797.0 168007.0 259265.0 253953.0 125398.0 118671.0 50961.0 55152.0 140905.0 148801.0 229582.0 227614.0 100504.0 108389.0 161604.0 159174.0 22088.0 22919.0 45598.0 159580.0 45598.0 45598.0 45598.0 45598.0 45598.0 45598.0 45598.0 45598.0 159580.0 159580.0 159580.0 159580.0 159580.0 159580.0 159580.0 159580.0
297859.0 302907.0 30719.0 23756.0 103015.0 104983.0 23189.0 18996.0 140571.0 138008.0 28077.0 20325.0 12431.0 19535.0 87568.0 91891.0 82408.0 90428.0 25501.0 18722.0 169593.0 161787.0 315206.0 307039.0 126688.0 132007.0 143503.0 141689.0 255539.0 251221.0 170102.0 169242.0 31851.0 31470.0 237309.0 234750.0 41364.0 49518.0 79829.0 71769.0 86653.0 88803.0 340323.0 347176.0 233044.0 225861.0 355129.0 347194.0 33789.0 34896.0 0.0 7927.0 168268.0 162274.0 243701.0 249557.0 36858.0 44010.0 362724.0 355500.0 279730.0 284216.0 208662.0 202806.0 292930.0 287816.0 158627.0 151488.0 25791.0 33265.0 174340.0 182344.0 255783.0 253047.0 135400.0 143283.0 174433.0 170525.0 20418.0 13538.0 64505.0 192835.0 64505.0 64505.0 64505.0 64505.0 64505.0 64505.0 64505.0 64505.0 192835.0 192835.0 192835.0 192835.0 192835.0 192835.0 192835.0 192835.0
297249.0 302461.0 32058.0 26682.0 95343.0 97178.0 16390.0 11157.0 132867.0 130212.0 29373.0 21744.0 6880.0 15070.0 82855.0 87668.0 74484.0 82510.0 24576.0 19874.0 162243.0 154470.0 315123.0 306955.0 124857.0 130458.0 136537.0 134941.0 254152.0 249629.0 169011.0 167935.0 24343.0 25025.0 230262.0 227826.0 35664.0 43924.0 74324.0 66292.0 81414.0 84128.0 340239.0 347092.0 225801.0 218566.0 354969.0 347070.0 30415.0 33364.0 7927.0 0.0 164865.0 158641.0 243617.0 249474.0 35263.0 42921.0 362640.0 355281.0 279646.0 284132.0 206112.0 200038.0 292584.0 287302.0 154410.0 147071.0 20478.0 27215.0 174146.0 182074.0 249227.0 246356.0 133264.0 141013.0 166617.0 162660.0 24167.0 16208.0 68264.0 192751.0 68264.0 68264.0 68264.0 68264.0 68264.0 68264.0 68264.0 68264.0 192751.0 192751.0 192751.0 192751.0 192751.0 192751.0 192751.0 192751.0
154117.0 161259.0 196699.0 191436.0 127786.0 135700.0 169379.0 162718.0 133145.0 139756.0 144121.0 150280.0 157985.0 149802.0 84563.0 78158.0 152874.0 155194.0 187910.0 184689.0 120720.0 116437.0 194300.0 186089.0 50910.0 50772.0 98213.0 90525.0 104047.0 97241.0 51276.0 46483.0 148422.0 142621.0 143031.0 135862.0 131294.0 123574.0 96695.0 103351.0 88839.0 83200.0 219305.0 225799.0 149462.0 147302.0 220012.0 211791.0 134627.0 133918.0 168268.0 164865.0 0.0 8071.0 130631.0 133515.0 196315.0 204077.0 229214.0 221268.0 154884.0 161688.0 46183.0 38332.0 153717.0 146422.0 21407.0 28923.0 176433.0 176537.0 71321.0 72576.0 137575.0 140201.0 41135.0 33952.0 155548.0 159928.0 154631.0 156830.0 149818.0 89199.0 149818.0 149818.0 149818.0 149818.0 149818.0 149818.0 149818.0 149818.0 89199.0 89199.0 89199.0 89199.0 89199.0 89199.0 89199.0 89199.0
162170.0 169297.0 190354.0 185272.0 119730.0 127637.0 162689.0 156159.0 125293.0 131846.0 138676.0 144636.0 151765.0 143602.0 77582.0 71450.0 144985.0 147226.0 181431.0 178414.0 113696.0 109193.0 201777.0 193584.0 48880.0 49879.0 90534.0 82807.0 112117.0 105308.0 56234.0 51474.0 141647.0 136035.0 138912.0 131936.0 124681.0 116858.0 89457.0 96284.0 81584.0 76223.0 226827.0 233380.0 144756.0 142255.0 228019.0 219797.0 128540.0 128179.0 162274.0 158641.0 8071.0 0.0 137464.0 140576.0 189642.0 197372.0 237204.0 229263.0 162500.0 169231.0 54178.0 46240.0 161714.0 154441.0 14012.0 20999.0 169719.0 169623.0 76120.0 78042.0 135301.0 137489.0 39623.0 33458.0 148208.0 152445.0 149191.0 151094.0 145762.0 94711.0 145762.0 145762.0 145762.0 145762.0 145762.0 145762.0 145762.0 145762.0 94711.0 94711.0 94711.0 94711.0 94711.0 94711.0 94711.0 94711.0
75191.0 76170.0 274420.0 267087.0 245421.0 253571.0 254292.0 246337.0 259729.0 265450.0 215692.0 223384.0 237406.0 229925.0 186149.0 178163.0 262108.0 266947.0 268157.0 262342.0 251154.0 246497.0 73021.0 64854.0 128155.0 120973.0 226693.0 218853.0 70507.0 75457.0 85536.0 89488.0 236724.0 228899.0 267273.0 259495.0 219450.0 214279.0 199262.0 202271.0 193105.0 185067.0 98138.0 104990.0 275863.0 274900.0 117041.0 109680.0 215358.0 210446.0 243701.0 243617.0 130631.0 137464.0 0.0 8101.0 278794.0 286523.0 123469.0 116900.0 40827.0 42998.0 100857.0 107468.0 65726.0 65027.0 151470.0 157533.0 261089.0 264280.0 70707.0 64494.0 252875.0 257797.0 125169.0 121612.0 285277.0 289077.0 224829.0 230260.0 209336.0 50865.0 209336.0 209336.0 209336.0 209336.0 209336.0 209336.0 209336.0 209336.0 50865.0 50865.0 50865.0 50865.0 50865.0 50865.0 50865.0 50865.0
67449.0 68209.0 280276.0 272943.0 250407.0 258568.0 260148.0 252194.0 263794.0 269658.0 221548.0 229241.0 243262.0 235781.0 191747.0 183750.0 267753.0 272446.0 274014.0 268198.0 254219.0 249758.0 65941.0 57773.0 133698.0 126545.0 230361.0 222534.0 66403.0 71962.0 90144.0 93881.0 242580.0 234756.0 268271.0 260436.0 225307.0 220135.0 204930.0 208096.0 198632.0 190639.0 91057.0 97910.0 277180.0 276450.0 109278.0 101845.0 221214.0 216302.0 249557.0 249474.0 133515.0 140576.0 8101.0 0.0 284651.0 292379.0 115871.0 109199.0 32890.0 35545.0 101394.0 108390.0 57816.0 57412.0 154584.0 160928.0 266945.0 270136.0 76406.0 69769.0 252893.0 258021.0 130264.0 126335.0 288688.0 292670.0 230685.0 236116.0 215192.0 57106.0 215192.0 215192.0 215192.0 215192.0 215192.0 215192.0 215192.0 215192.0 57106.0 57106.0 57106.0 57106.0 57106.0 57106.0 57106.0 57106.0
332124.0 337429.0 13306.0 20429.0 107151.0 106276.0 26955.0 33823.0 142516.0 138079.0 64297.0 56518.0 41398.0 49089.0 112279.0 118199.0 78344.0 84980.0 11410.0 19257.0 175898.0 168648.0 350300.0 342133.0 158922.0 164784.0 154244.0 154267.0 288422.0 283685.0 203644.0 202389.0 48100.0 53744.0 245843.0 244439.0 65030.0 72786.0 101638.0 94068.0 109345.0 113624.0 375416.0 382269.0 239628.0 231952.0 390186.0 382275.0 64256.0 68372.0 36858.0 35263.0 196315.0 189642.0 278794.0 284651.0 0.0 7871.0 397652.0 390511.0 314823.0 319309.0 238953.0 232535.0 327607.0 322238.0 184032.0 176220.0 19976.0 22318.0 209277.0 217172.0 268280.0 264529.0 166945.0 174489.0 172984.0 167637.0 57273.0 50130.0 101167.0 227928.0 101167.0 101167.0 101167.0 101167.0 101167.0 101167.0 101167.0 101167.0 227928.0 227928.0 227928.0 227928.0 227928.0 227928.0 227928.0 227928.0
339942.0 345230.0 16595.0 24950.0 112713.0 111411.0 34698.0 41680.0 147448.0 142727.0 71739.0 63944.0 49167.0 56916.0 119951.0 125942.0 83016.0 89267.0 18572.0 25729.0 181351.0 174214.0 358028.0 349861.0 166790.0 172644.0 160415.0 160673.0 296288.0 291555.0 211487.0 210245.0 55760.0 61555.0 251443.0 250213.0 72816.0 80519.0 109162.0 101654.0 116901.0 121299.0 383144.0 389997.0 244941.0 237205.0 397890.0 389988.0 72112.0 76137.0 44010.0 42921.0 204077.0 197372.0 286523.0 292379.0 7871.0 0.0 405328.0 398203.0 322552.0 327037.0 246794.0 240359.0 335395.0 330045.0 191645.0 183794.0 27654.0 29070.0 217027.0 224935.0 274414.0 270528.0 174815.0 182357.0 177161.0 171577.0 64357.0 57431.0 107939.0 235656.0 107939.0 107939.0 107939.0 107939.0 107939.0 107939.0 107939.0 107939.0 235656.0 235656.0 235656.0 235656.0 235656.0 235656.0 235656.0 235656.0
76439.0 68694.0 393443.0 386110.0 355295.0 363398.0 373322.0 365365.0 362073.0 368861.0 334715.0 342407.0 356310.0 348915.0 301080.0 293158.0 376438.0 380231.0 387180.0 381365.0 344996.0 342255.0 63039.0 66179.0 243887.0 237032.0 326592.0 319110.0 126882.0 134580.0 198061.0 200651.0 355569.0 347823.0 339782.0 331782.0 338149.0 332605.0 314445.0 318629.0 307491.0 299859.0 53086.0 48255.0 351420.0 352968.0 9922.0 17704.0 334388.0 329390.0 362724.0 362640.0 229214.0 237204.0 123469.0 115871.0 397652.0 405328.0 0.0 8018.0 83440.0 80486.0 185475.0 193906.0 75502.0 82941.0 250290.0 258133.0 380114.0 383280.0 188862.0 181240.0 315202.0 322198.0 238514.0 232929.0 381299.0 386655.0 343852.0 349283.0 328359.0 171494.0 328359.0 328359.0 328359.0 328359.0 328359.0 328359.0 328359.0 328359.0 171494.0 171494.0 171494.0 171494.0 171494.0 171494.0 171494.0 171494.0
68423.0 60676.0 386219.0 378886.0 347448.0 355546.0 366074.0 358131.0 354097.0 360895.0 327491.0 335183.0 349150.0 341719.0 293433.0 285522.0 368721.0 372473.0 379956.0 374141.0 336979.0 334241.0 59066.0 61365.0 236339.0 229509.0 318604.0 311126.0 118866.0 126561.0 190475.0 193013.0 348216.0 340495.0 331919.0 323915.0 330766.0 325165.0 306799.0 311038.0 299818.0 292208.0 52321.0 48564.0 343523.0 345042.0 2881.0 9697.0 327140.0 322214.0 355500.0 355281.0 221268.0 229263.0 116900.0 109199.0 390511.0 398203.0 8018.0 0.0 76554.0 74023.0 177472.0 185904.0 67550.0 74954.0 242327.0 250184.0 372885.0 375985.0 181555.0 173883.0 307483.0 314449.0 230875.0 225230.0 373283.0 378642.0 336628.0 342059.0 321135.0 164411.0 321135.0 321135.0 321135.0 321135.0 321135.0 321135.0 321135.0 321135.0 164411.0 164411.0 164411.0 164411.0 164411.0 164411.0 164411.0 164411.0
42740.0 40514.0 310449.0 303116.0 276932.0 285094.0 290320.0 282366.0 287519.0 293797.0 251721.0 259413.0 273434.0 265954.0 220181.0 212196.0 296064.0 300348.0 304186.0 298371.0 274817.0 271019.0 40278.0 32013.0 162355.0 155332.0 253034.0 245298.0 66258.0 73847.0 117168.0 120294.0 272752.0 264922.0 281630.0 273648.0 255461.0 250175.0 233495.0 237185.0 226851.0 219013.0 64683.0 70942.0 291630.0 291735.0 76524.0 68999.0 251387.0 246475.0 279730.0 279646.0 154884.0 162500.0 40827.0 32890.0 314823.0 322552.0 83440.0 76554.0 0.0 7987.0 116313.0 124283.0 31804.0 35399.0 176289.0 183398.0 297118.0 300260.0 106123.0 98776.0 262741.0 268605.0 157846.0 153007.0 310231.0 314781.0 260858.0 266289.0 245365.0 88159.0 245365.0 245365.0 245365.0 245365.0 245365.0 245365.0 245365.0 245365.0 88159.0 88159.0 88159.0 88159.0 88159.0 88159.0 88159.0 88159.0
48387.0 45112.0 314934.0 307602.0 282840.0 291006.0 294806.0 286852.0 294057.0 300257.0 256207.0 263899.0 277920.0 270440.0 225493.0 217498.0 301457.0 305874.0 308672.0 302856.0 281860.0 277964.0 32831.0 24552.0 167535.0 160458.0 259741.0 251984.0 74243.0 81822.0 122737.0 126028.0 277238.0 269414.0 289383.0 281407.0 259914.0 254794.0 238772.0 242277.0 232238.0 224343.0 57626.0 64184.0 299314.0 299357.0 74284.0 67162.0 255872.0 250960.0 284216.0 284132.0 161688.0 169231.0 42998.0 35545.0 319309.0 327037.0 80486.0 74023.0 7987.0 0.0 123779.0 131682.0 37473.0 42028.0 183077.0 190072.0 301604.0 304794.0 110812.0 103694.0 270654.0 276493.0 163354.0 158755.0 317154.0 321616.0 265344.0 270775.0 249851.0 92214.0 249851.0 249851.0 249851.0 249851.0 249851.0 249851.0 249851.0 249851.0 92214.0 92214.0 92214.0 92214.0 92214.0 92214.0 92214.0 92214.0
109467.0 116923.0 238166.0 232268.0 173835.0 181696.0 212206.0 205140.0 176928.0 183908.0 182787.0 189591.0 199274.0 191100.0 128891.0 121888.0 198996.0 201375.0 229908.0 225972.0 160015.0 156936.0 156563.0 148284.0 83051.0 79175.0 141254.0 133868.0 58889.0 51645.0 51883.0 49188.0 191646.0 185279.0 166961.0 159095.0 174130.0 166794.0 141558.0 147733.0 133792.0 127536.0 180856.0 186716.0 176193.0 175863.0 176031.0 167868.0 175701.0 173797.0 208662.0 206112.0 46183.0 54178.0 100857.0 101394.0 238953.0 246794.0 185475.0 177472.0 116313.0 123779.0 0.0 8434.0 110220.0 102577.0 65938.0 74249.0 219306.0 220068.0 66278.0 62168.0 152154.0 156957.0 73643.0 65567.0 196092.0 201270.0 193126.0 196396.0 183483.0 75084.0 183483.0 183483.0 183483.0 183483.0 183483.0 183483.0 183483.0 183483.0 75084.0 75084.0 75084.0 75084.0 75084.0 75084.0 75084.0 75084.0
117897.0 125357.0 232068.0 226329.0 165732.0 173563.0 205715.0 198755.0 168510.0 175503.0 177298.0 183966.0 193181.0 184994.0 121865.0 115020.0 191203.0 193460.0 223661.0 219911.0 151660.0 148535.0 164495.0 156213.0 78186.0 74870.0 132825.0 125447.0 67311.0 60027.0 51416.0 48097.0 185023.0 178808.0 159896.0 152081.0 167596.0 160144.0 134378.0 140717.0 126573.0 120506.0 188892.0 194823.0 168853.0 168336.0 184465.0 176301.0 169627.0 168007.0 202806.0 200038.0 38332.0 46240.0 107468.0 108390.0 232535.0 240359.0 193906.0 185904.0 124283.0 131682.0 8434.0 0.0 118635.0 111003.0 57677.0 66043.0 212808.0 213377.0 67658.0 64468.0 146171.0 150713.0 68513.0 60343.0 187703.0 192857.0 187697.0 190723.0 179018.0 78498.0 179018.0 179018.0 179018.0 179018.0 179018.0 179018.0 179018.0 179018.0 78498.0 78498.0 78498.0 78498.0 78498.0 78498.0 78498.0 78498.0
10953.0 10620.0 323647.0 316370.0 280120.0 288200.0 302448.0 294623.0 286592.0 293363.0 264960.0 272629.0 286229.0 278552.0 227193.0 219354.0 301996.0 305534.0 317158.0 311527.0 270098.0 267145.0 59713.0 52958.0 170915.0 164308.0 251158.0 243651.0 52316.0 60256.0 124996.0 127110.0 283865.0 276351.0 269071.0 261040.0 266243.0 260255.0 240544.0 245127.0 233397.0 225938.0 78747.0 82585.0 280033.0 280979.0 66330.0 58100.0 263627.0 259265.0 292930.0 292584.0 153717.0 161714.0 65726.0 57816.0 327607.0 335395.0 75502.0 67550.0 31804.0 37473.0 110220.0 118635.0 0.0 8032.0 174790.0 182634.0 309380.0 311993.0 118612.0 110587.0 247138.0 253594.0 164814.0 158777.0 306275.0 311489.0 274116.0 279520.0 258629.0 104040.0 258629.0 258629.0 258629.0 258629.0 258629.0 258629.0 258629.0 258629.0 104040.0 104040.0 104040.0 104040.0 104040.0 104040.0 104040.0 104040.0
10620.0 15330.0 318518.0 311330.0 273142.0 281204.0 296901.0 289116.0 279149.0 285965.0 259908.0 267542.0 280893.0 273157.0 220828.0 213027.0 295371.0 298801.0 311877.0 306364.0 262351.0 259460.0 66740.0 59666.0 164947.0 158438.0 243651.0 236173.0 44405.0 52316.0 119121.0 121045.0 278120.0 270676.0 261039.0 253008.0 260461.0 254353.0 234163.0 238882.0 226949.0 219562.0 86463.0 90459.0 272006.0 272963.0 73615.0 65409.0 258150.0 253953.0 287816.0 287302.0 146422.0 154441.0 65027.0 57412.0 322238.0 330045.0 82941.0 74954.0 35399.0 42028.0 102577.0 111003.0 8032.0 0.0 167413.0 175321.0 303861.0 306333.0 113692.0 105600.0 239151.0 245590.0 158597.0 152390.0 298565.0 303827.0 269183.0 274450.0 253719.0 100037.0 253719.0 253719.0 253719.0 253719.0 253719.0 253719.0 253719.0 253719.0 100037.0 100037.0 100037.0 100037.0 100037.0 100037.0 100037.0 100037.0
174891.0 182139.0 185665.0 181088.0 108275.0 116026.0 157127.0 151012.0 111870.0 118576.0 136533.0 141969.0 147582.0 139517.0 71871.0 66766.0 134909.0 136619.0 176403.0 173960.0 99686.0 95196.0 215666.0 207462.0 55161.0 57754.0 76816.0 69146.0 124555.0 117512.0 69617.0 64904.0 135936.0 130918.0 127135.0 120410.0 119565.0 111497.0 82644.0 89997.0 74821.0 70548.0 240689.0 247199.0 132315.0 129474.0 241027.0 232817.0 124862.0 125398.0 158627.0 154410.0 21407.0 14012.0 151470.0 154584.0 184032.0 191645.0 250290.0 242327.0 176289.0 183077.0 65938.0 57677.0 174790.0 167413.0 0.0 8574.0 164055.0 163355.0 89304.0 91614.0 125923.0 127493.0 47175.0 42722.0 134240.0 138547.0 146988.0 148162.0 146755.0 108273.0 146755.0 146755.0 146755.0 146755.0 146755.0 146755.0 146755.0 146755.0 108273.0 108273.0 108273.0 108273.0 108273.0 108273.0 108273.0 108273.0
182932.0 190121.0 178132.0 173727.0 99777.0 107557.0 149358.0 143377.0 104297.0 110851.0 130032.0 135240.0 140272.0 132257.0 64302.0 59621.0 126337.0 128050.0 168773.0 166517.0 93897.0 88986.0 222552.0 214377.0 54148.0 57730.0 69676.0 61912.0 132706.0 125741.0 74272.0 69676.0 128153.0 123327.0 125789.0 119384.0 112000.0 103874.0 74672.0 82153.0 66896.0 63001.0 247639.0 254242.0 130117.0 126801.0 248920.0 240702.0 117787.0 118671.0 151488.0 147071.0 28923.0 20999.0 157533.0 160928.0 176220.0 183794.0 258133.0 250184.0 183398.0 190072.0 74249.0 66043.0 182634.0 175321.0 8574.0 0.0 156249.0 155382.0 93535.0 96452.0 126943.0 127966.0 47286.0 44201.0 127772.0 131791.0 140434.0 141312.0 141709.0 113029.0 141709.0 141709.0 141709.0 141709.0 141709.0 141709.0 141709.0 141709.0 113029.0 113029.0 113029.0 113029.0 113029.0 113029.0 113029.0 113029.0
313649.0 319098.0 24949.0 25582.0 90722.0 90845.0 7103.0 14764.0 127231.0 123472.0 49312.0 41930.0 24795.0 31366.0 92313.0 98292.0 64576.0 72019.0 14718.0 18392.0 159321.0 151860.0 332594.0 324427.0 139885.0 145914.0 136280.0 135856.0 269377.0 264506.0 184981.0 183562.0 28126.0 34032.0 228814.0 227072.0 45216.0 52867.0 81689.0 74096.0 89381.0 93659.0 357711.0 364564.0 223187.0 215649.0 372490.0 364525.0 45780.0 50961.0 25791.0 20478.0 176433.0 169719.0 261089.0 266945.0 19976.0 27654.0 380114.0 372885.0 297118.0 301604.0 219306.0 212808.0 309380.0 303861.0 164055.0 156249.0 0.0 7962.0 191393.0 199194.0 250212.0 246714.0 147681.0 155121.0 159232.0 154462.0 44634.0 36686.0 88720.0 210223.0 88720.0 88720.0 88720.0 88720.0 88720.0 88720.0 88720.0 88720.0 210223.0 210223.0 210223.0 210223.0 210223.0 210223.0 210223.0 210223.0
316017.0 321607.0 30550.0 32605.0 85326.0 84929.0 11212.0 19049.0 121303.0 117254.0 54972.0 47920.0 30407.0 35859.0 92042.0 98443.0 57898.0 65112.0 20811.0 25889.0 154074.0 146734.0 335785.0 327618.0 141809.0 148040.0 131975.0 131950.0 271114.0 266059.0 187272.0 185665.0 28515.0 35660.0 223863.0 222341.0 46229.0 53280.0 80719.0 73442.0 88535.0 93401.0 360902.0 367755.0 217890.0 210275.0 375535.0 367530.0 49109.0 55152.0 33265.0 27215.0 176537.0 169623.0 264280.0 270136.0 22318.0 29070.0 383280.0 375985.0 300260.0 304794.0 220068.0 213377.0 311993.0 306333.0 163355.0 155382.0 7962.0 0.0 194431.0 202138.0 246009.0 242310.0 149257.0 156512.0 152738.0 147778.0 51266.0 43236.0 94953.0 213414.0 94953.0 94953.0 94953.0 94953.0 94953.0 94953.0 94953.0 94953.0 213414.0 213414.0 213414.0 213414.0 213414.0 213414.0 213414.0 213414.0
123909.0 128669.0 205059.0 197759.0 175118.0 183245.0 184552.0 176631.0 191522.0 196792.0 146352.0 154031.0 167879.0 160324.0 115445.0 107457.0 191420.0 196241.0 198704.0 192961.0 186893.0 181410.0 141915.0 133747.0 57455.0 50269.0 160115.0 152305.0 86680.0 84739.0 20052.0 24843.0 166728.0 158962.0 214328.0 207104.0 149369.0 144055.0 128577.0 131692.0 122399.0 114360.0 167031.0 173884.0 220716.0 218357.0 181118.0 173136.0 145624.0 140905.0 174340.0 174146.0 71321.0 76120.0 70707.0 76406.0 209277.0 217027.0 188862.0 181555.0 106123.0 110812.0 66278.0 67658.0 118612.0 113692.0 89304.0 93535.0 191393.0 194431.0 0.0 8150.0 207083.0 210360.0 55045.0 52642.0 219247.0 222333.0 155523.0 160916.0 140034.0 20556.0 140034.0 140034.0 140034.0 140034.0 140034.0 140034.0 140034.0 140034.0 20556.0 20556.0 20556.0 20556.0 20556.0 20556.0 20556.0 20556.0
115795.0 120606.0 213061.0 205793.0 180933.0 189081.0 192329.0 184429.0 196195.0 201662.0 154378.0 162043.0 175775.0 168181.0 122010.0 114011.0 198022.0 202678.0 206640.0 200948.0 190226.0 184980.0 134956.0 126789.0 63964.0 56836.0 164133.0 156299.0 78792.0 77083.0 22208.0 26780.0 174335.0 166617.0 215108.0 207755.0 156912.0 151463.0 135227.0 138593.0 128871.0 120892.0 160072.0 166925.0 221952.0 219877.0 173403.0 165392.0 153415.0 148801.0 182344.0 182074.0 72576.0 78042.0 64494.0 69769.0 217172.0 224935.0 181240.0 173883.0 98776.0 103694.0 62168.0 64468.0 110587.0 105600.0 91614.0 96452.0 199194.0 202138.0 8150.0 0.0 206549.0 210119.0 60677.0 57422.0 223166.0 226490.0 163591.0 168935.0 148135.0 16669.0 148135.0 148135.0 148135.0 148135.0 148135.0 148135.0 148135.0 148135.0 16669.0 16669.0 16669.0 16669.0 16669.0 16669.0 16669.0 16669.0
241850.0 249890.0 275041.0 273558.0 162524.0 165527.0 244705.0 241595.0 133436.0 140521.0 241989.0 244918.0 243374.0 236689.0 174405.0 174023.0 194468.0 190567.0 264790.0 265678.0 96924.0 102607.0 302363.0 294295.0 180850.0 183676.0 114036.0 114500.0 197100.0 189233.0 187316.0 182637.0 225596.0 224349.0 34883.0 30104.0 214723.0 206871.0 177789.0 185604.0 172426.0 173565.0 324789.0 329386.0 48697.0 55110.0 305284.0 297994.0 225570.0 229582.0 255783.0 249227.0 137575.0 135301.0 252875.0 252893.0 268280.0 274414.0 315202.0 307483.0 262741.0 270654.0 152154.0 146171.0 247138.0 239151.0 125923.0 126943.0 250212.0 246009.0 207083.0 206549.0 0.0 8242.0 173097.0 168234.0 120518.0 128678.0 251309.0 249445.0 262112.0 222342.0 262112.0 262112.0 262112.0 262112.0 262112.0 262112.0 262112.0 262112.0 222342.0 222342.0 222342.0 222342.0 222342.0 222342.0 222342.0 222342.0
248500.0 256548.0 271602.0 270352.0 158238.0 160912.0 241347.0 238471.0 128083.0 134995.0 240039.0 242729.0 240620.0 234094.0 172953.0 172946.0 189927.0 185773.0 261344.0 262466.0 91613.0 97658.0 308365.0 300263.0 182069.0 185186.0 110436.0 111422.0 203205.0 195299.0 190480.0 185762.0 222547.0 221580.0 27010.0 23025.0 212178.0 204427.0 175739.0 183459.0 170647.0 172164.0 330990.0 335693.0 40690.0 47339.0 312277.0 304932.0 223348.0 227614.0 253047.0 246356.0 140201.0 137489.0 257797.0 258021.0 264529.0 270528.0 322198.0 314449.0 268605.0 276493.0 156957.0 150713.0 253594.0 245590.0 127493.0 127966.0 246714.0 242310.0 210360.0 210119.0 8242.0 0.0 174613.0 170065.0 113709.0 121866.0 249196.0 247084.0 261115.0 226086.0 261115.0 261115.0 261115.0 261115.0 261115.0 261115.0 261115.0 261115.0 226086.0 226086.0 226086.0 226086.0 226086.0 226086.0 226086.0 226086.0
167864.0 173926.0 165290.0 159100.0 120256.0 128404.0 140595.0 133184.0 137008.0 142035.0 109185.0 116077.0 126494.0 118384.0 62567.0 54647.0 138241.0 142525.0 157417.0 153045.0 135497.0 129353.0 194940.0 186773.0 10000.0 10579.0 107021.0 99350.0 121869.0 116838.0 40683.0 37864.0 120765.0 113792.0 173068.0 166663.0 103033.0 96381.0 75931.0 80314.0 69069.0 61353.0 220057.0 226910.0 177137.0 173522.0 230097.0 221923.0 102976.0 100504.0 135400.0 133264.0 41135.0 39623.0 125169.0 130264.0 166945.0 174815.0 238514.0 230875.0 157846.0 163354.0 73643.0 68513.0 164814.0 158597.0 47175.0 47286.0 147681.0 149257.0 55045.0 60677.0 173097.0 174613.0 0.0 8186.0 166051.0 168616.0 119497.0 122922.0 110802.0 75595.0 110802.0 110802.0 110802.0 110802.0 110802.0 110802.0 110802.0 110802.0 75595.0 75595.0 75595.0 75595.0 75595.0 75595.0 75595.0 75595.0
161482.0 167707.0 173059.0 166956.0 124165.0 132332.0 148026.0 140693.0 138909.0 144273.0 117222.0 124061.0 134220.0 126086.0 68438.0 60653.0 143519.0 147488.0 165078.0 160825.0 135227.0 129412.0 190517.0 182350.0 18084.0 16824.0 107673.0 99897.0 114808.0 109567.0 36197.0 32729.0 127999.0 121162.0 169643.0 163031.0 110289.0 103453.0 81777.0 86607.0 74634.0 67174.0 215634.0 222487.0 174288.0 170998.0 224380.0 216183.0 110671.0 108389.0 143283.0 141013.0 33952.0 33458.0 121612.0 126335.0 174489.0 182357.0 232929.0 225230.0 153007.0 158755.0 65567.0 60343.0 158777.0 152390.0 42722.0 44201.0 155121.0 156512.0 52642.0 57422.0 168234.0 170065.0 8186.0 0.0 166826.0 169763.0 127559.0 130887.0 118974.0 73098.0 118974.0 118974.0 118974.0 118974.0 118974.0 118974.0 118974.0 118974.0 73098.0 73098.0 73098.0 73098.0 73098.0 73098.0 73098.0 73098.0
304948.0 312612.0 183241.0 184793.0 72234.0 69452.0 155967.0 156254.0 35462.0 36484.0 172827.0 172087.0 162887.0 159051.0 124073.0 129324.0 94859.0 88005.0 173508.0 177318.0 36526.0 39237.0 349823.0 341599.0 167773.0 174177.0 59153.0 66945.0 254417.0 246750.0 201014.0 196629.0 142862.0 145677.0 88027.0 90684.0 140450.0 135231.0 117715.0 122312.0 117772.0 124210.0 374779.0 381173.0 76898.0 68870.0 371732.0 363630.0 154465.0 161604.0 174433.0 166617.0 155548.0 148208.0 285277.0 288688.0 172984.0 177161.0 381299.0 373283.0 310231.0 317154.0 196092.0 187703.0 306275.0 298565.0 134240.0 127772.0 159232.0 152738.0 219247.0 223166.0 120518.0 113709.0 166051.0 166826.0 0.0 8160.0 178907.0 173787.0 205338.0 239442.0 205338.0 205338.0 205338.0 205338.0 205338.0 205338.0 205338.0 205338.0 239442.0 239442.0 239442.0 239442.0 239442.0 239442.0 239442.0 239442.0
310381.0 317995.0 178191.0 180044.0 69428.0 65831.0 151473.0 152123.0 34362.0 33588.0 170135.0 169050.0 159189.0 155692.0 124112.0 129740.0 89906.0 82753.0 168584.0 172668.0 42823.0 44441.0 354211.0 346009.0 169878.0 176425.0 62411.0 70254.0 259796.0 252187.0 204407.0 200097.0 139182.0 142394.0 96140.0 98842.0 137715.0 132868.0 116974.0 121112.0 117577.0 124338.0 379233.0 385713.0 84889.0 76884.0 377131.0 369006.0 151830.0 159174.0 170525.0 162660.0 159928.0 152445.0 289077.0 292670.0 167637.0 171577.0 386655.0 378642.0 314781.0 321616.0 201270.0 192857.0 311489.0 303827.0 138547.0 131791.0 154462.0 147778.0 222333.0 226490.0 128678.0 121866.0 168616.0 169763.0 8160.0 0.0 175835.0 170453.0 203519.0 242642.0 203519.0 203519.0 203519.0 203519.0 203519.0 203519.0 203519.0 203519.0 242642.0 242642.0 242642.0 242642.0 242642.0 242642.0 242642.0 242642.0
279326.0 284191.0 50293.0 42494.0 106673.0 110089.0 40193.0 33313.0 143987.0 142513.0 10515.0 6852.0 21669.0 20999.0 78475.0 81287.0 91554.0 99706.0 45902.0 38795.0 169868.0 161903.0 296335.0 288167.0 110330.0 115148.0 141774.0 138886.0 238027.0 234010.0 152381.0 151828.0 38585.0 33644.0 235333.0 232127.0 38925.0 45608.0 73521.0 65738.0 79203.0 79555.0 321451.0 328304.0 232236.0 225412.0 336257.0 328322.0 26005.0 22088.0 20418.0 24167.0 154631.0 149191.0 224829.0 230685.0 57273.0 64357.0 343852.0 336628.0 260858.0 265344.0 193126.0 187697.0 274116.0 269183.0 146988.0 140434.0 44634.0 51266.0 155523.0 163591.0 251309.0 249196.0 119497.0 127559.0 178907.0 175835.0 0.0 8039.0 44275.0 173963.0 44275.0 44275.0 44275.0 44275.0 44275.0 44275.0 44275.0 44275.0 173963.0 173963.0 173963.0 173963.0 173963.0 173963.0 173963.0 173963.0
284520.0 289522.0 44189.0 36896.0 101640.0 104623.0 32154.0 25339.0 139141.0 137320.0 14574.0 6940.0 13805.0 14763.0 78220.0 81770.0 84910.0 93060.0 38869.0 32259.0 166130.0 158207.0 301765.0 293598.0 114019.0 119156.0 138707.0 136217.0 242512.0 238301.0 156979.0 156222.0 31951.0 28112.0 232492.0 229527.0 35239.0 42689.0 71981.0 64010.0 78204.0 79378.0 326882.0 333735.0 228962.0 222002.0 341688.0 333753.0 24161.0 22919.0 13538.0 16208.0 156830.0 151094.0 230260.0 236116.0 50130.0 57431.0 349283.0 342059.0 266289.0 270775.0 196396.0 190723.0 279520.0 274450.0 148162.0 141312.0 36686.0 43236.0 160916.0 168935.0 249445.0 247084.0 122922.0 130887.0 173787.0 170453.0 8039.0 0.0 52073.0 179394.0 52073.0 52073.0 52073.0 52073.0 52073.0 52073.0 52073.0 52073.0 179394.0 179394.0 179394.0 179394.0 179394.0 179394.0 179394.0 179394.0
263929.0 268701.0 92852.0 84514.0 134550.0 139846.0 83749.0 76242.0 169876.0 169977.0 40422.0 47048.0 64593.0 60608.0 88814.0 88170.0 125530.0 133371.0 89757.0 82210.0 190251.0 182282.0 280842.0 272674.0 100929.0 104309.0 159981.0 155476.0 224102.0 220667.0 138719.0 138832.0 76270.0 68795.0 250648.0 246410.0 67138.0 69266.0 89706.0 83699.0 92538.0 89435.0 305958.0 312811.0 249526.0 243402.0 320764.0 312829.0 53939.0 45598.0 64505.0 68264.0 149818.0 145762.0 209336.0 215192.0 101167.0 107939.0 328359.0 321135.0 245365.0 249851.0 183483.0 179018.0 258629.0 253719.0 146755.0 141709.0 88720.0 94953.0 140034.0 148135.0 262112.0 261115.0 110802.0 118974.0 205338.0 203519.0 44275.0 52073.0 0.0 158470.0 0.0 0.0 0.0 0.0 0.0 0.0 0.0 0.0 158470.0 158470.0 158470.0 158470.0 158470.0 158470.0 158470.0 158470.0
110557.0 114448.0 223554.0 216221.0 195588.0 203707.0 203425.0 195471.0 212006.0 217317.0 164826.0 172518.0 186539.0 179059.0 135524.0 127556.0 211398.0 216364.0 217291.0 211476.0 206726.0 201399.0 124149.0 115982.0 77703.0 70508.0 180349.0 172526.0 80125.0 80081.0 38758.0 43398.0 185857.0 178033.0 231534.0 224138.0 168584.0 163413.0 148561.0 151405.0 142547.0 134468.0 149265.0 156118.0 238506.0 236487.0 164164.0 156343.0 164492.0 159580.0 192835.0 192751.0 89199.0 94711.0 50865.0 57106.0 227928.0 235656.0 171494.0 164411.0 88159.0 92214.0 75084.0 78498.0 104040.0 100037.0 108273.0 113029.0 210223.0 213414.0 20556.0 16669.0 222342.0 226086.0 75595.0 73098.0 239442.0 242642.0 173963.0 179394.0 158470.0 0.0 158470.0 158470.0 158470.0 158470.0 158470.0 158470.0 158470.0 158470.0 0.0 0.0 0.0 0.0 0.0 0.0 0.0 0.0
263929.0 268701.0 92852.0 84514.0 134550.0 139846.0 83749.0 76242.0 169876.0 169977.0 40422.0 47048.0 64593.0 60608.0 88814.0 88170.0 125530.0 133371.0 89757.0 82210.0 190251.0 182282.0 280842.0 272674.0 100929.0 104309.0 159981.0 155476.0 224102.0 220667.0 138719.0 138832.0 76270.0 68795.0 250648.0 246410.0 67138.0 69266.0 89706.0 83699.0 92538.0 89435.0 305958.0 312811.0 249526.0 243402.0 320764.0 312829.0 53939.0 45598.0 64505.0 68264.0 149818.0 145762.0 209336.0 215192.0 101167.0 107939.0 328359.0 321135.0 245365.0 249851.0 183483.0 179018.0 258629.0 253719.0 146755.0 141709.0 88720.0 94953.0 140034.0 148135.0 262112.0 261115.0 110802.0 118974.0 205338.0 203519.0 44275.0 52073.0 0.0 158470.0 0.0 0.0 0.0 0.0 0.0 0.0 0.0 0.0 158470.0 158470.0 158470.0 158470.0 158470.0 158470.0 158470.0 158470.0
263929.0 268701.0 92852.0 84514.0 134550.0 139846.0 83749.0 76242.0 169876.0 169977.0 40422.0 47048.0 64593.0 60608.0 88814.0 88170.0 125530.0 133371.0 89757.0 82210.0 190251.0 182282.0 280842.0 272674.0 100929.0 104309.0 159981.0 155476.0 224102.0 220667.0 138719.0 138832.0 76270.0 68795.0 250648.0 246410.0 67138.0 69266.0 89706.0 83699.0 92538.0 89435.0 305958.0 312811.0 249526.0 243402.0 320764.0 312829.0 53939.0 45598.0 64505.0 68264.0 149818.0 145762.0 209336.0 215192.0 101167.0 107939.0 328359.0 321135.0 245365.0 249851.0 183483.0 179018.0 258629.0 253719.0 146755.0 141709.0 88720.0 94953.0 140034.0 148135.0 262112.0 261115.0 110802.0 118974.0 205338.0 203519.0 44275.0 52073.0 0.0 158470.0 0.0 0.0 0.0 0.0 0.0 0.0 0.0 0.0 158470.0 158470.0 158470.0 158470.0 158470.0 158470.0 158470.0 158470.0
263929.0 268701.0 92852.0 84514.0 134550.0 139846.0 83749.0 76242.0 169876.0 169977.0 40422.0 47048.0 64593.0 60608.0 88814.0 88170.0 125530.0 133371.0 89757.0 82210.0 190251.0 182282.0 280842.0 272674.0 100929.0 104309.0 159981.0 155476.0 224102.0 220667.0 138719.0 138832.0 76270.0 68795.0 250648.0 246410.0 67138.0 69266.0 89706.0 83699.0 92538.0 89435.0 305958.0 312811.0 249526.0 243402.0 320764.0 312829.0 53939.0 45598.0 64505.0 68264.0 149818.0 145762.0 209336.0 215192.0 101167.0 107939.0 328359.0 321135.0 245365.0 249851.0 183483.0 179018.0 258629.0 253719.0 146755.0 141709.0 88720.0 94953.0 140034.0 148135.0 262112.0 261115.0 110802.0 118974.0 205338.0 203519.0 44275.0 52073.0 0.0 158470.0 0.0 0.0 0.0 0.0 0.0 0.0 0.0 0.0 158470.0 158470.0 158470.0 158470.0 158470.0 158470.0 158470.0 158470.0
263929.0 268701.0 92852.0 84514.0 134550.0 139846.0 83749.0 76242.0 169876.0 169977.0 40422.0 47048.0 64593.0 60608.0 88814.0 88170.0 125530.0 133371.0 89757.0 82210.0 190251.0 182282.0 280842.0 272674.0 100929.0 104309.0 159981.0 155476.0 224102.0 220667.0 138719.0 138832.0 76270.0 68795.0 250648.0 246410.0 67138.0 69266.0 89706.0 83699.0 92538.0 89435.0 305958.0 312811.0 249526.0 243402.0 320764.0 312829.0 53939.0 45598.0 64505.0 68264.0 149818.0 145762.0 209336.0 215192.0 101167.0 107939.0 328359.0 321135.0 245365.0 249851.0 183483.0 179018.0 258629.0 253719.0 146755.0 141709.0 88720.0 94953.0 140034.0 148135.0 262112.0 261115.0 110802.0 118974.0 205338.0 203519.0 44275.0 52073.0 0.0 158470.0 0.0 0.0 0.0 0.0 0.0 0.0 0.0 0.0 158470.0 158470.0 158470.0 158470.0 158470.0 158470.0 158470.0 158470.0
263929.0 268701.0 92852.0 84514.0 134550.0 139846.0 83749.0 76242.0 169876.0 169977.0 40422.0 47048.0 64593.0 60608.0 88814.0 88170.0 125530.0 133371.0 89757.0 82210.0 190251.0 182282.0 280842.0 272674.0 100929.0 104309.0 159981.0 155476.0 224102.0 220667.0 138719.0 138832.0 76270.0 68795.0 250648.0 246410.0 67138.0 69266.0 89706.0 83699.0 92538.0 89435.0 305958.0 312811.0 249526.0 243402.0 320764.0 312829.0 53939.0 45598.0 64505.0 68264.0 149818.0 145762.0 209336.0 215192.0 101167.0 107939.0 328359.0 321135.0 245365.0 249851.0 183483.0 179018.0 258629.0 253719.0 146755.0 141709.0 88720.0 94953.0 140034.0 148135.0 262112.0 261115.0 110802.0 118974.0 205338.0 203519.0 44275.0 52073.0 0.0 158470.0 0.0 0.0 0.0 0.0 0.0 0.0 0.0 0.0 158470.0 158470.0 158470.0 158470.0 158470.0 158470.0 158470.0 158470.0
263929.0 268701.0 92852.0 84514.0 134550.0 139846.0 83749.0 76242.0 169876.0 169977.0 40422.0 47048.0 64593.0 60608.0 88814.0 88170.0 125530.0 133371.0 89757.0 82210.0 190251.0 182282.0 280842.0 272674.0 100929.0 104309.0 159981.0 155476.0 224102.0 220667.0 138719.0 138832.0 76270.0 68795.0 250648.0 246410.0 67138.0 69266.0 89706.0 83699.0 92538.0 89435.0 305958.0 312811.0 249526.0 243402.0 320764.0 312829.0 53939.0 45598.0 64505.0 68264.0 149818.0 145762.0 209336.0 215192.0 101167.0 107939.0 328359.0 321135.0 245365.0 249851.0 183483.0 179018.0 258629.0 253719.0 146755.0 141709.0 88720.0 94953.0 140034.0 148135.0 262112.0 261115.0 110802.0 118974.0 205338.0 203519.0 44275.0 52073.0 0.0 158470.0 0.0 0.0 0.0 0.0 0.0 0.0 0.0 0.0 158470.0 158470.0 158470.0 158470.0 158470.0 158470.0 158470.0 158470.0
263929.0 268701.0 92852.0 84514.0 134550.0 139846.0 83749.0 76242.0 169876.0 169977.0 40422.0 47048.0 64593.0 60608.0 88814.0 88170.0 125530.0 133371.0 89757.0 82210.0 190251.0 182282.0 280842.0 272674.0 100929.0 104309.0 159981.0 155476.0 224102.0 220667.0 138719.0 138832.0 76270.0 68795.0 250648.0 246410.0 67138.0 69266.0 89706.0 83699.0 92538.0 89435.0 305958.0 312811.0 249526.0 243402.0 320764.0 312829.0 53939.0 45598.0 64505.0 68264.0 149818.0 145762.0 209336.0 215192.0 101167.0 107939.0 328359.0 321135.0 245365.0 249851.0 183483.0 179018.0 258629.0 253719.0 146755.0 141709.0 88720.0 94953.0 140034.0 148135.0 262112.0 261115.0 110802.0 118974.0 205338.0 203519.0 44275.0 52073.0 0.0 158470.0 0.0 0.0 0.0 0.0 0.0 0.0 0.0 0.0 158470.0 158470.0 158470.0 158470.0 158470.0 158470.0 158470.0 158470.0
263929.0 268701.0 92852.0 84514.0 134550.0 139846.0 83749.0 76242.0 169876.0 169977.0 40422.0 47048.0 64593.0 60608.0 88814.0 88170.0 125530.0 133371.0 89757.0 82210.0 190251.0 182282.0 280842.0 272674.0 100929.0 104309.0 159981.0 155476.0 224102.0 220667.0 138719.0 138832.0 76270.0 68795.0 250648.0 246410.0 67138.0 69266.0 89706.0 83699.0 92538.0 89435.0 305958.0 312811.0 249526.0 243402.0 320764.0 312829.0 53939.0 45598.0 64505.0 68264.0 149818.0 145762.0 209336.0 215192.0 101167.0 107939.0 328359.0 321135.0 245365.0 249851.0 183483.0 179018.0 258629.0 253719.0 146755.0 141709.0 88720.0 94953.0 140034.0 148135.0 262112.0 261115.0 110802.0 118974.0 205338.0 203519.0 44275.0 52073.0 0.0 158470.0 0.0 0.0 0.0 0.0 0.0 0.0 0.0 0.0 158470.0 158470.0 158470.0 158470.0 158470.0 158470.0 158470.0 158470.0
110557.0 114448.0 223554.0 216221.0 195588.0 203707.0 203425.0 195471.0 212006.0 217317.0 164826.0 172518.0 186539.0 179059.0 135524.0 127556.0 211398.0 216364.0 217291.0 211476.0 206726.0 201399.0 124149.0 115982.0 77703.0 70508.0 180349.0 172526.0 80125.0 80081.0 38758.0 43398.0 185857.0 178033.0 231534.0 224138.0 168584.0 163413.0 148561.0 151405.0 142547.0 134468.0 149265.0 156118.0 238506.0 236487.0 164164.0 156343.0 164492.0 159580.0 192835.0 192751.0 89199.0 94711.0 50865.0 57106.0 227928.0 235656.0 171494.0 164411.0 88159.0 92214.0 75084.0 78498.0 104040.0 100037.0 108273.0 113029.0 210223.0 213414.0 20556.0 16669.0 222342.0 226086.0 75595.0 73098.0 239442.0 242642.0 173963.0 179394.0 158470.0 0.0 158470.0 158470.0 158470.0 158470.0 158470.0 158470.0 158470.0 158470.0 0.0 0.0 0.0 0.0 0.0 0.0 0.0 0.0
110557.0 114448.0 223554.0 216221.0 195588.0 203707.0 203425.0 195471.0 212006.0 217317.0 164826.0 172518.0 186539.0 179059.0 135524.0 127556.0 211398.0 216364.0 217291.0 211476.0 206726.0 201399.0 124149.0 115982.0 77703.0 70508.0 180349.0 172526.0 80125.0 80081.0 38758.0 43398.0 185857.0 178033.0 231534.0 224138.0 168584.0 163413.0 148561.0 151405.0 142547.0 134468.0 149265.0 156118.0 238506.0 236487.0 164164.0 156343.0 164492.0 159580.0 192835.0 192751.0 89199.0 94711.0 50865.0 57106.0 227928.0 235656.0 171494.0 164411.0 88159.0 92214.0 75084.0 78498.0 104040.0 100037.0 108273.0 113029.0 210223.0 213414.0 20556.0 16669.0 222342.0 226086.0 75595.0 73098.0 239442.0 242642.0 173963.0 179394.0 158470.0 0.0 158470.0 158470.0 158470.0 158470.0 158470.0 158470.0 158470.0 158470.0 0.0 0.0 0.0 0.0 0.0 0.0 0.0 0.0
110557.0 114448.0 223554.0 216221.0 195588.0 203707.0 203425.0 195471.0 212006.0 217317.0 164826.0 172518.0 186539.0 179059.0 135524.0 127556.0 211398.0 216364.0 217291.0 211476.0 206726.0 201399.0 124149.0 115982.0 77703.0 70508.0 180349.0 172526.0 80125.0 80081.0 38758.0 43398.0 185857.0 178033.0 231534.0 224138.0 168584.0 163413.0 148561.0 151405.0 142547.0 134468.0 149265.0 156118.0 238506.0 236487.0 164164.0 156343.0 164492.0 159580.0 192835.0 192751.0 89199.0 94711.0 50865.0 57106.0 227928.0 235656.0 171494.0 164411.0 88159.0 92214.0 75084.0 78498.0 104040.0 100037.0 108273.0 113029.0 210223.0 213414.0 20556.0 16669.0 222342.0 226086.0 75595.0 73098.0 239442.0 242642.0 173963.0 179394.0 158470.0 0.0 158470.0 158470.0 158470.0 158470.0 158470.0 158470.0 158470.0 158470.0 0.0 0.0 0.0 0.0 0.0 0.0 0.0 0.0
110557.0 114448.0 223554.0 216221.0 195588.0 203707.0 203425.0 195471.0 212006.0 217317.0 164826.0 172518.0 186539.0 179059.0 135524.0 127556.0 211398.0 216364.0 217291.0 211476.0 206726.0 201399.0 124149.0 115982.0 77703.0 70508.0 180349.0 172526.0 80125.0 80081.0 38758.0 43398.0 185857.0 178033.0 231534.0 224138.0 168584.0 163413.0 148561.0 151405.0 142547.0 134468.0 149265.0 156118.0 238506.0 236487.0 164164.0 156343.0 164492.0 159580.0 192835.0 192751.0 89199.0 94711.0 50865.0 57106.0 227928.0 235656.0 171494.0 164411.0 88159.0 92214.0 75084.0 78498.0 104040.0 100037.0 108273.0 113029.0 210223.0 213414.0 20556.0 16669.0 222342.0 226086.0 75595.0 73098.0 239442.0 242642.0 173963.0 179394.0 158470.0 0.0 158470.0 158470.0 158470.0 158470.0 158470.0 158470.0 158470.0 158470.0 0.0 0.0 0.0 0.0 0.0 0.0 0.0 0.0
110557.0 114448.0 223554.0 216221.0 195588.0 203707.0 203425.0 195471.0 212006.0 217317.0 164826.0 172518.0 186539.0 179059.0 135524.0 127556.0 211398.0 216364.0 217291.0 211476.0 206726.0 201399.0 124149.0 115982.0 77703.0 70508.0 180349.0 172526.0 80125.0 80081.0 38758.0 43398.0 185857.0 178033.0 231534.0 224138.0 168584.0 163413.0 148561.0 151405.0 142547.0 134468.0 149265.0 156118.0 238506.0 236487.0 164164.0 156343.0 164492.0 159580.0 192835.0 192751.0 89199.0 94711.0 50865.0 57106.0 227928.0 235656.0 171494.0 164411.0 88159.0 92214.0 75084.0 78498.0 104040.0 100037.0 108273.0 113029.0 210223.0 213414.0 20556.0 16669.0 222342.0 226086.0 75595.0 73098.0 239442.0 242642.0 173963.0 179394.0 158470.0 0.0 158470.0 158470.0 158470.0 158470.0 158470.0 158470.0 158470.0 158470.0 0.0 0.0 0.0 0.0 0.0 0.0 0.0 0.0
110557.0 114448.0 223554.0 216221.0 195588.0 203707.0 203425.0 195471.0 212006.0 217317.0 164826.0 172518.0 186539.0 179059.0 135524.0 127556.0 211398.0 216364.0 217291.0 211476.0 206726.0 201399.0 124149.0 115982.0 77703.0 70508.0 180349.0 172526.0 80125.0 80081.0 38758.0 43398.0 185857.0 178033.0 231534.0 224138.0 168584.0 163413.0 148561.0 151405.0 142547.0 134468.0 149265.0 156118.0 238506.0 236487.0 164164.0 156343.0 164492.0 159580.0 192835.0 192751.0 89199.0 94711.0 50865.0 57106.0 227928.0 235656.0 171494.0 164411.0 88159.0 92214.0 75084.0 78498.0 104040.0 100037.0 108273.0 113029.0 210223.0 213414.0 20556.0 16669.0 222342.0 226086.0 75595.0 73098.0 239442.0 242642.0 173963.0 179394.0 158470.0 0.0 158470.0 158470.0 158470.0 158470.0 158470.0 158470.0 158470.0 158470.0 0.0 0.0 0.0 0.0 0.0 0.0 0.0 0.0
110557.0 114448.0 223554.0 216221.0 195588.0 203707.0 203425.0 195471.0 212006.0 217317.0 164826.0 172518.0 186539.0 179059.0 135524.0 127556.0 211398.0 216364.0 217291.0 211476.0 206726.0 201399.0 124149.0 115982.0 77703.0 70508.0 180349.0 172526.0 80125.0 80081.0 38758.0 43398.0 185857.0 178033.0 231534.0 224138.0 168584.0 163413.0 148561.0 151405.0 142547.0 134468.0 149265.0 156118.0 238506.0 236487.0 164164.0 156343.0 164492.0 159580.0 192835.0 192751.0 89199.0 94711.0 50865.0 57106.0 227928.0 235656.0 171494.0 164411.0 88159.0 92214.0 75084.0 78498.0 104040.0 100037.0 108273.0 113029.0 210223.0 213414.0 20556.0 16669.0 222342.0 226086.0 75595.0 73098.0 239442.0 242642.0 173963.0 179394.0 158470.0 0.0 158470.0 158470.0 158470.0 158470.0 158470.0 158470.0 158470.0 158470.0 0.0 0.0 0.0 0.0 0.0 0.0 0.0 0.0
110557.0 114448.0 223554.0 216221.0 195588.0 203707.0 203425.0 195471.0 212006.0 217317.0 164826.0 172518.0 186539.0 179059.0 135524.0 127556.0 211398.0 216364.0 217291.0 211476.0 206726.0 201399.0 124149.0 115982.0 77703.0 70508.0 180349.0 172526.0 80125.0 80081.0 38758.0 43398.0 185857.0 178033.0 231534.0 224138.0 168584.0 163413.0 148561.0 151405.0 142547.0 134468.0 149265.0 156118.0 238506.0 236487.0 164164.0 156343.0 164492.0 159580.0 192835.0 192751.0 89199.0 94711.0 50865.0 57106.0 227928.0 235656.0 171494.0 164411.0 88159.0 92214.0 75084.0 78498.0 104040.0 100037.0 108273.0 113029.0 210223.0 213414.0 20556.0 16669.0 222342.0 226086.0 75595.0 73098.0 239442.0 242642.0 173963.0 179394.0 158470.0 0.0 158470.0 158470.0 158470.0 158470.0 158470.0 158470.0 158470.0 158470.0 0.0 0.0 0.0 0.0 0.0 0.0 0.0 0.0
FIXED_EDGES_SECTION
1 2
3 4
5 6
7 8
9 10
11 12
13 14
15 16
17 18
19 20
21 22
23 24
25 26
27 28
29 30
31 32
33 34
35 36
37 38
39 40
41 42
43 44
45 46
47 48
49 50
51 52
53 54
55 56
57 58
59 60
61 62
63 64
65 66
67 68
69 70
71 72
73 74
75 76
77 78
79 80
-1 
DEMAND_SECTION
1 350
2 350
3 251
4 251
5 247
6 247
7 379
8 379
9 224
10 224
11 618
12 618
13 396
14 396
15 277
16 277
17 55
18 55
19 216
20 216
21 186
22 186
23 224
24 224
25 75
26 75
27 82
28 82
29 336
30 336
31 399
32 399
33 493
34 493
35 258
36 258
37 155
38 155
39 207
40 207
41 171
42 171
43 280
44 280
45 380
46 380
47 421
48 421
49 100
50 100
51 247
52 247
53 158
54 158
55 114
56 114
57 316
58 316
59 229
60 229
61 184
62 184
63 68
64 68
65 341
66 341
67 271
68 271
69 274
70 274
71 235
72 235
73 234
74 234
75 324
76 324
77 68
78 68
79 104
80 104
81 0
82 0
83 0
84 0
85 0
86 0
87 0
88 0
89 0
90 0
91 0
92 0
93 0
94 0
95 0
96 0
97 0
98 0
DEPOT_SECTION
81 
-1 
CAPACITIES_SECTION
2500 
2750 
-1 
EOF