NAME: GFS_20_1
TYPE: GFSP
DIMENSION: 100
VEHICLES: 2
CAPACITY: 2500.0
TRIP_DIST_LIMIT: 750000.0
TOTAL_DIST_LIMIT: 2100000.0
EDGE_WEIGHT_TYPE: EXPLICIT
EDGE_WEIGHT_FORMAT: FULL_MATRIX
EDGE_WEIGHT_SECTION
0.0 7469.0 239920.0 240453.0 100071.0 107872.0 268373.0 264880.0 249639.0 241756.0 198634.0 206120.0 260650.0 255413.0 244178.0 250983.0 193065.0 185836.0 257176.0 256185.0 139277.0 131442.0 108600.0 100391.0 227214.0 219125.0 214272.0 220045.0 128969.0 120502.0 87382.0 91543.0 252930.0 245799.0 249695.0 254203.0 256564.0 260661.0 181263.0 175665.0 211156.0 203380.0 79539.0 72372.0 290809.0 298656.0 13010.0 20324.0 247436.0 243351.0 132428.0 140342.0 111451.0 119478.0 151355.0 143531.0 69817.0 62710.0 166435.0 174155.0 241499.0 237428.0 148907.0 144453.0 128690.0 124520.0 172762.0 180758.0 135825.0 140536.0 238390.0 246431.0 89340.0 95434.0 233074.0 238263.0 150555.0 157920.0 280710.0 275541.0 224357.0 75676.0 224357.0 224357.0 224357.0 224357.0 224357.0 224357.0 224357.0 224357.0 224357.0 75676.0 75676.0 75676.0 75676.0 75676.0 75676.0 75676.0 75676.0 75676.0
7469.0 0.0 235356.0 236093.0 98424.0 106330.0 271326.0 267889.0 251700.0 243754.0 199627.0 207229.0 261746.0 256326.0 242350.0 249272.0 193520.0 186445.0 259511.0 258303.0 139772.0 132028.0 110584.0 102439.0 225084.0 216995.0 212574.0 218539.0 127913.0 119432.0 91704.0 96258.0 253167.0 245945.0 252702.0 257020.0 259284.0 263212.0 175634.0 169888.0 211458.0 203764.0 83679.0 76255.0 292739.0 300598.0 13949.0 19050.0 245393.0 241532.0 130903.0 138984.0 110225.0 118289.0 150185.0 142212.0 72334.0 65648.0 165540.0 173378.0 239761.0 235477.0 148353.0 143563.0 132540.0 128027.0 172017.0 180022.0 136779.0 141830.0 237701.0 245695.0 93533.0 99264.0 227343.0 232661.0 149317.0 156812.0 282776.0 277772.0 227389.0 80817.0 227389.0 227389.0 227389.0 227389.0 227389.0 227389.0 227389.0 227389.0 227389.0 80817.0 80817.0 80817.0 80817.0 80817.0 80817.0 80817.0 80817.0 80817.0
239920.0 235356.0 0.0 8092.0 153462.0 148658.0 258814.0 262724.0 220705.0 215035.0 171896.0 176609.0 196455.0 188297.0 98046.0 103867.0 157027.0 160366.0 233044.0 225801.0 161995.0 165583.0 341524.0 333880.0 85628.0 85576.0 98638.0 104407.0 140920.0 145616.0 327059.0 331452.0 166338.0 160664.0 249780.0 246381.0 244699.0 241701.0 71642.0 79453.0 155398.0 156386.0 319023.0 311521.0 239628.0 244941.0 228667.0 220673.0 91867.0 98104.0 132315.0 130117.0 149462.0 144756.0 127739.0 129024.0 208119.0 213862.0 127441.0 128018.0 100314.0 92551.0 139959.0 135767.0 367632.0 362682.0 129045.0 127709.0 170996.0 176608.0 132565.0 133554.0 328881.0 334431.0 51266.0 45137.0 126903.0 126098.0 237899.0 240099.0 249526.0 238506.0 249526.0 249526.0 249526.0 249526.0 249526.0 249526.0 249526.0 249526.0 249526.0 238506.0 238506.0 238506.0 238506.0 238506.0 238506.0 238506.0 238506.0 238506.0
240453.0 236093.0 8092.0 0.0 151948.0 146813.0 251686.0 255707.0 213549.0 207987.0 165604.0 170121.0 188882.0 180751.0 90149.0 95883.0 150864.0 154459.0 225861.0 218566.0 157951.0 161847.0 343091.0 335377.0 78165.0 78457.0 91694.0 97225.0 137938.0 143005.0 327744.0 331987.0 158673.0 153092.0 242920.0 239393.0 237646.0 234539.0 76306.0 84115.0 148650.0 149882.0 319765.0 312334.0 231952.0 237205.0 228982.0 220989.0 83885.0 90223.0 129474.0 126801.0 147302.0 142255.0 123775.0 125532.0 206425.0 212376.0 122595.0 122757.0 92482.0 84782.0 135815.0 131985.0 368548.0 363738.0 123841.0 122128.0 167001.0 172374.0 124968.0 125797.0 329614.0 335303.0 59230.0 53206.0 123018.0 121774.0 230355.0 232658.0 243402.0 236487.0 243402.0 243402.0 243402.0 243402.0 243402.0 243402.0 243402.0 243402.0 243402.0 236487.0 236487.0 236487.0 236487.0 236487.0 236487.0 236487.0 236487.0 236487.0
100071.0 98424.0 153462.0 151948.0 0.0 7999.0 198399.0 197283.0 170512.0 162322.0 111617.0 119773.0 172460.0 165933.0 144108.0 150927.0 101887.0 96176.0 180629.0 177391.0 52631.0 47244.0 208657.0 200455.0 127331.0 119254.0 114216.0 120115.0 30592.0 22435.0 185014.0 187932.0 159001.0 151430.0 181291.0 183256.0 184372.0 186354.0 114453.0 112465.0 118341.0 111342.0 177750.0 171192.0 209110.0 216888.0 87137.0 79868.0 147454.0 143281.0 32491.0 40702.0 13067.0 20788.0 52157.0 43970.0 54729.0 60432.0 68044.0 76144.0 141435.0 137393.0 52570.0 46443.0 226890.0 223443.0 74900.0 82843.0 54942.0 62728.0 140268.0 148120.0 187248.0 194026.0 162896.0 165581.0 51169.0 58864.0 200594.0 197240.0 160498.0 85675.0 160498.0 160498.0 160498.0 160498.0 160498.0 160498.0 160498.0 160498.0 160498.0 85675.0 85675.0 85675.0 85675.0 85675.0 85675.0 85675.0 85675.0 85675.0
107872.0 106330.0 148658.0 146813.0 7999.0 0.0 192525.0 191644.0 163929.0 155748.0 104570.0 112747.0 165071.0 158453.0 136345.0 143112.0 94456.0 88943.0 174238.0 170809.0 46574.0 41926.0 216470.0 208263.0 119748.0 111682.0 106403.0 112226.0 22714.0 14785.0 192459.0 195266.0 151199.0 143608.0 175654.0 177370.0 178364.0 180142.0 113073.0 111621.0 110693.0 103786.0 185258.0 178768.0 202172.0 209926.0 94914.0 87712.0 139799.0 135515.0 24578.0 32721.0 5989.0 12978.0 44158.0 35983.0 59646.0 65891.0 60060.0 68172.0 133633.0 129695.0 44831.0 38526.0 234347.0 230988.0 66938.0 74871.0 49858.0 57822.0 132272.0 140122.0 194715.0 201554.0 160366.0 162695.0 43174.0 50865.0 193813.0 190627.0 155671.0 89876.0 155671.0 155671.0 155671.0 155671.0 155671.0 155671.0 155671.0 155671.0 155671.0 89876.0 89876.0 89876.0 89876.0 89876.0 89876.0 89876.0 89876.0 89876.0
268373.0 271326.0 258814.0 251686.0 198399.0 192525.0 0.0 8285.0 38165.0 43996.0 94774.0 87544.0 69149.0 75643.0 166606.0 163979.0 109645.0 110726.0 26044.0 33769.0 145953.0 151220.0 364784.0 356850.0 173926.0 173249.0 160259.0 154462.0 173668.0 178959.0 331206.0 331415.0 98742.0 101889.0 18763.0 15156.0 14862.0 17281.0 274225.0 277267.0 104796.0 106012.0 326064.0 321901.0 46195.0 50440.0 257380.0 253883.0 174373.0 166194.0 178879.0 172236.0 186538.0 181142.0 163620.0 170008.0 199027.0 205741.0 151401.0 145585.0 163205.0 169549.0 154237.0 162285.0 371118.0 369989.0 145513.0 141968.0 143778.0 136403.0 129057.0 130943.0 333828.0 341713.0 300489.0 297866.0 165227.0 159424.0 36719.0 28955.0 65346.0 202490.0 65346.0 65346.0 65346.0 65346.0 65346.0 65346.0 65346.0 65346.0 65346.0 202490.0 202490.0 202490.0 202490.0 202490.0 202490.0 202490.0 202490.0 202490.0
264880.0 267889.0 262724.0 255707.0 197283.0 191644.0 8285.0 0.0 42937.0 47742.0 96343.0 89479.0 75633.0 81739.0 171670.0 169332.0 111468.0 111953.0 31558.0 39479.0 145112.0 150039.0 361288.0 353353.0 178260.0 177255.0 164087.0 158560.0 173378.0 178353.0 327709.0 327918.0 104629.0 107353.0 15993.0 16421.0 18187.0 23060.0 276102.0 278932.0 107931.0 108563.0 322567.0 318405.0 54476.0 58687.0 253956.0 250677.0 179494.0 171228.0 178924.0 172543.0 185668.0 180547.0 164328.0 170436.0 195702.0 202285.0 152689.0 147200.0 168188.0 174322.0 154521.0 162555.0 367621.0 366492.0 147042.0 143905.0 142438.0 134887.0 134079.0 136349.0 330331.0 338216.0 303585.0 301157.0 165928.0 160405.0 44884.0 37008.0 60282.0 198994.0 60282.0 60282.0 60282.0 60282.0 60282.0 60282.0 60282.0 60282.0 60282.0 198994.0 198994.0 198994.0 198994.0 198994.0 198994.0 198994.0 198994.0 198994.0
249639.0 251700.0 220705.0 213549.0 170512.0 163929.0 38165.0 42937.0 0.0 8193.0 60989.0 53057.0 35402.0 40038.0 128743.0 126416.0 74800.0 77362.0 12431.0 6880.0 118068.0 124412.0 348813.0 340894.0 135761.0 135131.0 122216.0 116325.0 143437.0 149652.0 315255.0 315464.0 62245.0 64522.0 33792.0 27564.0 24808.0 20997.0 238212.0 241617.0 67548.0 69696.0 310112.0 305950.0 41398.0 49167.0 237834.0 233417.0 136561.0 128306.0 147582.0 140272.0 157985.0 151765.0 130678.0 137740.0 179862.0 187231.0 117164.0 110670.0 125277.0 131493.0 122594.0 130557.0 355166.0 354038.0 110790.0 106418.0 117756.0 111281.0 91154.0 93460.0 317877.0 325762.0 262862.0 260080.0 132283.0 125837.0 31077.0 26741.0 64593.0 186539.0 64593.0 64593.0 64593.0 64593.0 64593.0 64593.0 64593.0 64593.0 64593.0 186539.0 186539.0 186539.0 186539.0 186539.0 186539.0 186539.0 186539.0 186539.0
241756.0 243754.0 215035.0 207987.0 162322.0 155748.0 43996.0 47742.0 8193.0 0.0 53062.0 45223.0 36164.0 39195.0 124472.0 122579.0 67123.0 69421.0 19535.0 15070.0 109874.0 116227.0 341353.0 333412.0 130534.0 129530.0 116414.0 110820.0 135304.0 141485.0 307774.0 307983.0 59989.0 61320.0 36358.0 31558.0 29663.0 27424.0 231010.0 234302.0 60847.0 62476.0 302632.0 298440.0 49089.0 56916.0 229901.0 225430.0 132355.0 123994.0 139517.0 132257.0 149802.0 143602.0 122762.0 129753.0 172008.0 179419.0 109436.0 103077.0 120900.0 126818.0 114537.0 122514.0 347686.0 346557.0 103154.0 98989.0 109592.0 103155.0 86939.0 89862.0 310397.0 318281.0 256500.0 253872.0 124369.0 118007.0 39070.0 34934.0 60608.0 179059.0 60608.0 60608.0 60608.0 60608.0 60608.0 60608.0 60608.0 60608.0 60608.0 179059.0 179059.0 179059.0 179059.0 179059.0 179059.0 179059.0 179059.0 179059.0
198634.0 199627.0 171896.0 165604.0 111617.0 104570.0 94774.0 96343.0 60989.0 53062.0 0.0 8189.0 62156.0 56800.0 94227.0 95608.0 15349.0 16374.0 72475.0 67755.0 60659.0 67994.0 302930.0 294791.0 92990.0 89415.0 75722.0 72812.0 83211.0 89963.0 271476.0 272075.0 58543.0 53101.0 81424.0 80232.0 79916.0 79698.0 179767.0 182608.0 22633.0 17065.0 265843.0 261011.0 97645.0 105375.0 186136.0 180761.0 101896.0 93502.0 86820.0 79349.0 98744.0 91999.0 69702.0 76773.0 130524.0 138425.0 56672.0 50868.0 90229.0 93482.0 61835.0 69726.0 311889.0 310503.0 50752.0 47701.0 62851.0 58364.0 62600.0 69503.0 274057.0 281817.0 209095.0 207299.0 71308.0 65002.0 89639.0 87171.0 78028.0 143376.0 78028.0 78028.0 78028.0 78028.0 78028.0 78028.0 78028.0 78028.0 78028.0 143376.0 143376.0 143376.0 143376.0 143376.0 143376.0 143376.0 143376.0 143376.0
206120.0 207229.0 176609.0 170121.0 119773.0 112747.0 87544.0 89479.0 53057.0 45223.0 8189.0 0.0 54532.0 49580.0 95548.0 96258.0 22107.0 24429.0 64713.0 59779.0 68619.0 75854.0 309944.0 301823.0 95958.0 92981.0 79283.0 75628.0 91398.0 98148.0 278116.0 278582.0 53567.0 48876.0 74901.0 73226.0 72686.0 72127.0 186718.0 189724.0 23178.0 20240.0 272590.0 267867.0 89457.0 97190.0 193683.0 188406.0 103361.0 94867.0 94954.0 87428.0 106914.0 100185.0 77641.0 84816.0 137687.0 145543.0 64242.0 58093.0 91586.0 95475.0 69979.0 77848.0 318339.0 317078.0 58085.0 54460.0 70478.0 65647.0 61940.0 68249.0 280708.0 288503.0 214935.0 212921.0 79244.0 72791.0 81473.0 79097.0 74759.0 149722.0 74759.0 74759.0 74759.0 74759.0 74759.0 74759.0 74759.0 74759.0 74759.0 149722.0 149722.0 149722.0 149722.0 149722.0 149722.0 149722.0 149722.0 149722.0
260650.0 261746.0 196455.0 188882.0 172460.0 165071.0 69149.0 75633.0 35402.0 36164.0 62156.0 54532.0 0.0 8322.0 100378.0 96724.0 70622.0 76449.0 44359.0 36518.0 122672.0 130113.0 364054.0 355962.0 110873.0 111953.0 100463.0 93329.0 142879.0 150296.0 331585.0 331771.0 30752.0 35792.0 68903.0 61955.0 58504.0 52582.0 223060.0 227406.0 55853.0 61711.0 326272.0 321747.0 43887.0 50258.0 248213.0 242902.0 107819.0 100089.0 144989.0 136801.0 159428.0 152206.0 125784.0 133815.0 192057.0 199867.0 110218.0 102472.0 97359.0 104496.0 120721.0 128044.0 371356.0 370377.0 103083.0 96768.0 124973.0 120149.0 63920.0 64001.0 334199.0 342055.0 241768.0 238151.0 127297.0 119843.0 41511.0 44676.0 96105.0 202888.0 96105.0 96105.0 96105.0 96105.0 96105.0 96105.0 96105.0 96105.0 96105.0 202888.0 202888.0 202888.0 202888.0 202888.0 202888.0 202888.0 202888.0 202888.0
255413.0 256326.0 188297.0 180751.0 165933.0 158453.0 75643.0 81739.0 40038.0 39195.0 56800.0 49580.0 8322.0 0.0 92556.0 89138.0 64061.0 70307.0 50205.0 42278.0 116850.0 124421.0 359523.0 351403.0 102689.0 103679.0 92146.0 85032.0 136113.0 143668.0 327534.0 327887.0 23237.0 27689.0 73830.0 67344.0 64153.0 58717.0 214805.0 219185.0 48486.0 54754.0 322081.0 317411.0 52209.0 58542.0 242883.0 237417.0 100077.0 92243.0 137937.0 129673.0 152877.0 145539.0 118530.0 126642.0 187240.0 195111.0 102805.0 94963.0 89463.0 96495.0 113897.0 121087.0 367573.0 366435.0 95627.0 89136.0 119596.0 115128.0 55827.0 56248.0 330135.0 337953.0 233477.0 229886.0 120025.0 112487.0 49604.0 52346.0 97414.0 198964.0 97414.0 97414.0 97414.0 97414.0 97414.0 97414.0 97414.0 97414.0 97414.0 198964.0 198964.0 198964.0 198964.0 198964.0 198964.0 198964.0 198964.0 198964.0
244178.0 242350.0 98046.0 90149.0 144108.0 136345.0 166606.0 171670.0 128743.0 124472.0 94227.0 95548.0 100378.0 92556.0 0.0 7940.0 83235.0 90081.0 140571.0 132867.0 118638.0 125759.0 352752.0 344555.0 19735.0 26995.0 30121.0 26053.0 116348.0 124584.0 328265.0 330684.0 69676.0 65070.0 160709.0 155888.0 153502.0 149332.0 140271.0 146462.0 72395.0 77206.0 321256.0 314931.0 142516.0 147448.0 231242.0 223953.0 7946.0 867.0 111870.0 104297.0 133145.0 125293.0 94098.0 101248.0 188501.0 196190.0 81391.0 75459.0 4004.0 7946.0 100183.0 102114.0 370136.0 367044.0 77020.0 70153.0 126726.0 128188.0 37591.0 36393.0 330586.0 337589.0 146606.0 141868.0 94609.0 88037.0 141802.0 144903.0 169876.0 212006.0 169876.0 169876.0 169876.0 169876.0 169876.0 169876.0 169876.0 169876.0 169876.0 212006.0 212006.0 212006.0 212006.0 212006.0 212006.0 212006.0 212006.0 212006.0
250983.0 249272.0 103867.0 95883.0 150927.0 143112.0 163979.0 169332.0 126416.0 122579.0 95608.0 96258.0 96724.0 89138.0 7940.0 0.0 85580.0 92780.0 138008.0 130212.0 123695.0 130981.0 359579.0 351373.0 27671.0 34826.0 36711.0 31527.0 122757.0 131064.0 334697.0 337016.0 65984.0 62096.0 158924.0 153780.0 151223.0 146748.0 147925.0 154180.0 73310.0 78769.0 327752.0 321495.0 138079.0 142727.0 238025.0 230795.0 12001.0 8532.0 118576.0 110851.0 139756.0 131846.0 100401.0 107752.0 194405.0 202154.0 87130.0 80812.0 9542.0 15885.0 105907.0 108232.0 376546.0 373547.0 82368.0 75198.0 131566.0 132633.0 35906.0 33041.0 337036.0 344092.0 153058.0 148110.0 100986.0 94196.0 137915.0 141388.0 169977.0 217317.0 169977.0 169977.0 169977.0 169977.0 169977.0 169977.0 169977.0 169977.0 169977.0 217317.0 217317.0 217317.0 217317.0 217317.0 217317.0 217317.0 217317.0 217317.0
193065.0 193520.0 157027.0 150864.0 101887.0 94456.0 109645.0 111468.0 74800.0 67123.0 15349.0 22107.0 70622.0 64061.0 83235.0 85580.0 0.0 8151.0 86653.0 81414.0 53789.0 61638.0 298991.0 290800.0 79887.0 75685.0 62114.0 60115.0 72288.0 79678.0 268858.0 269873.0 60113.0 53360.0 96681.0 95269.0 94786.0 94188.0 164656.0 167623.0 18495.0 10452.0 262887.0 257701.0 109345.0 116901.0 180330.0 174509.0 90617.0 82458.0 74821.0 66896.0 88839.0 81584.0 56498.0 64086.0 126654.0 134663.0 42375.0 36002.0 79240.0 81578.0 50209.0 57733.0 309793.0 308020.0 36035.0 32445.0 58035.0 55370.0 55523.0 63216.0 271395.0 279029.0 193769.0 192019.0 58081.0 51250.0 102144.0 100377.0 92538.0 142547.0 92538.0 92538.0 92538.0 92538.0 92538.0 92538.0 92538.0 92538.0 92538.0 142547.0 142547.0 142547.0 142547.0 142547.0 142547.0 142547.0 142547.0 142547.0
185836.0 186445.0 160366.0 154459.0 96176.0 88943.0 110726.0 111953.0 77362.0 69421.0 16374.0 24429.0 76449.0 70307.0 90081.0 92780.0 8151.0 0.0 88803.0 84128.0 46694.0 54423.0 291409.0 283227.0 85549.0 80836.0 67486.0 66212.0 67227.0 74235.0 261033.0 261987.0 67785.0 61200.0 96734.0 96016.0 95891.0 95921.0 164464.0 167073.0 26468.0 18392.0 255115.0 249988.0 113624.0 121299.0 173160.0 167466.0 97305.0 89286.0 70548.0 63001.0 83200.0 76223.0 53345.0 60404.0 118980.0 126976.0 40737.0 35592.0 86106.0 87998.0 45596.0 53431.0 301899.0 300181.0 35272.0 33472.0 50398.0 47405.0 63496.0 71253.0 263577.0 271232.0 195498.0 194072.0 54952.0 48763.0 105855.0 103518.0 89435.0 134468.0 89435.0 89435.0 89435.0 89435.0 89435.0 89435.0 89435.0 89435.0 89435.0 134468.0 134468.0 134468.0 134468.0 134468.0 134468.0 134468.0 134468.0 134468.0
257176.0 259511.0 233044.0 225861.0 180629.0 174238.0 26044.0 31558.0 12431.0 19535.0 72475.0 64713.0 44359.0 50205.0 140571.0 138008.0 86653.0 88803.0 0.0 7927.0 128029.0 134069.0 355129.0 347194.0 147992.0 147468.0 134599.0 128646.0 154173.0 160136.0 321550.0 321759.0 73074.0 75943.0 25547.0 17873.0 14177.0 8764.0 250454.0 253793.0 79936.0 81908.0 316408.0 312246.0 36858.0 44010.0 245596.0 241451.0 148345.0 140155.0 158627.0 151488.0 168268.0 162274.0 142143.0 149035.0 187364.0 194553.0 128946.0 122612.0 137163.0 143512.0 133683.0 141689.0 361462.0 360333.0 122685.0 118506.0 127140.0 120347.0 103015.0 104983.0 324172.0 332057.0 275293.0 272504.0 143751.0 137465.0 25501.0 18722.0 64505.0 192835.0 64505.0 64505.0 64505.0 64505.0 64505.0 64505.0 64505.0 64505.0 64505.0 192835.0 192835.0 192835.0 192835.0 192835.0 192835.0 192835.0 192835.0 192835.0
256185.0 258303.0 225801.0 218566.0 177391.0 170809.0 33769.0 39479.0 6880.0 15070.0 67755.0 59779.0 36518.0 42278.0 132867.0 130212.0 81414.0 84128.0 7927.0 0.0 124940.0 131265.0 354969.0 347070.0 140595.0 140243.0 127494.0 121396.0 150300.0 156529.0 321467.0 321676.0 65163.0 68126.0 32767.0 25480.0 21991.0 16558.0 244446.0 247933.0 73562.0 76036.0 316324.0 312162.0 35263.0 42921.0 244425.0 240062.0 140620.0 132462.0 154410.0 147071.0 164865.0 158641.0 137419.0 144523.0 186388.0 193718.0 123789.0 117209.0 129490.0 135919.0 129418.0 137374.0 361378.0 360250.0 117358.0 112852.0 124583.0 118069.0 95343.0 97178.0 324089.0 331973.0 268468.0 265569.0 139022.0 132525.0 24576.0 19874.0 68264.0 192751.0 68264.0 68264.0 68264.0 68264.0 68264.0 68264.0 68264.0 68264.0 68264.0 192751.0 192751.0 192751.0 192751.0 192751.0 192751.0 192751.0 192751.0 192751.0
139277.0 139772.0 161995.0 157951.0 52631.0 46574.0 145953.0 145112.0 118068.0 109874.0 60659.0 68619.0 122672.0 116850.0 118638.0 123695.0 53789.0 46694.0 128029.0 124940.0 0.0 7968.0 245564.0 237356.0 107008.0 99874.0 89709.0 92587.0 29941.0 33449.0 216361.0 217757.0 113732.0 106723.0 129127.0 130798.0 131819.0 133725.0 145388.0 145921.0 71938.0 64112.0 210126.0 204689.0 157259.0 165087.0 126544.0 120781.0 124268.0 117772.0 37576.0 34698.0 40587.0 35653.0 34265.0 34505.0 73818.0 81838.0 38777.0 43320.0 115093.0 113891.0 22194.0 26663.0 257676.0 255554.0 41766.0 48517.0 9100.0 15218.0 102687.0 110852.0 218854.0 226365.0 186069.0 186590.0 35170.0 36494.0 148411.0 144808.0 110237.0 93760.0 110237.0 110237.0 110237.0 110237.0 110237.0 110237.0 110237.0 110237.0 110237.0 93760.0 93760.0 93760.0 93760.0 93760.0 93760.0 93760.0 93760.0 93760.0
131442.0 132028.0 165583.0 161847.0 47244.0 41926.0 151220.0 150039.0 124412.0 116227.0 67994.0 75854.0 130113.0 124421.0 125759.0 130981.0 61638.0 54423.0 134069.0 131265.0 7968.0 0.0 237610.0 229402.0 113580.0 106287.0 96547.0 99731.0 28802.0 30279.0 208408.0 209826.0 121640.0 114656.0 134047.0 136090.0 137290.0 139494.0 145503.0 145608.0 79848.0 71993.0 202163.0 196721.0 164015.0 171862.0 118742.0 113063.0 131218.0 124892.0 37306.0 36245.0 36044.0 32426.0 38246.0 36770.0 65867.0 73885.0 45110.0 50306.0 122270.0 120814.0 27253.0 29863.0 249740.0 247600.0 48745.0 55794.0 8047.0 16094.0 110548.0 118715.0 210898.0 218405.0 187688.0 188543.0 38881.0 41544.0 154968.0 151137.0 113779.0 86341.0 113779.0 113779.0 113779.0 113779.0 113779.0 113779.0 113779.0 113779.0 113779.0 86341.0 86341.0 86341.0 86341.0 86341.0 86341.0 86341.0 86341.0 86341.0
108600.0 110584.0 341524.0 343091.0 208657.0 216470.0 364784.0 361288.0 348813.0 341353.0 302930.0 309944.0 364054.0 359523.0 352752.0 359579.0 298991.0 291409.0 355129.0 354969.0 245564.0 237610.0 0.0 8235.0 335638.0 327549.0 322868.0 328635.0 237442.0 228994.0 39744.0 44580.0 359104.0 352230.0 346104.0 350754.0 353323.0 357861.0 276458.0 269716.0 317363.0 309421.0 41035.0 43250.0 390186.0 397890.0 121574.0 128799.0 355918.0 351927.0 241027.0 248920.0 220012.0 228019.0 259862.0 252097.0 172497.0 164545.0 274748.0 282347.0 350091.0 345957.0 256922.0 252797.0 38726.0 30736.0 280926.0 288895.0 241011.0 244634.0 346379.0 354469.0 37325.0 30334.0 326258.0 332561.0 259091.0 266390.0 379468.0 373770.0 320764.0 164164.0 320764.0 320764.0 320764.0 320764.0 320764.0 320764.0 320764.0 320764.0 320764.0 164164.0 164164.0 164164.0 164164.0 164164.0 164164.0 164164.0 164164.0 164164.0
100391.0 102439.0 333880.0 335377.0 200455.0 208263.0 356850.0 353353.0 340894.0 333412.0 294791.0 301823.0 355962.0 351403.0 344555.0 351373.0 290800.0 283227.0 347194.0 347070.0 237356.0 229402.0 8235.0 0.0 327468.0 319378.0 314663.0 320419.0 229215.0 220768.0 34295.0 40002.0 350911.0 344029.0 338169.0 342819.0 345388.0 349926.0 269158.0 262473.0 309166.0 301228.0 34353.0 35737.0 382275.0 389988.0 113360.0 120605.0 347740.0 343730.0 232817.0 240702.0 211791.0 219797.0 251636.0 243877.0 164334.0 156390.0 266515.0 274113.0 341888.0 337770.0 248687.0 244565.0 42065.0 34444.0 272691.0 280661.0 232829.0 236483.0 338145.0 346235.0 32114.0 26140.0 319152.0 325391.0 250867.0 258162.0 371580.0 365835.0 312829.0 156343.0 312829.0 312829.0 312829.0 312829.0 312829.0 312829.0 312829.0 312829.0 312829.0 156343.0 156343.0 156343.0 156343.0 156343.0 156343.0 156343.0 156343.0 156343.0
227214.0 225084.0 85628.0 78165.0 127331.0 119748.0 173926.0 178260.0 135761.0 130534.0 92990.0 95958.0 110873.0 102689.0 19735.0 27671.0 79887.0 85549.0 147992.0 140595.0 107008.0 113580.0 335638.0 327468.0 0.0 8090.0 18279.0 20343.0 100897.0 108867.0 312168.0 314840.0 81019.0 75100.0 166073.0 162070.0 160114.0 156710.0 121630.0 127596.0 73200.0 76144.0 305002.0 298508.0 154249.0 159790.0 214353.0 206919.0 20468.0 19156.0 95595.0 88537.0 117001.0 109362.0 79218.0 85672.0 174039.0 181542.0 68479.0 63905.0 19246.0 11796.0 86923.0 87668.0 354059.0 350736.0 65429.0 59751.0 115593.0 118118.0 47101.0 49054.0 314439.0 321302.0 131737.0 127660.0 79498.0 73695.0 152283.0 154495.0 170653.0 199028.0 170653.0 170653.0 170653.0 170653.0 170653.0 170653.0 170653.0 170653.0 170653.0 199028.0 199028.0 199028.0 199028.0 199028.0 199028.0 199028.0 199028.0 199028.0
219125.0 216995.0 85576.0 78457.0 119254.0 111682.0 173249.0 177255.0 135131.0 129530.0 89415.0 92981.0 111953.0 103679.0 26995.0 34826.0 75685.0 80836.0 147468.0 140243.0 99874.0 106287.0 327549.0 319378.0 8090.0 0.0 13709.0 18863.0 92965.0 100892.0 304115.0 306807.0 82817.0 76415.0 164599.0 160953.0 159188.0 156126.0 116776.0 122470.0 70725.0 72878.0 296940.0 290436.0 155655.0 161470.0 206266.0 198830.0 28497.0 26320.0 87566.0 80576.0 108973.0 101361.0 71419.0 77741.0 166204.0 173675.0 61188.0 57050.0 25785.0 19244.0 79451.0 79933.0 346006.0 342668.0 58548.0 53324.0 108563.0 111372.0 49028.0 52189.0 306383.0 313237.0 129852.0 126211.0 71655.0 66023.0 153107.0 154901.0 167380.0 191448.0 167380.0 167380.0 167380.0 167380.0 167380.0 167380.0 167380.0 167380.0 167380.0 191448.0 191448.0 191448.0 191448.0 191448.0 191448.0 191448.0 191448.0 191448.0
214272.0 212574.0 98638.0 91694.0 114216.0 106403.0 160259.0 164087.0 122216.0 116414.0 75722.0 79283.0 100463.0 92146.0 30121.0 36711.0 62114.0 67486.0 134599.0 127494.0 89709.0 96547.0 322868.0 314663.0 18279.0 13709.0 0.0 8174.0 86229.0 94478.0 298157.0 300565.0 72331.0 65457.0 151229.0 147744.0 146076.0 143209.0 124837.0 130019.0 57130.0 59170.0 291165.0 284864.0 144328.0 150410.0 201316.0 194084.0 34757.0 29270.0 81874.0 74211.0 103090.0 95211.0 63985.0 71145.0 158509.0 166164.0 51701.0 46401.0 27238.0 24330.0 70432.0 72056.0 340025.0 336955.0 47951.0 41818.0 98115.0 100302.0 39479.0 44272.0 300482.0 307500.0 141534.0 138268.0 64489.0 57973.0 141237.0 142676.0 153675.0 182518.0 153675.0 153675.0 153675.0 153675.0 153675.0 153675.0 153675.0 153675.0 153675.0 182518.0 182518.0 182518.0 182518.0 182518.0 182518.0 182518.0 182518.0 182518.0
220045.0 218539.0 104407.0 97225.0 120115.0 112226.0 154462.0 158560.0 116325.0 110820.0 72812.0 75628.0 93329.0 85032.0 26053.0 31527.0 60115.0 66212.0 128646.0 121396.0 92587.0 99731.0 328635.0 320419.0 20343.0 18863.0 8174.0 0.0 91452.0 99815.0 303326.0 305582.0 64694.0 58008.0 146093.0 142293.0 140464.0 137316.0 132849.0 138096.0 52863.0 55891.0 296430.0 290235.0 137123.0 143073.0 207061.0 199930.0 32111.0 25187.0 87648.0 79725.0 108646.0 100677.0 69039.0 76570.0 162879.0 170627.0 55609.0 49448.0 22548.0 22106.0 74394.0 76754.0 345157.0 342225.0 51009.0 44102.0 100683.0 102257.0 31479.0 36102.0 305677.0 312774.0 148447.0 144948.0 69687.0 62749.0 134359.0 136067.0 150345.0 186013.0 150345.0 150345.0 150345.0 150345.0 150345.0 150345.0 150345.0 150345.0 150345.0 186013.0 186013.0 186013.0 186013.0 186013.0 186013.0 186013.0 186013.0 186013.0
128969.0 127913.0 140920.0 137938.0 30592.0 22714.0 173668.0 173378.0 143437.0 135304.0 83211.0 91398.0 142879.0 136113.0 116348.0 122757.0 72288.0 67227.0 154173.0 150300.0 29941.0 28802.0 237442.0 229215.0 100897.0 92965.0 86229.0 91452.0 0.0 8481.0 211945.0 214338.0 128494.0 120896.0 157462.0 158537.0 159223.0 160491.0 116745.0 116807.0 88137.0 81373.0 204998.0 198783.0 180817.0 188512.0 115959.0 109060.0 120421.0 115499.0 8902.0 12502.0 17827.0 9818.0 22441.0 15225.0 73517.0 80826.0 37692.0 45686.0 113396.0 110120.0 22244.0 15869.0 253804.0 250794.0 44401.0 52379.0 36455.0 44247.0 109970.0 117896.0 214280.0 221340.0 159802.0 161019.0 21773.0 28953.0 172806.0 170002.0 139943.0 100704.0 139943.0 139943.0 139943.0 139943.0 139943.0 139943.0 139943.0 139943.0 139943.0 100704.0 100704.0 100704.0 100704.0 100704.0 100704.0 100704.0 100704.0 100704.0
120502.0 119432.0 145616.0 143005.0 22435.0 14785.0 178959.0 178353.0 149652.0 141485.0 89963.0 98148.0 150296.0 143668.0 124584.0 131064.0 79678.0 74235.0 160136.0 156529.0 33449.0 30279.0 228994.0 220768.0 108867.0 100892.0 94478.0 99815.0 8481.0 0.0 203681.0 206144.0 136572.0 129010.0 162385.0 163805.0 164661.0 166216.0 117305.0 116800.0 95938.0 89005.0 196694.0 190438.0 187601.0 195337.0 107494.0 100581.0 128531.0 123738.0 14049.0 20344.0 9456.0 2204.0 30868.0 23336.0 66180.0 73293.0 46157.0 54119.0 121676.0 118265.0 30135.0 24263.0 245553.0 242487.0 52817.0 60806.0 38310.0 46347.0 118426.0 126362.0 206004.0 213032.0 162051.0 163668.0 30134.0 37419.0 179356.0 176310.0 143565.0 94275.0 143565.0 143565.0 143565.0 143565.0 143565.0 143565.0 143565.0 143565.0 143565.0 94275.0 94275.0 94275.0 94275.0 94275.0 94275.0 94275.0 94275.0 94275.0
87382.0 91704.0 327059.0 327744.0 185014.0 192459.0 331206.0 327709.0 315255.0 307774.0 271476.0 278116.0 331585.0 327534.0 328265.0 334697.0 268858.0 261033.0 321550.0 321467.0 216361.0 208408.0 39744.0 34295.0 312168.0 304115.0 298157.0 303326.0 211945.0 203681.0 0.0 7469.0 328784.0 322211.0 312526.0 317175.0 319745.0 324283.0 266261.0 260155.0 287347.0 279308.0 8332.0 16285.0 356644.0 364372.0 99379.0 107286.0 332090.0 327419.0 216607.0 223980.0 195225.0 202998.0 234303.0 227017.0 142544.0 134523.0 248295.0 255494.0 325340.0 321884.0 229897.0 226647.0 41892.0 39193.0 254011.0 261852.0 210925.0 213720.0 318623.0 326778.0 2678.0 10717.0 317559.0 323215.0 233713.0 240588.0 346007.0 340191.0 287186.0 129679.0 287186.0 287186.0 287186.0 287186.0 287186.0 287186.0 287186.0 287186.0 287186.0 129679.0 129679.0 129679.0 129679.0 129679.0 129679.0 129679.0 129679.0 129679.0
91543.0 96258.0 331452.0 331987.0 187932.0 195266.0 331415.0 327918.0 315464.0 307983.0 272075.0 278582.0 331771.0 327887.0 330684.0 337016.0 269873.0 261987.0 321759.0 321676.0 217757.0 209826.0 44580.0 40002.0 314840.0 306807.0 300565.0 305582.0 214338.0 206144.0 7469.0 0.0 329662.0 323187.0 312734.0 317384.0 319954.0 324492.0 271398.0 265391.0 288368.0 280312.0 14879.0 22671.0 356853.0 364581.0 103180.0 111144.0 334657.0 329835.0 219245.0 226476.0 197840.0 205533.0 236624.0 229471.0 143995.0 136001.0 250363.0 257445.0 327702.0 324407.0 231858.0 228840.0 39932.0 38674.0 255949.0 263742.0 212074.0 214605.0 320239.0 328402.0 8434.0 14253.0 322836.0 328395.0 236079.0 242835.0 346216.0 340400.0 287395.0 129575.0 287395.0 287395.0 287395.0 287395.0 287395.0 287395.0 287395.0 287395.0 287395.0 129575.0 129575.0 129575.0 129575.0 129575.0 129575.0 129575.0 129575.0 129575.0
252930.0 253167.0 166338.0 158673.0 159001.0 151199.0 98742.0 104629.0 62245.0 59989.0 58543.0 53567.0 30752.0 23237.0 69676.0 65984.0 60113.0 67785.0 73074.0 65163.0 113732.0 121640.0 359104.0 350911.0 81019.0 82817.0 72331.0 64694.0 128494.0 136572.0 328784.0 329662.0 0.0 7807.0 95830.0 89793.0 86815.0 81693.0 196732.0 201564.0 41794.0 49685.0 322895.0 317770.0 73291.0 78777.0 240128.0 234125.0 77077.0 69406.0 128875.0 120347.0 146000.0 138238.0 108741.0 117139.0 186743.0 194746.0 92465.0 84260.0 66731.0 74027.0 106444.0 112806.0 369555.0 367917.0 85229.0 77819.0 118129.0 115072.0 33936.0 33284.0 331334.0 339003.0 212555.0 208647.0 110100.0 102249.0 72126.0 75404.0 114021.0 201470.0 114021.0 114021.0 114021.0 114021.0 114021.0 114021.0 114021.0 114021.0 114021.0 201470.0 201470.0 201470.0 201470.0 201470.0 201470.0 201470.0 201470.0 201470.0
245799.0 245945.0 160664.0 153092.0 151430.0 143608.0 101889.0 107353.0 64522.0 61320.0 53101.0 48876.0 35792.0 27689.0 65070.0 62096.0 53360.0 61200.0 75943.0 68126.0 106723.0 114656.0 352230.0 344029.0 75100.0 76415.0 65457.0 58008.0 120896.0 129010.0 322211.0 323187.0 7807.0 0.0 97592.0 92028.0 89312.0 84671.0 189505.0 194247.0 34895.0 42908.0 316247.0 311045.0 79258.0 85078.0 232968.0 226897.0 72700.0 64724.0 121168.0 112632.0 138448.0 130655.0 101010.0 109416.0 179991.0 188005.0 84722.0 76510.0 61882.0 68822.0 98898.0 105174.0 363099.0 361368.0 77494.0 70048.0 111379.0 108596.0 28141.0 29056.0 324750.0 332388.0 206264.0 202519.0 102360.0 94501.0 77273.0 79937.0 112529.0 195359.0 112529.0 112529.0 112529.0 112529.0 112529.0 112529.0 112529.0 112529.0 112529.0 195359.0 195359.0 195359.0 195359.0 195359.0 195359.0 195359.0 195359.0 195359.0
249695.0 252702.0 249780.0 242920.0 181291.0 175654.0 18763.0 15993.0 33792.0 36358.0 81424.0 74901.0 68903.0 73830.0 160709.0 158924.0 96681.0 96734.0 25547.0 32767.0 129127.0 134047.0 346104.0 338169.0 166073.0 164599.0 151229.0 146093.0 157462.0 162385.0 312526.0 312734.0 95830.0 97592.0 0.0 8263.0 12504.0 19957.0 261123.0 263806.0 94463.0 94450.0 307383.0 303221.0 57925.0 63724.0 238759.0 235338.0 168610.0 160216.0 163085.0 156791.0 169678.0 164581.0 148742.0 154728.0 180431.0 187092.0 137426.0 132161.0 157097.0 162845.0 138771.0 146796.0 352437.0 351308.0 131944.0 129113.0 126453.0 118916.0 123230.0 126218.0 315148.0 323032.0 289651.0 287435.0 150338.0 144958.0 46900.0 38746.0 46895.0 183810.0 46895.0 46895.0 46895.0 46895.0 46895.0 46895.0 46895.0 46895.0 46895.0 183810.0 183810.0 183810.0 183810.0 183810.0 183810.0 183810.0 183810.0 183810.0
254203.0 257020.0 246381.0 239393.0 183256.0 177370.0 15156.0 16421.0 27564.0 31558.0 80232.0 73226.0 61955.0 67344.0 155888.0 153780.0 95269.0 96016.0 17873.0 25480.0 130798.0 136090.0 350754.0 342819.0 162070.0 160953.0 147744.0 142293.0 158537.0 163805.0 317175.0 317384.0 89793.0 92028.0 8263.0 0.0 4241.0 11696.0 259925.0 262837.0 91512.0 92178.0 312033.0 307870.0 49766.0 55721.0 243071.0 239436.0 163747.0 155425.0 163800.0 157215.0 171383.0 165989.0 148718.0 155019.0 184689.0 191515.0 136741.0 131099.0 152353.0 158349.0 139206.0 147252.0 357087.0 355958.0 130978.0 127682.0 128671.0 121331.0 118312.0 120893.0 319797.0 327682.0 287165.0 284737.0 150323.0 144627.0 38679.0 30547.0 53539.0 188460.0 53539.0 53539.0 53539.0 53539.0 53539.0 53539.0 53539.0 53539.0 53539.0 188460.0 188460.0 188460.0 188460.0 188460.0 188460.0 188460.0 188460.0 188460.0
256564.0 259284.0 244699.0 237646.0 184372.0 178364.0 14862.0 18187.0 24808.0 29663.0 79916.0 72686.0 58504.0 64153.0 153502.0 151223.0 94786.0 95891.0 14177.0 21991.0 131819.0 137290.0 353323.0 345388.0 160114.0 159188.0 146076.0 140464.0 159223.0 164661.0 319745.0 319954.0 86815.0 89312.0 12504.0 4241.0 0.0 7456.0 259380.0 262408.0 90224.0 91250.0 314602.0 310440.0 45599.0 51655.0 245337.0 241596.0 161333.0 153057.0 164297.0 157570.0 172375.0 166835.0 148853.0 155308.0 186953.0 193857.0 136552.0 130723.0 150012.0 156135.0 139588.0 147635.0 359656.0 358528.0 130652.0 127119.0 129970.0 122739.0 115911.0 118267.0 322367.0 330251.0 285945.0 283407.0 150461.0 144609.0 34471.0 26360.0 57108.0 191029.0 57108.0 57108.0 57108.0 57108.0 57108.0 57108.0 57108.0 57108.0 57108.0 191029.0 191029.0 191029.0 191029.0 191029.0 191029.0 191029.0 191029.0 191029.0
260661.0 263212.0 241701.0 234539.0 186354.0 180142.0 17281.0 23060.0 20997.0 27424.0 79698.0 72127.0 52582.0 58717.0 149332.0 146748.0 94188.0 95921.0 8764.0 16558.0 133725.0 139494.0 357861.0 349926.0 156710.0 156126.0 143209.0 137316.0 160491.0 166216.0 324283.0 324492.0 81693.0 84671.0 19957.0 11696.0 7456.0 0.0 258383.0 261615.0 88209.0 89878.0 319140.0 314978.0 38363.0 44657.0 249274.0 245351.0 157104.0 148918.0 165228.0 158263.0 174158.0 168373.0 149178.0 155891.0 190926.0 197960.0 136333.0 130188.0 145926.0 152272.0 140364.0 148396.0 364195.0 363066.0 130207.0 126265.0 132360.0 125335.0 111778.0 113718.0 326905.0 334790.0 283741.0 281013.0 150787.0 144675.0 27135.0 19108.0 63495.0 195567.0 63495.0 63495.0 63495.0 63495.0 63495.0 63495.0 63495.0 63495.0 63495.0 195567.0 195567.0 195567.0 195567.0 195567.0 195567.0 195567.0 195567.0 195567.0
181263.0 175634.0 71642.0 76306.0 114453.0 113073.0 274225.0 276102.0 238212.0 231010.0 179767.0 186718.0 223060.0 214805.0 140271.0 147925.0 164656.0 164464.0 250454.0 244446.0 145388.0 145503.0 276458.0 269158.0 121630.0 116776.0 124837.0 132849.0 116745.0 117305.0 266261.0 271398.0 196732.0 189505.0 261123.0 259925.0 259380.0 258383.0 0.0 7817.0 171032.0 168547.0 258008.0 250221.0 266686.0 273310.0 171603.0 163834.0 137236.0 139906.0 108221.0 110904.0 116555.0 115563.0 115278.0 111712.0 166267.0 170054.0 124033.0 128962.0 140674.0 132650.0 127253.0 120108.0 305345.0 299757.0 129201.0 132263.0 152935.0 160425.0 164309.0 168583.0 267820.0 272612.0 51939.0 57028.0 113816.0 117552.0 262040.0 262039.0 250760.0 197841.0 250760.0 250760.0 250760.0 250760.0 250760.0 250760.0 250760.0 250760.0 250760.0 197841.0 197841.0 197841.0 197841.0 197841.0 197841.0 197841.0 197841.0 197841.0
175665.0 169888.0 79453.0 84115.0 112465.0 111621.0 277267.0 278932.0 241617.0 234302.0 182608.0 189724.0 227406.0 219185.0 146462.0 154180.0 167623.0 167073.0 253793.0 247933.0 145921.0 145608.0 269716.0 262473.0 127596.0 122470.0 130019.0 138096.0 116807.0 116800.0 260155.0 265391.0 201564.0 194247.0 263806.0 262837.0 262408.0 261615.0 7817.0 0.0 174718.0 171922.0 251882.0 244064.0 270889.0 277613.0 166291.0 158592.0 143668.0 146072.0 108482.0 111736.0 115424.0 114972.0 116838.0 112764.0 163249.0 166729.0 126439.0 131740.0 146731.0 138768.0 128543.0 121182.0 298981.0 293307.0 131893.0 135356.0 153192.0 160819.0 169489.0 173997.0 261673.0 266350.0 57469.0 63110.0 115334.0 119518.0 265984.0 265771.0 252484.0 194778.0 252484.0 252484.0 252484.0 252484.0 252484.0 252484.0 252484.0 252484.0 252484.0 194778.0 194778.0 194778.0 194778.0 194778.0 194778.0 194778.0 194778.0 194778.0
211156.0 211458.0 155398.0 148650.0 118341.0 110693.0 104796.0 107931.0 67548.0 60847.0 22633.0 23178.0 55853.0 48486.0 72395.0 73310.0 18495.0 26468.0 79936.0 73562.0 71938.0 79848.0 317363.0 309166.0 73200.0 70725.0 57130.0 52863.0 88137.0 95938.0 287347.0 288368.0 41794.0 34895.0 94463.0 91512.0 90224.0 88209.0 171032.0 174718.0 0.0 8076.0 281361.0 276150.0 97337.0 104544.0 198370.0 192423.0 80194.0 71708.0 89555.0 81236.0 105279.0 97723.0 70046.0 78182.0 145097.0 153110.0 54368.0 46644.0 68426.0 72326.0 65898.0 72839.0 328289.0 326511.0 47232.0 41117.0 76485.0 73845.0 39985.0 47032.0 289882.0 297510.0 195720.0 193227.0 71538.0 64016.0 91506.0 91053.0 97835.0 160920.0 97835.0 97835.0 97835.0 97835.0 97835.0 97835.0 97835.0 97835.0 97835.0 160920.0 160920.0 160920.0 160920.0 160920.0 160920.0 160920.0 160920.0 160920.0
203380.0 203764.0 156386.0 149882.0 111342.0 103786.0 106012.0 108563.0 69696.0 62476.0 17065.0 20240.0 61711.0 54754.0 77206.0 78769.0 10452.0 18392.0 81908.0 76036.0 64112.0 71993.0 309421.0 301228.0 76144.0 72878.0 59170.0 55891.0 81373.0 89005.0 279308.0 280312.0 49685.0 42908.0 94450.0 92178.0 91250.0 89878.0 168547.0 171922.0 8076.0 0.0 273340.0 268151.0 101913.0 109306.0 190621.0 184741.0 84851.0 76475.0 83278.0 75106.0 98275.0 90846.0 64206.0 72146.0 137103.0 145113.0 49053.0 41770.0 73206.0 76420.0 59148.0 66357.0 320230.0 318468.0 42146.0 36923.0 68484.0 65773.0 46790.0 54169.0 281845.0 289480.0 195201.0 193029.0 65743.0 58466.0 95397.0 94310.0 94554.0 152851.0 94554.0 94554.0 94554.0 94554.0 94554.0 94554.0 94554.0 94554.0 94554.0 152851.0 152851.0 152851.0 152851.0 152851.0 152851.0 152851.0 152851.0 152851.0
79539.0 83679.0 319023.0 319765.0 177750.0 185258.0 326064.0 322567.0 310112.0 302632.0 265843.0 272590.0 326272.0 322081.0 321256.0 327752.0 262887.0 255115.0 316408.0 316324.0 210126.0 202163.0 41035.0 34353.0 305002.0 296940.0 291165.0 296430.0 204998.0 196694.0 8332.0 14879.0 322895.0 316247.0 307383.0 312033.0 314602.0 319140.0 258008.0 251882.0 281361.0 273340.0 0.0 7962.0 351501.0 359230.0 91700.0 99564.0 324986.0 320413.0 209498.0 216959.0 188143.0 195964.0 227392.0 220021.0 136354.0 128328.0 241550.0 248827.0 318370.0 314810.0 223236.0 219827.0 49257.0 45796.0 247353.0 255225.0 204887.0 207892.0 312171.0 320318.0 9862.0 16346.0 309277.0 314951.0 226771.0 233723.0 340864.0 335049.0 282043.0 124850.0 282043.0 282043.0 282043.0 282043.0 282043.0 282043.0 282043.0 282043.0 282043.0 124850.0 124850.0 124850.0 124850.0 124850.0 124850.0 124850.0 124850.0 124850.0
72372.0 76255.0 311521.0 312334.0 171192.0 178768.0 321901.0 318405.0 305950.0 298440.0 261011.0 267867.0 321747.0 317411.0 314931.0 321495.0 257701.0 249988.0 312246.0 312162.0 204689.0 196721.0 43250.0 35737.0 298508.0 290436.0 284864.0 290235.0 198783.0 190438.0 16285.0 22671.0 317770.0 311045.0 303221.0 307870.0 310440.0 314978.0 250221.0 244064.0 276150.0 268151.0 7962.0 0.0 347339.0 355067.0 84728.0 92526.0 318556.0 314091.0 203099.0 210655.0 181786.0 189656.0 221205.0 213743.0 131055.0 123040.0 235539.0 242898.0 312088.0 308415.0 217327.0 213744.0 56333.0 52291.0 241436.0 249337.0 199668.0 202895.0 306451.0 314588.0 17613.0 23063.0 301443.0 307144.0 220551.0 227585.0 336702.0 330886.0 277881.0 121060.0 277881.0 277881.0 277881.0 277881.0 277881.0 277881.0 277881.0 277881.0 277881.0 121060.0 121060.0 121060.0 121060.0 121060.0 121060.0 121060.0 121060.0 121060.0
290809.0 292739.0 239628.0 231952.0 209110.0 202172.0 46195.0 54476.0 41398.0 49089.0 97645.0 89457.0 43887.0 52209.0 142516.0 138079.0 109345.0 113624.0 36858.0 35263.0 157259.0 164015.0 390186.0 382275.0 154249.0 155655.0 144328.0 137123.0 180817.0 187601.0 356644.0 356853.0 73291.0 79258.0 57925.0 49766.0 45599.0 38363.0 266686.0 270889.0 97337.0 101913.0 351501.0 347339.0 0.0 7871.0 278906.0 274342.0 149628.0 142311.0 184032.0 176220.0 196315.0 189642.0 165784.0 173430.0 221084.0 228506.0 150957.0 143625.0 139774.0 147237.0 159173.0 166904.0 396555.0 395427.0 144048.0 138396.0 157750.0 151650.0 107151.0 106276.0 359266.0 367151.0 285506.0 281773.0 167353.0 160278.0 11410.0 19257.0 101167.0 227928.0 101167.0 101167.0 101167.0 101167.0 101167.0 101167.0 101167.0 101167.0 101167.0 227928.0 227928.0 227928.0 227928.0 227928.0 227928.0 227928.0 227928.0 227928.0
298656.0 300598.0 244941.0 237205.0 216888.0 209926.0 50440.0 58687.0 49167.0 56916.0 105375.0 97190.0 50258.0 58542.0 147448.0 142727.0 116901.0 121299.0 44010.0 42921.0 165087.0 171862.0 397890.0 389988.0 159790.0 161470.0 150410.0 143073.0 188512.0 195337.0 364372.0 364581.0 78777.0 85078.0 63724.0 55721.0 51655.0 44657.0 273310.0 277613.0 104544.0 109306.0 359230.0 355067.0 7871.0 0.0 286763.0 282208.0 154407.0 147279.0 191645.0 183794.0 204077.0 197372.0 173290.0 180983.0 228922.0 236334.0 158359.0 150959.0 144832.0 152426.0 166817.0 174522.0 404284.0 403155.0 151411.0 145645.0 165612.0 159520.0 112713.0 111411.0 366994.0 374879.0 291292.0 287424.0 174854.0 167728.0 18572.0 25729.0 107939.0 235656.0 107939.0 107939.0 107939.0 107939.0 107939.0 107939.0 107939.0 107939.0 107939.0 235656.0 235656.0 235656.0 235656.0 235656.0 235656.0 235656.0 235656.0 235656.0
13010.0 13949.0 228667.0 228982.0 87137.0 94914.0 257380.0 253956.0 237834.0 229901.0 186136.0 193683.0 248213.0 242883.0 231242.0 238025.0 180330.0 173160.0 245596.0 244425.0 126544.0 118742.0 121574.0 113360.0 214353.0 206266.0 201316.0 207061.0 115959.0 107494.0 99379.0 103180.0 240128.0 232968.0 238759.0 243071.0 245337.0 249274.0 171603.0 166291.0 198370.0 190621.0 91700.0 84728.0 278906.0 286763.0 0.0 7996.0 234548.0 230415.0 119459.0 127351.0 98453.0 106475.0 138349.0 130535.0 58385.0 51728.0 153426.0 161151.0 228547.0 224520.0 135921.0 131443.0 140943.0 136986.0 159761.0 167757.0 123291.0 128188.0 225396.0 233434.0 101430.0 107758.0 223525.0 228476.0 137553.0 144911.0 268911.0 263875.0 213451.0 68145.0 213451.0 213451.0 213451.0 213451.0 213451.0 213451.0 213451.0 213451.0 213451.0 68145.0 68145.0 68145.0 68145.0 68145.0 68145.0 68145.0 68145.0 68145.0
20324.0 19050.0 220673.0 220989.0 79868.0 87712.0 253883.0 250677.0 233417.0 225430.0 180761.0 188406.0 242902.0 237417.0 223953.0 230795.0 174509.0 167466.0 241451.0 240062.0 120781.0 113063.0 128799.0 120605.0 206919.0 198830.0 194084.0 199930.0 109060.0 100581.0 107286.0 111144.0 234125.0 226897.0 235338.0 239436.0 241596.0 245351.0 163834.0 158592.0 192423.0 184741.0 99564.0 92526.0 274342.0 282208.0 7996.0 0.0 227158.0 223128.0 112286.0 120276.0 91438.0 99489.0 131388.0 123484.0 55033.0 49060.0 146639.0 154440.0 221301.0 217170.0 129355.0 124654.0 148788.0 144746.0 153070.0 161074.0 117932.0 123137.0 218748.0 226755.0 109315.0 115574.0 215766.0 220664.0 130552.0 137990.0 264484.0 259613.0 210164.0 68493.0 210164.0 210164.0 210164.0 210164.0 210164.0 210164.0 210164.0 210164.0 210164.0 68493.0 68493.0 68493.0 68493.0 68493.0 68493.0 68493.0 68493.0 68493.0
247436.0 245393.0 91867.0 83885.0 147454.0 139799.0 174373.0 179494.0 136561.0 132355.0 101896.0 103361.0 107819.0 100077.0 7946.0 12001.0 90617.0 97305.0 148345.0 140620.0 124268.0 131218.0 355918.0 347740.0 20468.0 28497.0 34757.0 32111.0 120421.0 128531.0 332090.0 334657.0 77077.0 72700.0 168610.0 163747.0 161333.0 157104.0 137236.0 143668.0 80194.0 84851.0 324986.0 318556.0 149628.0 154407.0 234548.0 227158.0 0.0 8540.0 115490.0 108189.0 136866.0 129125.0 98401.0 105230.0 193127.0 200735.0 86456.0 80958.0 11804.0 10427.0 105187.0 106635.0 373979.0 370747.0 82516.0 75969.0 132531.0 134310.0 45435.0 43832.0 334382.0 341301.0 141133.0 136137.0 98805.0 92561.0 149169.0 152413.0 177758.0 217268.0 177758.0 177758.0 177758.0 177758.0 177758.0 177758.0 177758.0 177758.0 177758.0 217268.0 217268.0 217268.0 217268.0 217268.0 217268.0 217268.0 217268.0 217268.0
243351.0 241532.0 98104.0 90223.0 143281.0 135515.0 166194.0 171228.0 128306.0 123994.0 93502.0 94867.0 100089.0 92243.0 867.0 8532.0 82458.0 89286.0 140155.0 132462.0 117772.0 124892.0 351927.0 343730.0 19156.0 26320.0 29270.0 25187.0 115499.0 123738.0 327419.0 329835.0 69406.0 64724.0 160216.0 155425.0 153057.0 148918.0 139906.0 146072.0 71708.0 76475.0 320413.0 314091.0 142311.0 147279.0 230415.0 223128.0 8540.0 0.0 111035.0 103454.0 132305.0 124451.0 93245.0 100403.0 187639.0 195329.0 80525.0 74591.0 3281.0 7406.0 99317.0 101255.0 369290.0 366201.0 76152.0 69288.0 125862.0 127329.0 37153.0 36129.0 329741.0 336746.0 146543.0 141844.0 93759.0 87179.0 141531.0 144588.0 169228.0 211139.0 169228.0 169228.0 169228.0 169228.0 169228.0 169228.0 169228.0 169228.0 169228.0 211139.0 211139.0 211139.0 211139.0 211139.0 211139.0 211139.0 211139.0 211139.0
132428.0 130903.0 132315.0 129474.0 32491.0 24578.0 178879.0 178924.0 147582.0 139517.0 86820.0 94954.0 144989.0 137937.0 111870.0 118576.0 74821.0 70548.0 158627.0 154410.0 37576.0 37306.0 241027.0 232817.0 95595.0 87566.0 81874.0 87648.0 8902.0 14049.0 216607.0 219245.0 128875.0 121168.0 163085.0 163800.0 164297.0 165228.0 108221.0 108482.0 89555.0 83278.0 209498.0 203099.0 184032.0 191645.0 119459.0 112286.0 115490.0 111035.0 0.0 8574.0 21407.0 14012.0 20287.0 11854.0 80181.0 87220.0 36583.0 44816.0 109111.0 105318.0 24996.0 17130.0 258498.0 255265.0 43732.0 51451.0 44732.0 52341.0 108275.0 116026.0 218894.0 225816.0 150922.0 152119.0 19087.0 26973.0 176403.0 173960.0 146755.0 108273.0 146755.0 146755.0 146755.0 146755.0 146755.0 146755.0 146755.0 146755.0 146755.0 108273.0 108273.0 108273.0 108273.0 108273.0 108273.0 108273.0 108273.0 108273.0
140342.0 138984.0 130117.0 126801.0 40702.0 32721.0 172236.0 172543.0 140272.0 132257.0 79349.0 87428.0 136801.0 129673.0 104297.0 110851.0 66896.0 63001.0 151488.0 147071.0 34698.0 36245.0 248920.0 240702.0 88537.0 80576.0 74211.0 79725.0 12502.0 20344.0 223980.0 226476.0 120347.0 112632.0 156791.0 157215.0 157570.0 158263.0 110904.0 111736.0 81236.0 75106.0 216959.0 210655.0 176220.0 183794.0 127351.0 120276.0 108189.0 103454.0 8574.0 0.0 28923.0 20999.0 11714.0 3298.0 86018.0 93314.0 28010.0 36245.0 101433.0 97931.0 18022.0 10000.0 265859.0 262748.0 35171.0 42877.0 42858.0 49893.0 99777.0 107557.0 226294.0 233292.0 151584.0 152328.0 10548.0 18410.0 168773.0 166517.0 141709.0 113029.0 141709.0 141709.0 141709.0 141709.0 141709.0 141709.0 141709.0 141709.0 141709.0 113029.0 113029.0 113029.0 113029.0 113029.0 113029.0 113029.0 113029.0 113029.0
111451.0 110225.0 149462.0 147302.0 13067.0 5989.0 186538.0 185668.0 157985.0 149802.0 98744.0 106914.0 159428.0 152877.0 133145.0 139756.0 88839.0 83200.0 168268.0 164865.0 40587.0 36044.0 220012.0 211791.0 117001.0 108973.0 103090.0 108646.0 17827.0 9456.0 195225.0 197840.0 146000.0 138448.0 169678.0 171383.0 172375.0 174158.0 116555.0 115424.0 105279.0 98275.0 188143.0 181786.0 196315.0 204077.0 98453.0 91438.0 136866.0 132305.0 21407.0 28923.0 0.0 8071.0 39960.0 32086.0 59816.0 66512.0 55504.0 63512.0 130323.0 126669.0 39556.0 33681.0 237113.0 233920.0 62226.0 70206.0 44011.0 52002.0 127786.0 135700.0 197519.0 204468.0 163005.0 165074.0 39115.0 46594.0 187910.0 184689.0 149818.0 89199.0 149818.0 149818.0 149818.0 149818.0 149818.0 149818.0 149818.0 149818.0 149818.0 89199.0 89199.0 89199.0 89199.0 89199.0 89199.0 89199.0 89199.0 89199.0
119478.0 118289.0 144756.0 142255.0 20788.0 12978.0 181142.0 180547.0 151765.0 143602.0 91999.0 100185.0 152206.0 145539.0 125293.0 131846.0 81584.0 76223.0 162274.0 158641.0 35653.0 32426.0 228019.0 219797.0 109362.0 101361.0 95211.0 100677.0 9818.0 2204.0 202998.0 205533.0 138238.0 130655.0 164581.0 165989.0 166835.0 168373.0 115563.0 114972.0 97723.0 90846.0 195964.0 189656.0 189642.0 197372.0 106475.0 99489.0 129125.0 124451.0 14012.0 20999.0 8071.0 0.0 31900.0 24108.0 66227.0 73219.0 47449.0 55479.0 122432.0 118892.0 31853.0 25686.0 244880.0 241751.0 54206.0 62176.0 40463.0 48504.0 119730.0 127637.0 205307.0 212296.0 160598.0 162298.0 31077.0 38526.0 181431.0 178414.0 145762.0 94711.0 145762.0 145762.0 145762.0 145762.0 145762.0 145762.0 145762.0 145762.0 145762.0 94711.0 94711.0 94711.0 94711.0 94711.0 94711.0 94711.0 94711.0 94711.0
151355.0 150185.0 127739.0 123775.0 52157.0 44158.0 163620.0 164328.0 130678.0 122762.0 69702.0 77641.0 125784.0 118530.0 94098.0 100401.0 56498.0 53345.0 142143.0 137419.0 34265.0 38246.0 259862.0 251636.0 79218.0 71419.0 63985.0 69039.0 22441.0 30868.0 234303.0 236624.0 108741.0 101010.0 148742.0 148718.0 148853.0 149178.0 115278.0 116838.0 70046.0 64206.0 227392.0 221205.0 165784.0 173290.0 138349.0 131388.0 98401.0 93245.0 20287.0 11714.0 39960.0 31900.0 0.0 8440.0 94826.0 102367.0 16317.0 24553.0 91078.0 88043.0 12599.0 8775.0 276147.0 273187.0 23517.0 31168.0 43259.0 49083.0 88155.0 95975.0 236648.0 243735.0 153017.0 153143.0 1610.0 6723.0 158629.0 156671.0 135648.0 120401.0 135648.0 135648.0 135648.0 135648.0 135648.0 135648.0 135648.0 135648.0 135648.0 120401.0 120401.0 120401.0 120401.0 120401.0 120401.0 120401.0 120401.0 120401.0
143531.0 142212.0 129024.0 125532.0 43970.0 35983.0 170008.0 170436.0 137740.0 129753.0 76773.0 84816.0 133815.0 126642.0 101248.0 107752.0 64086.0 60404.0 149035.0 144523.0 34505.0 36770.0 252097.0 243877.0 85672.0 77741.0 71145.0 76570.0 15225.0 23336.0 227017.0 229471.0 117139.0 109416.0 154728.0 155019.0 155308.0 155891.0 111712.0 112764.0 78182.0 72146.0 220021.0 213743.0 173430.0 180983.0 130535.0 123484.0 105230.0 100403.0 11854.0 3298.0 32086.0 24108.0 8440.0 0.0 88641.0 96007.0 24753.0 32989.0 98351.0 94946.0 16095.0 8418.0 268889.0 265813.0 31935.0 39608.0 42980.0 49718.0 96480.0 104262.0 229338.0 236357.0 151565.0 152134.0 7250.0 15120.0 166075.0 163913.0 140215.0 115283.0 140215.0 140215.0 140215.0 140215.0 140215.0 140215.0 140215.0 140215.0 140215.0 115283.0 115283.0 115283.0 115283.0 115283.0 115283.0 115283.0 115283.0 115283.0
69817.0 72334.0 208119.0 206425.0 54729.0 59646.0 199027.0 195702.0 179862.0 172008.0 130524.0 137687.0 192057.0 187240.0 188501.0 194405.0 126654.0 118980.0 187364.0 186388.0 73818.0 65867.0 172497.0 164334.0 174039.0 166204.0 158509.0 162879.0 73517.0 66180.0 142544.0 143995.0 186743.0 179991.0 180431.0 184689.0 186953.0 190926.0 166267.0 163249.0 145097.0 137103.0 136354.0 131055.0 221084.0 228922.0 58385.0 55033.0 193127.0 187639.0 80181.0 86018.0 59816.0 66227.0 94826.0 88641.0 0.0 8025.0 107288.0 113985.0 185293.0 182733.0 88549.0 86493.0 183896.0 181736.0 112460.0 120119.0 68620.0 72173.0 176254.0 184419.0 145038.0 152569.0 216239.0 219370.0 94550.0 100567.0 210925.0 205725.0 155178.0 31579.0 155178.0 155178.0 155178.0 155178.0 155178.0 155178.0 155178.0 155178.0 155178.0 31579.0 31579.0 31579.0 31579.0 31579.0 31579.0 31579.0 31579.0 31579.0
62710.0 65648.0 213862.0 212376.0 60432.0 65891.0 205741.0 202285.0 187231.0 179419.0 138425.0 145543.0 199867.0 195111.0 196190.0 202154.0 134663.0 126976.0 194553.0 193718.0 81838.0 73885.0 164545.0 156390.0 181542.0 173675.0 166164.0 170627.0 80826.0 73293.0 134523.0 136001.0 194746.0 188005.0 187092.0 191515.0 193857.0 197960.0 170054.0 166729.0 153110.0 145113.0 128328.0 123040.0 228506.0 236334.0 51728.0 49060.0 200735.0 195329.0 87220.0 93314.0 66512.0 73219.0 102367.0 96007.0 8025.0 0.0 115064.0 121837.0 193010.0 190353.0 96356.0 94114.0 175895.0 173716.0 120317.0 128005.0 76629.0 80095.0 184240.0 192404.0 137016.0 144544.0 220506.0 223863.0 102046.0 108196.0 218274.0 212975.0 161762.0 28701.0 161762.0 161762.0 161762.0 161762.0 161762.0 161762.0 161762.0 161762.0 161762.0 28701.0 28701.0 28701.0 28701.0 28701.0 28701.0 28701.0 28701.0 28701.0
166435.0 165540.0 127441.0 122595.0 68044.0 60060.0 151401.0 152689.0 117164.0 109436.0 56672.0 64242.0 110218.0 102805.0 81391.0 87130.0 42375.0 40737.0 128946.0 123789.0 38777.0 45110.0 274748.0 266515.0 68479.0 61188.0 51701.0 55609.0 37692.0 46157.0 248295.0 250363.0 92465.0 84722.0 137426.0 136741.0 136552.0 136333.0 124033.0 126439.0 54368.0 49053.0 241550.0 235539.0 150957.0 158359.0 153426.0 146639.0 86456.0 80525.0 36583.0 28010.0 55504.0 47449.0 16317.0 24753.0 107288.0 115064.0 0.0 8237.0 78085.0 76030.0 18794.0 21986.0 290053.0 287316.0 7256.0 14880.0 47626.0 51291.0 72282.0 80205.0 250684.0 257893.0 157666.0 156971.0 17639.0 9797.0 144226.0 142697.0 127471.0 130820.0 127471.0 127471.0 127471.0 127471.0 127471.0 127471.0 127471.0 127471.0 127471.0 130820.0 130820.0 130820.0 130820.0 130820.0 130820.0 130820.0 130820.0 130820.0
174155.0 173378.0 128018.0 122757.0 76144.0 68172.0 145585.0 147200.0 110670.0 103077.0 50868.0 58093.0 102472.0 94963.0 75459.0 80812.0 36002.0 35592.0 122612.0 117209.0 43320.0 50306.0 282347.0 274113.0 63905.0 57050.0 46401.0 49448.0 45686.0 54119.0 255494.0 257445.0 84260.0 76510.0 132161.0 131099.0 130723.0 130188.0 128962.0 131740.0 46644.0 41770.0 248827.0 242898.0 143625.0 150959.0 161151.0 154440.0 80958.0 74591.0 44816.0 36245.0 63512.0 55479.0 24553.0 32989.0 113985.0 121837.0 8237.0 0.0 71995.0 70574.0 25598.0 29863.0 297197.0 294565.0 1561.0 6700.0 51734.0 54325.0 64336.0 72317.0 257902.0 265164.0 160533.0 159443.0 25865.0 17992.0 137152.0 135878.0 124066.0 136565.0 124066.0 124066.0 124066.0 124066.0 124066.0 124066.0 124066.0 124066.0 124066.0 136565.0 136565.0 136565.0 136565.0 136565.0 136565.0 136565.0 136565.0 136565.0
241499.0 239761.0 100314.0 92482.0 141435.0 133633.0 163205.0 168188.0 125277.0 120900.0 90229.0 91586.0 97359.0 89463.0 4004.0 9542.0 79240.0 86106.0 137163.0 129490.0 115093.0 122270.0 350091.0 341888.0 19246.0 25785.0 27238.0 22548.0 113396.0 121676.0 325340.0 327702.0 66731.0 61882.0 157097.0 152353.0 150012.0 145926.0 140674.0 146731.0 68426.0 73206.0 318370.0 312088.0 139774.0 144832.0 228547.0 221301.0 11804.0 3281.0 109111.0 101433.0 130323.0 122432.0 91078.0 98351.0 185293.0 193010.0 78085.0 71995.0 0.0 8186.0 96878.0 98996.0 367200.0 364163.0 73555.0 66582.0 123118.0 124477.0 34148.0 33507.0 327672.0 334708.0 148385.0 143808.0 91633.0 84936.0 138833.0 141793.0 165956.0 208560.0 165956.0 165956.0 165956.0 165956.0 165956.0 165956.0 165956.0 165956.0 165956.0 208560.0 208560.0 208560.0 208560.0 208560.0 208560.0 208560.0 208560.0 208560.0
237428.0 235477.0 92551.0 84782.0 137393.0 129695.0 169549.0 174322.0 131493.0 126818.0 93482.0 95475.0 104496.0 96495.0 7946.0 15885.0 81578.0 87998.0 143512.0 135919.0 113891.0 120814.0 345957.0 337770.0 11796.0 19244.0 24330.0 22106.0 110120.0 118265.0 321884.0 324407.0 74027.0 68822.0 162845.0 158349.0 156135.0 152272.0 132650.0 138768.0 72326.0 76420.0 314810.0 308415.0 147237.0 152426.0 224520.0 217170.0 10427.0 7406.0 105318.0 97931.0 126669.0 118892.0 88043.0 94946.0 182733.0 190353.0 76030.0 70574.0 8186.0 0.0 94760.0 96244.0 363769.0 360581.0 72131.0 65663.0 122191.0 124071.0 40765.0 41016.0 324185.0 331131.0 140314.0 135811.0 88468.0 82166.0 146005.0 148744.0 170149.0 206844.0 170149.0 170149.0 170149.0 170149.0 170149.0 170149.0 170149.0 170149.0 170149.0 206844.0 206844.0 206844.0 206844.0 206844.0 206844.0 206844.0 206844.0 206844.0
148907.0 148353.0 139959.0 135815.0 52570.0 44831.0 154237.0 154521.0 122594.0 114537.0 61835.0 69979.0 120721.0 113897.0 100183.0 105907.0 50209.0 45596.0 133683.0 129418.0 22194.0 27253.0 256922.0 248687.0 86923.0 79451.0 70432.0 74394.0 22244.0 30135.0 229897.0 231858.0 106444.0 98898.0 138771.0 139206.0 139588.0 140364.0 127253.0 128543.0 65898.0 59148.0 223236.0 217327.0 159173.0 166817.0 135921.0 129355.0 105187.0 99317.0 24996.0 18022.0 39556.0 31853.0 12599.0 16095.0 88549.0 96356.0 18794.0 25598.0 96878.0 94760.0 0.0 8048.0 271602.0 268969.0 24118.0 32016.0 31289.0 36668.0 89497.0 97563.0 232304.0 239572.0 165592.0 165741.0 13809.0 14367.0 151444.0 148965.0 124185.0 112154.0 124185.0 124185.0 124185.0 124185.0 124185.0 124185.0 124185.0 124185.0 124185.0 112154.0 112154.0 112154.0 112154.0 112154.0 112154.0 112154.0 112154.0 112154.0
144453.0 143563.0 135767.0 131985.0 46443.0 38526.0 162285.0 162555.0 130557.0 122514.0 69726.0 77848.0 128044.0 121087.0 102114.0 108232.0 57733.0 53431.0 141689.0 137374.0 26663.0 29863.0 252797.0 244565.0 87668.0 79933.0 72056.0 76754.0 15869.0 24263.0 226647.0 228840.0 112806.0 105174.0 146796.0 147252.0 147635.0 148396.0 120108.0 121182.0 72839.0 66357.0 219827.0 213744.0 166904.0 174522.0 131443.0 124654.0 106635.0 101255.0 17130.0 10000.0 33681.0 25686.0 8775.0 8418.0 86493.0 94114.0 21986.0 29863.0 98996.0 96244.0 8048.0 0.0 268451.0 265611.0 28553.0 36545.0 35423.0 41798.0 94190.0 102149.0 229016.0 236173.0 159551.0 159971.0 9113.0 14083.0 159283.0 156886.0 131866.0 111706.0 131866.0 131866.0 131866.0 131866.0 131866.0 131866.0 131866.0 131866.0 131866.0 111706.0 111706.0 111706.0 111706.0 111706.0 111706.0 111706.0 111706.0 111706.0
128690.0 132540.0 367632.0 368548.0 226890.0 234347.0 371118.0 367621.0 355166.0 347686.0 311889.0 318339.0 371356.0 367573.0 370136.0 376546.0 309793.0 301899.0 361462.0 361378.0 257676.0 249740.0 38726.0 42065.0 354059.0 346006.0 340025.0 345157.0 253804.0 245553.0 41892.0 39932.0 369555.0 363099.0 352437.0 357087.0 359656.0 364195.0 305345.0 298981.0 328289.0 320230.0 49257.0 56333.0 396555.0 404284.0 140943.0 148788.0 373979.0 369290.0 258498.0 265859.0 237113.0 244880.0 276147.0 268889.0 183896.0 175895.0 290053.0 297197.0 367200.0 363769.0 271602.0 268451.0 0.0 8049.0 295707.0 303523.0 252006.0 254510.0 360121.0 368283.0 39645.0 33281.0 356165.0 362087.0 275568.0 282412.0 385918.0 380103.0 327097.0 170417.0 327097.0 327097.0 327097.0 327097.0 327097.0 327097.0 327097.0 327097.0 327097.0 170417.0 170417.0 170417.0 170417.0 170417.0 170417.0 170417.0 170417.0 170417.0
124520.0 128027.0 362682.0 363738.0 223443.0 230988.0 369989.0 366492.0 354038.0 346557.0 310503.0 317078.0 370377.0 366435.0 367044.0 373547.0 308020.0 300181.0 360333.0 360250.0 255554.0 247600.0 30736.0 34444.0 350736.0 342668.0 336955.0 342225.0 250794.0 242487.0 39193.0 38674.0 367917.0 361368.0 351308.0 355958.0 358528.0 363066.0 299757.0 293307.0 326511.0 318468.0 45796.0 52291.0 395427.0 403155.0 136986.0 144746.0 370747.0 366201.0 255265.0 262748.0 233920.0 241751.0 273187.0 265813.0 181736.0 173716.0 287316.0 294565.0 364163.0 360581.0 268969.0 265611.0 8049.0 0.0 293087.0 300944.0 250105.0 252846.0 357786.0 365939.0 36710.0 29455.0 350383.0 356391.0 272567.0 279515.0 384790.0 378974.0 325969.0 168223.0 325969.0 325969.0 325969.0 325969.0 325969.0 325969.0 325969.0 325969.0 325969.0 168223.0 168223.0 168223.0 168223.0 168223.0 168223.0 168223.0 168223.0 168223.0
172762.0 172017.0 129045.0 123841.0 74900.0 66938.0 145513.0 147042.0 110790.0 103154.0 50752.0 58085.0 103083.0 95627.0 77020.0 82368.0 36035.0 35272.0 122685.0 117358.0 41766.0 48745.0 280926.0 272691.0 65429.0 58548.0 47951.0 51009.0 44401.0 52817.0 254011.0 255949.0 85229.0 77494.0 131944.0 130978.0 130652.0 130207.0 129201.0 131893.0 47232.0 42146.0 247353.0 241436.0 144048.0 151411.0 159761.0 153070.0 82516.0 76152.0 43732.0 35171.0 62226.0 54206.0 23517.0 31935.0 112460.0 120317.0 7256.0 1561.0 73555.0 72131.0 24118.0 28553.0 295707.0 293087.0 0.0 8006.0 50194.0 52838.0 65685.0 73686.0 256420.0 263690.0 161198.0 160178.0 24872.0 17052.0 137474.0 136109.0 123436.0 135005.0 123436.0 123436.0 123436.0 123436.0 123436.0 123436.0 123436.0 123436.0 123436.0 135005.0 135005.0 135005.0 135005.0 135005.0 135005.0 135005.0 135005.0 135005.0
180758.0 180022.0 127709.0 122128.0 82843.0 74871.0 141968.0 143905.0 106418.0 98989.0 47701.0 54460.0 96768.0 89136.0 70153.0 75198.0 32445.0 33472.0 118506.0 112852.0 48517.0 55794.0 288895.0 280661.0 59751.0 53324.0 41818.0 44102.0 52379.0 60806.0 261852.0 263742.0 77819.0 70048.0 129113.0 127682.0 127119.0 126265.0 132263.0 135356.0 41117.0 36923.0 255225.0 249337.0 138396.0 145645.0 167757.0 161074.0 75969.0 69288.0 51451.0 42877.0 70206.0 62176.0 31168.0 39608.0 120119.0 128005.0 14880.0 6700.0 66582.0 65663.0 32016.0 36545.0 303523.0 300944.0 8006.0 0.0 56590.0 58489.0 57679.0 65683.0 264269.0 271558.0 162030.0 160614.0 32440.0 24540.0 132224.0 131233.0 122800.0 142135.0 122800.0 122800.0 122800.0 122800.0 122800.0 122800.0 122800.0 122800.0 122800.0 142135.0 142135.0 142135.0 142135.0 142135.0 142135.0 142135.0 142135.0 142135.0
135825.0 136779.0 170996.0 167001.0 54942.0 49858.0 143778.0 142438.0 117756.0 109592.0 62851.0 70478.0 124973.0 119596.0 126726.0 131566.0 58035.0 50398.0 127140.0 124583.0 9100.0 8047.0 241011.0 232829.0 115593.0 108563.0 98115.0 100683.0 36455.0 38310.0 210925.0 212074.0 118129.0 111379.0 126453.0 128671.0 129970.0 132360.0 152935.0 153192.0 76485.0 68484.0 204887.0 199668.0 157750.0 165612.0 123291.0 117932.0 132531.0 125862.0 44732.0 42858.0 44011.0 40463.0 43259.0 42980.0 68620.0 76629.0 47626.0 51734.0 123118.0 122191.0 31289.0 35423.0 252006.0 250105.0 50194.0 56590.0 0.0 8047.0 109203.0 117345.0 213450.0 221053.0 194437.0 195101.0 44110.0 45594.0 148489.0 144436.0 105814.0 86491.0 105814.0 105814.0 105814.0 105814.0 105814.0 105814.0 105814.0 105814.0 105814.0 86491.0 86491.0 86491.0 86491.0 86491.0 86491.0 86491.0 86491.0 86491.0
140536.0 141830.0 176608.0 172374.0 62728.0 57822.0 136403.0 134887.0 111281.0 103155.0 58364.0 65647.0 120149.0 115128.0 128188.0 132633.0 55370.0 47405.0 120347.0 118069.0 15218.0 16094.0 244634.0 236483.0 118118.0 111372.0 100302.0 102257.0 44247.0 46347.0 213720.0 214605.0 115072.0 108596.0 118916.0 121331.0 122739.0 125335.0 160425.0 160819.0 73845.0 65773.0 207892.0 202895.0 151650.0 159520.0 128188.0 123137.0 134310.0 127329.0 52341.0 49893.0 52002.0 48504.0 49083.0 49718.0 72173.0 80095.0 51291.0 54325.0 124477.0 124071.0 36668.0 41798.0 254510.0 252846.0 52838.0 58489.0 8047.0 0.0 108437.0 116512.0 216275.0 223963.0 201279.0 201765.0 50088.0 50605.0 142167.0 137877.0 97865.0 87390.0 97865.0 97865.0 97865.0 97865.0 97865.0 97865.0 97865.0 97865.0 97865.0 87390.0 87390.0 87390.0 87390.0 87390.0 87390.0 87390.0 87390.0 87390.0
238390.0 237701.0 132565.0 124968.0 140268.0 132272.0 129057.0 134079.0 91154.0 86939.0 62600.0 61940.0 63920.0 55827.0 37591.0 35906.0 55523.0 63496.0 103015.0 95343.0 102687.0 110548.0 346379.0 338145.0 47101.0 49028.0 39479.0 31479.0 109970.0 118426.0 318623.0 320239.0 33936.0 28141.0 123230.0 118312.0 115911.0 111778.0 164309.0 169489.0 39985.0 46790.0 312171.0 306451.0 107151.0 112713.0 225396.0 218748.0 45435.0 37153.0 108275.0 99777.0 127786.0 119730.0 88155.0 96480.0 176254.0 184240.0 72282.0 64336.0 34148.0 40765.0 89497.0 94190.0 360121.0 357786.0 65685.0 57679.0 109203.0 108437.0 0.0 8167.0 321078.0 328474.0 178638.0 174711.0 89231.0 81434.0 105413.0 107998.0 134550.0 195588.0 134550.0 134550.0 134550.0 134550.0 134550.0 134550.0 134550.0 134550.0 134550.0 195588.0 195588.0 195588.0 195588.0 195588.0 195588.0 195588.0 195588.0 195588.0
246431.0 245695.0 133554.0 125797.0 148120.0 140122.0 130943.0 136349.0 93460.0 89862.0 69503.0 68249.0 64001.0 56248.0 36393.0 33041.0 63216.0 71253.0 104983.0 97178.0 110852.0 118715.0 354469.0 346235.0 49054.0 52189.0 44272.0 36102.0 117896.0 126362.0 326778.0 328402.0 33284.0 29056.0 126218.0 120893.0 118267.0 113718.0 168583.0 173997.0 47032.0 54169.0 320318.0 314588.0 106276.0 111411.0 233434.0 226755.0 43832.0 36129.0 116026.0 107557.0 135700.0 127637.0 95975.0 104262.0 184419.0 192404.0 80205.0 72317.0 33507.0 41016.0 97563.0 102149.0 368283.0 365939.0 73686.0 65683.0 117345.0 116512.0 8167.0 0.0 329233.0 336624.0 180731.0 176493.0 97020.0 89260.0 105410.0 108581.0 139846.0 203707.0 139846.0 139846.0 139846.0 139846.0 139846.0 139846.0 139846.0 139846.0 139846.0 203707.0 203707.0 203707.0 203707.0 203707.0 203707.0 203707.0 203707.0 203707.0
89340.0 93533.0 328881.0 329614.0 187248.0 194715.0 333828.0 330331.0 317877.0 310397.0 274057.0 280708.0 334199.0 330135.0 330586.0 337036.0 271395.0 263577.0 324172.0 324089.0 218854.0 210898.0 37325.0 32114.0 314439.0 306383.0 300482.0 305677.0 214280.0 206004.0 2678.0 8434.0 331334.0 324750.0 315148.0 319797.0 322367.0 326905.0 267820.0 261673.0 289882.0 281845.0 9862.0 17613.0 359266.0 366994.0 101430.0 109315.0 334382.0 329741.0 218894.0 226294.0 197519.0 205307.0 236648.0 229338.0 145038.0 137016.0 250684.0 257902.0 327672.0 324185.0 232304.0 229016.0 39645.0 36710.0 256420.0 264269.0 213450.0 216275.0 321078.0 329233.0 0.0 8039.0 319055.0 324751.0 236050.0 242946.0 348629.0 342813.0 289808.0 132322.0 289808.0 289808.0 289808.0 289808.0 289808.0 289808.0 289808.0 289808.0 289808.0 132322.0 132322.0 132322.0 132322.0 132322.0 132322.0 132322.0 132322.0 132322.0
95434.0 99264.0 334431.0 335303.0 194026.0 201554.0 341713.0 338216.0 325762.0 318281.0 281817.0 288503.0 342055.0 337953.0 337589.0 344092.0 279029.0 271232.0 332057.0 331973.0 226365.0 218405.0 30334.0 26140.0 321302.0 313237.0 307500.0 312774.0 221340.0 213032.0 10717.0 14253.0 339003.0 332388.0 323032.0 327682.0 330251.0 334790.0 272612.0 266350.0 297510.0 289480.0 16346.0 23063.0 367151.0 374879.0 107758.0 115574.0 341301.0 336746.0 225816.0 233292.0 204468.0 212296.0 243735.0 236357.0 152569.0 144544.0 257893.0 265164.0 334708.0 331131.0 239572.0 236173.0 33281.0 29455.0 263690.0 271558.0 221053.0 223963.0 328474.0 336624.0 8039.0 0.0 323646.0 329457.0 243113.0 250069.0 356514.0 350698.0 297692.0 140267.0 297692.0 297692.0 297692.0 297692.0 297692.0 297692.0 297692.0 297692.0 297692.0 140267.0 140267.0 140267.0 140267.0 140267.0 140267.0 140267.0 140267.0 140267.0
233074.0 227343.0 51266.0 59230.0 162896.0 160366.0 300489.0 303585.0 262862.0 256500.0 209095.0 214935.0 241768.0 233477.0 146606.0 153058.0 193769.0 195498.0 275293.0 268468.0 186069.0 187688.0 326258.0 319152.0 131737.0 129852.0 141534.0 148447.0 159802.0 162051.0 317559.0 322836.0 212555.0 206264.0 289651.0 287165.0 285945.0 283741.0 51939.0 57469.0 195720.0 195201.0 309277.0 301443.0 285506.0 291292.0 223525.0 215766.0 141133.0 146543.0 150922.0 151584.0 163005.0 160598.0 153017.0 151565.0 216239.0 220506.0 157666.0 160533.0 148385.0 140314.0 165592.0 159551.0 356165.0 350383.0 161198.0 162030.0 194437.0 201279.0 178638.0 180731.0 319055.0 323646.0 0.0 8088.0 151788.0 153488.0 282752.0 284169.0 284593.0 247775.0 284593.0 284593.0 284593.0 284593.0 284593.0 284593.0 284593.0 284593.0 284593.0 247775.0 247775.0 247775.0 247775.0 247775.0 247775.0 247775.0 247775.0 247775.0
238263.0 232661.0 45137.0 53206.0 165581.0 162695.0 297866.0 301157.0 260080.0 253872.0 207299.0 212921.0 238151.0 229886.0 141868.0 148110.0 192019.0 194072.0 272504.0 265569.0 186590.0 188543.0 332561.0 325391.0 127660.0 126211.0 138268.0 144948.0 161019.0 163668.0 323215.0 328395.0 208647.0 202519.0 287435.0 284737.0 283407.0 281013.0 57028.0 63110.0 193227.0 193029.0 314951.0 307144.0 281773.0 287424.0 228476.0 220664.0 136137.0 141844.0 152119.0 152328.0 165074.0 162298.0 153143.0 152134.0 219370.0 223863.0 156971.0 159443.0 143808.0 135811.0 165741.0 159971.0 362087.0 356391.0 160178.0 160614.0 195101.0 201765.0 174711.0 176493.0 324751.0 329457.0 8088.0 0.0 151970.0 153259.0 279304.0 280931.0 283373.0 250835.0 283373.0 283373.0 283373.0 283373.0 283373.0 283373.0 283373.0 283373.0 283373.0 250835.0 250835.0 250835.0 250835.0 250835.0 250835.0 250835.0 250835.0 250835.0
150555.0 149317.0 126903.0 123018.0 51169.0 43174.0 165227.0 165928.0 132283.0 124369.0 71308.0 79244.0 127297.0 120025.0 94609.0 100986.0 58081.0 54952.0 143751.0 139022.0 35170.0 38881.0 259091.0 250867.0 79498.0 71655.0 64489.0 69687.0 21773.0 30134.0 233713.0 236079.0 110100.0 102360.0 150338.0 150323.0 150461.0 150787.0 113816.0 115334.0 71538.0 65743.0 226771.0 220551.0 167353.0 174854.0 137553.0 130552.0 98805.0 93759.0 19087.0 10548.0 39115.0 31077.0 1610.0 7250.0 94550.0 102046.0 17639.0 25865.0 91633.0 88468.0 13809.0 9113.0 275568.0 272567.0 24872.0 32440.0 44110.0 50088.0 89231.0 97020.0 236050.0 243113.0 151788.0 151970.0 0.0 7905.0 160216.0 158269.0 137159.0 120399.0 137159.0 137159.0 137159.0 137159.0 137159.0 137159.0 137159.0 137159.0 137159.0 120399.0 120399.0 120399.0 120399.0 120399.0 120399.0 120399.0 120399.0 120399.0
157920.0 156812.0 126098.0 121774.0 58864.0 50865.0 159424.0 160405.0 125837.0 118007.0 65002.0 72791.0 119843.0 112487.0 88037.0 94196.0 51250.0 48763.0 137465.0 132525.0 36494.0 41544.0 266390.0 258162.0 73695.0 66023.0 57973.0 62749.0 28953.0 37419.0 240588.0 242835.0 102249.0 94501.0 144958.0 144627.0 144609.0 144675.0 117552.0 119518.0 64016.0 58466.0 233723.0 227585.0 160278.0 167728.0 144911.0 137990.0 92561.0 87179.0 26973.0 18410.0 46594.0 38526.0 6723.0 15120.0 100567.0 108196.0 9797.0 17992.0 84936.0 82166.0 14367.0 14083.0 282412.0 279515.0 17052.0 24540.0 45594.0 50605.0 81434.0 89260.0 242946.0 250069.0 153488.0 153259.0 7905.0 0.0 153350.0 151613.0 133236.0 125451.0 133236.0 133236.0 133236.0 133236.0 133236.0 133236.0 133236.0 133236.0 133236.0 125451.0 125451.0 125451.0 125451.0 125451.0 125451.0 125451.0 125451.0 125451.0
280710.0 282776.0 237899.0 230355.0 200594.0 193813.0 36719.0 44884.0 31077.0 39070.0 89639.0 81473.0 41511.0 49604.0 141802.0 137915.0 102144.0 105855.0 25501.0 24576.0 148411.0 154968.0 379468.0 371580.0 152283.0 153107.0 141237.0 134359.0 172806.0 179356.0 346007.0 346216.0 72126.0 77273.0 46900.0 38679.0 34471.0 27135.0 262040.0 265984.0 91506.0 95397.0 340864.0 336702.0 11410.0 18572.0 268911.0 264484.0 149169.0 141531.0 176403.0 168773.0 187910.0 181431.0 158629.0 166075.0 210925.0 218274.0 144226.0 137152.0 138833.0 146005.0 151444.0 159283.0 385918.0 384790.0 137474.0 132224.0 148489.0 142167.0 105413.0 105410.0 348629.0 356514.0 282752.0 279304.0 160216.0 153350.0 0.0 8198.0 89757.0 217291.0 89757.0 89757.0 89757.0 89757.0 89757.0 89757.0 89757.0 89757.0 89757.0 217291.0 217291.0 217291.0 217291.0 217291.0 217291.0 217291.0 217291.0 217291.0
275541.0 277772.0 240099.0 232658.0 197240.0 190627.0 28955.0 37008.0 26741.0 34934.0 87171.0 79097.0 44676.0 52346.0 144903.0 141388.0 100377.0 103518.0 18722.0 19874.0 144808.0 151137.0 373770.0 365835.0 154495.0 154901.0 142676.0 136067.0 170002.0 176310.0 340191.0 340400.0 75404.0 79937.0 38746.0 30547.0 26360.0 19108.0 262039.0 265771.0 91053.0 94310.0 335049.0 330886.0 19257.0 25729.0 263875.0 259613.0 152413.0 144588.0 173960.0 166517.0 184689.0 178414.0 156671.0 163913.0 205725.0 212975.0 142697.0 135878.0 141793.0 148744.0 148965.0 156886.0 380103.0 378974.0 136109.0 131233.0 144436.0 137877.0 107998.0 108581.0 342813.0 350698.0 284169.0 280931.0 158269.0 151613.0 8198.0 0.0 82210.0 211476.0 82210.0 82210.0 82210.0 82210.0 82210.0 82210.0 82210.0 82210.0 82210.0 211476.0 211476.0 211476.0 211476.0 211476.0 211476.0 211476.0 211476.0 211476.0
224357.0 227389.0 249526.0 243402.0 160498.0 155671.0 65346.0 60282.0 64593.0 60608.0 78028.0 74759.0 96105.0 97414.0 169876.0 169977.0 92538.0 89435.0 64505.0 68264.0 110237.0 113779.0 320764.0 312829.0 170653.0 167380.0 153675.0 150345.0 139943.0 143565.0 287186.0 287395.0 114021.0 112529.0 46895.0 53539.0 57108.0 63495.0 250760.0 252484.0 97835.0 94554.0 282043.0 277881.0 101167.0 107939.0 213451.0 210164.0 177758.0 169228.0 146755.0 141709.0 149818.0 145762.0 135648.0 140215.0 155178.0 161762.0 127471.0 124066.0 165956.0 170149.0 124185.0 131866.0 327097.0 325969.0 123436.0 122800.0 105814.0 97865.0 134550.0 139846.0 289808.0 297692.0 284593.0 283373.0 137159.0 133236.0 89757.0 82210.0 0.0 158470.0 0.0 0.0 0.0 0.0 0.0 0.0 0.0 0.0 0.0 158470.0 158470.0 158470.0 158470.0 158470.0 158470.0 158470.0 158470.0 158470.0
75676.0 80817.0 238506.0 236487.0 85675.0 89876.0 202490.0 198994.0 186539.0 179059.0 143376.0 149722.0 202888.0 198964.0 212006.0 217317.0 142547.0 134468.0 192835.0 192751.0 93760.0 86341.0 164164.0 156343.0 199028.0 191448.0 182518.0 186013.0 100704.0 94275.0 129679.0 129575.0 201470.0 195359.0 183810.0 188460.0 191029.0 195567.0 197841.0 194778.0 160920.0 152851.0 124850.0 121060.0 227928.0 235656.0 68145.0 68493.0 217268.0 211139.0 108273.0 113029.0 89199.0 94711.0 120401.0 115283.0 31579.0 28701.0 130820.0 136565.0 208560.0 206844.0 112154.0 111706.0 170417.0 168223.0 135005.0 142135.0 86491.0 87390.0 195588.0 203707.0 132322.0 140267.0 247775.0 250835.0 120399.0 125451.0 217291.0 211476.0 158470.0 0.0 158470.0 158470.0 158470.0 158470.0 158470.0 158470.0 158470.0 158470.0 158470.0 0.0 0.0 0.0 0.0 0.0 0.0 0.0 0.0 0.0
224357.0 227389.0 249526.0 243402.0 160498.0 155671.0 65346.0 60282.0 64593.0 60608.0 78028.0 74759.0 96105.0 97414.0 169876.0 169977.0 92538.0 89435.0 64505.0 68264.0 110237.0 113779.0 320764.0 312829.0 170653.0 167380.0 153675.0 150345.0 139943.0 143565.0 287186.0 287395.0 114021.0 112529.0 46895.0 53539.0 57108.0 63495.0 250760.0 252484.0 97835.0 94554.0 282043.0 277881.0 101167.0 107939.0 213451.0 210164.0 177758.0 169228.0 146755.0 141709.0 149818.0 145762.0 135648.0 140215.0 155178.0 161762.0 127471.0 124066.0 165956.0 170149.0 124185.0 131866.0 327097.0 325969.0 123436.0 122800.0 105814.0 97865.0 134550.0 139846.0 289808.0 297692.0 284593.0 283373.0 137159.0 133236.0 89757.0 82210.0 0.0 158470.0 0.0 0.0 0.0 0.0 0.0 0.0 0.0 0.0 0.0 158470.0 158470.0 158470.0 158470.0 158470.0 158470.0 158470.0 158470.0 158470.0
224357.0 227389.0 249526.0 243402.0 160498.0 155671.0 65346.0 60282.0 64593.0 60608.0 78028.0 74759.0 96105.0 97414.0 169876.0 169977.0 92538.0 89435.0 64505.0 68264.0 110237.0 113779.0 320764.0 312829.0 170653.0 167380.0 153675.0 150345.0 139943.0 143565.0 287186.0 287395.0 114021.0 112529.0 46895.0 53539.0 57108.0 63495.0 250760.0 252484.0 97835.0 94554.0 282043.0 277881.0 101167.0 107939.0 213451.0 210164.0 177758.0 169228.0 146755.0 141709.0 149818.0 145762.0 135648.0 140215.0 155178.0 161762.0 127471.0 124066.0 165956.0 170149.0 124185.0 131866.0 327097.0 325969.0 123436.0 122800.0 105814.0 97865.0 134550.0 139846.0 289808.0 297692.0 284593.0 283373.0 137159.0 133236.0 89757.0 82210.0 0.0 158470.0 0.0 0.0 0.0 0.0 0.0 0.0 0.0 0.0 0.0 158470.0 158470.0 158470.0 158470.0 158470.0 158470.0 158470.0 158470.0 158470.0
224357.0 227389.0 249526.0 243402.0 160498.0 155671.0 65346.0 60282.0 64593.0 60608.0 78028.0 74759.0 96105.0 97414.0 169876.0 169977.0 92538.0 89435.0 64505.0 68264.0 110237.0 113779.0 320764.0 312829.0 170653.0 167380.0 153675.0 150345.0 139943.0 143565.0 287186.0 287395.0 114021.0 112529.0 46895.0 53539.0 57108.0 63495.0 250760.0 252484.0 97835.0 94554.0 282043.0 277881.0 101167.0 107939.0 213451.0 210164.0 177758.0 169228.0 146755.0 141709.0 149818.0 145762.0 135648.0 140215.0 155178.0 161762.0 127471.0 124066.0 165956.0 170149.0 124185.0 131866.0 327097.0 325969.0 123436.0 122800.0 105814.0 97865.0 134550.0 139846.0 289808.0 297692.0 284593.0 283373.0 137159.0 133236.0 89757.0 82210.0 0.0 158470.0 0.0 0.0 0.0 0.0 0.0 0.0 0.0 0.0 0.0 158470.0 158470.0 158470.0 158470.0 158470.0 158470.0 158470.0 158470.0 158470.0
224357.0 227389.0 249526.0 243402.0 160498.0 155671.0 65346.0 60282.0 64593.0 60608.0 78028.0 74759.0 96105.0 97414.0 169876.0 169977.0 92538.0 89435.0 64505.0 68264.0 110237.0 113779.0 320764.0 312829.0 170653.0 167380.0 153675.0 150345.0 139943.0 143565.0 287186.0 287395.0 114021.0 112529.0 46895.0 53539.0 57108.0 63495.0 250760.0 252484.0 97835.0 94554.0 282043.0 277881.0 101167.0 107939.0 213451.0 210164.0 177758.0 169228.0 146755.0 141709.0 149818.0 145762.0 135648.0 140215.0 155178.0 161762.0 127471.0 124066.0 165956.0 170149.0 124185.0 131866.0 327097.0 325969.0 123436.0 122800.0 105814.0 97865.0 134550.0 139846.0 289808.0 297692.0 284593.0 283373.0 137159.0 133236.0 89757.0 82210.0 0.0 158470.0 0.0 0.0 0.0 0.0 0.0 0.0 0.0 0.0 0.0 158470.0 158470.0 158470.0 158470.0 158470.0 158470.0 158470.0 158470.0 158470.0
224357.0 227389.0 249526.0 243402.0 160498.0 155671.0 65346.0 60282.0 64593.0 60608.0 78028.0 74759.0 96105.0 97414.0 169876.0 169977.0 92538.0 89435.0 64505.0 68264.0 110237.0 113779.0 320764.0 312829.0 170653.0 167380.0 153675.0 150345.0 139943.0 143565.0 287186.0 287395.0 114021.0 112529.0 46895.0 53539.0 57108.0 63495.0 250760.0 252484.0 97835.0 94554.0 282043.0 277881.0 101167.0 107939.0 213451.0 210164.0 177758.0 169228.0 146755.0 141709.0 149818.0 145762.0 135648.0 140215.0 155178.0 161762.0 127471.0 124066.0 165956.0 170149.0 124185.0 131866.0 327097.0 325969.0 123436.0 122800.0 105814.0 97865.0 134550.0 139846.0 289808.0 297692.0 284593.0 283373.0 137159.0 133236.0 89757.0 82210.0 0.0 158470.0 0.0 0.0 0.0 0.0 0.0 0.0 0.0 0.0 0.0 158470.0 158470.0 158470.0 158470.0 158470.0 158470.0 158470.0 158470.0 158470.0
224357.0 227389.0 249526.0 243402.0 160498.0 155671.0 65346.0 60282.0 64593.0 60608.0 78028.0 74759.0 96105.0 97414.0 169876.0 169977.0 92538.0 89435.0 64505.0 68264.0 110237.0 113779.0 320764.0 312829.0 170653.0 167380.0 153675.0 150345.0 139943.0 143565.0 287186.0 287395.0 114021.0 112529.0 46895.0 53539.0 57108.0 63495.0 250760.0 252484.0 97835.0 94554.0 282043.0 277881.0 101167.0 107939.0 213451.0 210164.0 177758.0 169228.0 146755.0 141709.0 149818.0 145762.0 135648.0 140215.0 155178.0 161762.0 127471.0 124066.0 165956.0 170149.0 124185.0 131866.0 327097.0 325969.0 123436.0 122800.0 105814.0 97865.0 134550.0 139846.0 289808.0 297692.0 284593.0 283373.0 137159.0 133236.0 89757.0 82210.0 0.0 158470.0 0.0 0.0 0.0 0.0 0.0 0.0 0.0 0.0 0.0 158470.0 158470.0 158470.0 158470.0 158470.0 158470.0 158470.0 158470.0 158470.0
224357.0 227389.0 249526.0 243402.0 160498.0 155671.0 65346.0 60282.0 64593.0 60608.0 78028.0 74759.0 96105.0 97414.0 169876.0 169977.0 92538.0 89435.0 64505.0 68264.0 110237.0 113779.0 320764.0 312829.0 170653.0 167380.0 153675.0 150345.0 139943.0 143565.0 287186.0 287395.0 114021.0 112529.0 46895.0 53539.0 57108.0 63495.0 250760.0 252484.0 97835.0 94554.0 282043.0 277881.0 101167.0 107939.0 213451.0 210164.0 177758.0 169228.0 146755.0 141709.0 149818.0 145762.0 135648.0 140215.0 155178.0 161762.0 127471.0 124066.0 165956.0 170149.0 124185.0 131866.0 327097.0 325969.0 123436.0 122800.0 105814.0 97865.0 134550.0 139846.0 289808.0 297692.0 284593.0 283373.0 137159.0 133236.0 89757.0 82210.0 0.0 158470.0 0.0 0.0 0.0 0.0 0.0 0.0 0.0 0.0 0.0 158470.0 158470.0 158470.0 158470.0 158470.0 158470.0 158470.0 158470.0 158470.0
224357.0 227389.0 249526.0 243402.0 160498.0 155671.0 65346.0 60282.0 64593.0 60608.0 78028.0 74759.0 96105.0 97414.0 169876.0 169977.0 92538.0 89435.0 64505.0 68264.0 110237.0 113779.0 320764.0 312829.0 170653.0 167380.0 153675.0 150345.0 139943.0 143565.0 287186.0 287395.0 114021.0 112529.0 46895.0 53539.0 57108.0 63495.0 250760.0 252484.0 97835.0 94554.0 282043.0 277881.0 101167.0 107939.0 213451.0 210164.0 177758.0 169228.0 146755.0 141709.0 149818.0 145762.0 135648.0 140215.0 155178.0 161762.0 127471.0 124066.0 165956.0 170149.0 124185.0 131866.0 327097.0 325969.0 123436.0 122800.0 105814.0 97865.0 134550.0 139846.0 289808.0 297692.0 284593.0 283373.0 137159.0 133236.0 89757.0 82210.0 0.0 158470.0 0.0 0.0 0.0 0.0 0.0 0.0 0.0 0.0 0.0 158470.0 158470.0 158470.0 158470.0 158470.0 158470.0 158470.0 158470.0 158470.0
224357.0 227389.0 249526.0 243402.0 160498.0 155671.0 65346.0 60282.0 64593.0 60608.0 78028.0 74759.0 96105.0 97414.0 169876.0 169977.0 92538.0 89435.0 64505.0 68264.0 110237.0 113779.0 320764.0 312829.0 170653.0 167380.0 153675.0 150345.0 139943.0 143565.0 287186.0 287395.0 114021.0 112529.0 46895.0 53539.0 57108.0 63495.0 250760.0 252484.0 97835.0 94554.0 282043.0 277881.0 101167.0 107939.0 213451.0 210164.0 177758.0 169228.0 146755.0 141709.0 149818.0 145762.0 135648.0 140215.0 155178.0 161762.0 127471.0 124066.0 165956.0 170149.0 124185.0 131866.0 327097.0 325969.0 123436.0 122800.0 105814.0 97865.0 134550.0 139846.0 289808.0 297692.0 284593.0 283373.0 137159.0 133236.0 89757.0 82210.0 0.0 158470.0 0.0 0.0 0.0 0.0 0.0 0.0 0.0 0.0 0.0 158470.0 158470.0 158470.0 158470.0 158470.0 158470.0 158470.0 158470.0 158470.0
75676.0 80817.0 238506.0 236487.0 85675.0 89876.0 202490.0 198994.0 186539.0 179059.0 143376.0 149722.0 202888.0 198964.0 212006.0 217317.0 142547.0 134468.0 192835.0 192751.0 93760.0 86341.0 164164.0 156343.0 199028.0 191448.0 182518.0 186013.0 100704.0 94275.0 129679.0 129575.0 201470.0 195359.0 183810.0 188460.0 191029.0 195567.0 197841.0 194778.0 160920.0 152851.0 124850.0 121060.0 227928.0 235656.0 68145.0 68493.0 217268.0 211139.0 108273.0 113029.0 89199.0 94711.0 120401.0 115283.0 31579.0 28701.0 130820.0 136565.0 208560.0 206844.0 112154.0 111706.0 170417.0 168223.0 135005.0 142135.0 86491.0 87390.0 195588.0 203707.0 132322.0 140267.0 247775.0 250835.0 120399.0 125451.0 217291.0 211476.0 158470.0 0.0 158470.0 158470.0 158470.0 158470.0 158470.0 158470.0 158470.0 158470.0 158470.0 0.0 0.0 0.0 0.0 0.0 0.0 0.0 0.0 0.0
75676.0 80817.0 238506.0 236487.0 85675.0 89876.0 202490.0 198994.0 186539.0 179059.0 143376.0 149722.0 202888.0 198964.0 212006.0 217317.0 142547.0 134468.0 192835.0 192751.0 93760.0 86341.0 164164.0 156343.0 199028.0 191448.0 182518.0 186013.0 100704.0 94275.0 129679.0 129575.0 201470.0 195359.0 183810.0 188460.0 191029.0 195567.0 197841.0 194778.0 160920.0 152851.0 124850.0 121060.0 227928.0 235656.0 68145.0 68493.0 217268.0 211139.0 108273.0 113029.0 89199.0 94711.0 120401.0 115283.0 31579.0 28701.0 130820.0 136565.0 208560.0 206844.0 112154.0 111706.0 170417.0 168223.0 135005.0 142135.0 86491.0 87390.0 195588.0 203707.0 132322.0 140267.0 247775.0 250835.0 120399.0 125451.0 217291.0 211476.0 158470.0 0.0 158470.0 158470.0 158470.0 158470.0 158470.0 158470.0 158470.0 158470.0 158470.0 0.0 0.0 0.0 0.0 0.0 0.0 0.0 0.0 0.0
75676.0 80817.0 238506.0 236487.0 85675.0 89876.0 202490.0 198994.0 186539.0 179059.0 143376.0 149722.0 202888.0 198964.0 212006.0 217317.0 142547.0 134468.0 192835.0 192751.0 93760.0 86341.0 164164.0 156343.0 199028.0 191448.0 182518.0 186013.0 100704.0 94275.0 129679.0 129575.0 201470.0 195359.0 183810.0 188460.0 191029.0 195567.0 197841.0 194778.0 160920.0 152851.0 124850.0 121060.0 227928.0 235656.0 68145.0 68493.0 217268.0 211139.0 108273.0 113029.0 89199.0 94711.0 120401.0 115283.0 31579.0 28701.0 130820.0 136565.0 208560.0 206844.0 112154.0 111706.0 170417.0 168223.0 135005.0 142135.0 86491.0 87390.0 195588.0 203707.0 132322.0 140267.0 247775.0 250835.0 120399.0 125451.0 217291.0 211476.0 158470.0 0.0 158470.0 158470.0 158470.0 158470.0 158470.0 158470.0 158470.0 158470.0 158470.0 0.0 0.0 0.0 0.0 0.0 0.0 0.0 0.0 0.0
75676.0 80817.0 238506.0 236487.0 85675.0 89876.0 202490.0 198994.0 186539.0 179059.0 143376.0 149722.0 202888.0 198964.0 212006.0 217317.0 142547.0 134468.0 192835.0 192751.0 93760.0 86341.0 164164.0 156343.0 199028.0 191448.0 182518.0 186013.0 100704.0 94275.0 129679.0 129575.0 201470.0 195359.0 183810.0 188460.0 191029.0 195567.0 197841.0 194778.0 160920.0 152851.0 124850.0 121060.0 227928.0 235656.0 68145.0 68493.0 217268.0 211139.0 108273.0 113029.0 89199.0 94711.0 120401.0 115283.0 31579.0 28701.0 130820.0 136565.0 208560.0 206844.0 112154.0 111706.0 170417.0 168223.0 135005.0 142135.0 86491.0 87390.0 195588.0 203707.0 132322.0 140267.0 247775.0 250835.0 120399.0 125451.0 217291.0 211476.0 158470.0 0.0 158470.0 158470.0 158470.0 158470.0 158470.0 158470.0 158470.0 158470.0 158470.0 0.0 0.0 0.0 0.0 0.0 0.0 0.0 0.0 0.0
75676.0 80817.0 238506.0 236487.0 85675.0 89876.0 202490.0 198994.0 186539.0 179059.0 143376.0 149722.0 202888.0 198964.0 212006.0 217317.0 142547.0 134468.0 192835.0 192751.0 93760.0 86341.0 164164.0 156343.0 199028.0 191448.0 182518.0 186013.0 100704.0 94275.0 129679.0 129575.0 201470.0 195359.0 183810.0 188460.0 191029.0 195567.0 197841.0 194778.0 160920.0 152851.0 124850.0 121060.0 227928.0 235656.0 68145.0 68493.0 217268.0 211139.0 108273.0 113029.0 89199.0 94711.0 120401.0 115283.0 31579.0 28701.0 130820.0 136565.0 208560.0 206844.0 112154.0 111706.0 170417.0 168223.0 135005.0 142135.0 86491.0 87390.0 195588.0 203707.0 132322.0 140267.0 247775.0 250835.0 120399.0 125451.0 217291.0 211476.0 158470.0 0.0 158470.0 158470.0 158470.0 158470.0 158470.0 158470.0 158470.0 158470.0 158470.0 0.0 0.0 0.0 0.0 0.0 0.0 0.0 0.0 0.0
75676.0 80817.0 238506.0 236487.0 85675.0 89876.0 202490.0 198994.0 186539.0 179059.0 143376.0 149722.0 202888.0 198964.0 212006.0 217317.0 142547.0 134468.0 192835.0 192751.0 93760.0 86341.0 164164.0 156343.0 199028.0 191448.0 182518.0 186013.0 100704.0 94275.0 129679.0 129575.0 201470.0 195359.0 183810.0 188460.0 191029.0 195567.0 197841.0 194778.0 160920.0 152851.0 124850.0 121060.0 227928.0 235656.0 68145.0 68493.0 217268.0 211139.0 108273.0 113029.0 89199.0 94711.0 120401.0 115283.0 31579.0 28701.0 130820.0 136565.0 208560.0 206844.0 112154.0 111706.0 170417.0 168223.0 135005.0 142135.0 86491.0 87390.0 195588.0 203707.0 132322.0 140267.0 247775.0 250835.0 120399.0 125451.0 217291.0 211476.0 158470.0 0.0 158470.0 158470.0 158470.0 158470.0 158470.0 158470.0 158470.0 158470.0 158470.0 0.0 0.0 0.0 0.0 0.0 0.0 0.0 0.0 0.0
75676.0 80817.0 238506.0 236487.0 85675.0 89876.0 202490.0 198994.0 186539.0 179059.0 143376.0 149722.0 202888.0 198964.0 212006.0 217317.0 142547.0 134468.0 192835.0 192751.0 93760.0 86341.0 164164.0 156343.0 199028.0 191448.0 182518.0 186013.0 100704.0 94275.0 129679.0 129575.0 201470.0 195359.0 183810.0 188460.0 191029.0 195567.0 197841.0 194778.0 160920.0 152851.0 124850.0 121060.0 227928.0 235656.0 68145.0 68493.0 217268.0 211139.0 108273.0 113029.0 89199.0 94711.0 120401.0 115283.0 31579.0 28701.0 130820.0 136565.0 208560.0 206844.0 112154.0 111706.0 170417.0 168223.0 135005.0 142135.0 86491.0 87390.0 195588.0 203707.0 132322.0 140267.0 247775.0 250835.0 120399.0 125451.0 217291.0 211476.0 158470.0 0.0 158470.0 158470.0 158470.0 158470.0 158470.0 158470.0 158470.0 158470.0 158470.0 0.0 0.0 0.0 0.0 0.0 0.0 0.0 0.0 0.0
75676.0 80817.0 238506.0 236487.0 85675.0 89876.0 202490.0 198994.0 186539.0 179059.0 143376.0 149722.0 202888.0 198964.0 212006.0 217317.0 142547.0 134468.0 192835.0 192751.0 93760.0 86341.0 164164.0 156343.0 199028.0 191448.0 182518.0 186013.0 100704.0 94275.0 129679.0 129575.0 201470.0 195359.0 183810.0 188460.0 191029.0 195567.0 197841.0 194778.0 160920.0 152851.0 124850.0 121060.0 227928.0 235656.0 68145.0 68493.0 217268.0 211139.0 108273.0 113029.0 89199.0 94711.0 120401.0 115283.0 31579.0 28701.0 130820.0 136565.0 208560.0 206844.0 112154.0 111706.0 170417.0 168223.0 135005.0 142135.0 86491.0 87390.0 195588.0 203707.0 132322.0 140267.0 247775.0 250835.0 120399.0 125451.0 217291.0 211476.0 158470.0 0.0 158470.0 158470.0 158470.0 158470.0 158470.0 158470.0 158470.0 158470.0 158470.0 0.0 0.0 0.0 0.0 0.0 0.0 0.0 0.0 0.0
75676.0 80817.0 238506.0 236487.0 85675.0 89876.0 202490.0 198994.0 186539.0 179059.0 143376.0 149722.0 202888.0 198964.0 212006.0 217317.0 142547.0 134468.0 192835.0 192751.0 93760.0 86341.0 164164.0 156343.0 199028.0 191448.0 182518.0 186013.0 100704.0 94275.0 129679.0 129575.0 201470.0 195359.0 183810.0 188460.0 191029.0 195567.0 197841.0 194778.0 160920.0 152851.0 124850.0 121060.0 227928.0 235656.0 68145.0 68493.0 217268.0 211139.0 108273.0 113029.0 89199.0 94711.0 120401.0 115283.0 31579.0 28701.0 130820.0 136565.0 208560.0 206844.0 112154.0 111706.0 170417.0 168223.0 135005.0 142135.0 86491.0 87390.0 195588.0 203707.0 132322.0 140267.0 247775.0 250835.0 120399.0 125451.0 217291.0 211476.0 158470.0 0.0 158470.0 158470.0 158470.0 158470.0 158470.0 158470.0 158470.0 158470.0 158470.0 0.0 0.0 0.0 0.0 0.0 0.0 0.0 0.0 0.0
FIXED_EDGES_SECTION
1 2
3 4
5 6
7 8
9 10
11 12
13 14
15 16
17 18
19 20
21 22
23 24
25 26
27 28
29 30
31 32
33 34
35 36
37 38
39 40
41 42
43 44
45 46
47 48
49 50
51 52
53 54
55 56
57 58
59 60
61 62
63 64
65 66
67 68
69 70
71 72
73 74
75 76
77 78
79 80
-1 
DEMAND_SECTION
1 620
2 620
3 380
4 380
5 130
6 130
7 369
8 369
9 396
10 396
11 394
12 394
13 375
14 375
15 224
16 224
17 171
18 171
19 247
20 247
21 80
22 80
23 421
24 421
25 479
26 479
27 211
28 211
29 421
30 421
31 60
32 60
33 497
34 497
35 292
36 292
37 219
38 219
39 321
40 321
41 293
42 293
43 322
44 322
45 316
46 316
47 319
48 319
49 217
50 217
51 271
52 271
53 158
54 158
55 279
56 279
57 371
58 371
59 89
60 89
61 211
62 211
63 380
64 380
65 491
66 491
67 256
68 256
69 373
70 373
71 247
72 247
73 99
74 99
75 120
76 120
77 90
78 90
79 216
80 216
81 0
82 0
83 0
84 0
85 0
86 0
87 0
88 0
89 0
90 0
91 0
92 0
93 0
94 0
95 0
96 0
97 0
98 0
99 0
100 0
DEPOT_SECTION
81 
-1 
CAPACITIES_SECTION
2500 
2750 
-1 
EOF