NAME: GFS_20_1
TYPE: GFSP
DIMENSION: 98
VEHICLES: 2
CAPACITY: 2500.0
TRIP_DIST_LIMIT: 750000.0
TOTAL_DIST_LIMIT: 2100000.0
EDGE_WEIGHT_TYPE: EXPLICIT
EDGE_WEIGHT_FORMAT: FULL_MATRIX
EDGE_WEIGHT_SECTION
0.0 8254.0 218559.0 226347.0 72976.0 79265.0 227204.0 234506.0 175553.0 171238.0 148048.0 151696.0 195082.0 201772.0 84183.0 88880.0 65278.0 60757.0 100148.0 108088.0 135224.0 133399.0 170124.0 166211.0 141696.0 140643.0 109758.0 116249.0 87342.0 86134.0 124766.0 116863.0 35972.0 32794.0 69414.0 75601.0 220544.0 212700.0 99509.0 97425.0 54841.0 49634.0 166172.0 158334.0 53972.0 54674.0 85566.0 93448.0 102805.0 99926.0 127118.0 125243.0 163403.0 155354.0 127622.0 122860.0 108848.0 113090.0 223938.0 216185.0 307114.0 303039.0 96188.0 95827.0 91479.0 98686.0 203411.0 205701.0 188617.0 187281.0 187618.0 190563.0 74380.0 71185.0 68258.0 60822.0 197394.0 189722.0 16497.0 20413.0 183973.0 166018.0 183973.0 183973.0 183973.0 183973.0 183973.0 183973.0 183973.0 183973.0 166018.0 166018.0 166018.0 166018.0 166018.0 166018.0 166018.0 166018.0
8254.0 0.0 215109.0 222962.0 75410.0 82234.0 225222.0 232632.0 183747.0 179465.0 155635.0 159115.0 203238.0 209953.0 92070.0 96572.0 68230.0 62930.0 107745.0 115722.0 132921.0 130635.0 178200.0 174211.0 140639.0 139125.0 117131.0 123771.0 92359.0 91713.0 133015.0 125108.0 42191.0 37821.0 77373.0 83392.0 217468.0 209568.0 107446.0 105166.0 48827.0 44380.0 163564.0 155658.0 58631.0 58263.0 92926.0 100853.0 106193.0 102753.0 135340.0 133406.0 171649.0 163602.0 128744.0 123956.0 112770.0 116624.0 220394.0 212570.0 304399.0 300148.0 103324.0 102607.0 99419.0 106695.0 211081.0 213249.0 196268.0 195044.0 194874.0 197661.0 72051.0 69705.0 69479.0 62428.0 193941.0 186319.0 21327.0 27019.0 190633.0 166783.0 190633.0 190633.0 190633.0 190633.0 190633.0 190633.0 190633.0 190633.0 166783.0 166783.0 166783.0 166783.0 166783.0 166783.0 166783.0 166783.0
218559.0 215109.0 0.0 8055.0 169036.0 170685.0 42740.0 48387.0 321101.0 322273.0 267978.0 263890.0 332124.0 339942.0 244556.0 240888.0 176805.0 174110.0 243198.0 248064.0 86555.0 86183.0 306670.0 298916.0 92263.0 88054.0 241144.0 248524.0 192060.0 200009.0 291983.0 285267.0 252834.0 251181.0 269950.0 277918.0 10953.0 10620.0 254056.0 246250.0 238281.0 240837.0 55953.0 62682.0 194070.0 186149.0 231274.0 235239.0 167864.0 161482.0 304081.0 307358.0 320269.0 314683.0 128746.0 130505.0 174442.0 168021.0 6004.0 5370.0 92301.0 86816.0 229889.0 222134.0 249977.0 256577.0 307950.0 304453.0 296481.0 300920.0 280150.0 277499.0 276089.0 277330.0 163687.0 170879.0 21170.0 28846.0 235054.0 237730.0 263929.0 110557.0 263929.0 263929.0 263929.0 263929.0 263929.0 263929.0 263929.0 263929.0 110557.0 110557.0 110557.0 110557.0 110557.0 110557.0 110557.0 110557.0
226347.0 222962.0 8055.0 0.0 175983.0 177428.0 40514.0 45112.0 326720.0 328035.0 273373.0 269121.0 337429.0 345230.0 251196.0 247394.0 183843.0 181308.0 249476.0 254209.0 93785.0 93702.0 312146.0 304349.0 98465.0 94622.0 247176.0 254478.0 198427.0 206393.0 298363.0 291721.0 260519.0 258938.0 277206.0 285182.0 10620.0 15330.0 260465.0 252621.0 246331.0 248874.0 62869.0 69855.0 201187.0 193323.0 237776.0 241598.0 173926.0 167707.0 310626.0 314014.0 326201.0 320715.0 134424.0 136370.0 180266.0 173744.0 5370.0 12310.0 84272.0 78762.0 236144.0 228348.0 256517.0 263034.0 312722.0 309225.0 301228.0 305795.0 284922.0 282271.0 284124.0 285347.0 170879.0 178137.0 29054.0 36644.0 242843.0 245451.0 268701.0 114448.0 268701.0 268701.0 268701.0 268701.0 268701.0 268701.0 268701.0 268701.0 114448.0 114448.0 114448.0 114448.0 114448.0 114448.0 114448.0 114448.0
72976.0 75410.0 169036.0 175983.0 0.0 8448.0 167153.0 173636.0 164039.0 163067.0 118222.0 117836.0 179505.0 187251.0 76786.0 74489.0 8792.0 12569.0 79726.0 86389.0 82867.0 85057.0 152558.0 145969.0 79869.0 81903.0 81884.0 90064.0 32741.0 38593.0 125908.0 118577.0 96635.0 98600.0 102623.0 110596.0 168054.0 160961.0 88426.0 81353.0 121781.0 118786.0 113124.0 106441.0 26366.0 20250.0 65233.0 70988.0 32230.0 27523.0 136481.0 139057.0 158794.0 152073.0 56319.0 51753.0 40710.0 42786.0 174940.0 168109.0 249972.0 247113.0 67615.0 61308.0 83023.0 90341.0 170813.0 170256.0 156497.0 158032.0 147649.0 147773.0 147193.0 144160.0 12021.0 14403.0 148945.0 141325.0 86430.0 84839.0 135822.0 95068.0 135822.0 135822.0 135822.0 135822.0 135822.0 135822.0 135822.0 135822.0 95068.0 95068.0 95068.0 95068.0 95068.0 95068.0 95068.0 95068.0
79265.0 82234.0 170685.0 177428.0 8448.0 0.0 166667.0 172911.0 158662.0 158029.0 111612.0 110861.0 173615.0 181404.0 73979.0 70892.0 14016.0 20247.0 75085.0 81334.0 85279.0 88186.0 146712.0 139937.0 80042.0 82873.0 76242.0 84370.0 25870.0 32553.0 122402.0 115298.0 100798.0 103335.0 103470.0 111377.0 169167.0 162274.0 84585.0 77190.0 129247.0 126009.0 114746.0 108408.0 29023.0 24939.0 61401.0 66504.0 24302.0 20676.0 133682.0 136710.0 154164.0 147661.0 52975.0 48677.0 32395.0 34878.0 176634.0 170017.0 249740.0 247139.0 62483.0 55692.0 79746.0 86758.0 163547.0 162785.0 149346.0 151102.0 139970.0 139910.0 153637.0 150323.0 20213.0 22673.0 150966.0 143437.0 91985.0 89815.0 127741.0 91411.0 127741.0 127741.0 127741.0 127741.0 127741.0 127741.0 127741.0 127741.0 91411.0 91411.0 91411.0 91411.0 91411.0 91411.0 91411.0 91411.0
227204.0 225222.0 42740.0 40514.0 167153.0 166667.0 0.0 7987.0 305518.0 307717.0 251387.0 246475.0 314823.0 322552.0 238070.0 233219.0 175696.0 174915.0 233495.0 237185.0 92430.0 95757.0 290320.0 282366.0 87478.0 86958.0 229448.0 236112.0 184000.0 191929.0 282600.0 276606.0 259030.0 258732.0 269759.0 277722.0 31804.0 35399.0 245343.0 237299.0 255483.0 256827.0 63223.0 71170.0 193431.0 186362.0 223701.0 226336.0 157846.0 153007.0 296064.0 300348.0 307008.0 302240.0 117168.0 120294.0 162355.0 155332.0 45194.0 47802.0 83190.0 81170.0 220181.0 212196.0 242490.0 248259.0 289386.0 285889.0 277924.0 282462.0 261586.0 258935.0 291630.0 291735.0 164726.0 172502.0 50080.0 53568.0 243469.0 244795.0 245365.0 88159.0 245365.0 245365.0 245365.0 245365.0 245365.0 245365.0 245365.0 245365.0 88159.0 88159.0 88159.0 88159.0 88159.0 88159.0 88159.0 88159.0
234506.0 232632.0 48387.0 45112.0 173636.0 172911.0 7987.0 0.0 310040.0 312204.0 255872.0 250960.0 319309.0 327037.0 243783.0 238784.0 182231.0 181650.0 238772.0 242277.0 99974.0 103476.0 294806.0 286852.0 94213.0 94047.0 234435.0 240970.0 189663.0 197560.0 287819.0 281940.0 266091.0 265907.0 276176.0 284127.0 37473.0 42028.0 250733.0 242674.0 263268.0 264555.0 71069.0 78996.0 199960.0 193001.0 229304.0 231746.0 163354.0 158755.0 301457.0 305874.0 311585.0 306957.0 122737.0 126028.0 167535.0 160458.0 50118.0 53622.0 77556.0 76123.0 225493.0 217498.0 248058.0 253699.0 293871.0 290374.0 282410.0 286948.0 266072.0 263421.0 299314.0 299357.0 171519.0 179324.0 57474.0 61277.0 250731.0 251948.0 249851.0 92214.0 249851.0 249851.0 249851.0 249851.0 249851.0 249851.0 249851.0 249851.0 92214.0 92214.0 92214.0 92214.0 92214.0 92214.0 92214.0 92214.0
175553.0 183747.0 321101.0 326720.0 164039.0 158662.0 305518.0 310040.0 0.0 8242.0 54425.0 60509.0 20518.0 26335.0 94244.0 92722.0 159747.0 166457.0 84849.0 77725.0 240891.0 245146.0 16455.0 24377.0 229342.0 234678.0 82453.0 74395.0 133354.0 126142.0 52442.0 59691.0 156177.0 164436.0 115135.0 113803.0 317129.0 311440.0 79159.0 84452.0 223491.0 216111.0 266985.0 262028.0 148655.0 156537.0 100549.0 93662.0 154181.0 161382.0 58008.0 64863.0 18091.0 24653.0 192356.0 190707.0 146824.0 153098.0 327087.0 321552.0 387287.0 386158.0 96426.0 102971.0 86652.0 78776.0 56786.0 64557.0 50673.0 43380.0 70345.0 78341.0 219114.0 211435.0 174461.0 170819.0 303435.0 296439.0 171224.0 163290.0 100102.0 218659.0 100102.0 100102.0 100102.0 100102.0 100102.0 100102.0 100102.0 100102.0 218659.0 218659.0 218659.0 218659.0 218659.0 218659.0 218659.0 218659.0
171238.0 179465.0 322273.0 328035.0 163067.0 158029.0 307717.0 312204.0 8242.0 0.0 57625.0 64378.0 27458.0 32119.0 91339.0 90486.0 158392.0 164872.0 83427.0 76720.0 241138.0 245159.0 22272.0 29482.0 230266.0 235386.0 82180.0 74320.0 133065.0 125650.0 46995.0 54607.0 150652.0 158914.0 109301.0 107574.0 318562.0 312728.0 76635.0 82503.0 218235.0 210779.0 267782.0 262632.0 146588.0 154618.0 98753.0 92230.0 154812.0 161801.0 50999.0 57527.0 10159.0 17505.0 193611.0 191773.0 147834.0 154291.0 328269.0 322588.0 389450.0 388321.0 95562.0 102465.0 83818.0 75895.0 64892.0 72585.0 58212.0 51032.0 77313.0 85293.0 212827.0 205087.0 173187.0 169218.0 304308.0 297223.0 166278.0 158320.0 105724.0 220823.0 105724.0 105724.0 105724.0 105724.0 105724.0 105724.0 105724.0 105724.0 220823.0 220823.0 220823.0 220823.0 220823.0 220823.0 220823.0 220823.0
148048.0 155635.0 267978.0 273373.0 118222.0 111612.0 251387.0 255872.0 54425.0 57625.0 0.0 8344.0 64256.0 72112.0 64873.0 59254.0 115739.0 123297.0 47900.0 39985.0 189936.0 194806.0 38935.0 31015.0 176875.0 182645.0 39247.0 31946.0 85746.0 79686.0 56453.0 57390.0 139306.0 147006.0 104918.0 107473.0 263627.0 258150.0 50880.0 50930.0 201255.0 194735.0 214651.0 210118.0 108631.0 115380.0 63060.0 55075.0 102976.0 110671.0 71853.0 79812.0 59467.0 57447.0 139408.0 138133.0 94742.0 100535.0 273941.0 268653.0 333119.0 331990.0 54205.0 58167.0 58454.0 53065.0 55603.0 57676.0 40743.0 40547.0 42429.0 47880.0 206267.0 199477.0 129659.0 127594.0 250862.0 244052.0 148656.0 141367.0 53939.0 164492.0 53939.0 53939.0 53939.0 53939.0 53939.0 53939.0 53939.0 53939.0 164492.0 164492.0 164492.0 164492.0 164492.0 164492.0 164492.0 164492.0
151696.0 159115.0 263890.0 269121.0 117836.0 110861.0 246475.0 250960.0 60509.0 64378.0 8344.0 0.0 68372.0 76137.0 69665.0 63464.0 115961.0 123693.0 51886.0 44309.0 187163.0 192296.0 44455.0 36386.0 173342.0 179346.0 41999.0 35624.0 85127.0 79624.0 64679.0 65362.0 144641.0 152200.0 111412.0 114310.0 259265.0 253953.0 56473.0 55526.0 205417.0 199060.0 211116.0 206825.0 110070.0 116430.0 66194.0 58263.0 100504.0 108389.0 80150.0 88087.0 66916.0 65312.0 135674.0 134655.0 91838.0 97267.0 269832.0 264711.0 328207.0 327078.0 56388.0 59316.0 63704.0 58961.0 53580.0 54486.0 38906.0 40243.0 36608.0 41240.0 211695.0 205043.0 129496.0 127929.0 247137.0 240444.0 153103.0 145976.0 45598.0 159580.0 45598.0 45598.0 45598.0 45598.0 45598.0 45598.0 45598.0 45598.0 159580.0 159580.0 159580.0 159580.0 159580.0 159580.0 159580.0 159580.0
195082.0 203238.0 332124.0 337429.0 179505.0 173615.0 314823.0 319309.0 20518.0 27458.0 64256.0 68372.0 0.0 7871.0 112688.0 110435.0 175819.0 182837.0 101638.0 94068.0 253949.0 258627.0 26955.0 33823.0 241131.0 246876.0 97645.0 89457.0 147917.0 141102.0 72858.0 79962.0 176502.0 184756.0 135585.0 134318.0 327607.0 322238.0 97337.0 101913.0 243654.0 236318.0 278906.0 274342.0 165784.0 173430.0 117641.0 110349.0 166945.0 174489.0 78344.0 84980.0 37569.0 44850.0 203644.0 202389.0 158922.0 164784.0 338077.0 332856.0 396555.0 395427.0 112279.0 118199.0 105084.0 97331.0 46195.0 54476.0 45599.0 38363.0 67073.0 74765.0 239628.0 231952.0 190346.0 187203.0 315110.0 308308.0 191228.0 183316.0 101167.0 227928.0 101167.0 101167.0 101167.0 101167.0 101167.0 101167.0 101167.0 101167.0 227928.0 227928.0 227928.0 227928.0 227928.0 227928.0 227928.0 227928.0
201772.0 209953.0 339942.0 345230.0 187251.0 181404.0 322552.0 327037.0 26335.0 32119.0 72112.0 76137.0 7871.0 0.0 119828.0 117779.0 183496.0 190475.0 109162.0 101654.0 261820.0 266493.0 34698.0 41680.0 248987.0 254740.0 105375.0 97190.0 155725.0 148879.0 78669.0 86004.0 182435.0 190696.0 141259.0 139671.0 335395.0 330045.0 104544.0 109306.0 249812.0 242420.0 286763.0 282208.0 173290.0 180983.0 125126.0 117900.0 174815.0 182357.0 83016.0 89267.0 41865.0 49598.0 211487.0 210245.0 166790.0 172644.0 345893.0 340687.0 404284.0 403155.0 119951.0 125942.0 112221.0 104419.0 50440.0 58687.0 51655.0 44657.0 73172.0 80696.0 244941.0 237205.0 198050.0 194842.0 322958.0 316162.0 197558.0 189625.0 107939.0 235656.0 107939.0 107939.0 107939.0 107939.0 107939.0 107939.0 107939.0 107939.0 235656.0 235656.0 235656.0 235656.0 235656.0 235656.0 235656.0 235656.0
84183.0 92070.0 244556.0 251196.0 76786.0 73979.0 238070.0 243783.0 94244.0 91339.0 64873.0 69665.0 112688.0 119828.0 0.0 7955.0 70406.0 75774.0 18611.0 25426.0 159205.0 161777.0 86775.0 82318.0 153157.0 156573.0 30323.0 34382.0 54132.0 46294.0 49569.0 41969.0 75176.0 82601.0 47343.0 52937.0 242721.0 235980.0 15479.0 14166.0 136530.0 129917.0 188654.0 182384.0 56261.0 64592.0 15137.0 17193.0 80646.0 85062.0 59745.0 62821.0 85254.0 77810.0 121068.0 117783.0 78140.0 85309.0 250519.0 243967.0 321228.0 319120.0 24225.0 30701.0 7607.0 15474.0 119603.0 122397.0 104915.0 103224.0 106261.0 110390.0 142228.0 135748.0 85132.0 79981.0 224938.0 217416.0 83809.0 76494.0 108311.0 155705.0 108311.0 108311.0 108311.0 108311.0 108311.0 108311.0 108311.0 108311.0 155705.0 155705.0 155705.0 155705.0 155705.0 155705.0 155705.0 155705.0
88880.0 96572.0 240888.0 247394.0 74489.0 70892.0 233219.0 238784.0 92722.0 90486.0 59254.0 63464.0 110435.0 117779.0 7955.0 0.0 68787.0 74772.0 11617.0 19277.0 156124.0 159050.0 84025.0 78990.0 149092.0 152835.0 22906.0 27860.0 49307.0 41334.0 51519.0 44449.0 82118.0 89356.0 55298.0 60853.0 238742.0 232131.0 14063.0 8721.0 142053.0 135622.0 185096.0 179024.0 56104.0 64185.0 9620.0 9326.0 75434.0 80371.0 63254.0 67137.0 85159.0 78065.0 116066.0 112972.0 72217.0 79411.0 246869.0 240456.0 316303.0 314349.0 16497.0 23458.0 9274.0 15878.0 114531.0 116929.0 99740.0 98497.0 99940.0 103764.0 149074.0 142731.0 83632.0 79077.0 221522.0 214065.0 89639.0 82540.0 100915.0 149917.0 100915.0 100915.0 100915.0 100915.0 100915.0 100915.0 100915.0 100915.0 149917.0 149917.0 149917.0 149917.0 149917.0 149917.0 149917.0 149917.0
65278.0 68230.0 176805.0 183843.0 8792.0 14016.0 175696.0 182231.0 159747.0 158392.0 115739.0 115961.0 175819.0 183496.0 70406.0 68787.0 0.0 8048.0 74984.0 82040.0 90401.0 92155.0 148871.0 142547.0 88318.0 90093.0 78271.0 86450.0 32049.0 36377.0 119857.0 112361.0 87951.0 90067.0 94173.0 102156.0 176068.0 168894.0 82834.0 76114.0 115443.0 112086.0 120976.0 114138.0 17734.0 11529.0 59845.0 66171.0 38087.0 34649.0 129846.0 132100.0 153699.0 146774.0 65026.0 60489.0 45479.0 48615.0 182681.0 175749.0 258426.0 255492.0 63545.0 57915.0 76975.0 84507.0 169329.0 169196.0 154821.0 155953.0 147117.0 147717.0 139640.0 136381.0 14850.0 12032.0 156546.0 148887.0 78242.0 76383.0 136518.0 103757.0 136518.0 136518.0 136518.0 136518.0 136518.0 136518.0 136518.0 136518.0 103757.0 103757.0 103757.0 103757.0 103757.0 103757.0 103757.0 103757.0
60757.0 62930.0 174110.0 181308.0 12569.0 20247.0 174915.0 181650.0 166457.0 164872.0 123297.0 123693.0 182837.0 190475.0 75774.0 74772.0 8048.0 0.0 81609.0 88866.0 87555.0 88653.0 155912.0 149717.0 87450.0 88513.0 85472.0 93627.0 40087.0 44216.0 125341.0 117709.0 86093.0 87498.0 95941.0 103926.0 173851.0 166522.0 88832.0 82408.0 109230.0 106218.0 118553.0 111459.0 20341.0 12088.0 66132.0 72795.0 44517.0 40089.0 134715.0 136581.0 159901.0 152836.0 67409.0 62718.0 52530.0 55096.0 179928.0 172827.0 257258.0 254093.0 70594.0 65288.0 82618.0 90299.0 177125.0 177079.0 162578.0 163602.0 155087.0 155735.0 134817.0 131921.0 10431.0 4367.0 153591.0 145883.0 74677.0 73582.0 144566.0 106109.0 144566.0 144566.0 144566.0 144566.0 144566.0 144566.0 144566.0 144566.0 106109.0 106109.0 106109.0 106109.0 106109.0 106109.0 106109.0 106109.0
100148.0 107745.0 243198.0 249476.0 79726.0 75085.0 233495.0 238772.0 84849.0 83427.0 47900.0 51886.0 101638.0 109162.0 18611.0 11617.0 74984.0 81609.0 0.0 8061.0 159583.0 163021.0 74879.0 69305.0 151011.0 155278.0 11809.0 16264.0 51243.0 43395.0 49142.0 43214.0 93613.0 100913.0 65017.0 69913.0 240544.0 234163.0 12777.0 5523.0 153563.0 147176.0 187711.0 181971.0 64148.0 71829.0 16095.0 8818.0 75931.0 81777.0 62847.0 67940.0 79115.0 72584.0 116503.0 113794.0 71267.0 78395.0 249197.0 243017.0 316323.0 314659.0 13366.0 21310.0 15059.0 16293.0 103363.0 105558.0 88534.0 87567.0 88331.0 92154.0 160613.0 154219.0 89763.0 85970.0 224272.0 216934.0 101226.0 94151.0 89706.0 148561.0 89706.0 89706.0 89706.0 89706.0 89706.0 89706.0 89706.0 89706.0 148561.0 148561.0 148561.0 148561.0 148561.0 148561.0 148561.0 148561.0
108088.0 115722.0 248064.0 254209.0 86389.0 81334.0 237185.0 242277.0 77725.0 76720.0 39985.0 44309.0 94068.0 101654.0 25426.0 19277.0 82040.0 88866.0 8061.0 0.0 165175.0 168864.0 67220.0 61461.0 155804.0 160346.0 8746.0 9037.0 56726.0 49103.0 45805.0 40876.0 100582.0 108027.0 70073.0 74359.0 245127.0 238882.0 14648.0 11261.0 161324.0 154869.0 192813.0 187258.0 71828.0 79375.0 24024.0 16358.0 80314.0 86607.0 60525.0 66353.0 72989.0 66837.0 120568.0 118096.0 74850.0 81853.0 254068.0 248023.0 319779.0 318295.0 18852.0 26090.0 20182.0 18113.0 95362.0 97661.0 80545.0 79515.0 80874.0 84967.0 167643.0 161126.0 96737.0 93232.0 229400.0 222134.0 108849.0 101677.0 83699.0 151405.0 83699.0 83699.0 83699.0 83699.0 83699.0 83699.0 83699.0 83699.0 151405.0 151405.0 151405.0 151405.0 151405.0 151405.0 151405.0 151405.0
135224.0 132921.0 86555.0 93785.0 82867.0 85279.0 92430.0 99974.0 240891.0 241138.0 189936.0 187163.0 253949.0 261820.0 159205.0 156124.0 90401.0 87555.0 159583.0 165175.0 0.0 8078.0 227557.0 220181.0 22372.0 14598.0 159014.0 166818.0 108461.0 116207.0 207592.0 200559.0 168106.0 167221.0 183423.0 191398.0 86635.0 79135.0 169690.0 162123.0 164080.0 164968.0 31341.0 23940.0 107547.0 99596.0 146585.0 151249.0 87005.0 79547.0 218939.0 221798.0 238115.0 231987.0 54855.0 54180.0 95327.0 90104.0 92381.0 85358.0 172044.0 168231.0 146517.0 139090.0 165022.0 171967.0 235834.0 233136.0 223032.0 226370.0 208913.0 206530.0 199517.0 199418.0 77131.0 84352.0 66146.0 58488.0 151612.0 153429.0 192960.0 64459.0 192960.0 192960.0 192960.0 192960.0 192960.0 192960.0 192960.0 192960.0 64459.0 64459.0 64459.0 64459.0 64459.0 64459.0 64459.0 64459.0
133399.0 130635.0 86183.0 93702.0 85057.0 88186.0 95757.0 103476.0 245146.0 245159.0 194806.0 192296.0 258627.0 266493.0 161777.0 159050.0 92155.0 88653.0 163021.0 168864.0 8078.0 0.0 232095.0 224819.0 30444.0 22661.0 162978.0 170880.0 112166.0 119773.0 210568.0 203396.0 167007.0 165732.0 184096.0 192041.0 87282.0 79539.0 172770.0 165336.0 159855.0 161079.0 32994.0 25041.0 108885.0 100741.0 149583.0 154561.0 91850.0 84155.0 221508.0 224101.0 241853.0 235566.0 61685.0 60636.0 100528.0 95629.0 91854.0 84499.0 173777.0 169640.0 150102.0 142832.0 167816.0 174924.0 241575.0 239063.0 228589.0 231752.0 214895.0 212656.0 195880.0 196078.0 78317.0 85189.0 65290.0 57541.0 149867.0 152087.0 199086.0 72531.0 199086.0 199086.0 199086.0 199086.0 199086.0 199086.0 199086.0 199086.0 72531.0 72531.0 72531.0 72531.0 72531.0 72531.0 72531.0 72531.0
170124.0 178200.0 306670.0 312146.0 152558.0 146712.0 290320.0 294806.0 16455.0 22272.0 38935.0 44455.0 26955.0 34698.0 86775.0 84025.0 148871.0 155912.0 74879.0 67220.0 227557.0 232095.0 0.0 8072.0 215255.0 220820.0 70691.0 62504.0 121056.0 114183.0 52250.0 58162.0 153796.0 161988.0 114012.0 113825.0 302448.0 296901.0 71314.0 75412.0 220059.0 212901.0 252990.0 248251.0 139015.0 146594.0 90935.0 83541.0 140595.0 148026.0 61910.0 69646.0 28947.0 32100.0 177981.0 176533.0 132829.0 138884.0 312643.0 307258.0 372053.0 370924.0 85338.0 91250.0 79211.0 71636.0 46234.0 53171.0 37128.0 30433.0 55234.0 63189.0 218544.0 211082.0 163391.0 160277.0 289324.0 282428.0 167280.0 159457.0 83749.0 203425.0 83749.0 83749.0 83749.0 83749.0 83749.0 83749.0 83749.0 83749.0 203425.0 203425.0 203425.0 203425.0 203425.0 203425.0 203425.0 203425.0
166211.0 174211.0 298916.0 304349.0 145969.0 139937.0 282366.0 286852.0 24377.0 29482.0 31015.0 36386.0 33823.0 41680.0 82318.0 78990.0 142547.0 149717.0 69305.0 61461.0 220181.0 224819.0 8072.0 0.0 207626.0 213265.0 64276.0 56101.0 114186.0 107473.0 52150.0 57200.0 151386.0 159515.0 112427.0 112803.0 294623.0 289116.0 66850.0 70294.0 216970.0 209930.0 245380.0 240714.0 133257.0 140682.0 85400.0 77817.0 133184.0 140693.0 63503.0 71489.0 34833.0 36536.0 170272.0 168890.0 125276.0 131249.0 304884.0 299545.0 364098.0 362970.0 79141.0 84728.0 74848.0 67525.0 44279.0 50408.0 33135.0 27357.0 49326.0 57165.0 216822.0 209482.0 156958.0 154075.0 281670.0 274807.0 164075.0 156330.0 76242.0 195471.0 76242.0 76242.0 76242.0 76242.0 76242.0 76242.0 76242.0 76242.0 195471.0 195471.0 195471.0 195471.0 195471.0 195471.0 195471.0 195471.0
141696.0 140639.0 92263.0 98465.0 79869.0 80042.0 87478.0 94213.0 229342.0 230266.0 176875.0 173342.0 241131.0 248987.0 153157.0 149092.0 88318.0 87450.0 151011.0 155804.0 22372.0 30444.0 215255.0 207626.0 0.0 8049.0 148900.0 156329.0 99995.0 107971.0 199919.0 193334.0 172185.0 172365.0 182475.0 190453.0 89653.0 83154.0 162046.0 154178.0 176440.0 176455.0 37782.0 33908.0 106045.0 98892.0 139474.0 143151.0 75623.0 69247.0 212347.0 215947.0 228072.0 222431.0 37806.0 38742.0 82518.0 76377.0 98267.0 92352.0 170111.0 167264.0 137681.0 129897.0 158262.0 164659.0 219997.0 216769.0 207777.0 211614.0 192467.0 189826.0 210088.0 209201.0 77306.0 85119.0 74095.0 67183.0 157629.0 158346.0 176257.0 42206.0 176257.0 176257.0 176257.0 176257.0 176257.0 176257.0 176257.0 176257.0 42206.0 42206.0 42206.0 42206.0 42206.0 42206.0 42206.0 42206.0
140643.0 139125.0 88054.0 94622.0 81903.0 82873.0 86958.0 94047.0 234678.0 235386.0 182645.0 179346.0 246876.0 254740.0 156573.0 152835.0 90093.0 88513.0 155278.0 160346.0 14598.0 22661.0 220820.0 213265.0 8049.0 0.0 153676.0 161242.0 104074.0 112004.0 203959.0 197216.0 172075.0 171868.0 184179.0 192169.0 86300.0 79422.0 166022.0 158240.0 173250.0 173600.0 32468.0 27481.0 107720.0 100245.0 143221.0 147241.0 80574.0 73775.0 216038.0 219392.0 232922.0 227118.0 44405.0 44768.0 87993.0 82130.0 94037.0 87741.0 168781.0 165583.0 142008.0 134324.0 161931.0 168526.0 226645.0 223570.0 214246.0 217936.0 199278.0 196684.0 207627.0 207038.0 78183.0 85853.0 69056.0 61855.0 156782.0 157902.0 183114.0 49871.0 183114.0 183114.0 183114.0 183114.0 183114.0 183114.0 183114.0 183114.0 49871.0 49871.0 49871.0 49871.0 49871.0 49871.0 49871.0 49871.0
109758.0 117131.0 241144.0 247176.0 81884.0 76242.0 229448.0 234435.0 82453.0 82180.0 39247.0 41999.0 97645.0 105375.0 30323.0 22906.0 78271.0 85472.0 11809.0 8746.0 159014.0 162978.0 70691.0 64276.0 148900.0 153676.0 0.0 8189.0 50932.0 43700.0 54144.0 49496.0 104994.0 112164.0 76770.0 81521.0 237982.0 231847.0 22633.0 17065.0 163727.0 157518.0 186136.0 180761.0 69702.0 76773.0 24205.0 16322.0 73280.0 79914.0 69095.0 75039.0 79250.0 73542.0 113173.0 110874.0 67283.0 74179.0 247148.0 241222.0 311889.0 310503.0 15109.0 20587.0 26677.0 26221.0 94774.0 96343.0 79916.0 79698.0 77938.0 81327.0 171896.0 165604.0 92717.0 89825.0 222718.0 215523.0 111784.0 104900.0 78028.0 143376.0 78028.0 78028.0 78028.0 78028.0 78028.0 78028.0 78028.0 78028.0 143376.0 143376.0 143376.0 143376.0 143376.0 143376.0 143376.0 143376.0
116249.0 123771.0 248524.0 254478.0 90064.0 84370.0 236112.0 240970.0 74395.0 74320.0 31946.0 35624.0 89457.0 97190.0 34382.0 27860.0 86450.0 93627.0 16264.0 9037.0 166818.0 170880.0 62504.0 56101.0 156329.0 161242.0 8189.0 0.0 58959.0 51818.0 49080.0 45373.0 109557.0 116962.0 78919.0 83006.0 245203.0 239151.0 23178.0 20240.0 169806.0 163436.0 193683.0 188406.0 77641.0 84816.0 31124.0 23142.0 80723.0 87542.0 64579.0 71051.0 71745.0 66329.0 120267.0 118114.0 74321.0 81086.0 254528.0 248678.0 318339.0 317078.0 23127.0 28758.0 29196.0 26432.0 87544.0 89479.0 72686.0 72127.0 72083.0 76025.0 176609.0 170121.0 100906.0 97983.0 230250.0 223097.0 117489.0 110398.0 74759.0 149722.0 74759.0 74759.0 74759.0 74759.0 74759.0 74759.0 74759.0 74759.0 149722.0 149722.0 149722.0 149722.0 149722.0 149722.0 149722.0 149722.0
87342.0 92359.0 192060.0 198427.0 32741.0 25870.0 184000.0 189663.0 133354.0 133065.0 85746.0 85127.0 147917.0 155725.0 54132.0 49307.0 32049.0 40087.0 51243.0 56726.0 108461.0 112166.0 121056.0 114186.0 99995.0 104074.0 50932.0 58959.0 0.0 7988.0 99937.0 93353.0 100042.0 104473.0 92144.0 99582.0 189632.0 183131.0 62052.0 54196.0 141106.0 136667.0 136488.0 130730.0 33800.0 36415.0 39735.0 43179.0 26650.0 31064.0 112483.0 116427.0 129704.0 123526.0 66937.0 63712.0 26233.0 32911.0 198055.0 191814.0 267134.0 265099.0 38070.0 30666.0 58556.0 64702.0 138079.0 137607.0 123757.0 125347.0 115228.0 115692.0 160189.0 155722.0 44550.0 44011.0 173038.0 165693.0 96609.0 92422.0 104539.0 102177.0 104539.0 104539.0 104539.0 104539.0 104539.0 104539.0 104539.0 104539.0 102177.0 102177.0 102177.0 102177.0 102177.0 102177.0 102177.0 102177.0
86134.0 91713.0 200009.0 206393.0 38593.0 32553.0 191929.0 197560.0 126142.0 125650.0 79686.0 79624.0 141102.0 148879.0 46294.0 41334.0 36377.0 44216.0 43395.0 49103.0 116207.0 119773.0 114183.0 107473.0 107971.0 112004.0 43700.0 51818.0 7988.0 0.0 91977.0 85370.0 96044.0 100953.0 85580.0 92869.0 197612.0 191100.0 54076.0 46241.0 140536.0 135731.0 144401.0 138593.0 34169.0 38485.0 31778.0 35237.0 34357.0 39039.0 104497.0 108464.0 122087.0 115814.0 74824.0 71653.0 32820.0 39792.0 206003.0 199739.0 275048.0 273041.0 30333.0 23194.0 50591.0 56715.0 132953.0 132864.0 118459.0 119699.0 111025.0 111976.0 157826.0 153038.0 49980.0 48387.0 180939.0 173576.0 94201.0 89480.0 101763.0 109679.0 101763.0 101763.0 101763.0 101763.0 101763.0 101763.0 101763.0 101763.0 109679.0 109679.0 109679.0 109679.0 109679.0 109679.0 109679.0 109679.0
124766.0 133015.0 291983.0 298363.0 125908.0 122402.0 282600.0 287819.0 52442.0 46995.0 56453.0 64679.0 72858.0 78669.0 49569.0 51519.0 119857.0 125341.0 49142.0 45805.0 207592.0 210568.0 52250.0 52150.0 199919.0 203959.0 54144.0 49080.0 99937.0 91977.0 0.0 8042.0 103766.0 112027.0 62735.0 61829.0 289527.0 283065.0 37951.0 45742.0 171251.0 163812.0 236318.0 230371.0 105744.0 114114.0 61013.0 56768.0 125062.0 130763.0 16000.0 23552.0 38659.0 30590.0 165645.0 162921.0 120285.0 127369.0 297975.0 291674.0 365357.0 363756.0 62498.0 70450.0 42906.0 35645.0 96329.0 101994.0 84053.0 79175.0 95298.0 102101.0 166997.0 159406.0 134634.0 129549.0 272813.0 265398.0 119321.0 111358.0 109849.0 197172.0 109849.0 109849.0 109849.0 109849.0 109849.0 109849.0 109849.0 109849.0 197172.0 197172.0 197172.0 197172.0 197172.0 197172.0 197172.0 197172.0
116863.0 125108.0 285267.0 291721.0 118577.0 115298.0 276606.0 281940.0 59691.0 54607.0 57390.0 65362.0 79962.0 86004.0 41969.0 44449.0 112361.0 117709.0 43214.0 40876.0 200559.0 203396.0 58162.0 57200.0 193334.0 197216.0 49496.0 45373.0 93353.0 85370.0 8042.0 0.0 96543.0 104795.0 55964.0 55705.0 282980.0 276441.0 31337.0 39330.0 163809.0 156420.0 229514.0 223470.0 98001.0 106391.0 54032.0 50341.0 118851.0 124315.0 19698.0 25682.0 46542.0 38513.0 159512.0 156663.0 114472.0 121606.0 291253.0 284876.0 359496.0 357775.0 56448.0 64445.0 35581.0 28690.0 100947.0 106200.0 88089.0 83686.0 97822.0 104281.0 160460.0 152957.0 127100.0 121892.0 265960.0 258511.0 111684.0 103730.0 109735.0 191730.0 109735.0 109735.0 109735.0 109735.0 109735.0 109735.0 109735.0 109735.0 191730.0 191730.0 191730.0 191730.0 191730.0 191730.0 191730.0 191730.0
35972.0 42191.0 252834.0 260519.0 96635.0 100798.0 259030.0 266091.0 156177.0 150652.0 139306.0 144641.0 176502.0 182435.0 75176.0 82118.0 87951.0 86093.0 93613.0 100582.0 168106.0 167007.0 153796.0 151386.0 172185.0 172075.0 104994.0 109557.0 100042.0 96044.0 103766.0 96543.0 0.0 8262.0 41764.0 45604.0 254283.0 246542.0 88426.0 89327.0 67926.0 60302.0 199364.0 191670.0 71940.0 76423.0 82809.0 89521.0 121511.0 120796.0 102234.0 98647.0 141754.0 133658.0 152954.0 148375.0 125155.0 130780.0 258328.0 250680.0 340102.0 336334.0 94591.0 97198.0 80952.0 86394.0 192449.0 196077.0 178152.0 175468.0 181242.0 185544.0 67066.0 60613.0 95504.0 87621.0 231716.0 223998.0 21210.0 15586.0 182844.0 191700.0 182844.0 182844.0 182844.0 182844.0 182844.0 182844.0 182844.0 182844.0 191700.0 191700.0 191700.0 191700.0 191700.0 191700.0 191700.0 191700.0
32794.0 37821.0 251181.0 258938.0 98600.0 103335.0 258732.0 265907.0 164436.0 158914.0 147006.0 152200.0 184756.0 190696.0 82601.0 89356.0 90067.0 87498.0 100913.0 108027.0 167221.0 165732.0 161988.0 159515.0 172365.0 171868.0 112164.0 116962.0 104473.0 100953.0 112027.0 104795.0 8262.0 0.0 49967.0 53570.0 252978.0 245171.0 96150.0 96767.0 59746.0 52090.0 198346.0 190568.0 74873.0 78587.0 89557.0 96483.0 124874.0 123651.0 110421.0 106736.0 150008.0 141913.0 154796.0 150148.0 129063.0 134425.0 256595.0 248870.0 339254.0 335314.0 101294.0 103510.0 88579.0 94210.0 200399.0 203936.0 186052.0 183456.0 188808.0 192985.0 59734.0 53630.0 96469.0 88638.0 230025.0 222337.0 16551.0 14039.0 189830.0 193544.0 189830.0 189830.0 189830.0 189830.0 189830.0 189830.0 189830.0 189830.0 193544.0 193544.0 193544.0 193544.0 193544.0 193544.0 193544.0 193544.0
69414.0 77373.0 269950.0 277206.0 102623.0 103470.0 269759.0 276176.0 115135.0 109301.0 104918.0 111412.0 135585.0 141259.0 47343.0 55298.0 94173.0 95941.0 65017.0 70073.0 183423.0 184096.0 114012.0 112427.0 182475.0 184179.0 76770.0 78919.0 92144.0 85580.0 62735.0 55964.0 41764.0 49967.0 0.0 7991.0 269791.0 262457.0 55825.0 59714.0 109690.0 102056.0 214491.0 207352.0 76476.0 84008.0 60450.0 64452.0 117993.0 120110.0 60473.0 57127.0 100209.0 92140.0 155789.0 151765.0 118272.0 125053.0 275735.0 268533.0 352586.0 349661.0 71235.0 76730.0 50134.0 52845.0 155090.0 159523.0 141359.0 137857.0 147339.0 152607.0 104532.0 97095.0 106369.0 99073.0 249298.0 241565.0 59863.0 52068.0 153652.0 193176.0 153652.0 153652.0 153652.0 153652.0 153652.0 153652.0 153652.0 153652.0 193176.0 193176.0 193176.0 193176.0 193176.0 193176.0 193176.0 193176.0
75601.0 83392.0 277918.0 285182.0 110596.0 111377.0 277722.0 284127.0 113803.0 107574.0 107473.0 114310.0 134318.0 139671.0 52937.0 60853.0 102156.0 103926.0 69913.0 74359.0 191398.0 192041.0 113825.0 112803.0 190453.0 192169.0 81521.0 83006.0 99582.0 92869.0 61829.0 55705.0 45604.0 53570.0 7991.0 0.0 277777.0 270439.0 59831.0 64484.0 113183.0 105437.0 222474.0 215328.0 84464.0 91998.0 66703.0 70131.0 125585.0 127847.0 57563.0 53303.0 98168.0 90195.0 163602.0 159605.0 125634.0 132472.0 283700.0 276490.0 360564.0 357647.0 77095.0 82972.0 54870.0 56622.0 156101.0 160879.0 142692.0 138824.0 149768.0 155331.0 105311.0 97646.0 114354.0 107046.0 257255.0 249521.0 64956.0 57375.0 157491.0 200878.0 157491.0 157491.0 157491.0 157491.0 157491.0 157491.0 157491.0 157491.0 200878.0 200878.0 200878.0 200878.0 200878.0 200878.0 200878.0 200878.0
220544.0 217468.0 10953.0 10620.0 168054.0 169167.0 31804.0 37473.0 317129.0 318562.0 263627.0 259265.0 327607.0 335395.0 242721.0 238742.0 176068.0 173851.0 240544.0 245127.0 86635.0 87282.0 302448.0 294623.0 89653.0 86300.0 237982.0 245203.0 189632.0 197612.0 289527.0 282980.0 254283.0 252978.0 269791.0 277777.0 0.0 8032.0 251682.0 243795.0 242582.0 244823.0 55350.0 62761.0 193542.0 185802.0 229123.0 232763.0 164814.0 158777.0 301996.0 305534.0 316882.0 311494.0 124996.0 127110.0 170915.0 164308.0 14001.0 16149.0 87599.0 82828.0 227193.0 219354.0 247903.0 254310.0 302650.0 299153.0 291188.0 295721.0 274850.0 272199.0 280033.0 280979.0 163424.0 170813.0 25501.0 32199.0 237032.0 239363.0 258629.0 104040.0 258629.0 258629.0 258629.0 258629.0 258629.0 258629.0 258629.0 258629.0 104040.0 104040.0 104040.0 104040.0 104040.0 104040.0 104040.0 104040.0
212700.0 209568.0 10620.0 15330.0 160961.0 162274.0 35399.0 42028.0 311440.0 312728.0 258150.0 253953.0 322238.0 330045.0 235980.0 232131.0 168894.0 166522.0 234163.0 238882.0 79135.0 79539.0 296901.0 289116.0 83154.0 79422.0 231847.0 239151.0 183131.0 191100.0 283065.0 276441.0 246542.0 245171.0 262457.0 270439.0 8032.0 0.0 245175.0 237323.0 234550.0 236794.0 47970.0 55209.0 186305.0 178505.0 222512.0 226298.0 158597.0 152390.0 295371.0 298801.0 310876.0 305386.0 119121.0 121045.0 164947.0 158438.0 16149.0 14001.0 95627.0 90817.0 220828.0 213027.0 241264.0 247756.0 297740.0 294243.0 286282.0 290784.0 269940.0 267289.0 272006.0 272963.0 156091.0 163424.0 17690.0 24186.0 229192.0 231584.0 253719.0 100037.0 253719.0 253719.0 253719.0 253719.0 253719.0 253719.0 253719.0 253719.0 100037.0 100037.0 100037.0 100037.0 100037.0 100037.0 100037.0 100037.0
99509.0 107446.0 254056.0 260465.0 88426.0 84585.0 245343.0 250733.0 79159.0 76635.0 50880.0 56473.0 97337.0 104544.0 15479.0 14063.0 82834.0 88832.0 12777.0 14648.0 169690.0 172770.0 71314.0 66850.0 162046.0 166022.0 22633.0 23178.0 62052.0 54076.0 37951.0 31337.0 88426.0 96150.0 55825.0 59831.0 251682.0 245175.0 0.0 8076.0 151364.0 144613.0 198370.0 192423.0 70046.0 78182.0 23219.0 19016.0 87541.0 92983.0 50726.0 55447.0 71128.0 64004.0 128214.0 125335.0 83405.0 90572.0 260046.0 253728.0 328289.0 326511.0 25396.0 33373.0 8031.0 3612.0 104796.0 107931.0 90224.0 88209.0 92975.0 97654.0 155398.0 148650.0 97681.0 93134.0 234863.0 227449.0 98495.0 91005.0 97835.0 160920.0 97835.0 97835.0 97835.0 97835.0 97835.0 97835.0 97835.0 97835.0 160920.0 160920.0 160920.0 160920.0 160920.0 160920.0 160920.0 160920.0
97425.0 105166.0 246250.0 252621.0 81353.0 77190.0 237299.0 242674.0 84452.0 82503.0 50930.0 55526.0 101913.0 109306.0 14166.0 8721.0 76114.0 82408.0 5523.0 11261.0 162123.0 165336.0 75412.0 70294.0 154178.0 158240.0 17065.0 20240.0 54196.0 46241.0 45742.0 39330.0 89327.0 96767.0 59714.0 64484.0 243795.0 237323.0 8076.0 0.0 150330.0 143809.0 190621.0 184741.0 64206.0 72146.0 16283.0 11034.0 79521.0 85051.0 58783.0 63513.0 77586.0 70733.0 120185.0 117337.0 75329.0 82496.0 252244.0 245968.0 320230.0 318468.0 17331.0 25299.0 9617.0 11317.0 106012.0 108563.0 91250.0 89878.0 92111.0 96226.0 156386.0 149882.0 90957.0 86745.0 227140.0 219751.0 97745.0 90515.0 94554.0 152851.0 94554.0 94554.0 94554.0 94554.0 94554.0 94554.0 94554.0 94554.0 152851.0 152851.0 152851.0 152851.0 152851.0 152851.0 152851.0 152851.0
54841.0 48827.0 238281.0 246331.0 121781.0 129247.0 255483.0 263268.0 223491.0 218235.0 201255.0 205417.0 243654.0 249812.0 136530.0 142053.0 115443.0 109230.0 153563.0 161324.0 164080.0 159855.0 220059.0 216970.0 176440.0 173250.0 163727.0 169806.0 141106.0 140536.0 171251.0 163809.0 67926.0 59746.0 109690.0 113183.0 242582.0 234550.0 151364.0 150330.0 0.0 7871.0 192297.0 184326.0 107323.0 106292.0 139668.0 147417.0 153507.0 149296.0 170158.0 166440.0 209504.0 201395.0 171445.0 166682.0 160679.0 164054.0 242937.0 234884.0 330138.0 325019.0 150615.0 150581.0 143411.0 150016.0 256106.0 258887.0 241443.0 239571.0 241660.0 244893.0 38714.0 42115.0 113959.0 107864.0 217594.0 210437.0 52931.0 60640.0 238750.0 207941.0 238750.0 238750.0 238750.0 238750.0 238750.0 238750.0 238750.0 238750.0 207941.0 207941.0 207941.0 207941.0 207941.0 207941.0 207941.0 207941.0
49634.0 44380.0 240837.0 248874.0 118786.0 126009.0 256827.0 264555.0 216111.0 210779.0 194735.0 199060.0 236318.0 242420.0 129917.0 135622.0 112086.0 106218.0 147176.0 154869.0 164968.0 161079.0 212901.0 209930.0 176455.0 173600.0 157518.0 163436.0 136667.0 135731.0 163812.0 156420.0 60302.0 52090.0 102056.0 105437.0 244823.0 236794.0 144613.0 143809.0 7871.0 0.0 193754.0 185764.0 102992.0 102502.0 133561.0 141237.0 150165.0 146296.0 162508.0 158716.0 201988.0 193883.0 169775.0 164992.0 157013.0 160663.0 245607.0 237572.0 332421.0 327445.0 144657.0 144910.0 136695.0 143176.0 249402.0 252313.0 234782.0 232786.0 235405.0 238786.0 35253.0 37323.0 111560.0 105139.0 220014.0 212758.0 46124.0 53669.0 233058.0 206777.0 233058.0 233058.0 233058.0 233058.0 233058.0 233058.0 233058.0 233058.0 206777.0 206777.0 206777.0 206777.0 206777.0 206777.0 206777.0 206777.0
166172.0 163564.0 55953.0 62869.0 113124.0 114746.0 63223.0 71069.0 266985.0 267782.0 214651.0 211116.0 278906.0 286763.0 188654.0 185096.0 120976.0 118553.0 187711.0 192813.0 31341.0 32994.0 252990.0 245380.0 37782.0 32468.0 186136.0 193683.0 136488.0 144401.0 236318.0 229514.0 199364.0 198346.0 214491.0 222474.0 55350.0 47970.0 198370.0 190621.0 192297.0 193754.0 0.0 7996.0 138349.0 130535.0 175491.0 179635.0 112984.0 106241.0 248236.0 251439.0 265378.0 259586.0 75497.0 76519.0 120192.0 114135.0 61891.0 55362.0 140943.0 136986.0 174455.0 166785.0 194150.0 200832.0 257380.0 253956.0 245337.0 249274.0 229658.0 227021.0 228667.0 228982.0 108123.0 115476.0 36588.0 29453.0 182610.0 184607.0 213451.0 68145.0 213451.0 213451.0 213451.0 213451.0 213451.0 213451.0 213451.0 213451.0 68145.0 68145.0 68145.0 68145.0 68145.0 68145.0 68145.0 68145.0
158334.0 155658.0 62682.0 69855.0 106441.0 108408.0 71170.0 78996.0 262028.0 262632.0 210118.0 206825.0 274342.0 282208.0 182384.0 179024.0 114138.0 111459.0 181971.0 187258.0 23940.0 25041.0 248251.0 240714.0 33908.0 27481.0 180761.0 188406.0 130730.0 138593.0 230371.0 223470.0 191670.0 190568.0 207352.0 215328.0 62761.0 55209.0 192423.0 184741.0 184326.0 185764.0 7996.0 0.0 131388.0 123484.0 169440.0 173790.0 107858.0 100865.0 242054.0 245105.0 260004.0 254085.0 71629.0 72212.0 115438.0 109611.0 68544.0 61675.0 148788.0 144746.0 168775.0 161186.0 188019.0 194812.0 253883.0 250677.0 241596.0 245351.0 226375.0 223734.0 220673.0 220989.0 101031.0 108285.0 42561.0 35043.0 174784.0 176859.0 210164.0 68493.0 210164.0 210164.0 210164.0 210164.0 210164.0 210164.0 210164.0 210164.0 68493.0 68493.0 68493.0 68493.0 68493.0 68493.0 68493.0 68493.0
53972.0 58631.0 194070.0 201187.0 26366.0 29023.0 193431.0 199960.0 148655.0 146588.0 108631.0 110070.0 165784.0 173290.0 56261.0 56104.0 17734.0 20341.0 64148.0 71828.0 107547.0 108885.0 139015.0 133257.0 106045.0 107720.0 69702.0 77641.0 33800.0 34169.0 105744.0 98001.0 71940.0 74873.0 76476.0 84464.0 193542.0 186305.0 70046.0 64206.0 107323.0 102992.0 138349.0 131388.0 0.0 8440.0 48172.0 55480.0 50112.0 48867.0 114638.0 116337.0 141138.0 133875.0 81847.0 77441.0 55182.0 59959.0 199917.0 192891.0 276147.0 273187.0 54593.0 50755.0 63375.0 71199.0 163620.0 164328.0 148853.0 149178.0 143507.0 145055.0 127739.0 123775.0 30572.0 24220.0 173664.0 165974.0 64720.0 61697.0 135648.0 120401.0 135648.0 135648.0 135648.0 135648.0 135648.0 135648.0 135648.0 135648.0 120401.0 120401.0 120401.0 120401.0 120401.0 120401.0 120401.0 120401.0
54674.0 58263.0 186149.0 193323.0 20250.0 24939.0 186362.0 193001.0 156537.0 154618.0 115380.0 116430.0 173430.0 180983.0 64592.0 64185.0 11529.0 12088.0 71829.0 79375.0 99596.0 100741.0 146594.0 140682.0 98892.0 100245.0 76773.0 84816.0 36415.0 38485.0 114114.0 106391.0 76423.0 78587.0 84008.0 91998.0 185802.0 178505.0 78182.0 72146.0 106292.0 102502.0 130535.0 123484.0 8440.0 0.0 55988.0 63084.0 48132.0 45562.0 123078.0 124765.0 149306.0 142095.0 76547.0 71997.0 54517.0 58454.0 191976.0 184893.0 268889.0 265813.0 61692.0 57244.0 71640.0 79430.0 170008.0 170436.0 155308.0 155891.0 149145.0 150348.0 129024.0 125532.0 22472.0 15813.0 165658.0 157953.0 67050.0 64957.0 140215.0 115283.0 140215.0 140215.0 140215.0 140215.0 140215.0 140215.0 140215.0 140215.0 115283.0 115283.0 115283.0 115283.0 115283.0 115283.0 115283.0 115283.0
85566.0 92926.0 231274.0 237776.0 65233.0 61401.0 223701.0 229304.0 100549.0 98753.0 63060.0 66194.0 117641.0 125126.0 15137.0 9620.0 59845.0 66132.0 16095.0 24024.0 146585.0 149583.0 90935.0 85400.0 139474.0 143221.0 24205.0 31124.0 39735.0 31778.0 61013.0 54032.0 82809.0 89557.0 60450.0 66703.0 229123.0 222512.0 23219.0 16283.0 139668.0 133561.0 175491.0 169440.0 48172.0 55988.0 0.0 7986.0 65984.0 70797.0 72873.0 76692.0 93857.0 86950.0 106570.0 103431.0 63105.0 70287.0 237256.0 230852.0 306807.0 304818.0 11794.0 16286.0 18826.0 25384.0 118662.0 120459.0 103803.0 103185.0 102072.0 105235.0 149182.0 143183.0 74692.0 70472.0 211928.0 204479.0 88060.0 81409.0 100394.0 140747.0 100394.0 100394.0 100394.0 100394.0 100394.0 100394.0 100394.0 100394.0 140747.0 140747.0 140747.0 140747.0 140747.0 140747.0 140747.0 140747.0
93448.0 100853.0 235239.0 241598.0 70988.0 66504.0 226336.0 231746.0 93662.0 92230.0 55075.0 58263.0 110349.0 117900.0 17193.0 9326.0 66171.0 72795.0 8818.0 16358.0 151249.0 154561.0 83541.0 77817.0 143151.0 147241.0 16322.0 23142.0 43179.0 35237.0 56768.0 50341.0 89521.0 96483.0 64452.0 70131.0 232763.0 226298.0 19016.0 11034.0 147417.0 141237.0 179635.0 173790.0 55480.0 63084.0 7986.0 0.0 68525.0 74017.0 69729.0 74262.0 87811.0 81178.0 109200.0 106323.0 64538.0 71722.0 241234.0 234975.0 309299.0 307503.0 7257.0 14765.0 17468.0 21973.0 110677.0 112486.0 95817.0 95228.0 94257.0 97560.0 156194.0 150053.0 80957.0 77156.0 216166.0 208789.0 95582.0 88793.0 93350.0 142168.0 93350.0 93350.0 93350.0 93350.0 93350.0 93350.0 93350.0 93350.0 142168.0 142168.0 142168.0 142168.0 142168.0 142168.0 142168.0 142168.0
102805.0 106193.0 167864.0 173926.0 32230.0 24302.0 157846.0 163354.0 154181.0 154812.0 102976.0 100504.0 166945.0 174815.0 80646.0 75434.0 38087.0 44517.0 75931.0 80314.0 87005.0 91850.0 140595.0 133184.0 75623.0 80574.0 73280.0 80723.0 26650.0 34357.0 125062.0 118851.0 121511.0 124874.0 117993.0 125585.0 164814.0 158597.0 87541.0 79521.0 153507.0 150165.0 112984.0 107858.0 50112.0 48132.0 65984.0 68525.0 0.0 8186.0 138241.0 142525.0 152456.0 146820.0 40683.0 37864.0 10000.0 10579.0 173868.0 167962.0 240884.0 239004.0 62567.0 54647.0 84707.0 90419.0 150850.0 149022.0 137397.0 140207.0 125275.0 124074.0 177137.0 173522.0 42562.0 46622.0 149537.0 142416.0 114685.0 111805.0 110802.0 75595.0 110802.0 110802.0 110802.0 110802.0 110802.0 110802.0 110802.0 110802.0 75595.0 75595.0 75595.0 75595.0 75595.0 75595.0 75595.0 75595.0
99926.0 102753.0 161482.0 167707.0 27523.0 20676.0 153007.0 158755.0 161382.0 161801.0 110671.0 108389.0 174489.0 182357.0 85062.0 80371.0 34649.0 40089.0 81777.0 86607.0 79547.0 84155.0 148026.0 140693.0 69247.0 73775.0 79914.0 87542.0 31064.0 39039.0 130763.0 124315.0 120796.0 123651.0 120110.0 127847.0 158777.0 152390.0 92983.0 85051.0 149296.0 146296.0 106241.0 100865.0 48867.0 45562.0 70797.0 74017.0 8186.0 0.0 143519.0 147488.0 159164.0 153346.0 36197.0 32729.0 18084.0 16824.0 167484.0 161417.0 236169.0 234072.0 68438.0 60653.0 89620.0 95708.0 158966.0 157183.0 145461.0 148193.0 133454.0 132259.0 174288.0 170998.0 36584.0 41578.0 142829.0 135613.0 112606.0 110262.0 118974.0 73098.0 118974.0 118974.0 118974.0 118974.0 118974.0 118974.0 118974.0 118974.0 73098.0 73098.0 73098.0 73098.0 73098.0 73098.0 73098.0 73098.0
127118.0 135340.0 304081.0 310626.0 136481.0 133682.0 296064.0 301457.0 58008.0 50999.0 71853.0 80150.0 78344.0 83016.0 59745.0 63254.0 129846.0 134715.0 62847.0 60525.0 218939.0 221508.0 61910.0 63503.0 212347.0 216038.0 69095.0 64579.0 112483.0 104497.0 16000.0 19698.0 102234.0 110421.0 60473.0 57563.0 301996.0 295371.0 50726.0 58783.0 170158.0 162508.0 248236.0 242054.0 114638.0 123078.0 72873.0 69729.0 138241.0 143519.0 0.0 8154.0 41161.0 33508.0 178922.0 175992.0 134060.0 141209.0 310056.0 303581.0 379013.0 377232.0 76012.0 84010.0 54109.0 47835.0 107640.0 113908.0 96383.0 90860.0 109301.0 116384.0 162315.0 154493.0 144416.0 138787.0 284592.0 277094.0 119700.0 111766.0 125530.0 211398.0 125530.0 125530.0 125530.0 125530.0 125530.0 125530.0 125530.0 125530.0 211398.0 211398.0 211398.0 211398.0 211398.0 211398.0 211398.0 211398.0
125243.0 133406.0 307358.0 314014.0 139057.0 136710.0 300348.0 305874.0 64863.0 57527.0 79812.0 88087.0 84980.0 89267.0 62821.0 67137.0 132100.0 136581.0 67940.0 66353.0 221798.0 224101.0 69646.0 71489.0 215947.0 219392.0 75039.0 71051.0 116427.0 108464.0 23552.0 25682.0 98647.0 106736.0 57127.0 53303.0 305534.0 298801.0 55447.0 63513.0 166440.0 158716.0 251439.0 245105.0 116337.0 124765.0 76692.0 74262.0 142525.0 147488.0 8154.0 0.0 47481.0 40213.0 183185.0 180109.0 138795.0 145974.0 313317.0 306727.0 383409.0 381485.0 80842.0 88809.0 57874.0 52298.0 115542.0 121896.0 104437.0 98839.0 117454.0 124532.0 157036.0 149137.0 146482.0 140555.0 287666.0 280117.0 116899.0 109034.0 133371.0 216364.0 133371.0 133371.0 133371.0 133371.0 133371.0 133371.0 133371.0 133371.0 216364.0 216364.0 216364.0 216364.0 216364.0 216364.0 216364.0 216364.0
163403.0 171649.0 320269.0 326201.0 158794.0 154164.0 307008.0 311585.0 18091.0 10159.0 59467.0 66916.0 37569.0 41865.0 85254.0 85159.0 153699.0 159901.0 79115.0 72989.0 238115.0 241853.0 28947.0 34833.0 228072.0 232922.0 79250.0 71745.0 129704.0 122087.0 38659.0 46542.0 141754.0 150008.0 100209.0 98168.0 316882.0 310876.0 71128.0 77586.0 209504.0 201988.0 265378.0 260004.0 141138.0 149306.0 93857.0 87811.0 152456.0 159164.0 41161.0 47481.0 0.0 8114.0 191897.0 189831.0 145967.0 152621.0 326272.0 320418.0 388646.0 387691.0 91778.0 99042.0 77878.0 69988.0 73793.0 81253.0 65974.0 59056.0 83978.0 91881.0 203301.0 195522.0 168542.0 164218.0 301956.0 294772.0 157865.0 149896.0 110171.0 220209.0 110171.0 110171.0 110171.0 110171.0 110171.0 110171.0 110171.0 110171.0 220209.0 220209.0 220209.0 220209.0 220209.0 220209.0 220209.0 220209.0
155354.0 163602.0 314683.0 320715.0 152073.0 147661.0 302240.0 306957.0 24653.0 17505.0 57447.0 65312.0 44850.0 49598.0 77810.0 78065.0 146774.0 152836.0 72584.0 66837.0 231987.0 235566.0 32100.0 36536.0 222431.0 227118.0 73542.0 66329.0 123526.0 115814.0 30590.0 38513.0 133658.0 141913.0 92140.0 90195.0 311494.0 305386.0 64004.0 70733.0 201395.0 193883.0 259586.0 254085.0 133875.0 142095.0 86950.0 81178.0 146820.0 153346.0 33508.0 40213.0 8114.0 0.0 186591.0 184386.0 140647.0 147410.0 320687.0 314733.0 384174.0 383080.0 85483.0 92925.0 70521.0 62676.0 78121.0 85237.0 69071.0 62522.0 85778.0 93542.0 195395.0 187637.0 161624.0 157135.0 296174.0 288935.0 149754.0 141784.0 109736.0 215591.0 109736.0 109736.0 109736.0 109736.0 109736.0 109736.0 109736.0 109736.0 215591.0 215591.0 215591.0 215591.0 215591.0 215591.0 215591.0 215591.0
127622.0 128744.0 128746.0 134424.0 56319.0 52975.0 117168.0 122737.0 192356.0 193611.0 139408.0 135674.0 203644.0 211487.0 121068.0 116066.0 65026.0 67409.0 116503.0 120568.0 54855.0 61685.0 177981.0 170272.0 37806.0 44405.0 113173.0 120267.0 66937.0 74824.0 165645.0 159512.0 152954.0 154796.0 155789.0 163602.0 124996.0 119121.0 128214.0 120185.0 171445.0 169775.0 75497.0 71629.0 81847.0 76547.0 106570.0 109200.0 40683.0 36197.0 178922.0 183185.0 191897.0 186591.0 0.0 4794.0 45947.0 39322.0 134732.0 129278.0 200238.0 198322.0 103153.0 95194.0 125339.0 131102.0 182271.0 179165.0 169980.0 173811.0 154874.0 152289.0 200702.0 198402.0 59382.0 66838.0 111481.0 104773.0 142036.0 140941.0 138719.0 38758.0 138719.0 138719.0 138719.0 138719.0 138719.0 138719.0 138719.0 138719.0 38758.0 38758.0 38758.0 38758.0 38758.0 38758.0 38758.0 38758.0
122860.0 123956.0 130505.0 136370.0 51753.0 48677.0 120294.0 126028.0 190707.0 191773.0 138133.0 134655.0 202389.0 210245.0 117783.0 112972.0 60489.0 62718.0 113794.0 118096.0 54180.0 60636.0 176533.0 168890.0 38742.0 44768.0 110874.0 118114.0 63712.0 71653.0 162921.0 156663.0 148375.0 150148.0 151765.0 159605.0 127110.0 121045.0 125335.0 117337.0 166682.0 164992.0 76519.0 72212.0 77441.0 71997.0 103431.0 106323.0 37864.0 32729.0 175992.0 180109.0 189831.0 184386.0 4794.0 0.0 43938.0 37650.0 136503.0 130851.0 203445.0 201389.0 100430.0 92510.0 122237.0 128157.0 182031.0 179130.0 169517.0 173169.0 154871.0 152402.0 195910.0 193618.0 54612.0 62091.0 112791.0 105924.0 137316.0 136275.0 138832.0 43398.0 138832.0 138832.0 138832.0 138832.0 138832.0 138832.0 138832.0 138832.0 43398.0 43398.0 43398.0 43398.0 43398.0 43398.0 43398.0 43398.0
108848.0 112770.0 174442.0 180266.0 40710.0 32395.0 162355.0 167535.0 146824.0 147834.0 94742.0 91838.0 158922.0 166790.0 78140.0 72217.0 45479.0 52530.0 71267.0 74850.0 95327.0 100528.0 132829.0 125276.0 82518.0 87993.0 67283.0 74321.0 26233.0 32820.0 120285.0 114472.0 125155.0 129063.0 118272.0 125634.0 170915.0 164947.0 83405.0 75329.0 160679.0 157013.0 120192.0 115438.0 55182.0 54517.0 63105.0 64538.0 10000.0 18084.0 134060.0 138795.0 145967.0 140647.0 45947.0 43938.0 0.0 7195.0 180439.0 174773.0 245077.0 243490.0 58050.0 50053.0 81416.0 86497.0 141490.0 139481.0 128212.0 131236.0 115629.0 114275.0 182898.0 178949.0 51677.0 55059.0 156612.0 149642.0 119845.0 116413.0 100929.0 77703.0 100929.0 100929.0 100929.0 100929.0 100929.0 100929.0 100929.0 100929.0 77703.0 77703.0 77703.0 77703.0 77703.0 77703.0 77703.0 77703.0
113090.0 116624.0 168021.0 173744.0 42786.0 34878.0 155332.0 160458.0 153098.0 154291.0 100535.0 97267.0 164784.0 172644.0 85309.0 79411.0 48615.0 55096.0 78395.0 81853.0 90104.0 95629.0 138884.0 131249.0 76377.0 82130.0 74179.0 81086.0 32911.0 39792.0 127369.0 121606.0 130780.0 134425.0 125053.0 132472.0 164308.0 158438.0 90572.0 82496.0 164054.0 160663.0 114135.0 109611.0 59959.0 58454.0 70287.0 71722.0 10579.0 16824.0 141209.0 145974.0 152621.0 147410.0 39322.0 37650.0 7195.0 0.0 174012.0 168457.0 237989.0 236447.0 65205.0 57210.0 88611.0 93676.0 145972.0 143640.0 132974.0 136267.0 119599.0 117834.0 187361.0 183628.0 52894.0 57166.0 150441.0 143558.0 124664.0 121545.0 104309.0 70508.0 104309.0 104309.0 104309.0 104309.0 104309.0 104309.0 104309.0 104309.0 70508.0 70508.0 70508.0 70508.0 70508.0 70508.0 70508.0 70508.0
223938.0 220394.0 6004.0 5370.0 174940.0 176634.0 45194.0 50118.0 327087.0 328269.0 273941.0 269832.0 338077.0 345893.0 250519.0 246869.0 182681.0 179928.0 249197.0 254068.0 92381.0 91854.0 312643.0 304884.0 98267.0 94037.0 247148.0 254528.0 198055.0 206003.0 297975.0 291253.0 258328.0 256595.0 275735.0 283700.0 14001.0 16149.0 260046.0 252244.0 242937.0 245607.0 61891.0 68544.0 199917.0 191976.0 237256.0 241234.0 173868.0 167484.0 310056.0 313317.0 326272.0 320687.0 134732.0 136503.0 180439.0 174012.0 0.0 8065.0 88254.0 82487.0 235889.0 228136.0 255954.0 262563.0 313803.0 310306.0 302341.0 306805.0 286003.0 283353.0 280860.0 282204.0 169509.0 176671.0 26625.0 34366.0 240429.0 243186.0 269783.0 116178.0 269783.0 269783.0 269783.0 269783.0 269783.0 269783.0 269783.0 269783.0 116178.0 116178.0 116178.0 116178.0 116178.0 116178.0 116178.0 116178.0
216185.0 212570.0 5370.0 12310.0 168109.0 170017.0 47802.0 53622.0 321552.0 322588.0 268653.0 264711.0 332856.0 340687.0 243967.0 240456.0 175749.0 172827.0 243017.0 248023.0 85358.0 84499.0 307258.0 299545.0 92352.0 87741.0 241222.0 248678.0 191814.0 199739.0 291674.0 284876.0 250680.0 248870.0 268533.0 276490.0 16149.0 14001.0 253728.0 245968.0 234884.0 237572.0 55362.0 61675.0 192891.0 184893.0 230852.0 234975.0 167962.0 161417.0 303581.0 306727.0 320418.0 314733.0 129278.0 130851.0 174773.0 168457.0 8065.0 0.0 96259.0 90537.0 229740.0 222033.0 249503.0 256193.0 309216.0 305719.0 297696.0 302030.0 281416.0 278765.0 272824.0 274191.0 162421.0 169509.0 19238.0 26969.0 232672.0 235502.0 265195.0 112592.0 265195.0 265195.0 265195.0 265195.0 265195.0 265195.0 265195.0 265195.0 112592.0 112592.0 112592.0 112592.0 112592.0 112592.0 112592.0 112592.0
307114.0 304399.0 92301.0 84272.0 249972.0 249740.0 83190.0 77556.0 387287.0 389450.0 333119.0 328207.0 396555.0 404284.0 321228.0 316303.0 258426.0 257258.0 316323.0 319779.0 172044.0 173777.0 372053.0 364098.0 170111.0 168781.0 311889.0 318339.0 267134.0 275048.0 365357.0 359496.0 340102.0 339254.0 352586.0 360564.0 87599.0 95627.0 328289.0 320230.0 330138.0 332421.0 140943.0 148788.0 276147.0 268889.0 306807.0 309299.0 240884.0 236169.0 379013.0 383409.0 388646.0 384174.0 200238.0 203445.0 245077.0 237989.0 88254.0 96259.0 0.0 8049.0 303048.0 295053.0 325576.0 331249.0 371118.0 367621.0 359656.0 364195.0 343318.0 340667.0 367632.0 368548.0 246955.0 254633.0 112594.0 119702.0 323553.0 325472.0 327097.0 170417.0 327097.0 327097.0 327097.0 327097.0 327097.0 327097.0 327097.0 327097.0 170417.0 170417.0 170417.0 170417.0 170417.0 170417.0 170417.0 170417.0
303039.0 300148.0 86816.0 78762.0 247113.0 247139.0 81170.0 76123.0 386158.0 388321.0 331990.0 327078.0 395427.0 403155.0 319120.0 314349.0 255492.0 254093.0 314659.0 318295.0 168231.0 169640.0 370924.0 362970.0 167264.0 165583.0 310503.0 317078.0 265099.0 273041.0 363756.0 357775.0 336334.0 335314.0 349661.0 357647.0 82828.0 90817.0 326511.0 318468.0 325019.0 327445.0 136986.0 144746.0 273187.0 265813.0 304818.0 307503.0 239004.0 234072.0 377232.0 381485.0 387691.0 383080.0 198322.0 201389.0 243490.0 236447.0 82487.0 90537.0 8049.0 0.0 301348.0 293362.0 323618.0 329422.0 369989.0 366492.0 358528.0 363066.0 342189.0 339538.0 362682.0 363738.0 243747.0 251368.0 107439.0 114706.0 319505.0 321592.0 325969.0 168223.0 325969.0 325969.0 325969.0 325969.0 325969.0 325969.0 325969.0 325969.0 168223.0 168223.0 168223.0 168223.0 168223.0 168223.0 168223.0 168223.0
96188.0 103324.0 229889.0 236144.0 67615.0 62483.0 220181.0 225493.0 96426.0 95562.0 54205.0 56388.0 112279.0 119951.0 24225.0 16497.0 63545.0 70594.0 13366.0 18852.0 146517.0 150102.0 85338.0 79141.0 137681.0 142008.0 15109.0 23127.0 38070.0 30333.0 62498.0 56448.0 94591.0 101294.0 71235.0 77095.0 227193.0 220828.0 25396.0 17331.0 150615.0 144657.0 174455.0 168775.0 54593.0 61692.0 11794.0 7257.0 62567.0 68438.0 76012.0 80842.0 91778.0 85483.0 103153.0 100430.0 58050.0 65205.0 235889.0 229740.0 303048.0 301348.0 0.0 7999.0 24671.0 28608.0 109586.0 110871.0 94745.0 94721.0 91591.0 94375.0 160875.0 154924.0 78139.0 74956.0 211027.0 203711.0 99417.0 92910.0 88814.0 135524.0 88814.0 88814.0 88814.0 88814.0 88814.0 88814.0 88814.0 88814.0 135524.0 135524.0 135524.0 135524.0 135524.0 135524.0 135524.0 135524.0
95827.0 102607.0 222134.0 228348.0 61308.0 55692.0 212196.0 217498.0 102971.0 102465.0 58167.0 59316.0 118199.0 125942.0 30701.0 23458.0 57915.0 65288.0 21310.0 26090.0 139090.0 142832.0 91250.0 84728.0 129897.0 134324.0 20587.0 28758.0 30666.0 23194.0 70450.0 64445.0 97198.0 103510.0 76730.0 82972.0 219354.0 213027.0 33373.0 25299.0 150581.0 144910.0 166785.0 161186.0 50755.0 57244.0 16286.0 14765.0 54647.0 60653.0 84010.0 88809.0 99042.0 92925.0 95194.0 92510.0 50053.0 57210.0 228136.0 222033.0 295053.0 293362.0 7999.0 0.0 32174.0 36540.0 112875.0 113615.0 98127.0 98652.0 93274.0 95418.0 162727.0 157050.0 72234.0 69617.0 203368.0 196082.0 100364.0 94257.0 88170.0 127556.0 88170.0 88170.0 88170.0 88170.0 88170.0 88170.0 88170.0 88170.0 127556.0 127556.0 127556.0 127556.0 127556.0 127556.0 127556.0 127556.0
91479.0 99419.0 249977.0 256517.0 83023.0 79746.0 242490.0 248058.0 86652.0 83818.0 58454.0 63704.0 105084.0 112221.0 7607.0 9274.0 76975.0 82618.0 15059.0 20182.0 165022.0 167816.0 79211.0 74848.0 158262.0 161931.0 26677.0 29196.0 58556.0 50591.0 42906.0 35581.0 80952.0 88579.0 50134.0 54870.0 247903.0 241264.0 8031.0 9617.0 143411.0 136695.0 194150.0 188019.0 63375.0 71640.0 18826.0 17468.0 84707.0 89620.0 54109.0 57874.0 77878.0 70521.0 125339.0 122237.0 81416.0 88611.0 255954.0 249503.0 325576.0 323618.0 24671.0 32174.0 0.0 7924.0 112709.0 115730.0 98096.0 96180.0 100295.0 104738.0 147995.0 141346.0 91774.0 86869.0 230539.0 223062.0 90572.0 83126.0 103862.0 159119.0 103862.0 103862.0 103862.0 103862.0 103862.0 103862.0 103862.0 103862.0 159119.0 159119.0 159119.0 159119.0 159119.0 159119.0 159119.0 159119.0
98686.0 106695.0 256577.0 263034.0 90341.0 86758.0 248259.0 253699.0 78776.0 75895.0 53065.0 58961.0 97331.0 104419.0 15474.0 15878.0 84507.0 90299.0 16293.0 18113.0 171967.0 174924.0 71636.0 67525.0 164659.0 168526.0 26221.0 26432.0 64702.0 56715.0 35645.0 28690.0 86394.0 94210.0 52845.0 56622.0 254310.0 247756.0 3612.0 11317.0 150016.0 143176.0 200832.0 194812.0 71199.0 79430.0 25384.0 21973.0 90419.0 95708.0 47835.0 52298.0 69988.0 62676.0 131102.0 128157.0 86497.0 93676.0 262563.0 256193.0 331249.0 329422.0 28608.0 36540.0 7924.0 0.0 106368.0 109731.0 91901.0 89627.0 95339.0 100194.0 153253.0 146422.0 99334.0 94571.0 237289.0 229849.0 97097.0 89516.0 100912.0 164086.0 100912.0 100912.0 100912.0 100912.0 100912.0 100912.0 100912.0 100912.0 164086.0 164086.0 164086.0 164086.0 164086.0 164086.0 164086.0 164086.0
203411.0 211081.0 307950.0 312722.0 170813.0 163547.0 289386.0 293871.0 56786.0 64892.0 55603.0 53580.0 46195.0 50440.0 119603.0 114531.0 169329.0 177125.0 103363.0 95362.0 235834.0 241575.0 46234.0 44279.0 219997.0 226645.0 94774.0 87544.0 138079.0 132953.0 96329.0 100947.0 192449.0 200399.0 155090.0 156101.0 302650.0 297740.0 104796.0 106012.0 256106.0 249402.0 257380.0 253883.0 163620.0 170008.0 118662.0 110677.0 150850.0 158966.0 107640.0 115542.0 73793.0 78121.0 182271.0 182031.0 141490.0 145972.0 313803.0 309216.0 371118.0 369989.0 109586.0 112875.0 112709.0 106368.0 0.0 8285.0 14862.0 17281.0 28514.0 34156.0 258814.0 251686.0 182608.0 181330.0 292467.0 286226.0 203280.0 195800.0 65346.0 202490.0 65346.0 65346.0 65346.0 65346.0 65346.0 65346.0 65346.0 65346.0 202490.0 202490.0 202490.0 202490.0 202490.0 202490.0 202490.0 202490.0
205701.0 213249.0 304453.0 309225.0 170256.0 162785.0 285889.0 290374.0 64557.0 72585.0 57676.0 54486.0 54476.0 58687.0 122397.0 116929.0 169196.0 177079.0 105558.0 97661.0 233136.0 239063.0 53171.0 50408.0 216769.0 223570.0 96343.0 89479.0 137607.0 132864.0 101994.0 106200.0 196077.0 203936.0 159523.0 160879.0 299153.0 294243.0 107931.0 108563.0 258887.0 252313.0 253956.0 250677.0 164328.0 170436.0 120459.0 112486.0 149022.0 157183.0 113908.0 121896.0 81253.0 85237.0 179165.0 179130.0 139481.0 143640.0 310306.0 305719.0 367621.0 366492.0 110871.0 113615.0 115730.0 109731.0 8285.0 0.0 18187.0 23060.0 24303.0 28492.0 262724.0 255707.0 182146.0 181224.0 288969.0 282740.0 206204.0 198835.0 60282.0 198994.0 60282.0 60282.0 60282.0 60282.0 60282.0 60282.0 60282.0 60282.0 198994.0 198994.0 198994.0 198994.0 198994.0 198994.0 198994.0 198994.0
188617.0 196268.0 296481.0 301228.0 156497.0 149346.0 277924.0 282410.0 50673.0 58212.0 40743.0 38906.0 45599.0 51655.0 104915.0 99740.0 154821.0 162578.0 88534.0 80545.0 223032.0 228589.0 37128.0 33135.0 207777.0 214246.0 79916.0 72686.0 123757.0 118459.0 84053.0 88089.0 178152.0 186052.0 141359.0 142692.0 291188.0 286282.0 90224.0 91250.0 241443.0 234782.0 245337.0 241596.0 148853.0 155308.0 103803.0 95817.0 137397.0 145461.0 96383.0 104437.0 65974.0 69071.0 169980.0 169517.0 128212.0 132974.0 302341.0 297696.0 359656.0 358528.0 94745.0 98127.0 98096.0 91901.0 14862.0 18187.0 0.0 7456.0 21521.0 29168.0 244699.0 237646.0 168235.0 166803.0 280750.0 274365.0 188658.0 181219.0 57108.0 191029.0 57108.0 57108.0 57108.0 57108.0 57108.0 57108.0 57108.0 57108.0 191029.0 191029.0 191029.0 191029.0 191029.0 191029.0 191029.0 191029.0
187281.0 195044.0 300920.0 305795.0 158032.0 151102.0 282462.0 286948.0 43380.0 51032.0 40547.0 40243.0 38363.0 44657.0 103224.0 98497.0 155953.0 163602.0 87567.0 79515.0 226370.0 231752.0 30433.0 27357.0 211614.0 217936.0 79698.0 72127.0 125347.0 119699.0 79175.0 83686.0 175468.0 183456.0 137857.0 138824.0 295721.0 290784.0 88209.0 89878.0 239571.0 232786.0 249274.0 245351.0 149178.0 155891.0 103185.0 95228.0 140207.0 148193.0 90860.0 98839.0 59056.0 62522.0 173811.0 173169.0 131236.0 136267.0 306805.0 302030.0 364195.0 363066.0 94721.0 98652.0 96180.0 89627.0 17281.0 23060.0 7456.0 0.0 28723.0 36493.0 241701.0 234539.0 169642.0 167873.0 284895.0 278414.0 186683.0 179138.0 63495.0 195567.0 63495.0 63495.0 63495.0 63495.0 63495.0 63495.0 63495.0 63495.0 195567.0 195567.0 195567.0 195567.0 195567.0 195567.0 195567.0 195567.0
187618.0 194874.0 280150.0 284922.0 147649.0 139970.0 261586.0 266072.0 70345.0 77313.0 42429.0 36608.0 67073.0 73172.0 106261.0 99940.0 147117.0 155087.0 88331.0 80874.0 208913.0 214895.0 55234.0 49326.0 192467.0 199278.0 77938.0 72083.0 115228.0 111025.0 95298.0 97822.0 181242.0 188808.0 147339.0 149768.0 274850.0 269940.0 92975.0 92111.0 241660.0 235405.0 229658.0 226375.0 143507.0 149145.0 102072.0 94257.0 125275.0 133454.0 109301.0 117454.0 83978.0 85778.0 154874.0 154871.0 115629.0 119599.0 286003.0 281416.0 343318.0 342189.0 91591.0 93274.0 100295.0 95339.0 28514.0 24303.0 21521.0 28723.0 0.0 7995.0 248289.0 241609.0 159618.0 159142.0 264666.0 258437.0 189539.0 182480.0 36893.0 174691.0 36893.0 36893.0 36893.0 36893.0 36893.0 36893.0 36893.0 36893.0 174691.0 174691.0 174691.0 174691.0 174691.0 174691.0 174691.0 174691.0
190563.0 197661.0 277499.0 282271.0 147773.0 139910.0 258935.0 263421.0 78341.0 85293.0 47880.0 41240.0 74765.0 80696.0 110390.0 103764.0 147717.0 155735.0 92154.0 84967.0 206530.0 212656.0 63189.0 57165.0 189826.0 196684.0 81327.0 76025.0 115692.0 111976.0 102101.0 104281.0 185544.0 192985.0 152607.0 155331.0 272199.0 267289.0 97654.0 96226.0 244893.0 238786.0 227021.0 223734.0 145055.0 150348.0 105235.0 97560.0 124074.0 132259.0 116384.0 124532.0 91881.0 93542.0 152289.0 152402.0 114275.0 117834.0 283353.0 278765.0 340667.0 339538.0 94375.0 95418.0 104738.0 100194.0 34156.0 28492.0 29168.0 36493.0 7995.0 0.0 252608.0 246053.0 159784.0 159702.0 262015.0 255786.0 193110.0 186197.0 31861.0 172040.0 31861.0 31861.0 31861.0 31861.0 31861.0 31861.0 31861.0 31861.0 172040.0 172040.0 172040.0 172040.0 172040.0 172040.0 172040.0 172040.0
74380.0 72051.0 276089.0 284124.0 147193.0 153637.0 291630.0 299314.0 219114.0 212827.0 206267.0 211695.0 239628.0 244941.0 142228.0 149074.0 139640.0 134817.0 160613.0 167643.0 199517.0 195880.0 218544.0 216822.0 210088.0 207627.0 171896.0 176609.0 160189.0 157826.0 166997.0 160460.0 67066.0 59734.0 104532.0 105311.0 280033.0 272006.0 155398.0 156386.0 38714.0 35253.0 228667.0 220673.0 127739.0 129024.0 149182.0 156194.0 177137.0 174288.0 162315.0 157036.0 203301.0 195395.0 200702.0 195910.0 182898.0 187361.0 280860.0 272824.0 367632.0 362682.0 160875.0 162727.0 147995.0 153253.0 258814.0 262724.0 244699.0 241701.0 248289.0 252608.0 0.0 8092.0 141519.0 134464.0 255256.0 247987.0 63636.0 68712.0 249526.0 238506.0 249526.0 249526.0 249526.0 249526.0 249526.0 249526.0 249526.0 249526.0 238506.0 238506.0 238506.0 238506.0 238506.0 238506.0 238506.0 238506.0
71185.0 69705.0 277330.0 285347.0 144160.0 150323.0 291735.0 299357.0 211435.0 205087.0 199477.0 205043.0 231952.0 237205.0 135748.0 142731.0 136381.0 131921.0 154219.0 161126.0 199418.0 196078.0 211082.0 209482.0 209201.0 207038.0 165604.0 170121.0 155722.0 153038.0 159406.0 152957.0 60613.0 53630.0 97095.0 97646.0 280979.0 272963.0 148650.0 149882.0 42115.0 37323.0 228982.0 220989.0 123775.0 125532.0 143183.0 150053.0 173522.0 170998.0 154493.0 149137.0 195522.0 187637.0 198402.0 193618.0 178949.0 183628.0 282204.0 274191.0 368548.0 363738.0 154924.0 157050.0 141346.0 146422.0 251686.0 255707.0 237646.0 234539.0 241609.0 246053.0 8092.0 0.0 139058.0 131816.0 256394.0 249042.0 59170.0 63592.0 243402.0 236487.0 243402.0 243402.0 243402.0 243402.0 243402.0 243402.0 243402.0 243402.0 236487.0 236487.0 236487.0 236487.0 236487.0 236487.0 236487.0 236487.0
68258.0 69479.0 163687.0 170879.0 12021.0 20213.0 164726.0 171519.0 174461.0 173187.0 129659.0 129496.0 190346.0 198050.0 85132.0 83632.0 14850.0 10431.0 89763.0 96737.0 77131.0 78317.0 163391.0 156958.0 77306.0 78183.0 92717.0 100906.0 44550.0 49980.0 134634.0 127100.0 95504.0 96469.0 106369.0 114354.0 163424.0 156091.0 97681.0 90957.0 113959.0 111560.0 108123.0 101031.0 30572.0 22472.0 74692.0 80957.0 42562.0 36584.0 144416.0 146482.0 168542.0 161624.0 59382.0 54612.0 51677.0 52894.0 169509.0 162421.0 246955.0 243747.0 78139.0 72234.0 91774.0 99334.0 182608.0 182146.0 168235.0 169642.0 159618.0 159784.0 141519.0 139058.0 0.0 7886.0 143187.0 135482.0 82959.0 82463.0 147836.0 97785.0 147836.0 147836.0 147836.0 147836.0 147836.0 147836.0 147836.0 147836.0 97785.0 97785.0 97785.0 97785.0 97785.0 97785.0 97785.0 97785.0
60822.0 62428.0 170879.0 178137.0 14403.0 22673.0 172502.0 179324.0 170819.0 169218.0 127594.0 127929.0 187203.0 194842.0 79981.0 79077.0 12032.0 4367.0 85970.0 93232.0 84352.0 85189.0 160277.0 154075.0 85119.0 85853.0 89825.0 97983.0 44011.0 48387.0 129549.0 121892.0 87621.0 88638.0 99073.0 107046.0 170813.0 163424.0 93134.0 86745.0 107864.0 105139.0 115476.0 108285.0 24220.0 15813.0 70472.0 77156.0 46622.0 41578.0 138787.0 140555.0 164218.0 157135.0 66838.0 62091.0 55059.0 57166.0 176671.0 169509.0 254633.0 251368.0 74956.0 69617.0 86869.0 94571.0 181330.0 181224.0 166803.0 167873.0 159142.0 159702.0 134464.0 131816.0 7886.0 0.0 150270.0 142548.0 75283.0 74644.0 148365.0 105378.0 148365.0 148365.0 148365.0 148365.0 148365.0 148365.0 148365.0 148365.0 105378.0 105378.0 105378.0 105378.0 105378.0 105378.0 105378.0 105378.0
197394.0 193941.0 21170.0 29054.0 148945.0 150966.0 50080.0 57474.0 303435.0 304308.0 250862.0 247137.0 315110.0 322958.0 224938.0 221522.0 156546.0 153591.0 224272.0 229400.0 66146.0 65290.0 289324.0 281670.0 74095.0 69056.0 222718.0 230250.0 173038.0 180939.0 272813.0 265960.0 231716.0 230025.0 249298.0 257255.0 25501.0 17690.0 234863.0 227140.0 217594.0 220014.0 36588.0 42561.0 173664.0 165658.0 211928.0 216166.0 149537.0 142829.0 284592.0 287666.0 301956.0 296174.0 111481.0 112791.0 156612.0 150441.0 26625.0 19238.0 112594.0 107439.0 211027.0 203368.0 230539.0 237289.0 292467.0 288969.0 280750.0 284895.0 264666.0 262015.0 255256.0 256394.0 143187.0 150270.0 0.0 7751.0 213889.0 216590.0 248445.0 97988.0 248445.0 248445.0 248445.0 248445.0 248445.0 248445.0 248445.0 248445.0 97988.0 97988.0 97988.0 97988.0 97988.0 97988.0 97988.0 97988.0
189722.0 186319.0 28846.0 36644.0 141325.0 143437.0 53568.0 61277.0 296439.0 297223.0 244052.0 240444.0 308308.0 316162.0 217416.0 214065.0 148887.0 145883.0 216934.0 222134.0 58488.0 57541.0 282428.0 274807.0 67183.0 61855.0 215523.0 223097.0 165693.0 173576.0 265398.0 258511.0 223998.0 222337.0 241565.0 249521.0 32199.0 24186.0 227449.0 219751.0 210437.0 212758.0 29453.0 35043.0 165974.0 157953.0 204479.0 208789.0 142416.0 135613.0 277094.0 280117.0 294772.0 288935.0 104773.0 105924.0 149642.0 143558.0 34366.0 26969.0 119702.0 114706.0 203711.0 196082.0 223062.0 229849.0 286226.0 282740.0 274365.0 278414.0 258437.0 255786.0 247987.0 249042.0 135482.0 142548.0 7751.0 0.0 206218.0 208885.0 242216.0 93095.0 242216.0 242216.0 242216.0 242216.0 242216.0 242216.0 242216.0 242216.0 93095.0 93095.0 93095.0 93095.0 93095.0 93095.0 93095.0 93095.0
16497.0 21327.0 235054.0 242843.0 86430.0 91985.0 243469.0 250731.0 171224.0 166278.0 148656.0 153103.0 191228.0 197558.0 83809.0 89639.0 78242.0 74677.0 101226.0 108849.0 151612.0 149867.0 167280.0 164075.0 157629.0 156782.0 111784.0 117489.0 96609.0 94201.0 119321.0 111684.0 21210.0 16551.0 59863.0 64956.0 237032.0 229192.0 98495.0 97745.0 52931.0 46124.0 182610.0 174784.0 64720.0 67050.0 88060.0 95582.0 114685.0 112606.0 119700.0 116899.0 157865.0 149754.0 142036.0 137316.0 119845.0 124664.0 240429.0 232672.0 323553.0 319505.0 99417.0 100364.0 90572.0 97097.0 203280.0 206204.0 188658.0 186683.0 189539.0 193110.0 63636.0 59170.0 82959.0 75283.0 213889.0 206218.0 0.0 7971.0 188170.0 180652.0 188170.0 188170.0 188170.0 188170.0 188170.0 188170.0 188170.0 188170.0 180652.0 180652.0 180652.0 180652.0 180652.0 180652.0 180652.0 180652.0
20413.0 27019.0 237730.0 245451.0 84839.0 89815.0 244795.0 251948.0 163290.0 158320.0 141367.0 145976.0 183316.0 189625.0 76494.0 82540.0 76383.0 73582.0 94151.0 101677.0 153429.0 152087.0 159457.0 156330.0 158346.0 157902.0 104900.0 110398.0 92422.0 89480.0 111358.0 103730.0 15586.0 14039.0 52068.0 57375.0 239363.0 231584.0 91005.0 90515.0 60640.0 53669.0 184607.0 176859.0 61697.0 64957.0 81409.0 88793.0 111805.0 110262.0 111766.0 109034.0 149896.0 141784.0 140941.0 136275.0 116413.0 121545.0 243186.0 235502.0 325472.0 321592.0 92910.0 94257.0 83126.0 89516.0 195800.0 198835.0 181219.0 179138.0 182480.0 186197.0 68712.0 63592.0 82463.0 74644.0 216590.0 208885.0 7971.0 0.0 181724.0 179673.0 181724.0 181724.0 181724.0 181724.0 181724.0 181724.0 181724.0 181724.0 179673.0 179673.0 179673.0 179673.0 179673.0 179673.0 179673.0 179673.0
183973.0 190633.0 263929.0 268701.0 135822.0 127741.0 245365.0 249851.0 100102.0 105724.0 53939.0 45598.0 101167.0 107939.0 108311.0 100915.0 136518.0 144566.0 89706.0 83699.0 192960.0 199086.0 83749.0 76242.0 176257.0 183114.0 78028.0 74759.0 104539.0 101763.0 109849.0 109735.0 182844.0 189830.0 153652.0 157491.0 258629.0 253719.0 97835.0 94554.0 238750.0 233058.0 213451.0 210164.0 135648.0 140215.0 100394.0 93350.0 110802.0 118974.0 125530.0 133371.0 110171.0 109736.0 138719.0 138832.0 100929.0 104309.0 269783.0 265195.0 327097.0 325969.0 88814.0 88170.0 103862.0 100912.0 65346.0 60282.0 57108.0 63495.0 36893.0 31861.0 249526.0 243402.0 147836.0 148365.0 248445.0 242216.0 188170.0 181724.0 0.0 158470.0 0.0 0.0 0.0 0.0 0.0 0.0 0.0 0.0 158470.0 158470.0 158470.0 158470.0 158470.0 158470.0 158470.0 158470.0
166018.0 166783.0 110557.0 114448.0 95068.0 91411.0 88159.0 92214.0 218659.0 220823.0 164492.0 159580.0 227928.0 235656.0 155705.0 149917.0 103757.0 106109.0 148561.0 151405.0 64459.0 72531.0 203425.0 195471.0 42206.0 49871.0 143376.0 149722.0 102177.0 109679.0 197172.0 191730.0 191700.0 193544.0 193176.0 200878.0 104040.0 100037.0 160920.0 152851.0 207941.0 206777.0 68145.0 68493.0 120401.0 115283.0 140747.0 142168.0 75595.0 73098.0 211398.0 216364.0 220209.0 215591.0 38758.0 43398.0 77703.0 70508.0 116178.0 112592.0 170417.0 168223.0 135524.0 127556.0 159119.0 164086.0 202490.0 198994.0 191029.0 195567.0 174691.0 172040.0 238506.0 236487.0 97785.0 105378.0 97988.0 93095.0 180652.0 179673.0 158470.0 0.0 158470.0 158470.0 158470.0 158470.0 158470.0 158470.0 158470.0 158470.0 0.0 0.0 0.0 0.0 0.0 0.0 0.0 0.0
183973.0 190633.0 263929.0 268701.0 135822.0 127741.0 245365.0 249851.0 100102.0 105724.0 53939.0 45598.0 101167.0 107939.0 108311.0 100915.0 136518.0 144566.0 89706.0 83699.0 192960.0 199086.0 83749.0 76242.0 176257.0 183114.0 78028.0 74759.0 104539.0 101763.0 109849.0 109735.0 182844.0 189830.0 153652.0 157491.0 258629.0 253719.0 97835.0 94554.0 238750.0 233058.0 213451.0 210164.0 135648.0 140215.0 100394.0 93350.0 110802.0 118974.0 125530.0 133371.0 110171.0 109736.0 138719.0 138832.0 100929.0 104309.0 269783.0 265195.0 327097.0 325969.0 88814.0 88170.0 103862.0 100912.0 65346.0 60282.0 57108.0 63495.0 36893.0 31861.0 249526.0 243402.0 147836.0 148365.0 248445.0 242216.0 188170.0 181724.0 0.0 158470.0 0.0 0.0 0.0 0.0 0.0 0.0 0.0 0.0 158470.0 158470.0 158470.0 158470.0 158470.0 158470.0 158470.0 158470.0
183973.0 190633.0 263929.0 268701.0 135822.0 127741.0 245365.0 249851.0 100102.0 105724.0 53939.0 45598.0 101167.0 107939.0 108311.0 100915.0 136518.0 144566.0 89706.0 83699.0 192960.0 199086.0 83749.0 76242.0 176257.0 183114.0 78028.0 74759.0 104539.0 101763.0 109849.0 109735.0 182844.0 189830.0 153652.0 157491.0 258629.0 253719.0 97835.0 94554.0 238750.0 233058.0 213451.0 210164.0 135648.0 140215.0 100394.0 93350.0 110802.0 118974.0 125530.0 133371.0 110171.0 109736.0 138719.0 138832.0 100929.0 104309.0 269783.0 265195.0 327097.0 325969.0 88814.0 88170.0 103862.0 100912.0 65346.0 60282.0 57108.0 63495.0 36893.0 31861.0 249526.0 243402.0 147836.0 148365.0 248445.0 242216.0 188170.0 181724.0 0.0 158470.0 0.0 0.0 0.0 0.0 0.0 0.0 0.0 0.0 158470.0 158470.0 158470.0 158470.0 158470.0 158470.0 158470.0 158470.0
183973.0 190633.0 263929.0 268701.0 135822.0 127741.0 245365.0 249851.0 100102.0 105724.0 53939.0 45598.0 101167.0 107939.0 108311.0 100915.0 136518.0 144566.0 89706.0 83699.0 192960.0 199086.0 83749.0 76242.0 176257.0 183114.0 78028.0 74759.0 104539.0 101763.0 109849.0 109735.0 182844.0 189830.0 153652.0 157491.0 258629.0 253719.0 97835.0 94554.0 238750.0 233058.0 213451.0 210164.0 135648.0 140215.0 100394.0 93350.0 110802.0 118974.0 125530.0 133371.0 110171.0 109736.0 138719.0 138832.0 100929.0 104309.0 269783.0 265195.0 327097.0 325969.0 88814.0 88170.0 103862.0 100912.0 65346.0 60282.0 57108.0 63495.0 36893.0 31861.0 249526.0 243402.0 147836.0 148365.0 248445.0 242216.0 188170.0 181724.0 0.0 158470.0 0.0 0.0 0.0 0.0 0.0 0.0 0.0 0.0 158470.0 158470.0 158470.0 158470.0 158470.0 158470.0 158470.0 158470.0
183973.0 190633.0 263929.0 268701.0 135822.0 127741.0 245365.0 249851.0 100102.0 105724.0 53939.0 45598.0 101167.0 107939.0 108311.0 100915.0 136518.0 144566.0 89706.0 83699.0 192960.0 199086.0 83749.0 76242.0 176257.0 183114.0 78028.0 74759.0 104539.0 101763.0 109849.0 109735.0 182844.0 189830.0 153652.0 157491.0 258629.0 253719.0 97835.0 94554.0 238750.0 233058.0 213451.0 210164.0 135648.0 140215.0 100394.0 93350.0 110802.0 118974.0 125530.0 133371.0 110171.0 109736.0 138719.0 138832.0 100929.0 104309.0 269783.0 265195.0 327097.0 325969.0 88814.0 88170.0 103862.0 100912.0 65346.0 60282.0 57108.0 63495.0 36893.0 31861.0 249526.0 243402.0 147836.0 148365.0 248445.0 242216.0 188170.0 181724.0 0.0 158470.0 0.0 0.0 0.0 0.0 0.0 0.0 0.0 0.0 158470.0 158470.0 158470.0 158470.0 158470.0 158470.0 158470.0 158470.0
183973.0 190633.0 263929.0 268701.0 135822.0 127741.0 245365.0 249851.0 100102.0 105724.0 53939.0 45598.0 101167.0 107939.0 108311.0 100915.0 136518.0 144566.0 89706.0 83699.0 192960.0 199086.0 83749.0 76242.0 176257.0 183114.0 78028.0 74759.0 104539.0 101763.0 109849.0 109735.0 182844.0 189830.0 153652.0 157491.0 258629.0 253719.0 97835.0 94554.0 238750.0 233058.0 213451.0 210164.0 135648.0 140215.0 100394.0 93350.0 110802.0 118974.0 125530.0 133371.0 110171.0 109736.0 138719.0 138832.0 100929.0 104309.0 269783.0 265195.0 327097.0 325969.0 88814.0 88170.0 103862.0 100912.0 65346.0 60282.0 57108.0 63495.0 36893.0 31861.0 249526.0 243402.0 147836.0 148365.0 248445.0 242216.0 188170.0 181724.0 0.0 158470.0 0.0 0.0 0.0 0.0 0.0 0.0 0.0 0.0 158470.0 158470.0 158470.0 158470.0 158470.0 158470.0 158470.0 158470.0
183973.0 190633.0 263929.0 268701.0 135822.0 127741.0 245365.0 249851.0 100102.0 105724.0 53939.0 45598.0 101167.0 107939.0 108311.0 100915.0 136518.0 144566.0 89706.0 83699.0 192960.0 199086.0 83749.0 76242.0 176257.0 183114.0 78028.0 74759.0 104539.0 101763.0 109849.0 109735.0 182844.0 189830.0 153652.0 157491.0 258629.0 253719.0 97835.0 94554.0 238750.0 233058.0 213451.0 210164.0 135648.0 140215.0 100394.0 93350.0 110802.0 118974.0 125530.0 133371.0 110171.0 109736.0 138719.0 138832.0 100929.0 104309.0 269783.0 265195.0 327097.0 325969.0 88814.0 88170.0 103862.0 100912.0 65346.0 60282.0 57108.0 63495.0 36893.0 31861.0 249526.0 243402.0 147836.0 148365.0 248445.0 242216.0 188170.0 181724.0 0.0 158470.0 0.0 0.0 0.0 0.0 0.0 0.0 0.0 0.0 158470.0 158470.0 158470.0 158470.0 158470.0 158470.0 158470.0 158470.0
183973.0 190633.0 263929.0 268701.0 135822.0 127741.0 245365.0 249851.0 100102.0 105724.0 53939.0 45598.0 101167.0 107939.0 108311.0 100915.0 136518.0 144566.0 89706.0 83699.0 192960.0 199086.0 83749.0 76242.0 176257.0 183114.0 78028.0 74759.0 104539.0 101763.0 109849.0 109735.0 182844.0 189830.0 153652.0 157491.0 258629.0 253719.0 97835.0 94554.0 238750.0 233058.0 213451.0 210164.0 135648.0 140215.0 100394.0 93350.0 110802.0 118974.0 125530.0 133371.0 110171.0 109736.0 138719.0 138832.0 100929.0 104309.0 269783.0 265195.0 327097.0 325969.0 88814.0 88170.0 103862.0 100912.0 65346.0 60282.0 57108.0 63495.0 36893.0 31861.0 249526.0 243402.0 147836.0 148365.0 248445.0 242216.0 188170.0 181724.0 0.0 158470.0 0.0 0.0 0.0 0.0 0.0 0.0 0.0 0.0 158470.0 158470.0 158470.0 158470.0 158470.0 158470.0 158470.0 158470.0
183973.0 190633.0 263929.0 268701.0 135822.0 127741.0 245365.0 249851.0 100102.0 105724.0 53939.0 45598.0 101167.0 107939.0 108311.0 100915.0 136518.0 144566.0 89706.0 83699.0 192960.0 199086.0 83749.0 76242.0 176257.0 183114.0 78028.0 74759.0 104539.0 101763.0 109849.0 109735.0 182844.0 189830.0 153652.0 157491.0 258629.0 253719.0 97835.0 94554.0 238750.0 233058.0 213451.0 210164.0 135648.0 140215.0 100394.0 93350.0 110802.0 118974.0 125530.0 133371.0 110171.0 109736.0 138719.0 138832.0 100929.0 104309.0 269783.0 265195.0 327097.0 325969.0 88814.0 88170.0 103862.0 100912.0 65346.0 60282.0 57108.0 63495.0 36893.0 31861.0 249526.0 243402.0 147836.0 148365.0 248445.0 242216.0 188170.0 181724.0 0.0 158470.0 0.0 0.0 0.0 0.0 0.0 0.0 0.0 0.0 158470.0 158470.0 158470.0 158470.0 158470.0 158470.0 158470.0 158470.0
166018.0 166783.0 110557.0 114448.0 95068.0 91411.0 88159.0 92214.0 218659.0 220823.0 164492.0 159580.0 227928.0 235656.0 155705.0 149917.0 103757.0 106109.0 148561.0 151405.0 64459.0 72531.0 203425.0 195471.0 42206.0 49871.0 143376.0 149722.0 102177.0 109679.0 197172.0 191730.0 191700.0 193544.0 193176.0 200878.0 104040.0 100037.0 160920.0 152851.0 207941.0 206777.0 68145.0 68493.0 120401.0 115283.0 140747.0 142168.0 75595.0 73098.0 211398.0 216364.0 220209.0 215591.0 38758.0 43398.0 77703.0 70508.0 116178.0 112592.0 170417.0 168223.0 135524.0 127556.0 159119.0 164086.0 202490.0 198994.0 191029.0 195567.0 174691.0 172040.0 238506.0 236487.0 97785.0 105378.0 97988.0 93095.0 180652.0 179673.0 158470.0 0.0 158470.0 158470.0 158470.0 158470.0 158470.0 158470.0 158470.0 158470.0 0.0 0.0 0.0 0.0 0.0 0.0 0.0 0.0
166018.0 166783.0 110557.0 114448.0 95068.0 91411.0 88159.0 92214.0 218659.0 220823.0 164492.0 159580.0 227928.0 235656.0 155705.0 149917.0 103757.0 106109.0 148561.0 151405.0 64459.0 72531.0 203425.0 195471.0 42206.0 49871.0 143376.0 149722.0 102177.0 109679.0 197172.0 191730.0 191700.0 193544.0 193176.0 200878.0 104040.0 100037.0 160920.0 152851.0 207941.0 206777.0 68145.0 68493.0 120401.0 115283.0 140747.0 142168.0 75595.0 73098.0 211398.0 216364.0 220209.0 215591.0 38758.0 43398.0 77703.0 70508.0 116178.0 112592.0 170417.0 168223.0 135524.0 127556.0 159119.0 164086.0 202490.0 198994.0 191029.0 195567.0 174691.0 172040.0 238506.0 236487.0 97785.0 105378.0 97988.0 93095.0 180652.0 179673.0 158470.0 0.0 158470.0 158470.0 158470.0 158470.0 158470.0 158470.0 158470.0 158470.0 0.0 0.0 0.0 0.0 0.0 0.0 0.0 0.0
166018.0 166783.0 110557.0 114448.0 95068.0 91411.0 88159.0 92214.0 218659.0 220823.0 164492.0 159580.0 227928.0 235656.0 155705.0 149917.0 103757.0 106109.0 148561.0 151405.0 64459.0 72531.0 203425.0 195471.0 42206.0 49871.0 143376.0 149722.0 102177.0 109679.0 197172.0 191730.0 191700.0 193544.0 193176.0 200878.0 104040.0 100037.0 160920.0 152851.0 207941.0 206777.0 68145.0 68493.0 120401.0 115283.0 140747.0 142168.0 75595.0 73098.0 211398.0 216364.0 220209.0 215591.0 38758.0 43398.0 77703.0 70508.0 116178.0 112592.0 170417.0 168223.0 135524.0 127556.0 159119.0 164086.0 202490.0 198994.0 191029.0 195567.0 174691.0 172040.0 238506.0 236487.0 97785.0 105378.0 97988.0 93095.0 180652.0 179673.0 158470.0 0.0 158470.0 158470.0 158470.0 158470.0 158470.0 158470.0 158470.0 158470.0 0.0 0.0 0.0 0.0 0.0 0.0 0.0 0.0
166018.0 166783.0 110557.0 114448.0 95068.0 91411.0 88159.0 92214.0 218659.0 220823.0 164492.0 159580.0 227928.0 235656.0 155705.0 149917.0 103757.0 106109.0 148561.0 151405.0 64459.0 72531.0 203425.0 195471.0 42206.0 49871.0 143376.0 149722.0 102177.0 109679.0 197172.0 191730.0 191700.0 193544.0 193176.0 200878.0 104040.0 100037.0 160920.0 152851.0 207941.0 206777.0 68145.0 68493.0 120401.0 115283.0 140747.0 142168.0 75595.0 73098.0 211398.0 216364.0 220209.0 215591.0 38758.0 43398.0 77703.0 70508.0 116178.0 112592.0 170417.0 168223.0 135524.0 127556.0 159119.0 164086.0 202490.0 198994.0 191029.0 195567.0 174691.0 172040.0 238506.0 236487.0 97785.0 105378.0 97988.0 93095.0 180652.0 179673.0 158470.0 0.0 158470.0 158470.0 158470.0 158470.0 158470.0 158470.0 158470.0 158470.0 0.0 0.0 0.0 0.0 0.0 0.0 0.0 0.0
166018.0 166783.0 110557.0 114448.0 95068.0 91411.0 88159.0 92214.0 218659.0 220823.0 164492.0 159580.0 227928.0 235656.0 155705.0 149917.0 103757.0 106109.0 148561.0 151405.0 64459.0 72531.0 203425.0 195471.0 42206.0 49871.0 143376.0 149722.0 102177.0 109679.0 197172.0 191730.0 191700.0 193544.0 193176.0 200878.0 104040.0 100037.0 160920.0 152851.0 207941.0 206777.0 68145.0 68493.0 120401.0 115283.0 140747.0 142168.0 75595.0 73098.0 211398.0 216364.0 220209.0 215591.0 38758.0 43398.0 77703.0 70508.0 116178.0 112592.0 170417.0 168223.0 135524.0 127556.0 159119.0 164086.0 202490.0 198994.0 191029.0 195567.0 174691.0 172040.0 238506.0 236487.0 97785.0 105378.0 97988.0 93095.0 180652.0 179673.0 158470.0 0.0 158470.0 158470.0 158470.0 158470.0 158470.0 158470.0 158470.0 158470.0 0.0 0.0 0.0 0.0 0.0 0.0 0.0 0.0
166018.0 166783.0 110557.0 114448.0 95068.0 91411.0 88159.0 92214.0 218659.0 220823.0 164492.0 159580.0 227928.0 235656.0 155705.0 149917.0 103757.0 106109.0 148561.0 151405.0 64459.0 72531.0 203425.0 195471.0 42206.0 49871.0 143376.0 149722.0 102177.0 109679.0 197172.0 191730.0 191700.0 193544.0 193176.0 200878.0 104040.0 100037.0 160920.0 152851.0 207941.0 206777.0 68145.0 68493.0 120401.0 115283.0 140747.0 142168.0 75595.0 73098.0 211398.0 216364.0 220209.0 215591.0 38758.0 43398.0 77703.0 70508.0 116178.0 112592.0 170417.0 168223.0 135524.0 127556.0 159119.0 164086.0 202490.0 198994.0 191029.0 195567.0 174691.0 172040.0 238506.0 236487.0 97785.0 105378.0 97988.0 93095.0 180652.0 179673.0 158470.0 0.0 158470.0 158470.0 158470.0 158470.0 158470.0 158470.0 158470.0 158470.0 0.0 0.0 0.0 0.0 0.0 0.0 0.0 0.0
166018.0 166783.0 110557.0 114448.0 95068.0 91411.0 88159.0 92214.0 218659.0 220823.0 164492.0 159580.0 227928.0 235656.0 155705.0 149917.0 103757.0 106109.0 148561.0 151405.0 64459.0 72531.0 203425.0 195471.0 42206.0 49871.0 143376.0 149722.0 102177.0 109679.0 197172.0 191730.0 191700.0 193544.0 193176.0 200878.0 104040.0 100037.0 160920.0 152851.0 207941.0 206777.0 68145.0 68493.0 120401.0 115283.0 140747.0 142168.0 75595.0 73098.0 211398.0 216364.0 220209.0 215591.0 38758.0 43398.0 77703.0 70508.0 116178.0 112592.0 170417.0 168223.0 135524.0 127556.0 159119.0 164086.0 202490.0 198994.0 191029.0 195567.0 174691.0 172040.0 238506.0 236487.0 97785.0 105378.0 97988.0 93095.0 180652.0 179673.0 158470.0 0.0 158470.0 158470.0 158470.0 158470.0 158470.0 158470.0 158470.0 158470.0 0.0 0.0 0.0 0.0 0.0 0.0 0.0 0.0
166018.0 166783.0 110557.0 114448.0 95068.0 91411.0 88159.0 92214.0 218659.0 220823.0 164492.0 159580.0 227928.0 235656.0 155705.0 149917.0 103757.0 106109.0 148561.0 151405.0 64459.0 72531.0 203425.0 195471.0 42206.0 49871.0 143376.0 149722.0 102177.0 109679.0 197172.0 191730.0 191700.0 193544.0 193176.0 200878.0 104040.0 100037.0 160920.0 152851.0 207941.0 206777.0 68145.0 68493.0 120401.0 115283.0 140747.0 142168.0 75595.0 73098.0 211398.0 216364.0 220209.0 215591.0 38758.0 43398.0 77703.0 70508.0 116178.0 112592.0 170417.0 168223.0 135524.0 127556.0 159119.0 164086.0 202490.0 198994.0 191029.0 195567.0 174691.0 172040.0 238506.0 236487.0 97785.0 105378.0 97988.0 93095.0 180652.0 179673.0 158470.0 0.0 158470.0 158470.0 158470.0 158470.0 158470.0 158470.0 158470.0 158470.0 0.0 0.0 0.0 0.0 0.0 0.0 0.0 0.0
FIXED_EDGES_SECTION
1 2
3 4
5 6
7 8
9 10
11 12
13 14
15 16
17 18
19 20
21 22
23 24
25 26
27 28
29 30
31 32
33 34
35 36
37 38
39 40
41 42
43 44
45 46
47 48
49 50
51 52
53 54
55 56
57 58
59 60
61 62
63 64
65 66
67 68
69 70
71 72
73 74
75 76
77 78
79 80
-1 
DEMAND_SECTION
1 112
2 112
3 350
4 350
5 119
6 119
7 184
8 184
9 500
10 500
11 100
12 100
13 316
14 316
15 341
16 341
17 177
18 177
19 207
20 207
21 84
22 84
23 379
24 379
25 313
26 313
27 394
28 394
29 432
30 432
31 461
32 461
33 74
34 74
35 90
36 90
37 341
38 341
39 293
40 293
41 277
42 277
43 319
44 319
45 279
46 279
47 119
48 119
49 324
50 324
51 55
52 55
53 265
54 265
55 399
56 399
57 75
58 75
59 268
60 268
61 491
62 491
63 277
64 277
65 353
66 353
67 369
68 369
69 219
70 219
71 97
72 97
73 380
74 380
75 291
76 291
77 244
78 244
79 180
80 180
81 0
82 0
83 0
84 0
85 0
86 0
87 0
88 0
89 0
90 0
91 0
92 0
93 0
94 0
95 0
96 0
97 0
98 0
DEPOT_SECTION
81 
-1 
CAPACITIES_SECTION
2500 
2750 
-1 
EOF