NAME: GFS_20_1
TYPE: GFSP
DIMENSION: 176
VEHICLES: 3
CAPACITY: 5000.0
TRIP_DIST_LIMIT: 1050000.0
TOTAL_DIST_LIMIT: 1400000.0
EDGE_WEIGHT_TYPE: EXPLICIT
EDGE_WEIGHT_FORMAT: FULL_MATRIX
EDGE_WEIGHT_SECTION
0.0 7986.0 60450.0 66703.0 24205.0 31124.0 26800.0 27157.0 21268.0 15938.0 42879.0 50079.0 175491.0 169440.0 286037.0 292889.0 149182.0 143183.0 18826.0 25384.0 113096.0 113457.0 139437.0 146937.0 294987.0 286776.0 16095.0 24024.0 48172.0 55988.0 65984.0 70797.0 63060.0 66194.0 93857.0 86950.0 303622.0 295889.0 31667.0 25727.0 88060.0 81409.0 72873.0 76692.0 62762.0 54526.0 79333.0 82427.0 9017.0 11518.0 58164.0 61226.0 117147.0 113855.0 27083.0 23497.0 118662.0 120459.0 49436.0 57401.0 102072.0 105235.0 106570.0 103431.0 88170.0 87221.0 237256.0 230852.0 127620.0 120188.0 63105.0 70287.0 59845.0 66132.0 11794.0 16286.0 259475.0 254097.0 110701.0 109125.0 54637.0 46374.0 74135.0 69332.0 33574.0 27007.0 92376.0 93722.0 223701.0 229304.0 90935.0 85400.0 96718.0 94482.0 306807.0 304818.0 95182.0 87580.0 82809.0 89557.0 54851.0 53399.0 211928.0 204479.0 268135.0 275688.0 18400.0 12612.0 185163.0 183533.0 105620.0 104275.0 61013.0 54032.0 77971.0 71035.0 97712.0 96543.0 83708.0 76078.0 100711.0 102358.0 60629.0 55412.0 74918.0 67328.0 103803.0 103185.0 155653.0 158606.0 260920.0 252753.0 69765.0 65686.0 218176.0 219260.0 170380.0 168391.0 23735.0 24509.0 55164.0 63185.0 265627.0 266875.0 85566.0 92926.0 47404.0 49230.0 23219.0 16283.0 182988.0 176932.0 108579.0 107834.0 146585.0 149583.0 39735.0 31778.0 65233.0 61401.0 100394.0 140747.0 100394.0 100394.0 100394.0 100394.0 100394.0 100394.0 100394.0 140747.0 140747.0 140747.0 140747.0 140747.0 140747.0 140747.0
7986.0 0.0 64452.0 70131.0 16322.0 23142.0 31413.0 29691.0 29148.0 23219.0 49260.0 56761.0 179635.0 173790.0 288341.0 295194.0 156194.0 150053.0 17468.0 21973.0 117336.0 117208.0 141249.0 148888.0 298389.0 290195.0 8818.0 16358.0 55480.0 63084.0 68525.0 74017.0 55075.0 58263.0 87811.0 81178.0 306903.0 299223.0 30499.0 26318.0 95582.0 88793.0 69729.0 74262.0 56291.0 48182.0 82880.0 85314.0 1044.0 7961.0 61681.0 63761.0 123036.0 119382.0 34992.0 31434.0 110677.0 112486.0 53105.0 60973.0 94257.0 97560.0 109200.0 106323.0 80213.0 79235.0 241234.0 234975.0 132962.0 125722.0 64538.0 71722.0 66171.0 72795.0 7257.0 14765.0 262346.0 257138.0 103169.0 101414.0 46846.0 38590.0 79308.0 75032.0 41333.0 34962.0 84412.0 85836.0 226336.0 231746.0 83541.0 77817.0 103150.0 100534.0 309299.0 307503.0 101003.0 93556.0 89521.0 96483.0 57471.0 54930.0 216166.0 208789.0 270870.0 278495.0 17838.0 15754.0 192826.0 191094.0 97684.0 96293.0 56768.0 50341.0 71534.0 64933.0 90387.0 89514.0 75844.0 68167.0 105458.0 107566.0 66892.0 62134.0 80503.0 72649.0 95817.0 95228.0 163633.0 166591.0 263225.0 255057.0 62338.0 57981.0 220594.0 221965.0 177146.0 175344.0 29071.0 31342.0 55556.0 63296.0 268336.0 269376.0 93448.0 100853.0 51514.0 52221.0 19016.0 11034.0 187474.0 181610.0 116018.0 115047.0 151249.0 154561.0 43179.0 35237.0 70988.0 66504.0 93350.0 142168.0 93350.0 93350.0 93350.0 93350.0 93350.0 93350.0 93350.0 142168.0 142168.0 142168.0 142168.0 142168.0 142168.0 142168.0
60450.0 64452.0 0.0 7991.0 76770.0 78919.0 33672.0 35192.0 50313.0 47983.0 81717.0 84170.0 214491.0 207352.0 333512.0 340330.0 104532.0 97095.0 50134.0 52845.0 52891.0 53014.0 190558.0 197371.0 336065.0 327850.0 65017.0 70073.0 76476.0 84008.0 117993.0 120110.0 104918.0 111412.0 100209.0 92140.0 345291.0 337340.0 42824.0 40777.0 59863.0 52068.0 60473.0 57127.0 81794.0 75620.0 19238.0 24197.0 64882.0 71412.0 107723.0 113652.0 63372.0 57914.0 58192.0 51116.0 155090.0 159523.0 99634.0 106856.0 147339.0 152607.0 155789.0 151765.0 130370.0 126212.0 275735.0 268533.0 160747.0 152379.0 118272.0 125053.0 94173.0 95941.0 71235.0 76730.0 303867.0 297674.0 133427.0 135572.0 91445.0 85226.0 18936.0 20516.0 62948.0 56635.0 133875.0 137914.0 269759.0 276176.0 114012.0 112427.0 49476.0 43680.0 352586.0 349661.0 127527.0 119644.0 41764.0 49967.0 107622.0 108974.0 249298.0 241565.0 313111.0 320211.0 78626.0 71247.0 150048.0 146192.0 147551.0 143385.0 62735.0 55964.0 92070.0 83856.0 118709.0 113615.0 116930.0 111831.0 140011.0 138517.0 23636.0 28748.0 111805.0 107141.0 141359.0 137857.0 136867.0 142369.0 308411.0 300234.0 97360.0 98469.0 265321.0 265054.0 122106.0 122232.0 74610.0 68636.0 28607.0 31768.0 310758.0 313005.0 69414.0 77373.0 96378.0 101567.0 55825.0 59714.0 219548.0 212392.0 74480.0 69625.0 183423.0 184096.0 92144.0 85580.0 102623.0 103470.0 153652.0 193176.0 153652.0 153652.0 153652.0 153652.0 153652.0 153652.0 153652.0 193176.0 193176.0 193176.0 193176.0 193176.0 193176.0 193176.0
66703.0 70131.0 7991.0 0.0 81521.0 83006.0 40166.0 40485.0 57831.0 55035.0 89595.0 92135.0 222474.0 215328.0 341446.0 348276.0 105311.0 97646.0 54870.0 56622.0 47954.0 47125.0 198328.0 205178.0 344049.0 335833.0 69913.0 74359.0 84464.0 91998.0 125585.0 127847.0 107473.0 114310.0 98168.0 90195.0 353277.0 345326.0 46078.0 45301.0 64956.0 57375.0 57563.0 53303.0 82123.0 76541.0 12764.0 16450.0 70479.0 77369.0 115404.0 121203.0 62289.0 56037.0 65959.0 58751.0 156101.0 160879.0 107245.0 114539.0 149768.0 155331.0 163602.0 159605.0 132527.0 127964.0 283700.0 276490.0 168690.0 160317.0 125634.0 132472.0 102156.0 103926.0 77095.0 82972.0 311852.0 305664.0 132826.0 135438.0 93695.0 87959.0 20607.0 24825.0 70845.0 64405.0 135881.0 140275.0 277722.0 284127.0 113825.0 112803.0 51186.0 44572.0 360564.0 357647.0 135495.0 127618.0 45604.0 53570.0 115126.0 116264.0 257255.0 249521.0 321093.0 328197.0 85031.0 77920.0 152209.0 147989.0 149460.0 144919.0 61829.0 55705.0 91320.0 83260.0 118146.0 112643.0 118044.0 113396.0 147999.0 146504.0 30310.0 36135.0 119791.0 115095.0 142692.0 138824.0 141537.0 147283.0 316349.0 308170.0 98214.0 99972.0 273265.0 273021.0 121761.0 122418.0 81948.0 76187.0 27444.0 28523.0 318738.0 320974.0 75601.0 83392.0 104030.0 109069.0 59831.0 64484.0 227504.0 220336.0 78084.0 72621.0 191398.0 192041.0 99582.0 92869.0 110596.0 111377.0 157491.0 200878.0 157491.0 157491.0 157491.0 157491.0 157491.0 157491.0 157491.0 200878.0 200878.0 200878.0 200878.0 200878.0 200878.0 200878.0
24205.0 16322.0 76770.0 81521.0 0.0 8189.0 45489.0 41647.0 45453.0 39434.0 61835.0 69726.0 186136.0 180761.0 290742.0 297595.0 171896.0 165604.0 26677.0 26221.0 129391.0 128508.0 143163.0 151016.0 302930.0 294791.0 11809.0 8746.0 69702.0 76773.0 73280.0 79914.0 39247.0 41999.0 79250.0 73542.0 311171.0 303619.0 37055.0 36220.0 111784.0 104900.0 69095.0 75039.0 47332.0 40095.0 94227.0 95608.0 15349.0 16374.0 68571.0 68689.0 137419.0 133291.0 50752.0 47701.0 94774.0 96343.0 60659.0 67994.0 77938.0 81327.0 113173.0 110874.0 64009.0 63352.0 247148.0 241222.0 142294.0 135516.0 67283.0 74179.0 78271.0 85472.0 15109.0 20587.0 265843.0 261011.0 89639.0 87171.0 32781.0 24859.0 92990.0 89415.0 56672.0 50868.0 68233.0 69524.0 229448.0 234435.0 70691.0 64276.0 118271.0 115205.0 311889.0 310503.0 111617.0 104570.0 104994.0 112164.0 62851.0 58364.0 222718.0 215523.0 274057.0 281817.0 23651.0 27229.0 209095.0 207299.0 81424.0 80232.0 54144.0 49496.0 62156.0 56800.0 77721.0 77882.0 60989.0 53062.0 113800.0 116834.0 81982.0 77719.0 90895.0 82664.0 79916.0 79698.0 179767.0 182608.0 265625.0 257458.0 49678.0 44148.0 223274.0 225240.0 192552.0 190969.0 40995.0 45283.0 62600.0 69503.0 271476.0 272075.0 109758.0 117131.0 59948.0 58575.0 22633.0 17065.0 194670.0 189245.0 132150.0 130985.0 159014.0 162978.0 50932.0 43700.0 81884.0 76242.0 78028.0 143376.0 78028.0 78028.0 78028.0 78028.0 78028.0 78028.0 78028.0 143376.0 143376.0 143376.0 143376.0 143376.0 143376.0 143376.0
31124.0 23142.0 78919.0 83006.0 8189.0 0.0 49436.0 44415.0 52090.0 45512.0 69979.0 77848.0 193683.0 188406.0 297189.0 304042.0 176609.0 170121.0 29196.0 26432.0 130952.0 129565.0 149605.0 157503.0 309944.0 301823.0 16264.0 9037.0 77641.0 84816.0 80723.0 87542.0 31946.0 35624.0 71745.0 66329.0 318108.0 310594.0 37247.0 38178.0 117489.0 110398.0 64579.0 71051.0 39973.0 33181.0 95548.0 96258.0 22107.0 24429.0 76410.0 76194.0 140763.0 136235.0 58085.0 54460.0 87544.0 89479.0 68619.0 75854.0 72083.0 76025.0 120267.0 118114.0 57331.0 56105.0 254528.0 248678.0 150328.0 143600.0 74321.0 81086.0 86450.0 93627.0 23127.0 28758.0 272590.0 267867.0 81473.0 79097.0 24616.0 16672.0 95958.0 92981.0 64242.0 58093.0 61479.0 63339.0 236112.0 240970.0 62504.0 56101.0 122395.0 118892.0 318339.0 317078.0 119773.0 112747.0 109557.0 116962.0 70478.0 65647.0 230250.0 223097.0 280708.0 288503.0 31780.0 35329.0 214935.0 212921.0 74901.0 73226.0 49080.0 45373.0 54532.0 49580.0 69537.0 69777.0 53057.0 45223.0 121735.0 124879.0 86250.0 82547.0 99050.0 90803.0 72686.0 72127.0 186718.0 189724.0 272073.0 263906.0 41512.0 35979.0 229817.0 231956.0 196852.0 195552.0 49142.0 53221.0 61940.0 68249.0 278116.0 278582.0 116249.0 123771.0 68003.0 66386.0 23178.0 20240.0 202347.0 197005.0 137652.0 136119.0 166818.0 170880.0 58959.0 51818.0 90064.0 84370.0 74759.0 149722.0 74759.0 74759.0 74759.0 74759.0 74759.0 74759.0 74759.0 149722.0 149722.0 149722.0 149722.0 149722.0 149722.0 149722.0
26800.0 31413.0 33672.0 40166.0 45489.0 49436.0 0.0 8408.0 21103.0 15697.0 54903.0 59622.0 190782.0 184132.0 305889.0 312721.0 127278.0 120711.0 20811.0 27039.0 86313.0 86686.0 160864.0 168028.0 311819.0 303584.0 33796.0 40424.0 53897.0 62300.0 87300.0 90544.0 79265.0 84435.0 92752.0 84895.0 320763.0 312905.0 22465.0 15036.0 70060.0 62503.0 61408.0 62545.0 66016.0 58104.0 52674.0 56222.0 31981.0 37933.0 77804.0 82729.0 91965.0 88059.0 31084.0 23081.0 133309.0 136473.0 69263.0 76958.0 121040.0 125348.0 126722.0 123054.0 105269.0 102572.0 252623.0 245798.0 139384.0 131340.0 86363.0 93361.0 70206.0 74212.0 37861.0 43069.0 277849.0 272051.0 118278.0 118523.0 67471.0 59898.0 47905.0 43938.0 37806.0 29760.0 109185.0 111993.0 242808.0 248841.0 98033.0 94329.0 72976.0 69720.0 325974.0 323520.0 105849.0 97865.0 60214.0 67784.0 76469.0 76820.0 226626.0 218995.0 286823.0 294169.0 44964.0 37756.0 167185.0 164684.0 122891.0 120053.0 54803.0 46765.0 79788.0 71678.0 104011.0 100826.0 95860.0 89332.0 115285.0 115258.0 36822.0 33652.0 87467.0 81305.0 118764.0 116638.0 143775.0 147849.0 280773.0 272605.0 78243.0 76826.0 237819.0 238219.0 147417.0 146155.0 42959.0 38494.0 34617.0 42661.0 284386.0 286135.0 72110.0 80224.0 66367.0 70455.0 28546.0 29200.0 197100.0 190446.0 89480.0 87280.0 160515.0 162355.0 60772.0 53569.0 77691.0 76508.0 123494.0 162894.0 123494.0 123494.0 123494.0 123494.0 123494.0 123494.0 123494.0 162894.0 162894.0 162894.0 162894.0 162894.0 162894.0 162894.0
27157.0 29691.0 35192.0 40485.0 41647.0 44415.0 8408.0 0.0 27654.0 20785.0 60985.0 66276.0 196845.0 190332.0 310631.0 317484.0 133364.0 126584.0 15231.0 19933.0 88007.0 87602.0 164901.0 172214.0 317570.0 309338.0 29859.0 35411.0 61095.0 69533.0 91177.0 95013.0 72906.0 78541.0 84344.0 76492.0 326430.0 318604.0 14089.0 7169.0 77587.0 69901.0 53643.0 55300.0 57825.0 50010.0 53247.0 55659.0 30008.0 37127.0 82222.0 86506.0 96354.0 91865.0 37806.0 29943.0 126220.0 129658.0 73539.0 81396.0 115052.0 119695.0 131192.0 127701.0 98873.0 95787.0 258730.0 252004.0 146131.0 138182.0 89383.0 96498.0 76850.0 81295.0 36756.0 43113.0 283116.0 277447.0 110230.0 110669.0 60561.0 53288.0 51562.0 48706.0 44823.0 36617.0 102691.0 105861.0 247810.0 253697.0 90004.0 86520.0 78511.0 74626.0 331000.0 328702.0 112690.0 104736.0 66464.0 74279.0 80159.0 79715.0 232876.0 225280.0 291993.0 299411.0 45498.0 39350.0 174353.0 171646.0 116432.0 113257.0 46460.0 38431.0 71450.0 63316.0 95887.0 92564.0 88511.0 82229.0 121348.0 121696.0 42934.0 40755.0 93833.0 87310.0 111801.0 109395.0 151911.0 156070.0 285515.0 277347.0 70488.0 69476.0 242629.0 243267.0 152977.0 152046.0 46904.0 43606.0 29152.0 37319.0 289531.0 291110.0 80270.0 88418.0 70887.0 74248.0 22077.0 24650.0 203455.0 196926.0 96628.0 94033.0 166853.0 168949.0 64528.0 56939.0 83996.0 82202.0 119091.0 166617.0 119091.0 119091.0 119091.0 119091.0 119091.0 119091.0 119091.0 166617.0 166617.0 166617.0 166617.0 166617.0 166617.0 166617.0
21268.0 29148.0 50313.0 57831.0 45453.0 52090.0 21103.0 27654.0 0.0 8006.0 33806.0 38665.0 169681.0 163045.0 285205.0 292054.0 129175.0 123490.0 31013.0 38933.0 100339.0 102023.0 140829.0 147839.0 290727.0 282493.0 36237.0 44285.0 33563.0 41999.0 67765.0 70323.0 84009.0 87410.0 108732.0 101237.0 299684.0 291821.0 39571.0 31524.0 67177.0 60820.0 81084.0 82953.0 79322.0 71030.0 69451.0 74279.0 30147.0 31576.0 57729.0 63372.0 99949.0 97635.0 10152.0 2646.0 139559.0 141561.0 49449.0 56868.0 123340.0 126448.0 106364.0 102557.0 109335.0 108145.0 231527.0 224716.0 118514.0 110540.0 68031.0 74758.0 49250.0 53668.0 32274.0 33564.0 256887.0 251043.0 129614.0 128655.0 74714.0 66504.0 59738.0 53548.0 17247.0 9010.0 113519.0 114977.0 221975.0 228088.0 109526.0 104608.0 78323.0 77117.0 305111.0 302585.0 85046.0 77087.0 63842.0 69981.0 57312.0 58859.0 205551.0 197927.0 265899.0 273214.0 33957.0 25416.0 164017.0 162513.0 126827.0 125316.0 72441.0 64608.0 94123.0 86496.0 116051.0 114038.0 103900.0 96501.0 94182.0 94223.0 43455.0 36989.0 66401.0 60205.0 124715.0 123800.0 134667.0 137815.0 260088.0 251921.0 88636.0 85410.0 217097.0 217363.0 150849.0 148471.0 24539.0 18360.0 55716.0 63764.0 263473.0 265305.0 64305.0 71714.0 46303.0 51257.0 38475.0 34349.0 176049.0 169437.0 87809.0 87511.0 139456.0 141396.0 41849.0 35560.0 56607.0 55480.0 120994.0 143177.0 120994.0 120994.0 120994.0 120994.0 120994.0 120994.0 120994.0 143177.0 143177.0 143177.0 143177.0 143177.0 143177.0 143177.0
15938.0 23219.0 47983.0 55035.0 39434.0 45512.0 15697.0 20785.0 8006.0 0.0 40218.0 45745.0 176060.0 169552.0 290344.0 297161.0 133245.0 127255.0 23022.0 30938.0 99617.0 100666.0 145173.0 152351.0 296825.0 288592.0 29358.0 37308.0 41211.0 49619.0 71604.0 74895.0 77257.0 81078.0 100731.0 93248.0 305705.0 297871.0 31833.0 23863.0 72369.0 65586.0 73642.0 75846.0 71362.0 63078.0 67213.0 71337.0 24136.0 27254.0 62139.0 67041.0 101770.0 98823.0 17698.0 10644.0 132665.0 134916.0 53576.0 61296.0 117317.0 120751.0 111085.0 107460.0 102840.0 101316.0 237945.0 231223.0 125536.0 117654.0 70823.0 77777.0 56277.0 61104.0 27674.0 30720.0 262534.0 256809.0 121883.0 121077.0 67432.0 59278.0 59701.0 54305.0 24938.0 16766.0 106976.0 108757.0 227361.0 233336.0 101754.0 96971.0 80972.0 79010.0 310543.0 308163.0 92186.0 84268.0 66937.0 73626.0 60791.0 61344.0 212099.0 204508.0 271457.0 278841.0 31877.0 23792.0 169665.0 167883.0 120412.0 118599.0 64586.0 56802.0 86133.0 78492.0 108231.0 106118.0 96595.0 89325.0 100563.0 100975.0 45090.0 39568.0 73105.0 66525.0 117853.0 116698.0 141687.0 145022.0 265228.0 257060.0 80949.0 77960.0 222296.0 222792.0 154470.0 152455.0 27289.0 22983.0 49642.0 57785.0 269008.0 270680.0 70791.0 78417.0 50713.0 54771.0 30566.0 26901.0 182695.0 176198.0 92802.0 91927.0 146094.0 148268.0 45100.0 38004.0 63258.0 61440.0 116316.0 147199.0 116316.0 116316.0 116316.0 116316.0 116316.0 116316.0 116316.0 147199.0 147199.0 147199.0 147199.0 147199.0 147199.0 147199.0
42879.0 49260.0 81717.0 89595.0 61835.0 69979.0 54903.0 60985.0 33806.0 40218.0 0.0 8048.0 135921.0 129355.0 252020.0 258865.0 139959.0 135815.0 60171.0 67630.0 127520.0 130514.0 109139.0 115783.0 256922.0 248687.0 58077.0 65237.0 12599.0 16095.0 39201.0 39306.0 99938.0 100684.0 136733.0 129815.0 265885.0 258018.0 71309.0 63652.0 76659.0 73144.0 113427.0 115986.0 105483.0 97303.0 100183.0 105907.0 50209.0 45596.0 28084.0 35819.0 120352.0 120035.0 24118.0 32016.0 154237.0 154521.0 22194.0 27253.0 133093.0 134255.0 74212.0 70097.0 122420.0 123365.0 197790.0 191029.0 85579.0 77865.0 43273.0 48522.0 16967.0 23667.0 46928.0 41797.0 223236.0 217327.0 151444.0 148965.0 94595.0 86550.0 86923.0 79451.0 18794.0 25598.0 126727.0 126192.0 188541.0 194785.0 132246.0 126059.0 97150.0 98413.0 271602.0 268969.0 52570.0 44831.0 82336.0 85907.0 31289.0 36668.0 171893.0 164295.0 232304.0 239572.0 39368.0 34683.0 165592.0 165741.0 138771.0 139206.0 103076.0 95657.0 120721.0 113897.0 139200.0 138673.0 122594.0 114537.0 60410.0 60795.0 68368.0 60594.0 32932.0 26402.0 139588.0 140364.0 127253.0 128543.0 226904.0 218705.0 111074.0 105953.0 183856.0 183892.0 162970.0 159057.0 20841.0 18535.0 89497.0 97563.0 229897.0 231858.0 66467.0 71228.0 18553.0 26255.0 65898.0 59148.0 142477.0 135998.0 96314.0 98799.0 105876.0 108132.0 21239.0 22424.0 23075.0 21876.0 124185.0 112154.0 124185.0 124185.0 124185.0 124185.0 124185.0 124185.0 124185.0 112154.0 112154.0 112154.0 112154.0 112154.0 112154.0 112154.0
50079.0 56761.0 84170.0 92135.0 69726.0 77848.0 59622.0 66276.0 38665.0 45745.0 8048.0 0.0 131443.0 124654.0 249417.0 256192.0 135767.0 131985.0 66754.0 74376.0 127800.0 131260.0 108227.0 114538.0 252797.0 244565.0 65572.0 72880.0 8775.0 8418.0 41616.0 40116.0 107955.0 108732.0 143873.0 136839.0 261870.0 253965.0 77359.0 69524.0 73072.0 70294.0 119357.0 121541.0 112825.0 104601.0 102114.0 108232.0 57733.0 53431.0 30600.0 38949.0 118625.0 118867.0 28553.0 36545.0 162285.0 162555.0 26663.0 29863.0 141067.0 142153.0 73214.0 68851.0 130465.0 131407.0 193191.0 186284.0 79856.0 71921.0 47201.0 51644.0 10588.0 16056.0 54752.0 49798.0 219827.0 213744.0 159283.0 156886.0 102453.0 94375.0 87668.0 79933.0 21986.0 29863.0 134771.0 134210.0 185589.0 192025.0 139998.0 133890.0 95314.0 97208.0 268451.0 265611.0 46443.0 38526.0 80709.0 83567.0 35423.0 41798.0 167089.0 159437.0 229016.0 236173.0 47404.0 42520.0 159551.0 159971.0 146796.0 147252.0 109576.0 102019.0 128044.0 121087.0 146928.0 146265.0 130557.0 122514.0 56169.0 55667.0 68851.0 61008.0 28020.0 23024.0 147635.0 148396.0 120108.0 121182.0 224304.0 216134.0 118808.0 113802.0 181197.0 180886.0 158920.0 154704.0 28763.0 25570.0 94190.0 102149.0 226647.0 228840.0 61647.0 65758.0 23289.0 31225.0 72839.0 66357.0 137513.0 130825.0 92113.0 95153.0 100949.0 102743.0 28011.0 30201.0 18501.0 20297.0 131866.0 111706.0 131866.0 131866.0 131866.0 131866.0 131866.0 131866.0 131866.0 111706.0 111706.0 111706.0 111706.0 111706.0 111706.0 111706.0
175491.0 179635.0 214491.0 222474.0 186136.0 193683.0 190782.0 196845.0 169681.0 176060.0 135921.0 131443.0 0.0 7996.0 126844.0 132327.0 228667.0 228982.0 194150.0 200832.0 251233.0 256330.0 62146.0 56622.0 121574.0 113360.0 187711.0 192813.0 138349.0 130535.0 112984.0 106241.0 214651.0 211116.0 265378.0 259586.0 130837.0 122870.0 206301.0 199013.0 182610.0 184607.0 248236.0 251439.0 233467.0 226062.0 231242.0 238025.0 180330.0 173160.0 118069.0 117489.0 232827.0 236138.0 159761.0 167757.0 257380.0 253956.0 126544.0 118742.0 229658.0 227021.0 75497.0 76519.0 227808.0 232474.0 61891.0 55362.0 55180.0 63539.0 120192.0 114135.0 120976.0 118553.0 174455.0 166785.0 91700.0 84728.0 268911.0 263875.0 215833.0 209335.0 214353.0 206266.0 153426.0 161151.0 231501.0 227217.0 63223.0 71069.0 252990.0 245380.0 211245.0 216074.0 140943.0 136986.0 87137.0 94914.0 199364.0 198346.0 123291.0 128188.0 36588.0 29453.0 101430.0 107758.0 163443.0 163949.0 223525.0 228476.0 238759.0 243071.0 236318.0 229514.0 248213.0 242883.0 260032.0 261992.0 237834.0 229901.0 75511.0 76024.0 195820.0 188305.0 103429.0 109542.0 245337.0 249274.0 171603.0 166291.0 103285.0 95087.0 233565.0 226391.0 62806.0 58446.0 250144.0 243148.0 151859.0 153455.0 225396.0 233434.0 99379.0 103180.0 166172.0 163564.0 128190.0 127848.0 198370.0 190621.0 12001.0 14422.0 192957.0 199731.0 31341.0 32994.0 136488.0 144401.0 113124.0 114746.0 213451.0 68145.0 213451.0 213451.0 213451.0 213451.0 213451.0 213451.0 213451.0 68145.0 68145.0 68145.0 68145.0 68145.0 68145.0 68145.0
169440.0 173790.0 207352.0 215328.0 180761.0 188406.0 184132.0 190332.0 163045.0 169552.0 129355.0 124654.0 7996.0 0.0 134839.0 140309.0 220673.0 220989.0 188019.0 194812.0 243592.0 248752.0 62063.0 57363.0 128799.0 120605.0 181971.0 187258.0 131388.0 123484.0 107858.0 100865.0 210118.0 206825.0 260004.0 254085.0 138150.0 130163.0 200038.0 192666.0 174784.0 176859.0 242054.0 245105.0 228064.0 220564.0 223953.0 230795.0 174509.0 167466.0 112418.0 112272.0 224975.0 228340.0 153070.0 161074.0 253883.0 250677.0 120781.0 113063.0 226375.0 223734.0 71629.0 72212.0 223966.0 228431.0 68544.0 61675.0 47500.0 55899.0 115438.0 109611.0 114138.0 111459.0 168775.0 161186.0 99564.0 92526.0 264484.0 259613.0 210872.0 204227.0 206919.0 198830.0 146639.0 154440.0 227726.0 223641.0 71170.0 78996.0 248251.0 240714.0 203461.0 208348.0 148788.0 144746.0 79868.0 87712.0 191670.0 190568.0 117932.0 123137.0 42561.0 35043.0 109315.0 115574.0 157856.0 158065.0 215766.0 220664.0 235338.0 239436.0 230371.0 223470.0 242902.0 237417.0 255314.0 257083.0 233417.0 225430.0 69021.0 69063.0 188442.0 180966.0 96681.0 103039.0 241596.0 245351.0 163834.0 158592.0 111265.0 103062.0 228607.0 221547.0 70579.0 66381.0 242160.0 235171.0 145749.0 147079.0 218748.0 226755.0 107286.0 111144.0 158334.0 155658.0 122282.0 122294.0 192423.0 184741.0 14091.0 11601.0 185008.0 191804.0 23940.0 25041.0 130730.0 138593.0 106441.0 108408.0 210164.0 68493.0 210164.0 210164.0 210164.0 210164.0 210164.0 210164.0 210164.0 68493.0 68493.0 68493.0 68493.0 68493.0 68493.0 68493.0
286037.0 288341.0 333512.0 341446.0 290742.0 297189.0 305889.0 310631.0 285205.0 290344.0 252020.0 249417.0 126844.0 134839.0 0.0 8022.0 355480.0 355825.0 304759.0 310307.0 374779.0 379233.0 147591.0 139727.0 54703.0 53717.0 295271.0 298650.0 257429.0 250549.0 220057.0 215634.0 311980.0 307068.0 367697.0 363065.0 53086.0 52321.0 317703.0 311321.0 308141.0 309475.0 358019.0 362530.0 336741.0 330362.0 351507.0 357631.0 288817.0 280886.0 228424.0 224819.0 358460.0 361253.0 276028.0 283732.0 349978.0 346482.0 237138.0 229245.0 322179.0 319528.0 179525.0 182930.0 321451.0 326882.0 83884.0 91195.0 180856.0 188892.0 224007.0 216900.0 239712.0 239245.0 282022.0 274024.0 39872.0 47798.0 364779.0 358964.0 316072.0 310854.0 336169.0 328183.0 270634.0 277543.0 324880.0 320022.0 64683.0 57626.0 350913.0 342959.0 336316.0 340601.0 28460.0 32603.0 209956.0 217076.0 323680.0 323415.0 231189.0 233482.0 104152.0 110307.0 31096.0 30657.0 270738.0 273574.0 347760.0 353243.0 331298.0 335948.0 344264.0 338466.0 350298.0 346449.0 357711.0 360902.0 334027.0 326547.0 194528.0 197574.0 317315.0 309548.0 222302.0 226402.0 338517.0 343055.0 296224.0 290298.0 25228.0 33284.0 333345.0 325521.0 68247.0 69542.0 376808.0 369709.0 263782.0 267401.0 339782.0 347949.0 31693.0 25269.0 291860.0 289787.0 239746.0 236842.0 307308.0 299241.0 127821.0 135771.0 319479.0 326073.0 156887.0 159764.0 246459.0 254328.0 231080.0 230159.0 305958.0 149265.0 305958.0 305958.0 305958.0 305958.0 305958.0 305958.0 305958.0 149265.0 149265.0 149265.0 149265.0 149265.0 149265.0 149265.0
292889.0 295194.0 340330.0 348276.0 297595.0 304042.0 312721.0 317484.0 292054.0 297161.0 258865.0 256192.0 132327.0 140309.0 8022.0 0.0 360769.0 361249.0 311612.0 317159.0 381173.0 385713.0 154443.0 146580.0 51147.0 51322.0 302124.0 305503.0 264143.0 257179.0 226910.0 222487.0 318832.0 313920.0 374550.0 369918.0 48255.0 48564.0 324556.0 318174.0 314161.0 315627.0 364872.0 369383.0 343594.0 337215.0 358239.0 364424.0 295670.0 287739.0 235277.0 231672.0 364478.0 367384.0 282879.0 290585.0 356831.0 353335.0 243990.0 236097.0 329032.0 326381.0 186377.0 189783.0 328304.0 333735.0 86551.0 94124.0 186716.0 194823.0 230860.0 223753.0 246415.0 245799.0 288875.0 280876.0 43059.0 51003.0 371632.0 365816.0 322925.0 317707.0 342742.0 334739.0 277499.0 284393.0 331733.0 326875.0 70942.0 64184.0 357766.0 349812.0 342445.0 346829.0 20951.0 26016.0 216249.0 223451.0 329932.0 329538.0 238042.0 240335.0 108085.0 114526.0 33550.0 31136.0 277591.0 280427.0 352135.0 357730.0 338151.0 342800.0 351117.0 345319.0 357151.0 353302.0 364564.0 367755.0 340880.0 333400.0 201076.0 203947.0 323904.0 316153.0 228952.0 233193.0 345370.0 349908.0 300743.0 294704.0 32458.0 40238.0 340198.0 332374.0 75015.0 75764.0 381939.0 374777.0 270635.0 274229.0 346555.0 354722.0 34728.0 29390.0 297836.0 295616.0 246598.0 243695.0 314161.0 306094.0 132740.0 140729.0 325198.0 331870.0 162699.0 165308.0 253312.0 261181.0 237814.0 236999.0 312811.0 156118.0 312811.0 312811.0 312811.0 312811.0 312811.0 312811.0 312811.0 156118.0 156118.0 156118.0 156118.0 156118.0 156118.0 156118.0
149182.0 156194.0 104532.0 105311.0 171896.0 176609.0 127278.0 133364.0 129175.0 133245.0 139959.0 135767.0 228667.0 220673.0 355480.0 360769.0 0.0 8092.0 147995.0 153253.0 76898.0 84889.0 233256.0 237550.0 341524.0 333880.0 160613.0 167643.0 127739.0 129024.0 177137.0 174288.0 206267.0 211695.0 203301.0 195395.0 351420.0 343523.0 144996.0 140385.0 63636.0 68712.0 162315.0 157036.0 186264.0 179821.0 98046.0 103867.0 157027.0 160366.0 166293.0 174706.0 46193.0 54478.0 129045.0 127709.0 258814.0 262724.0 161995.0 165583.0 248289.0 252608.0 200702.0 195910.0 232236.0 228962.0 280860.0 272824.0 176193.0 168853.0 182898.0 187361.0 139640.0 134817.0 160875.0 162727.0 319023.0 311521.0 237899.0 240099.0 193737.0 186639.0 85628.0 85576.0 127441.0 128018.0 236035.0 239176.0 291630.0 299314.0 218544.0 216822.0 55339.0 60908.0 367632.0 362682.0 153462.0 148658.0 67066.0 59734.0 170996.0 176608.0 255256.0 247987.0 328881.0 334431.0 162911.0 154368.0 51266.0 45137.0 249780.0 246381.0 166997.0 160460.0 196455.0 188297.0 223187.0 217890.0 220705.0 215035.0 172032.0 166062.0 90517.0 94179.0 151233.0 152670.0 244699.0 241701.0 71642.0 79453.0 331860.0 323622.0 201492.0 201893.0 290090.0 286789.0 23290.0 19338.0 148676.0 140599.0 132565.0 133554.0 327059.0 331452.0 74380.0 72051.0 158413.0 166209.0 155398.0 156386.0 228234.0 220221.0 43670.0 41879.0 199517.0 195880.0 160189.0 157826.0 147193.0 153637.0 249526.0 238506.0 249526.0 249526.0 249526.0 249526.0 249526.0 249526.0 249526.0 238506.0 238506.0 238506.0 238506.0 238506.0 238506.0 238506.0
143183.0 150053.0 97095.0 97646.0 165604.0 170121.0 120711.0 126584.0 123490.0 127255.0 135815.0 131985.0 228982.0 220989.0 355825.0 361249.0 8092.0 0.0 141346.0 146422.0 68870.0 76884.0 231403.0 235922.0 343091.0 335377.0 154219.0 161126.0 123775.0 125532.0 173522.0 170998.0 199477.0 205043.0 195522.0 187637.0 352968.0 345042.0 137963.0 133554.0 59170.0 63592.0 154493.0 149137.0 178880.0 172538.0 90149.0 95883.0 150864.0 154459.0 162578.0 170923.0 38106.0 46386.0 123841.0 122128.0 251686.0 255707.0 157951.0 161847.0 241609.0 246053.0 198402.0 193618.0 225412.0 222002.0 282204.0 274191.0 175863.0 168336.0 178949.0 183628.0 136381.0 131921.0 154924.0 157050.0 319765.0 312334.0 230355.0 232658.0 186804.0 179804.0 78165.0 78457.0 122595.0 122757.0 229173.0 232443.0 291735.0 299357.0 211082.0 209482.0 48218.0 53417.0 368548.0 363738.0 151948.0 146813.0 60613.0 53630.0 167001.0 172374.0 256394.0 249042.0 329614.0 335303.0 157356.0 148802.0 59230.0 53206.0 242920.0 239393.0 159406.0 152957.0 188882.0 180751.0 215649.0 210275.0 213549.0 207987.0 170360.0 164641.0 83892.0 87929.0 148656.0 149672.0 237646.0 234539.0 76306.0 84115.0 332003.0 323746.0 194239.0 194794.0 289963.0 286881.0 27441.0 25463.0 143635.0 135561.0 124968.0 125797.0 327744.0 331987.0 71185.0 69705.0 154339.0 162062.0 148650.0 149882.0 228973.0 220962.0 40154.0 37058.0 199418.0 196078.0 155722.0 153038.0 144160.0 150323.0 243402.0 236487.0 243402.0 243402.0 243402.0 243402.0 243402.0 243402.0 243402.0 236487.0 236487.0 236487.0 236487.0 236487.0 236487.0 236487.0
18826.0 17468.0 50134.0 54870.0 26677.0 29196.0 20811.0 15231.0 31013.0 23022.0 60171.0 66754.0 194150.0 188019.0 304759.0 311612.0 147995.0 141346.0 0.0 7924.0 102715.0 101917.0 157982.0 165537.0 313798.0 305585.0 15059.0 20182.0 63375.0 71640.0 84707.0 89620.0 58454.0 63704.0 77878.0 70521.0 322443.0 314705.0 13130.0 9610.0 90572.0 83126.0 54109.0 57874.0 48370.0 40105.0 67596.0 69255.0 17385.0 25430.0 76990.0 79942.0 111567.0 107093.0 40189.0 33657.0 112709.0 115730.0 68259.0 76225.0 100295.0 104738.0 125339.0 122237.0 84458.0 81832.0 255954.0 249503.0 145588.0 137986.0 81416.0 88611.0 76975.0 82618.0 24671.0 32174.0 278292.0 272922.0 99426.0 99059.0 46847.0 39143.0 66793.0 63820.0 47409.0 39477.0 88378.0 91209.0 242490.0 248058.0 79211.0 74848.0 93419.0 89741.0 325576.0 323618.0 112741.0 104984.0 80952.0 88579.0 73578.0 71736.0 230539.0 223062.0 286940.0 294501.0 35122.0 31185.0 187867.0 185447.0 102081.0 99308.0 42906.0 35581.0 63111.0 55505.0 85546.0 83191.0 75556.0 68795.0 119156.0 120491.0 57481.0 54444.0 92819.0 85494.0 98096.0 96180.0 163009.0 166717.0 279643.0 271475.0 58734.0 56589.0 236924.0 238058.0 167906.0 166804.0 42290.0 41664.0 38148.0 45835.0 284428.0 285644.0 91479.0 99419.0 66183.0 68017.0 8031.0 9617.0 201498.0 195340.0 110202.0 108089.0 165022.0 167816.0 58556.0 50591.0 83023.0 79746.0 103862.0 159119.0 103862.0 103862.0 103862.0 103862.0 103862.0 103862.0 103862.0 159119.0 159119.0 159119.0 159119.0 159119.0 159119.0 159119.0
25384.0 21973.0 52845.0 56622.0 26221.0 26432.0 27039.0 19933.0 38933.0 30938.0 67630.0 74376.0 200832.0 194812.0 310307.0 317159.0 153253.0 146422.0 7924.0 0.0 104549.0 103140.0 163216.0 170860.0 320067.0 311864.0 16293.0 18113.0 71199.0 79430.0 90419.0 95708.0 53065.0 58961.0 69988.0 62676.0 328637.0 320933.0 10919.0 12870.0 97097.0 89516.0 47835.0 52298.0 40506.0 32267.0 69126.0 69891.0 21545.0 29626.0 83216.0 85651.0 115469.0 110553.0 48086.0 41577.0 106368.0 109731.0 74541.0 82478.0 95339.0 100194.0 131102.0 128157.0 78992.0 75855.0 262563.0 256193.0 152850.0 145328.0 86497.0 93676.0 84507.0 90299.0 28608.0 36540.0 284218.0 278959.0 91878.0 91746.0 40636.0 33387.0 70476.0 68277.0 55294.0 47391.0 82783.0 86080.0 248259.0 253699.0 71636.0 67525.0 98283.0 94134.0 331249.0 329422.0 120169.0 112460.0 86394.0 94210.0 79333.0 76900.0 237289.0 229849.0 292776.0 300385.0 39729.0 37098.0 194133.0 191512.0 96527.0 93327.0 35645.0 28690.0 55196.0 47582.0 77880.0 75370.0 68824.0 62373.0 126093.0 127656.0 62865.0 60513.0 100096.0 92627.0 91901.0 89627.0 170306.0 174133.0 285190.0 277023.0 51406.0 49787.0 242549.0 243873.0 172688.0 171880.0 49116.0 49095.0 36383.0 43420.0 290248.0 291323.0 98686.0 106695.0 72671.0 73961.0 3612.0 11317.0 208372.0 202313.0 116406.0 113940.0 171967.0 174924.0 64702.0 56715.0 90341.0 86758.0 100912.0 164086.0 100912.0 100912.0 100912.0 100912.0 100912.0 100912.0 100912.0 164086.0 164086.0 164086.0 164086.0 164086.0 164086.0 164086.0
113096.0 117336.0 52891.0 47954.0 129391.0 130952.0 86313.0 88007.0 100339.0 99617.0 127520.0 127800.0 251233.0 243592.0 374779.0 381173.0 76898.0 68870.0 102715.0 104549.0 0.0 8160.0 236025.0 242249.0 371732.0 363630.0 117715.0 122312.0 119189.0 125095.0 166051.0 166826.0 154465.0 161604.0 135472.0 128180.0 381299.0 373283.0 93910.0 93191.0 71431.0 67510.0 94859.0 88005.0 126134.0 121726.0 35462.0 36484.0 117772.0 124210.0 155199.0 162074.0 31984.0 23725.0 106281.0 100483.0 200376.0 205794.0 147839.0 154339.0 196426.0 202318.0 201014.0 196629.0 178907.0 173787.0 310458.0 302824.0 196092.0 187703.0 167773.0 174177.0 136421.0 135839.0 124073.0 129324.0 342561.0 335840.0 173508.0 177318.0 140450.0 135231.0 40853.0 48073.0 109230.0 104755.0 182031.0 186885.0 310231.0 317154.0 155967.0 156254.0 42977.0 36315.0 391770.0 388131.0 164982.0 157722.0 52157.0 54881.0 156444.0 158925.0 283841.0 276118.0 352126.0 358782.0 131043.0 123328.0 128083.0 122015.0 195389.0 190263.0 104104.0 99607.0 132656.0 125259.0 159232.0 152738.0 162887.0 159051.0 180401.0 177226.0 59153.0 66945.0 153194.0 150382.0 187695.0 183164.0 134319.0 141498.0 349823.0 341599.0 142862.0 145677.0 306668.0 305411.0 86211.0 89417.0 124828.0 117924.0 72234.0 69452.0 349924.0 352914.0 87509.0 92662.0 144332.0 150492.0 107781.0 112331.0 254417.0 246750.0 71470.0 63517.0 219924.0 219028.0 141584.0 135826.0 145212.0 148065.0 205338.0 239442.0 205338.0 205338.0 205338.0 205338.0 205338.0 205338.0 205338.0 239442.0 239442.0 239442.0 239442.0 239442.0 239442.0 239442.0
113457.0 117208.0 53014.0 47125.0 128508.0 129565.0 86686.0 87602.0 102023.0 100666.0 130514.0 131260.0 256330.0 248752.0 379233.0 385713.0 84889.0 76884.0 101917.0 103140.0 8160.0 0.0 239423.0 245798.0 377131.0 369006.0 116974.0 121112.0 122763.0 129011.0 168616.0 169763.0 151830.0 159174.0 130072.0 122960.0 386655.0 378642.0 92337.0 92319.0 77992.0 73588.0 89906.0 82753.0 122346.0 118369.0 34362.0 33588.0 117577.0 124338.0 157898.0 164519.0 40144.0 31873.0 108572.0 102374.0 196359.0 201997.0 150308.0 157033.0 193471.0 199568.0 204407.0 200097.0 175835.0 170453.0 315937.0 308354.0 201270.0 192857.0 169878.0 176425.0 140203.0 140037.0 124112.0 129740.0 347456.0 340818.0 168584.0 172668.0 137715.0 132868.0 43622.0 51345.0 111985.0 107026.0 178831.0 183923.0 314781.0 321616.0 151473.0 152123.0 50055.0 42992.0 396618.0 393100.0 169730.0 162340.0 58057.0 61489.0 158750.0 160848.0 289312.0 281576.0 356975.0 363711.0 131635.0 124171.0 136112.0 129977.0 192048.0 186676.0 100042.0 96038.0 128099.0 120919.0 154462.0 147778.0 159189.0 155692.0 184722.0 181823.0 62411.0 70254.0 157226.0 154046.0 183978.0 179218.0 142309.0 149449.0 354211.0 346009.0 139182.0 142394.0 311049.0 309977.0 93535.0 97009.0 126561.0 119944.0 69428.0 65831.0 354745.0 357605.0 93815.0 99303.0 146860.0 152749.0 106487.0 111517.0 259796.0 252187.0 79108.0 71208.0 224994.0 224326.0 143646.0 137582.0 148979.0 151435.0 203519.0 242642.0 203519.0 203519.0 203519.0 203519.0 203519.0 203519.0 203519.0 242642.0 242642.0 242642.0 242642.0 242642.0 242642.0 242642.0
139437.0 141249.0 190558.0 198328.0 143163.0 149605.0 160864.0 164901.0 140829.0 145173.0 109139.0 108227.0 62146.0 62063.0 147591.0 154443.0 233256.0 231403.0 157982.0 163216.0 236025.0 239423.0 0.0 7995.0 162168.0 154244.0 147932.0 151117.0 116845.0 111381.0 73724.0 70516.0 164620.0 159709.0 220238.0 215565.0 169769.0 162536.0 171037.0 165006.0 176092.0 175363.0 210763.0 215511.0 189216.0 182781.0 209248.0 214740.0 141677.0 133664.0 83126.0 78411.0 224945.0 226084.0 132373.0 139672.0 202620.0 199124.0 91601.0 83982.0 174821.0 172170.0 35019.0 39419.0 174093.0 179524.0 112405.0 108441.0 68158.0 71795.0 76725.0 69560.0 99886.0 101796.0 134764.0 126769.0 123475.0 119291.0 217421.0 211605.0 168653.0 163424.0 195803.0 188134.0 127897.0 133928.0 177522.0 172664.0 86809.0 91394.0 203554.0 195601.0 201751.0 204549.0 168743.0 167516.0 80048.0 84613.0 187699.0 189294.0 84777.0 86323.0 93181.0 87963.0 131290.0 139160.0 123521.0 126864.0 241626.0 244800.0 183940.0 188589.0 196802.0 191146.0 202911.0 198919.0 210352.0 213534.0 186669.0 179188.0 61315.0 67839.0 177042.0 169203.0 84213.0 85801.0 191159.0 195697.0 191472.0 188292.0 122474.0 114307.0 185951.0 178139.0 80254.0 82861.0 256317.0 250543.0 118066.0 122581.0 193976.0 202120.0 128674.0 128981.0 161224.0 161729.0 94573.0 90654.0 160129.0 152054.0 74070.0 73664.0 191768.0 196841.0 57329.0 65403.0 100373.0 108040.0 91131.0 87993.0 158600.0 7151.0 158600.0 158600.0 158600.0 158600.0 158600.0 158600.0 158600.0 7151.0 7151.0 7151.0 7151.0 7151.0 7151.0 7151.0
146937.0 148888.0 197371.0 205178.0 151016.0 157503.0 168028.0 172214.0 147839.0 152351.0 115783.0 114538.0 56622.0 57363.0 139727.0 146580.0 237550.0 235922.0 165537.0 170860.0 242249.0 245798.0 7995.0 0.0 154187.0 146271.0 155656.0 158931.0 123076.0 117334.0 81083.0 77531.0 172613.0 167701.0 228202.0 223504.0 161775.0 154548.0 178568.0 172450.0 181291.0 180827.0 218466.0 223144.0 197149.0 190683.0 215961.0 221565.0 149331.0 141343.0 90228.0 85801.0 230477.0 231823.0 139227.0 146618.0 210612.0 207115.0 98783.0 91078.0 182812.0 180161.0 41585.0 45732.0 182084.0 187515.0 104859.0 101088.0 69096.0 73559.0 84406.0 77262.0 105896.0 107389.0 142455.0 134458.0 115486.0 111298.0 225413.0 219597.0 176633.0 171381.0 202198.0 194468.0 134571.0 140777.0 185513.0 180656.0 78827.0 83470.0 211547.0 203592.0 207356.0 210353.0 160874.0 159588.0 84094.0 89168.0 193451.0 194806.0 92178.0 93961.0 86271.0 81340.0 123327.0 131188.0 131195.0 134387.0 244402.0 247801.0 191931.0 196581.0 204580.0 198868.0 210872.0 206850.0 218343.0 221529.0 194661.0 187173.0 65563.0 71586.0 183389.0 175545.0 89776.0 91875.0 199150.0 203689.0 193807.0 190342.0 114611.0 106444.0 193940.0 186131.0 72322.0 74868.0 260513.0 254588.0 125334.0 129655.0 201322.0 209475.0 120714.0 121080.0 166174.0 166356.0 101673.0 98001.0 167800.0 159725.0 68620.0 68904.0 196503.0 201775.0 55609.0 63584.0 107708.0 115436.0 97110.0 94404.0 166591.0 11757.0 166591.0 166591.0 166591.0 166591.0 166591.0 166591.0 166591.0 11757.0 11757.0 11757.0 11757.0 11757.0 11757.0 11757.0
294987.0 298389.0 336065.0 344049.0 302930.0 309944.0 311819.0 317570.0 290727.0 296825.0 256922.0 252797.0 121574.0 128799.0 54703.0 51147.0 341524.0 343091.0 313798.0 320067.0 371732.0 377131.0 162168.0 154187.0 0.0 8235.0 306006.0 310306.0 259862.0 252097.0 230097.0 224380.0 326732.0 321865.0 381390.0 376268.0 9922.0 2881.0 326312.0 319298.0 301820.0 304526.0 367838.0 371536.0 349891.0 342996.0 352752.0 359579.0 298991.0 291409.0 236861.0 234821.0 351489.0 355457.0 280926.0 288895.0 364784.0 361288.0 245564.0 237610.0 336985.0 334334.0 189764.0 192242.0 336257.0 341688.0 61399.0 69235.0 176031.0 184465.0 235661.0 228859.0 242397.0 240126.0 292640.0 284740.0 41035.0 43250.0 379468.0 373770.0 330239.0 324586.0 335638.0 327549.0 274748.0 282347.0 339686.0 334828.0 76524.0 74284.0 365664.0 357732.0 330773.0 336077.0 38726.0 30736.0 208657.0 216470.0 319626.0 317968.0 241011.0 244634.0 87943.0 95641.0 37325.0 30334.0 281392.0 282969.0 326258.0 332561.0 346104.0 350754.0 355098.0 348694.0 364054.0 359523.0 372490.0 375535.0 348813.0 341353.0 196658.0 197576.0 317217.0 309759.0 224784.0 230529.0 353323.0 357861.0 276458.0 269716.0 60542.0 62504.0 347715.0 340018.0 84356.0 79828.0 361249.0 353661.0 271692.0 273987.0 346379.0 354469.0 39744.0 44580.0 285327.0 281789.0 247633.0 246168.0 317363.0 309421.0 117335.0 124984.0 309968.0 317245.0 152736.0 152836.0 255367.0 263355.0 234376.0 235389.0 320764.0 164164.0 320764.0 320764.0 320764.0 320764.0 320764.0 320764.0 320764.0 164164.0 164164.0 164164.0 164164.0 164164.0 164164.0 164164.0
286776.0 290195.0 327850.0 335833.0 294791.0 301823.0 303584.0 309338.0 282493.0 288592.0 248687.0 244565.0 113360.0 120605.0 53717.0 51322.0 333880.0 335377.0 305585.0 311864.0 363630.0 369006.0 154244.0 146271.0 8235.0 0.0 297825.0 302149.0 251636.0 243877.0 221923.0 216183.0 318760.0 313938.0 373296.0 368150.0 17704.0 9697.0 318092.0 311072.0 293792.0 296454.0 359630.0 363317.0 341776.0 334862.0 344555.0 351373.0 290800.0 283227.0 228655.0 226645.0 343509.0 347435.0 272691.0 280661.0 356850.0 353353.0 237356.0 229402.0 329050.0 326399.0 181620.0 184074.0 328322.0 333753.0 53428.0 61327.0 167868.0 176301.0 227529.0 220741.0 234167.0 231910.0 284460.0 276564.0 34353.0 35737.0 371580.0 365835.0 322186.0 316503.0 327468.0 319378.0 266515.0 274113.0 331751.0 326894.0 68999.0 67162.0 357688.0 349765.0 322732.0 328006.0 42065.0 34444.0 200455.0 208263.0 311534.0 309918.0 232829.0 236483.0 79904.0 87582.0 32114.0 26140.0 273215.0 274767.0 319152.0 325391.0 338169.0 342819.0 346911.0 340495.0 355962.0 351403.0 364525.0 367530.0 340894.0 333412.0 188425.0 189355.0 309034.0 301569.0 216553.0 222294.0 345388.0 349926.0 269158.0 262473.0 56123.0 57170.0 339678.0 331996.0 76973.0 72147.0 353718.0 346158.0 263472.0 265756.0 338145.0 346235.0 34295.0 40002.0 277297.0 273810.0 239417.0 237974.0 309166.0 301228.0 109217.0 116895.0 302072.0 309322.0 144539.0 144693.0 247163.0 255151.0 226143.0 227155.0 312829.0 156343.0 312829.0 312829.0 312829.0 312829.0 312829.0 312829.0 312829.0 156343.0 156343.0 156343.0 156343.0 156343.0 156343.0 156343.0
16095.0 8818.0 65017.0 69913.0 11809.0 16264.0 33796.0 29859.0 36237.0 29358.0 58077.0 65572.0 187711.0 181971.0 295271.0 302124.0 160613.0 154219.0 15059.0 16293.0 117715.0 116974.0 147932.0 155656.0 306006.0 297825.0 0.0 8061.0 64148.0 71829.0 75931.0 81777.0 47900.0 51886.0 79115.0 72584.0 314445.0 306799.0 26525.0 24666.0 101226.0 94151.0 62847.0 67940.0 47510.0 39439.0 82648.0 84276.0 7877.0 14606.0 69649.0 71193.0 125661.0 121489.0 43067.0 38699.0 103363.0 105558.0 61192.0 68970.0 88331.0 92154.0 116503.0 113794.0 73521.0 71981.0 249197.0 243017.0 141558.0 134378.0 71267.0 78395.0 74984.0 81609.0 13366.0 21310.0 269643.0 264548.0 94609.0 93056.0 38659.0 30404.0 81185.0 77680.0 49660.0 42888.0 77639.0 79603.0 233495.0 238772.0 74879.0 69305.0 106707.0 103508.0 316323.0 314659.0 109738.0 102322.0 93613.0 100913.0 64998.0 61819.0 224272.0 216934.0 278073.0 285744.0 24642.0 24257.0 198671.0 196668.0 91118.0 89242.0 49142.0 43214.0 62750.0 56240.0 81689.0 80719.0 67807.0 60303.0 113862.0 116133.0 70452.0 66466.0 89197.0 81283.0 88534.0 87567.0 170883.0 174049.0 270155.0 261988.0 53694.0 49626.0 227611.0 229174.0 181075.0 179621.0 37814.0 40118.0 52222.0 59521.0 275524.0 276422.0 100148.0 107745.0 59795.0 59989.0 12777.0 5523.0 195711.0 189936.0 121408.0 119956.0 159583.0 163021.0 51243.0 43395.0 79726.0 75085.0 89706.0 148561.0 89706.0 89706.0 89706.0 89706.0 89706.0 89706.0 89706.0 148561.0 148561.0 148561.0 148561.0 148561.0 148561.0 148561.0
24024.0 16358.0 70073.0 74359.0 8746.0 9037.0 40424.0 35411.0 44285.0 37308.0 65237.0 72880.0 192813.0 187258.0 298650.0 305503.0 167643.0 161126.0 20182.0 18113.0 122312.0 121112.0 151117.0 158931.0 310306.0 302149.0 8061.0 0.0 71828.0 79375.0 80314.0 86607.0 39985.0 44309.0 72989.0 66837.0 318629.0 311038.0 29032.0 29297.0 108849.0 101677.0 60525.0 66353.0 41095.0 33341.0 86971.0 87959.0 15333.0 20211.0 74848.0 75643.0 131744.0 127261.0 51072.0 46755.0 95362.0 97661.0 66624.0 74218.0 80874.0 84967.0 120568.0 118096.0 65738.0 64010.0 254068.0 248023.0 147733.0 140717.0 74850.0 81853.0 82040.0 88866.0 18852.0 26090.0 273496.0 268563.0 86812.0 85107.0 30629.0 22368.0 86969.0 83945.0 57591.0 50919.0 69819.0 72012.0 237185.0 242277.0 67220.0 61461.0 113368.0 109855.0 319779.0 318295.0 116348.0 109062.0 100582.0 108027.0 69620.0 65687.0 229400.0 222134.0 281792.0 289521.0 29407.0 30807.0 206312.0 204203.0 83364.0 81317.0 45805.0 40876.0 56243.0 50226.0 74096.0 73442.0 59757.0 52243.0 119650.0 122267.0 77244.0 73641.0 95702.0 87642.0 80545.0 79515.0 178911.0 182100.0 273534.0 265366.0 46013.0 41667.0 231112.0 232934.0 187832.0 186563.0 44652.0 47611.0 54308.0 61030.0 279223.0 279928.0 108088.0 115722.0 65544.0 64976.0 14648.0 11261.0 201091.0 195486.0 128913.0 127259.0 165175.0 168864.0 56726.0 49103.0 86389.0 81334.0 83699.0 151405.0 83699.0 83699.0 83699.0 83699.0 83699.0 83699.0 83699.0 151405.0 151405.0 151405.0 151405.0 151405.0 151405.0 151405.0
48172.0 55480.0 76476.0 84464.0 69702.0 77641.0 53897.0 61095.0 33563.0 41211.0 12599.0 8775.0 138349.0 131388.0 257429.0 264143.0 127739.0 123775.0 63375.0 71199.0 119189.0 122763.0 116845.0 123076.0 259862.0 251636.0 64148.0 71828.0 0.0 8440.0 50112.0 48867.0 108631.0 110070.0 141138.0 133875.0 269013.0 261083.0 73040.0 65037.0 64720.0 61697.0 114638.0 116337.0 110663.0 102370.0 94098.0 100401.0 56498.0 53345.0 39015.0 47220.0 109869.0 110092.0 23517.0 31168.0 163620.0 164328.0 34265.0 38246.0 143507.0 145055.0 81847.0 77441.0 132031.0 132444.0 199917.0 192891.0 85735.0 77588.0 55182.0 59959.0 17734.0 20341.0 54593.0 50755.0 227392.0 221205.0 158629.0 156671.0 102058.0 93857.0 79218.0 71419.0 16317.0 24553.0 136335.0 136256.0 193431.0 199960.0 139015.0 133257.0 86562.0 88433.0 276147.0 273187.0 52157.0 44158.0 71940.0 74873.0 43259.0 49083.0 173664.0 165974.0 236648.0 243735.0 48812.0 42669.0 153017.0 153143.0 148742.0 148718.0 105744.0 98001.0 125784.0 118530.0 145837.0 144703.0 130678.0 122762.0 63535.0 62337.0 60362.0 52521.0 35332.0 31293.0 148853.0 149178.0 115278.0 116838.0 232314.0 224146.0 117815.0 113316.0 189186.0 188701.0 150824.0 146771.0 29823.0 24423.0 88155.0 95975.0 234303.0 236624.0 53972.0 58631.0 30708.0 38573.0 70046.0 64206.0 143987.0 137112.0 84070.0 86845.0 107547.0 108885.0 33800.0 34169.0 26366.0 29023.0 135648.0 120401.0 135648.0 135648.0 135648.0 135648.0 135648.0 135648.0 135648.0 120401.0 120401.0 120401.0 120401.0 120401.0 120401.0 120401.0
55988.0 63084.0 84008.0 91998.0 76773.0 84816.0 62300.0 69533.0 41999.0 49619.0 16095.0 8418.0 130535.0 123484.0 250549.0 257179.0 129024.0 125532.0 71640.0 79430.0 125095.0 129011.0 111381.0 117334.0 252097.0 243877.0 71829.0 79375.0 8440.0 0.0 48132.0 45562.0 115380.0 116430.0 149306.0 142095.0 261297.0 253353.0 81452.0 73459.0 67050.0 64957.0 123078.0 124765.0 118656.0 110379.0 101248.0 107752.0 64086.0 60404.0 37433.0 45938.0 114026.0 114788.0 31935.0 39608.0 170008.0 170436.0 34505.0 36770.0 149145.0 150348.0 76547.0 71997.0 138261.0 139000.0 191976.0 184893.0 77527.0 69330.0 54517.0 58454.0 11529.0 12088.0 61692.0 57244.0 220021.0 213743.0 166075.0 163913.0 109353.0 101200.0 85672.0 77741.0 24753.0 32989.0 142568.0 142169.0 186362.0 193001.0 146594.0 140682.0 90724.0 93203.0 268889.0 265813.0 43970.0 35983.0 76423.0 78587.0 42980.0 49718.0 165658.0 157953.0 229338.0 236357.0 55025.0 49564.0 151565.0 152134.0 154728.0 155019.0 114114.0 106391.0 133815.0 126642.0 153464.0 152511.0 137740.0 129753.0 56208.0 54523.0 66797.0 59008.0 28258.0 25634.0 155308.0 155891.0 111712.0 112764.0 225444.0 217279.0 125387.0 120662.0 182305.0 181606.0 152252.0 147813.0 36119.0 31765.0 96480.0 104262.0 227017.0 229471.0 54674.0 58263.0 31289.0 39180.0 78182.0 72146.0 135949.0 129001.0 85473.0 88956.0 99596.0 100741.0 36415.0 38485.0 20250.0 24939.0 140215.0 115283.0 140215.0 140215.0 140215.0 140215.0 140215.0 140215.0 140215.0 115283.0 115283.0 115283.0 115283.0 115283.0 115283.0 115283.0
65984.0 68525.0 117993.0 125585.0 73280.0 80723.0 87300.0 91177.0 67765.0 71604.0 39201.0 41616.0 112984.0 107858.0 220057.0 226910.0 177137.0 173522.0 84707.0 90419.0 166051.0 168616.0 73724.0 81083.0 230097.0 221923.0 75931.0 80314.0 50112.0 48132.0 0.0 8186.0 102976.0 100504.0 152456.0 146820.0 238514.0 230875.0 97650.0 91389.0 114685.0 111805.0 138241.0 142525.0 120591.0 113336.0 137008.0 142035.0 69069.0 61353.0 11145.0 4770.0 159528.0 159223.0 60117.0 66878.0 150850.0 149022.0 18371.0 11958.0 125275.0 124074.0 40683.0 37864.0 119497.0 122922.0 173868.0 167962.0 73643.0 68513.0 10000.0 10579.0 38087.0 44517.0 62567.0 54647.0 193821.0 188643.0 157417.0 153045.0 103033.0 96381.0 125248.0 118031.0 56847.0 61674.0 123552.0 120693.0 157846.0 163354.0 140595.0 133184.0 136297.0 137609.0 240884.0 239004.0 50224.0 46515.0 121511.0 124874.0 11133.0 15313.0 149537.0 142416.0 202357.0 209972.0 51301.0 53526.0 198082.0 199173.0 133103.0 135846.0 125062.0 118851.0 135254.0 130080.0 147681.0 149257.0 126494.0 118384.0 44251.0 49655.0 107021.0 99350.0 33943.0 27741.0 137397.0 140207.0 154721.0 154417.0 194940.0 186773.0 120765.0 113792.0 152218.0 153454.0 200347.0 195945.0 44387.0 49405.0 120256.0 128404.0 199828.0 200952.0 102805.0 106193.0 21756.0 16929.0 87541.0 79521.0 121869.0 116838.0 133543.0 136752.0 87005.0 91850.0 26650.0 34357.0 32230.0 24302.0 110802.0 75595.0 110802.0 110802.0 110802.0 110802.0 110802.0 110802.0 110802.0 75595.0 75595.0 75595.0 75595.0 75595.0 75595.0 75595.0
70797.0 74017.0 120110.0 127847.0 79914.0 87542.0 90544.0 95013.0 70323.0 74895.0 39306.0 40116.0 106241.0 100865.0 215634.0 222487.0 174288.0 170998.0 89620.0 95708.0 166826.0 169763.0 70516.0 77531.0 224380.0 216183.0 81777.0 86607.0 48867.0 45562.0 8186.0 0.0 110671.0 108389.0 159164.0 153346.0 232929.0 225230.0 102373.0 95767.0 112606.0 110262.0 143519.0 147488.0 127237.0 119823.0 138909.0 144273.0 74634.0 67174.0 12792.0 11698.0 158736.0 158863.0 61922.0 69158.0 158966.0 157183.0 21511.0 13619.0 133454.0 132259.0 36197.0 32729.0 127559.0 130887.0 167484.0 161417.0 65567.0 60343.0 18084.0 16824.0 34649.0 40089.0 68438.0 60653.0 188683.0 183307.0 165078.0 160825.0 110289.0 103453.0 126200.0 118756.0 57800.0 63481.0 131630.0 128832.0 153007.0 158755.0 148026.0 140693.0 135428.0 137204.0 236169.0 234072.0 42326.0 39069.0 120796.0 123651.0 17067.0 22950.0 142829.0 135613.0 197377.0 204907.0 57302.0 58615.0 193388.0 194756.0 141257.0 143946.0 130763.0 124315.0 142040.0 136641.0 155121.0 156512.0 134220.0 126086.0 36158.0 41469.0 107673.0 99897.0 27331.0 22395.0 145461.0 148193.0 149010.0 148412.0 190517.0 182350.0 127999.0 121162.0 147664.0 148529.0 197558.0 192894.0 48149.0 52126.0 124165.0 132332.0 194879.0 196249.0 99926.0 102753.0 24182.0 21803.0 92983.0 85051.0 114808.0 109567.0 130880.0 134513.0 79547.0 84155.0 31064.0 39039.0 27523.0 20676.0 118974.0 73098.0 118974.0 118974.0 118974.0 118974.0 118974.0 118974.0 118974.0 73098.0 73098.0 73098.0 73098.0 73098.0 73098.0 73098.0
63060.0 55075.0 104918.0 107473.0 39247.0 31946.0 79265.0 72906.0 84009.0 77257.0 99938.0 107955.0 214651.0 210118.0 311980.0 318832.0 206267.0 199477.0 58454.0 53065.0 154465.0 151830.0 164620.0 172613.0 326732.0 318760.0 47900.0 39985.0 108631.0 115380.0 102976.0 110671.0 0.0 8344.0 59467.0 57447.0 334388.0 327140.0 62171.0 65928.0 148656.0 141367.0 71853.0 79812.0 35870.0 35541.0 119249.0 118301.0 54043.0 55393.0 101243.0 98972.0 168127.0 162828.0 89936.0 86397.0 55603.0 57676.0 94569.0 100852.0 42429.0 47880.0 139408.0 138133.0 26005.0 24161.0 273941.0 268653.0 175701.0 169627.0 94742.0 100535.0 115739.0 123297.0 54205.0 58167.0 288065.0 283911.0 54450.0 50285.0 14198.0 19750.0 123150.0 121307.0 95919.0 89989.0 29951.0 33059.0 251387.0 255872.0 38935.0 31015.0 151347.0 147112.0 333119.0 331990.0 147082.0 140586.0 139306.0 147006.0 94182.0 87741.0 250862.0 244052.0 295829.0 303714.0 60599.0 65963.0 246096.0 243824.0 43629.0 41342.0 56453.0 57390.0 43578.0 43753.0 45780.0 49109.0 23574.0 15417.0 146442.0 150601.0 115786.0 112887.0 126522.0 118113.0 40743.0 40547.0 218659.0 221666.0 286863.0 278696.0 23743.0 15610.0 244750.0 247433.0 225736.0 224937.0 79278.0 84289.0 82406.0 86596.0 293207.0 293416.0 148048.0 155635.0 94773.0 91378.0 50880.0 50930.0 224202.0 219543.0 168539.0 166542.0 189936.0 194806.0 85746.0 79686.0 118222.0 111612.0 53939.0 164492.0 53939.0 53939.0 53939.0 53939.0 53939.0 53939.0 53939.0 164492.0 164492.0 164492.0 164492.0 164492.0 164492.0 164492.0
66194.0 58263.0 111412.0 114310.0 41999.0 35624.0 84435.0 78541.0 87410.0 81078.0 100684.0 108732.0 211116.0 206825.0 307068.0 313920.0 211695.0 205043.0 63704.0 58961.0 161604.0 159174.0 159709.0 167701.0 321865.0 313938.0 51886.0 44309.0 110070.0 116430.0 100504.0 108389.0 8344.0 0.0 66916.0 65312.0 329390.0 322214.0 68588.0 71725.0 153103.0 145976.0 80150.0 88087.0 44211.0 43742.0 126273.0 125602.0 57263.0 57467.0 99657.0 96722.0 174392.0 169304.0 92590.0 89688.0 53580.0 54486.0 93486.0 99331.0 36608.0 41240.0 135674.0 134655.0 22088.0 22919.0 269832.0 264711.0 173797.0 168007.0 91838.0 97267.0 115961.0 123693.0 56388.0 59316.0 283153.0 278990.0 57930.0 52789.0 22113.0 26378.0 129388.0 127187.0 98204.0 92778.0 26362.0 27718.0 246475.0 250960.0 44455.0 36386.0 157044.0 153074.0 328207.0 327078.0 146117.0 139902.0 144641.0 152200.0 92305.0 85457.0 247137.0 240444.0 290917.0 298802.0 61406.0 67584.0 250555.0 248503.0 39426.0 38652.0 64679.0 65362.0 51467.0 51995.0 50961.0 55152.0 26974.0 19598.0 144424.0 148947.0 121185.0 117884.0 125754.0 117337.0 38906.0 40243.0 221730.0 224480.0 281951.0 273784.0 31510.0 23577.0 239838.0 242553.0 231518.0 230503.0 80366.0 85984.0 89768.0 94244.0 288295.0 288504.0 151696.0 159115.0 94011.0 89989.0 56473.0 55526.0 220916.0 216488.0 173218.0 171534.0 187163.0 192296.0 85127.0 79624.0 117836.0 110861.0 45598.0 159580.0 45598.0 45598.0 45598.0 45598.0 45598.0 45598.0 45598.0 159580.0 159580.0 159580.0 159580.0 159580.0 159580.0 159580.0
93857.0 87811.0 100209.0 98168.0 79250.0 71745.0 92752.0 84344.0 108732.0 100731.0 136733.0 143873.0 265378.0 260004.0 367697.0 374550.0 203301.0 195522.0 77878.0 69988.0 135472.0 130072.0 220238.0 228202.0 381390.0 373296.0 79115.0 72989.0 141138.0 149306.0 152456.0 159164.0 59467.0 66916.0 0.0 8114.0 389436.0 381984.0 70384.0 78293.0 157865.0 149896.0 41161.0 47481.0 31951.0 39712.0 105629.0 100862.0 86939.0 93126.0 147703.0 147903.0 158839.0 151539.0 118067.0 111358.0 73793.0 81253.0 139581.0 147097.0 83978.0 91881.0 191897.0 189831.0 68115.0 60166.0 326272.0 320418.0 220627.0 213490.0 145967.0 152621.0 153699.0 159901.0 91778.0 99042.0 343610.0 339089.0 39926.0 45825.0 51885.0 56844.0 118479.0 120612.0 125282.0 117342.0 68600.0 76046.0 307008.0 311585.0 28947.0 34833.0 149263.0 142736.0 388646.0 387691.0 188809.0 181322.0 141754.0 150008.0 142100.0 137390.0 301956.0 294772.0 351528.0 359387.0 102329.0 103357.0 250186.0 246123.0 77672.0 69918.0 38659.0 46542.0 17342.0 22878.0 27985.0 20072.0 46455.0 49567.0 192639.0 195178.0 120411.0 121425.0 168306.0 160391.0 65974.0 59056.0 234414.0 239118.0 342581.0 334414.0 35806.0 44024.0 300467.0 302956.0 218501.0 219862.0 116880.0 118330.0 71604.0 69756.0 348912.0 349080.0 163403.0 171649.0 138531.0 137752.0 71128.0 77586.0 273898.0 268399.0 174362.0 169810.0 238115.0 241853.0 129704.0 122087.0 158794.0 154164.0 110171.0 220209.0 110171.0 110171.0 110171.0 110171.0 110171.0 110171.0 110171.0 220209.0 220209.0 220209.0 220209.0 220209.0 220209.0 220209.0
86950.0 81178.0 92140.0 90195.0 73542.0 66329.0 84895.0 76492.0 101237.0 93248.0 129815.0 136839.0 259586.0 254085.0 363065.0 369918.0 195395.0 187637.0 70521.0 62676.0 128180.0 122960.0 215565.0 223504.0 376268.0 368150.0 72584.0 66837.0 133875.0 142095.0 146820.0 153346.0 57447.0 65312.0 8114.0 0.0 384409.0 376909.0 62594.0 70555.0 149754.0 141784.0 33508.0 40213.0 26387.0 33525.0 97858.0 93258.0 80340.0 86818.0 141684.0 142214.0 151086.0 143857.0 110686.0 103853.0 78121.0 85237.0 133443.0 141055.0 85778.0 93542.0 186591.0 184386.0 69153.0 61416.0 320687.0 314733.0 214131.0 206895.0 140647.0 147410.0 146774.0 152836.0 85483.0 92925.0 338780.0 334134.0 45991.0 51120.0 48256.0 52287.0 110459.0 112526.0 117920.0 109921.0 70131.0 77360.0 302240.0 306957.0 32100.0 36536.0 141250.0 134767.0 384174.0 383080.0 182071.0 174517.0 133658.0 141913.0 136309.0 131880.0 296174.0 288935.0 346808.0 354635.0 96244.0 96835.0 242142.0 238114.0 80247.0 72822.0 30590.0 38513.0 13869.0 16755.0 32787.0 25323.0 47619.0 49419.0 186375.0 188715.0 112298.0 113335.0 161655.0 153827.0 69071.0 62522.0 226323.0 231046.0 337949.0 329782.0 33803.0 41838.0 295820.0 298130.0 210778.0 212051.0 110203.0 111347.0 63533.0 61842.0 344204.0 344515.0 155354.0 163602.0 132259.0 131792.0 64004.0 70733.0 267927.0 262311.0 166258.0 161727.0 231987.0 235566.0 123526.0 115814.0 152073.0 147661.0 109736.0 215591.0 109736.0 109736.0 109736.0 109736.0 109736.0 109736.0 109736.0 215591.0 215591.0 215591.0 215591.0 215591.0 215591.0 215591.0
303622.0 306903.0 345291.0 353277.0 311171.0 318108.0 320763.0 326430.0 299684.0 305705.0 265885.0 261870.0 130837.0 138150.0 53086.0 48255.0 351420.0 352968.0 322443.0 328637.0 381299.0 386655.0 169769.0 161775.0 9922.0 17704.0 314445.0 318629.0 269013.0 261297.0 238514.0 232929.0 334388.0 329390.0 389436.0 384409.0 0.0 8018.0 335014.0 328059.0 311493.0 314142.0 376438.0 380231.0 358024.0 351204.0 362073.0 368861.0 307491.0 299859.0 245467.0 243253.0 361213.0 365137.0 289922.0 297880.0 372379.0 368883.0 254187.0 246225.0 344580.0 341929.0 198061.0 200651.0 343852.0 349283.0 71127.0 79010.0 185475.0 193906.0 243887.0 237032.0 251503.0 249352.0 301080.0 293158.0 47053.0 50478.0 387180.0 381365.0 338149.0 332605.0 345053.0 336963.0 283800.0 291353.0 347281.0 342423.0 83440.0 80486.0 373322.0 365365.0 340431.0 345694.0 32595.0 24611.0 217965.0 225751.0 329211.0 327615.0 249474.0 252942.0 97606.0 105280.0 41568.0 33796.0 289814.0 291541.0 336153.0 342466.0 353699.0 358349.0 363565.0 357232.0 372095.0 367674.0 380114.0 383280.0 356310.0 348915.0 205708.0 206776.0 326592.0 319110.0 233873.0 239507.0 360918.0 365456.0 286377.0 279630.0 63039.0 66179.0 355569.0 347823.0 90958.0 87037.0 371164.0 363578.0 280407.0 282830.0 355295.0 363398.0 44180.0 47731.0 294998.0 291514.0 256313.0 254696.0 325895.0 317931.0 126882.0 134580.0 319759.0 327017.0 162071.0 162331.0 263955.0 271941.0 243424.0 244288.0 328359.0 171494.0 328359.0 328359.0 328359.0 328359.0 328359.0 328359.0 328359.0 171494.0 171494.0 171494.0 171494.0 171494.0 171494.0 171494.0
295889.0 299223.0 337340.0 345326.0 303619.0 310594.0 312905.0 318604.0 291821.0 297871.0 258018.0 253965.0 122870.0 130163.0 52321.0 48564.0 343523.0 345042.0 314705.0 320933.0 373283.0 378642.0 162536.0 154548.0 2881.0 9697.0 306799.0 311038.0 261083.0 253353.0 230875.0 225230.0 327140.0 322214.0 381984.0 376909.0 8018.0 0.0 327253.0 320273.0 303477.0 306124.0 368721.0 372473.0 350527.0 343670.0 354097.0 360895.0 299818.0 292208.0 237744.0 235607.0 353203.0 357121.0 282044.0 290006.0 365156.0 361659.0 246457.0 238497.0 337356.0 334705.0 190475.0 193013.0 336628.0 342059.0 63125.0 71022.0 177472.0 185904.0 236339.0 229509.0 243587.0 241400.0 293433.0 285522.0 40632.0 43364.0 379956.0 374141.0 330766.0 325165.0 337057.0 328967.0 275903.0 283472.0 340057.0 335200.0 76554.0 74023.0 366074.0 358131.0 332413.0 337675.0 35851.0 27857.0 209991.0 217783.0 321194.0 319597.0 241815.0 245355.0 89590.0 97262.0 36274.0 28991.0 282175.0 283835.0 328539.0 334815.0 346475.0 351125.0 355908.0 349542.0 364645.0 360169.0 372885.0 375985.0 349150.0 341719.0 197809.0 198830.0 318604.0 311126.0 225962.0 231634.0 353694.0 358232.0 278651.0 271936.0 59066.0 61365.0 348216.0 340495.0 84264.0 79988.0 363320.0 355748.0 272638.0 275010.0 347448.0 355546.0 38769.0 43234.0 286982.0 283505.0 248558.0 247007.0 318207.0 310253.0 118866.0 126561.0 311768.0 319020.0 154088.0 154320.0 256240.0 264228.0 235527.0 236445.0 321135.0 164411.0 321135.0 321135.0 321135.0 321135.0 321135.0 321135.0 321135.0 164411.0 164411.0 164411.0 164411.0 164411.0 164411.0 164411.0
31667.0 30499.0 42824.0 46078.0 37055.0 37247.0 22465.0 14089.0 39571.0 31833.0 71309.0 77359.0 206301.0 200038.0 317703.0 324556.0 144996.0 137963.0 13130.0 10919.0 93910.0 92337.0 171037.0 178568.0 326312.0 318092.0 26525.0 29032.0 73040.0 81452.0 97650.0 102373.0 62171.0 68588.0 70384.0 62594.0 335014.0 327253.0 0.0 8087.0 91044.0 83255.0 42128.0 45225.0 43899.0 36255.0 58453.0 59015.0 30329.0 38448.0 89677.0 92891.0 105957.0 100726.0 49524.0 42090.0 113870.0 117745.0 80930.0 88896.0 104598.0 109788.0 138228.0 135051.0 87814.0 84068.0 268161.0 261618.0 156885.0 149123.0 94520.0 101715.0 87802.0 92894.0 37620.0 45250.0 291050.0 285613.0 96441.0 97153.0 48959.0 42441.0 60990.0 59520.0 56749.0 48535.0 91436.0 95213.0 255338.0 260964.0 76261.0 73115.0 89745.0 85130.0 338459.0 336437.0 123720.0 115855.0 78639.0 86664.0 86517.0 84833.0 242591.0 235070.0 299747.0 307280.0 48235.0 44182.0 187272.0 184315.0 105164.0 101434.0 32976.0 25063.0 57367.0 49227.0 82012.0 78535.0 75857.0 70039.0 131055.0 132021.0 55283.0 54028.0 104204.0 97169.0 99703.0 96841.0 165878.0 170101.0 292587.0 284419.0 57224.0 56937.0 249839.0 250884.0 163862.0 163374.0 54620.0 53062.0 25702.0 33062.0 297244.0 298528.0 94273.0 102442.0 78704.0 80884.0 14443.0 21121.0 213401.0 207103.0 109642.0 106611.0 176851.0 179381.0 71339.0 63412.0 94355.0 91633.0 111434.0 172222.0 111434.0 111434.0 111434.0 111434.0 111434.0 111434.0 111434.0 172222.0 172222.0 172222.0 172222.0 172222.0 172222.0 172222.0
25727.0 26318.0 40777.0 45301.0 36220.0 38178.0 15036.0 7169.0 31524.0 23863.0 63652.0 69524.0 199013.0 192666.0 311321.0 318174.0 140385.0 133554.0 9610.0 12870.0 93191.0 92319.0 165006.0 172450.0 319298.0 311072.0 24666.0 29297.0 65037.0 73459.0 91389.0 95767.0 65928.0 71725.0 78293.0 70555.0 328059.0 320273.0 8087.0 0.0 84728.0 77056.0 49836.0 52439.0 50989.0 43068.0 58012.0 59656.0 26406.0 34177.0 83009.0 86655.0 102847.0 98121.0 41524.0 34027.0 119062.0 122537.0 74264.0 82209.0 108166.0 112933.0 131797.0 128493.0 91862.0 88679.0 260896.0 254291.0 149187.0 141372.0 88819.0 95995.0 80010.0 84965.0 33572.0 40667.0 284333.0 278806.0 103255.0 103588.0 53444.0 46257.0 57908.0 55464.0 48731.0 40507.0 95650.0 98929.0 248772.0 254503.0 83015.0 79420.0 85423.0 81350.0 331937.0 329806.0 115936.0 108045.0 73552.0 81401.0 80276.0 79113.0 235227.0 227680.0 293102.0 300591.0 43392.0 38330.0 181523.0 178807.0 109395.0 106143.0 41062.0 33147.0 64886.0 56843.0 88975.0 85826.0 81341.0 75074.0 123651.0 124431.0 50028.0 47922.0 96580.0 89686.0 104659.0 102227.0 158809.0 162880.0 286205.0 278038.0 63368.0 62307.0 243398.0 244282.0 159847.0 159012.0 47723.0 45589.0 29516.0 37479.0 290614.0 292015.0 87145.0 95260.0 71872.0 74513.0 15306.0 19198.0 205956.0 199585.0 103798.0 101181.0 169379.0 171780.0 64866.0 57036.0 86724.0 84275.0 112936.0 166420.0 112936.0 112936.0 112936.0 112936.0 112936.0 112936.0 112936.0 166420.0 166420.0 166420.0 166420.0 166420.0 166420.0 166420.0
88060.0 95582.0 59863.0 64956.0 111784.0 117489.0 70060.0 77587.0 67177.0 72369.0 76659.0 73072.0 182610.0 174784.0 308141.0 314161.0 63636.0 59170.0 90572.0 97097.0 71431.0 77992.0 176092.0 181291.0 301820.0 293792.0 101226.0 108849.0 64720.0 67050.0 114685.0 112606.0 148656.0 153103.0 157865.0 149754.0 311493.0 303477.0 91044.0 84728.0 0.0 7971.0 119700.0 116899.0 134791.0 127294.0 65542.0 73460.0 96505.0 98749.0 103660.0 111932.0 50320.0 53651.0 65852.0 65403.0 203280.0 206204.0 98816.0 102910.0 189539.0 193110.0 142036.0 137316.0 174554.0 172336.0 240429.0 232672.0 127569.0 119369.0 119845.0 124664.0 78242.0 74677.0 99417.0 100364.0 274305.0 267309.0 187414.0 188177.0 137417.0 129669.0 45986.0 40146.0 63858.0 64930.0 178590.0 180821.0 243469.0 250731.0 167280.0 164075.0 29028.0 35117.0 323553.0 319505.0 99004.0 92699.0 21210.0 16551.0 107881.0 113204.0 213889.0 206218.0 284012.0 290356.0 100238.0 91771.0 97463.0 95516.0 192192.0 189791.0 119321.0 111684.0 147366.0 139052.0 172890.0 168917.0 165920.0 159341.0 116370.0 111747.0 37521.0 37039.0 92043.0 91971.0 188658.0 186683.0 77090.0 82506.0 283560.0 275283.0 148069.0 146885.0 240665.0 238605.0 86422.0 82912.0 85210.0 77146.0 87257.0 91519.0 281920.0 285391.0 16497.0 21327.0 95195.0 102898.0 98495.0 97745.0 184819.0 177001.0 20705.0 22142.0 151612.0 149867.0 96609.0 94201.0 86430.0 91985.0 188170.0 180652.0 188170.0 188170.0 188170.0 188170.0 188170.0 188170.0 188170.0 180652.0 180652.0 180652.0 180652.0 180652.0 180652.0 180652.0
81409.0 88793.0 52068.0 57375.0 104900.0 110398.0 62503.0 69901.0 60820.0 65586.0 73144.0 70294.0 184607.0 176859.0 309475.0 315627.0 68712.0 63592.0 83126.0 89516.0 67510.0 73588.0 175363.0 180827.0 304526.0 296454.0 94151.0 101677.0 61697.0 64957.0 111805.0 110262.0 141367.0 145976.0 149896.0 141784.0 314142.0 306124.0 83255.0 77056.0 7971.0 0.0 111766.0 109034.0 126944.0 119490.0 58631.0 66570.0 89692.0 92301.0 100694.0 108801.0 49677.0 51785.0 60338.0 59203.0 195800.0 198835.0 95330.0 99914.0 182480.0 186197.0 140941.0 136275.0 167308.0 164947.0 243186.0 235502.0 129439.0 121132.0 116413.0 121545.0 76383.0 73582.0 92910.0 94257.0 276216.0 269331.0 179572.0 180406.0 129943.0 122261.0 38931.0 32651.0 59033.0 59306.0 171315.0 173686.0 244795.0 251948.0 159457.0 156330.0 26868.0 31551.0 325472.0 321592.0 99716.0 93025.0 15586.0 14039.0 104429.0 109347.0 216590.0 208885.0 285871.0 292346.0 94310.0 85787.0 104749.0 102528.0 184951.0 182416.0 111358.0 103730.0 139446.0 131131.0 165030.0 161009.0 158332.0 151832.0 116507.0 112342.0 29556.0 29228.0 91150.0 90353.0 181219.0 179138.0 85004.0 90338.0 284753.0 276486.0 140351.0 139291.0 241732.0 239941.0 91022.0 88050.0 80055.0 71978.0 79316.0 83659.0 283734.0 287023.0 20413.0 27019.0 91679.0 99221.0 91005.0 90515.0 187303.0 179564.0 27261.0 26843.0 153429.0 152087.0 92422.0 89480.0 84839.0 89815.0 181724.0 179673.0 181724.0 181724.0 181724.0 181724.0 181724.0 181724.0 181724.0 179673.0 179673.0 179673.0 179673.0 179673.0 179673.0 179673.0
72873.0 69729.0 60473.0 57563.0 69095.0 64579.0 61408.0 53643.0 81084.0 73642.0 113427.0 119357.0 248236.0 242054.0 358019.0 364872.0 162315.0 154493.0 54109.0 47835.0 94859.0 89906.0 210763.0 218466.0 367838.0 359630.0 62847.0 60525.0 114638.0 123078.0 138241.0 143519.0 71853.0 80150.0 41161.0 33508.0 376438.0 368721.0 42128.0 49836.0 119700.0 111766.0 0.0 8154.0 36668.0 36621.0 64488.0 59751.0 69221.0 77135.0 130978.0 133474.0 117683.0 110385.0 91195.0 83476.0 107640.0 113908.0 122274.0 130228.0 109301.0 116384.0 178922.0 175992.0 91554.0 84910.0 310056.0 303581.0 198996.0 191203.0 134060.0 141209.0 129846.0 134715.0 76012.0 84010.0 332051.0 326791.0 78692.0 82844.0 58403.0 57545.0 78099.0 80985.0 98327.0 90092.0 93744.0 99999.0 296064.0 301457.0 61910.0 63503.0 108745.0 101991.0 379013.0 377232.0 165772.0 157879.0 102234.0 110421.0 127164.0 124540.0 284592.0 277094.0 340596.0 348213.0 87284.0 84905.0 209770.0 205488.0 105932.0 99561.0 16000.0 19698.0 38573.0 32230.0 64576.0 57898.0 72166.0 70561.0 173112.0 174148.0 82275.0 84581.0 146330.0 139275.0 96383.0 90860.0 196765.0 201947.0 332903.0 324736.0 53008.0 58491.0 290302.0 291691.0 177340.0 178732.0 96387.0 95181.0 32461.0 29047.0 338063.0 339094.0 127118.0 135340.0 120275.0 121791.0 50726.0 58783.0 255468.0 249209.0 134949.0 129925.0 218939.0 221508.0 112483.0 104497.0 136481.0 133682.0 125530.0 211398.0 125530.0 125530.0 125530.0 125530.0 125530.0 125530.0 125530.0 211398.0 211398.0 211398.0 211398.0 211398.0 211398.0 211398.0
76692.0 74262.0 57127.0 53303.0 75039.0 71051.0 62545.0 55300.0 82953.0 75846.0 115986.0 121541.0 251439.0 245105.0 362530.0 369383.0 157036.0 149137.0 57874.0 52298.0 88005.0 82753.0 215511.0 223144.0 371536.0 363317.0 67940.0 66353.0 116337.0 124765.0 142525.0 147488.0 79812.0 88087.0 47481.0 40213.0 380231.0 372473.0 45225.0 52439.0 116899.0 109034.0 8154.0 0.0 44792.0 44431.0 58991.0 53659.0 73842.0 81898.0 134834.0 137756.0 111920.0 104417.0 93105.0 85227.0 115542.0 121896.0 126094.0 134062.0 117454.0 124532.0 183185.0 180109.0 99706.0 93060.0 313317.0 306727.0 201375.0 193460.0 138795.0 145974.0 132100.0 136581.0 80842.0 88809.0 336165.0 330780.0 85921.0 90360.0 66235.0 65007.0 73903.0 77476.0 100103.0 91911.0 101896.0 108150.0 300348.0 305874.0 69646.0 71489.0 104226.0 97218.0 383409.0 381485.0 167974.0 160028.0 98647.0 106736.0 131405.0 129191.0 287666.0 280117.0 344810.0 352375.0 92020.0 89011.0 205151.0 200649.0 114059.0 107647.0 23552.0 25682.0 46404.0 40303.0 72019.0 65112.0 80285.0 78714.0 176089.0 176780.0 79803.0 82814.0 148912.0 142112.0 104437.0 98839.0 193964.0 199369.0 337413.0 329246.0 61161.0 66604.0 294733.0 295925.0 171420.0 173073.0 99846.0 98027.0 30605.0 25382.0 342297.0 343477.0 125243.0 133406.0 123917.0 125885.0 55447.0 63513.0 258383.0 251976.0 131286.0 125924.0 221798.0 224101.0 116427.0 108464.0 139057.0 136710.0 133371.0 216364.0 133371.0 133371.0 133371.0 133371.0 133371.0 133371.0 133371.0 216364.0 216364.0 216364.0 216364.0 216364.0 216364.0 216364.0
62762.0 56291.0 81794.0 82123.0 47332.0 39973.0 66016.0 57825.0 79322.0 71362.0 105483.0 112825.0 233467.0 228064.0 336741.0 343594.0 186264.0 178880.0 48370.0 40506.0 126134.0 122346.0 189216.0 197149.0 349891.0 341776.0 47510.0 41095.0 110663.0 118656.0 120591.0 127237.0 35870.0 44211.0 31951.0 26387.0 358024.0 350527.0 43899.0 50989.0 134791.0 126944.0 36668.0 44792.0 0.0 8311.0 92330.0 89695.0 55380.0 61281.0 115752.0 116015.0 144407.0 138058.0 88106.0 81968.0 74315.0 79676.0 107643.0 115147.0 72853.0 79801.0 160239.0 158075.0 55050.0 48742.0 294447.0 288547.0 188816.0 181755.0 114292.0 121035.0 122427.0 128881.0 59926.0 67110.0 312399.0 307747.0 52628.0 53932.0 23734.0 26252.0 100730.0 100974.0 95202.0 87539.0 57462.0 63468.0 275867.0 280610.0 32589.0 30688.0 131011.0 125471.0 357864.0 356733.0 157230.0 149832.0 121229.0 129412.0 110178.0 105586.0 270050.0 262850.0 320441.0 328262.0 70389.0 71658.0 230311.0 227014.0 70138.0 64386.0 22592.0 26639.0 15243.0 9712.0 38122.0 34918.0 36852.0 34136.0 160723.0 163354.0 98345.0 97753.0 136650.0 128659.0 61632.0 57063.0 209735.0 213864.0 311625.0 303458.0 16906.0 21829.0 269469.0 271751.0 203729.0 204019.0 85322.0 87260.0 54856.0 56682.0 317839.0 318181.0 138092.0 146229.0 106632.0 105802.0 40899.0 46520.0 241951.0 236449.0 152960.0 149449.0 206168.0 209938.0 97776.0 90196.0 127224.0 122387.0 89809.0 189257.0 89809.0 89809.0 89809.0 89809.0 89809.0 89809.0 89809.0 189257.0 189257.0 189257.0 189257.0 189257.0 189257.0 189257.0
54526.0 48182.0 75620.0 76541.0 40095.0 33181.0 58104.0 50010.0 71030.0 63078.0 97303.0 104601.0 226062.0 220564.0 330362.0 337215.0 179821.0 172538.0 40105.0 32267.0 121726.0 118369.0 182781.0 190683.0 342996.0 334862.0 39439.0 33341.0 102370.0 110379.0 113336.0 119823.0 35541.0 43742.0 39712.0 33525.0 351204.0 343670.0 36255.0 43068.0 127294.0 119490.0 36621.0 44431.0 8311.0 0.0 87299.0 85248.0 47290.0 53425.0 108172.0 108716.0 138675.0 132578.0 79795.0 73675.0 79578.0 84393.0 99965.0 107548.0 75370.0 81873.0 153252.0 150968.0 57609.0 52092.0 287195.0 281219.0 180915.0 173792.0 107335.0 114174.0 114257.0 120656.0 52079.0 59430.0 305754.0 300998.0 60223.0 60967.0 21804.0 21648.0 94518.0 94326.0 86892.0 79230.0 60482.0 65845.0 269289.0 274151.0 40015.0 37114.0 124495.0 119200.0 351509.0 350259.0 149175.0 141738.0 114274.0 122410.0 102791.0 98459.0 262650.0 255410.0 313887.0 321678.0 62739.0 63659.0 223236.0 220086.0 73694.0 68604.0 20944.0 22454.0 23447.0 16888.0 45908.0 43104.0 41508.0 37338.0 152968.0 155466.0 91183.0 90267.0 128633.0 120691.0 66214.0 62310.0 201877.0 205924.0 305245.0 297078.0 21742.0 24033.0 262998.0 265124.0 197721.0 197784.0 77244.0 79032.0 49713.0 52549.0 311295.0 311760.0 130214.0 138323.0 98851.0 98270.0 32592.0 38263.0 234413.0 228827.0 145729.0 142429.0 198516.0 202177.0 90063.0 82403.0 119161.0 114454.0 88942.0 182886.0 88942.0 88942.0 88942.0 88942.0 88942.0 88942.0 88942.0 182886.0 182886.0 182886.0 182886.0 182886.0 182886.0 182886.0
79333.0 82880.0 19238.0 12764.0 94227.0 95548.0 52674.0 53247.0 69451.0 67213.0 100183.0 102114.0 231242.0 223953.0 351507.0 358239.0 98046.0 90149.0 67596.0 69126.0 35462.0 34362.0 209248.0 215961.0 352752.0 344555.0 82648.0 86971.0 94098.0 101248.0 137008.0 138909.0 119249.0 126273.0 105629.0 97858.0 362073.0 354097.0 58453.0 58012.0 65542.0 58631.0 64488.0 58991.0 92330.0 87299.0 0.0 7940.0 83235.0 90081.0 126627.0 132712.0 53230.0 46166.0 77020.0 70153.0 166606.0 171670.0 118638.0 125759.0 161384.0 167127.0 174381.0 170278.0 143987.0 139141.0 292091.0 284762.0 176928.0 168510.0 137457.0 144209.0 111830.0 112962.0 89824.0 95615.0 321256.0 314931.0 141802.0 144903.0 105322.0 99895.0 19735.0 26995.0 81391.0 75459.0 147227.0 151860.0 287519.0 294057.0 123330.0 122865.0 46449.0 38942.0 370136.0 367044.0 144108.0 136345.0 44697.0 51828.0 126726.0 128188.0 265554.0 257806.0 330586.0 337589.0 97617.0 90374.0 146606.0 141868.0 160709.0 155888.0 71080.0 65697.0 100378.0 92556.0 127231.0 121303.0 128743.0 124472.0 157451.0 155508.0 35929.0 43077.0 129357.0 125138.0 153502.0 149332.0 140271.0 146462.0 326384.0 318223.0 108777.0 111051.0 283271.0 282782.0 112937.0 114245.0 93817.0 87727.0 37591.0 36393.0 328265.0 330684.0 78260.0 85535.0 115335.0 120676.0 72395.0 77206.0 235817.0 228502.0 75592.0 69217.0 200016.0 200265.0 111299.0 104798.0 120429.0 121772.0 169876.0 212006.0 169876.0 169876.0 169876.0 169876.0 169876.0 169876.0 169876.0 212006.0 212006.0 212006.0 212006.0 212006.0 212006.0 212006.0
82427.0 85314.0 24197.0 16450.0 95608.0 96258.0 56222.0 55659.0 74279.0 71337.0 105907.0 108232.0 238025.0 230795.0 357631.0 364424.0 103867.0 95883.0 69255.0 69891.0 36484.0 33588.0 214740.0 221565.0 359579.0 351373.0 84276.0 87959.0 100401.0 107752.0 142035.0 144273.0 118301.0 125602.0 100862.0 93258.0 368861.0 360895.0 59015.0 59656.0 73460.0 66570.0 59751.0 53659.0 89695.0 85248.0 7940.0 0.0 85580.0 92780.0 131847.0 137650.0 58324.0 50757.0 82368.0 75198.0 163979.0 169332.0 123695.0 130981.0 160085.0 166089.0 179984.0 175962.0 142513.0 137320.0 299039.0 291754.0 183908.0 175503.0 142031.0 148888.0 118128.0 119577.0 92414.0 98622.0 327752.0 321495.0 137915.0 141388.0 104215.0 99285.0 27671.0 34826.0 87130.0 80812.0 145596.0 150539.0 293797.0 300257.0 119919.0 119937.0 53625.0 45947.0 376546.0 373547.0 150927.0 143112.0 52560.0 59574.0 131566.0 132633.0 272533.0 264789.0 337036.0 344092.0 100819.0 93938.0 153058.0 148110.0 158924.0 153780.0 67826.0 63135.0 96724.0 89138.0 123472.0 117254.0 126416.0 122579.0 163890.0 162164.0 43350.0 50243.0 135724.0 131233.0 151223.0 146748.0 147925.0 154180.0 332523.0 324349.0 106392.0 109215.0 289423.0 289080.0 117761.0 119491.0 98348.0 92636.0 35906.0 33041.0 334697.0 337016.0 86183.0 93473.0 120477.0 125509.0 73310.0 78769.0 242785.0 235523.0 83128.0 76581.0 206855.0 207258.0 116008.0 109245.0 126645.0 127640.0 169977.0 217317.0 169977.0 169977.0 169977.0 169977.0 169977.0 169977.0 169977.0 217317.0 217317.0 217317.0 217317.0 217317.0 217317.0 217317.0
9017.0 1044.0 64882.0 70479.0 15349.0 22107.0 31981.0 30008.0 30147.0 24136.0 50209.0 57733.0 180330.0 174509.0 288817.0 295670.0 157027.0 150864.0 17385.0 21545.0 117772.0 117577.0 141677.0 149331.0 298991.0 290800.0 7877.0 15333.0 56498.0 64086.0 69069.0 74634.0 54043.0 57263.0 86939.0 80340.0 307491.0 299818.0 30329.0 26406.0 96505.0 89692.0 69221.0 73842.0 55380.0 47290.0 83235.0 85580.0 0.0 8151.0 62341.0 64308.0 123703.0 119998.0 36035.0 32445.0 109645.0 111468.0 53789.0 61638.0 93287.0 96623.0 109733.0 106888.0 79203.0 78204.0 241905.0 235664.0 133792.0 126573.0 64955.0 72132.0 67109.0 73761.0 7295.0 15040.0 262887.0 257701.0 102144.0 100377.0 45806.0 37551.0 79887.0 75685.0 42375.0 36002.0 83398.0 84849.0 226851.0 232238.0 82529.0 76789.0 103899.0 101229.0 309793.0 308020.0 101887.0 94456.0 90315.0 97308.0 58035.0 55370.0 216869.0 209501.0 271395.0 279029.0 18189.0 16529.0 193769.0 192019.0 96681.0 95269.0 56131.0 49782.0 70622.0 64061.0 89381.0 88535.0 74800.0 67123.0 106231.0 108386.0 67628.0 62938.0 81368.0 73490.0 94786.0 94188.0 164656.0 167623.0 263700.0 255533.0 61324.0 56945.0 221084.0 222489.0 177939.0 176167.0 29955.0 32337.0 55523.0 63216.0 268858.0 269873.0 94440.0 101856.0 52246.0 52832.0 18495.0 10452.0 188207.0 182364.0 116924.0 115915.0 152004.0 155351.0 43853.0 35930.0 71872.0 67326.0 92538.0 142547.0 92538.0 92538.0 92538.0 92538.0 92538.0 92538.0 92538.0 142547.0 142547.0 142547.0 142547.0 142547.0 142547.0 142547.0
11518.0 7961.0 71412.0 77369.0 16374.0 24429.0 37933.0 37127.0 31576.0 27254.0 45596.0 53431.0 173160.0 167466.0 280886.0 287739.0 160366.0 154459.0 25430.0 29626.0 124210.0 124338.0 133664.0 141343.0 291409.0 283227.0 14606.0 20211.0 53345.0 60404.0 61353.0 67174.0 55393.0 57467.0 93126.0 86818.0 299859.0 292208.0 38448.0 34177.0 98749.0 92301.0 77135.0 81898.0 61281.0 53425.0 90081.0 92780.0 8151.0 0.0 55091.0 56608.0 128664.0 125348.0 35272.0 33472.0 110726.0 111953.0 46694.0 54423.0 92541.0 95244.0 101960.0 99212.0 79555.0 79378.0 234611.0 228451.0 127536.0 120506.0 56942.0 64106.0 62198.0 69261.0 1363.0 6914.0 255115.0 249988.0 105855.0 103518.0 49023.0 40954.0 85549.0 80836.0 40737.0 35592.0 83827.0 84547.0 219013.0 224343.0 86681.0 80466.0 108180.0 105997.0 301899.0 300181.0 96176.0 88943.0 94191.0 100830.0 50398.0 47405.0 209730.0 202409.0 263577.0 271232.0 10149.0 10915.0 195498.0 194072.0 96734.0 96016.0 63709.0 57599.0 76449.0 70307.0 93659.0 93401.0 77362.0 69421.0 99560.0 102074.0 72134.0 66817.0 75511.0 67434.0 95891.0 95921.0 164464.0 167073.0 255770.0 247602.0 65539.0 60371.0 213185.0 214673.0 181704.0 179609.0 24789.0 28938.0 63496.0 71253.0 261033.0 261987.0 95333.0 102425.0 45442.0 45391.0 26468.0 18392.0 181238.0 175528.0 119363.0 118877.0 145189.0 148761.0 36752.0 28996.0 66253.0 61124.0 89435.0 134468.0 89435.0 89435.0 89435.0 89435.0 89435.0 89435.0 89435.0 134468.0 134468.0 134468.0 134468.0 134468.0 134468.0 134468.0
58164.0 61681.0 107723.0 115404.0 68571.0 76410.0 77804.0 82222.0 57729.0 62139.0 28084.0 30600.0 118069.0 112418.0 228424.0 235277.0 166293.0 162578.0 76990.0 83216.0 155199.0 157898.0 83126.0 90228.0 236861.0 228655.0 69649.0 74848.0 39015.0 37433.0 11145.0 12792.0 101243.0 99657.0 147703.0 141684.0 245467.0 237744.0 89677.0 83009.0 103660.0 100694.0 130978.0 134834.0 115752.0 108172.0 126627.0 131847.0 62341.0 55091.0 0.0 8532.0 148388.0 148118.0 49612.0 56658.0 151455.0 150229.0 8750.0 867.0 126975.0 126467.0 48980.0 45509.0 119698.0 122440.0 179570.0 173368.0 74515.0 68403.0 17433.0 21068.0 28053.0 35141.0 56387.0 48769.0 201376.0 195946.0 155394.0 151527.0 99786.0 92643.0 114442.0 107146.0 45970.0 51174.0 123869.0 121662.0 165763.0 171537.0 137787.0 130654.0 125153.0 126496.0 248934.0 246804.0 47070.0 41868.0 110373.0 113735.0 8000.0 16024.0 154640.0 147330.0 210104.0 217615.0 45442.0 46128.0 188245.0 189128.0 134238.0 136331.0 118447.0 111873.0 130703.0 125041.0 144889.0 145893.0 124807.0 116625.0 45465.0 49363.0 96108.0 88403.0 28015.0 20301.0 137556.0 139802.0 145930.0 145994.0 203308.0 195140.0 117400.0 110858.0 160449.0 161273.0 189474.0 185166.0 35361.0 39454.0 111374.0 119540.0 207612.0 209018.0 92033.0 95668.0 11448.0 10039.0 80572.0 72705.0 126243.0 120699.0 122662.0 125751.0 90444.0 94495.0 18521.0 26503.0 23619.0 15185.0 113808.0 85477.0 113808.0 113808.0 113808.0 113808.0 113808.0 113808.0 113808.0 85477.0 85477.0 85477.0 85477.0 85477.0 85477.0 85477.0
61226.0 63761.0 113652.0 121203.0 68689.0 76194.0 82729.0 86506.0 63372.0 67041.0 35819.0 38949.0 117489.0 112272.0 224819.0 231672.0 174706.0 170923.0 79942.0 85651.0 162074.0 164519.0 78411.0 85801.0 234821.0 226645.0 71193.0 75643.0 47220.0 45938.0 4770.0 11698.0 98972.0 96722.0 147903.0 142214.0 243253.0 235607.0 92891.0 86655.0 111932.0 108801.0 133474.0 137756.0 116015.0 108716.0 132712.0 137650.0 64308.0 56608.0 8532.0 0.0 156137.0 155658.0 55956.0 62560.0 147529.0 145893.0 14235.0 9169.0 122296.0 121341.0 45452.0 42604.0 116031.0 119261.0 178479.0 172533.0 77143.0 71705.0 9094.0 12746.0 36540.0 43476.0 57827.0 49919.0 198585.0 193399.0 153383.0 149130.0 98705.0 91959.0 121241.0 114106.0 52984.0 57507.0 120124.0 117466.0 162615.0 168122.0 136379.0 129023.0 132960.0 134081.0 245653.0 243774.0 52282.0 47949.0 118128.0 121704.0 6380.0 11266.0 154059.0 146906.0 207125.0 214739.0 46570.0 48759.0 196744.0 197650.0 129940.0 132478.0 120317.0 114090.0 130725.0 125481.0 143471.0 144934.0 122522.0 114388.0 47737.0 52714.0 103135.0 95512.0 34707.0 27703.0 133932.0 136580.0 154164.0 154100.0 199703.0 191536.0 116428.0 109534.0 156985.0 158223.0 197868.0 193609.0 39783.0 45020.0 115565.0 123709.0 204597.0 205721.0 100491.0 104186.0 17782.0 12281.0 82776.0 74760.0 126257.0 121125.0 131059.0 134046.0 91179.0 95848.0 21998.0 29636.0 31617.0 23308.0 108260.0 80183.0 108260.0 108260.0 108260.0 108260.0 108260.0 108260.0 108260.0 80183.0 80183.0 80183.0 80183.0 80183.0 80183.0 80183.0
117147.0 123036.0 63372.0 62289.0 137419.0 140763.0 91965.0 96354.0 99949.0 101770.0 120352.0 118625.0 232827.0 224975.0 358460.0 364478.0 46193.0 38106.0 111567.0 115469.0 31984.0 40144.0 224945.0 230477.0 351489.0 343509.0 125661.0 131744.0 109869.0 114026.0 159528.0 158736.0 168127.0 174392.0 158839.0 151086.0 361213.0 353203.0 105957.0 102847.0 50320.0 49677.0 117683.0 111920.0 144407.0 138675.0 53230.0 58324.0 123703.0 128664.0 148388.0 156137.0 0.0 8425.0 103066.0 99252.0 218249.0 222831.0 142189.0 147570.0 210553.0 215632.0 190391.0 185759.0 193699.0 189582.0 290094.0 282270.0 177850.0 169673.0 163101.0 168779.0 125539.0 123150.0 128868.0 132483.0 324527.0 317487.0 194821.0 197650.0 154779.0 148391.0 45004.0 48038.0 103914.0 101710.0 197233.0 201168.0 293787.0 301040.0 176040.0 175090.0 23321.0 22833.0 373762.0 369637.0 149120.0 142591.0 38017.0 35672.0 151224.0 155205.0 263632.0 256001.0 334250.0 340543.0 133458.0 125069.0 96856.0 91183.0 210917.0 206733.0 123886.0 117978.0 153327.0 145372.0 180190.0 174423.0 180126.0 175176.0 166139.0 161814.0 56706.0 62998.0 140748.0 139608.0 204655.0 200985.0 103224.0 110588.0 333868.0 325592.0 160395.0 161794.0 290948.0 288924.0 59719.0 61167.0 122986.0 115222.0 89679.0 89506.0 332173.0 335689.0 66671.0 69700.0 138537.0 145635.0 118151.0 120776.0 234771.0 226903.0 43323.0 35375.0 201894.0 200010.0 137798.0 133471.0 134134.0 138615.0 215326.0 229147.0 215326.0 215326.0 215326.0 215326.0 215326.0 215326.0 215326.0 229147.0 229147.0 229147.0 229147.0 229147.0 229147.0 229147.0
113855.0 119382.0 57914.0 56037.0 133291.0 136235.0 88059.0 91865.0 97635.0 98823.0 120035.0 118867.0 236138.0 228340.0 361253.0 367384.0 54478.0 46386.0 107093.0 110553.0 23725.0 31873.0 226084.0 231823.0 355457.0 347435.0 121489.0 127261.0 110092.0 114788.0 159223.0 158863.0 162828.0 169304.0 151539.0 143857.0 365137.0 357121.0 100726.0 98121.0 53651.0 51785.0 110385.0 104417.0 138058.0 132578.0 46166.0 50757.0 119998.0 125348.0 148118.0 155658.0 8425.0 0.0 101529.0 97150.0 212133.0 216901.0 141571.0 147285.0 205243.0 210514.0 191329.0 186756.0 188210.0 183866.0 294062.0 286291.0 181021.0 172760.0 162303.0 168198.0 126315.0 124446.0 125469.0 129508.0 327808.0 320860.0 187966.0 190995.0 149293.0 143139.0 40314.0 44545.0 102958.0 100115.0 191660.0 195806.0 296571.0 303732.0 169403.0 168702.0 24940.0 21661.0 377064.0 373083.0 151483.0 144709.0 38385.0 37848.0 150528.0 154120.0 267531.0 259865.0 337490.0 343896.0 130675.0 122407.0 105255.0 99530.0 205297.0 200901.0 117169.0 111510.0 146526.0 138660.0 173384.0 167466.0 174081.0 169357.0 168073.0 164080.0 54182.0 61061.0 142055.0 140422.0 198714.0 194855.0 110901.0 118177.0 336538.0 328271.0 154243.0 155944.0 293515.0 291716.0 67004.0 68919.0 121237.0 113647.0 83211.0 82558.0 335375.0 338735.0 70147.0 73977.0 137941.0 144817.0 113376.0 116458.0 238467.0 230651.0 49458.0 41420.0 205045.0 203463.0 136652.0 131920.0 135011.0 139044.0 210954.0 230070.0 210954.0 210954.0 210954.0 210954.0 210954.0 210954.0 210954.0 230070.0 230070.0 230070.0 230070.0 230070.0 230070.0 230070.0
27083.0 34992.0 58192.0 65959.0 50752.0 58085.0 31084.0 37806.0 10152.0 17698.0 24118.0 28553.0 159761.0 153070.0 276028.0 282879.0 129045.0 123841.0 40189.0 48086.0 106281.0 108572.0 132373.0 139227.0 280926.0 272691.0 43067.0 51072.0 23517.0 31935.0 60117.0 61922.0 89936.0 92590.0 118067.0 110686.0 289922.0 282044.0 49524.0 41524.0 65852.0 60338.0 91195.0 93105.0 88106.0 79795.0 77020.0 82368.0 36035.0 35272.0 49612.0 55956.0 103066.0 101529.0 0.0 8006.0 145513.0 147042.0 41766.0 48745.0 127804.0 130367.0 97659.0 93709.0 114664.0 114079.0 221579.0 214730.0 108383.0 100396.0 61508.0 67906.0 39141.0 43530.0 36265.0 35285.0 247353.0 241436.0 137474.0 136109.0 81700.0 73438.0 65429.0 58548.0 7256.0 1561.0 118913.0 119806.0 212627.0 218833.0 117547.0 112264.0 80619.0 80385.0 295707.0 293087.0 74900.0 66938.0 65784.0 71036.0 50194.0 52838.0 195552.0 187916.0 256420.0 263690.0 34696.0 26479.0 161198.0 160178.0 131944.0 130978.0 82267.0 74497.0 103083.0 95627.0 124209.0 122572.0 110790.0 103154.0 84300.0 84174.0 47795.0 40507.0 56394.0 50419.0 130652.0 130207.0 129201.0 131893.0 250911.0 242697.0 96470.0 92689.0 207882.0 207987.0 151282.0 148383.0 20035.0 12156.0 65685.0 73686.0 254011.0 255949.0 60543.0 67365.0 38378.0 44218.0 47232.0 42146.0 166017.0 159367.0 86533.0 87167.0 129433.0 131296.0 35391.0 30418.0 46640.0 45967.0 123436.0 135005.0 123436.0 123436.0 123436.0 123436.0 123436.0 123436.0 123436.0 135005.0 135005.0 135005.0 135005.0 135005.0 135005.0 135005.0
23497.0 31434.0 51116.0 58751.0 47701.0 54460.0 23081.0 29943.0 2646.0 10644.0 32016.0 36545.0 167757.0 161074.0 283732.0 290585.0 127709.0 122128.0 33657.0 41577.0 100483.0 102374.0 139672.0 146618.0 288895.0 280661.0 38699.0 46755.0 31168.0 39608.0 66878.0 69158.0 86397.0 89688.0 111358.0 103853.0 297880.0 290006.0 42090.0 34027.0 65403.0 59203.0 83476.0 85227.0 81968.0 73675.0 70153.0 75198.0 32445.0 33472.0 56658.0 62560.0 99252.0 97150.0 8006.0 0.0 141968.0 143905.0 48517.0 55794.0 125520.0 128536.0 105094.0 101223.0 111647.0 110544.0 229580.0 222735.0 116349.0 108340.0 67521.0 74151.0 47132.0 51355.0 34234.0 35054.0 255225.0 249337.0 132224.0 131233.0 77233.0 69012.0 59751.0 53324.0 14880.0 6700.0 115843.0 117213.0 220415.0 226576.0 112145.0 107200.0 77385.0 76434.0 303523.0 300944.0 82843.0 74871.0 62789.0 68724.0 56590.0 58489.0 203557.0 195921.0 264269.0 271558.0 35229.0 26675.0 162030.0 160614.0 129113.0 127682.0 74993.0 67141.0 96768.0 89136.0 118678.0 116680.0 106418.0 98989.0 92286.0 92178.0 42994.0 36255.0 64399.0 58372.0 127119.0 126265.0 132263.0 135356.0 258616.0 250387.0 91239.0 87964.0 215605.0 215787.0 149519.0 147023.0 24384.0 17608.0 57679.0 65683.0 261852.0 263742.0 62098.0 69430.0 45279.0 50547.0 41117.0 36923.0 174022.0 167366.0 86073.0 85967.0 137439.0 139286.0 41291.0 35352.0 54640.0 53805.0 122800.0 142135.0 122800.0 122800.0 122800.0 122800.0 122800.0 122800.0 122800.0 142135.0 142135.0 142135.0 142135.0 142135.0 142135.0 142135.0
118662.0 110677.0 155090.0 156101.0 94774.0 87544.0 133309.0 126220.0 139559.0 132665.0 154237.0 162285.0 257380.0 253883.0 349978.0 356831.0 258814.0 251686.0 112709.0 106368.0 200376.0 196359.0 202620.0 210612.0 364784.0 356850.0 103363.0 95362.0 163620.0 170008.0 150850.0 158966.0 55603.0 53580.0 73793.0 78121.0 372379.0 365156.0 113870.0 119062.0 203280.0 195800.0 107640.0 115542.0 74315.0 79578.0 166606.0 163979.0 109645.0 110726.0 151455.0 147529.0 218249.0 212133.0 145513.0 141968.0 0.0 8285.0 145953.0 151220.0 28514.0 34156.0 182271.0 182031.0 31958.0 31442.0 313803.0 309216.0 224483.0 219234.0 141490.0 145972.0 169329.0 177125.0 109586.0 112875.0 326064.0 321901.0 36719.0 28955.0 65863.0 73686.0 173926.0 173249.0 151401.0 145585.0 27693.0 30325.0 289386.0 293871.0 46234.0 44279.0 203500.0 198513.0 371118.0 369989.0 198399.0 192525.0 192449.0 200399.0 143778.0 136403.0 292467.0 286226.0 333828.0 341713.0 114985.0 121052.0 300489.0 297866.0 18763.0 15156.0 96329.0 100947.0 69149.0 75643.0 45809.0 53745.0 38165.0 43996.0 195101.0 200230.0 168988.0 166880.0 178349.0 169963.0 14862.0 17281.0 274225.0 277267.0 324862.0 316695.0 57890.0 56934.0 282748.0 285464.0 277174.0 277033.0 133943.0 139452.0 129057.0 130943.0 331206.0 331415.0 203411.0 211081.0 146787.0 142143.0 104796.0 106012.0 267886.0 264177.0 222768.0 220236.0 235834.0 241575.0 138079.0 132953.0 170813.0 163547.0 65346.0 202490.0 65346.0 65346.0 65346.0 65346.0 65346.0 65346.0 65346.0 202490.0 202490.0 202490.0 202490.0 202490.0 202490.0 202490.0
120459.0 112486.0 159523.0 160879.0 96343.0 89479.0 136473.0 129658.0 141561.0 134916.0 154521.0 162555.0 253956.0 250677.0 346482.0 353335.0 262724.0 255707.0 115730.0 109731.0 205794.0 201997.0 199124.0 207115.0 361288.0 353353.0 105558.0 97661.0 164328.0 170436.0 149022.0 157183.0 57676.0 54486.0 81253.0 85237.0 368883.0 361659.0 117745.0 122537.0 206204.0 198835.0 113908.0 121896.0 79676.0 84393.0 171670.0 169332.0 111468.0 111953.0 150229.0 145893.0 222831.0 216901.0 147042.0 143905.0 8285.0 0.0 145112.0 150039.0 24303.0 28492.0 179165.0 179130.0 32399.0 33902.0 310306.0 305719.0 222529.0 217525.0 139481.0 143640.0 169196.0 177079.0 110871.0 113615.0 322567.0 318405.0 44884.0 37008.0 69097.0 76587.0 178260.0 177255.0 152689.0 147200.0 28131.0 28618.0 285889.0 290374.0 53171.0 50408.0 207489.0 202724.0 367621.0 366492.0 197283.0 191644.0 196077.0 203936.0 142438.0 134887.0 288969.0 282740.0 330331.0 338216.0 115532.0 122004.0 303585.0 301157.0 15993.0 16421.0 101994.0 106200.0 75633.0 81739.0 53323.0 61284.0 42937.0 47742.0 193219.0 198592.0 172562.0 170119.0 177482.0 169141.0 18187.0 23060.0 276102.0 278932.0 321365.0 313198.0 62947.0 61056.0 279252.0 281967.0 281459.0 281110.0 134533.0 140387.0 134079.0 136349.0 327709.0 327918.0 205701.0 213249.0 146146.0 141141.0 107931.0 108563.0 264627.0 261125.0 225931.0 223661.0 233136.0 239063.0 137607.0 132864.0 170256.0 162785.0 60282.0 198994.0 60282.0 60282.0 60282.0 60282.0 60282.0 60282.0 60282.0 198994.0 198994.0 198994.0 198994.0 198994.0 198994.0 198994.0
49436.0 53105.0 99634.0 107245.0 60659.0 68619.0 69263.0 73539.0 49449.0 53576.0 22194.0 26663.0 126544.0 120781.0 237138.0 243990.0 161995.0 157951.0 68259.0 74541.0 147839.0 150308.0 91601.0 98783.0 245564.0 237356.0 61192.0 66624.0 34265.0 34505.0 18371.0 21511.0 94569.0 93486.0 139581.0 133443.0 254187.0 246457.0 80930.0 74264.0 98816.0 95330.0 122274.0 126094.0 107643.0 99965.0 118638.0 123695.0 53789.0 46694.0 8750.0 14235.0 142189.0 141571.0 41766.0 48517.0 145953.0 145112.0 0.0 7968.0 122268.0 122243.0 57655.0 54240.0 114054.0 116376.0 188132.0 181875.0 81777.0 75280.0 21083.0 26627.0 27270.0 35138.0 48009.0 40542.0 210126.0 204689.0 148411.0 144808.0 92362.0 85027.0 107008.0 99874.0 38777.0 43320.0 118279.0 116494.0 174508.0 180267.0 130461.0 123475.0 119073.0 120026.0 257676.0 255554.0 52631.0 46574.0 104206.0 108006.0 9100.0 15218.0 163092.0 155744.0 218854.0 226365.0 37253.0 37481.0 186069.0 186590.0 129127.0 130798.0 109847.0 103214.0 122672.0 116850.0 137558.0 138306.0 118068.0 109874.0 53143.0 56386.0 88909.0 81300.0 32398.0 24030.0 131819.0 133725.0 145388.0 145921.0 212021.0 203854.0 109870.0 103543.0 169174.0 170021.0 185057.0 181036.0 26648.0 31099.0 102687.0 110852.0 216361.0 217757.0 88154.0 92418.0 3661.0 4795.0 71938.0 64112.0 134544.0 128867.0 118329.0 120958.0 98550.0 102338.0 9949.0 17871.0 25589.0 17702.0 110237.0 93760.0 110237.0 110237.0 110237.0 110237.0 110237.0 110237.0 110237.0 93760.0 93760.0 93760.0 93760.0 93760.0 93760.0 93760.0
57401.0 60973.0 106856.0 114539.0 67994.0 75854.0 76958.0 81396.0 56868.0 61296.0 27253.0 29863.0 118742.0 113063.0 229245.0 236097.0 165583.0 161847.0 76225.0 82478.0 154339.0 157033.0 83982.0 91078.0 237610.0 229402.0 68970.0 74218.0 38246.0 36770.0 11958.0 13619.0 100852.0 99331.0 147097.0 141055.0 246225.0 238497.0 88896.0 82209.0 102910.0 99914.0 130228.0 134062.0 115147.0 107548.0 125759.0 130981.0 61638.0 54423.0 867.0 9169.0 147570.0 147285.0 48745.0 55794.0 151220.0 150039.0 7968.0 0.0 126829.0 126376.0 49813.0 46323.0 119441.0 122131.0 180267.0 174050.0 74951.0 68777.0 17962.0 21785.0 27521.0 34695.0 55724.0 48132.0 202163.0 196721.0 154968.0 151137.0 99291.0 92118.0 113580.0 106287.0 45110.0 50306.0 123619.0 121462.0 166567.0 172350.0 137310.0 130198.0 124340.0 125665.0 249740.0 247600.0 47244.0 41926.0 109554.0 112937.0 8047.0 16094.0 155307.0 147988.0 210898.0 218405.0 44811.0 45397.0 187688.0 188543.0 134047.0 136090.0 117734.0 111141.0 130113.0 124421.0 144412.0 145377.0 124412.0 116227.0 45961.0 49750.0 95251.0 87548.0 28001.0 20170.0 137290.0 139494.0 145503.0 145608.0 204128.0 195961.0 116891.0 110380.0 161265.0 162072.0 188757.0 184467.0 34546.0 38598.0 110548.0 118715.0 208408.0 209826.0 91340.0 95019.0 10596.0 9541.0 79848.0 71993.0 126875.0 121302.0 121945.0 125006.0 91033.0 95033.0 17798.0 25772.0 23314.0 14868.0 113779.0 86341.0 113779.0 113779.0 113779.0 113779.0 113779.0 113779.0 113779.0 86341.0 86341.0 86341.0 86341.0 86341.0 86341.0 86341.0
102072.0 94257.0 147339.0 149768.0 77938.0 72083.0 121040.0 115052.0 123340.0 117317.0 133093.0 141067.0 229658.0 226375.0 322179.0 329032.0 248289.0 241609.0 100295.0 95339.0 196426.0 193471.0 174821.0 182812.0 336985.0 329050.0 88331.0 80874.0 143507.0 149145.0 125275.0 133454.0 42429.0 36608.0 83978.0 85778.0 344580.0 337356.0 104598.0 108166.0 189539.0 182480.0 109301.0 117454.0 72853.0 75370.0 161384.0 160085.0 93287.0 92541.0 126975.0 122296.0 210553.0 205243.0 127804.0 125520.0 28514.0 24303.0 122268.0 126829.0 0.0 7995.0 154874.0 154871.0 17818.0 24629.0 286003.0 281416.0 198626.0 193780.0 115629.0 119599.0 147117.0 155087.0 91591.0 93274.0 298264.0 294102.0 55855.0 47817.0 56080.0 62164.0 165570.0 163616.0 132948.0 128130.0 15748.0 9548.0 261586.0 266072.0 55234.0 49326.0 193562.0 189463.0 343318.0 342189.0 174037.0 168634.0 181242.0 188808.0 119100.0 111416.0 264666.0 258437.0 306028.0 313913.0 94831.0 101939.0 286951.0 284999.0 10047.0 17479.0 95298.0 97822.0 73610.0 77671.0 58400.0 65773.0 38250.0 38749.0 169382.0 174914.0 157774.0 154485.0 154516.0 146242.0 21521.0 28723.0 256941.0 259367.0 297062.0 288895.0 56298.0 51447.0 254949.0 257664.0 268011.0 267071.0 113718.0 120110.0 124204.0 127786.0 303406.0 303615.0 187618.0 194874.0 123525.0 118140.0 92975.0 92111.0 240324.0 236833.0 209734.0 208127.0 208913.0 214895.0 115228.0 111025.0 147649.0 139970.0 36893.0 174691.0 36893.0 36893.0 36893.0 36893.0 36893.0 36893.0 36893.0 174691.0 174691.0 174691.0 174691.0 174691.0 174691.0 174691.0
105235.0 97560.0 152607.0 155331.0 81327.0 76025.0 125348.0 119695.0 126448.0 120751.0 134255.0 142153.0 227021.0 223734.0 319528.0 326381.0 252608.0 246053.0 104738.0 100194.0 202318.0 199568.0 172170.0 180161.0 334334.0 326399.0 92154.0 84967.0 145055.0 150348.0 124074.0 132259.0 47880.0 41240.0 91881.0 93542.0 341929.0 334705.0 109788.0 112933.0 193110.0 186197.0 116384.0 124532.0 79801.0 81873.0 167127.0 166089.0 96623.0 95244.0 126467.0 121341.0 215632.0 210514.0 130367.0 128536.0 34156.0 28492.0 122243.0 126376.0 7995.0 0.0 152289.0 152402.0 24893.0 32199.0 283353.0 278765.0 197005.0 192441.0 114275.0 117834.0 147717.0 155735.0 94375.0 95418.0 295613.0 291451.0 63619.0 55527.0 61878.0 67413.0 170628.0 168379.0 135206.0 130782.0 23411.0 16438.0 258935.0 263421.0 63189.0 57165.0 198152.0 194280.0 340667.0 339538.0 173414.0 168292.0 185544.0 192985.0 118517.0 110686.0 262015.0 255786.0 303378.0 311262.0 96728.0 104184.0 290382.0 288626.0 17005.0 25009.0 102101.0 104281.0 81202.0 84998.0 66395.0 73761.0 45942.0 45873.0 167923.0 173709.0 162162.0 158571.0 154256.0 146077.0 29168.0 36493.0 259223.0 261427.0 294411.0 286244.0 63462.0 58165.0 252298.0 255013.0 272639.0 271502.0 115407.0 122112.0 130183.0 134054.0 300755.0 300964.0 190563.0 197661.0 123722.0 117962.0 97654.0 96226.0 237672.0 234236.0 213455.0 212110.0 206530.0 212656.0 115692.0 111976.0 147773.0 139910.0 31861.0 172040.0 31861.0 31861.0 31861.0 31861.0 31861.0 31861.0 31861.0 172040.0 172040.0 172040.0 172040.0 172040.0 172040.0 172040.0
106570.0 109200.0 155789.0 163602.0 113173.0 120267.0 126722.0 131192.0 106364.0 111085.0 74212.0 73214.0 75497.0 71629.0 179525.0 186377.0 200702.0 198402.0 125339.0 131102.0 201014.0 204407.0 35019.0 41585.0 189764.0 181620.0 116503.0 120568.0 81847.0 76547.0 40683.0 36197.0 139408.0 135674.0 191897.0 186591.0 198061.0 190475.0 138228.0 131797.0 142036.0 140941.0 178922.0 183185.0 160239.0 153252.0 174381.0 179984.0 109733.0 101960.0 48980.0 45452.0 190391.0 191329.0 97659.0 105094.0 182271.0 179165.0 57655.0 49813.0 154874.0 152289.0 0.0 4794.0 152381.0 156979.0 134732.0 129278.0 51883.0 51416.0 45947.0 39322.0 65026.0 67409.0 103153.0 95194.0 153158.0 148054.0 193531.0 188405.0 141342.0 135264.0 160789.0 153116.0 92994.0 99208.0 156116.0 152016.0 117168.0 122737.0 177981.0 170272.0 167138.0 169750.0 200238.0 198322.0 49998.0 52784.0 152954.0 154796.0 51785.0 54881.0 111481.0 104773.0 161674.0 169296.0 91862.0 94175.0 212817.0 215347.0 163755.0 167807.0 165645.0 159512.0 174592.0 169837.0 184981.0 187272.0 162460.0 154581.0 31987.0 39768.0 142023.0 134184.0 50007.0 50919.0 169980.0 173811.0 164356.0 162122.0 154408.0 146241.0 159011.0 151612.0 111617.0 112771.0 223912.0 218478.0 84300.0 88265.0 160341.0 168507.0 159146.0 160306.0 127622.0 128744.0 60376.0 57344.0 128214.0 120185.0 85665.0 81959.0 158459.0 163163.0 54855.0 61685.0 66937.0 74824.0 56319.0 52975.0 138719.0 38758.0 138719.0 138719.0 138719.0 138719.0 138719.0 138719.0 138719.0 38758.0 38758.0 38758.0 38758.0 38758.0 38758.0 38758.0
103431.0 106323.0 151765.0 159605.0 110874.0 118114.0 123054.0 127701.0 102557.0 107460.0 70097.0 68851.0 76519.0 72212.0 182930.0 189783.0 195910.0 193618.0 122237.0 128157.0 196629.0 200097.0 39419.0 45732.0 192242.0 184074.0 113794.0 118096.0 77441.0 71997.0 37864.0 32729.0 138133.0 134655.0 189831.0 184386.0 200651.0 193013.0 135051.0 128493.0 137316.0 136275.0 175992.0 180109.0 158075.0 150968.0 170278.0 175962.0 106888.0 99212.0 45509.0 42604.0 185759.0 186756.0 93709.0 101223.0 182031.0 179130.0 54240.0 46323.0 154871.0 152402.0 4794.0 0.0 151828.0 156222.0 136503.0 130851.0 49188.0 48097.0 43938.0 37650.0 60489.0 62718.0 100430.0 92510.0 156073.0 150815.0 192403.0 187436.0 139607.0 133352.0 156488.0 148781.0 88891.0 95251.0 155629.0 151729.0 120294.0 126028.0 176533.0 168890.0 162519.0 165193.0 203445.0 201389.0 45388.0 48027.0 148375.0 150148.0 48854.0 52510.0 112791.0 105924.0 164705.0 172267.0 89164.0 91130.0 208137.0 210632.0 163606.0 167449.0 162921.0 156663.0 172557.0 167632.0 183562.0 185665.0 161326.0 153384.0 27628.0 35482.0 137695.0 129853.0 45275.0 46392.0 169517.0 173169.0 159806.0 157647.0 157814.0 149646.0 157314.0 150023.0 114942.0 115834.0 219119.0 213684.0 80869.0 84564.0 156852.0 165019.0 162197.0 163523.0 122860.0 123956.0 56816.0 54230.0 125335.0 117337.0 86298.0 82194.0 153685.0 158411.0 54180.0 60636.0 63712.0 71653.0 51753.0 48677.0 138832.0 43398.0 138832.0 138832.0 138832.0 138832.0 138832.0 138832.0 138832.0 43398.0 43398.0 43398.0 43398.0 43398.0 43398.0 43398.0
88170.0 80213.0 130370.0 132527.0 64009.0 57331.0 105269.0 98873.0 109335.0 102840.0 122420.0 130465.0 227808.0 223966.0 321451.0 328304.0 232236.0 225412.0 84458.0 78992.0 178907.0 175835.0 174093.0 182084.0 336257.0 328322.0 73521.0 65738.0 132031.0 138261.0 119497.0 127559.0 26005.0 22088.0 68115.0 69153.0 343852.0 336628.0 87814.0 91862.0 174554.0 167308.0 91554.0 99706.0 55050.0 57609.0 143987.0 142513.0 79203.0 79555.0 119698.0 116031.0 193699.0 188210.0 114664.0 111647.0 31958.0 32399.0 114054.0 119441.0 17818.0 24893.0 152381.0 151828.0 0.0 8039.0 285208.0 280451.0 193126.0 187697.0 110330.0 115148.0 137396.0 145211.0 78475.0 81287.0 297536.0 293374.0 45902.0 38795.0 38925.0 45608.0 148786.0 147155.0 120290.0 114838.0 4308.0 8458.0 260858.0 265344.0 40193.0 33313.0 177253.0 172902.0 342590.0 341462.0 166562.0 160619.0 165298.0 173009.0 112091.0 104840.0 263359.0 256908.0 305301.0 313185.0 83276.0 89629.0 272011.0 269793.0 17643.0 16822.0 77480.0 80062.0 56489.0 60108.0 44634.0 51266.0 21669.0 20999.0 163717.0 168661.0 141774.0 138886.0 146443.0 138050.0 17902.0 21604.0 243773.0 246557.0 296335.0 288167.0 38585.0 33644.0 254221.0 256937.0 251585.0 250868.0 102270.0 108021.0 106673.0 110089.0 302679.0 302888.0 173569.0 181049.0 114847.0 110298.0 76872.0 76810.0 238027.0 234010.0 194501.0 192544.0 205232.0 210744.0 106124.0 101020.0 138860.0 131623.0 44275.0 173963.0 44275.0 44275.0 44275.0 44275.0 44275.0 44275.0 44275.0 173963.0 173963.0 173963.0 173963.0 173963.0 173963.0 173963.0
87221.0 79235.0 126212.0 127964.0 63352.0 56105.0 102572.0 95787.0 108145.0 101316.0 123365.0 131407.0 232474.0 228431.0 326882.0 333735.0 228962.0 222002.0 81832.0 75855.0 173787.0 170453.0 179524.0 187515.0 341688.0 333753.0 71981.0 64010.0 132444.0 139000.0 122922.0 130887.0 24161.0 22919.0 60166.0 61416.0 349283.0 342059.0 84068.0 88679.0 172336.0 164947.0 84910.0 93060.0 48742.0 52092.0 139141.0 137320.0 78204.0 79378.0 122440.0 119261.0 189582.0 183866.0 114079.0 110544.0 31442.0 33902.0 116376.0 122131.0 24629.0 32199.0 156979.0 156222.0 8039.0 0.0 290427.0 285530.0 196396.0 190723.0 114019.0 119156.0 138799.0 146494.0 78220.0 81770.0 302967.0 298805.0 38869.0 32259.0 35239.0 42689.0 144827.0 143583.0 120006.0 114144.0 8891.0 15949.0 266289.0 270775.0 32154.0 25339.0 173787.0 169166.0 348021.0 346892.0 169002.0 162815.0 162230.0 170065.0 115006.0 108009.0 268240.0 261685.0 310731.0 318616.0 84011.0 89807.0 269695.0 267256.0 21604.0 17482.0 71317.0 74442.0 49012.0 53097.0 36686.0 43236.0 13805.0 14763.0 166996.0 171663.0 138707.0 136217.0 148664.0 140248.0 16582.0 17363.0 242806.0 245826.0 301765.0 293598.0 31951.0 28112.0 259652.0 262367.0 247911.0 247428.0 102887.0 108189.0 101640.0 104623.0 308109.0 308318.0 172096.0 179725.0 116927.0 112829.0 74030.0 74785.0 242512.0 238301.0 192032.0 189769.0 209236.0 214547.0 108046.0 102494.0 140752.0 133775.0 52073.0 179394.0 52073.0 52073.0 52073.0 52073.0 52073.0 52073.0 52073.0 179394.0 179394.0 179394.0 179394.0 179394.0 179394.0 179394.0
237256.0 241234.0 275735.0 283700.0 247148.0 254528.0 252623.0 258730.0 231527.0 237945.0 197790.0 193191.0 61891.0 68544.0 83884.0 86551.0 280860.0 282204.0 255954.0 262563.0 310458.0 315937.0 112405.0 104859.0 61399.0 53428.0 249197.0 254068.0 199917.0 191976.0 173868.0 167484.0 273941.0 269832.0 326272.0 320687.0 71127.0 63125.0 268161.0 260896.0 240429.0 243186.0 310056.0 313317.0 294447.0 287195.0 292091.0 299039.0 241905.0 234611.0 179570.0 178479.0 290094.0 294062.0 221579.0 229580.0 313803.0 310306.0 188132.0 180267.0 286003.0 283353.0 134732.0 136503.0 285208.0 290427.0 0.0 8065.0 115168.0 123593.0 180439.0 174012.0 182681.0 179928.0 235889.0 228136.0 44034.0 36180.0 327761.0 322301.0 276053.0 269855.0 274715.0 266629.0 215176.0 222957.0 288684.0 283822.0 45194.0 50118.0 312643.0 304884.0 269391.0 274734.0 88254.0 82487.0 148209.0 156113.0 258328.0 256595.0 184448.0 188882.0 26625.0 34366.0 53055.0 56317.0 224785.0 225596.0 267939.0 273914.0 295123.0 299761.0 297975.0 291253.0 309022.0 303947.0 319619.0 322001.0 296755.0 288989.0 137386.0 137604.0 256414.0 249036.0 165203.0 171423.0 302341.0 306805.0 217274.0 210824.0 67941.0 62160.0 293735.0 286341.0 52757.0 44441.0 300987.0 293510.0 213669.0 215344.0 287241.0 295263.0 52203.0 58849.0 223938.0 220394.0 189892.0 189225.0 260046.0 252244.0 56284.0 63761.0 248656.0 255897.0 92381.0 91854.0 198055.0 206003.0 174940.0 176634.0 269783.0 116178.0 269783.0 269783.0 269783.0 269783.0 269783.0 269783.0 269783.0 116178.0 116178.0 116178.0 116178.0 116178.0 116178.0 116178.0
230852.0 234975.0 268533.0 276490.0 241222.0 248678.0 245798.0 252004.0 224716.0 231223.0 191029.0 186284.0 55362.0 61675.0 91195.0 94124.0 272824.0 274191.0 249503.0 256193.0 302824.0 308354.0 108441.0 101088.0 69235.0 61327.0 243017.0 248023.0 192891.0 184893.0 167962.0 161417.0 268653.0 264711.0 320418.0 314733.0 79010.0 71022.0 261618.0 254291.0 232672.0 235502.0 303581.0 306727.0 288547.0 281219.0 284762.0 291754.0 235664.0 228451.0 173368.0 172533.0 282270.0 286291.0 214730.0 222735.0 309216.0 305719.0 181875.0 174050.0 281416.0 278765.0 129278.0 130851.0 280451.0 285530.0 8065.0 0.0 107846.0 116256.0 174773.0 168457.0 175749.0 172827.0 229740.0 222033.0 51331.0 43397.0 322633.0 317293.0 270457.0 264144.0 267278.0 259196.0 208262.0 216094.0 283984.0 279260.0 47802.0 53622.0 307258.0 299545.0 261649.0 267044.0 96259.0 90537.0 141041.0 148973.0 250680.0 248870.0 178430.0 183062.0 19238.0 26969.0 60579.0 64144.0 218687.0 219299.0 259915.0 265874.0 290535.0 295192.0 291674.0 284876.0 303203.0 298009.0 314258.0 316497.0 291591.0 283771.0 130673.0 130639.0 249036.0 241693.0 158336.0 164704.0 297696.0 302030.0 209220.0 202780.0 74217.0 67989.0 288164.0 280845.0 54678.0 46250.0 292930.0 285449.0 207213.0 208712.0 280412.0 288411.0 59589.0 66024.0 216185.0 212570.0 183548.0 183098.0 253728.0 245968.0 48986.0 56284.0 240748.0 248012.0 85358.0 84499.0 191814.0 199739.0 168109.0 170017.0 265195.0 112592.0 265195.0 265195.0 265195.0 265195.0 265195.0 265195.0 265195.0 112592.0 112592.0 112592.0 112592.0 112592.0 112592.0 112592.0
127620.0 132962.0 160747.0 168690.0 142294.0 150328.0 139384.0 146131.0 118514.0 125536.0 85579.0 79856.0 55180.0 47500.0 180856.0 186716.0 176193.0 175863.0 145588.0 152850.0 196092.0 201270.0 68158.0 69096.0 176031.0 167868.0 141558.0 147733.0 85735.0 77527.0 73643.0 65567.0 175701.0 173797.0 220627.0 214131.0 185475.0 177472.0 156885.0 149187.0 127569.0 129439.0 198996.0 201375.0 188816.0 180915.0 176928.0 183908.0 133792.0 127536.0 74515.0 77143.0 177850.0 181021.0 108383.0 116349.0 224483.0 222529.0 81777.0 74951.0 198626.0 197005.0 51883.0 49188.0 193126.0 196396.0 115168.0 107846.0 0.0 8434.0 83051.0 79175.0 69282.0 65444.0 128891.0 121888.0 146791.0 139894.0 229908.0 225972.0 174130.0 166794.0 159614.0 151524.0 101585.0 109651.0 197191.0 194292.0 116313.0 123779.0 212206.0 205140.0 156111.0 160895.0 196048.0 192163.0 33578.0 41577.0 144187.0 143206.0 81548.0 88388.0 88629.0 80883.0 156469.0 162907.0 118696.0 117302.0 177115.0 181092.0 206650.0 209489.0 188454.0 181151.0 203975.0 197771.0 219306.0 220068.0 199274.0 191100.0 29411.0 25472.0 141254.0 133868.0 52769.0 60333.0 211028.0 213721.0 125767.0 121832.0 156563.0 148284.0 191646.0 185279.0 114158.0 111444.0 198361.0 191760.0 104023.0 103961.0 173835.0 181696.0 154361.0 157845.0 111180.0 108932.0 82350.0 84484.0 150839.0 143580.0 58889.0 51645.0 138700.0 145222.0 24044.0 23354.0 91370.0 98700.0 62577.0 66473.0 183483.0 75084.0 183483.0 183483.0 183483.0 183483.0 183483.0 183483.0 183483.0 75084.0 75084.0 75084.0 75084.0 75084.0 75084.0 75084.0
120188.0 125722.0 152379.0 160317.0 135516.0 143600.0 131340.0 138182.0 110540.0 117654.0 77865.0 71921.0 63539.0 55899.0 188892.0 194823.0 168853.0 168336.0 137986.0 145328.0 187703.0 192857.0 71795.0 73559.0 184465.0 176301.0 134378.0 140717.0 77588.0 69330.0 68513.0 60343.0 169627.0 168007.0 213490.0 206895.0 193906.0 185904.0 149123.0 141372.0 119369.0 121132.0 191203.0 193460.0 181755.0 173792.0 168510.0 175503.0 126573.0 120506.0 68403.0 71705.0 169673.0 172760.0 100396.0 108340.0 219234.0 217525.0 75280.0 68777.0 193780.0 192441.0 51416.0 48097.0 187697.0 190723.0 123593.0 116256.0 8434.0 0.0 78186.0 74870.0 61377.0 57263.0 121865.0 115020.0 155084.0 148226.0 223661.0 219911.0 167596.0 160144.0 151180.0 143090.0 93534.0 101640.0 191808.0 189150.0 124283.0 131682.0 205715.0 198755.0 147839.0 152563.0 204340.0 200505.0 25497.0 33475.0 135830.0 134931.0 75717.0 82859.0 97044.0 89297.0 164743.0 171224.0 111874.0 110134.0 171309.0 175045.0 201594.0 204179.0 180883.0 173514.0 196948.0 190617.0 212808.0 213377.0 193181.0 184994.0 24618.0 19060.0 132825.0 125447.0 45272.0 53101.0 205594.0 208075.0 120344.0 116784.0 164495.0 156213.0 185023.0 178808.0 121920.0 119414.0 191182.0 184693.0 96700.0 96325.0 165732.0 173563.0 162617.0 166022.0 103016.0 100950.0 75611.0 78254.0 143395.0 136240.0 67311.0 60027.0 130839.0 137261.0 32296.0 31757.0 84686.0 91831.0 54987.0 59384.0 179018.0 78498.0 179018.0 179018.0 179018.0 179018.0 179018.0 179018.0 179018.0 78498.0 78498.0 78498.0 78498.0 78498.0 78498.0 78498.0
63105.0 64538.0 118272.0 125634.0 67283.0 74321.0 86363.0 89383.0 68031.0 70823.0 43273.0 47201.0 120192.0 115438.0 224007.0 230860.0 182898.0 178949.0 81416.0 86497.0 167773.0 169878.0 76725.0 84406.0 235661.0 227529.0 71267.0 74850.0 55182.0 54517.0 10000.0 18084.0 94742.0 91838.0 145967.0 140647.0 243887.0 236339.0 94520.0 88819.0 119845.0 116413.0 134060.0 138795.0 114292.0 107335.0 137457.0 142031.0 64955.0 56942.0 17433.0 9094.0 163101.0 162303.0 61508.0 67521.0 141490.0 139481.0 21083.0 17962.0 115629.0 114275.0 45947.0 43938.0 110330.0 114019.0 180439.0 174773.0 83051.0 78186.0 0.0 7195.0 45479.0 52530.0 58050.0 50053.0 198647.0 193746.0 149171.0 144550.0 95695.0 89417.0 126928.0 120027.0 59348.0 63026.0 114334.0 111259.0 162355.0 167535.0 132829.0 125276.0 140041.0 140824.0 245077.0 243490.0 60221.0 56387.0 125155.0 129063.0 11984.0 9706.0 156612.0 149642.0 206958.0 214676.0 46797.0 50493.0 205647.0 206472.0 123600.0 126547.0 120285.0 114472.0 128672.0 123894.0 139885.0 141809.0 118147.0 110100.0 53755.0 59442.0 109179.0 101695.0 43495.0 36729.0 128212.0 131236.0 163251.0 163193.0 198891.0 190723.0 113414.0 106198.0 156371.0 158088.0 206003.0 201881.0 43686.0 49935.0 118136.0 126214.0 204393.0 205189.0 108848.0 112770.0 24737.0 17487.0 83405.0 75329.0 129510.0 124802.0 139229.0 141984.0 95327.0 100528.0 26233.0 32820.0 40710.0 32395.0 100929.0 77703.0 100929.0 100929.0 100929.0 100929.0 100929.0 100929.0 100929.0 77703.0 77703.0 77703.0 77703.0 77703.0 77703.0 77703.0
70287.0 71722.0 125053.0 132472.0 74179.0 81086.0 93361.0 96498.0 74758.0 77777.0 48522.0 51644.0 114135.0 109611.0 216900.0 223753.0 187361.0 183628.0 88611.0 93676.0 174177.0 176425.0 69560.0 77262.0 228859.0 220741.0 78395.0 81853.0 59959.0 58454.0 10579.0 16824.0 100535.0 97267.0 152621.0 147410.0 237032.0 229509.0 101715.0 95995.0 124664.0 121545.0 141209.0 145974.0 121035.0 114174.0 144209.0 148888.0 72132.0 64106.0 21068.0 12746.0 168779.0 168198.0 67906.0 74151.0 145972.0 143640.0 26627.0 21785.0 119599.0 117834.0 39322.0 37650.0 115148.0 119156.0 174012.0 168457.0 79175.0 74870.0 7195.0 0.0 48615.0 55096.0 65205.0 57210.0 191675.0 186836.0 154874.0 150051.0 102041.0 95946.0 133324.0 126313.0 65353.0 69440.0 119072.0 115665.0 155332.0 160458.0 138884.0 131249.0 145628.0 146651.0 237989.0 236447.0 58814.0 55874.0 130780.0 134425.0 17751.0 16891.0 150441.0 143558.0 199940.0 207676.0 53965.0 57675.0 208660.0 209736.0 127858.0 131146.0 127369.0 121606.0 135304.0 130664.0 145914.0 148040.0 123807.0 115825.0 50259.0 56551.0 115399.0 107839.0 43972.0 38190.0 132974.0 136267.0 165194.0 164805.0 191783.0 183616.0 119727.0 112390.0 149294.0 151091.0 210540.0 206228.0 50558.0 56543.0 125291.0 133376.0 197370.0 198112.0 113090.0 116624.0 30262.0 23688.0 90572.0 82496.0 123700.0 119224.0 143728.0 146772.0 90104.0 95629.0 32911.0 39792.0 42786.0 34878.0 104309.0 70508.0 104309.0 104309.0 104309.0 104309.0 104309.0 104309.0 104309.0 70508.0 70508.0 70508.0 70508.0 70508.0 70508.0 70508.0
59845.0 66171.0 94173.0 102156.0 78271.0 86450.0 70206.0 76850.0 49250.0 56277.0 16967.0 10588.0 120976.0 114138.0 239712.0 246415.0 139640.0 136381.0 76975.0 84507.0 136421.0 140203.0 99886.0 105896.0 242397.0 234167.0 74984.0 82040.0 17734.0 11529.0 38087.0 34649.0 115739.0 115961.0 153699.0 146774.0 251503.0 243587.0 87802.0 80010.0 78242.0 76383.0 129846.0 132100.0 122427.0 114257.0 111830.0 118128.0 67109.0 62198.0 28053.0 36540.0 125539.0 126315.0 39141.0 47132.0 169329.0 169196.0 27270.0 27521.0 147117.0 147717.0 65026.0 60489.0 137396.0 138799.0 182681.0 175749.0 69282.0 61377.0 45479.0 48615.0 0.0 8048.0 63545.0 57915.0 209698.0 203544.0 167901.0 165199.0 111049.0 103088.0 96746.0 88877.0 32517.0 40446.0 141688.0 140676.0 175696.0 182231.0 148871.0 142547.0 102242.0 104725.0 258426.0 255492.0 35926.0 28058.0 87951.0 90067.0 34674.0 42148.0 156546.0 148887.0 218938.0 226043.0 55231.0 51326.0 160204.0 161155.0 153315.0 154218.0 119857.0 112361.0 137667.0 130863.0 155856.0 155480.0 138686.0 130572.0 45879.0 45114.0 77868.0 70043.0 17655.0 14108.0 154821.0 155953.0 118291.0 118690.0 214598.0 206431.0 127737.0 122417.0 171467.0 170967.0 162909.0 158270.0 37427.0 35448.0 104764.0 112712.0 216588.0 218892.0 65278.0 68230.0 24762.0 32059.0 82834.0 76114.0 126951.0 120244.0 96248.0 100016.0 90401.0 92155.0 32049.0 36377.0 8792.0 14016.0 136518.0 103757.0 136518.0 136518.0 136518.0 136518.0 136518.0 136518.0 136518.0 103757.0 103757.0 103757.0 103757.0 103757.0 103757.0 103757.0
66132.0 72795.0 95941.0 103926.0 85472.0 93627.0 74212.0 81295.0 53668.0 61104.0 23667.0 16056.0 118553.0 111459.0 239245.0 245799.0 134817.0 131921.0 82618.0 90299.0 135839.0 140037.0 101796.0 107389.0 240126.0 231910.0 81609.0 88866.0 20341.0 12088.0 44517.0 40089.0 123297.0 123693.0 159901.0 152836.0 249352.0 241400.0 92894.0 84965.0 74677.0 73582.0 134715.0 136581.0 128881.0 120656.0 112962.0 119577.0 73761.0 69261.0 35141.0 43476.0 123150.0 124446.0 43530.0 51355.0 177125.0 177079.0 35138.0 34695.0 155087.0 155735.0 67409.0 62718.0 145211.0 146494.0 179928.0 172827.0 65444.0 57263.0 52530.0 55096.0 8048.0 0.0 70594.0 65288.0 208313.0 201969.0 175098.0 172553.0 118243.0 110213.0 96945.0 88942.0 36478.0 44679.0 149507.0 148584.0 174915.0 181650.0 155912.0 149717.0 99981.0 103028.0 257258.0 254093.0 31883.0 23896.0 86093.0 87498.0 42167.0 49818.0 153591.0 145883.0 217675.0 224640.0 62710.0 58349.0 153580.0 154772.0 161216.0 162030.0 125341.0 117709.0 144100.0 137128.0 162863.0 162280.0 146116.0 138029.0 44723.0 42591.0 78121.0 70402.0 17613.0 17909.0 162578.0 163602.0 110815.0 111028.0 214192.0 206001.0 134737.0 129605.0 171032.0 170138.0 158108.0 153204.0 44487.0 41624.0 108496.0 116305.0 215373.0 217936.0 60757.0 62930.0 32751.0 39907.0 88832.0 82408.0 123876.0 116915.0 91781.0 96046.0 87555.0 88653.0 40087.0 44216.0 12569.0 20247.0 144566.0 106109.0 144566.0 144566.0 144566.0 144566.0 144566.0 144566.0 144566.0 106109.0 106109.0 106109.0 106109.0 106109.0 106109.0 106109.0
11794.0 7257.0 71235.0 77095.0 15109.0 23127.0 37861.0 36756.0 32274.0 27674.0 46928.0 54752.0 174455.0 168775.0 282022.0 288875.0 160875.0 154924.0 24671.0 28608.0 124073.0 124112.0 134764.0 142455.0 292640.0 284460.0 13366.0 18852.0 54593.0 61692.0 62567.0 68438.0 54205.0 56388.0 91778.0 85483.0 301080.0 293433.0 37620.0 33572.0 99417.0 92910.0 76012.0 80842.0 59926.0 52079.0 89824.0 92414.0 7295.0 1363.0 56387.0 57827.0 128868.0 125469.0 36265.0 34234.0 109586.0 110871.0 48009.0 55724.0 91591.0 94375.0 103153.0 100430.0 78475.0 78220.0 235889.0 229740.0 128891.0 121865.0 58050.0 65205.0 63545.0 70594.0 0.0 7999.0 256302.0 251191.0 104532.0 102223.0 47708.0 39627.0 85590.0 80985.0 41838.0 36545.0 82742.0 83541.0 220181.0 225493.0 85338.0 79141.0 108511.0 106234.0 303048.0 301348.0 97539.0 90305.0 94591.0 101294.0 51634.0 48541.0 211027.0 203711.0 264751.0 272412.0 11298.0 12245.0 196260.0 194787.0 95694.0 94904.0 62498.0 56448.0 75091.0 68963.0 92313.0 92042.0 76096.0 68170.0 100899.0 103427.0 72405.0 67199.0 76874.0 68795.0 94745.0 94721.0 165466.0 168115.0 256905.0 248738.0 64192.0 59052.0 214333.0 215848.0 182143.0 180104.0 26131.0 30176.0 62794.0 70506.0 262205.0 263139.0 96188.0 103324.0 46780.0 46665.0 25396.0 17331.0 182552.0 176853.0 120008.0 119440.0 146517.0 150102.0 38070.0 30333.0 67615.0 62483.0 88814.0 135524.0 88814.0 88814.0 88814.0 88814.0 88814.0 88814.0 88814.0 135524.0 135524.0 135524.0 135524.0 135524.0 135524.0 135524.0
16286.0 14765.0 76730.0 82972.0 20587.0 28758.0 43069.0 43113.0 33564.0 30720.0 41797.0 49798.0 166785.0 161186.0 274024.0 280876.0 162727.0 157050.0 32174.0 36540.0 129324.0 129740.0 126769.0 134458.0 284740.0 276564.0 21310.0 26090.0 50755.0 57244.0 54647.0 60653.0 58167.0 59316.0 99042.0 92925.0 293158.0 285522.0 45250.0 40667.0 100364.0 94257.0 84010.0 88809.0 67110.0 59430.0 95615.0 98622.0 15040.0 6914.0 48769.0 49919.0 132483.0 129508.0 35285.0 35054.0 112875.0 113615.0 40542.0 48132.0 93274.0 95418.0 95194.0 92510.0 81287.0 81770.0 228136.0 222033.0 121888.0 115020.0 50053.0 57210.0 57915.0 65288.0 7999.0 0.0 248333.0 243242.0 110040.0 107290.0 53237.0 45425.0 90087.0 84969.0 39790.0 35896.0 85590.0 85706.0 212196.0 217498.0 91250.0 84728.0 111472.0 109708.0 295053.0 293362.0 91032.0 83989.0 97198.0 103510.0 43768.0 40544.0 203368.0 196082.0 256770.0 264437.0 3353.0 8819.0 196426.0 195279.0 98112.0 97963.0 70450.0 64445.0 82177.0 76311.0 98292.0 98443.0 80829.0 72752.0 93617.0 96417.0 75787.0 70002.0 70312.0 62097.0 98127.0 98652.0 163810.0 166110.0 248907.0 240740.0 70265.0 64597.0 206338.0 207869.0 184399.0 182029.0 21125.0 26855.0 70108.0 77931.0 254222.0 255145.0 95827.0 102607.0 39567.0 38938.0 33373.0 25299.0 175007.0 169397.0 121058.0 121017.0 139090.0 142832.0 30666.0 23194.0 61308.0 55692.0 88170.0 127556.0 88170.0 88170.0 88170.0 88170.0 88170.0 88170.0 88170.0 127556.0 127556.0 127556.0 127556.0 127556.0 127556.0 127556.0
259475.0 262346.0 303867.0 311852.0 265843.0 272590.0 277849.0 283116.0 256887.0 262534.0 223236.0 219827.0 91700.0 99564.0 39872.0 43059.0 319023.0 319765.0 278292.0 284218.0 342561.0 347456.0 123475.0 115486.0 41035.0 34353.0 269643.0 273496.0 227392.0 220021.0 193821.0 188683.0 288065.0 283153.0 343610.0 338780.0 47053.0 40632.0 291050.0 284333.0 274305.0 276216.0 332051.0 336165.0 312399.0 305754.0 321256.0 327752.0 262887.0 255115.0 201376.0 198585.0 324527.0 327808.0 247353.0 255225.0 326064.0 322567.0 210126.0 202163.0 298264.0 295613.0 153158.0 156073.0 297536.0 302967.0 44034.0 51331.0 146791.0 155084.0 198647.0 191675.0 209698.0 208313.0 256302.0 248333.0 0.0 7962.0 340864.0 335049.0 292110.0 286769.0 305002.0 296940.0 241550.0 248827.0 300965.0 296108.0 36701.0 33444.0 326886.0 319044.0 302901.0 307633.0 49257.0 45796.0 177750.0 185258.0 290859.0 289997.0 204887.0 207892.0 65112.0 71733.0 9862.0 16346.0 245007.0 247203.0 309277.0 314951.0 307383.0 312033.0 318778.0 312668.0 326272.0 322081.0 333796.0 336957.0 310112.0 302632.0 163865.0 165876.0 286290.0 278643.0 192061.0 197059.0 314602.0 319140.0 258008.0 251882.0 27211.0 24960.0 309425.0 301606.0 43952.0 40655.0 339908.0 332650.0 236611.0 239560.0 312171.0 320318.0 8332.0 14879.0 257872.0 255209.0 212462.0 210302.0 281361.0 273340.0 90801.0 98814.0 284442.0 291314.0 122787.0 124575.0 219740.0 227701.0 201328.0 201422.0 282043.0 124850.0 282043.0 282043.0 282043.0 282043.0 282043.0 282043.0 282043.0 124850.0 124850.0 124850.0 124850.0 124850.0 124850.0 124850.0
254097.0 257138.0 297674.0 305664.0 261011.0 267867.0 272051.0 277447.0 251043.0 256809.0 217327.0 213744.0 84728.0 92526.0 47798.0 51003.0 311521.0 312334.0 272922.0 278959.0 335840.0 340818.0 119291.0 111298.0 43250.0 35737.0 264548.0 268563.0 221205.0 213743.0 188643.0 183307.0 283911.0 278990.0 339089.0 334134.0 50478.0 43364.0 285613.0 278806.0 267309.0 269331.0 326791.0 330780.0 307747.0 300998.0 314931.0 321495.0 257701.0 249988.0 195946.0 193399.0 317487.0 320860.0 241436.0 249337.0 321901.0 318405.0 204689.0 196721.0 294102.0 291451.0 148054.0 150815.0 293374.0 298805.0 36180.0 43397.0 139894.0 148226.0 193746.0 186836.0 203544.0 201969.0 251191.0 243242.0 7962.0 0.0 336702.0 330886.0 287732.0 282248.0 298508.0 290436.0 235539.0 242898.0 296803.0 291945.0 33285.0 31726.0 322844.0 314887.0 295971.0 300786.0 56333.0 52291.0 171192.0 178768.0 284050.0 283073.0 199668.0 202895.0 57260.0 63976.0 17613.0 23063.0 239906.0 241897.0 301443.0 307144.0 303221.0 307870.0 313689.0 307478.0 321747.0 317411.0 329635.0 332811.0 305950.0 298440.0 157672.0 159453.0 279838.0 272221.0 185893.0 191071.0 310440.0 314978.0 250221.0 244064.0 33350.0 29523.0 305129.0 297368.0 41243.0 36623.0 332325.0 325041.0 231089.0 233856.0 306451.0 314588.0 16285.0 22671.0 250857.0 248082.0 206946.0 205002.0 276150.0 268151.0 83370.0 91377.0 277212.0 284133.0 115945.0 117480.0 214370.0 222346.0 195244.0 195563.0 277881.0 121060.0 277881.0 277881.0 277881.0 277881.0 277881.0 277881.0 277881.0 121060.0 121060.0 121060.0 121060.0 121060.0 121060.0 121060.0
110701.0 103169.0 133427.0 132826.0 89639.0 81473.0 118278.0 110230.0 129614.0 121883.0 151444.0 159283.0 268911.0 264484.0 364779.0 371632.0 237899.0 230355.0 99426.0 91878.0 173508.0 168584.0 217421.0 225413.0 379468.0 371580.0 94609.0 86812.0 158629.0 166075.0 157417.0 165078.0 54450.0 57930.0 39926.0 45991.0 387180.0 379956.0 96441.0 103255.0 187414.0 179572.0 78692.0 85921.0 52628.0 60223.0 141802.0 137915.0 102144.0 105855.0 155394.0 153383.0 194821.0 187966.0 137474.0 132224.0 36719.0 44884.0 148411.0 154968.0 55855.0 63619.0 193531.0 192403.0 45902.0 38869.0 327761.0 322633.0 229908.0 223661.0 149171.0 154874.0 167901.0 175098.0 104532.0 110040.0 340864.0 336702.0 0.0 8198.0 56858.0 64910.0 152283.0 153107.0 144226.0 137152.0 43917.0 51110.0 304186.0 308672.0 20253.0 25396.0 182884.0 176991.0 385918.0 384790.0 200594.0 193813.0 173630.0 181845.0 148489.0 142167.0 305011.0 298275.0 348629.0 356514.0 112875.0 116770.0 282752.0 279304.0 46900.0 38679.0 70998.0 77463.0 41511.0 49604.0 14718.0 20811.0 31077.0 39070.0 200733.0 204688.0 150909.0 150375.0 179909.0 171552.0 34471.0 27135.0 262040.0 265984.0 339663.0 331496.0 41011.0 45493.0 297549.0 300265.0 254489.0 255241.0 130612.0 134331.0 105413.0 105410.0 346007.0 346216.0 190374.0 198452.0 148339.0 145448.0 91506.0 95397.0 278572.0 273972.0 205534.0 201880.0 244386.0 249229.0 139248.0 132667.0 171214.0 165059.0 89757.0 217291.0 89757.0 89757.0 89757.0 89757.0 89757.0 89757.0 89757.0 217291.0 217291.0 217291.0 217291.0 217291.0 217291.0 217291.0
109125.0 101414.0 135572.0 135438.0 87171.0 79097.0 118523.0 110669.0 128655.0 121077.0 148965.0 156886.0 263875.0 259613.0 358964.0 365816.0 240099.0 232658.0 99059.0 91746.0 177318.0 172668.0 211605.0 219597.0 373770.0 365835.0 93056.0 85107.0 156671.0 163913.0 153045.0 160825.0 50285.0 52789.0 45825.0 51120.0 381365.0 374141.0 97153.0 103588.0 188177.0 180406.0 82844.0 90360.0 53932.0 60967.0 144903.0 141388.0 100377.0 103518.0 151527.0 149130.0 197650.0 190995.0 136109.0 131233.0 28955.0 37008.0 144808.0 151137.0 47817.0 55527.0 188405.0 187436.0 38795.0 32259.0 322301.0 317293.0 225972.0 219911.0 144550.0 150051.0 165199.0 172553.0 102223.0 107290.0 335049.0 330886.0 8198.0 0.0 54618.0 62844.0 154495.0 154901.0 142697.0 135878.0 36469.0 43460.0 298371.0 302856.0 21613.0 24221.0 184898.0 179241.0 380103.0 378974.0 197240.0 190627.0 175130.0 183297.0 144436.0 137877.0 299831.0 293178.0 342813.0 350698.0 109992.0 114399.0 284169.0 280931.0 38746.0 30547.0 73828.0 79766.0 44676.0 52346.0 18392.0 25889.0 26741.0 34934.0 196689.0 200887.0 152133.0 151178.0 176622.0 168229.0 26360.0 19108.0 262039.0 265771.0 333847.0 325680.0 40342.0 43440.0 291734.0 294449.0 257199.0 257704.0 128132.0 132274.0 107998.0 108581.0 340191.0 340400.0 190431.0 198431.0 144921.0 141660.0 91053.0 94310.0 273705.0 269265.0 206696.0 203329.0 239870.0 244893.0 135861.0 129544.0 168137.0 161727.0 82210.0 211476.0 82210.0 82210.0 82210.0 82210.0 82210.0 82210.0 82210.0 211476.0 211476.0 211476.0 211476.0 211476.0 211476.0 211476.0
54637.0 46846.0 91445.0 93695.0 32781.0 24616.0 67471.0 60561.0 74714.0 67432.0 94595.0 102453.0 215833.0 210872.0 316072.0 322925.0 193737.0 186804.0 46847.0 40636.0 140450.0 137715.0 168653.0 176633.0 330239.0 322186.0 38659.0 30629.0 102058.0 109353.0 103033.0 110289.0 14198.0 22113.0 51885.0 48256.0 338149.0 330766.0 48959.0 53444.0 137417.0 129943.0 58403.0 66235.0 23734.0 21804.0 105322.0 104215.0 45806.0 49023.0 99786.0 98705.0 154779.0 149293.0 81700.0 77233.0 65863.0 69097.0 92362.0 99291.0 56080.0 61878.0 141342.0 139607.0 38925.0 35239.0 276053.0 270457.0 174130.0 167596.0 95695.0 102041.0 111049.0 118243.0 47708.0 53237.0 292110.0 287732.0 56858.0 54618.0 0.0 8263.0 109888.0 108423.0 88172.0 81545.0 42481.0 46580.0 255461.0 259914.0 38131.0 31500.0 138598.0 134088.0 337211.0 335990.0 144080.0 137161.0 126993.0 134840.0 93348.0 87738.0 252296.0 245286.0 299920.0 307806.0 56141.0 59933.0 234655.0 232118.0 56205.0 52699.0 42730.0 43259.0 34771.0 32765.0 45216.0 46229.0 29186.0 21990.0 145249.0 148747.0 103472.0 101084.0 123361.0 115056.0 51295.0 49414.0 209090.0 212449.0 290956.0 282789.0 17736.0 11368.0 248815.0 251469.0 212813.0 212241.0 73758.0 77672.0 68309.0 72404.0 297295.0 297509.0 137884.0 145675.0 92019.0 89754.0 38938.0 40545.0 224896.0 219831.0 156949.0 154573.0 189828.0 194208.0 82928.0 76071.0 114509.0 108588.0 67138.0 168584.0 67138.0 67138.0 67138.0 67138.0 67138.0 67138.0 67138.0 168584.0 168584.0 168584.0 168584.0 168584.0 168584.0 168584.0
46374.0 38590.0 85226.0 87959.0 24859.0 16672.0 59898.0 53288.0 66504.0 59278.0 86550.0 94375.0 209335.0 204227.0 310854.0 317707.0 186639.0 179804.0 39143.0 33387.0 135231.0 132868.0 163424.0 171381.0 324586.0 316503.0 30404.0 22368.0 93857.0 101200.0 96381.0 103453.0 19750.0 26378.0 56844.0 52287.0 332605.0 325165.0 42441.0 46257.0 129669.0 122261.0 57545.0 65007.0 26252.0 21648.0 99895.0 99285.0 37551.0 40954.0 92643.0 91959.0 148391.0 143139.0 73438.0 69012.0 73686.0 76587.0 85027.0 92118.0 62164.0 67413.0 135264.0 133352.0 45608.0 42689.0 269855.0 264144.0 166794.0 160144.0 89417.0 95946.0 103088.0 110213.0 39627.0 45425.0 286769.0 282248.0 64910.0 62844.0 8263.0 0.0 103407.0 101577.0 79913.0 73286.0 49403.0 52809.0 250175.0 254794.0 45832.0 39516.0 131649.0 127368.0 331939.0 330910.0 136417.0 129413.0 119743.0 127507.0 86434.0 81148.0 245857.0 238780.0 294708.0 302559.0 48418.0 51869.0 227007.0 224578.0 63145.0 60166.0 41556.0 40549.0 39504.0 35905.0 52867.0 53280.0 37413.0 30049.0 138064.0 141368.0 96213.0 93549.0 115693.0 107429.0 58999.0 57448.0 200961.0 204275.0 285737.0 277570.0 24884.0 19464.0 243667.0 246115.0 206009.0 205260.0 65730.0 69490.0 63515.0 68311.0 292095.0 292319.0 129841.0 137596.0 84533.0 82605.0 31374.0 32430.0 218216.0 213016.0 149344.0 147142.0 182914.0 187135.0 75463.0 68432.0 106733.0 100983.0 69266.0 163413.0 69266.0 69266.0 69266.0 69266.0 69266.0 69266.0 69266.0 163413.0 163413.0 163413.0 163413.0 163413.0 163413.0 163413.0
74135.0 79308.0 18936.0 20607.0 92990.0 95958.0 47905.0 51562.0 59738.0 59701.0 86923.0 87668.0 214353.0 206919.0 336169.0 342742.0 85628.0 78165.0 66793.0 70476.0 40853.0 43622.0 195803.0 202198.0 335638.0 327468.0 81185.0 86969.0 79218.0 85672.0 125248.0 126200.0 123150.0 129388.0 118479.0 110459.0 345053.0 337057.0 60990.0 57908.0 45986.0 38931.0 78099.0 73903.0 100730.0 94518.0 19735.0 27671.0 79887.0 85549.0 114442.0 121241.0 45004.0 40314.0 65429.0 59751.0 173926.0 178260.0 107008.0 113580.0 165570.0 170628.0 160789.0 156488.0 148786.0 144827.0 274715.0 267278.0 159614.0 151180.0 126928.0 133324.0 96746.0 96945.0 85590.0 90087.0 305002.0 298508.0 152283.0 154495.0 109888.0 103407.0 0.0 8090.0 68479.0 63905.0 152365.0 156200.0 271858.0 278587.0 132926.0 131360.0 30798.0 24747.0 354059.0 350736.0 127331.0 119748.0 25560.0 33244.0 115593.0 118118.0 248119.0 240368.0 314439.0 321302.0 91510.0 83489.0 131737.0 127660.0 166073.0 162070.0 81461.0 74833.0 110873.0 102689.0 137568.0 132369.0 135761.0 130534.0 141667.0 139138.0 18881.0 26706.0 113928.0 110511.0 160114.0 156710.0 121630.0 127596.0 311089.0 302911.0 116252.0 117209.0 267938.0 267077.0 103247.0 103299.0 84131.0 77114.0 47101.0 49054.0 312168.0 314840.0 58540.0 65803.0 103513.0 109639.0 73200.0 76144.0 218440.0 210996.0 57642.0 52028.0 183033.0 182873.0 100751.0 95100.0 105502.0 107820.0 170653.0 199028.0 170653.0 170653.0 170653.0 170653.0 170653.0 170653.0 170653.0 199028.0 199028.0 199028.0 199028.0 199028.0 199028.0 199028.0
69332.0 75032.0 20516.0 24825.0 89415.0 92981.0 43938.0 48706.0 53548.0 54305.0 79451.0 79933.0 206266.0 198830.0 328183.0 334739.0 85576.0 78457.0 63820.0 68277.0 48073.0 51345.0 188134.0 194468.0 327549.0 319378.0 77680.0 83945.0 71419.0 77741.0 118031.0 118756.0 121307.0 127187.0 120612.0 112526.0 336963.0 328967.0 59520.0 55464.0 40146.0 32651.0 80985.0 77476.0 100974.0 94326.0 26995.0 34826.0 75685.0 80836.0 107146.0 114106.0 48038.0 44545.0 58548.0 53324.0 173249.0 177255.0 99874.0 106287.0 163616.0 168379.0 153116.0 148781.0 147155.0 143583.0 266629.0 259196.0 151524.0 143090.0 120027.0 126313.0 88877.0 88942.0 80985.0 84969.0 296940.0 290436.0 153107.0 154901.0 108423.0 101577.0 8090.0 0.0 61188.0 57050.0 150856.0 154347.0 263845.0 270592.0 133444.0 131397.0 30251.0 25923.0 346006.0 342668.0 119254.0 111682.0 21249.0 29455.0 108563.0 111372.0 240034.0 232283.0 306383.0 313237.0 86176.0 77964.0 129852.0 126211.0 164599.0 160953.0 82823.0 75767.0 111953.0 103679.0 138397.0 133565.0 135131.0 129530.0 133666.0 131084.0 11099.0 18932.0 105987.0 102701.0 159188.0 156126.0 116776.0 122470.0 303115.0 294931.0 115953.0 116342.0 259959.0 259060.0 104433.0 103856.0 77674.0 70427.0 49028.0 52189.0 304115.0 306807.0 51563.0 59095.0 96341.0 102655.0 70725.0 72878.0 210353.0 202913.0 53964.0 49204.0 174945.0 174785.0 93938.0 88567.0 97646.0 100141.0 167380.0 191448.0 167380.0 167380.0 167380.0 167380.0 167380.0 167380.0 167380.0 191448.0 191448.0 191448.0 191448.0 191448.0 191448.0 191448.0
33574.0 41333.0 62948.0 70845.0 56672.0 64242.0 37806.0 44823.0 17247.0 24938.0 18794.0 21986.0 153426.0 146639.0 270634.0 277499.0 127441.0 122595.0 47409.0 55294.0 109230.0 111985.0 127897.0 134571.0 274748.0 266515.0 49660.0 57591.0 16317.0 24753.0 56847.0 57800.0 95919.0 98204.0 125282.0 117920.0 283800.0 275903.0 56749.0 48731.0 63858.0 59033.0 98327.0 100103.0 95202.0 86892.0 81391.0 87130.0 42375.0 40737.0 45970.0 52984.0 103914.0 102958.0 7256.0 14880.0 151401.0 152689.0 38777.0 45110.0 132948.0 135206.0 92994.0 88891.0 120290.0 120006.0 215176.0 208262.0 101585.0 93534.0 59348.0 65353.0 32517.0 36478.0 41838.0 39790.0 241550.0 235539.0 144226.0 142697.0 88172.0 79913.0 68479.0 61188.0 0.0 8237.0 124564.0 125163.0 207066.0 213382.0 124373.0 118956.0 81038.0 81510.0 290053.0 287316.0 68044.0 60060.0 66125.0 70670.0 47626.0 51291.0 189062.0 181404.0 250684.0 257893.0 38685.0 31033.0 157666.0 156971.0 137426.0 136741.0 89518.0 81740.0 110218.0 102805.0 131082.0 129575.0 117164.0 109436.0 78094.0 77631.0 50175.0 42529.0 49998.0 44492.0 136552.0 136333.0 124033.0 126439.0 245552.0 237365.0 103248.0 99257.0 202484.0 202394.0 150003.0 146746.0 21542.0 13650.0 72282.0 80205.0 248295.0 250363.0 56892.0 63223.0 35202.0 41863.0 54368.0 49053.0 159467.0 152733.0 84356.0 85642.0 122918.0 124596.0 33917.0 30448.0 40376.0 40534.0 127471.0 130820.0 127471.0 127471.0 127471.0 127471.0 127471.0 127471.0 127471.0 130820.0 130820.0 130820.0 130820.0 130820.0 130820.0 130820.0
27007.0 34962.0 56635.0 64405.0 50868.0 58093.0 29760.0 36617.0 9010.0 16766.0 25598.0 29863.0 161151.0 154440.0 277543.0 284393.0 128018.0 122757.0 39477.0 47391.0 104755.0 107026.0 133928.0 140777.0 282347.0 274113.0 42888.0 50919.0 24553.0 32989.0 61674.0 63481.0 89989.0 92778.0 117342.0 109921.0 291353.0 283472.0 48535.0 40507.0 64930.0 59306.0 90092.0 91911.0 87539.0 79230.0 75459.0 80812.0 36002.0 35592.0 51174.0 57507.0 101710.0 100115.0 1561.0 6700.0 145585.0 147200.0 43320.0 50306.0 128130.0 130782.0 99208.0 95251.0 114838.0 114144.0 222957.0 216094.0 109651.0 101640.0 63026.0 69440.0 40446.0 44679.0 36545.0 35896.0 248827.0 242898.0 137152.0 135878.0 81545.0 73286.0 63905.0 57050.0 8237.0 0.0 119078.0 120068.0 214125.0 220341.0 117182.0 111982.0 79322.0 79008.0 297197.0 294565.0 76144.0 68172.0 64507.0 69848.0 51734.0 54325.0 196910.0 189269.0 257902.0 265164.0 35438.0 27121.0 160533.0 159443.0 132161.0 131099.0 81348.0 73547.0 102472.0 94963.0 123814.0 122082.0 110670.0 103077.0 85708.0 85513.0 46323.0 39074.0 57760.0 51860.0 130723.0 130188.0 128962.0 131740.0 252427.0 244215.0 96142.0 92480.0 209394.0 209482.0 150197.0 147356.0 21314.0 13535.0 64336.0 72317.0 255494.0 257445.0 59962.0 66890.0 39936.0 45753.0 46644.0 41770.0 167360.0 160688.0 85625.0 86146.0 130783.0 132597.0 36889.0 31809.0 48027.0 47460.0 124066.0 136565.0 124066.0 124066.0 124066.0 124066.0 124066.0 124066.0 124066.0 136565.0 136565.0 136565.0 136565.0 136565.0 136565.0 136565.0
92376.0 84412.0 133875.0 135881.0 68233.0 61479.0 109185.0 102691.0 113519.0 106976.0 126727.0 134771.0 231501.0 227726.0 324880.0 331733.0 236035.0 229173.0 88378.0 82783.0 182031.0 178831.0 177522.0 185513.0 339686.0 331751.0 77639.0 69819.0 136335.0 142568.0 123552.0 131630.0 29951.0 26362.0 68600.0 70131.0 347281.0 340057.0 91436.0 95650.0 178590.0 171315.0 93744.0 101896.0 57462.0 60482.0 147227.0 145596.0 83398.0 83827.0 123869.0 120124.0 197233.0 191660.0 118913.0 115843.0 27693.0 28131.0 118279.0 123619.0 15748.0 23411.0 156116.0 155629.0 4308.0 8891.0 288684.0 283984.0 197191.0 191808.0 114334.0 119072.0 141688.0 149507.0 82742.0 85590.0 300965.0 296803.0 43917.0 36469.0 42481.0 49403.0 152365.0 150856.0 124564.0 119078.0 0.0 7611.0 264287.0 268773.0 40146.0 33806.0 180991.0 176558.0 346019.0 344890.0 170763.0 164849.0 169143.0 176886.0 116238.0 108950.0 266971.0 260558.0 308729.0 316614.0 87583.0 93923.0 276038.0 273774.0 13747.0 12542.0 80004.0 82904.0 57865.0 61981.0 44000.0 51001.0 22537.0 23343.0 167786.0 172779.0 145614.0 142821.0 150672.0 142282.0 13903.0 18404.0 247999.0 250805.0 299763.0 291596.0 40750.0 36449.0 257650.0 260365.0 255271.0 254623.0 106577.0 112317.0 109819.0 113028.0 306107.0 306316.0 177728.0 185229.0 119095.0 114500.0 80736.0 80848.0 241777.0 237821.0 198489.0 196465.0 209128.0 214690.0 110388.0 105312.0 143121.0 135862.0 45843.0 177392.0 45843.0 45843.0 45843.0 45843.0 45843.0 45843.0 45843.0 177392.0 177392.0 177392.0 177392.0 177392.0 177392.0 177392.0
93722.0 85836.0 137914.0 140275.0 69524.0 63339.0 111993.0 105861.0 114977.0 108757.0 126192.0 134210.0 227217.0 223641.0 320022.0 326875.0 239176.0 232443.0 91209.0 86080.0 186885.0 183923.0 172664.0 180656.0 334828.0 326894.0 79603.0 72012.0 136256.0 142169.0 120693.0 128832.0 33059.0 27718.0 76046.0 77360.0 342423.0 335200.0 95213.0 98929.0 180821.0 173686.0 99999.0 108150.0 63468.0 65845.0 151860.0 150539.0 84849.0 84547.0 121662.0 117466.0 201168.0 195806.0 119806.0 117213.0 30325.0 28618.0 116494.0 121462.0 9548.0 16438.0 152016.0 151729.0 8458.0 15949.0 283822.0 279260.0 194292.0 189150.0 111259.0 115665.0 140676.0 148584.0 83541.0 85706.0 296108.0 291945.0 51110.0 43460.0 46580.0 52809.0 156200.0 154347.0 125163.0 120068.0 7611.0 0.0 259430.0 263915.0 47712.0 41218.0 184350.0 180166.0 341162.0 340033.0 168701.0 163030.0 172156.0 179777.0 113898.0 106404.0 262450.0 256141.0 303872.0 311757.0 87455.0 94253.0 278273.0 276214.0 12650.0 15940.0 85856.0 88295.0 64844.0 68560.0 51609.0 58602.0 29754.0 29454.0 164933.0 170180.0 148662.0 145518.0 148867.0 140523.0 18831.0 24764.0 249007.0 251591.0 294906.0 286739.0 47041.0 41961.0 252792.0 255508.0 258768.0 257905.0 106434.0 112555.0 114661.0 118242.0 301250.0 301459.0 179282.0 186635.0 117533.0 112534.0 83793.0 83207.0 237658.0 233892.0 200924.0 199182.0 205509.0 211256.0 109017.0 104386.0 141648.0 134167.0 38771.0 172534.0 38771.0 38771.0 38771.0 38771.0 38771.0 38771.0 38771.0 172534.0 172534.0 172534.0 172534.0 172534.0 172534.0 172534.0
223701.0 226336.0 269759.0 277722.0 229448.0 236112.0 242808.0 247810.0 221975.0 227361.0 188541.0 185589.0 63223.0 71170.0 64683.0 70942.0 291630.0 291735.0 242490.0 248259.0 310231.0 314781.0 86809.0 78827.0 76524.0 68999.0 233495.0 237185.0 193431.0 186362.0 157846.0 153007.0 251387.0 246475.0 307008.0 302240.0 83440.0 76554.0 255338.0 248772.0 243469.0 244795.0 296064.0 300348.0 275867.0 269289.0 287519.0 293797.0 226851.0 219013.0 165763.0 162615.0 293787.0 296571.0 212627.0 220415.0 289386.0 285889.0 174508.0 166567.0 261586.0 258935.0 117168.0 120294.0 260858.0 266289.0 45194.0 47802.0 116313.0 124283.0 162355.0 155332.0 175696.0 174915.0 220181.0 212196.0 36701.0 33285.0 304186.0 298371.0 255461.0 250175.0 271858.0 263845.0 207066.0 214125.0 264287.0 259430.0 0.0 7987.0 290320.0 282366.0 271633.0 275941.0 83190.0 81170.0 145324.0 152509.0 259030.0 258732.0 168953.0 171687.0 50080.0 53568.0 44610.0 52395.0 208883.0 211338.0 286371.0 291473.0 270705.0 275355.0 282600.0 276606.0 289674.0 285558.0 297118.0 300260.0 273434.0 265954.0 130203.0 133005.0 253034.0 245298.0 158171.0 162641.0 277924.0 282462.0 234512.0 228995.0 40278.0 32013.0 272752.0 264922.0 8493.0 4870.0 313261.0 306312.0 201097.0 204381.0 276932.0 285094.0 42039.0 43330.0 227204.0 225222.0 176975.0 174474.0 245343.0 237299.0 66258.0 73847.0 255006.0 261524.0 92430.0 95757.0 184000.0 191929.0 167153.0 166667.0 245365.0 88159.0 245365.0 245365.0 245365.0 245365.0 245365.0 245365.0 245365.0 88159.0 88159.0 88159.0 88159.0 88159.0 88159.0 88159.0
229304.0 231746.0 276176.0 284127.0 234435.0 240970.0 248841.0 253697.0 228088.0 233336.0 194785.0 192025.0 71069.0 78996.0 57626.0 64184.0 299314.0 299357.0 248058.0 253699.0 317154.0 321616.0 91394.0 83470.0 74284.0 67162.0 238772.0 242277.0 199960.0 193001.0 163354.0 158755.0 255872.0 250960.0 311585.0 306957.0 80486.0 74023.0 260964.0 254503.0 250731.0 251948.0 301457.0 305874.0 280610.0 274151.0 294057.0 300257.0 232238.0 224343.0 171537.0 168122.0 301040.0 303732.0 218833.0 226576.0 293871.0 290374.0 180267.0 172350.0 266072.0 263421.0 122737.0 126028.0 265344.0 270775.0 50118.0 53622.0 123779.0 131682.0 167535.0 160458.0 182231.0 181650.0 225493.0 217498.0 33444.0 31726.0 308672.0 302856.0 259914.0 254794.0 278587.0 270592.0 213382.0 220341.0 268773.0 263915.0 7987.0 0.0 294806.0 286852.0 278801.0 283022.0 77556.0 76123.0 152361.0 159455.0 266091.0 265907.0 174481.0 176956.0 57474.0 61277.0 40158.0 48151.0 214200.0 216880.0 294316.0 299400.0 275191.0 279840.0 287819.0 281940.0 294266.0 290313.0 301604.0 304794.0 277920.0 270440.0 136927.0 139955.0 259741.0 251984.0 164770.0 169035.0 282410.0 286948.0 242448.0 236950.0 32831.0 24552.0 277238.0 269414.0 11165.0 12630.0 321004.0 314080.0 206896.0 210372.0 282840.0 291006.0 37500.0 37654.0 234506.0 232632.0 182815.0 180081.0 250733.0 242674.0 74243.0 81822.0 262476.0 268943.0 99974.0 103476.0 189663.0 197560.0 173636.0 172911.0 249851.0 92214.0 249851.0 249851.0 249851.0 249851.0 249851.0 249851.0 249851.0 92214.0 92214.0 92214.0 92214.0 92214.0 92214.0 92214.0
90935.0 83541.0 114012.0 113825.0 70691.0 62504.0 98033.0 90004.0 109526.0 101754.0 132246.0 139998.0 252990.0 248251.0 350913.0 357766.0 218544.0 211082.0 79211.0 71636.0 155967.0 151473.0 203554.0 211547.0 365664.0 357688.0 74879.0 67220.0 139015.0 146594.0 140595.0 148026.0 38935.0 44455.0 28947.0 32100.0 373322.0 366074.0 76261.0 83015.0 167280.0 159457.0 61910.0 69646.0 32589.0 40015.0 123330.0 119919.0 82529.0 86681.0 137787.0 136379.0 176040.0 169403.0 117547.0 112145.0 46234.0 53171.0 130461.0 137310.0 55234.0 63189.0 177981.0 176533.0 40193.0 32154.0 312643.0 307258.0 212206.0 205715.0 132829.0 138884.0 148871.0 155912.0 85338.0 91250.0 326886.0 322844.0 20253.0 21613.0 38131.0 45832.0 132926.0 133444.0 124373.0 117182.0 40146.0 47712.0 290320.0 294806.0 0.0 8072.0 163380.0 157670.0 372053.0 370924.0 182191.0 175230.0 153796.0 161988.0 131189.0 125283.0 289324.0 282428.0 334763.0 342648.0 94212.0 97578.0 262893.0 259560.0 48726.0 41009.0 52250.0 58162.0 23386.0 30795.0 7103.0 11212.0 19196.0 24953.0 183247.0 186847.0 130932.0 130243.0 161469.0 153176.0 37128.0 30433.0 241790.0 245732.0 325797.0 317630.0 21207.0 26930.0 283683.0 286361.0 235586.0 236108.0 111469.0 114830.0 86385.0 87043.0 332141.0 332350.0 170124.0 178200.0 130149.0 127769.0 71314.0 75412.0 262311.0 257425.0 185544.0 182026.0 227557.0 232095.0 121056.0 114183.0 152558.0 146712.0 83749.0 203425.0 83749.0 83749.0 83749.0 83749.0 83749.0 83749.0 83749.0 203425.0 203425.0 203425.0 203425.0 203425.0 203425.0 203425.0
85400.0 77817.0 112427.0 112803.0 64276.0 56101.0 94329.0 86520.0 104608.0 96971.0 126059.0 133890.0 245380.0 240714.0 342959.0 349812.0 216822.0 209482.0 74848.0 67525.0 156254.0 152123.0 195601.0 203592.0 357732.0 349765.0 69305.0 61461.0 133257.0 140682.0 133184.0 140693.0 31015.0 36386.0 34833.0 36536.0 365365.0 358131.0 73115.0 79420.0 164075.0 156330.0 63503.0 71489.0 30688.0 37114.0 122865.0 119937.0 76789.0 80466.0 130654.0 129023.0 175090.0 168702.0 112264.0 107200.0 44279.0 50408.0 123475.0 130198.0 49326.0 57165.0 170272.0 168890.0 33313.0 25339.0 304884.0 299545.0 205140.0 198755.0 125276.0 131249.0 142547.0 149717.0 79141.0 84728.0 319044.0 314887.0 25396.0 24221.0 31500.0 39516.0 131360.0 131397.0 118956.0 111982.0 33806.0 41218.0 282366.0 286852.0 8072.0 0.0 161523.0 156090.0 364098.0 362970.0 175458.0 168601.0 151386.0 159515.0 123932.0 117880.0 281670.0 274807.0 326809.0 334694.0 87604.0 91381.0 260309.0 257196.0 43794.0 36630.0 52150.0 57200.0 25370.0 31382.0 14764.0 19049.0 11738.0 16888.0 176086.0 179834.0 128253.0 127110.0 154752.0 146420.0 33135.0 27357.0 237819.0 241565.0 317843.0 309676.0 16121.0 20133.0 275729.0 278390.0 234412.0 234659.0 105231.0 108943.0 85491.0 86903.0 324187.0 324396.0 166211.0 174211.0 123282.0 120660.0 66850.0 70294.0 254784.0 249973.0 182741.0 179527.0 220181.0 224819.0 114186.0 107473.0 145969.0 139937.0 76242.0 195471.0 76242.0 76242.0 76242.0 76242.0 76242.0 76242.0 76242.0 195471.0 195471.0 195471.0 195471.0 195471.0 195471.0 195471.0
96718.0 103150.0 49476.0 51186.0 118271.0 122395.0 72976.0 78511.0 78323.0 80972.0 97150.0 95314.0 211245.0 203461.0 336316.0 342445.0 55339.0 48218.0 93419.0 98283.0 42977.0 50055.0 201751.0 207356.0 330773.0 322732.0 106707.0 113368.0 86562.0 90724.0 136297.0 135428.0 151347.0 157044.0 149263.0 141250.0 340431.0 332413.0 89745.0 85423.0 29028.0 26868.0 108745.0 104226.0 131011.0 124495.0 46449.0 53625.0 103899.0 108180.0 125153.0 132960.0 23321.0 24940.0 80619.0 77385.0 203500.0 207489.0 119073.0 124340.0 193562.0 198152.0 167138.0 162519.0 177253.0 173787.0 269391.0 261649.0 156111.0 147839.0 140041.0 145628.0 102242.0 99981.0 108511.0 111472.0 302901.0 295971.0 182884.0 184898.0 138598.0 131649.0 30798.0 30251.0 81038.0 79322.0 180991.0 184350.0 271633.0 278801.0 163380.0 161523.0 0.0 7913.0 352158.0 348207.0 126583.0 119866.0 14913.0 12910.0 128130.0 132299.0 242833.0 235151.0 312576.0 319001.0 112185.0 103689.0 101025.0 96864.0 194738.0 191175.0 112189.0 105425.0 141546.0 133328.0 168166.0 163084.0 165378.0 159772.0 143300.0 139203.0 36298.0 41469.0 117590.0 116320.0 189432.0 186373.0 95211.0 101857.0 311609.0 303341.0 146156.0 146593.0 268597.0 266778.0 74488.0 73643.0 100635.0 92751.0 77883.0 79708.0 310455.0 313801.0 45476.0 49933.0 115415.0 122603.0 100589.0 102171.0 213687.0 205896.0 30315.0 23144.0 180128.0 178611.0 114955.0 110921.0 110856.0 115294.0 196277.0 205896.0 196277.0 196277.0 196277.0 196277.0 196277.0 196277.0 196277.0 205896.0 205896.0 205896.0 205896.0 205896.0 205896.0 205896.0
94482.0 100534.0 43680.0 44572.0 115205.0 118892.0 69720.0 74626.0 77117.0 79010.0 98413.0 97208.0 216074.0 208348.0 340601.0 346829.0 60908.0 53417.0 89741.0 94134.0 36315.0 42992.0 204549.0 210353.0 336077.0 328006.0 103508.0 109855.0 88433.0 93203.0 137609.0 137204.0 147112.0 153074.0 142736.0 134767.0 345694.0 337675.0 85130.0 81350.0 35117.0 31551.0 101991.0 97218.0 125471.0 119200.0 38942.0 45947.0 101229.0 105997.0 126496.0 134081.0 22833.0 21661.0 80385.0 76434.0 198513.0 202724.0 120026.0 125665.0 189463.0 194280.0 169750.0 165193.0 172902.0 169166.0 274734.0 267044.0 160895.0 152563.0 140824.0 146651.0 104725.0 103028.0 106234.0 109708.0 307633.0 300786.0 176991.0 179241.0 134088.0 127368.0 24747.0 25923.0 81510.0 79008.0 176558.0 180166.0 275941.0 283022.0 157670.0 156090.0 7913.0 0.0 356884.0 353059.0 130665.0 123721.0 16982.0 18567.0 129010.0 132756.0 248141.0 240436.0 317267.0 323787.0 110648.0 102247.0 107936.0 103502.0 190291.0 186478.0 106102.0 99560.0 135551.0 127389.0 162280.0 157005.0 160352.0 154981.0 146929.0 143165.0 33922.0 40180.0 120622.0 118833.0 184606.0 181322.0 103125.0 109762.0 315794.0 307539.0 140923.0 141707.0 272710.0 271096.0 78746.0 78584.0 100249.0 92536.0 71682.0 73022.0 315113.0 318321.0 51249.0 56372.0 116389.0 123339.0 96628.0 98763.0 218851.0 211115.0 38215.0 31042.0 184854.0 183610.0 115309.0 110802.0 113441.0 117394.0 193212.0 208479.0 193212.0 193212.0 193212.0 193212.0 193212.0 193212.0 193212.0 208479.0 208479.0 208479.0 208479.0 208479.0 208479.0 208479.0
306807.0 309299.0 352586.0 360564.0 311889.0 318339.0 325974.0 331000.0 305111.0 310543.0 271602.0 268451.0 140943.0 148788.0 28460.0 20951.0 367632.0 368548.0 325576.0 331249.0 391770.0 396618.0 168743.0 160874.0 38726.0 42065.0 316323.0 319779.0 276147.0 268889.0 240884.0 236169.0 333119.0 328207.0 388646.0 384174.0 32595.0 35851.0 338459.0 331937.0 323553.0 325472.0 379013.0 383409.0 357864.0 351509.0 370136.0 376546.0 309793.0 301899.0 248934.0 245653.0 373762.0 377064.0 295707.0 303523.0 371118.0 367621.0 257676.0 249740.0 343318.0 340667.0 200238.0 203445.0 342590.0 348021.0 88254.0 96259.0 196048.0 204340.0 245077.0 237989.0 258426.0 257258.0 303048.0 295053.0 49257.0 56333.0 385918.0 380103.0 337211.0 331939.0 354059.0 346006.0 290053.0 297197.0 346019.0 341162.0 83190.0 77556.0 372053.0 364098.0 352158.0 356884.0 0.0 8049.0 226890.0 234347.0 340102.0 339254.0 252006.0 254510.0 112594.0 119702.0 39645.0 33281.0 291756.0 294405.0 356165.0 362087.0 352437.0 357087.0 365357.0 359496.0 371356.0 367573.0 378850.0 382041.0 355166.0 347686.0 212685.0 214922.0 335312.0 327638.0 240823.0 245577.0 359656.0 364195.0 305345.0 298981.0 49264.0 55828.0 354485.0 346660.0 88714.0 87755.0 388256.0 380903.0 284277.0 287561.0 360121.0 368283.0 41892.0 39932.0 307114.0 304399.0 260160.0 257577.0 328289.0 320230.0 139646.0 147643.0 333545.0 340464.0 172044.0 173777.0 267134.0 275048.0 249972.0 249740.0 327097.0 170417.0 327097.0 327097.0 327097.0 327097.0 327097.0 327097.0 327097.0 170417.0 170417.0 170417.0 170417.0 170417.0 170417.0 170417.0
304818.0 307503.0 349661.0 357647.0 310503.0 317078.0 323520.0 328702.0 302585.0 308163.0 268969.0 265611.0 136986.0 144746.0 32603.0 26016.0 362682.0 363738.0 323618.0 329422.0 388131.0 393100.0 167516.0 159588.0 30736.0 34444.0 314659.0 318295.0 273187.0 265813.0 239004.0 234072.0 331990.0 327078.0 387691.0 383080.0 24611.0 27857.0 336437.0 329806.0 319505.0 321592.0 377232.0 381485.0 356733.0 350259.0 367044.0 373547.0 308020.0 300181.0 246804.0 243774.0 369637.0 373083.0 293087.0 300944.0 369989.0 366492.0 255554.0 247600.0 342189.0 339538.0 198322.0 201389.0 341462.0 346892.0 82487.0 90537.0 192163.0 200505.0 243490.0 236447.0 255492.0 254093.0 301348.0 293362.0 45796.0 52291.0 384790.0 378974.0 335990.0 330910.0 350736.0 342668.0 287316.0 294565.0 344890.0 340033.0 81170.0 76123.0 370924.0 362970.0 348207.0 353059.0 8049.0 0.0 223443.0 230988.0 336334.0 335314.0 250105.0 252846.0 107439.0 114706.0 36710.0 29455.0 290050.0 292480.0 350383.0 356391.0 351308.0 355958.0 363756.0 357775.0 370377.0 366435.0 377721.0 380912.0 354038.0 346557.0 209661.0 211632.0 332041.0 324405.0 237856.0 242824.0 358528.0 363066.0 299757.0 293307.0 50233.0 55954.0 353356.0 345532.0 87266.0 85560.0 383122.0 375715.0 282099.0 285182.0 357786.0 365939.0 39193.0 38674.0 303039.0 300148.0 257956.0 255601.0 326511.0 318468.0 135100.0 143065.0 329114.0 336115.0 168231.0 169640.0 265099.0 273041.0 247113.0 247139.0 325969.0 168223.0 325969.0 325969.0 325969.0 325969.0 325969.0 325969.0 325969.0 168223.0 168223.0 168223.0 168223.0 168223.0 168223.0 168223.0
95182.0 101003.0 127527.0 135495.0 111617.0 119773.0 105849.0 112690.0 85046.0 92186.0 52570.0 46443.0 87137.0 79868.0 209956.0 216249.0 153462.0 151948.0 112741.0 120169.0 164982.0 169730.0 80048.0 84094.0 208657.0 200455.0 109738.0 116348.0 52157.0 43970.0 50224.0 42326.0 147082.0 146117.0 188809.0 182071.0 217965.0 209991.0 123720.0 115936.0 99004.0 99716.0 165772.0 167974.0 157230.0 149175.0 144108.0 150927.0 101887.0 96176.0 47070.0 52282.0 149120.0 151483.0 74900.0 82843.0 198399.0 197283.0 52631.0 47244.0 174037.0 173414.0 49998.0 45388.0 166562.0 169002.0 148209.0 141041.0 33578.0 25497.0 60221.0 58814.0 35926.0 31883.0 97539.0 91032.0 177750.0 171192.0 200594.0 197240.0 144080.0 136417.0 127331.0 119254.0 68044.0 76144.0 170763.0 168701.0 145324.0 152361.0 182191.0 175458.0 126583.0 130665.0 226890.0 223443.0 0.0 7999.0 113730.0 113724.0 54942.0 62728.0 121802.0 114081.0 187248.0 194026.0 88000.0 85589.0 162896.0 165581.0 181291.0 183256.0 155646.0 148212.0 172460.0 165933.0 189256.0 189457.0 170512.0 162322.0 18774.0 12788.0 108721.0 101176.0 20724.0 29042.0 184372.0 186354.0 114453.0 112465.0 185129.0 176874.0 161285.0 155386.0 142055.0 140489.0 176422.0 170544.0 71933.0 71088.0 140268.0 148120.0 185014.0 187932.0 83189.0 82620.0 52319.0 56264.0 118341.0 111342.0 92064.0 85046.0 112858.0 118529.0 55928.0 56773.0 61382.0 68009.0 30015.0 35535.0 160498.0 85675.0 160498.0 160498.0 160498.0 160498.0 160498.0 160498.0 160498.0 85675.0 85675.0 85675.0 85675.0 85675.0 85675.0 85675.0
87580.0 93556.0 119644.0 127618.0 104570.0 112747.0 97865.0 104736.0 77087.0 84268.0 44831.0 38526.0 94914.0 87712.0 217076.0 223451.0 148658.0 146813.0 104984.0 112460.0 157722.0 162340.0 84613.0 89168.0 216470.0 208263.0 102322.0 109062.0 44158.0 35983.0 46515.0 39069.0 140586.0 139902.0 181322.0 174517.0 225751.0 217783.0 115855.0 108045.0 92699.0 93025.0 157879.0 160028.0 149832.0 141738.0 136345.0 143112.0 94456.0 88943.0 41868.0 47949.0 142591.0 144709.0 66938.0 74871.0 192525.0 191644.0 46574.0 41926.0 168634.0 168292.0 52784.0 48027.0 160619.0 162815.0 156113.0 148973.0 41577.0 33475.0 56387.0 55874.0 28058.0 23896.0 90305.0 83989.0 185258.0 178768.0 193813.0 190627.0 137161.0 129413.0 119748.0 111682.0 60060.0 68172.0 164849.0 163030.0 152509.0 159455.0 175230.0 168601.0 119866.0 123721.0 234347.0 230988.0 7999.0 0.0 106753.0 107060.0 49858.0 57822.0 129735.0 122019.0 194715.0 201554.0 81023.0 78263.0 160366.0 162695.0 175654.0 177370.0 147881.0 140409.0 165071.0 158453.0 182278.0 182318.0 163929.0 155748.0 23723.0 19504.0 101074.0 93483.0 14177.0 22576.0 178364.0 180142.0 113073.0 111621.0 192171.0 183932.0 154247.0 148496.0 149045.0 147689.0 171755.0 166096.0 64511.0 63366.0 132272.0 140122.0 192459.0 195266.0 77185.0 77192.0 45894.0 50515.0 110693.0 103786.0 100006.0 93021.0 107338.0 112717.0 63779.0 64758.0 54854.0 61145.0 22698.0 29041.0 155671.0 89876.0 155671.0 155671.0 155671.0 155671.0 155671.0 155671.0 155671.0 89876.0 89876.0 89876.0 89876.0 89876.0 89876.0 89876.0
82809.0 89521.0 41764.0 45604.0 104994.0 109557.0 60214.0 66464.0 63842.0 66937.0 82336.0 80709.0 199364.0 191670.0 323680.0 329932.0 67066.0 60613.0 80952.0 86394.0 52157.0 58057.0 187699.0 193451.0 319626.0 311534.0 93613.0 100582.0 71940.0 76423.0 121511.0 120796.0 139306.0 144641.0 141754.0 133658.0 329211.0 321194.0 78639.0 73552.0 21210.0 15586.0 102234.0 98647.0 121229.0 114274.0 44697.0 52560.0 90315.0 94191.0 110373.0 118128.0 38017.0 38385.0 65784.0 62789.0 192449.0 196077.0 104206.0 109554.0 181242.0 185544.0 152954.0 148375.0 165298.0 162230.0 258328.0 250680.0 144187.0 135830.0 125155.0 130780.0 87951.0 86093.0 94591.0 97198.0 290859.0 284050.0 173630.0 175130.0 126993.0 119743.0 25560.0 21249.0 66125.0 64507.0 169143.0 172156.0 259030.0 266091.0 153796.0 151386.0 14913.0 16982.0 340102.0 336334.0 113730.0 106753.0 0.0 8262.0 113255.0 117387.0 231716.0 223998.0 300475.0 307034.0 97782.0 89254.0 109123.0 105813.0 182879.0 179690.0 103766.0 96543.0 132698.0 124395.0 158947.0 154332.0 154491.0 148517.0 129947.0 126207.0 23531.0 27405.0 103696.0 102056.0 178152.0 175468.0 96087.0 102037.0 298855.0 290603.0 135706.0 135540.0 255761.0 254189.0 87626.0 86009.0 85814.0 77901.0 70221.0 73408.0 298308.0 301466.0 35972.0 42191.0 100550.0 107708.0 88426.0 89327.0 202335.0 194642.0 32716.0 28257.0 168106.0 167007.0 100042.0 96044.0 96635.0 100798.0 182844.0 191700.0 182844.0 182844.0 182844.0 182844.0 182844.0 182844.0 182844.0 191700.0 191700.0 191700.0 191700.0 191700.0 191700.0 191700.0
89557.0 96483.0 49967.0 53570.0 112164.0 116962.0 67784.0 74279.0 69981.0 73626.0 85907.0 83567.0 198346.0 190568.0 323415.0 329538.0 59734.0 53630.0 88579.0 94210.0 54881.0 61489.0 189294.0 194806.0 317968.0 309918.0 100913.0 108027.0 74873.0 78587.0 124874.0 123651.0 147006.0 152200.0 150008.0 141913.0 327615.0 319597.0 86664.0 81401.0 16551.0 14039.0 110421.0 106736.0 129412.0 122410.0 51828.0 59574.0 97308.0 100830.0 113735.0 121704.0 35672.0 37848.0 71036.0 68724.0 200399.0 203936.0 108006.0 112937.0 188808.0 192985.0 154796.0 150148.0 173009.0 170065.0 256595.0 248870.0 143206.0 134931.0 129063.0 134425.0 90067.0 87498.0 101294.0 103510.0 289997.0 283073.0 181845.0 183297.0 134840.0 127507.0 33244.0 29455.0 70670.0 69848.0 176886.0 179777.0 258732.0 265907.0 161988.0 159515.0 12910.0 18567.0 339254.0 335314.0 113724.0 107060.0 8262.0 0.0 117099.0 121648.0 230025.0 222337.0 299670.0 306101.0 103915.0 95362.0 100910.0 97687.0 190611.0 187536.0 112027.0 104795.0 140944.0 132639.0 167168.0 162579.0 162492.0 156438.0 130545.0 126365.0 31411.0 34453.0 105088.0 104096.0 186052.0 183456.0 88504.0 94635.0 298718.0 290449.0 143795.0 143516.0 255716.0 253876.0 80904.0 78862.0 91035.0 83021.0 78462.0 81548.0 297547.0 300890.0 32794.0 37821.0 104345.0 111721.0 96150.0 96767.0 200841.0 193062.0 24553.0 20038.0 167221.0 165732.0 104473.0 100953.0 98600.0 103335.0 189830.0 193544.0 189830.0 189830.0 189830.0 189830.0 189830.0 189830.0 189830.0 193544.0 193544.0 193544.0 193544.0 193544.0 193544.0 193544.0
54851.0 57471.0 107622.0 115126.0 62851.0 70478.0 76469.0 80159.0 57312.0 60791.0 31289.0 35423.0 123291.0 117932.0 231189.0 238042.0 170996.0 167001.0 73578.0 79333.0 156444.0 158750.0 84777.0 92178.0 241011.0 232829.0 64998.0 69620.0 43259.0 42980.0 11133.0 17067.0 94182.0 92305.0 142100.0 136309.0 249474.0 241815.0 86517.0 80276.0 107881.0 104429.0 127164.0 131405.0 110178.0 102791.0 126726.0 131566.0 58035.0 50398.0 8000.0 6380.0 151224.0 150528.0 50194.0 56590.0 143778.0 142438.0 9100.0 8047.0 119100.0 118517.0 51785.0 48854.0 112091.0 115006.0 184448.0 178430.0 81548.0 75717.0 11984.0 17751.0 34674.0 42167.0 51634.0 43768.0 204887.0 199668.0 148489.0 144436.0 93348.0 86434.0 115593.0 108563.0 47626.0 51734.0 116238.0 113898.0 168953.0 174481.0 131189.0 123932.0 128130.0 129010.0 252006.0 250105.0 54942.0 49858.0 113255.0 117099.0 0.0 8047.0 159876.0 152673.0 213450.0 221053.0 40415.0 42399.0 194437.0 195101.0 126453.0 128671.0 114093.0 107810.0 124973.0 119596.0 138289.0 139553.0 117756.0 109592.0 52260.0 56657.0 97648.0 90093.0 36012.0 28216.0 129970.0 132360.0 152935.0 153192.0 206073.0 197906.0 111038.0 104291.0 163346.0 164550.0 194080.0 190009.0 33509.0 39000.0 109203.0 117345.0 210925.0 212074.0 97042.0 101134.0 12758.0 6057.0 76485.0 68484.0 131870.0 126585.0 127327.0 130022.0 96495.0 100906.0 15698.0 23263.0 31199.0 22764.0 105814.0 86491.0 105814.0 105814.0 105814.0 105814.0 105814.0 105814.0 105814.0 86491.0 86491.0 86491.0 86491.0 86491.0 86491.0 86491.0
53399.0 54930.0 108974.0 116264.0 58364.0 65647.0 76820.0 79715.0 58859.0 61344.0 36668.0 41798.0 128188.0 123137.0 233482.0 240335.0 176608.0 172374.0 71736.0 76900.0 158925.0 160848.0 86323.0 93961.0 244634.0 236483.0 61819.0 65687.0 49083.0 49718.0 15313.0 22950.0 87741.0 85457.0 137390.0 131880.0 252942.0 245355.0 84833.0 79113.0 113204.0 109347.0 124540.0 129191.0 105586.0 98459.0 128188.0 132633.0 55370.0 47405.0 16024.0 11266.0 155205.0 154120.0 52838.0 58489.0 136403.0 134887.0 15218.0 16094.0 111416.0 110686.0 54881.0 52510.0 104840.0 108009.0 188882.0 183062.0 88388.0 82859.0 9706.0 16891.0 42148.0 49818.0 48541.0 40544.0 207892.0 202895.0 142167.0 137877.0 87738.0 81148.0 118118.0 111372.0 51291.0 54325.0 108950.0 106404.0 171687.0 176956.0 125283.0 117880.0 132299.0 132756.0 254510.0 252846.0 62728.0 57822.0 117387.0 121648.0 8047.0 0.0 164715.0 157633.0 216275.0 223963.0 37256.0 40787.0 201279.0 201765.0 118916.0 121331.0 110914.0 104988.0 120149.0 115128.0 132369.0 133957.0 111281.0 103155.0 58988.0 63833.0 100629.0 93262.0 44036.0 36262.0 122739.0 125335.0 160425.0 160819.0 208366.0 200199.0 105472.0 98479.0 165796.0 167382.0 199583.0 195721.0 34374.0 41004.0 108437.0 116512.0 213720.0 214605.0 103055.0 107502.0 18511.0 10574.0 73845.0 65773.0 137159.0 132151.0 132974.0 135327.0 102302.0 107065.0 17477.0 23398.0 39149.0 30739.0 97865.0 87390.0 97865.0 97865.0 97865.0 97865.0 97865.0 97865.0 97865.0 87390.0 87390.0 87390.0 87390.0 87390.0 87390.0 87390.0
211928.0 216166.0 249298.0 257255.0 222718.0 230250.0 226626.0 232876.0 205551.0 212099.0 171893.0 167089.0 36588.0 42561.0 104152.0 108085.0 255256.0 256394.0 230539.0 237289.0 283841.0 289312.0 93181.0 86271.0 87943.0 79904.0 224272.0 229400.0 173664.0 165658.0 149537.0 142829.0 250862.0 247137.0 301956.0 296174.0 97606.0 89590.0 242591.0 235227.0 213889.0 216590.0 284592.0 287666.0 270050.0 262650.0 265554.0 272533.0 216869.0 209730.0 154640.0 154059.0 263632.0 267531.0 195552.0 203557.0 292467.0 288969.0 163092.0 155307.0 264666.0 262015.0 111481.0 112791.0 263359.0 268240.0 26625.0 19238.0 88629.0 97044.0 156612.0 150441.0 156546.0 153591.0 211027.0 203368.0 65112.0 57260.0 305011.0 299831.0 252296.0 245857.0 248119.0 240034.0 189062.0 196910.0 266971.0 262450.0 50080.0 57474.0 289324.0 281670.0 242833.0 248141.0 112594.0 107439.0 121802.0 129735.0 231716.0 230025.0 159876.0 164715.0 0.0 7751.0 74872.0 79640.0 200027.0 200464.0 244184.0 249904.0 273769.0 278356.0 272813.0 265960.0 284782.0 279470.0 296350.0 298419.0 273941.0 266058.0 111581.0 111433.0 229846.0 222489.0 139159.0 145595.0 280750.0 284895.0 193009.0 186814.0 84170.0 76892.0 270021.0 262793.0 54664.0 46836.0 275705.0 268326.0 188258.0 189640.0 261237.0 269226.0 73415.0 78967.0 197394.0 193941.0 164689.0 164432.0 234863.0 227140.0 29752.0 37139.0 222378.0 229558.0 66146.0 65290.0 173038.0 180939.0 148945.0 150966.0 248445.0 97988.0 248445.0 248445.0 248445.0 248445.0 248445.0 248445.0 248445.0 97988.0 97988.0 97988.0 97988.0 97988.0 97988.0 97988.0
204479.0 208789.0 241565.0 249521.0 215523.0 223097.0 218995.0 225280.0 197927.0 204508.0 164295.0 159437.0 29453.0 35043.0 110307.0 114526.0 247987.0 249042.0 223062.0 229849.0 276118.0 281576.0 87963.0 81340.0 95641.0 87582.0 216934.0 222134.0 165974.0 157953.0 142416.0 135613.0 244052.0 240444.0 294772.0 288935.0 105280.0 97262.0 235070.0 227680.0 206218.0 208885.0 277094.0 280117.0 262850.0 255410.0 257806.0 264789.0 209501.0 202409.0 147330.0 146906.0 256001.0 259865.0 187916.0 195921.0 286226.0 282740.0 155744.0 147988.0 258437.0 255786.0 104773.0 105924.0 256908.0 261685.0 34366.0 26969.0 80883.0 89297.0 149642.0 143558.0 148887.0 145883.0 203711.0 196082.0 71733.0 63976.0 298275.0 293178.0 245286.0 238780.0 240368.0 232283.0 181404.0 189269.0 260558.0 256141.0 53568.0 61277.0 282428.0 274807.0 235151.0 240436.0 119702.0 114706.0 114081.0 122019.0 223998.0 222337.0 152673.0 157633.0 7751.0 0.0 81556.0 86612.0 192745.0 193073.0 237610.0 243235.0 267556.0 272027.0 265398.0 258511.0 277623.0 272244.0 289467.0 291445.0 267199.0 259285.0 104029.0 103773.0 222096.0 214740.0 131528.0 138022.0 274365.0 278414.0 186279.0 180186.0 89529.0 81997.0 263018.0 255840.0 57164.0 49846.0 268555.0 261215.0 180791.0 182091.0 253601.0 261582.0 79983.0 85255.0 189722.0 186319.0 157292.0 157158.0 227449.0 219751.0 22018.0 29395.0 214835.0 221987.0 58488.0 57541.0 165693.0 173576.0 141325.0 143437.0 242216.0 93095.0 242216.0 242216.0 242216.0 242216.0 242216.0 242216.0 242216.0 93095.0 93095.0 93095.0 93095.0 93095.0 93095.0 93095.0
268135.0 270870.0 313111.0 321093.0 274057.0 280708.0 286823.0 291993.0 265899.0 271457.0 232304.0 229016.0 101430.0 109315.0 31096.0 33550.0 328881.0 329614.0 286940.0 292776.0 352126.0 356975.0 131290.0 123327.0 37325.0 32114.0 278073.0 281792.0 236648.0 229338.0 202357.0 197377.0 295829.0 290917.0 351528.0 346808.0 41568.0 36274.0 299747.0 293102.0 284012.0 285871.0 340596.0 344810.0 320441.0 313887.0 330586.0 337036.0 271395.0 263577.0 210104.0 207125.0 334250.0 337490.0 256420.0 264269.0 333828.0 330331.0 218854.0 210898.0 306028.0 303378.0 161674.0 164705.0 305301.0 310731.0 53055.0 60579.0 156469.0 164743.0 206958.0 199940.0 218938.0 217675.0 264751.0 256770.0 9862.0 17613.0 348629.0 342813.0 299920.0 294708.0 314439.0 306383.0 250684.0 257902.0 308729.0 303872.0 44610.0 40158.0 334763.0 326809.0 312576.0 317267.0 39645.0 36710.0 187248.0 194715.0 300475.0 299670.0 213450.0 216275.0 74872.0 81556.0 0.0 8039.0 253453.0 255812.0 319055.0 324751.0 315148.0 319797.0 327188.0 321162.0 334199.0 330135.0 341561.0 344751.0 317877.0 310397.0 173149.0 175301.0 295703.0 288039.0 201317.0 206193.0 322367.0 326905.0 267820.0 261673.0 24271.0 25194.0 317155.0 309287.0 51149.0 48906.0 349770.0 342511.0 245393.0 248476.0 321078.0 329233.0 2678.0 8434.0 267588.0 264972.0 221249.0 218925.0 289882.0 281845.0 100656.0 108669.0 294240.0 301095.0 132449.0 134339.0 228411.0 236358.0 210524.0 210465.0 289808.0 132322.0 289808.0 289808.0 289808.0 289808.0 289808.0 289808.0 289808.0 132322.0 132322.0 132322.0 132322.0 132322.0 132322.0 132322.0
275688.0 278495.0 320211.0 328197.0 281817.0 288503.0 294169.0 299411.0 273214.0 278841.0 239572.0 236173.0 107758.0 115574.0 30657.0 31136.0 334431.0 335303.0 294501.0 300385.0 358782.0 363711.0 139160.0 131188.0 30334.0 26140.0 285744.0 289521.0 243735.0 236357.0 209972.0 204907.0 303714.0 298802.0 359387.0 354635.0 33796.0 28991.0 307280.0 300591.0 290356.0 292346.0 348213.0 352375.0 328262.0 321678.0 337589.0 344092.0 279029.0 271232.0 217615.0 214739.0 340543.0 343896.0 263690.0 271558.0 341713.0 338216.0 226365.0 218405.0 313913.0 311262.0 169296.0 172267.0 313185.0 318616.0 56317.0 64144.0 162907.0 171224.0 214676.0 207676.0 226043.0 224640.0 272412.0 264437.0 16346.0 23063.0 356514.0 350698.0 307806.0 302559.0 321302.0 313237.0 257893.0 265164.0 316614.0 311757.0 52395.0 48151.0 342648.0 334694.0 319001.0 323787.0 33281.0 29455.0 194026.0 201554.0 307034.0 306101.0 221053.0 223963.0 79640.0 86612.0 8039.0 0.0 261115.0 263393.0 323646.0 329457.0 323032.0 327682.0 334870.0 328804.0 342055.0 337953.0 349445.0 352636.0 325762.0 318281.0 180208.0 182187.0 302599.0 294959.0 208405.0 213402.0 330251.0 334790.0 272612.0 266350.0 30237.0 32462.0 325061.0 317204.0 59099.0 56587.0 355138.0 347818.0 252872.0 255865.0 328474.0 336624.0 10717.0 14253.0 273908.0 271145.0 228724.0 226497.0 297510.0 289480.0 106373.0 114373.0 300267.0 307195.0 138933.0 140539.0 235956.0 243912.0 217674.0 217754.0 297692.0 140267.0 297692.0 297692.0 297692.0 297692.0 297692.0 297692.0 297692.0 140267.0 140267.0 140267.0 140267.0 140267.0 140267.0 140267.0
18400.0 17838.0 78626.0 85031.0 23651.0 31780.0 44964.0 45498.0 33957.0 31877.0 39368.0 47404.0 163443.0 157856.0 270738.0 277591.0 162911.0 157356.0 35122.0 39729.0 131043.0 131635.0 123521.0 131195.0 281392.0 273215.0 24642.0 29407.0 48812.0 55025.0 51301.0 57302.0 60599.0 61406.0 102329.0 96244.0 289814.0 282175.0 48235.0 43392.0 100238.0 94310.0 87284.0 92020.0 70389.0 62739.0 97617.0 100819.0 18189.0 10149.0 45442.0 46570.0 133458.0 130675.0 34696.0 35229.0 114985.0 115532.0 37253.0 44811.0 94831.0 96728.0 91862.0 89164.0 83276.0 84011.0 224785.0 218687.0 118696.0 111874.0 46797.0 53965.0 55231.0 62710.0 11298.0 3353.0 245007.0 239906.0 112875.0 109992.0 56141.0 48418.0 91510.0 86176.0 38685.0 35438.0 87583.0 87455.0 208883.0 214200.0 94212.0 87604.0 112185.0 110648.0 291756.0 290050.0 88000.0 81023.0 97782.0 103915.0 40415.0 37256.0 200027.0 192745.0 253453.0 261115.0 0.0 8555.0 195880.0 194869.0 99931.0 100011.0 73784.0 67740.0 85432.0 79617.0 101268.0 101533.0 83455.0 75343.0 90357.0 93228.0 76756.0 70743.0 67276.0 59023.0 100286.0 100996.0 162541.0 164701.0 245622.0 237455.0 73287.0 67484.0 203042.0 204550.0 184744.0 182233.0 19002.0 25389.0 72889.0 80767.0 250906.0 251845.0 95163.0 101784.0 36352.0 35595.0 36609.0 28533.0 171684.0 166091.0 120942.0 121123.0 135791.0 139568.0 27406.0 20049.0 58369.0 52594.0 88850.0 124359.0 88850.0 88850.0 88850.0 88850.0 88850.0 88850.0 88850.0 124359.0 124359.0 124359.0 124359.0 124359.0 124359.0 124359.0
12612.0 15754.0 71247.0 77920.0 27229.0 35329.0 37756.0 39350.0 25416.0 23792.0 34683.0 42520.0 163949.0 158065.0 273574.0 280427.0 154368.0 148802.0 31185.0 37098.0 123328.0 124171.0 126864.0 134387.0 282969.0 274767.0 24257.0 30807.0 42669.0 49564.0 53526.0 58615.0 65963.0 67584.0 103357.0 96835.0 291541.0 283835.0 44182.0 38330.0 91771.0 85787.0 84905.0 89011.0 71658.0 63659.0 90374.0 93938.0 16529.0 10915.0 46128.0 48759.0 125069.0 122407.0 26479.0 26675.0 121052.0 122004.0 37481.0 45397.0 101939.0 104184.0 94175.0 91130.0 89629.0 89807.0 225596.0 219299.0 117302.0 110134.0 50493.0 57675.0 51326.0 58349.0 12245.0 8819.0 247203.0 241897.0 116770.0 114399.0 59933.0 51869.0 83489.0 77964.0 31033.0 27121.0 93923.0 94253.0 211338.0 216880.0 97578.0 91381.0 103689.0 102247.0 294405.0 292480.0 85589.0 78263.0 89254.0 95362.0 42399.0 40787.0 200464.0 193073.0 255812.0 263393.0 8555.0 0.0 187652.0 186550.0 106597.0 106226.0 72381.0 65745.0 86879.0 80487.0 104546.0 104190.0 88176.0 80196.0 89707.0 91880.0 68389.0 62269.0 64992.0 57035.0 106255.0 106509.0 155065.0 157428.0 248458.0 240291.0 76422.0 71284.0 205744.0 206921.0 176189.0 173687.0 13899.0 18403.0 67722.0 75766.0 253294.0 254472.0 87022.0 93789.0 35783.0 36902.0 34458.0 26678.0 171733.0 165857.0 112474.0 112591.0 135495.0 138822.0 27609.0 19625.0 55603.0 50829.0 96959.0 128140.0 96959.0 96959.0 96959.0 96959.0 96959.0 96959.0 96959.0 128140.0 128140.0 128140.0 128140.0 128140.0 128140.0 128140.0
185163.0 192826.0 150048.0 152209.0 209095.0 214935.0 167185.0 174353.0 164017.0 169665.0 165592.0 159551.0 223525.0 215766.0 347760.0 352135.0 51266.0 59230.0 187867.0 194133.0 128083.0 136112.0 241626.0 244402.0 326258.0 319152.0 198671.0 206312.0 153017.0 151565.0 198082.0 193388.0 246096.0 250555.0 250186.0 242142.0 336153.0 328539.0 187272.0 181523.0 97463.0 104749.0 209770.0 205151.0 230311.0 223236.0 146606.0 153058.0 193769.0 195498.0 188245.0 196744.0 96856.0 105255.0 161198.0 162030.0 300489.0 303585.0 186069.0 187688.0 286951.0 290382.0 212817.0 208137.0 272011.0 269695.0 267939.0 259915.0 177115.0 171309.0 205647.0 208660.0 160204.0 153580.0 196260.0 196426.0 309277.0 301443.0 282752.0 284169.0 234655.0 227007.0 131737.0 129852.0 157666.0 160533.0 276038.0 278273.0 286371.0 294316.0 262893.0 260309.0 101025.0 107936.0 356165.0 350383.0 162896.0 160366.0 109123.0 100910.0 194437.0 201279.0 244184.0 237610.0 319055.0 323646.0 195880.0 187652.0 0.0 8088.0 289651.0 287165.0 212671.0 205587.0 241768.0 233477.0 268070.0 263393.0 262862.0 256500.0 181445.0 174232.0 132057.0 133623.0 167152.0 170995.0 285945.0 283741.0 51939.0 57469.0 325725.0 317723.0 244492.0 243829.0 286327.0 281700.0 51844.0 44542.0 179092.0 171316.0 178638.0 180731.0 317559.0 322836.0 100784.0 94723.0 182809.0 190727.0 195720.0 195201.0 220411.0 212631.0 77729.0 80873.0 197982.0 192604.0 186817.0 186426.0 166019.0 173782.0 284593.0 247775.0 284593.0 284593.0 284593.0 284593.0 284593.0 284593.0 284593.0 247775.0 247775.0 247775.0 247775.0 247775.0 247775.0 247775.0
183533.0 191094.0 146192.0 147989.0 207299.0 212921.0 164684.0 171646.0 162513.0 167883.0 165741.0 159971.0 228476.0 220664.0 353243.0 357730.0 45137.0 53206.0 185447.0 191512.0 122015.0 129977.0 244800.0 247801.0 332561.0 325391.0 196668.0 204203.0 153143.0 152134.0 199173.0 194756.0 243824.0 248503.0 246123.0 238114.0 342466.0 334815.0 184315.0 178807.0 95516.0 102528.0 205488.0 200649.0 227014.0 220086.0 141868.0 148110.0 192019.0 194072.0 189128.0 197650.0 91183.0 99530.0 160178.0 160614.0 297866.0 301157.0 186590.0 188543.0 284999.0 288626.0 215347.0 210632.0 269793.0 267256.0 273914.0 265874.0 181092.0 175045.0 206472.0 209736.0 161155.0 154772.0 194787.0 195279.0 314951.0 307144.0 279304.0 280931.0 232118.0 224578.0 127660.0 126211.0 156971.0 159443.0 273774.0 276214.0 291473.0 299400.0 259560.0 257196.0 96864.0 103502.0 362087.0 356391.0 165581.0 162695.0 105813.0 97687.0 195101.0 201765.0 249904.0 243235.0 324751.0 329457.0 194869.0 186550.0 8088.0 0.0 287435.0 284737.0 208916.0 201968.0 238151.0 229886.0 264600.0 259747.0 260080.0 253872.0 184239.0 177170.0 129033.0 131040.0 168882.0 172371.0 283407.0 281013.0 57028.0 63110.0 330993.0 322952.0 241479.0 241071.0 291243.0 286774.0 43951.0 36825.0 178480.0 170611.0 174711.0 176493.0 323215.0 328395.0 100135.0 94558.0 183259.0 191194.0 193227.0 193029.0 225686.0 217856.0 75296.0 77705.0 202382.0 197213.0 186907.0 186171.0 167285.0 174884.0 283373.0 250835.0 283373.0 283373.0 283373.0 283373.0 283373.0 283373.0 283373.0 250835.0 250835.0 250835.0 250835.0 250835.0 250835.0 250835.0
105620.0 97684.0 147551.0 149460.0 81424.0 74901.0 122891.0 116432.0 126827.0 120412.0 138771.0 146796.0 238759.0 235338.0 331298.0 338151.0 249780.0 242920.0 102081.0 96527.0 195389.0 192048.0 183940.0 191931.0 346104.0 338169.0 91118.0 83364.0 148742.0 154728.0 133103.0 141257.0 43629.0 39426.0 77672.0 80247.0 353699.0 346475.0 105164.0 109395.0 192192.0 184951.0 105932.0 114059.0 70138.0 73694.0 160709.0 158924.0 96681.0 96734.0 134238.0 129940.0 210917.0 205297.0 131944.0 129113.0 18763.0 15993.0 129127.0 134047.0 10047.0 17005.0 163755.0 163606.0 17643.0 21604.0 295123.0 290535.0 206650.0 201594.0 123600.0 127858.0 153315.0 161216.0 95694.0 98112.0 307383.0 303221.0 46900.0 38746.0 56205.0 63145.0 166073.0 164599.0 137426.0 132161.0 13747.0 12650.0 270705.0 275191.0 48726.0 43794.0 194738.0 190291.0 352437.0 351308.0 181291.0 175654.0 182879.0 190611.0 126453.0 118916.0 273769.0 267556.0 315148.0 323032.0 99931.0 106597.0 289651.0 287435.0 0.0 8263.0 92730.0 96025.0 68903.0 73830.0 50999.0 58678.0 33792.0 36358.0 177320.0 182646.0 159351.0 156517.0 161493.0 153155.0 12504.0 19957.0 261123.0 263806.0 306182.0 298014.0 53254.0 49712.0 264068.0 266783.0 269010.0 268370.0 118925.0 124940.0 123230.0 126218.0 312526.0 312734.0 191098.0 198537.0 130180.0 125150.0 94463.0 94450.0 249322.0 245696.0 212143.0 210170.0 217522.0 223369.0 121667.0 117013.0 154296.0 146805.0 46895.0 183810.0 46895.0 46895.0 46895.0 46895.0 46895.0 46895.0 46895.0 183810.0 183810.0 183810.0 183810.0 183810.0 183810.0 183810.0
104275.0 96293.0 143385.0 144919.0 80232.0 73226.0 120053.0 113257.0 125316.0 118599.0 139206.0 147252.0 243071.0 239436.0 335948.0 342800.0 246381.0 239393.0 99308.0 93327.0 190263.0 186676.0 188589.0 196581.0 350754.0 342819.0 89242.0 81317.0 148718.0 155019.0 135846.0 143946.0 41342.0 38652.0 69918.0 72822.0 358349.0 351125.0 101434.0 106143.0 189791.0 182416.0 99561.0 107647.0 64386.0 68604.0 155888.0 153780.0 95269.0 96016.0 136331.0 132478.0 206733.0 200901.0 130978.0 127682.0 15156.0 16421.0 130798.0 136090.0 17479.0 25009.0 167807.0 167449.0 16822.0 17482.0 299761.0 295192.0 209489.0 204179.0 126547.0 131146.0 154218.0 162030.0 94904.0 97963.0 312033.0 307870.0 38679.0 30547.0 52699.0 60166.0 162070.0 160953.0 136741.0 131099.0 12542.0 15940.0 275355.0 279840.0 41009.0 36630.0 191175.0 186478.0 357087.0 355958.0 183256.0 177370.0 179690.0 187536.0 128671.0 121331.0 278356.0 272027.0 319797.0 327682.0 100011.0 106226.0 287165.0 284737.0 8263.0 0.0 86906.0 90681.0 61955.0 67344.0 42930.0 50684.0 27564.0 31558.0 180094.0 185163.0 156170.0 153699.0 163194.0 154807.0 4241.0 11696.0 259925.0 262837.0 310831.0 302664.0 47503.0 44958.0 268718.0 271433.0 265222.0 264808.0 118992.0 124628.0 118312.0 120893.0 317175.0 317384.0 189390.0 196971.0 131631.0 126997.0 91512.0 92178.0 253466.0 249634.0 209510.0 207249.0 221117.0 226773.0 122929.0 117842.0 155661.0 148391.0 53539.0 188460.0 53539.0 53539.0 53539.0 53539.0 53539.0 53539.0 53539.0 188460.0 188460.0 188460.0 188460.0 188460.0 188460.0 188460.0
61013.0 56768.0 62735.0 61829.0 54144.0 49080.0 54803.0 46460.0 72441.0 64586.0 103076.0 109576.0 236318.0 230371.0 344264.0 351117.0 166997.0 159406.0 42906.0 35645.0 104104.0 100042.0 196802.0 204580.0 355098.0 346911.0 49142.0 45805.0 105744.0 114114.0 125062.0 130763.0 56453.0 64679.0 38659.0 30590.0 363565.0 355908.0 32976.0 41062.0 119321.0 111358.0 16000.0 23552.0 22592.0 20944.0 71080.0 67826.0 56131.0 63709.0 118447.0 120317.0 123886.0 117169.0 82267.0 74993.0 96329.0 101994.0 109847.0 117734.0 95298.0 102101.0 165645.0 162921.0 77480.0 71317.0 297975.0 291674.0 188454.0 180883.0 120285.0 127369.0 119857.0 125341.0 62498.0 70450.0 318778.0 313689.0 70998.0 73828.0 42730.0 41556.0 81461.0 82823.0 89518.0 81348.0 80004.0 85856.0 282600.0 287819.0 52250.0 52150.0 112189.0 106102.0 365357.0 363756.0 155646.0 147881.0 103766.0 112027.0 114093.0 110914.0 272813.0 265398.0 327188.0 334870.0 73784.0 72381.0 212671.0 208916.0 92730.0 86906.0 0.0 8042.0 29490.0 21493.0 56327.0 50909.0 59345.0 56662.0 161721.0 163291.0 81951.0 82777.0 135688.0 128265.0 84053.0 79175.0 195764.0 200460.0 319148.0 310981.0 39487.0 43936.0 276656.0 278294.0 183517.0 184246.0 84747.0 84568.0 34438.0 34837.0 324634.0 325473.0 124766.0 133015.0 108129.0 108960.0 37951.0 45742.0 243967.0 237943.0 136206.0 131966.0 207592.0 210568.0 99937.0 91977.0 125908.0 122402.0 109849.0 197172.0 109849.0 109849.0 109849.0 109849.0 109849.0 109849.0 109849.0 197172.0 197172.0 197172.0 197172.0 197172.0 197172.0 197172.0
54032.0 50341.0 55964.0 55705.0 49496.0 45373.0 46765.0 38431.0 64608.0 56802.0 95657.0 102019.0 229514.0 223470.0 338466.0 345319.0 160460.0 152957.0 35581.0 28690.0 99607.0 96038.0 191146.0 198868.0 348694.0 340495.0 43214.0 40876.0 98001.0 106391.0 118851.0 124315.0 57390.0 65362.0 46542.0 38513.0 357232.0 349542.0 25063.0 33147.0 111684.0 103730.0 19698.0 25682.0 26639.0 22454.0 65697.0 63135.0 49782.0 57599.0 111873.0 114090.0 117978.0 111510.0 74497.0 67141.0 100947.0 106200.0 103214.0 111141.0 97822.0 104281.0 159512.0 156663.0 80062.0 74442.0 291253.0 284876.0 181151.0 173514.0 114472.0 121606.0 112361.0 117709.0 56448.0 64445.0 312668.0 307478.0 77463.0 79766.0 43259.0 40549.0 74833.0 75767.0 81740.0 73547.0 82904.0 88295.0 276606.0 281940.0 58162.0 57200.0 105425.0 99560.0 359496.0 357775.0 148212.0 140409.0 96543.0 104795.0 107810.0 104988.0 265960.0 258511.0 321162.0 328804.0 67740.0 65745.0 205587.0 201968.0 96025.0 90681.0 8042.0 0.0 36187.0 27920.0 62746.0 57806.0 63281.0 59679.0 154685.0 156072.0 74423.0 75005.0 128385.0 121073.0 88089.0 83686.0 187968.0 192604.0 313350.0 305182.0 43257.0 46462.0 270781.0 272256.0 177450.0 177949.0 77732.0 77196.0 28309.0 30217.0 318621.0 319585.0 116863.0 125108.0 101361.0 102536.0 31337.0 39330.0 237000.0 230889.0 128844.0 124785.0 200559.0 203396.0 93353.0 85370.0 118577.0 115298.0 109735.0 191730.0 109735.0 109735.0 109735.0 109735.0 109735.0 109735.0 109735.0 191730.0 191730.0 191730.0 191730.0 191730.0 191730.0 191730.0
77971.0 71534.0 92070.0 91320.0 62156.0 54532.0 79788.0 71450.0 94123.0 86133.0 120721.0 128044.0 248213.0 242902.0 350298.0 357151.0 196455.0 188882.0 63111.0 55196.0 132656.0 128099.0 202911.0 210872.0 364054.0 355962.0 62750.0 56243.0 125784.0 133815.0 135254.0 142040.0 43578.0 51467.0 17342.0 13869.0 372095.0 364645.0 57367.0 64886.0 147366.0 139446.0 38573.0 46404.0 15243.0 23447.0 100378.0 96724.0 70622.0 76449.0 130703.0 130725.0 153327.0 146526.0 103083.0 96768.0 69149.0 75633.0 122672.0 130113.0 73610.0 81202.0 174592.0 172557.0 56489.0 49012.0 309022.0 303203.0 203975.0 196948.0 128672.0 135304.0 137667.0 144100.0 75091.0 82177.0 326272.0 321747.0 41511.0 44676.0 34771.0 39504.0 110873.0 111953.0 110218.0 102472.0 57865.0 64844.0 289674.0 294266.0 23386.0 25370.0 141546.0 135551.0 371356.0 370377.0 172460.0 165071.0 132698.0 140944.0 124973.0 120149.0 284782.0 277623.0 334199.0 342055.0 85432.0 86879.0 241768.0 238151.0 68903.0 61955.0 29490.0 36187.0 0.0 8322.0 26864.0 21636.0 35402.0 36164.0 175789.0 178507.0 110358.0 110439.0 151868.0 143859.0 58504.0 52582.0 223060.0 227406.0 325182.0 317014.0 19971.0 27970.0 283145.0 285618.0 212984.0 213737.0 100560.0 102476.0 63920.0 64001.0 331585.0 331771.0 151556.0 159749.0 121732.0 120722.0 55853.0 61711.0 256822.0 251394.0 164901.0 160948.0 221145.0 225001.0 112837.0 105312.0 142457.0 137570.0 96105.0 202888.0 96105.0 96105.0 96105.0 96105.0 96105.0 96105.0 96105.0 202888.0 202888.0 202888.0 202888.0 202888.0 202888.0 202888.0
71035.0 64933.0 83856.0 83260.0 56800.0 49580.0 71678.0 63316.0 86496.0 78492.0 113897.0 121087.0 242883.0 237417.0 346449.0 353302.0 188297.0 180751.0 55505.0 47582.0 125259.0 120919.0 198919.0 206850.0 359523.0 351403.0 56240.0 50226.0 118530.0 126642.0 130080.0 136641.0 43753.0 51995.0 22878.0 16755.0 367674.0 360169.0 49227.0 56843.0 139052.0 131131.0 32230.0 40303.0 9712.0 16888.0 92556.0 89138.0 64061.0 70307.0 125041.0 125481.0 145372.0 138660.0 95627.0 89136.0 75643.0 81739.0 116850.0 124421.0 77671.0 84998.0 169837.0 167632.0 60108.0 53097.0 303947.0 298009.0 197771.0 190617.0 123894.0 130664.0 130863.0 137128.0 68963.0 76311.0 322081.0 317411.0 49604.0 52346.0 32765.0 35905.0 102689.0 103679.0 102805.0 94963.0 61981.0 68560.0 285558.0 290313.0 30795.0 31382.0 133328.0 127389.0 367573.0 366435.0 165933.0 158453.0 124395.0 132639.0 119596.0 115128.0 279470.0 272244.0 330135.0 337953.0 79617.0 80487.0 233477.0 229886.0 73830.0 67344.0 21493.0 27920.0 8322.0 0.0 34900.0 29951.0 40038.0 39195.0 169855.0 172328.0 102036.0 102136.0 145429.0 137521.0 64153.0 58717.0 214805.0 219185.0 321333.0 313166.0 21723.0 28631.0 279170.0 281435.0 204987.0 205657.0 94003.0 95528.0 55827.0 56248.0 327534.0 327887.0 143333.0 151535.0 115738.0 115126.0 48486.0 54754.0 251277.0 245707.0 156582.0 152648.0 215400.0 219063.0 106950.0 99290.0 135918.0 131303.0 97414.0 198964.0 97414.0 97414.0 97414.0 97414.0 97414.0 97414.0 97414.0 198964.0 198964.0 198964.0 198964.0 198964.0 198964.0 198964.0
97712.0 90387.0 118709.0 118146.0 77721.0 69537.0 104011.0 95887.0 116051.0 108231.0 139200.0 146928.0 260032.0 255314.0 357711.0 364564.0 223187.0 215649.0 85546.0 77880.0 159232.0 154462.0 210352.0 218343.0 372490.0 364525.0 81689.0 74096.0 145837.0 153464.0 147681.0 155121.0 45780.0 50961.0 27985.0 32787.0 380114.0 372885.0 82012.0 88975.0 172890.0 165030.0 64576.0 72019.0 38122.0 45908.0 127231.0 123472.0 89381.0 93659.0 144889.0 143471.0 180190.0 173384.0 124209.0 118678.0 45809.0 53323.0 137558.0 144412.0 58400.0 66395.0 184981.0 183562.0 44634.0 36686.0 319619.0 314258.0 219306.0 212808.0 139885.0 145914.0 155856.0 162863.0 92313.0 98292.0 333796.0 329635.0 14718.0 18392.0 45216.0 52867.0 137568.0 138397.0 131082.0 123814.0 44000.0 51609.0 297118.0 301604.0 7103.0 14764.0 168166.0 162280.0 378850.0 377721.0 189256.0 182278.0 158947.0 167168.0 138289.0 132369.0 296350.0 289467.0 341561.0 349445.0 101268.0 104546.0 268070.0 264600.0 50999.0 42930.0 56327.0 62746.0 26864.0 34900.0 0.0 7962.0 24795.0 31366.0 190350.0 193944.0 136280.0 135856.0 168533.0 160246.0 38813.0 31594.0 247781.0 251825.0 332594.0 324427.0 28126.0 34032.0 290481.0 293131.0 239841.0 240553.0 118442.0 121704.0 90722.0 90845.0 338938.0 339147.0 176120.0 184231.0 137235.0 134872.0 77714.0 82063.0 269377.0 264506.0 190903.0 187201.0 234649.0 239195.0 128143.0 121251.0 159600.0 153785.0 88720.0 210223.0 88720.0 88720.0 88720.0 88720.0 88720.0 88720.0 88720.0 210223.0 210223.0 210223.0 210223.0 210223.0 210223.0 210223.0
96543.0 89514.0 113615.0 112643.0 77882.0 69777.0 100826.0 92564.0 114038.0 106118.0 138673.0 146265.0 261992.0 257083.0 360902.0 367755.0 217890.0 210275.0 83191.0 75370.0 152738.0 147778.0 213534.0 221529.0 375535.0 367530.0 80719.0 73442.0 144703.0 152511.0 149257.0 156512.0 49109.0 55152.0 20072.0 25323.0 383280.0 375985.0 78535.0 85826.0 168917.0 161009.0 57898.0 65112.0 34918.0 43104.0 121303.0 117254.0 88535.0 93401.0 145893.0 144934.0 174423.0 167466.0 122572.0 116680.0 53745.0 61284.0 138306.0 145377.0 65773.0 73761.0 187272.0 185665.0 51266.0 43236.0 322001.0 316497.0 220068.0 213377.0 141809.0 148040.0 155480.0 162280.0 92042.0 98443.0 336957.0 332811.0 20811.0 25889.0 46229.0 53280.0 132369.0 133565.0 129575.0 122082.0 51001.0 58602.0 300260.0 304794.0 11212.0 19049.0 163084.0 157005.0 382041.0 380912.0 189457.0 182318.0 154332.0 162579.0 139553.0 133957.0 298419.0 291445.0 344751.0 352636.0 101533.0 104190.0 263393.0 259747.0 58678.0 50684.0 50909.0 57806.0 21636.0 29951.0 7962.0 0.0 30407.0 35859.0 191333.0 194634.0 131975.0 131950.0 168745.0 160540.0 46609.0 39463.0 244394.0 248631.0 335785.0 327618.0 28515.0 35660.0 293672.0 296385.0 234129.0 235033.0 118071.0 120836.0 85326.0 84929.0 342129.0 342338.0 172808.0 180974.0 137774.0 135854.0 75563.0 80559.0 271114.0 266059.0 186532.0 182581.0 236044.0 240367.0 128717.0 121581.0 159620.0 154124.0 94953.0 213414.0 94953.0 94953.0 94953.0 94953.0 94953.0 94953.0 94953.0 213414.0 213414.0 213414.0 213414.0 213414.0 213414.0 213414.0
83708.0 75844.0 116930.0 118044.0 60989.0 53057.0 95860.0 88511.0 103900.0 96595.0 122594.0 130557.0 237834.0 233417.0 334027.0 340880.0 220705.0 213549.0 75556.0 68824.0 162887.0 159189.0 186669.0 194661.0 348813.0 340894.0 67807.0 59757.0 130678.0 137740.0 126494.0 134220.0 23574.0 26974.0 46455.0 47619.0 356310.0 349150.0 75857.0 81341.0 165920.0 158332.0 72166.0 80285.0 36852.0 41508.0 128743.0 126416.0 74800.0 77362.0 124807.0 122522.0 180126.0 174081.0 110790.0 106418.0 38165.0 42937.0 118068.0 124412.0 38250.0 45942.0 162460.0 161326.0 21669.0 13805.0 296755.0 291591.0 199274.0 193181.0 118147.0 123807.0 138686.0 146116.0 76096.0 80829.0 310112.0 305950.0 31077.0 26741.0 29186.0 37413.0 135761.0 135131.0 117164.0 110670.0 22537.0 29754.0 273434.0 277920.0 19196.0 11738.0 165378.0 160352.0 355166.0 354038.0 170512.0 163929.0 154491.0 162492.0 117756.0 111281.0 273941.0 267199.0 317877.0 325762.0 83455.0 88176.0 262862.0 260080.0 33792.0 27564.0 59345.0 63281.0 35402.0 40038.0 24795.0 30407.0 0.0 8193.0 170015.0 174162.0 131087.0 129258.0 149907.0 141510.0 24808.0 20997.0 238212.0 241617.0 308911.0 300744.0 20025.0 19041.0 266797.0 269513.0 239008.0 238882.0 101796.0 106255.0 91154.0 93460.0 315255.0 315464.0 166900.0 174741.0 118193.0 114928.0 67548.0 69696.0 247507.0 242938.0 185139.0 182394.0 213413.0 218338.0 109139.0 102886.0 141473.0 135007.0 64593.0 186539.0 64593.0 64593.0 64593.0 64593.0 64593.0 64593.0 64593.0 186539.0 186539.0 186539.0 186539.0 186539.0 186539.0 186539.0
76078.0 68167.0 111831.0 113396.0 53062.0 45223.0 89332.0 82229.0 96501.0 89325.0 114537.0 122514.0 229901.0 225430.0 326547.0 333400.0 215035.0 207987.0 68795.0 62373.0 159051.0 155692.0 179188.0 187173.0 341353.0 333412.0 60303.0 52243.0 122762.0 129753.0 118384.0 126086.0 15417.0 19598.0 49567.0 49419.0 348915.0 341719.0 70039.0 75074.0 159341.0 151832.0 70561.0 78714.0 34136.0 37338.0 124472.0 122579.0 67123.0 69421.0 116625.0 114388.0 175176.0 169357.0 103154.0 98989.0 43996.0 47742.0 109874.0 116227.0 38749.0 45873.0 154581.0 153384.0 20999.0 14763.0 288989.0 283771.0 191100.0 184994.0 110100.0 115825.0 130572.0 138029.0 68170.0 72752.0 302632.0 298440.0 39070.0 34934.0 21990.0 30049.0 130534.0 129530.0 109436.0 103077.0 23343.0 29454.0 265954.0 270440.0 24953.0 16888.0 159772.0 154981.0 347686.0 346557.0 162322.0 155748.0 148517.0 156438.0 109592.0 103155.0 266058.0 259285.0 310397.0 318281.0 75343.0 80196.0 256500.0 253872.0 36358.0 31558.0 56662.0 59679.0 36164.0 39195.0 31366.0 35859.0 8193.0 0.0 161852.0 165977.0 125033.0 122886.0 141721.0 133322.0 29663.0 27424.0 231010.0 234302.0 301430.0 293263.0 17589.0 13428.0 259317.0 262032.0 233718.0 233380.0 93760.0 98345.0 86939.0 89862.0 307774.0 307983.0 159861.0 167636.0 110003.0 106740.0 60847.0 62476.0 239517.0 234902.0 178776.0 176254.0 205330.0 210219.0 100950.0 94722.0 133305.0 126819.0 60608.0 179059.0 60608.0 60608.0 60608.0 60608.0 60608.0 60608.0 60608.0 179059.0 179059.0 179059.0 179059.0 179059.0 179059.0 179059.0
100711.0 105458.0 140011.0 147999.0 113800.0 121735.0 115285.0 121348.0 94182.0 100563.0 60410.0 56169.0 75511.0 69021.0 194528.0 201076.0 172032.0 170360.0 119156.0 126093.0 180401.0 184722.0 61315.0 65563.0 196658.0 188425.0 113862.0 119650.0 63535.0 56208.0 44251.0 36158.0 146442.0 144424.0 192639.0 186375.0 205708.0 197809.0 131055.0 123651.0 116370.0 116507.0 173112.0 176089.0 160723.0 152968.0 157451.0 163890.0 106231.0 99560.0 45465.0 47737.0 166139.0 168073.0 84300.0 92286.0 195101.0 193219.0 53143.0 45961.0 169382.0 167923.0 31987.0 27628.0 163717.0 166996.0 137386.0 130673.0 29411.0 24618.0 53755.0 50259.0 45879.0 44723.0 100899.0 93617.0 163865.0 157672.0 200733.0 196689.0 145249.0 138064.0 141667.0 133666.0 78094.0 85708.0 167786.0 164933.0 130203.0 136927.0 183247.0 176086.0 143300.0 146929.0 212685.0 209661.0 18774.0 23723.0 129947.0 130545.0 52260.0 58988.0 111581.0 104029.0 173149.0 180208.0 90357.0 89707.0 181445.0 184239.0 177320.0 180094.0 161721.0 154685.0 175789.0 169855.0 190350.0 191333.0 170015.0 161852.0 0.0 7909.0 122833.0 115096.0 28224.0 34038.0 181619.0 184317.0 132499.0 130159.0 169490.0 161291.0 162851.0 156320.0 126328.0 125432.0 195047.0 189233.0 76978.0 78062.0 149895.0 157943.0 170819.0 173270.0 100907.0 100826.0 54119.0 55495.0 123829.0 116296.0 82356.0 76222.0 131010.0 136437.0 45875.0 49215.0 62953.0 70567.0 37719.0 39431.0 154464.0 66901.0 154464.0 154464.0 154464.0 154464.0 154464.0 154464.0 154464.0 66901.0 66901.0 66901.0 66901.0 66901.0 66901.0 66901.0
102358.0 107566.0 138517.0 146504.0 116834.0 124879.0 115258.0 121696.0 94223.0 100975.0 60795.0 55667.0 76024.0 69063.0 197574.0 203947.0 166062.0 164641.0 120491.0 127656.0 177226.0 181823.0 67839.0 71586.0 197576.0 189355.0 116133.0 122267.0 62337.0 54523.0 49655.0 41469.0 150601.0 148947.0 195178.0 188715.0 206776.0 198830.0 132021.0 124431.0 111747.0 112342.0 174148.0 176780.0 163354.0 155466.0 155508.0 162164.0 108386.0 102074.0 49363.0 52714.0 161814.0 164080.0 84174.0 92178.0 200230.0 198592.0 56386.0 49750.0 174914.0 173709.0 39768.0 35482.0 168661.0 171663.0 137604.0 130639.0 25472.0 19060.0 59442.0 56551.0 45114.0 42591.0 103427.0 96417.0 165876.0 159453.0 204688.0 200887.0 148747.0 141368.0 139138.0 131084.0 77631.0 85513.0 172779.0 170180.0 133005.0 139955.0 186847.0 179834.0 139203.0 143165.0 214922.0 211632.0 12788.0 19504.0 126207.0 126365.0 56657.0 63833.0 111433.0 103773.0 175301.0 182187.0 93228.0 91880.0 174232.0 177170.0 182646.0 185163.0 163291.0 156072.0 178507.0 172328.0 193944.0 194634.0 174162.0 165977.0 7909.0 0.0 120413.0 112775.0 27871.0 35031.0 186555.0 189016.0 124969.0 122501.0 172679.0 164437.0 166231.0 159926.0 129562.0 128187.0 188966.0 183005.0 78696.0 78977.0 149848.0 157815.0 173031.0 175787.0 95970.0 95387.0 56887.0 59248.0 125569.0 118236.0 81848.0 75230.0 125627.0 131316.0 45288.0 47361.0 65920.0 73228.0 37723.0 41062.0 160365.0 73696.0 160365.0 160365.0 160365.0 160365.0 160365.0 160365.0 160365.0 73696.0 73696.0 73696.0 73696.0 73696.0 73696.0 73696.0
60629.0 66892.0 23636.0 30310.0 81982.0 86250.0 36822.0 42934.0 43455.0 45090.0 68368.0 68851.0 195820.0 188442.0 317315.0 323904.0 90517.0 83892.0 57481.0 62865.0 59153.0 62411.0 177042.0 183389.0 317217.0 309034.0 70452.0 77244.0 60362.0 66797.0 107021.0 107673.0 115786.0 121185.0 120411.0 112298.0 326592.0 318604.0 55283.0 50028.0 37521.0 29556.0 82275.0 79803.0 98345.0 91183.0 35929.0 43350.0 67628.0 72134.0 96108.0 103135.0 56706.0 54182.0 47795.0 42994.0 168988.0 172562.0 88909.0 95251.0 157774.0 162162.0 142023.0 137695.0 141774.0 138707.0 256414.0 249036.0 141254.0 132825.0 109179.0 115399.0 77868.0 78121.0 72405.0 75787.0 286290.0 279838.0 150909.0 152133.0 103472.0 96213.0 18881.0 11099.0 50175.0 46323.0 145614.0 148662.0 253034.0 259741.0 130932.0 128253.0 36298.0 33922.0 335312.0 332041.0 108721.0 101074.0 23531.0 31411.0 97648.0 100629.0 229846.0 222096.0 295703.0 302599.0 76756.0 68389.0 132057.0 129033.0 159351.0 156170.0 81951.0 74423.0 110358.0 102036.0 136280.0 131975.0 131087.0 125033.0 122833.0 120413.0 0.0 7844.0 95054.0 91652.0 154655.0 152047.0 114505.0 119687.0 292227.0 284053.0 112466.0 112106.0 249079.0 248258.0 110629.0 109341.0 67206.0 59789.0 49815.0 54506.0 293421.0 296047.0 45826.0 53849.0 85360.0 91768.0 64906.0 66009.0 200130.0 192757.0 54625.0 51328.0 164528.0 164562.0 83168.0 78010.0 86626.0 89048.0 159981.0 180349.0 159981.0 159981.0 159981.0 159981.0 159981.0 159981.0 159981.0 180349.0 180349.0 180349.0 180349.0 180349.0 180349.0 180349.0
55412.0 62134.0 28748.0 36135.0 77719.0 82547.0 33652.0 40755.0 36989.0 39568.0 60594.0 61008.0 188305.0 180966.0 309548.0 316153.0 94179.0 87929.0 54444.0 60513.0 66945.0 70254.0 169203.0 175545.0 309759.0 301569.0 66466.0 73641.0 52521.0 59008.0 99350.0 99897.0 112887.0 117884.0 121425.0 113335.0 319110.0 311126.0 54028.0 47922.0 37039.0 29228.0 84581.0 82814.0 97753.0 90267.0 43077.0 50243.0 62938.0 66817.0 88403.0 95512.0 62998.0 61061.0 40507.0 36255.0 166880.0 170119.0 81300.0 87548.0 154485.0 158571.0 134184.0 129853.0 138886.0 136217.0 249036.0 241693.0 133868.0 125447.0 101695.0 107839.0 70043.0 70402.0 67199.0 70002.0 278643.0 272221.0 150375.0 151178.0 101084.0 93549.0 26706.0 18932.0 42529.0 39074.0 142821.0 145518.0 245298.0 251984.0 130243.0 127110.0 41469.0 40180.0 327638.0 324405.0 101176.0 93483.0 27405.0 34453.0 90093.0 93262.0 222489.0 214740.0 288039.0 294959.0 70743.0 62269.0 133623.0 131040.0 156517.0 153699.0 82777.0 75005.0 110439.0 102136.0 135856.0 131950.0 129258.0 122886.0 115096.0 112775.0 7844.0 0.0 87265.0 83812.0 152378.0 150119.0 112989.0 117775.0 284450.0 276282.0 111144.0 110220.0 241308.0 240528.0 115021.0 113259.0 60182.0 52598.0 52325.0 57879.0 285749.0 288338.0 42537.0 50760.0 77731.0 84250.0 62188.0 62387.0 192757.0 185429.0 55894.0 53668.0 157038.0 157199.0 75786.0 70866.0 78796.0 81209.0 155476.0 172526.0 155476.0 155476.0 155476.0 155476.0 155476.0 155476.0 155476.0 172526.0 172526.0 172526.0 172526.0 172526.0 172526.0 172526.0
74918.0 80503.0 111805.0 119791.0 90895.0 99050.0 87467.0 93833.0 66401.0 73105.0 32932.0 28020.0 103429.0 96681.0 222302.0 228952.0 151233.0 148656.0 92819.0 100096.0 153194.0 157226.0 84213.0 89776.0 224784.0 216553.0 89197.0 95702.0 35332.0 28258.0 33943.0 27331.0 126522.0 125754.0 168306.0 161655.0 233873.0 225962.0 104204.0 96580.0 92043.0 91150.0 146330.0 148912.0 136650.0 128633.0 129357.0 135724.0 81368.0 75511.0 28015.0 34707.0 140748.0 142055.0 56394.0 64399.0 178349.0 177482.0 32398.0 28001.0 154516.0 154256.0 50007.0 45275.0 146443.0 148664.0 165203.0 158336.0 52769.0 45272.0 43495.0 43972.0 17655.0 17613.0 76874.0 70312.0 192061.0 185893.0 179909.0 176622.0 123361.0 115693.0 113928.0 105987.0 49998.0 57760.0 150672.0 148867.0 158171.0 164770.0 161469.0 154752.0 117590.0 120622.0 240823.0 237856.0 20724.0 14177.0 103696.0 105088.0 36012.0 44036.0 139159.0 131528.0 201317.0 208405.0 67276.0 64992.0 167152.0 168882.0 161493.0 163194.0 135688.0 128385.0 151868.0 145429.0 168533.0 168745.0 149907.0 141721.0 28224.0 27871.0 95054.0 87265.0 0.0 8419.0 164192.0 165996.0 121861.0 121126.0 197202.0 189030.0 140561.0 134672.0 154057.0 153428.0 174503.0 169336.0 51451.0 51208.0 122078.0 130076.0 198974.0 201329.0 77684.0 79183.0 31769.0 36378.0 98130.0 90974.0 109651.0 103095.0 108608.0 113179.0 73055.0 75201.0 40777.0 47290.0 9856.0 14913.0 141771.0 88619.0 141771.0 141771.0 141771.0 141771.0 141771.0 141771.0 141771.0 88619.0 88619.0 88619.0 88619.0 88619.0 88619.0 88619.0
67328.0 72649.0 107141.0 115095.0 82664.0 90803.0 81305.0 87310.0 60205.0 66525.0 26402.0 23024.0 109542.0 103039.0 226402.0 233193.0 152670.0 149672.0 85494.0 92627.0 150382.0 154046.0 85801.0 91875.0 230529.0 222294.0 81283.0 87642.0 31293.0 25634.0 27741.0 22395.0 118113.0 117337.0 160391.0 153827.0 239507.0 231634.0 97169.0 89686.0 91971.0 90353.0 139275.0 142112.0 128659.0 120691.0 125138.0 131233.0 73490.0 67434.0 20301.0 27703.0 139608.0 140422.0 50419.0 58372.0 169963.0 169141.0 24030.0 20170.0 146242.0 146077.0 50919.0 46392.0 138050.0 140248.0 171423.0 164704.0 60333.0 53101.0 36729.0 38190.0 14108.0 17909.0 68795.0 62097.0 197059.0 191071.0 171552.0 168229.0 115056.0 107429.0 110511.0 102701.0 44492.0 51860.0 142282.0 140523.0 162641.0 169035.0 153176.0 146420.0 116320.0 118833.0 245577.0 242824.0 29042.0 22576.0 102056.0 104096.0 28216.0 36262.0 145595.0 138022.0 206193.0 213402.0 59023.0 57035.0 170995.0 172371.0 153155.0 154807.0 128265.0 121073.0 143859.0 137521.0 160246.0 160540.0 141510.0 133322.0 34038.0 35031.0 91652.0 83812.0 8419.0 0.0 155789.0 157579.0 127005.0 126678.0 201291.0 193120.0 132306.0 126355.0 158191.0 157952.0 175959.0 171098.0 43692.0 44114.0 115898.0 123965.0 203807.0 205916.0 78487.0 80832.0 23352.0 28122.0 90543.0 83248.0 116271.0 109935.0 109519.0 113578.0 79695.0 82323.0 32372.0 38998.0 5542.0 6503.0 133739.0 89649.0 133739.0 133739.0 133739.0 133739.0 133739.0 133739.0 133739.0 89649.0 89649.0 89649.0 89649.0 89649.0 89649.0 89649.0
103803.0 95817.0 141359.0 142692.0 79916.0 72686.0 118764.0 111801.0 124715.0 117853.0 139588.0 147635.0 245337.0 241596.0 338517.0 345370.0 244699.0 237646.0 98096.0 91901.0 187695.0 183978.0 191159.0 199150.0 353323.0 345388.0 88534.0 80545.0 148853.0 155308.0 137397.0 145461.0 40743.0 38906.0 65974.0 69071.0 360918.0 353694.0 99703.0 104659.0 188658.0 181219.0 96383.0 104437.0 61632.0 66214.0 153502.0 151223.0 94786.0 95891.0 137556.0 133932.0 204655.0 198714.0 130652.0 127119.0 14862.0 18187.0 131819.0 137290.0 21521.0 29168.0 169980.0 169517.0 17902.0 16582.0 302341.0 297696.0 211028.0 205594.0 128212.0 132974.0 154821.0 162578.0 94745.0 98127.0 314602.0 310440.0 34471.0 26360.0 51295.0 58999.0 160114.0 159188.0 136552.0 130723.0 13903.0 18831.0 277924.0 282410.0 37128.0 33135.0 189432.0 184606.0 359656.0 358528.0 184372.0 178364.0 178152.0 186052.0 129970.0 122739.0 280750.0 274365.0 322367.0 330251.0 100286.0 106255.0 285945.0 283407.0 12504.0 4241.0 84053.0 88089.0 58504.0 64153.0 38813.0 46609.0 24808.0 29663.0 181619.0 186555.0 154655.0 152378.0 164192.0 155789.0 0.0 7456.0 259380.0 262408.0 313401.0 305233.0 44834.0 42906.0 271287.0 274003.0 263331.0 263034.0 119218.0 124650.0 115911.0 118267.0 319745.0 319954.0 188617.0 196268.0 132540.0 128113.0 90224.0 91250.0 255644.0 251710.0 208244.0 205834.0 223032.0 228589.0 123757.0 118459.0 156497.0 149346.0 57108.0 191029.0 57108.0 57108.0 57108.0 57108.0 57108.0 57108.0 57108.0 191029.0 191029.0 191029.0 191029.0 191029.0 191029.0 191029.0
103185.0 95228.0 137857.0 138824.0 79698.0 72127.0 116638.0 109395.0 123800.0 116698.0 140364.0 148396.0 249274.0 245351.0 343055.0 349908.0 241701.0 234539.0 96180.0 89627.0 183164.0 179218.0 195697.0 203689.0 357861.0 349926.0 87567.0 79515.0 149178.0 155891.0 140207.0 148193.0 40547.0 40243.0 59056.0 62522.0 365456.0 358232.0 96841.0 102227.0 186683.0 179138.0 90860.0 98839.0 57063.0 62310.0 149332.0 146748.0 94188.0 95921.0 139802.0 136580.0 200985.0 194855.0 130207.0 126265.0 17281.0 23060.0 133725.0 139494.0 28723.0 36493.0 173811.0 173169.0 21604.0 17363.0 306805.0 302030.0 213721.0 208075.0 131236.0 136267.0 155953.0 163602.0 94721.0 98652.0 319140.0 314978.0 27135.0 19108.0 49414.0 57448.0 156710.0 156126.0 136333.0 130188.0 18404.0 24764.0 282462.0 286948.0 30433.0 27357.0 186373.0 181322.0 364195.0 363066.0 186354.0 180142.0 175468.0 183456.0 132360.0 125335.0 284895.0 278414.0 326905.0 334790.0 100996.0 106509.0 283741.0 281013.0 19957.0 11696.0 79175.0 83686.0 52582.0 58717.0 31594.0 39463.0 20997.0 27424.0 184317.0 189016.0 152047.0 150119.0 165996.0 157579.0 7456.0 0.0 258383.0 261615.0 317939.0 309772.0 40611.0 39944.0 275825.0 278541.0 259954.0 259864.0 119775.0 124832.0 111778.0 113718.0 324283.0 324492.0 187281.0 195044.0 134249.0 130191.0 88209.0 89878.0 259422.0 255313.0 206012.0 203340.0 226370.0 231752.0 125347.0 119699.0 158032.0 151102.0 63495.0 195567.0 63495.0 63495.0 63495.0 63495.0 63495.0 63495.0 63495.0 195567.0 195567.0 195567.0 195567.0 195567.0 195567.0 195567.0
155653.0 163633.0 136867.0 141537.0 179767.0 186718.0 143775.0 151911.0 134667.0 141687.0 127253.0 120108.0 171603.0 163834.0 296224.0 300743.0 71642.0 76306.0 163009.0 170306.0 134319.0 142309.0 191472.0 193807.0 276458.0 269158.0 170883.0 178911.0 115278.0 111712.0 154721.0 149010.0 218659.0 221730.0 234414.0 226323.0 286377.0 278651.0 165878.0 158809.0 77090.0 85004.0 196765.0 193964.0 209735.0 201877.0 140271.0 147925.0 164656.0 164464.0 145930.0 154164.0 103224.0 110901.0 129201.0 132263.0 274225.0 276102.0 145388.0 145503.0 256941.0 259223.0 164356.0 159806.0 243773.0 242806.0 217274.0 209220.0 125767.0 120344.0 163251.0 165194.0 118291.0 110815.0 165466.0 163810.0 258008.0 250221.0 262040.0 262039.0 209090.0 200961.0 121630.0 116776.0 124033.0 128962.0 247999.0 249007.0 234512.0 242448.0 241790.0 237819.0 95211.0 103125.0 305345.0 299757.0 114453.0 113073.0 96087.0 88504.0 152935.0 160425.0 193009.0 186279.0 267820.0 272612.0 162541.0 155065.0 51939.0 57028.0 261123.0 259925.0 195764.0 187968.0 223060.0 214805.0 247781.0 244394.0 238212.0 231010.0 132499.0 124969.0 114505.0 112989.0 121861.0 127005.0 259380.0 258383.0 0.0 7817.0 273976.0 265944.0 221697.0 219422.0 234402.0 229827.0 87051.0 79047.0 144157.0 137154.0 164309.0 168583.0 266261.0 271398.0 71667.0 63611.0 142523.0 150178.0 171032.0 168547.0 168664.0 160843.0 64975.0 72160.0 146184.0 140702.0 148119.0 149430.0 122591.0 130857.0 250760.0 197841.0 250760.0 250760.0 250760.0 250760.0 250760.0 250760.0 250760.0 197841.0 197841.0 197841.0 197841.0 197841.0 197841.0 197841.0
158606.0 166591.0 142369.0 147283.0 182608.0 189724.0 147849.0 156070.0 137815.0 145022.0 128543.0 121182.0 166291.0 158592.0 290298.0 294704.0 79453.0 84115.0 166717.0 174133.0 141498.0 149449.0 188292.0 190342.0 269716.0 262473.0 174049.0 182100.0 116838.0 112764.0 154417.0 148412.0 221666.0 224480.0 239118.0 231046.0 279630.0 271936.0 170101.0 162880.0 82506.0 90338.0 201947.0 199369.0 213864.0 205924.0 146462.0 154180.0 167623.0 167073.0 145994.0 154100.0 110588.0 118177.0 131893.0 135356.0 277267.0 278932.0 145921.0 145608.0 259367.0 261427.0 162122.0 157647.0 246557.0 245826.0 210824.0 202780.0 121832.0 116784.0 163193.0 164805.0 118690.0 111028.0 168115.0 166110.0 251882.0 244064.0 265984.0 265771.0 212449.0 204275.0 127596.0 122470.0 126439.0 131740.0 250805.0 251591.0 228995.0 236950.0 245732.0 241565.0 101857.0 109762.0 298981.0 293307.0 112465.0 111621.0 102037.0 94635.0 153192.0 160819.0 186814.0 180186.0 261673.0 266350.0 164701.0 157428.0 57469.0 63110.0 263806.0 262837.0 200460.0 192604.0 227406.0 219185.0 251825.0 248631.0 241617.0 234302.0 130159.0 122501.0 119687.0 117775.0 121126.0 126678.0 262408.0 261615.0 7817.0 0.0 268275.0 260285.0 225450.0 222931.0 229091.0 224343.0 94623.0 86590.0 146104.0 139326.0 169489.0 173997.0 260155.0 265391.0 75852.0 67661.0 143183.0 150716.0 174718.0 171922.0 162968.0 155209.0 71548.0 78927.0 141601.0 135863.0 149153.0 150869.0 122483.0 130841.0 252484.0 194778.0 252484.0 252484.0 252484.0 252484.0 252484.0 252484.0 252484.0 194778.0 194778.0 194778.0 194778.0 194778.0 194778.0 194778.0
260920.0 263225.0 308411.0 316349.0 265625.0 272073.0 280773.0 285515.0 260088.0 265228.0 226904.0 224304.0 103285.0 111265.0 25228.0 32458.0 331860.0 332003.0 279643.0 285190.0 349823.0 354211.0 122474.0 114611.0 60542.0 56123.0 270155.0 273534.0 232314.0 225444.0 194940.0 190517.0 286863.0 281951.0 342581.0 337949.0 63039.0 59066.0 292587.0 286205.0 283560.0 284753.0 332903.0 337413.0 311625.0 305245.0 326384.0 332523.0 263700.0 255770.0 203308.0 199703.0 333868.0 336538.0 250911.0 258616.0 324862.0 321365.0 212021.0 204128.0 297062.0 294411.0 154408.0 157814.0 296335.0 301765.0 67941.0 74217.0 156563.0 164495.0 198891.0 191783.0 214598.0 214192.0 256905.0 248907.0 27211.0 33350.0 339663.0 333847.0 290956.0 285737.0 311089.0 303115.0 245552.0 252427.0 299763.0 294906.0 40278.0 32831.0 325797.0 317843.0 311609.0 315794.0 49264.0 50233.0 185129.0 192171.0 298855.0 298718.0 206073.0 208366.0 84170.0 89529.0 24271.0 30237.0 245622.0 248458.0 325725.0 330993.0 306182.0 310831.0 319148.0 313350.0 325182.0 321333.0 332594.0 335785.0 308911.0 301430.0 169490.0 172679.0 292227.0 284450.0 197202.0 201291.0 313401.0 317939.0 273976.0 268275.0 0.0 8282.0 308229.0 300405.0 43162.0 45141.0 353423.0 346432.0 238665.0 242285.0 314666.0 322833.0 22567.0 16121.0 267337.0 265445.0 214629.0 211725.0 282191.0 274125.0 105318.0 113139.0 295263.0 301753.0 132704.0 135981.0 221342.0 229212.0 205963.0 205042.0 280842.0 124149.0 280842.0 280842.0 280842.0 280842.0 280842.0 280842.0 280842.0 124149.0 124149.0 124149.0 124149.0 124149.0 124149.0 124149.0
252753.0 255057.0 300234.0 308170.0 257458.0 263906.0 272605.0 277347.0 251921.0 257060.0 218705.0 216134.0 95087.0 103062.0 33284.0 40238.0 323622.0 323746.0 271475.0 277023.0 341599.0 346009.0 114307.0 106444.0 62504.0 57170.0 261988.0 265366.0 224146.0 217279.0 186773.0 182350.0 278696.0 273784.0 334414.0 329782.0 66179.0 61365.0 284419.0 278038.0 275283.0 276486.0 324736.0 329246.0 303458.0 297078.0 318223.0 324349.0 255533.0 247602.0 195140.0 191536.0 325592.0 328271.0 242697.0 250387.0 316695.0 313198.0 203854.0 195961.0 288895.0 286244.0 146241.0 149646.0 288167.0 293598.0 62160.0 67989.0 148284.0 156213.0 190723.0 183616.0 206431.0 206001.0 248738.0 240740.0 24960.0 29523.0 331496.0 325680.0 282789.0 277570.0 302911.0 294931.0 237365.0 244215.0 291596.0 286739.0 32013.0 24552.0 317630.0 309676.0 303341.0 307539.0 55828.0 55954.0 176874.0 183932.0 290603.0 290449.0 197906.0 200199.0 76892.0 81997.0 25194.0 32462.0 237455.0 240291.0 317723.0 322952.0 298014.0 302664.0 310981.0 305182.0 317014.0 313166.0 324427.0 327618.0 300744.0 293263.0 161291.0 164437.0 284053.0 276282.0 189030.0 193120.0 305233.0 309772.0 265944.0 260285.0 8282.0 0.0 300062.0 292238.0 34974.0 36872.0 345210.0 338233.0 230498.0 234117.0 306498.0 314665.0 22884.0 18508.0 259057.0 257163.0 206462.0 203558.0 274024.0 265957.0 97317.0 105102.0 286984.0 293472.0 124431.0 127743.0 213175.0 221044.0 197796.0 196848.0 272674.0 115982.0 272674.0 272674.0 272674.0 272674.0 272674.0 272674.0 272674.0 115982.0 115982.0 115982.0 115982.0 115982.0 115982.0 115982.0
69765.0 62338.0 97360.0 98214.0 49678.0 41512.0 78243.0 70488.0 88636.0 80949.0 111074.0 118808.0 233565.0 228607.0 333345.0 340198.0 201492.0 194239.0 58734.0 51406.0 142862.0 139182.0 185951.0 193940.0 347715.0 339678.0 53694.0 46013.0 117815.0 125387.0 120765.0 127999.0 23743.0 31510.0 35806.0 33803.0 355569.0 348216.0 57224.0 63368.0 148069.0 140351.0 53008.0 61161.0 16906.0 21742.0 108777.0 106392.0 61324.0 65539.0 117400.0 116428.0 160395.0 154243.0 96470.0 91239.0 57890.0 62947.0 109870.0 116891.0 56298.0 63462.0 159011.0 157314.0 38585.0 31951.0 293735.0 288164.0 191646.0 185023.0 113414.0 119727.0 127737.0 134737.0 64192.0 70265.0 309425.0 305129.0 41011.0 40342.0 17736.0 24884.0 116252.0 115953.0 103248.0 96142.0 40750.0 47041.0 272752.0 277238.0 21207.0 16121.0 146156.0 140923.0 354485.0 353356.0 161285.0 154247.0 135706.0 143795.0 111038.0 105472.0 270021.0 263018.0 317155.0 325061.0 73287.0 76422.0 244492.0 241479.0 53254.0 47503.0 39487.0 43257.0 19971.0 21723.0 28126.0 28515.0 20025.0 17589.0 162851.0 166231.0 112466.0 111144.0 140561.0 132306.0 44834.0 40611.0 221697.0 225450.0 308229.0 300062.0 0.0 8219.0 266115.0 268802.0 219463.0 219503.0 90319.0 93622.0 71199.0 73436.0 314523.0 314782.0 150091.0 158089.0 109413.0 107363.0 50743.0 54388.0 242630.0 237552.0 166861.0 163781.0 207529.0 211862.0 100338.0 93312.0 131558.0 125864.0 76270.0 185857.0 76270.0 76270.0 76270.0 76270.0 76270.0 76270.0 76270.0 185857.0 185857.0 185857.0 185857.0 185857.0 185857.0 185857.0
65686.0 57981.0 98469.0 99972.0 44148.0 35979.0 76826.0 69476.0 85410.0 77960.0 105953.0 113802.0 226391.0 221547.0 325521.0 332374.0 201893.0 194794.0 56589.0 49787.0 145677.0 142394.0 178139.0 186131.0 340018.0 331996.0 49626.0 41667.0 113316.0 120662.0 113792.0 121162.0 15610.0 23577.0 44024.0 41838.0 347823.0 340495.0 56937.0 62307.0 146885.0 139291.0 58491.0 66604.0 21829.0 24033.0 111051.0 109215.0 56945.0 60371.0 110858.0 109534.0 161794.0 155944.0 92689.0 87964.0 56934.0 61056.0 103543.0 110380.0 51447.0 58165.0 151612.0 150023.0 33644.0 28112.0 286341.0 280845.0 185279.0 178808.0 106198.0 112390.0 122417.0 129605.0 59052.0 64597.0 301606.0 297368.0 45493.0 43440.0 11368.0 19464.0 117209.0 116342.0 99257.0 92480.0 36449.0 41961.0 264922.0 269414.0 26930.0 20133.0 146593.0 141707.0 346660.0 345532.0 155386.0 148496.0 135540.0 143516.0 104291.0 98479.0 262793.0 255840.0 309287.0 317204.0 67484.0 71284.0 243829.0 241071.0 49712.0 44958.0 43936.0 46462.0 27970.0 28631.0 34032.0 35660.0 19041.0 13428.0 156320.0 159926.0 112106.0 110220.0 134672.0 126355.0 42906.0 39944.0 219422.0 222931.0 300405.0 292238.0 8219.0 0.0 258291.0 260999.0 220426.0 220164.0 85119.0 88954.0 73531.0 76581.0 306749.0 306958.0 148015.0 155896.0 103268.0 100840.0 48568.0 51082.0 235593.0 230629.0 166104.0 163396.0 200706.0 205193.0 94173.0 87385.0 125853.0 119879.0 68795.0 178033.0 68795.0 68795.0 68795.0 68795.0 68795.0 68795.0 68795.0 178033.0 178033.0 178033.0 178033.0 178033.0 178033.0 178033.0
218176.0 220594.0 265321.0 273265.0 223274.0 229817.0 237819.0 242629.0 217097.0 222296.0 183856.0 181197.0 62806.0 70579.0 68247.0 75015.0 290090.0 289963.0 236924.0 242549.0 306668.0 311049.0 80254.0 72322.0 84356.0 76973.0 227611.0 231112.0 189186.0 182305.0 152218.0 147664.0 244750.0 239838.0 300467.0 295820.0 90958.0 84264.0 249839.0 243398.0 240665.0 241732.0 290302.0 294733.0 269469.0 262998.0 283271.0 289423.0 221084.0 213185.0 160449.0 156985.0 290948.0 293515.0 207882.0 215605.0 282748.0 279252.0 169174.0 161265.0 254949.0 252298.0 111617.0 114942.0 254221.0 259652.0 52757.0 54678.0 114158.0 121920.0 156371.0 149294.0 171467.0 171032.0 214333.0 206338.0 43952.0 41243.0 297549.0 291734.0 248815.0 243667.0 267938.0 259959.0 202484.0 209394.0 257650.0 252792.0 8493.0 11165.0 283683.0 275729.0 268597.0 272710.0 88714.0 87266.0 142055.0 149045.0 255761.0 255716.0 163346.0 165796.0 54664.0 57164.0 51149.0 59099.0 203042.0 205744.0 286327.0 291243.0 264068.0 268718.0 276656.0 270781.0 283145.0 279170.0 290481.0 293672.0 266797.0 259317.0 126328.0 129562.0 249079.0 241308.0 154057.0 158191.0 271287.0 275825.0 234402.0 229091.0 43162.0 34974.0 266115.0 258291.0 0.0 8428.0 311953.0 305120.0 195810.0 199340.0 271776.0 279942.0 48507.0 48819.0 224505.0 222812.0 171743.0 168958.0 239579.0 231519.0 67330.0 74557.0 252758.0 259124.0 90576.0 94548.0 178550.0 186440.0 162842.0 161988.0 238728.0 81174.0 238728.0 238728.0 238728.0 238728.0 238728.0 238728.0 238728.0 81174.0 81174.0 81174.0 81174.0 81174.0 81174.0 81174.0
219260.0 221965.0 265054.0 273021.0 225240.0 231956.0 238219.0 243267.0 217363.0 222792.0 183892.0 180886.0 58446.0 66381.0 69542.0 75764.0 286789.0 286881.0 238058.0 243873.0 305411.0 309977.0 82861.0 74868.0 79828.0 72147.0 229174.0 232934.0 188701.0 181606.0 153454.0 148529.0 247433.0 242553.0 302956.0 298130.0 87037.0 79988.0 250884.0 244282.0 238605.0 239941.0 291691.0 295925.0 271751.0 265124.0 282782.0 289080.0 222489.0 214673.0 161273.0 158223.0 288924.0 291716.0 207987.0 215787.0 285464.0 281967.0 170021.0 162072.0 257664.0 255013.0 112771.0 115834.0 256937.0 262367.0 44441.0 46250.0 111444.0 119414.0 158088.0 151091.0 170967.0 170138.0 215848.0 207869.0 40655.0 36623.0 300265.0 294449.0 251469.0 246115.0 267077.0 259060.0 202394.0 209482.0 260365.0 255508.0 4870.0 12630.0 286361.0 278390.0 266778.0 271096.0 87755.0 85560.0 140489.0 147689.0 254189.0 253876.0 164550.0 167382.0 46836.0 49846.0 48906.0 56587.0 204550.0 206921.0 281700.0 286774.0 266783.0 271433.0 278294.0 272256.0 285618.0 281435.0 293131.0 296385.0 269513.0 262032.0 125432.0 128187.0 248258.0 240528.0 153428.0 157952.0 274003.0 278541.0 229827.0 224343.0 45141.0 36872.0 268802.0 260999.0 8428.0 0.0 308438.0 301498.0 196591.0 199809.0 272380.0 280540.0 46375.0 47969.0 222338.0 220352.0 172458.0 170041.0 240976.0 232939.0 61739.0 69260.0 250137.0 256655.0 87564.0 90923.0 179545.0 187484.0 162439.0 162022.0 241444.0 84457.0 241444.0 241444.0 241444.0 241444.0 241444.0 241444.0 241444.0 84457.0 84457.0 84457.0 84457.0 84457.0 84457.0 84457.0
170380.0 177146.0 122106.0 121761.0 192552.0 196852.0 147417.0 152977.0 150849.0 154470.0 162970.0 158920.0 250144.0 242160.0 376808.0 381939.0 23290.0 27441.0 167906.0 172688.0 86211.0 93535.0 256317.0 260513.0 361249.0 353718.0 181075.0 187832.0 150824.0 152252.0 200347.0 197558.0 225736.0 231518.0 218501.0 210778.0 371164.0 363320.0 163862.0 159847.0 86422.0 91022.0 177340.0 171420.0 203729.0 197721.0 112937.0 117761.0 177939.0 181704.0 189474.0 197868.0 59719.0 67004.0 151282.0 149519.0 277174.0 281459.0 185057.0 188757.0 268011.0 272639.0 223912.0 219119.0 251585.0 247911.0 300987.0 292930.0 198361.0 191182.0 206003.0 210540.0 162909.0 158108.0 182143.0 184399.0 339908.0 332325.0 254489.0 257199.0 212813.0 206009.0 103247.0 104433.0 150003.0 150197.0 255271.0 258768.0 313261.0 321004.0 235586.0 234412.0 74488.0 78746.0 388256.0 383122.0 176422.0 171755.0 87626.0 80904.0 194080.0 199583.0 275705.0 268555.0 349770.0 355138.0 184744.0 176189.0 51844.0 43951.0 269010.0 265222.0 183517.0 177450.0 212984.0 204987.0 239841.0 234129.0 239008.0 233718.0 195047.0 188966.0 110629.0 115021.0 174503.0 175959.0 263331.0 259954.0 87051.0 94623.0 353423.0 345210.0 219463.0 220426.0 311953.0 308438.0 0.0 8118.0 171072.0 162996.0 149204.0 149223.0 348007.0 352576.0 97637.0 95322.0 181461.0 189225.0 175051.0 176618.0 249232.0 241231.0 66812.0 64390.0 221448.0 217529.0 183029.0 180439.0 170481.0 176901.0 270462.0 261626.0 270462.0 270462.0 270462.0 270462.0 270462.0 270462.0 270462.0 261626.0 261626.0 261626.0 261626.0 261626.0 261626.0 261626.0
168391.0 175344.0 122232.0 122418.0 190969.0 195552.0 146155.0 152046.0 148471.0 152455.0 159057.0 154704.0 243148.0 235171.0 369709.0 374777.0 19338.0 25463.0 166804.0 171880.0 89417.0 97009.0 250543.0 254588.0 353661.0 346158.0 179621.0 186563.0 146771.0 147813.0 195945.0 192894.0 224937.0 230503.0 219862.0 212051.0 363578.0 355748.0 163374.0 159012.0 82912.0 88050.0 178732.0 173073.0 204019.0 197784.0 114245.0 119491.0 176167.0 179609.0 185166.0 193609.0 61167.0 68919.0 148383.0 147023.0 277033.0 281110.0 181036.0 184467.0 267071.0 271502.0 218478.0 213684.0 250868.0 247428.0 293510.0 285449.0 191760.0 184693.0 201881.0 206228.0 158270.0 153204.0 180104.0 182029.0 332650.0 325041.0 255241.0 257704.0 212241.0 205260.0 103299.0 103856.0 146746.0 147356.0 254623.0 257905.0 306312.0 314080.0 236108.0 234659.0 73643.0 78584.0 380903.0 375715.0 170544.0 166096.0 86009.0 78862.0 190009.0 195721.0 268326.0 261215.0 342511.0 347818.0 182233.0 173687.0 44542.0 36825.0 268370.0 264808.0 184246.0 177949.0 213737.0 205657.0 240553.0 235033.0 238882.0 233380.0 189233.0 183005.0 109341.0 113259.0 169336.0 171098.0 263034.0 259864.0 79047.0 86590.0 346432.0 338233.0 219503.0 220164.0 305120.0 301498.0 8118.0 0.0 168003.0 159926.0 149831.0 150290.0 340770.0 345403.0 93143.0 90280.0 177470.0 185292.0 174113.0 175315.0 242043.0 234050.0 62750.0 61216.0 214690.0 210628.0 179392.0 177113.0 165656.0 172283.0 268692.0 255959.0 268692.0 268692.0 268692.0 268692.0 268692.0 268692.0 268692.0 255959.0 255959.0 255959.0 255959.0 255959.0 255959.0 255959.0
23735.0 29071.0 74610.0 81948.0 40995.0 49142.0 42959.0 46904.0 24539.0 27289.0 20841.0 28763.0 151859.0 145749.0 263782.0 270635.0 148676.0 143635.0 42290.0 49116.0 124828.0 126561.0 118066.0 125334.0 271692.0 263472.0 37814.0 44652.0 29823.0 36119.0 44387.0 48149.0 79278.0 80366.0 116880.0 110203.0 280407.0 272638.0 54620.0 47723.0 85210.0 80055.0 96387.0 99846.0 85322.0 77244.0 93817.0 98348.0 29955.0 24789.0 35361.0 39783.0 122986.0 121237.0 20035.0 24384.0 133943.0 134533.0 26648.0 34546.0 113718.0 115407.0 84300.0 80869.0 102270.0 102887.0 213669.0 207213.0 104023.0 96700.0 43686.0 50558.0 37427.0 44487.0 26131.0 21125.0 236611.0 231089.0 130612.0 128132.0 73758.0 65730.0 84131.0 77674.0 21542.0 21314.0 106577.0 106434.0 201097.0 206896.0 111469.0 105231.0 100635.0 100249.0 284277.0 282099.0 71933.0 64511.0 85814.0 91035.0 33509.0 34374.0 188258.0 180791.0 245393.0 252872.0 19002.0 13899.0 179092.0 178480.0 118925.0 118992.0 84747.0 77732.0 100560.0 94003.0 118442.0 118071.0 101796.0 93760.0 76978.0 78696.0 67206.0 60182.0 51451.0 43692.0 119218.0 119775.0 144157.0 146104.0 238665.0 230498.0 90319.0 85119.0 195810.0 196591.0 171072.0 168003.0 0.0 8078.0 76046.0 84210.0 242910.0 244366.0 78364.0 84495.0 24149.0 27504.0 46900.0 39558.0 159270.0 153198.0 105787.0 106815.0 122852.0 125871.0 17813.0 11022.0 41918.0 37685.0 106667.0 119965.0 106667.0 106667.0 106667.0 106667.0 106667.0 106667.0 106667.0 119965.0 119965.0 119965.0 119965.0 119965.0 119965.0 119965.0
24509.0 31342.0 68636.0 76187.0 45283.0 53221.0 38494.0 43606.0 18360.0 22983.0 18535.0 25570.0 153455.0 147079.0 267401.0 274229.0 140599.0 135561.0 41664.0 49095.0 117924.0 119944.0 122581.0 129655.0 273987.0 265756.0 40118.0 47611.0 24423.0 31765.0 49405.0 52126.0 84289.0 85984.0 118330.0 111347.0 282830.0 275010.0 53062.0 45589.0 77146.0 71978.0 95181.0 98027.0 87260.0 79032.0 87727.0 92636.0 32337.0 28938.0 39454.0 45020.0 115222.0 113647.0 12156.0 17608.0 139452.0 140387.0 31099.0 38598.0 120110.0 122112.0 88265.0 84564.0 108021.0 108189.0 215344.0 208712.0 103961.0 96325.0 49935.0 56543.0 35448.0 41624.0 30176.0 26855.0 239560.0 233856.0 134331.0 132274.0 77672.0 69490.0 77114.0 70427.0 13650.0 13535.0 112317.0 112555.0 204381.0 210372.0 114830.0 108943.0 92751.0 92536.0 287561.0 285182.0 71088.0 63366.0 77901.0 83021.0 39000.0 41004.0 189640.0 182091.0 248476.0 255865.0 25389.0 18403.0 171316.0 170611.0 124940.0 124628.0 84568.0 77196.0 102476.0 95528.0 121704.0 120836.0 106255.0 98345.0 78062.0 78977.0 59789.0 52598.0 51208.0 44114.0 124650.0 124832.0 137154.0 139326.0 242285.0 234117.0 93622.0 88954.0 199340.0 199809.0 162996.0 159926.0 8078.0 0.0 72611.0 80760.0 246025.0 247702.0 70543.0 76834.0 28009.0 32950.0 47387.0 40788.0 160375.0 154043.0 97736.0 98737.0 123807.0 126336.0 23702.0 18274.0 41384.0 38711.0 113965.0 124850.0 113965.0 113965.0 113965.0 113965.0 113965.0 113965.0 113965.0 124850.0 124850.0 124850.0 124850.0 124850.0 124850.0 124850.0
55164.0 55556.0 28607.0 27444.0 62600.0 61940.0 34617.0 29152.0 55716.0 49642.0 89497.0 94190.0 225396.0 218748.0 339782.0 346555.0 132565.0 124968.0 38148.0 36383.0 72234.0 69428.0 193976.0 201322.0 346379.0 338145.0 52222.0 54308.0 88155.0 96480.0 120256.0 124165.0 82406.0 89768.0 71604.0 63533.0 355295.0 347448.0 25702.0 29516.0 87257.0 79316.0 32461.0 30605.0 54856.0 49713.0 37591.0 35906.0 55523.0 63496.0 111374.0 115565.0 89679.0 83211.0 65685.0 57679.0 129057.0 134079.0 102687.0 110548.0 124204.0 130183.0 160341.0 156852.0 106673.0 101640.0 287241.0 280412.0 173835.0 165732.0 118136.0 125291.0 104764.0 108496.0 62794.0 70108.0 312171.0 306451.0 105413.0 107998.0 68309.0 63515.0 47101.0 49028.0 72282.0 64336.0 109819.0 114661.0 276932.0 282840.0 86385.0 85491.0 77883.0 71682.0 360121.0 357786.0 140268.0 132272.0 70221.0 78462.0 109203.0 108437.0 261237.0 253601.0 321078.0 328474.0 72889.0 67722.0 178638.0 174711.0 123230.0 118312.0 34438.0 28309.0 63920.0 55827.0 90722.0 85326.0 91154.0 86939.0 149895.0 149848.0 49815.0 52325.0 122078.0 115898.0 115911.0 111778.0 164309.0 169489.0 314666.0 306498.0 71199.0 73531.0 271776.0 272380.0 149204.0 149831.0 76046.0 72611.0 0.0 8167.0 318623.0 320239.0 94836.0 103034.0 100037.0 103328.0 39985.0 46790.0 231695.0 225007.0 102900.0 98211.0 195117.0 196878.0 93615.0 85949.0 112307.0 111007.0 134550.0 195588.0 134550.0 134550.0 134550.0 134550.0 134550.0 134550.0 134550.0 195588.0 195588.0 195588.0 195588.0 195588.0 195588.0 195588.0
63185.0 63296.0 31768.0 28523.0 69503.0 68249.0 42661.0 37319.0 63764.0 57785.0 97563.0 102149.0 233434.0 226755.0 347949.0 354722.0 133554.0 125797.0 45835.0 43420.0 69452.0 65831.0 202120.0 209475.0 354469.0 346235.0 59521.0 61030.0 95975.0 104262.0 128404.0 132332.0 86596.0 94244.0 69756.0 61842.0 363398.0 355546.0 33062.0 37479.0 91519.0 83659.0 29047.0 25382.0 56682.0 52549.0 36393.0 33041.0 63216.0 71253.0 119540.0 123709.0 89506.0 82558.0 73686.0 65683.0 130943.0 136349.0 110852.0 118715.0 127786.0 134054.0 168507.0 165019.0 110089.0 104623.0 295263.0 288411.0 181696.0 173563.0 126214.0 133376.0 112712.0 116305.0 70506.0 77931.0 320318.0 314588.0 105410.0 108581.0 72404.0 68311.0 49054.0 52189.0 80205.0 72317.0 113028.0 118242.0 285094.0 291006.0 87043.0 86903.0 79708.0 73022.0 368283.0 365939.0 148120.0 140122.0 73408.0 81548.0 117345.0 116512.0 269226.0 261582.0 329233.0 336624.0 80767.0 75766.0 180731.0 176493.0 126218.0 120893.0 34837.0 30217.0 64001.0 56248.0 90845.0 84929.0 93460.0 89862.0 157943.0 157815.0 54506.0 57879.0 130076.0 123965.0 118267.0 113718.0 168583.0 173997.0 322833.0 314665.0 73436.0 76581.0 279942.0 280540.0 149223.0 150290.0 84210.0 80760.0 8167.0 0.0 326778.0 328402.0 100117.0 108240.0 108204.0 111478.0 47032.0 54169.0 239661.0 232937.0 106099.0 100936.0 203095.0 204780.0 101767.0 94087.0 120323.0 119115.0 139846.0 203707.0 139846.0 139846.0 139846.0 139846.0 139846.0 139846.0 139846.0 203707.0 203707.0 203707.0 203707.0 203707.0 203707.0 203707.0
265627.0 268336.0 310758.0 318738.0 271476.0 278116.0 284386.0 289531.0 263473.0 269008.0 229897.0 226647.0 99379.0 107286.0 31693.0 34728.0 327059.0 327744.0 284428.0 290248.0 349924.0 354745.0 128674.0 120714.0 39744.0 34295.0 275524.0 279223.0 234303.0 227017.0 199828.0 194879.0 293207.0 288295.0 348912.0 344204.0 44180.0 38769.0 297244.0 290614.0 281920.0 283734.0 338063.0 342297.0 317839.0 311295.0 328265.0 334697.0 268858.0 261033.0 207612.0 204597.0 332173.0 335375.0 254011.0 261852.0 331206.0 327709.0 216361.0 208408.0 303406.0 300755.0 159146.0 162197.0 302679.0 308109.0 52203.0 59589.0 154361.0 162617.0 204393.0 197370.0 216588.0 215373.0 262205.0 254222.0 8332.0 16285.0 346007.0 340191.0 297295.0 292095.0 312168.0 304115.0 248295.0 255494.0 306107.0 301250.0 42039.0 37500.0 332141.0 324187.0 310455.0 315113.0 41892.0 39193.0 185014.0 192459.0 298308.0 297547.0 210925.0 213720.0 73415.0 79983.0 2678.0 10717.0 250906.0 253294.0 317559.0 323215.0 312526.0 317175.0 324634.0 318621.0 331585.0 327534.0 338938.0 342129.0 315255.0 307774.0 170819.0 173031.0 293421.0 285749.0 198974.0 203807.0 319745.0 324283.0 266261.0 260155.0 22567.0 22884.0 314523.0 306749.0 48507.0 46375.0 348007.0 340770.0 242910.0 246025.0 318623.0 326778.0 0.0 7469.0 265506.0 262940.0 218769.0 216412.0 287347.0 279308.0 98826.0 106838.0 292257.0 299086.0 130329.0 132321.0 225907.0 233850.0 208159.0 208051.0 287186.0 129679.0 287186.0 287186.0 287186.0 287186.0 287186.0 287186.0 287186.0 129679.0 129679.0 129679.0 129679.0 129679.0 129679.0 129679.0
266875.0 269376.0 313005.0 320974.0 272075.0 278582.0 286135.0 291110.0 265305.0 270680.0 231858.0 228840.0 103180.0 111144.0 25269.0 29390.0 331452.0 331987.0 285644.0 291323.0 352914.0 357605.0 128981.0 121080.0 44580.0 40002.0 276422.0 279928.0 236624.0 229471.0 200952.0 196249.0 293416.0 288504.0 349080.0 344515.0 47731.0 43234.0 298528.0 292015.0 285391.0 287023.0 339094.0 343477.0 318181.0 311760.0 330684.0 337016.0 269873.0 261987.0 209018.0 205721.0 335689.0 338735.0 255949.0 263742.0 331415.0 327918.0 217757.0 209826.0 303615.0 300964.0 160306.0 163523.0 302888.0 308318.0 58849.0 66024.0 157845.0 166022.0 205189.0 198112.0 218892.0 217936.0 263139.0 255145.0 14879.0 22671.0 346216.0 340400.0 297509.0 292319.0 314840.0 306807.0 250363.0 257445.0 306316.0 301459.0 43330.0 37654.0 332350.0 324396.0 313801.0 318321.0 39932.0 38674.0 187932.0 195266.0 301466.0 300890.0 212074.0 214605.0 78967.0 85255.0 8434.0 14253.0 251845.0 254472.0 322836.0 328395.0 312734.0 317384.0 325473.0 319585.0 331771.0 327887.0 339147.0 342338.0 315464.0 307983.0 173270.0 175787.0 296047.0 288338.0 201329.0 205916.0 319954.0 324492.0 271398.0 265391.0 16121.0 18508.0 314782.0 306958.0 48819.0 47969.0 352576.0 345403.0 244366.0 247702.0 320239.0 328402.0 7469.0 0.0 269022.0 266650.0 220256.0 217646.0 288368.0 280312.0 103361.0 111353.0 296130.0 302866.0 133802.0 136174.0 227205.0 235117.0 210384.0 209986.0 287395.0 129575.0 287395.0 287395.0 287395.0 287395.0 287395.0 287395.0 287395.0 129575.0 129575.0 129575.0 129575.0 129575.0 129575.0 129575.0
85566.0 93448.0 69414.0 75601.0 109758.0 116249.0 72110.0 80270.0 64305.0 70791.0 66467.0 61647.0 166172.0 158334.0 291860.0 297836.0 74380.0 71185.0 91479.0 98686.0 87509.0 93815.0 161224.0 166174.0 285327.0 277297.0 100148.0 108088.0 53972.0 54674.0 102805.0 99926.0 148048.0 151696.0 163403.0 155354.0 294998.0 286982.0 94273.0 87145.0 16497.0 20413.0 127118.0 125243.0 138092.0 130214.0 78260.0 86183.0 94440.0 95333.0 92033.0 100491.0 66671.0 70147.0 60543.0 62098.0 203411.0 205701.0 88154.0 91340.0 187618.0 190563.0 127622.0 122860.0 173569.0 172096.0 223938.0 216185.0 111180.0 103016.0 108848.0 113090.0 65278.0 60757.0 96188.0 95827.0 257872.0 250857.0 190374.0 190431.0 137884.0 129841.0 58540.0 51563.0 56892.0 59962.0 177728.0 179282.0 227204.0 234506.0 170124.0 166211.0 45476.0 51249.0 307114.0 303039.0 83189.0 77185.0 35972.0 32794.0 97042.0 103055.0 197394.0 189722.0 267588.0 273908.0 95163.0 87022.0 100784.0 100135.0 191098.0 189390.0 124766.0 116863.0 151556.0 143333.0 176120.0 172808.0 166900.0 159861.0 100907.0 95970.0 45826.0 42537.0 77684.0 78487.0 188617.0 187281.0 71667.0 75852.0 267337.0 259057.0 150091.0 148015.0 224505.0 222338.0 97637.0 93143.0 78364.0 70543.0 94836.0 100117.0 265506.0 269022.0 0.0 8254.0 84642.0 92534.0 99509.0 97425.0 168325.0 160504.0 31032.0 35617.0 135224.0 133399.0 87342.0 86134.0 72976.0 79265.0 183973.0 166018.0 183973.0 183973.0 183973.0 183973.0 183973.0 183973.0 183973.0 166018.0 166018.0 166018.0 166018.0 166018.0 166018.0 166018.0
92926.0 100853.0 77373.0 83392.0 117131.0 123771.0 80224.0 88418.0 71714.0 78417.0 71228.0 65758.0 163564.0 155658.0 289787.0 295616.0 72051.0 69705.0 99419.0 106695.0 92662.0 99303.0 161729.0 166356.0 281789.0 273810.0 107745.0 115722.0 58631.0 58263.0 106193.0 102753.0 155635.0 159115.0 171649.0 163602.0 291514.0 283505.0 102442.0 95260.0 21327.0 27019.0 135340.0 133406.0 146229.0 138323.0 85535.0 93473.0 101856.0 102425.0 95668.0 104186.0 69700.0 73977.0 67365.0 69430.0 211081.0 213249.0 92418.0 95019.0 194874.0 197661.0 128744.0 123956.0 181049.0 179725.0 220394.0 212570.0 108932.0 100950.0 112770.0 116624.0 68230.0 62930.0 103324.0 102607.0 255209.0 248082.0 198452.0 198431.0 145675.0 137596.0 65803.0 59095.0 63223.0 66890.0 185229.0 186635.0 225222.0 232632.0 178200.0 174211.0 49933.0 56372.0 304399.0 300148.0 82620.0 77192.0 42191.0 37821.0 101134.0 107502.0 193941.0 186319.0 264972.0 271145.0 101784.0 93789.0 94723.0 94558.0 198537.0 196971.0 133015.0 125108.0 159749.0 151535.0 184231.0 180974.0 174741.0 167636.0 100826.0 95387.0 53849.0 50760.0 79183.0 80832.0 196268.0 195044.0 63611.0 67661.0 265445.0 257163.0 158089.0 155896.0 222812.0 220352.0 95322.0 90280.0 84495.0 76834.0 103034.0 108240.0 262940.0 266650.0 8254.0 0.0 88999.0 96933.0 107446.0 105166.0 165163.0 157270.0 30242.0 36314.0 132921.0 130635.0 92359.0 91713.0 75410.0 82234.0 190633.0 166783.0 190633.0 190633.0 190633.0 190633.0 190633.0 190633.0 190633.0 166783.0 166783.0 166783.0 166783.0 166783.0 166783.0 166783.0
47404.0 51514.0 96378.0 104030.0 59948.0 68003.0 66367.0 70887.0 46303.0 50713.0 18553.0 23289.0 128190.0 122282.0 239746.0 246598.0 158413.0 154339.0 66183.0 72671.0 144332.0 146860.0 94573.0 101673.0 247633.0 239417.0 59795.0 65544.0 30708.0 31289.0 21756.0 24182.0 94773.0 94011.0 138531.0 132259.0 256313.0 248558.0 78704.0 71872.0 95195.0 91679.0 120275.0 123917.0 106632.0 98851.0 115335.0 120477.0 52246.0 45442.0 11448.0 17782.0 138537.0 137941.0 38378.0 45279.0 146787.0 146146.0 3661.0 10596.0 123525.0 123722.0 60376.0 56816.0 114847.0 116927.0 189892.0 183548.0 82350.0 75611.0 24737.0 30262.0 24762.0 32751.0 46780.0 39567.0 212462.0 206946.0 148339.0 144921.0 92019.0 84533.0 103513.0 96341.0 35202.0 39936.0 119095.0 117533.0 176975.0 182815.0 130149.0 123282.0 115415.0 116389.0 260160.0 257956.0 52319.0 45894.0 100550.0 104345.0 12758.0 18511.0 164689.0 157292.0 221249.0 228724.0 36352.0 35783.0 182809.0 183259.0 130180.0 131631.0 108129.0 101361.0 121732.0 115738.0 137235.0 137774.0 118193.0 110003.0 54119.0 56887.0 85360.0 77731.0 31769.0 23352.0 132540.0 134249.0 142523.0 143183.0 214629.0 206462.0 109413.0 103268.0 171743.0 172458.0 181461.0 177470.0 24149.0 28009.0 100037.0 108204.0 218769.0 220256.0 84642.0 88999.0 0.0 7938.0 70180.0 62459.0 135961.0 130141.0 114751.0 117337.0 99787.0 103326.0 9096.0 16448.0 24129.0 16859.0 112043.0 96878.0 112043.0 112043.0 112043.0 112043.0 112043.0 112043.0 112043.0 96878.0 96878.0 96878.0 96878.0 96878.0 96878.0 96878.0
49230.0 52221.0 101567.0 109069.0 58575.0 66386.0 70455.0 74248.0 51257.0 54771.0 26255.0 31225.0 127848.0 122294.0 236842.0 243695.0 166209.0 162062.0 68017.0 73961.0 150492.0 152749.0 90654.0 98001.0 246168.0 237974.0 59989.0 64976.0 38573.0 39180.0 16929.0 21803.0 91378.0 89989.0 137752.0 131792.0 254696.0 247007.0 80884.0 74513.0 102898.0 99221.0 121791.0 125885.0 105802.0 98270.0 120676.0 125509.0 52832.0 45391.0 10039.0 12281.0 145635.0 144817.0 44218.0 50547.0 142143.0 141141.0 4795.0 9541.0 118140.0 117962.0 57344.0 54230.0 110298.0 112829.0 189225.0 183098.0 84484.0 78254.0 17487.0 23688.0 32059.0 39907.0 46665.0 38938.0 210302.0 205002.0 145448.0 141660.0 89754.0 82605.0 109639.0 102655.0 41863.0 45753.0 114500.0 112534.0 174474.0 180081.0 127769.0 120660.0 122603.0 123339.0 257577.0 255601.0 56264.0 50515.0 107708.0 111721.0 6057.0 10574.0 164432.0 157158.0 218925.0 226497.0 35595.0 36902.0 190727.0 191194.0 125150.0 126997.0 108960.0 102536.0 120722.0 115126.0 134872.0 135854.0 114928.0 106740.0 55495.0 59248.0 91768.0 84250.0 36378.0 28122.0 128113.0 130191.0 150178.0 150716.0 211725.0 203558.0 107363.0 100840.0 168958.0 170041.0 189225.0 185292.0 27504.0 32950.0 103328.0 111478.0 216412.0 217646.0 92534.0 96933.0 7938.0 0.0 71201.0 63254.0 136155.0 130673.0 122557.0 125036.0 100443.0 104532.0 9723.0 17487.0 30089.0 21982.0 105770.0 92464.0 105770.0 105770.0 105770.0 105770.0 105770.0 105770.0 105770.0 92464.0 92464.0 92464.0 92464.0 92464.0 92464.0 92464.0
23219.0 19016.0 55825.0 59831.0 22633.0 23178.0 28546.0 22077.0 38475.0 30566.0 65898.0 72839.0 198370.0 192423.0 307308.0 314161.0 155398.0 148650.0 8031.0 3612.0 107781.0 106487.0 160129.0 167800.0 317363.0 309166.0 12777.0 14648.0 70046.0 78182.0 87541.0 92983.0 50880.0 56473.0 71128.0 64004.0 325895.0 318207.0 14443.0 15306.0 98495.0 91005.0 50726.0 55447.0 40899.0 32592.0 72395.0 73310.0 18495.0 26468.0 80572.0 82776.0 118151.0 113376.0 47232.0 41117.0 104796.0 107931.0 71938.0 79848.0 92975.0 97654.0 128214.0 125335.0 76872.0 74030.0 260046.0 253728.0 150839.0 143395.0 83405.0 90572.0 82834.0 88832.0 25396.0 33373.0 281361.0 276150.0 91506.0 91053.0 38938.0 31374.0 73200.0 70725.0 54368.0 46644.0 80736.0 83793.0 245343.0 250733.0 71314.0 66850.0 100589.0 96628.0 328289.0 326511.0 118341.0 110693.0 88426.0 96150.0 76485.0 73845.0 234863.0 227449.0 289882.0 297510.0 36609.0 34458.0 195720.0 193227.0 94463.0 91512.0 37951.0 31337.0 55853.0 48486.0 77714.0 75563.0 67548.0 60847.0 123829.0 125569.0 64906.0 62188.0 98130.0 90543.0 90224.0 88209.0 171032.0 174718.0 282191.0 274024.0 50743.0 48568.0 239579.0 240976.0 175051.0 174113.0 46900.0 47387.0 39985.0 47032.0 287347.0 288368.0 99509.0 107446.0 70180.0 71201.0 0.0 8076.0 206034.0 200047.0 118024.0 115767.0 169690.0 172770.0 62052.0 54076.0 88426.0 84585.0 97835.0 160920.0 97835.0 97835.0 97835.0 97835.0 97835.0 97835.0 97835.0 160920.0 160920.0 160920.0 160920.0 160920.0 160920.0 160920.0
16283.0 11034.0 59714.0 64484.0 17065.0 20240.0 29200.0 24650.0 34349.0 26901.0 59148.0 66357.0 190621.0 184741.0 299241.0 306094.0 156386.0 149882.0 9617.0 11317.0 112331.0 111517.0 152054.0 159725.0 309421.0 301228.0 5523.0 11261.0 64206.0 72146.0 79521.0 85051.0 50930.0 55526.0 77586.0 70733.0 317931.0 310253.0 21121.0 19198.0 97745.0 90515.0 58783.0 63513.0 46520.0 38263.0 77206.0 78769.0 10452.0 18392.0 72705.0 74760.0 120776.0 116458.0 42146.0 36923.0 106012.0 108563.0 64112.0 71993.0 92111.0 96226.0 120185.0 117337.0 76810.0 74785.0 252244.0 245968.0 143580.0 136240.0 75329.0 82496.0 76114.0 82408.0 17331.0 25299.0 273340.0 268151.0 95397.0 94310.0 40545.0 32430.0 76144.0 72878.0 49053.0 41770.0 80848.0 83207.0 237299.0 242674.0 75412.0 70294.0 102171.0 98763.0 320230.0 318468.0 111342.0 103786.0 89327.0 96767.0 68484.0 65773.0 227140.0 219751.0 281845.0 289480.0 28533.0 26678.0 195201.0 193029.0 94450.0 92178.0 45742.0 39330.0 61711.0 54754.0 82063.0 80559.0 69696.0 62476.0 116296.0 118236.0 66009.0 62387.0 90974.0 83248.0 91250.0 89878.0 168547.0 171922.0 274125.0 265957.0 54388.0 51082.0 231519.0 232939.0 176618.0 175315.0 39558.0 40788.0 46790.0 54169.0 279308.0 280312.0 97425.0 105166.0 62459.0 63254.0 8076.0 0.0 198398.0 192485.0 117734.0 116016.0 162123.0 165336.0 54196.0 46241.0 81353.0 77190.0 94554.0 152851.0 94554.0 94554.0 94554.0 94554.0 94554.0 94554.0 94554.0 152851.0 152851.0 152851.0 152851.0 152851.0 152851.0 152851.0
182988.0 187474.0 219548.0 227504.0 194670.0 202347.0 197100.0 203455.0 176049.0 182695.0 142477.0 137513.0 12001.0 14091.0 127821.0 132740.0 228234.0 228973.0 201498.0 208372.0 254417.0 259796.0 74070.0 68620.0 117335.0 109217.0 195711.0 201091.0 143987.0 135949.0 121869.0 114808.0 224202.0 220916.0 273898.0 267927.0 126882.0 118866.0 213401.0 205956.0 184819.0 187303.0 255468.0 258383.0 241951.0 234413.0 235817.0 242785.0 188207.0 181238.0 126243.0 126257.0 234771.0 238467.0 166017.0 174022.0 267886.0 264627.0 134544.0 126875.0 240324.0 237672.0 85665.0 86298.0 238027.0 242512.0 56284.0 48986.0 58889.0 67311.0 129510.0 123700.0 126951.0 123876.0 182552.0 175007.0 90801.0 83370.0 278572.0 273705.0 224896.0 218216.0 218440.0 210353.0 159467.0 167360.0 241777.0 237658.0 66258.0 74243.0 262311.0 254784.0 213687.0 218851.0 139646.0 135100.0 92064.0 100006.0 202335.0 200841.0 131870.0 137159.0 29752.0 22018.0 100656.0 106373.0 171684.0 171733.0 220411.0 225686.0 249322.0 253466.0 243967.0 237000.0 256822.0 251277.0 269377.0 271114.0 247507.0 239517.0 82356.0 81848.0 200130.0 192757.0 109651.0 116271.0 255644.0 259422.0 168664.0 162968.0 105318.0 97317.0 242630.0 235593.0 67330.0 61739.0 249232.0 242043.0 159270.0 160375.0 231695.0 239661.0 98826.0 103361.0 168325.0 165163.0 135961.0 136155.0 206034.0 198398.0 0.0 8013.0 194015.0 201040.0 36602.0 35570.0 144488.0 152318.0 119468.0 121787.0 224102.0 80125.0 224102.0 224102.0 224102.0 224102.0 224102.0 224102.0 224102.0 80125.0 80125.0 80125.0 80125.0 80125.0 80125.0 80125.0
176932.0 181610.0 212392.0 220336.0 189245.0 197005.0 190446.0 196926.0 169437.0 176198.0 135998.0 130825.0 14422.0 11601.0 135771.0 140729.0 220221.0 220962.0 195340.0 202313.0 246750.0 252187.0 73664.0 68904.0 124984.0 116895.0 189936.0 195486.0 137112.0 129001.0 116838.0 109567.0 219543.0 216488.0 268399.0 262311.0 134580.0 126561.0 207103.0 199585.0 177001.0 179564.0 249209.0 251976.0 236449.0 228827.0 228502.0 235523.0 182364.0 175528.0 120699.0 121125.0 226903.0 230651.0 159367.0 167366.0 264177.0 261125.0 128867.0 121302.0 236833.0 234236.0 81959.0 82194.0 234010.0 238301.0 63761.0 56284.0 51645.0 60027.0 124802.0 119224.0 120244.0 116915.0 176853.0 169397.0 98814.0 91377.0 273972.0 269265.0 219831.0 213016.0 210996.0 202913.0 152733.0 160688.0 237821.0 233892.0 73847.0 81822.0 257425.0 249973.0 205896.0 211115.0 147643.0 143065.0 85046.0 93021.0 194642.0 193062.0 126585.0 132151.0 37139.0 29395.0 108669.0 114373.0 166091.0 165857.0 212631.0 217856.0 245696.0 249634.0 237943.0 230889.0 251394.0 245707.0 264506.0 266059.0 242938.0 234902.0 76222.0 75230.0 192757.0 185429.0 103095.0 109935.0 251710.0 255313.0 160843.0 155209.0 113139.0 105102.0 237552.0 230629.0 74557.0 69260.0 241231.0 234050.0 153198.0 154043.0 225007.0 232937.0 106838.0 111353.0 160504.0 157270.0 130141.0 130673.0 200047.0 192485.0 8013.0 0.0 186060.0 193106.0 30363.0 28300.0 138789.0 146553.0 112940.0 115594.0 220667.0 80081.0 220667.0 220667.0 220667.0 220667.0 220667.0 220667.0 220667.0 80081.0 80081.0 80081.0 80081.0 80081.0 80081.0 80081.0
108579.0 116018.0 74480.0 78084.0 132150.0 137652.0 89480.0 96628.0 87809.0 92802.0 96314.0 92113.0 192957.0 185008.0 319479.0 325198.0 43670.0 40154.0 110202.0 116406.0 71470.0 79108.0 191768.0 196503.0 309968.0 302072.0 121408.0 128913.0 84070.0 85473.0 133543.0 130880.0 168539.0 173218.0 174362.0 166258.0 319759.0 311768.0 109642.0 103798.0 20705.0 27261.0 134949.0 131286.0 152960.0 145729.0 75592.0 83128.0 116924.0 119363.0 122662.0 131059.0 43323.0 49458.0 86533.0 86073.0 222768.0 225931.0 118329.0 121945.0 209734.0 213455.0 158459.0 153685.0 194501.0 192032.0 248656.0 240748.0 138700.0 130839.0 139229.0 143728.0 96248.0 91781.0 120008.0 121058.0 284442.0 277212.0 205534.0 206696.0 156949.0 149344.0 57642.0 53964.0 84356.0 85625.0 198489.0 200924.0 255006.0 262476.0 185544.0 182741.0 30315.0 38215.0 333545.0 329114.0 112858.0 107338.0 32716.0 24553.0 127327.0 132974.0 222378.0 214835.0 294240.0 300267.0 120942.0 112474.0 77729.0 75296.0 212143.0 209510.0 136206.0 128844.0 164901.0 156582.0 190903.0 186532.0 185139.0 178776.0 131010.0 125627.0 54625.0 55894.0 108608.0 109519.0 208244.0 206012.0 64975.0 71548.0 295263.0 286984.0 166861.0 166104.0 252758.0 250137.0 66812.0 62750.0 105787.0 97736.0 102900.0 106099.0 292257.0 296130.0 31032.0 30242.0 114751.0 122557.0 118024.0 117734.0 194015.0 186060.0 0.0 8039.0 162602.0 159968.0 116671.0 114583.0 104006.0 110206.0 208797.0 196710.0 208797.0 208797.0 208797.0 208797.0 208797.0 208797.0 208797.0 196710.0 196710.0 196710.0 196710.0 196710.0 196710.0 196710.0
107834.0 115047.0 69625.0 72621.0 130985.0 136119.0 87280.0 94033.0 87511.0 91927.0 98799.0 95153.0 199731.0 191804.0 326073.0 331870.0 41879.0 37058.0 108089.0 113940.0 63517.0 71208.0 196841.0 201775.0 317245.0 309322.0 119956.0 127259.0 86845.0 88956.0 136752.0 134513.0 166542.0 171534.0 169810.0 161727.0 327017.0 319020.0 106611.0 101181.0 22142.0 26843.0 129925.0 125924.0 149449.0 142429.0 69217.0 76581.0 115915.0 118877.0 125751.0 134046.0 35375.0 41420.0 87167.0 85967.0 220236.0 223661.0 120958.0 125006.0 208127.0 212110.0 163163.0 158411.0 192544.0 189769.0 255897.0 248012.0 145222.0 137261.0 141984.0 146772.0 100016.0 96046.0 119440.0 121017.0 291314.0 284133.0 201880.0 203329.0 154573.0 147142.0 52028.0 49204.0 85642.0 86146.0 196465.0 199182.0 261524.0 268943.0 182026.0 179527.0 23144.0 31042.0 340464.0 336115.0 118529.0 112717.0 28257.0 20038.0 130022.0 135327.0 229558.0 221987.0 301095.0 307195.0 121123.0 112591.0 80873.0 77705.0 210170.0 207249.0 131966.0 124785.0 160948.0 152648.0 187201.0 182581.0 182394.0 176254.0 136437.0 131316.0 51328.0 53668.0 113179.0 113578.0 205834.0 203340.0 72160.0 78927.0 301753.0 293472.0 163781.0 163396.0 259124.0 256655.0 64390.0 61216.0 106815.0 98737.0 98211.0 100936.0 299086.0 302866.0 35617.0 36314.0 117337.0 125036.0 115767.0 116016.0 201040.0 193106.0 8039.0 0.0 169192.0 166766.0 118667.0 116065.0 108040.0 113856.0 208225.0 201614.0 208225.0 208225.0 208225.0 208225.0 208225.0 208225.0 208225.0 201614.0 201614.0 201614.0 201614.0 201614.0 201614.0 201614.0
146585.0 151249.0 183423.0 191398.0 159014.0 166818.0 160515.0 166853.0 139456.0 146094.0 105876.0 100949.0 31341.0 23940.0 156887.0 162699.0 199517.0 199418.0 165022.0 171967.0 219924.0 224994.0 57329.0 55609.0 152736.0 144539.0 159583.0 165175.0 107547.0 99596.0 87005.0 79547.0 189936.0 187163.0 238115.0 231987.0 162071.0 154088.0 176851.0 169379.0 151612.0 153429.0 218939.0 221798.0 206168.0 198516.0 200016.0 206855.0 152004.0 145189.0 90444.0 91179.0 201894.0 205045.0 129433.0 137439.0 235834.0 233136.0 98550.0 91033.0 208913.0 206530.0 54855.0 54180.0 205232.0 209236.0 92381.0 85358.0 24044.0 32296.0 95327.0 90104.0 90401.0 87555.0 146517.0 139090.0 122787.0 115945.0 244386.0 239870.0 189828.0 182914.0 183033.0 174945.0 122918.0 130783.0 209128.0 205509.0 92430.0 99974.0 227557.0 220181.0 180128.0 184854.0 172044.0 168231.0 55928.0 63779.0 168106.0 167221.0 96495.0 102302.0 66146.0 58488.0 132449.0 138933.0 135791.0 135495.0 197982.0 202382.0 217522.0 221117.0 207592.0 200559.0 221145.0 215400.0 234649.0 236044.0 213413.0 205330.0 45875.0 45288.0 164528.0 157038.0 73055.0 79695.0 223032.0 226370.0 146184.0 141601.0 132704.0 124431.0 207529.0 200706.0 90576.0 87564.0 221448.0 214690.0 122852.0 123807.0 195117.0 203095.0 130329.0 133802.0 135224.0 132921.0 99787.0 100443.0 169690.0 162123.0 36602.0 30363.0 162602.0 169192.0 0.0 8078.0 108461.0 116207.0 82867.0 85279.0 192960.0 64459.0 192960.0 192960.0 192960.0 192960.0 192960.0 192960.0 192960.0 64459.0 64459.0 64459.0 64459.0 64459.0 64459.0 64459.0
149583.0 154561.0 184096.0 192041.0 162978.0 170880.0 162355.0 168949.0 141396.0 148268.0 108132.0 102743.0 32994.0 25041.0 159764.0 165308.0 195880.0 196078.0 167816.0 174924.0 219028.0 224326.0 65403.0 63584.0 152836.0 144693.0 163021.0 168864.0 108885.0 100741.0 91850.0 84155.0 194806.0 192296.0 241853.0 235566.0 162331.0 154320.0 179381.0 171780.0 149867.0 152087.0 221508.0 224101.0 209938.0 202177.0 200265.0 207258.0 155351.0 148761.0 94495.0 95848.0 200010.0 203463.0 131296.0 139286.0 241575.0 239063.0 102338.0 95033.0 214895.0 212656.0 61685.0 60636.0 210744.0 214547.0 91854.0 84499.0 23354.0 31757.0 100528.0 95629.0 92155.0 88653.0 150102.0 142832.0 124575.0 117480.0 249229.0 244893.0 194208.0 187135.0 182873.0 174785.0 124596.0 132597.0 214690.0 211256.0 95757.0 103476.0 232095.0 224819.0 178611.0 183610.0 173777.0 169640.0 56773.0 64758.0 167007.0 165732.0 100906.0 107065.0 65290.0 57541.0 134339.0 140539.0 139568.0 138822.0 192604.0 197213.0 223369.0 226773.0 210568.0 203396.0 225001.0 219063.0 239195.0 240367.0 218338.0 210219.0 49215.0 47361.0 164562.0 157199.0 75201.0 82323.0 228589.0 231752.0 140702.0 135863.0 135981.0 127743.0 211862.0 205193.0 94548.0 90923.0 217529.0 210628.0 125871.0 126336.0 196878.0 204780.0 132321.0 136174.0 133399.0 130635.0 103326.0 104532.0 172770.0 165336.0 35570.0 28300.0 159968.0 166766.0 8078.0 0.0 112166.0 119773.0 85057.0 88186.0 199086.0 72531.0 199086.0 199086.0 199086.0 199086.0 199086.0 199086.0 199086.0 72531.0 72531.0 72531.0 72531.0 72531.0 72531.0 72531.0
39735.0 43179.0 92144.0 99582.0 50932.0 58959.0 60772.0 64528.0 41849.0 45100.0 21239.0 28011.0 136488.0 130730.0 246459.0 253312.0 160189.0 155722.0 58556.0 64702.0 141584.0 143646.0 100373.0 107708.0 255367.0 247163.0 51243.0 56726.0 33800.0 36415.0 26650.0 31064.0 85746.0 85127.0 129704.0 123526.0 263955.0 256240.0 71339.0 64866.0 96609.0 92422.0 112483.0 116427.0 97776.0 90063.0 111299.0 116008.0 43853.0 36752.0 18521.0 21998.0 137798.0 136652.0 35391.0 41291.0 138079.0 137607.0 9949.0 17798.0 115228.0 115692.0 66937.0 63712.0 106124.0 108046.0 198055.0 191814.0 91370.0 84686.0 26233.0 32911.0 32049.0 40087.0 38070.0 30666.0 219740.0 214370.0 139248.0 135861.0 82928.0 75463.0 100751.0 93938.0 33917.0 36889.0 110388.0 109017.0 184000.0 189663.0 121056.0 114186.0 114955.0 115309.0 267134.0 265099.0 61382.0 54854.0 100042.0 104473.0 15698.0 17477.0 173038.0 165693.0 228411.0 235956.0 27406.0 27609.0 186817.0 186907.0 121667.0 122929.0 99937.0 93353.0 112837.0 106950.0 128143.0 128717.0 109139.0 100950.0 62953.0 65920.0 83168.0 75786.0 40777.0 32372.0 123757.0 125347.0 148119.0 149153.0 221342.0 213175.0 100338.0 94173.0 178550.0 179545.0 183029.0 179392.0 17813.0 23702.0 93615.0 101767.0 225907.0 227205.0 87342.0 92359.0 9096.0 9723.0 62052.0 54196.0 144488.0 138789.0 116671.0 118667.0 108461.0 112166.0 0.0 7988.0 32741.0 25870.0 104539.0 102177.0 104539.0 104539.0 104539.0 104539.0 104539.0 104539.0 104539.0 102177.0 102177.0 102177.0 102177.0 102177.0 102177.0 102177.0
31778.0 35237.0 85580.0 92869.0 43700.0 51818.0 53569.0 56939.0 35560.0 38004.0 22424.0 30201.0 144401.0 138593.0 254328.0 261181.0 157826.0 153038.0 50591.0 56715.0 135826.0 137582.0 108040.0 115436.0 263355.0 255151.0 43395.0 49103.0 34169.0 38485.0 34357.0 39039.0 79686.0 79624.0 122087.0 115814.0 271941.0 264228.0 63412.0 57036.0 94201.0 89480.0 104497.0 108464.0 90196.0 82403.0 104798.0 109245.0 35930.0 28996.0 26503.0 29636.0 133471.0 131920.0 30418.0 35352.0 132953.0 132864.0 17871.0 25772.0 111025.0 111976.0 74824.0 71653.0 101020.0 102494.0 206003.0 199739.0 98700.0 91831.0 32820.0 39792.0 36377.0 44216.0 30333.0 23194.0 227701.0 222346.0 132667.0 129544.0 76071.0 68432.0 95100.0 88567.0 30448.0 31809.0 105312.0 104386.0 191929.0 197560.0 114183.0 107473.0 110921.0 110802.0 275048.0 273041.0 68009.0 61145.0 96044.0 100953.0 23263.0 23398.0 180939.0 173576.0 236358.0 243912.0 20049.0 19625.0 186426.0 186171.0 117013.0 117842.0 91977.0 85370.0 105312.0 99290.0 121251.0 121581.0 102886.0 94722.0 70567.0 73228.0 78010.0 70866.0 47290.0 38998.0 118459.0 119699.0 149430.0 150869.0 229212.0 221044.0 93312.0 87385.0 186440.0 187484.0 180439.0 177113.0 11022.0 18274.0 85949.0 94087.0 233850.0 235117.0 86134.0 91713.0 16448.0 17487.0 54076.0 46241.0 152318.0 146553.0 114583.0 116065.0 116207.0 119773.0 7988.0 0.0 38593.0 32553.0 101763.0 109679.0 101763.0 101763.0 101763.0 101763.0 101763.0 101763.0 101763.0 109679.0 109679.0 109679.0 109679.0 109679.0 109679.0 109679.0
65233.0 70988.0 102623.0 110596.0 81884.0 90064.0 77691.0 83996.0 56607.0 63258.0 23075.0 18501.0 113124.0 106441.0 231080.0 237814.0 147193.0 144160.0 83023.0 90341.0 145212.0 148979.0 91131.0 97110.0 234376.0 226143.0 79726.0 86389.0 26366.0 20250.0 32230.0 27523.0 118222.0 117836.0 158794.0 152073.0 243424.0 235527.0 94355.0 86724.0 86430.0 84839.0 136481.0 139057.0 127224.0 119161.0 120429.0 126645.0 71872.0 66253.0 23619.0 31617.0 134134.0 135011.0 46640.0 54640.0 170813.0 170256.0 25589.0 23314.0 147649.0 147773.0 56319.0 51753.0 138860.0 140752.0 174940.0 168109.0 62577.0 54987.0 40710.0 42786.0 8792.0 12569.0 67615.0 61308.0 201328.0 195244.0 171214.0 168137.0 114509.0 106733.0 105502.0 97646.0 40376.0 48027.0 143121.0 141648.0 167153.0 173636.0 152558.0 145969.0 110856.0 113441.0 249972.0 247113.0 30015.0 22698.0 96635.0 98600.0 31199.0 39149.0 148945.0 141325.0 210524.0 217674.0 58369.0 55603.0 166019.0 167285.0 154296.0 155661.0 125908.0 118577.0 142457.0 135918.0 159600.0 159620.0 141473.0 133305.0 37719.0 37723.0 86626.0 78796.0 9856.0 5542.0 156497.0 158032.0 122591.0 122483.0 205963.0 197796.0 131558.0 125853.0 162842.0 162439.0 170481.0 165656.0 41918.0 41384.0 112307.0 120323.0 208159.0 210384.0 72976.0 75410.0 24129.0 30089.0 88426.0 81353.0 119468.0 112940.0 104006.0 108040.0 82867.0 85057.0 32741.0 38593.0 0.0 8448.0 135822.0 95068.0 135822.0 135822.0 135822.0 135822.0 135822.0 135822.0 135822.0 95068.0 95068.0 95068.0 95068.0 95068.0 95068.0 95068.0
61401.0 66504.0 103470.0 111377.0 76242.0 84370.0 76508.0 82202.0 55480.0 61440.0 21876.0 20297.0 114746.0 108408.0 230159.0 236999.0 153637.0 150323.0 79746.0 86758.0 148065.0 151435.0 87993.0 94404.0 235389.0 227155.0 75085.0 81334.0 29023.0 24939.0 24302.0 20676.0 111612.0 110861.0 154164.0 147661.0 244288.0 236445.0 91633.0 84275.0 91985.0 89815.0 133682.0 136710.0 122387.0 114454.0 121772.0 127640.0 67326.0 61124.0 15185.0 23308.0 138615.0 139044.0 45967.0 53805.0 163547.0 162785.0 17702.0 14868.0 139970.0 139910.0 52975.0 48677.0 131623.0 133775.0 176634.0 170017.0 66473.0 59384.0 32395.0 34878.0 14016.0 20247.0 62483.0 55692.0 201422.0 195563.0 165059.0 161727.0 108588.0 100983.0 107820.0 100141.0 40534.0 47460.0 135862.0 134167.0 166667.0 172911.0 146712.0 139937.0 115294.0 117394.0 249740.0 247139.0 35535.0 29041.0 100798.0 103335.0 22764.0 30739.0 150966.0 143437.0 210465.0 217754.0 52594.0 50829.0 173782.0 174884.0 146805.0 148391.0 122402.0 115298.0 137570.0 131303.0 153785.0 154124.0 135007.0 126819.0 39431.0 41062.0 89048.0 81209.0 14913.0 6503.0 149346.0 151102.0 130857.0 130841.0 205042.0 196848.0 125864.0 119879.0 161988.0 162022.0 176901.0 172283.0 37685.0 38711.0 111007.0 119115.0 208051.0 209986.0 79265.0 82234.0 16859.0 21982.0 84585.0 77190.0 121787.0 115594.0 110206.0 113856.0 85279.0 88186.0 25870.0 32553.0 8448.0 0.0 127741.0 91411.0 127741.0 127741.0 127741.0 127741.0 127741.0 127741.0 127741.0 91411.0 91411.0 91411.0 91411.0 91411.0 91411.0 91411.0
100394.0 93350.0 153652.0 157491.0 78028.0 74759.0 123494.0 119091.0 120994.0 116316.0 124185.0 131866.0 213451.0 210164.0 305958.0 312811.0 249526.0 243402.0 103862.0 100912.0 205338.0 203519.0 158600.0 166591.0 320764.0 312829.0 89706.0 83699.0 135648.0 140215.0 110802.0 118974.0 53939.0 45598.0 110171.0 109736.0 328359.0 321135.0 111434.0 112936.0 188170.0 181724.0 125530.0 133371.0 89809.0 88942.0 169876.0 169977.0 92538.0 89435.0 113808.0 108260.0 215326.0 210954.0 123436.0 122800.0 65346.0 60282.0 110237.0 113779.0 36893.0 31861.0 138719.0 138832.0 44275.0 52073.0 269783.0 265195.0 183483.0 179018.0 100929.0 104309.0 136518.0 144566.0 88814.0 88170.0 282043.0 277881.0 89757.0 82210.0 67138.0 69266.0 170653.0 167380.0 127471.0 124066.0 45843.0 38771.0 245365.0 249851.0 83749.0 76242.0 196277.0 193212.0 327097.0 325969.0 160498.0 155671.0 182844.0 189830.0 105814.0 97865.0 248445.0 242216.0 289808.0 297692.0 88850.0 96959.0 284593.0 283373.0 46895.0 53539.0 109849.0 109735.0 96105.0 97414.0 88720.0 94953.0 64593.0 60608.0 154464.0 160365.0 159981.0 155476.0 141771.0 133739.0 57108.0 63495.0 250760.0 252484.0 280842.0 272674.0 76270.0 68795.0 238728.0 241444.0 270462.0 268692.0 106667.0 113965.0 134550.0 139846.0 287186.0 287395.0 183973.0 190633.0 112043.0 105770.0 97835.0 94554.0 224102.0 220667.0 208797.0 208225.0 192960.0 199086.0 104539.0 101763.0 135822.0 127741.0 0.0 158470.0 0.0 0.0 0.0 0.0 0.0 0.0 0.0 158470.0 158470.0 158470.0 158470.0 158470.0 158470.0 158470.0
140747.0 142168.0 193176.0 200878.0 143376.0 149722.0 162894.0 166617.0 143177.0 147199.0 112154.0 111706.0 68145.0 68493.0 149265.0 156118.0 238506.0 236487.0 159119.0 164086.0 239442.0 242642.0 7151.0 11757.0 164164.0 156343.0 148561.0 151405.0 120401.0 115283.0 75595.0 73098.0 164492.0 159580.0 220209.0 215591.0 171494.0 164411.0 172222.0 166420.0 180652.0 179673.0 211398.0 216364.0 189257.0 182886.0 212006.0 217317.0 142547.0 134468.0 85477.0 80183.0 229147.0 230070.0 135005.0 142135.0 202490.0 198994.0 93760.0 86341.0 174691.0 172040.0 38758.0 43398.0 173963.0 179394.0 116178.0 112592.0 75084.0 78498.0 77703.0 70508.0 103757.0 106109.0 135524.0 127556.0 124850.0 121060.0 217291.0 211476.0 168584.0 163413.0 199028.0 191448.0 130820.0 136565.0 177392.0 172534.0 88159.0 92214.0 203425.0 195471.0 205896.0 208479.0 170417.0 168223.0 85675.0 89876.0 191700.0 193544.0 86491.0 87390.0 97988.0 93095.0 132322.0 140267.0 124359.0 128140.0 247775.0 250835.0 183810.0 188460.0 197172.0 191730.0 202888.0 198964.0 210223.0 213414.0 186539.0 179059.0 66901.0 73696.0 180349.0 172526.0 88619.0 89649.0 191029.0 195567.0 197841.0 194778.0 124149.0 115982.0 185857.0 178033.0 81174.0 84457.0 261626.0 255959.0 119965.0 124850.0 195588.0 203707.0 129679.0 129575.0 166018.0 166783.0 96878.0 92464.0 160920.0 152851.0 80125.0 80081.0 196710.0 201614.0 64459.0 72531.0 102177.0 109679.0 95068.0 91411.0 158470.0 0.0 158470.0 158470.0 158470.0 158470.0 158470.0 158470.0 158470.0 0.0 0.0 0.0 0.0 0.0 0.0 0.0
100394.0 93350.0 153652.0 157491.0 78028.0 74759.0 123494.0 119091.0 120994.0 116316.0 124185.0 131866.0 213451.0 210164.0 305958.0 312811.0 249526.0 243402.0 103862.0 100912.0 205338.0 203519.0 158600.0 166591.0 320764.0 312829.0 89706.0 83699.0 135648.0 140215.0 110802.0 118974.0 53939.0 45598.0 110171.0 109736.0 328359.0 321135.0 111434.0 112936.0 188170.0 181724.0 125530.0 133371.0 89809.0 88942.0 169876.0 169977.0 92538.0 89435.0 113808.0 108260.0 215326.0 210954.0 123436.0 122800.0 65346.0 60282.0 110237.0 113779.0 36893.0 31861.0 138719.0 138832.0 44275.0 52073.0 269783.0 265195.0 183483.0 179018.0 100929.0 104309.0 136518.0 144566.0 88814.0 88170.0 282043.0 277881.0 89757.0 82210.0 67138.0 69266.0 170653.0 167380.0 127471.0 124066.0 45843.0 38771.0 245365.0 249851.0 83749.0 76242.0 196277.0 193212.0 327097.0 325969.0 160498.0 155671.0 182844.0 189830.0 105814.0 97865.0 248445.0 242216.0 289808.0 297692.0 88850.0 96959.0 284593.0 283373.0 46895.0 53539.0 109849.0 109735.0 96105.0 97414.0 88720.0 94953.0 64593.0 60608.0 154464.0 160365.0 159981.0 155476.0 141771.0 133739.0 57108.0 63495.0 250760.0 252484.0 280842.0 272674.0 76270.0 68795.0 238728.0 241444.0 270462.0 268692.0 106667.0 113965.0 134550.0 139846.0 287186.0 287395.0 183973.0 190633.0 112043.0 105770.0 97835.0 94554.0 224102.0 220667.0 208797.0 208225.0 192960.0 199086.0 104539.0 101763.0 135822.0 127741.0 0.0 158470.0 0.0 0.0 0.0 0.0 0.0 0.0 0.0 158470.0 158470.0 158470.0 158470.0 158470.0 158470.0 158470.0
100394.0 93350.0 153652.0 157491.0 78028.0 74759.0 123494.0 119091.0 120994.0 116316.0 124185.0 131866.0 213451.0 210164.0 305958.0 312811.0 249526.0 243402.0 103862.0 100912.0 205338.0 203519.0 158600.0 166591.0 320764.0 312829.0 89706.0 83699.0 135648.0 140215.0 110802.0 118974.0 53939.0 45598.0 110171.0 109736.0 328359.0 321135.0 111434.0 112936.0 188170.0 181724.0 125530.0 133371.0 89809.0 88942.0 169876.0 169977.0 92538.0 89435.0 113808.0 108260.0 215326.0 210954.0 123436.0 122800.0 65346.0 60282.0 110237.0 113779.0 36893.0 31861.0 138719.0 138832.0 44275.0 52073.0 269783.0 265195.0 183483.0 179018.0 100929.0 104309.0 136518.0 144566.0 88814.0 88170.0 282043.0 277881.0 89757.0 82210.0 67138.0 69266.0 170653.0 167380.0 127471.0 124066.0 45843.0 38771.0 245365.0 249851.0 83749.0 76242.0 196277.0 193212.0 327097.0 325969.0 160498.0 155671.0 182844.0 189830.0 105814.0 97865.0 248445.0 242216.0 289808.0 297692.0 88850.0 96959.0 284593.0 283373.0 46895.0 53539.0 109849.0 109735.0 96105.0 97414.0 88720.0 94953.0 64593.0 60608.0 154464.0 160365.0 159981.0 155476.0 141771.0 133739.0 57108.0 63495.0 250760.0 252484.0 280842.0 272674.0 76270.0 68795.0 238728.0 241444.0 270462.0 268692.0 106667.0 113965.0 134550.0 139846.0 287186.0 287395.0 183973.0 190633.0 112043.0 105770.0 97835.0 94554.0 224102.0 220667.0 208797.0 208225.0 192960.0 199086.0 104539.0 101763.0 135822.0 127741.0 0.0 158470.0 0.0 0.0 0.0 0.0 0.0 0.0 0.0 158470.0 158470.0 158470.0 158470.0 158470.0 158470.0 158470.0
100394.0 93350.0 153652.0 157491.0 78028.0 74759.0 123494.0 119091.0 120994.0 116316.0 124185.0 131866.0 213451.0 210164.0 305958.0 312811.0 249526.0 243402.0 103862.0 100912.0 205338.0 203519.0 158600.0 166591.0 320764.0 312829.0 89706.0 83699.0 135648.0 140215.0 110802.0 118974.0 53939.0 45598.0 110171.0 109736.0 328359.0 321135.0 111434.0 112936.0 188170.0 181724.0 125530.0 133371.0 89809.0 88942.0 169876.0 169977.0 92538.0 89435.0 113808.0 108260.0 215326.0 210954.0 123436.0 122800.0 65346.0 60282.0 110237.0 113779.0 36893.0 31861.0 138719.0 138832.0 44275.0 52073.0 269783.0 265195.0 183483.0 179018.0 100929.0 104309.0 136518.0 144566.0 88814.0 88170.0 282043.0 277881.0 89757.0 82210.0 67138.0 69266.0 170653.0 167380.0 127471.0 124066.0 45843.0 38771.0 245365.0 249851.0 83749.0 76242.0 196277.0 193212.0 327097.0 325969.0 160498.0 155671.0 182844.0 189830.0 105814.0 97865.0 248445.0 242216.0 289808.0 297692.0 88850.0 96959.0 284593.0 283373.0 46895.0 53539.0 109849.0 109735.0 96105.0 97414.0 88720.0 94953.0 64593.0 60608.0 154464.0 160365.0 159981.0 155476.0 141771.0 133739.0 57108.0 63495.0 250760.0 252484.0 280842.0 272674.0 76270.0 68795.0 238728.0 241444.0 270462.0 268692.0 106667.0 113965.0 134550.0 139846.0 287186.0 287395.0 183973.0 190633.0 112043.0 105770.0 97835.0 94554.0 224102.0 220667.0 208797.0 208225.0 192960.0 199086.0 104539.0 101763.0 135822.0 127741.0 0.0 158470.0 0.0 0.0 0.0 0.0 0.0 0.0 0.0 158470.0 158470.0 158470.0 158470.0 158470.0 158470.0 158470.0
100394.0 93350.0 153652.0 157491.0 78028.0 74759.0 123494.0 119091.0 120994.0 116316.0 124185.0 131866.0 213451.0 210164.0 305958.0 312811.0 249526.0 243402.0 103862.0 100912.0 205338.0 203519.0 158600.0 166591.0 320764.0 312829.0 89706.0 83699.0 135648.0 140215.0 110802.0 118974.0 53939.0 45598.0 110171.0 109736.0 328359.0 321135.0 111434.0 112936.0 188170.0 181724.0 125530.0 133371.0 89809.0 88942.0 169876.0 169977.0 92538.0 89435.0 113808.0 108260.0 215326.0 210954.0 123436.0 122800.0 65346.0 60282.0 110237.0 113779.0 36893.0 31861.0 138719.0 138832.0 44275.0 52073.0 269783.0 265195.0 183483.0 179018.0 100929.0 104309.0 136518.0 144566.0 88814.0 88170.0 282043.0 277881.0 89757.0 82210.0 67138.0 69266.0 170653.0 167380.0 127471.0 124066.0 45843.0 38771.0 245365.0 249851.0 83749.0 76242.0 196277.0 193212.0 327097.0 325969.0 160498.0 155671.0 182844.0 189830.0 105814.0 97865.0 248445.0 242216.0 289808.0 297692.0 88850.0 96959.0 284593.0 283373.0 46895.0 53539.0 109849.0 109735.0 96105.0 97414.0 88720.0 94953.0 64593.0 60608.0 154464.0 160365.0 159981.0 155476.0 141771.0 133739.0 57108.0 63495.0 250760.0 252484.0 280842.0 272674.0 76270.0 68795.0 238728.0 241444.0 270462.0 268692.0 106667.0 113965.0 134550.0 139846.0 287186.0 287395.0 183973.0 190633.0 112043.0 105770.0 97835.0 94554.0 224102.0 220667.0 208797.0 208225.0 192960.0 199086.0 104539.0 101763.0 135822.0 127741.0 0.0 158470.0 0.0 0.0 0.0 0.0 0.0 0.0 0.0 158470.0 158470.0 158470.0 158470.0 158470.0 158470.0 158470.0
100394.0 93350.0 153652.0 157491.0 78028.0 74759.0 123494.0 119091.0 120994.0 116316.0 124185.0 131866.0 213451.0 210164.0 305958.0 312811.0 249526.0 243402.0 103862.0 100912.0 205338.0 203519.0 158600.0 166591.0 320764.0 312829.0 89706.0 83699.0 135648.0 140215.0 110802.0 118974.0 53939.0 45598.0 110171.0 109736.0 328359.0 321135.0 111434.0 112936.0 188170.0 181724.0 125530.0 133371.0 89809.0 88942.0 169876.0 169977.0 92538.0 89435.0 113808.0 108260.0 215326.0 210954.0 123436.0 122800.0 65346.0 60282.0 110237.0 113779.0 36893.0 31861.0 138719.0 138832.0 44275.0 52073.0 269783.0 265195.0 183483.0 179018.0 100929.0 104309.0 136518.0 144566.0 88814.0 88170.0 282043.0 277881.0 89757.0 82210.0 67138.0 69266.0 170653.0 167380.0 127471.0 124066.0 45843.0 38771.0 245365.0 249851.0 83749.0 76242.0 196277.0 193212.0 327097.0 325969.0 160498.0 155671.0 182844.0 189830.0 105814.0 97865.0 248445.0 242216.0 289808.0 297692.0 88850.0 96959.0 284593.0 283373.0 46895.0 53539.0 109849.0 109735.0 96105.0 97414.0 88720.0 94953.0 64593.0 60608.0 154464.0 160365.0 159981.0 155476.0 141771.0 133739.0 57108.0 63495.0 250760.0 252484.0 280842.0 272674.0 76270.0 68795.0 238728.0 241444.0 270462.0 268692.0 106667.0 113965.0 134550.0 139846.0 287186.0 287395.0 183973.0 190633.0 112043.0 105770.0 97835.0 94554.0 224102.0 220667.0 208797.0 208225.0 192960.0 199086.0 104539.0 101763.0 135822.0 127741.0 0.0 158470.0 0.0 0.0 0.0 0.0 0.0 0.0 0.0 158470.0 158470.0 158470.0 158470.0 158470.0 158470.0 158470.0
100394.0 93350.0 153652.0 157491.0 78028.0 74759.0 123494.0 119091.0 120994.0 116316.0 124185.0 131866.0 213451.0 210164.0 305958.0 312811.0 249526.0 243402.0 103862.0 100912.0 205338.0 203519.0 158600.0 166591.0 320764.0 312829.0 89706.0 83699.0 135648.0 140215.0 110802.0 118974.0 53939.0 45598.0 110171.0 109736.0 328359.0 321135.0 111434.0 112936.0 188170.0 181724.0 125530.0 133371.0 89809.0 88942.0 169876.0 169977.0 92538.0 89435.0 113808.0 108260.0 215326.0 210954.0 123436.0 122800.0 65346.0 60282.0 110237.0 113779.0 36893.0 31861.0 138719.0 138832.0 44275.0 52073.0 269783.0 265195.0 183483.0 179018.0 100929.0 104309.0 136518.0 144566.0 88814.0 88170.0 282043.0 277881.0 89757.0 82210.0 67138.0 69266.0 170653.0 167380.0 127471.0 124066.0 45843.0 38771.0 245365.0 249851.0 83749.0 76242.0 196277.0 193212.0 327097.0 325969.0 160498.0 155671.0 182844.0 189830.0 105814.0 97865.0 248445.0 242216.0 289808.0 297692.0 88850.0 96959.0 284593.0 283373.0 46895.0 53539.0 109849.0 109735.0 96105.0 97414.0 88720.0 94953.0 64593.0 60608.0 154464.0 160365.0 159981.0 155476.0 141771.0 133739.0 57108.0 63495.0 250760.0 252484.0 280842.0 272674.0 76270.0 68795.0 238728.0 241444.0 270462.0 268692.0 106667.0 113965.0 134550.0 139846.0 287186.0 287395.0 183973.0 190633.0 112043.0 105770.0 97835.0 94554.0 224102.0 220667.0 208797.0 208225.0 192960.0 199086.0 104539.0 101763.0 135822.0 127741.0 0.0 158470.0 0.0 0.0 0.0 0.0 0.0 0.0 0.0 158470.0 158470.0 158470.0 158470.0 158470.0 158470.0 158470.0
100394.0 93350.0 153652.0 157491.0 78028.0 74759.0 123494.0 119091.0 120994.0 116316.0 124185.0 131866.0 213451.0 210164.0 305958.0 312811.0 249526.0 243402.0 103862.0 100912.0 205338.0 203519.0 158600.0 166591.0 320764.0 312829.0 89706.0 83699.0 135648.0 140215.0 110802.0 118974.0 53939.0 45598.0 110171.0 109736.0 328359.0 321135.0 111434.0 112936.0 188170.0 181724.0 125530.0 133371.0 89809.0 88942.0 169876.0 169977.0 92538.0 89435.0 113808.0 108260.0 215326.0 210954.0 123436.0 122800.0 65346.0 60282.0 110237.0 113779.0 36893.0 31861.0 138719.0 138832.0 44275.0 52073.0 269783.0 265195.0 183483.0 179018.0 100929.0 104309.0 136518.0 144566.0 88814.0 88170.0 282043.0 277881.0 89757.0 82210.0 67138.0 69266.0 170653.0 167380.0 127471.0 124066.0 45843.0 38771.0 245365.0 249851.0 83749.0 76242.0 196277.0 193212.0 327097.0 325969.0 160498.0 155671.0 182844.0 189830.0 105814.0 97865.0 248445.0 242216.0 289808.0 297692.0 88850.0 96959.0 284593.0 283373.0 46895.0 53539.0 109849.0 109735.0 96105.0 97414.0 88720.0 94953.0 64593.0 60608.0 154464.0 160365.0 159981.0 155476.0 141771.0 133739.0 57108.0 63495.0 250760.0 252484.0 280842.0 272674.0 76270.0 68795.0 238728.0 241444.0 270462.0 268692.0 106667.0 113965.0 134550.0 139846.0 287186.0 287395.0 183973.0 190633.0 112043.0 105770.0 97835.0 94554.0 224102.0 220667.0 208797.0 208225.0 192960.0 199086.0 104539.0 101763.0 135822.0 127741.0 0.0 158470.0 0.0 0.0 0.0 0.0 0.0 0.0 0.0 158470.0 158470.0 158470.0 158470.0 158470.0 158470.0 158470.0
140747.0 142168.0 193176.0 200878.0 143376.0 149722.0 162894.0 166617.0 143177.0 147199.0 112154.0 111706.0 68145.0 68493.0 149265.0 156118.0 238506.0 236487.0 159119.0 164086.0 239442.0 242642.0 7151.0 11757.0 164164.0 156343.0 148561.0 151405.0 120401.0 115283.0 75595.0 73098.0 164492.0 159580.0 220209.0 215591.0 171494.0 164411.0 172222.0 166420.0 180652.0 179673.0 211398.0 216364.0 189257.0 182886.0 212006.0 217317.0 142547.0 134468.0 85477.0 80183.0 229147.0 230070.0 135005.0 142135.0 202490.0 198994.0 93760.0 86341.0 174691.0 172040.0 38758.0 43398.0 173963.0 179394.0 116178.0 112592.0 75084.0 78498.0 77703.0 70508.0 103757.0 106109.0 135524.0 127556.0 124850.0 121060.0 217291.0 211476.0 168584.0 163413.0 199028.0 191448.0 130820.0 136565.0 177392.0 172534.0 88159.0 92214.0 203425.0 195471.0 205896.0 208479.0 170417.0 168223.0 85675.0 89876.0 191700.0 193544.0 86491.0 87390.0 97988.0 93095.0 132322.0 140267.0 124359.0 128140.0 247775.0 250835.0 183810.0 188460.0 197172.0 191730.0 202888.0 198964.0 210223.0 213414.0 186539.0 179059.0 66901.0 73696.0 180349.0 172526.0 88619.0 89649.0 191029.0 195567.0 197841.0 194778.0 124149.0 115982.0 185857.0 178033.0 81174.0 84457.0 261626.0 255959.0 119965.0 124850.0 195588.0 203707.0 129679.0 129575.0 166018.0 166783.0 96878.0 92464.0 160920.0 152851.0 80125.0 80081.0 196710.0 201614.0 64459.0 72531.0 102177.0 109679.0 95068.0 91411.0 158470.0 0.0 158470.0 158470.0 158470.0 158470.0 158470.0 158470.0 158470.0 0.0 0.0 0.0 0.0 0.0 0.0 0.0
140747.0 142168.0 193176.0 200878.0 143376.0 149722.0 162894.0 166617.0 143177.0 147199.0 112154.0 111706.0 68145.0 68493.0 149265.0 156118.0 238506.0 236487.0 159119.0 164086.0 239442.0 242642.0 7151.0 11757.0 164164.0 156343.0 148561.0 151405.0 120401.0 115283.0 75595.0 73098.0 164492.0 159580.0 220209.0 215591.0 171494.0 164411.0 172222.0 166420.0 180652.0 179673.0 211398.0 216364.0 189257.0 182886.0 212006.0 217317.0 142547.0 134468.0 85477.0 80183.0 229147.0 230070.0 135005.0 142135.0 202490.0 198994.0 93760.0 86341.0 174691.0 172040.0 38758.0 43398.0 173963.0 179394.0 116178.0 112592.0 75084.0 78498.0 77703.0 70508.0 103757.0 106109.0 135524.0 127556.0 124850.0 121060.0 217291.0 211476.0 168584.0 163413.0 199028.0 191448.0 130820.0 136565.0 177392.0 172534.0 88159.0 92214.0 203425.0 195471.0 205896.0 208479.0 170417.0 168223.0 85675.0 89876.0 191700.0 193544.0 86491.0 87390.0 97988.0 93095.0 132322.0 140267.0 124359.0 128140.0 247775.0 250835.0 183810.0 188460.0 197172.0 191730.0 202888.0 198964.0 210223.0 213414.0 186539.0 179059.0 66901.0 73696.0 180349.0 172526.0 88619.0 89649.0 191029.0 195567.0 197841.0 194778.0 124149.0 115982.0 185857.0 178033.0 81174.0 84457.0 261626.0 255959.0 119965.0 124850.0 195588.0 203707.0 129679.0 129575.0 166018.0 166783.0 96878.0 92464.0 160920.0 152851.0 80125.0 80081.0 196710.0 201614.0 64459.0 72531.0 102177.0 109679.0 95068.0 91411.0 158470.0 0.0 158470.0 158470.0 158470.0 158470.0 158470.0 158470.0 158470.0 0.0 0.0 0.0 0.0 0.0 0.0 0.0
140747.0 142168.0 193176.0 200878.0 143376.0 149722.0 162894.0 166617.0 143177.0 147199.0 112154.0 111706.0 68145.0 68493.0 149265.0 156118.0 238506.0 236487.0 159119.0 164086.0 239442.0 242642.0 7151.0 11757.0 164164.0 156343.0 148561.0 151405.0 120401.0 115283.0 75595.0 73098.0 164492.0 159580.0 220209.0 215591.0 171494.0 164411.0 172222.0 166420.0 180652.0 179673.0 211398.0 216364.0 189257.0 182886.0 212006.0 217317.0 142547.0 134468.0 85477.0 80183.0 229147.0 230070.0 135005.0 142135.0 202490.0 198994.0 93760.0 86341.0 174691.0 172040.0 38758.0 43398.0 173963.0 179394.0 116178.0 112592.0 75084.0 78498.0 77703.0 70508.0 103757.0 106109.0 135524.0 127556.0 124850.0 121060.0 217291.0 211476.0 168584.0 163413.0 199028.0 191448.0 130820.0 136565.0 177392.0 172534.0 88159.0 92214.0 203425.0 195471.0 205896.0 208479.0 170417.0 168223.0 85675.0 89876.0 191700.0 193544.0 86491.0 87390.0 97988.0 93095.0 132322.0 140267.0 124359.0 128140.0 247775.0 250835.0 183810.0 188460.0 197172.0 191730.0 202888.0 198964.0 210223.0 213414.0 186539.0 179059.0 66901.0 73696.0 180349.0 172526.0 88619.0 89649.0 191029.0 195567.0 197841.0 194778.0 124149.0 115982.0 185857.0 178033.0 81174.0 84457.0 261626.0 255959.0 119965.0 124850.0 195588.0 203707.0 129679.0 129575.0 166018.0 166783.0 96878.0 92464.0 160920.0 152851.0 80125.0 80081.0 196710.0 201614.0 64459.0 72531.0 102177.0 109679.0 95068.0 91411.0 158470.0 0.0 158470.0 158470.0 158470.0 158470.0 158470.0 158470.0 158470.0 0.0 0.0 0.0 0.0 0.0 0.0 0.0
140747.0 142168.0 193176.0 200878.0 143376.0 149722.0 162894.0 166617.0 143177.0 147199.0 112154.0 111706.0 68145.0 68493.0 149265.0 156118.0 238506.0 236487.0 159119.0 164086.0 239442.0 242642.0 7151.0 11757.0 164164.0 156343.0 148561.0 151405.0 120401.0 115283.0 75595.0 73098.0 164492.0 159580.0 220209.0 215591.0 171494.0 164411.0 172222.0 166420.0 180652.0 179673.0 211398.0 216364.0 189257.0 182886.0 212006.0 217317.0 142547.0 134468.0 85477.0 80183.0 229147.0 230070.0 135005.0 142135.0 202490.0 198994.0 93760.0 86341.0 174691.0 172040.0 38758.0 43398.0 173963.0 179394.0 116178.0 112592.0 75084.0 78498.0 77703.0 70508.0 103757.0 106109.0 135524.0 127556.0 124850.0 121060.0 217291.0 211476.0 168584.0 163413.0 199028.0 191448.0 130820.0 136565.0 177392.0 172534.0 88159.0 92214.0 203425.0 195471.0 205896.0 208479.0 170417.0 168223.0 85675.0 89876.0 191700.0 193544.0 86491.0 87390.0 97988.0 93095.0 132322.0 140267.0 124359.0 128140.0 247775.0 250835.0 183810.0 188460.0 197172.0 191730.0 202888.0 198964.0 210223.0 213414.0 186539.0 179059.0 66901.0 73696.0 180349.0 172526.0 88619.0 89649.0 191029.0 195567.0 197841.0 194778.0 124149.0 115982.0 185857.0 178033.0 81174.0 84457.0 261626.0 255959.0 119965.0 124850.0 195588.0 203707.0 129679.0 129575.0 166018.0 166783.0 96878.0 92464.0 160920.0 152851.0 80125.0 80081.0 196710.0 201614.0 64459.0 72531.0 102177.0 109679.0 95068.0 91411.0 158470.0 0.0 158470.0 158470.0 158470.0 158470.0 158470.0 158470.0 158470.0 0.0 0.0 0.0 0.0 0.0 0.0 0.0
140747.0 142168.0 193176.0 200878.0 143376.0 149722.0 162894.0 166617.0 143177.0 147199.0 112154.0 111706.0 68145.0 68493.0 149265.0 156118.0 238506.0 236487.0 159119.0 164086.0 239442.0 242642.0 7151.0 11757.0 164164.0 156343.0 148561.0 151405.0 120401.0 115283.0 75595.0 73098.0 164492.0 159580.0 220209.0 215591.0 171494.0 164411.0 172222.0 166420.0 180652.0 179673.0 211398.0 216364.0 189257.0 182886.0 212006.0 217317.0 142547.0 134468.0 85477.0 80183.0 229147.0 230070.0 135005.0 142135.0 202490.0 198994.0 93760.0 86341.0 174691.0 172040.0 38758.0 43398.0 173963.0 179394.0 116178.0 112592.0 75084.0 78498.0 77703.0 70508.0 103757.0 106109.0 135524.0 127556.0 124850.0 121060.0 217291.0 211476.0 168584.0 163413.0 199028.0 191448.0 130820.0 136565.0 177392.0 172534.0 88159.0 92214.0 203425.0 195471.0 205896.0 208479.0 170417.0 168223.0 85675.0 89876.0 191700.0 193544.0 86491.0 87390.0 97988.0 93095.0 132322.0 140267.0 124359.0 128140.0 247775.0 250835.0 183810.0 188460.0 197172.0 191730.0 202888.0 198964.0 210223.0 213414.0 186539.0 179059.0 66901.0 73696.0 180349.0 172526.0 88619.0 89649.0 191029.0 195567.0 197841.0 194778.0 124149.0 115982.0 185857.0 178033.0 81174.0 84457.0 261626.0 255959.0 119965.0 124850.0 195588.0 203707.0 129679.0 129575.0 166018.0 166783.0 96878.0 92464.0 160920.0 152851.0 80125.0 80081.0 196710.0 201614.0 64459.0 72531.0 102177.0 109679.0 95068.0 91411.0 158470.0 0.0 158470.0 158470.0 158470.0 158470.0 158470.0 158470.0 158470.0 0.0 0.0 0.0 0.0 0.0 0.0 0.0
140747.0 142168.0 193176.0 200878.0 143376.0 149722.0 162894.0 166617.0 143177.0 147199.0 112154.0 111706.0 68145.0 68493.0 149265.0 156118.0 238506.0 236487.0 159119.0 164086.0 239442.0 242642.0 7151.0 11757.0 164164.0 156343.0 148561.0 151405.0 120401.0 115283.0 75595.0 73098.0 164492.0 159580.0 220209.0 215591.0 171494.0 164411.0 172222.0 166420.0 180652.0 179673.0 211398.0 216364.0 189257.0 182886.0 212006.0 217317.0 142547.0 134468.0 85477.0 80183.0 229147.0 230070.0 135005.0 142135.0 202490.0 198994.0 93760.0 86341.0 174691.0 172040.0 38758.0 43398.0 173963.0 179394.0 116178.0 112592.0 75084.0 78498.0 77703.0 70508.0 103757.0 106109.0 135524.0 127556.0 124850.0 121060.0 217291.0 211476.0 168584.0 163413.0 199028.0 191448.0 130820.0 136565.0 177392.0 172534.0 88159.0 92214.0 203425.0 195471.0 205896.0 208479.0 170417.0 168223.0 85675.0 89876.0 191700.0 193544.0 86491.0 87390.0 97988.0 93095.0 132322.0 140267.0 124359.0 128140.0 247775.0 250835.0 183810.0 188460.0 197172.0 191730.0 202888.0 198964.0 210223.0 213414.0 186539.0 179059.0 66901.0 73696.0 180349.0 172526.0 88619.0 89649.0 191029.0 195567.0 197841.0 194778.0 124149.0 115982.0 185857.0 178033.0 81174.0 84457.0 261626.0 255959.0 119965.0 124850.0 195588.0 203707.0 129679.0 129575.0 166018.0 166783.0 96878.0 92464.0 160920.0 152851.0 80125.0 80081.0 196710.0 201614.0 64459.0 72531.0 102177.0 109679.0 95068.0 91411.0 158470.0 0.0 158470.0 158470.0 158470.0 158470.0 158470.0 158470.0 158470.0 0.0 0.0 0.0 0.0 0.0 0.0 0.0
140747.0 142168.0 193176.0 200878.0 143376.0 149722.0 162894.0 166617.0 143177.0 147199.0 112154.0 111706.0 68145.0 68493.0 149265.0 156118.0 238506.0 236487.0 159119.0 164086.0 239442.0 242642.0 7151.0 11757.0 164164.0 156343.0 148561.0 151405.0 120401.0 115283.0 75595.0 73098.0 164492.0 159580.0 220209.0 215591.0 171494.0 164411.0 172222.0 166420.0 180652.0 179673.0 211398.0 216364.0 189257.0 182886.0 212006.0 217317.0 142547.0 134468.0 85477.0 80183.0 229147.0 230070.0 135005.0 142135.0 202490.0 198994.0 93760.0 86341.0 174691.0 172040.0 38758.0 43398.0 173963.0 179394.0 116178.0 112592.0 75084.0 78498.0 77703.0 70508.0 103757.0 106109.0 135524.0 127556.0 124850.0 121060.0 217291.0 211476.0 168584.0 163413.0 199028.0 191448.0 130820.0 136565.0 177392.0 172534.0 88159.0 92214.0 203425.0 195471.0 205896.0 208479.0 170417.0 168223.0 85675.0 89876.0 191700.0 193544.0 86491.0 87390.0 97988.0 93095.0 132322.0 140267.0 124359.0 128140.0 247775.0 250835.0 183810.0 188460.0 197172.0 191730.0 202888.0 198964.0 210223.0 213414.0 186539.0 179059.0 66901.0 73696.0 180349.0 172526.0 88619.0 89649.0 191029.0 195567.0 197841.0 194778.0 124149.0 115982.0 185857.0 178033.0 81174.0 84457.0 261626.0 255959.0 119965.0 124850.0 195588.0 203707.0 129679.0 129575.0 166018.0 166783.0 96878.0 92464.0 160920.0 152851.0 80125.0 80081.0 196710.0 201614.0 64459.0 72531.0 102177.0 109679.0 95068.0 91411.0 158470.0 0.0 158470.0 158470.0 158470.0 158470.0 158470.0 158470.0 158470.0 0.0 0.0 0.0 0.0 0.0 0.0 0.0
FIXED_EDGES_SECTION
1 2
3 4
5 6
7 8
9 10
11 12
13 14
15 16
17 18
19 20
21 22
23 24
25 26
27 28
29 30
31 32
33 34
35 36
37 38
39 40
41 42
43 44
45 46
47 48
49 50
51 52
53 54
55 56
57 58
59 60
61 62
63 64
65 66
67 68
69 70
71 72
73 74
75 76
77 78
79 80
81 82
83 84
85 86
87 88
89 90
91 92
93 94
95 96
97 98
99 100
101 102
103 104
105 106
107 108
109 110
111 112
113 114
115 116
117 118
119 120
121 122
123 124
125 126
127 128
129 130
131 132
133 134
135 136
137 138
139 140
141 142
143 144
145 146
147 148
149 150
151 152
153 154
155 156
157 158
159 160
-1 
DEMAND_SECTION
1 119
2 119
3 90
4 90
5 394
6 394
7 349
8 349
9 541
10 541
11 380
12 380
13 319
14 319
15 280
16 280
17 380
18 380
19 353
20 353
21 68
22 68
23 37
24 37
25 421
26 421
27 207
28 207
29 279
30 279
31 324
32 324
33 100
34 100
35 265
36 265
37 229
38 229
39 583
40 583
41 180
42 180
43 55
44 55
45 57
46 57
47 224
48 224
49 171
50 171
51 358
52 358
53 76
54 76
55 256
56 256
57 369
58 369
59 80
60 80
61 97
62 97
63 399
64 399
65 104
66 104
67 268
68 268
69 68
70 68
71 75
72 75
73 177
74 177
75 277
76 277
77 322
78 322
79 216
80 216
81 155
82 155
83 479
84 479
85 89
86 89
87 341
88 341
89 184
90 184
91 379
92 379
93 72
94 72
95 491
96 491
97 130
98 130
99 74
100 74
101 373
102 373
103 244
104 244
105 99
106 99
107 94
108 94
109 120
110 120
111 292
112 292
113 461
114 461
115 375
116 375
117 274
118 274
119 396
120 396
121 342
122 342
123 82
124 82
125 223
126 223
127 219
128 219
129 321
130 321
131 224
132 224
133 493
134 493
135 534
136 534
137 542
138 542
139 114
140 114
141 247
142 247
143 60
144 60
145 112
146 112
147 214
148 214
149 293
150 293
151 336
152 336
153 157
154 157
155 84
156 84
157 432
158 432
159 119
160 119
161 0
162 0
163 0
164 0
165 0
166 0
167 0
168 0
169 0
170 0
171 0
172 0
173 0
174 0
175 0
176 0
DEPOT_SECTION
161 
-1 
CAPACITIES_SECTION
5000 
5500 
6000 
-1 
EOF