NAME: GFS_20_1
TYPE: GFSP
DIMENSION: 46
VEHICLES: 3
CAPACITY: 5000.0
TRIP_DIST_LIMIT: 600000.0
TOTAL_DIST_LIMIT: 1400000.0
EDGE_WEIGHT_TYPE: EXPLICIT
EDGE_WEIGHT_FORMAT: FULL_MATRIX
EDGE_WEIGHT_SECTION
0.0 7817.0 114453.0 113073.0 234512.0 242448.0 71667.0 63611.0 305345.0 299757.0 146184.0 140702.0 142523.0 150178.0 124033.0 128962.0 140271.0 147925.0 274225.0 276102.0 202322.0 194231.0 266261.0 271398.0 164356.0 159806.0 155653.0 163633.0 209735.0 201877.0 243773.0 242806.0 118291.0 110815.0 221697.0 219422.0 161878.0 157355.0 95211.0 103125.0 250760.0 197841.0 250760.0 250760.0 197841.0 197841.0
7817.0 0.0 112465.0 111621.0 228995.0 236950.0 75852.0 67661.0 298981.0 293307.0 141601.0 135863.0 143183.0 150716.0 126439.0 131740.0 146462.0 154180.0 277267.0 278932.0 208285.0 200215.0 260155.0 265391.0 162122.0 157647.0 158606.0 166591.0 213864.0 205924.0 246557.0 245826.0 118690.0 111028.0 225450.0 222931.0 157971.0 153169.0 101857.0 109762.0 252484.0 194778.0 252484.0 252484.0 194778.0 194778.0
114453.0 112465.0 0.0 7999.0 145324.0 152361.0 83189.0 82620.0 226890.0 223443.0 55928.0 56773.0 52319.0 56264.0 68044.0 76144.0 144108.0 150927.0 198399.0 197283.0 186878.0 180648.0 185014.0 187932.0 49998.0 45388.0 95182.0 101003.0 157230.0 149175.0 166562.0 169002.0 35926.0 31883.0 161285.0 155386.0 58657.0 58370.0 126583.0 130665.0 160498.0 85675.0 160498.0 160498.0 85675.0 85675.0
113073.0 111621.0 7999.0 0.0 152509.0 159455.0 77185.0 77192.0 234347.0 230988.0 63779.0 64758.0 45894.0 50515.0 60060.0 68172.0 136345.0 143112.0 192525.0 191644.0 178887.0 172650.0 192459.0 195266.0 52784.0 48027.0 87580.0 93556.0 149832.0 141738.0 160619.0 162815.0 28058.0 23896.0 154247.0 148496.0 65432.0 65639.0 119866.0 123721.0 155671.0 89876.0 155671.0 155671.0 89876.0 89876.0
234512.0 228995.0 145324.0 152509.0 0.0 7987.0 227204.0 225222.0 83190.0 81170.0 92430.0 95757.0 176975.0 174474.0 207066.0 214125.0 287519.0 293797.0 289386.0 285889.0 321701.0 316743.0 42039.0 43330.0 117168.0 120294.0 223701.0 226336.0 275867.0 269289.0 260858.0 266289.0 175696.0 174915.0 272752.0 264922.0 87478.0 86958.0 271633.0 275941.0 245365.0 88159.0 245365.0 245365.0 88159.0 88159.0
242448.0 236950.0 152361.0 159455.0 7987.0 0.0 234506.0 232632.0 77556.0 76123.0 99974.0 103476.0 182815.0 180081.0 213382.0 220341.0 294057.0 300257.0 293871.0 290374.0 327360.0 322515.0 37500.0 37654.0 122737.0 126028.0 229304.0 231746.0 280610.0 274151.0 265344.0 270775.0 182231.0 181650.0 277238.0 269414.0 94213.0 94047.0 278801.0 283022.0 249851.0 92214.0 249851.0 249851.0 92214.0 92214.0
71667.0 75852.0 83189.0 77185.0 227204.0 234506.0 0.0 8254.0 307114.0 303039.0 135224.0 133399.0 84642.0 92534.0 56892.0 59962.0 78260.0 86183.0 203411.0 205701.0 136713.0 128888.0 265506.0 269022.0 127622.0 122860.0 85566.0 93448.0 138092.0 130214.0 173569.0 172096.0 65278.0 60757.0 150091.0 148015.0 141696.0 140643.0 45476.0 51249.0 183973.0 166018.0 183973.0 183973.0 166018.0 166018.0
63611.0 67661.0 82620.0 77192.0 225222.0 232632.0 8254.0 0.0 304399.0 300148.0 132921.0 130635.0 88999.0 96933.0 63223.0 66890.0 85535.0 93473.0 211081.0 213249.0 144611.0 136748.0 262940.0 266650.0 128744.0 123956.0 92926.0 100853.0 146229.0 138323.0 181049.0 179725.0 68230.0 62930.0 158089.0 155896.0 140639.0 139125.0 49933.0 56372.0 190633.0 166783.0 190633.0 190633.0 166783.0 166783.0
305345.0 298981.0 226890.0 234347.0 83190.0 77556.0 307114.0 304399.0 0.0 8049.0 172044.0 173777.0 260160.0 257577.0 290053.0 297197.0 370136.0 376546.0 371118.0 367621.0 404841.0 399922.0 41892.0 39932.0 200238.0 203445.0 306807.0 309299.0 357864.0 351509.0 342590.0 348021.0 258426.0 257258.0 354485.0 346660.0 170111.0 168781.0 352158.0 356884.0 327097.0 170417.0 327097.0 327097.0 170417.0 170417.0
299757.0 293307.0 223443.0 230988.0 81170.0 76123.0 303039.0 300148.0 8049.0 0.0 168231.0 169640.0 257956.0 255601.0 287316.0 294565.0 367044.0 373547.0 369989.0 366492.0 402768.0 397725.0 39193.0 38674.0 198322.0 201389.0 304818.0 307503.0 356733.0 350259.0 341462.0 346892.0 255492.0 254093.0 353356.0 345532.0 167264.0 165583.0 348207.0 353059.0 325969.0 168223.0 325969.0 325969.0 168223.0 168223.0
146184.0 141601.0 55928.0 63779.0 92430.0 99974.0 135224.0 132921.0 172044.0 168231.0 0.0 8078.0 99787.0 100443.0 122918.0 130783.0 200016.0 206855.0 235834.0 233136.0 241497.0 235558.0 130329.0 133802.0 54855.0 54180.0 146585.0 151249.0 206168.0 198516.0 205232.0 209236.0 90401.0 87555.0 207529.0 200706.0 22372.0 14598.0 180128.0 184854.0 192960.0 64459.0 192960.0 192960.0 64459.0 64459.0
140702.0 135863.0 56773.0 64758.0 95757.0 103476.0 133399.0 130635.0 173777.0 169640.0 8078.0 0.0 103326.0 104532.0 124596.0 132597.0 200265.0 207258.0 241575.0 239063.0 243415.0 237296.0 132321.0 136174.0 61685.0 60636.0 149583.0 154561.0 209938.0 202177.0 210744.0 214547.0 92155.0 88653.0 211862.0 205193.0 30444.0 22661.0 178611.0 183610.0 199086.0 72531.0 199086.0 199086.0 72531.0 72531.0
142523.0 143183.0 52319.0 45894.0 176975.0 182815.0 84642.0 88999.0 260160.0 257956.0 99787.0 103326.0 0.0 7938.0 35202.0 39936.0 115335.0 120477.0 146787.0 146146.0 144860.0 139776.0 218769.0 220256.0 60376.0 56816.0 47404.0 51514.0 106632.0 98851.0 114847.0 116927.0 24762.0 32751.0 109413.0 103268.0 92079.0 95857.0 115415.0 116389.0 112043.0 96878.0 112043.0 112043.0 96878.0 96878.0
150178.0 150716.0 56264.0 50515.0 174474.0 180081.0 92534.0 96933.0 257577.0 255601.0 100443.0 104532.0 7938.0 0.0 41863.0 45753.0 120676.0 125509.0 142143.0 141141.0 147280.0 142534.0 216412.0 217646.0 57344.0 54230.0 49230.0 52221.0 105802.0 98270.0 110298.0 112829.0 32059.0 39907.0 107363.0 100840.0 91022.0 95386.0 122603.0 123339.0 105770.0 92464.0 105770.0 105770.0 92464.0 92464.0
124033.0 126439.0 68044.0 60060.0 207066.0 213382.0 56892.0 63223.0 290053.0 287316.0 122918.0 124596.0 35202.0 41863.0 0.0 8237.0 81391.0 87130.0 151401.0 152689.0 118847.0 112708.0 248295.0 250363.0 92994.0 88891.0 33574.0 41333.0 95202.0 86892.0 120290.0 120006.0 32517.0 36478.0 103248.0 99257.0 120057.0 122273.0 81038.0 81510.0 127471.0 130820.0 127471.0 127471.0 130820.0 130820.0
128962.0 131740.0 76144.0 68172.0 214125.0 220341.0 59962.0 66890.0 297197.0 294565.0 130783.0 132597.0 39936.0 45753.0 8237.0 0.0 75459.0 80812.0 145585.0 147200.0 110818.0 104777.0 255494.0 257445.0 99208.0 95251.0 27007.0 34962.0 87539.0 79230.0 114838.0 114144.0 40446.0 44679.0 96142.0 92480.0 127368.0 129804.0 79322.0 79008.0 124066.0 136565.0 124066.0 124066.0 136565.0 136565.0
140271.0 146462.0 144108.0 136345.0 287519.0 294057.0 78260.0 85535.0 370136.0 367044.0 200016.0 200265.0 115335.0 120676.0 81391.0 75459.0 0.0 7940.0 166606.0 171670.0 62453.0 54327.0 328265.0 330684.0 174381.0 170278.0 79333.0 82880.0 92330.0 87299.0 143987.0 139141.0 111830.0 112962.0 108777.0 111051.0 200091.0 201462.0 46449.0 38942.0 169876.0 212006.0 169876.0 169876.0 212006.0 212006.0
147925.0 154180.0 150927.0 143112.0 293797.0 300257.0 86183.0 93473.0 376546.0 373547.0 206855.0 207258.0 120477.0 125509.0 87130.0 80812.0 7940.0 0.0 163979.0 169332.0 55272.0 47164.0 334697.0 337016.0 179984.0 175962.0 82427.0 85314.0 89695.0 85248.0 142513.0 137320.0 118128.0 119577.0 106392.0 109215.0 206445.0 207995.0 53625.0 45947.0 169977.0 217317.0 169977.0 169977.0 217317.0 217317.0
274225.0 277267.0 198399.0 192525.0 289386.0 293871.0 203411.0 211081.0 371118.0 369989.0 235834.0 241575.0 146787.0 142143.0 151401.0 145585.0 166606.0 163979.0 0.0 8285.0 130889.0 134411.0 331206.0 331415.0 182271.0 182031.0 118662.0 110677.0 74315.0 79578.0 31958.0 31442.0 169329.0 177125.0 57890.0 56934.0 219997.0 226645.0 203500.0 198513.0 65346.0 202490.0 65346.0 65346.0 202490.0 202490.0
276102.0 278932.0 197283.0 191644.0 285889.0 290374.0 205701.0 213249.0 367621.0 366492.0 233136.0 239063.0 146146.0 141141.0 152689.0 147200.0 171670.0 169332.0 8285.0 0.0 137877.0 141147.0 327709.0 327918.0 179165.0 179130.0 120459.0 112486.0 79676.0 84393.0 32399.0 33902.0 169196.0 177079.0 62947.0 61056.0 216769.0 223570.0 207489.0 202724.0 60282.0 198994.0 60282.0 60282.0 198994.0 198994.0
202322.0 208285.0 186878.0 178887.0 321701.0 327360.0 136713.0 144611.0 404841.0 402768.0 241497.0 243415.0 144860.0 147280.0 118847.0 110818.0 62453.0 55272.0 130889.0 137877.0 0.0 8126.0 363575.0 364912.0 204623.0 201407.0 98071.0 96223.0 64939.0 65921.0 118678.0 111535.0 151262.0 155144.0 80265.0 86600.0 236615.0 239751.0 108846.0 101212.0 154576.0 238386.0 154576.0 154576.0 238386.0 238386.0
194231.0 200215.0 180648.0 172650.0 316743.0 322515.0 128888.0 136748.0 399922.0 397725.0 235558.0 237296.0 139776.0 142534.0 112708.0 104777.0 54327.0 47164.0 134411.0 141147.0 8126.0 0.0 358541.0 360008.0 199822.0 196492.0 93486.0 92205.0 65821.0 65777.0 120421.0 113547.0 145201.0 148833.0 81840.0 87647.0 231214.0 234161.0 100725.0 93098.0 154719.0 234156.0 154719.0 154719.0 234156.0 234156.0
266261.0 260155.0 185014.0 192459.0 42039.0 37500.0 265506.0 262940.0 41892.0 39193.0 130329.0 132321.0 218769.0 216412.0 248295.0 255494.0 328265.0 334697.0 331206.0 327709.0 363575.0 358541.0 0.0 7469.0 159146.0 162197.0 265627.0 268336.0 317839.0 311295.0 302679.0 308109.0 216588.0 215373.0 314523.0 306749.0 128290.0 126889.0 310455.0 315113.0 287186.0 129679.0 287186.0 287186.0 129679.0 129679.0
271398.0 265391.0 187932.0 195266.0 43330.0 37654.0 269022.0 266650.0 39932.0 38674.0 133802.0 136174.0 220256.0 217646.0 250363.0 257445.0 330684.0 337016.0 331415.0 327918.0 364912.0 360008.0 7469.0 0.0 160306.0 163523.0 266875.0 269376.0 318181.0 311760.0 302888.0 308318.0 218892.0 217936.0 314782.0 306958.0 130593.0 129627.0 313801.0 318321.0 287395.0 129575.0 287395.0 287395.0 129575.0 129575.0
164356.0 162122.0 49998.0 52784.0 117168.0 122737.0 127622.0 128744.0 200238.0 198322.0 54855.0 61685.0 60376.0 57344.0 92994.0 99208.0 174381.0 179984.0 182271.0 179165.0 204623.0 199822.0 159146.0 160306.0 0.0 4794.0 106570.0 109200.0 160239.0 153252.0 152381.0 156979.0 65026.0 67409.0 159011.0 151612.0 37806.0 44405.0 167138.0 169750.0 138719.0 38758.0 138719.0 138719.0 38758.0 38758.0
159806.0 157647.0 45388.0 48027.0 120294.0 126028.0 122860.0 123956.0 203445.0 201389.0 54180.0 60636.0 56816.0 54230.0 88891.0 95251.0 170278.0 175962.0 182031.0 179130.0 201407.0 196492.0 162197.0 163523.0 4794.0 0.0 103431.0 106323.0 158075.0 150968.0 151828.0 156222.0 60489.0 62718.0 157314.0 150023.0 38742.0 44768.0 162519.0 165193.0 138832.0 43398.0 138832.0 138832.0 43398.0 43398.0
155653.0 158606.0 95182.0 87580.0 223701.0 229304.0 85566.0 92926.0 306807.0 304818.0 146585.0 149583.0 47404.0 49230.0 33574.0 27007.0 79333.0 82427.0 118662.0 120459.0 98071.0 93486.0 265627.0 266875.0 106570.0 103431.0 0.0 7986.0 62762.0 54526.0 88170.0 87221.0 59845.0 66132.0 69765.0 65686.0 139474.0 143221.0 96718.0 94482.0 100394.0 140747.0 100394.0 100394.0 140747.0 140747.0
163633.0 166591.0 101003.0 93556.0 226336.0 231746.0 93448.0 100853.0 309299.0 307503.0 151249.0 154561.0 51514.0 52221.0 41333.0 34962.0 82880.0 85314.0 110677.0 112486.0 96223.0 92205.0 268336.0 269376.0 109200.0 106323.0 7986.0 0.0 56291.0 48182.0 80213.0 79235.0 66171.0 72795.0 62338.0 57981.0 143151.0 147241.0 103150.0 100534.0 93350.0 142168.0 93350.0 93350.0 142168.0 142168.0
209735.0 213864.0 157230.0 149832.0 275867.0 280610.0 138092.0 146229.0 357864.0 356733.0 206168.0 209938.0 106632.0 105802.0 95202.0 87539.0 92330.0 89695.0 74315.0 79676.0 64939.0 65821.0 317839.0 318181.0 160239.0 158075.0 62762.0 56291.0 0.0 8311.0 55050.0 48742.0 122427.0 128881.0 16906.0 21829.0 196215.0 201006.0 131011.0 125471.0 89809.0 189257.0 89809.0 89809.0 189257.0 189257.0
201877.0 205924.0 149175.0 141738.0 269289.0 274151.0 130214.0 138323.0 351509.0 350259.0 198516.0 202177.0 98851.0 98270.0 86892.0 79230.0 87299.0 85248.0 79578.0 84393.0 65921.0 65777.0 311295.0 311760.0 153252.0 150968.0 54526.0 48182.0 8311.0 0.0 57609.0 52092.0 114257.0 120656.0 21742.0 24033.0 188932.0 193594.0 124495.0 119200.0 88942.0 182886.0 88942.0 88942.0 182886.0 182886.0
243773.0 246557.0 166562.0 160619.0 260858.0 265344.0 173569.0 181049.0 342590.0 341462.0 205232.0 210744.0 114847.0 110298.0 120290.0 114838.0 143987.0 142513.0 31958.0 32399.0 118678.0 120421.0 302679.0 302888.0 152381.0 151828.0 88170.0 80213.0 55050.0 57609.0 0.0 8039.0 137396.0 145211.0 38585.0 33644.0 190186.0 196581.0 177253.0 172902.0 44275.0 173963.0 44275.0 44275.0 173963.0 173963.0
242806.0 245826.0 169002.0 162815.0 266289.0 270775.0 172096.0 179725.0 348021.0 346892.0 209236.0 214547.0 116927.0 112829.0 120006.0 114144.0 139141.0 137320.0 31442.0 33902.0 111535.0 113547.0 308109.0 308318.0 156979.0 156222.0 87221.0 79235.0 48742.0 52092.0 8039.0 0.0 138799.0 146494.0 31951.0 28112.0 194762.0 200987.0 173787.0 169166.0 52073.0 179394.0 52073.0 52073.0 179394.0 179394.0
118291.0 118690.0 35926.0 28058.0 175696.0 182231.0 65278.0 68230.0 258426.0 255492.0 90401.0 92155.0 24762.0 32059.0 32517.0 40446.0 111830.0 118128.0 169329.0 169196.0 151262.0 145201.0 216588.0 218892.0 65026.0 60489.0 59845.0 66171.0 122427.0 114257.0 137396.0 138799.0 0.0 8048.0 127737.0 122417.0 88318.0 90093.0 102242.0 104725.0 136518.0 103757.0 136518.0 136518.0 103757.0 103757.0
110815.0 111028.0 31883.0 23896.0 174915.0 181650.0 60757.0 62930.0 257258.0 254093.0 87555.0 88653.0 32751.0 39907.0 36478.0 44679.0 112962.0 119577.0 177125.0 177079.0 155144.0 148833.0 215373.0 217936.0 67409.0 62718.0 66132.0 72795.0 128881.0 120656.0 145211.0 146494.0 8048.0 0.0 134737.0 129605.0 87450.0 88513.0 99981.0 103028.0 144566.0 106109.0 144566.0 144566.0 106109.0 106109.0
221697.0 225450.0 161285.0 154247.0 272752.0 277238.0 150091.0 158089.0 354485.0 353356.0 207529.0 211862.0 109413.0 107363.0 103248.0 96142.0 108777.0 106392.0 57890.0 62947.0 80265.0 81840.0 314523.0 314782.0 159011.0 157314.0 69765.0 62338.0 16906.0 21742.0 38585.0 31951.0 127737.0 134737.0 0.0 8219.0 195931.0 201255.0 146156.0 140923.0 76270.0 185857.0 76270.0 76270.0 185857.0 185857.0
219422.0 222931.0 155386.0 148496.0 264922.0 269414.0 148015.0 155896.0 346660.0 345532.0 200706.0 205193.0 103268.0 100840.0 99257.0 92480.0 111051.0 109215.0 56934.0 61056.0 86600.0 87647.0 306749.0 306958.0 151612.0 150023.0 65686.0 57981.0 21829.0 24033.0 33644.0 28112.0 122417.0 129605.0 8219.0 0.0 188700.0 194147.0 146593.0 141707.0 68795.0 178033.0 68795.0 68795.0 178033.0 178033.0
161878.0 157971.0 58657.0 65432.0 87478.0 94213.0 141696.0 140639.0 170111.0 167264.0 22372.0 30444.0 92079.0 91022.0 120057.0 127368.0 200091.0 206445.0 219997.0 216769.0 236615.0 231214.0 128290.0 130593.0 37806.0 38742.0 139474.0 143151.0 196215.0 188932.0 190186.0 194762.0 88318.0 87450.0 195931.0 188700.0 0.0 8049.0 185209.0 189152.0 176257.0 42206.0 176257.0 176257.0 42206.0 42206.0
157355.0 153169.0 58370.0 65639.0 86958.0 94047.0 140643.0 139125.0 168781.0 165583.0 14598.0 22661.0 95857.0 95386.0 122273.0 129804.0 201462.0 207995.0 226645.0 223570.0 239751.0 234161.0 126889.0 129627.0 44405.0 44768.0 143221.0 147241.0 201006.0 193594.0 196581.0 200987.0 90093.0 88513.0 201255.0 194147.0 8049.0 0.0 184758.0 188992.0 183114.0 49871.0 183114.0 183114.0 49871.0 49871.0
95211.0 101857.0 126583.0 119866.0 271633.0 278801.0 45476.0 49933.0 352158.0 348207.0 180128.0 178611.0 115415.0 122603.0 81038.0 79322.0 46449.0 53625.0 203500.0 207489.0 108846.0 100725.0 310455.0 313801.0 167138.0 162519.0 96718.0 103150.0 131011.0 124495.0 177253.0 173787.0 102242.0 99981.0 146156.0 146593.0 185209.0 184758.0 0.0 7913.0 196277.0 205896.0 196277.0 196277.0 205896.0 205896.0
103125.0 109762.0 130665.0 123721.0 275941.0 283022.0 51249.0 56372.0 356884.0 353059.0 184854.0 183610.0 116389.0 123339.0 81510.0 79008.0 38942.0 45947.0 198513.0 202724.0 101212.0 93098.0 315113.0 318321.0 169750.0 165193.0 94482.0 100534.0 125471.0 119200.0 172902.0 169166.0 104725.0 103028.0 140923.0 141707.0 189152.0 188992.0 7913.0 0.0 193212.0 208479.0 193212.0 193212.0 208479.0 208479.0
250760.0 252484.0 160498.0 155671.0 245365.0 249851.0 183973.0 190633.0 327097.0 325969.0 192960.0 199086.0 112043.0 105770.0 127471.0 124066.0 169876.0 169977.0 65346.0 60282.0 154576.0 154719.0 287186.0 287395.0 138719.0 138832.0 100394.0 93350.0 89809.0 88942.0 44275.0 52073.0 136518.0 144566.0 76270.0 68795.0 176257.0 183114.0 196277.0 193212.0 0.0 158470.0 0.0 0.0 158470.0 158470.0
197841.0 194778.0 85675.0 89876.0 88159.0 92214.0 166018.0 166783.0 170417.0 168223.0 64459.0 72531.0 96878.0 92464.0 130820.0 136565.0 212006.0 217317.0 202490.0 198994.0 238386.0 234156.0 129679.0 129575.0 38758.0 43398.0 140747.0 142168.0 189257.0 182886.0 173963.0 179394.0 103757.0 106109.0 185857.0 178033.0 42206.0 49871.0 205896.0 208479.0 158470.0 0.0 158470.0 158470.0 0.0 0.0
250760.0 252484.0 160498.0 155671.0 245365.0 249851.0 183973.0 190633.0 327097.0 325969.0 192960.0 199086.0 112043.0 105770.0 127471.0 124066.0 169876.0 169977.0 65346.0 60282.0 154576.0 154719.0 287186.0 287395.0 138719.0 138832.0 100394.0 93350.0 89809.0 88942.0 44275.0 52073.0 136518.0 144566.0 76270.0 68795.0 176257.0 183114.0 196277.0 193212.0 0.0 158470.0 0.0 0.0 158470.0 158470.0
250760.0 252484.0 160498.0 155671.0 245365.0 249851.0 183973.0 190633.0 327097.0 325969.0 192960.0 199086.0 112043.0 105770.0 127471.0 124066.0 169876.0 169977.0 65346.0 60282.0 154576.0 154719.0 287186.0 287395.0 138719.0 138832.0 100394.0 93350.0 89809.0 88942.0 44275.0 52073.0 136518.0 144566.0 76270.0 68795.0 176257.0 183114.0 196277.0 193212.0 0.0 158470.0 0.0 0.0 158470.0 158470.0
197841.0 194778.0 85675.0 89876.0 88159.0 92214.0 166018.0 166783.0 170417.0 168223.0 64459.0 72531.0 96878.0 92464.0 130820.0 136565.0 212006.0 217317.0 202490.0 198994.0 238386.0 234156.0 129679.0 129575.0 38758.0 43398.0 140747.0 142168.0 189257.0 182886.0 173963.0 179394.0 103757.0 106109.0 185857.0 178033.0 42206.0 49871.0 205896.0 208479.0 158470.0 0.0 158470.0 158470.0 0.0 0.0
197841.0 194778.0 85675.0 89876.0 88159.0 92214.0 166018.0 166783.0 170417.0 168223.0 64459.0 72531.0 96878.0 92464.0 130820.0 136565.0 212006.0 217317.0 202490.0 198994.0 238386.0 234156.0 129679.0 129575.0 38758.0 43398.0 140747.0 142168.0 189257.0 182886.0 173963.0 179394.0 103757.0 106109.0 185857.0 178033.0 42206.0 49871.0 205896.0 208479.0 158470.0 0.0 158470.0 158470.0 0.0 0.0
FIXED_EDGES_SECTION
1 2
3 4
5 6
7 8
9 10
11 12
13 14
15 16
17 18
19 20
21 22
23 24
25 26
27 28
29 30
31 32
33 34
35 36
37 38
39 40
-1 
DEMAND_SECTION
1 321
2 321
3 130
4 130
5 184
6 184
7 112
8 112
9 491
10 491
11 84
12 84
13 214
14 214
15 89
16 89
17 224
18 224
19 369
20 369
21 497
22 497
23 60
24 60
25 399
26 399
27 119
28 119
29 57
30 57
31 104
32 104
33 177
34 177
35 493
36 493
37 313
38 313
39 72
40 72
41 0
42 0
43 0
44 0
45 0
46 0
DEPOT_SECTION
41 
-1 
CAPACITIES_SECTION
5000 
5500 
6000 
-1 
EOF