NAME: GFS_20_1
TYPE: GFSP
DIMENSION: 46
VEHICLES: 3
CAPACITY: 5000.0
TRIP_DIST_LIMIT: 600000.0
TOTAL_DIST_LIMIT: 1400000.0
EDGE_WEIGHT_TYPE: EXPLICIT
EDGE_WEIGHT_FORMAT: FULL_MATRIX
EDGE_WEIGHT_SECTION
0.0 8532.0 155965.0 150990.0 38317.0 38440.0 64946.0 70028.0 17433.0 21068.0 164474.0 172323.0 165763.0 171537.0 122662.0 125751.0 45970.0 51174.0 144889.0 145893.0 90444.0 94495.0 18521.0 26503.0 48980.0 45509.0 68571.0 76410.0 11145.0 12792.0 57729.0 62139.0 81477.0 85629.0 8750.0 867.0 189474.0 185166.0 166293.0 162578.0 113808.0 85477.0 113808.0 113808.0 85477.0 85477.0
8532.0 0.0 159295.0 154648.0 45729.0 46531.0 59647.0 65379.0 9094.0 12746.0 162812.0 170680.0 162615.0 168122.0 131059.0 134046.0 52984.0 57507.0 143471.0 144934.0 91179.0 95848.0 21998.0 29636.0 45452.0 42604.0 68689.0 76194.0 4770.0 11698.0 63372.0 67041.0 80218.0 85052.0 14235.0 9169.0 197868.0 193609.0 174706.0 170923.0 108260.0 80183.0 108260.0 108260.0 80183.0 80183.0
155965.0 159295.0 0.0 8126.0 126861.0 133349.0 218164.0 224458.0 160716.0 167908.0 94648.0 97329.0 321701.0 327360.0 137945.0 131669.0 118847.0 110818.0 85526.0 77859.0 241497.0 243415.0 137708.0 129800.0 204623.0 201407.0 97643.0 93676.0 164054.0 168700.0 102055.0 95496.0 236615.0 239751.0 147215.0 155171.0 169728.0 172411.0 158004.0 149933.0 154576.0 238386.0 154576.0 154576.0 238386.0 238386.0
150990.0 154648.0 8126.0 0.0 120836.0 127108.0 213831.0 219960.0 156455.0 163650.0 99948.0 103071.0 316743.0 322515.0 129825.0 123543.0 112708.0 104777.0 89574.0 82113.0 235558.0 237296.0 132892.0 125051.0 199822.0 196492.0 94881.0 91514.0 159391.0 163763.0 96137.0 89864.0 231214.0 234161.0 142253.0 150182.0 162113.0 164674.0 150094.0 142031.0 154719.0 234156.0 154719.0 154719.0 234156.0 234156.0
38317.0 45729.0 126861.0 120836.0 0.0 8199.0 102338.0 106639.0 52658.0 58309.0 155583.0 163098.0 198605.0 204923.0 88354.0 90298.0 8462.0 16060.0 135633.0 134540.0 114725.0 116559.0 28372.0 26692.0 84699.0 80552.0 59566.0 67472.0 49353.0 49794.0 24855.0 32055.0 111612.0 113882.0 31702.0 37469.0 154657.0 151049.0 131830.0 127354.0 126955.0 122677.0 126955.0 126955.0 122677.0 122677.0
38440.0 46531.0 133349.0 127108.0 8199.0 0.0 100489.0 104247.0 54325.0 59276.0 163780.0 171291.0 194224.0 200708.0 85046.0 87660.0 14649.0 22874.0 143831.0 142717.0 108762.0 110216.0 32365.0 32432.0 82098.0 77740.0 67671.0 75611.0 49572.0 48655.0 31880.0 39454.0 106897.0 108705.0 33315.0 37651.0 151746.0 147778.0 128704.0 124639.0 133796.0 120562.0 133796.0 133796.0 120562.0 120562.0
64946.0 59647.0 218164.0 213831.0 102338.0 100489.0 0.0 8150.0 57455.0 50269.0 209277.0 217027.0 106123.0 110812.0 178369.0 182967.0 110424.0 116068.0 191393.0 194431.0 62433.0 70226.0 81644.0 89182.0 20052.0 24843.0 123724.0 130169.0 55045.0 52642.0 122630.0 126648.0 41056.0 49018.0 73205.0 65811.0 243936.0 238523.0 220716.0 218357.0 140034.0 20556.0 140034.0 140034.0 20556.0 20556.0
70028.0 65379.0 224458.0 219960.0 106639.0 104247.0 8150.0 0.0 63964.0 56836.0 217172.0 224935.0 98776.0 103694.0 180069.0 184950.0 114867.0 120850.0 199194.0 202138.0 55986.0 63925.0 87321.0 95015.0 22208.0 26780.0 130745.0 137342.0 60677.0 57422.0 127731.0 132083.0 34066.0 42107.0 78509.0 70884.0 245095.0 239483.0 221952.0 219877.0 148135.0 16669.0 148135.0 148135.0 16669.0 16669.0
17433.0 9094.0 160716.0 156455.0 52658.0 54325.0 57455.0 63964.0 0.0 7195.0 158922.0 166790.0 162355.0 167535.0 139229.0 141984.0 59348.0 63026.0 139885.0 141809.0 95327.0 100528.0 26233.0 32820.0 45947.0 43938.0 67283.0 74321.0 10000.0 18084.0 68031.0 70823.0 82518.0 87993.0 21083.0 17962.0 206003.0 201881.0 182898.0 178949.0 100929.0 77703.0 100929.0 100929.0 77703.0 77703.0
21068.0 12746.0 167908.0 163650.0 58309.0 59276.0 50269.0 56836.0 7195.0 0.0 164784.0 172644.0 155332.0 160458.0 143728.0 146772.0 65353.0 69440.0 145914.0 148040.0 90104.0 95629.0 32911.0 39792.0 39322.0 37650.0 74179.0 81086.0 10579.0 16824.0 74758.0 77777.0 76377.0 82130.0 26627.0 21785.0 210540.0 206228.0 187361.0 183628.0 104309.0 70508.0 104309.0 104309.0 70508.0 70508.0
164474.0 162812.0 94648.0 99948.0 155583.0 163780.0 209277.0 217172.0 158922.0 164784.0 0.0 7871.0 314823.0 319309.0 208771.0 204739.0 150957.0 143625.0 19976.0 22318.0 253949.0 258627.0 147917.0 141102.0 203644.0 202389.0 97645.0 89457.0 166945.0 174489.0 135761.0 127897.0 241131.0 246876.0 157259.0 164015.0 255451.0 256560.0 239628.0 231952.0 101167.0 227928.0 101167.0 101167.0 227928.0 227928.0
172323.0 170680.0 97329.0 103071.0 163098.0 171291.0 217027.0 224935.0 166790.0 172644.0 7871.0 0.0 322552.0 327037.0 214834.0 210633.0 158359.0 150959.0 27654.0 29070.0 261820.0 266493.0 155725.0 148879.0 211487.0 210245.0 105375.0 97190.0 174815.0 182357.0 143006.0 135109.0 248987.0 254740.0 165087.0 171862.0 260350.0 261649.0 244941.0 237205.0 107939.0 235656.0 107939.0 107939.0 235656.0 235656.0
165763.0 162615.0 321701.0 316743.0 198605.0 194224.0 106123.0 98776.0 162355.0 155332.0 314823.0 322552.0 0.0 7987.0 255006.0 261524.0 207066.0 214125.0 297118.0 300260.0 92430.0 95757.0 184000.0 191929.0 117168.0 120294.0 229448.0 236112.0 157846.0 153007.0 221975.0 227361.0 87478.0 86958.0 174508.0 166567.0 313261.0 306312.0 291630.0 291735.0 245365.0 88159.0 245365.0 245365.0 88159.0 88159.0
171537.0 168122.0 327360.0 322515.0 204923.0 200708.0 110812.0 103694.0 167535.0 160458.0 319309.0 327037.0 7987.0 0.0 262476.0 268943.0 213382.0 220341.0 301604.0 304794.0 99974.0 103476.0 189663.0 197560.0 122737.0 126028.0 234435.0 240970.0 163354.0 158755.0 228088.0 233336.0 94213.0 94047.0 180267.0 172350.0 321004.0 314080.0 299314.0 299357.0 249851.0 92214.0 249851.0 249851.0 92214.0 92214.0
122662.0 131059.0 137945.0 129825.0 88354.0 85046.0 178369.0 180069.0 139229.0 143728.0 208771.0 214834.0 255006.0 262476.0 0.0 8039.0 84356.0 85625.0 190903.0 186532.0 162602.0 159968.0 116671.0 114583.0 158459.0 153685.0 132150.0 137652.0 133543.0 130880.0 87809.0 92802.0 170836.0 169198.0 118329.0 121945.0 66812.0 62750.0 43670.0 40154.0 208797.0 196710.0 208797.0 208797.0 196710.0 196710.0
125751.0 134046.0 131669.0 123543.0 90298.0 87660.0 182967.0 184950.0 141984.0 146772.0 204739.0 210633.0 261524.0 268943.0 8039.0 0.0 85642.0 86146.0 187201.0 182581.0 169192.0 166766.0 118667.0 116065.0 163163.0 158411.0 130985.0 136119.0 136752.0 134513.0 87511.0 91927.0 176810.0 175412.0 120958.0 125006.0 64390.0 61216.0 41879.0 37058.0 208225.0 201614.0 208225.0 208225.0 201614.0 201614.0
45970.0 52984.0 118847.0 112708.0 8462.0 14649.0 110424.0 114867.0 59348.0 65353.0 150957.0 158359.0 207066.0 213382.0 84356.0 85642.0 0.0 8237.0 131082.0 129575.0 122918.0 124596.0 33917.0 30448.0 92994.0 88891.0 56672.0 64242.0 56847.0 57800.0 17247.0 24938.0 120057.0 122273.0 38777.0 45110.0 150003.0 146746.0 127441.0 122595.0 127471.0 130820.0 127471.0 127471.0 130820.0 130820.0
51174.0 57507.0 110818.0 104777.0 16060.0 22874.0 116068.0 120850.0 63026.0 69440.0 143625.0 150959.0 214125.0 220341.0 85625.0 86146.0 8237.0 0.0 123814.0 122082.0 130783.0 132597.0 36889.0 31809.0 99208.0 95251.0 50868.0 58093.0 61674.0 63481.0 9010.0 16766.0 127368.0 129804.0 43320.0 50306.0 150197.0 147356.0 128018.0 122757.0 124066.0 136565.0 124066.0 124066.0 136565.0 136565.0
144889.0 143471.0 85526.0 89574.0 135633.0 143831.0 191393.0 199194.0 139885.0 145914.0 19976.0 27654.0 297118.0 301604.0 190903.0 187201.0 131082.0 123814.0 0.0 7962.0 234649.0 239195.0 128143.0 121251.0 184981.0 183562.0 77721.0 69537.0 147681.0 155121.0 116051.0 108231.0 222290.0 227878.0 137558.0 144412.0 239841.0 240553.0 223187.0 215649.0 88720.0 210223.0 88720.0 88720.0 210223.0 210223.0
145893.0 144934.0 77859.0 82113.0 134540.0 142717.0 194431.0 202138.0 141809.0 148040.0 22318.0 29070.0 300260.0 304794.0 186532.0 182581.0 129575.0 122082.0 7962.0 0.0 236044.0 240367.0 128717.0 121581.0 187272.0 185665.0 77882.0 69777.0 149257.0 156512.0 114038.0 106118.0 224324.0 229712.0 138306.0 145377.0 234129.0 235033.0 217890.0 210275.0 94953.0 213414.0 94953.0 94953.0 213414.0 213414.0
90444.0 91179.0 241497.0 235558.0 114725.0 108762.0 62433.0 55986.0 95327.0 90104.0 253949.0 261820.0 92430.0 99974.0 162602.0 169192.0 122918.0 130783.0 234649.0 236044.0 0.0 8078.0 108461.0 116207.0 54855.0 54180.0 159014.0 166818.0 87005.0 79547.0 139456.0 146094.0 22372.0 14598.0 98550.0 91033.0 221448.0 214690.0 199517.0 199418.0 192960.0 64459.0 192960.0 192960.0 64459.0 64459.0
94495.0 95848.0 243415.0 237296.0 116559.0 110216.0 70226.0 63925.0 100528.0 95629.0 258627.0 266493.0 95757.0 103476.0 159968.0 166766.0 124596.0 132597.0 239195.0 240367.0 8078.0 0.0 112166.0 119773.0 61685.0 60636.0 162978.0 170880.0 91850.0 84155.0 141396.0 148268.0 30444.0 22661.0 102338.0 95033.0 217529.0 210628.0 195880.0 196078.0 199086.0 72531.0 199086.0 199086.0 72531.0 72531.0
18521.0 21998.0 137708.0 132892.0 28372.0 32365.0 81644.0 87321.0 26233.0 32911.0 147917.0 155725.0 184000.0 189663.0 116671.0 118667.0 33917.0 36889.0 128143.0 128717.0 108461.0 112166.0 0.0 7988.0 66937.0 63712.0 50932.0 58959.0 26650.0 31064.0 41849.0 45100.0 99995.0 104074.0 9949.0 17798.0 183029.0 179392.0 160189.0 155722.0 104539.0 102177.0 104539.0 104539.0 102177.0 102177.0
26503.0 29636.0 129800.0 125051.0 26692.0 32432.0 89182.0 95015.0 32820.0 39792.0 141102.0 148879.0 191929.0 197560.0 114583.0 116065.0 30448.0 31809.0 121251.0 121581.0 116207.0 119773.0 7988.0 0.0 74824.0 71653.0 43700.0 51818.0 34357.0 39039.0 35560.0 38004.0 107971.0 112004.0 17871.0 25772.0 180439.0 177113.0 157826.0 153038.0 101763.0 109679.0 101763.0 101763.0 109679.0 109679.0
48980.0 45452.0 204623.0 199822.0 84699.0 82098.0 20052.0 22208.0 45947.0 39322.0 203644.0 211487.0 117168.0 122737.0 158459.0 163163.0 92994.0 99208.0 184981.0 187272.0 54855.0 61685.0 66937.0 74824.0 0.0 4794.0 113173.0 120267.0 40683.0 36197.0 106364.0 111085.0 37806.0 44405.0 57655.0 49813.0 223912.0 218478.0 200702.0 198402.0 138719.0 38758.0 138719.0 138719.0 38758.0 38758.0
45509.0 42604.0 201407.0 196492.0 80552.0 77740.0 24843.0 26780.0 43938.0 37650.0 202389.0 210245.0 120294.0 126028.0 153685.0 158411.0 88891.0 95251.0 183562.0 185665.0 54180.0 60636.0 63712.0 71653.0 4794.0 0.0 110874.0 118114.0 37864.0 32729.0 102557.0 107460.0 38742.0 44768.0 54240.0 46323.0 219119.0 213684.0 195910.0 193618.0 138832.0 43398.0 138832.0 138832.0 43398.0 43398.0
68571.0 68689.0 97643.0 94881.0 59566.0 67671.0 123724.0 130745.0 67283.0 74179.0 97645.0 105375.0 229448.0 234435.0 132150.0 130985.0 56672.0 50868.0 77721.0 77882.0 159014.0 162978.0 50932.0 43700.0 113173.0 110874.0 0.0 8189.0 73280.0 79914.0 45453.0 39434.0 148900.0 153676.0 60659.0 67994.0 192552.0 190969.0 171896.0 165604.0 78028.0 143376.0 78028.0 78028.0 143376.0 143376.0
76410.0 76194.0 93676.0 91514.0 67472.0 75611.0 130169.0 137342.0 74321.0 81086.0 89457.0 97190.0 236112.0 240970.0 137652.0 136119.0 64242.0 58093.0 69537.0 69777.0 166818.0 170880.0 58959.0 51818.0 120267.0 118114.0 8189.0 0.0 80723.0 87542.0 52090.0 45512.0 156329.0 161242.0 68619.0 75854.0 196852.0 195552.0 176609.0 170121.0 74759.0 149722.0 74759.0 74759.0 149722.0 149722.0
11145.0 4770.0 164054.0 159391.0 49353.0 49572.0 55045.0 60677.0 10000.0 10579.0 166945.0 174815.0 157846.0 163354.0 133543.0 136752.0 56847.0 61674.0 147681.0 149257.0 87005.0 91850.0 26650.0 34357.0 40683.0 37864.0 73280.0 80723.0 0.0 8186.0 67765.0 71604.0 75623.0 80574.0 18371.0 11958.0 200347.0 195945.0 177137.0 173522.0 110802.0 75595.0 110802.0 110802.0 75595.0 75595.0
12792.0 11698.0 168700.0 163763.0 49794.0 48655.0 52642.0 57422.0 18084.0 16824.0 174489.0 182357.0 153007.0 158755.0 130880.0 134513.0 57800.0 63481.0 155121.0 156512.0 79547.0 84155.0 31064.0 39039.0 36197.0 32729.0 79914.0 87542.0 8186.0 0.0 70323.0 74895.0 69247.0 73775.0 21511.0 13619.0 197558.0 192894.0 174288.0 170998.0 118974.0 73098.0 118974.0 118974.0 73098.0 73098.0
57729.0 63372.0 102055.0 96137.0 24855.0 31880.0 122630.0 127731.0 68031.0 74758.0 135761.0 143006.0 221975.0 228088.0 87809.0 87511.0 17247.0 9010.0 116051.0 114038.0 139456.0 141396.0 41849.0 35560.0 106364.0 102557.0 45453.0 52090.0 67765.0 70323.0 0.0 8006.0 135518.0 138162.0 49449.0 56868.0 150849.0 148471.0 129175.0 123490.0 120994.0 143177.0 120994.0 120994.0 143177.0 143177.0
62139.0 67041.0 95496.0 89864.0 32055.0 39454.0 126648.0 132083.0 70823.0 77777.0 127897.0 135109.0 227361.0 233336.0 92802.0 91927.0 24938.0 16766.0 108231.0 106118.0 146094.0 148268.0 45100.0 38004.0 111085.0 107460.0 39434.0 45512.0 71604.0 74895.0 8006.0 0.0 141379.0 144309.0 53576.0 61296.0 154470.0 152455.0 133245.0 127255.0 116316.0 147199.0 116316.0 116316.0 147199.0 147199.0
81477.0 80218.0 236615.0 231214.0 111612.0 106897.0 41056.0 34066.0 82518.0 76377.0 241131.0 248987.0 87478.0 94213.0 170836.0 176810.0 120057.0 127368.0 222290.0 224324.0 22372.0 30444.0 99995.0 107971.0 37806.0 38742.0 148900.0 156329.0 75623.0 69247.0 135518.0 141379.0 0.0 8049.0 90120.0 82199.0 232639.0 226293.0 210088.0 209201.0 176257.0 42206.0 176257.0 176257.0 42206.0 42206.0
85629.0 85052.0 239751.0 234161.0 113882.0 108705.0 49018.0 42107.0 87993.0 82130.0 246876.0 254740.0 86958.0 94047.0 169198.0 175412.0 122273.0 129804.0 227878.0 229712.0 14598.0 22661.0 104074.0 112004.0 44405.0 44768.0 153676.0 161242.0 80574.0 73775.0 138162.0 144309.0 8049.0 0.0 94137.0 86309.0 229962.0 223452.0 207627.0 207038.0 183114.0 49871.0 183114.0 183114.0 49871.0 49871.0
8750.0 14235.0 147215.0 142253.0 31702.0 33315.0 73205.0 78509.0 21083.0 26627.0 157259.0 165087.0 174508.0 180267.0 118329.0 120958.0 38777.0 43320.0 137558.0 138306.0 98550.0 102338.0 9949.0 17871.0 57655.0 54240.0 60659.0 68619.0 18371.0 21511.0 49449.0 53576.0 90120.0 94137.0 0.0 7968.0 185057.0 181036.0 161995.0 157951.0 110237.0 93760.0 110237.0 110237.0 93760.0 93760.0
867.0 9169.0 155171.0 150182.0 37469.0 37651.0 65811.0 70884.0 17962.0 21785.0 164015.0 171862.0 166567.0 172350.0 121945.0 125006.0 45110.0 50306.0 144412.0 145377.0 91033.0 95033.0 17798.0 25772.0 49813.0 46323.0 67994.0 75854.0 11958.0 13619.0 56868.0 61296.0 82199.0 86309.0 7968.0 0.0 188757.0 184467.0 165583.0 161847.0 113779.0 86341.0 113779.0 113779.0 86341.0 86341.0
189474.0 197868.0 169728.0 162113.0 154657.0 151746.0 243936.0 245095.0 206003.0 210540.0 255451.0 260350.0 313261.0 321004.0 66812.0 64390.0 150003.0 150197.0 239841.0 234129.0 221448.0 217529.0 183029.0 180439.0 223912.0 219119.0 192552.0 196852.0 200347.0 197558.0 150849.0 154470.0 232639.0 229962.0 185057.0 188757.0 0.0 8118.0 23290.0 27441.0 270462.0 261626.0 270462.0 270462.0 261626.0 261626.0
185166.0 193609.0 172411.0 164674.0 151049.0 147778.0 238523.0 239483.0 201881.0 206228.0 256560.0 261649.0 306312.0 314080.0 62750.0 61216.0 146746.0 147356.0 240553.0 235033.0 214690.0 210628.0 179392.0 177113.0 218478.0 213684.0 190969.0 195552.0 195945.0 192894.0 148471.0 152455.0 226293.0 223452.0 181036.0 184467.0 8118.0 0.0 19338.0 25463.0 268692.0 255959.0 268692.0 268692.0 255959.0 255959.0
166293.0 174706.0 158004.0 150094.0 131830.0 128704.0 220716.0 221952.0 182898.0 187361.0 239628.0 244941.0 291630.0 299314.0 43670.0 41879.0 127441.0 128018.0 223187.0 217890.0 199517.0 195880.0 160189.0 157826.0 200702.0 195910.0 171896.0 176609.0 177137.0 174288.0 129175.0 133245.0 210088.0 207627.0 161995.0 165583.0 23290.0 19338.0 0.0 8092.0 249526.0 238506.0 249526.0 249526.0 238506.0 238506.0
162578.0 170923.0 149933.0 142031.0 127354.0 124639.0 218357.0 219877.0 178949.0 183628.0 231952.0 237205.0 291735.0 299357.0 40154.0 37058.0 122595.0 122757.0 215649.0 210275.0 199418.0 196078.0 155722.0 153038.0 198402.0 193618.0 165604.0 170121.0 173522.0 170998.0 123490.0 127255.0 209201.0 207038.0 157951.0 161847.0 27441.0 25463.0 8092.0 0.0 243402.0 236487.0 243402.0 243402.0 236487.0 236487.0
113808.0 108260.0 154576.0 154719.0 126955.0 133796.0 140034.0 148135.0 100929.0 104309.0 101167.0 107939.0 245365.0 249851.0 208797.0 208225.0 127471.0 124066.0 88720.0 94953.0 192960.0 199086.0 104539.0 101763.0 138719.0 138832.0 78028.0 74759.0 110802.0 118974.0 120994.0 116316.0 176257.0 183114.0 110237.0 113779.0 270462.0 268692.0 249526.0 243402.0 0.0 158470.0 0.0 0.0 158470.0 158470.0
85477.0 80183.0 238386.0 234156.0 122677.0 120562.0 20556.0 16669.0 77703.0 70508.0 227928.0 235656.0 88159.0 92214.0 196710.0 201614.0 130820.0 136565.0 210223.0 213414.0 64459.0 72531.0 102177.0 109679.0 38758.0 43398.0 143376.0 149722.0 75595.0 73098.0 143177.0 147199.0 42206.0 49871.0 93760.0 86341.0 261626.0 255959.0 238506.0 236487.0 158470.0 0.0 158470.0 158470.0 0.0 0.0
113808.0 108260.0 154576.0 154719.0 126955.0 133796.0 140034.0 148135.0 100929.0 104309.0 101167.0 107939.0 245365.0 249851.0 208797.0 208225.0 127471.0 124066.0 88720.0 94953.0 192960.0 199086.0 104539.0 101763.0 138719.0 138832.0 78028.0 74759.0 110802.0 118974.0 120994.0 116316.0 176257.0 183114.0 110237.0 113779.0 270462.0 268692.0 249526.0 243402.0 0.0 158470.0 0.0 0.0 158470.0 158470.0
113808.0 108260.0 154576.0 154719.0 126955.0 133796.0 140034.0 148135.0 100929.0 104309.0 101167.0 107939.0 245365.0 249851.0 208797.0 208225.0 127471.0 124066.0 88720.0 94953.0 192960.0 199086.0 104539.0 101763.0 138719.0 138832.0 78028.0 74759.0 110802.0 118974.0 120994.0 116316.0 176257.0 183114.0 110237.0 113779.0 270462.0 268692.0 249526.0 243402.0 0.0 158470.0 0.0 0.0 158470.0 158470.0
85477.0 80183.0 238386.0 234156.0 122677.0 120562.0 20556.0 16669.0 77703.0 70508.0 227928.0 235656.0 88159.0 92214.0 196710.0 201614.0 130820.0 136565.0 210223.0 213414.0 64459.0 72531.0 102177.0 109679.0 38758.0 43398.0 143376.0 149722.0 75595.0 73098.0 143177.0 147199.0 42206.0 49871.0 93760.0 86341.0 261626.0 255959.0 238506.0 236487.0 158470.0 0.0 158470.0 158470.0 0.0 0.0
85477.0 80183.0 238386.0 234156.0 122677.0 120562.0 20556.0 16669.0 77703.0 70508.0 227928.0 235656.0 88159.0 92214.0 196710.0 201614.0 130820.0 136565.0 210223.0 213414.0 64459.0 72531.0 102177.0 109679.0 38758.0 43398.0 143376.0 149722.0 75595.0 73098.0 143177.0 147199.0 42206.0 49871.0 93760.0 86341.0 261626.0 255959.0 238506.0 236487.0 158470.0 0.0 158470.0 158470.0 0.0 0.0
FIXED_EDGES_SECTION
1 2
3 4
5 6
7 8
9 10
11 12
13 14
15 16
17 18
19 20
21 22
23 24
25 26
27 28
29 30
31 32
33 34
35 36
37 38
39 40
-1 
DEMAND_SECTION
1 358
2 358
3 497
4 497
5 94
6 94
7 235
8 235
9 75
10 75
11 316
12 316
13 184
14 184
15 157
16 157
17 89
18 89
19 274
20 274
21 84
22 84
23 432
24 432
25 399
26 399
27 394
28 394
29 324
30 324
31 541
32 541
33 313
34 313
35 80
36 80
37 542
38 542
39 380
40 380
41 0
42 0
43 0
44 0
45 0
46 0
DEPOT_SECTION
41 
-1 
CAPACITIES_SECTION
5000 
5500 
6000 
-1 
EOF