NAME: GFS_20_1
TYPE: GFSP
DIMENSION: 58
VEHICLES: 4
CAPACITY: 1250.0
TRIP_DIST_LIMIT: 600000.0
TOTAL_DIST_LIMIT: 1050000.0
EDGE_WEIGHT_TYPE: EXPLICIT
EDGE_WEIGHT_FORMAT: FULL_MATRIX
EDGE_WEIGHT_SECTION
0.0 8167.0 39479.0 31479.0 160341.0 156852.0 62600.0 61940.0 77883.0 71682.0 149204.0 149831.0 138735.0 137562.0 287241.0 280412.0 87257.0 79316.0 225396.0 218748.0 355295.0 347448.0 162524.0 158238.0 108275.0 99777.0 71604.0 63533.0 72282.0 64336.0 115563.0 115760.0 271776.0 272380.0 89497.0 94190.0 109203.0 108437.0 109970.0 118426.0 134550.0 195588.0 134550.0 134550.0 134550.0 134550.0 134550.0 134550.0 134550.0 134550.0 195588.0 195588.0 195588.0 195588.0 195588.0 195588.0 195588.0 195588.0
8167.0 0.0 44272.0 36102.0 168507.0 165019.0 69503.0 68249.0 79708.0 73022.0 149223.0 150290.0 140452.0 139734.0 295263.0 288411.0 91519.0 83659.0 233434.0 226755.0 363398.0 355546.0 165527.0 160912.0 116026.0 107557.0 69756.0 61842.0 80205.0 72317.0 115422.0 116221.0 279942.0 280540.0 97563.0 102149.0 117345.0 116512.0 117896.0 126362.0 139846.0 203707.0 139846.0 139846.0 139846.0 139846.0 139846.0 139846.0 139846.0 139846.0 203707.0 203707.0 203707.0 203707.0 203707.0 203707.0 203707.0 203707.0
39479.0 44272.0 0.0 8174.0 144626.0 140455.0 75722.0 79283.0 43516.0 39609.0 117930.0 117141.0 102784.0 100609.0 262346.0 255079.0 47826.0 39868.0 201316.0 194084.0 332153.0 324186.0 124006.0 120214.0 81874.0 74211.0 110214.0 102100.0 51701.0 46401.0 151494.0 150560.0 253167.0 252662.0 70432.0 72056.0 98115.0 100302.0 86229.0 94478.0 153675.0 182518.0 153675.0 153675.0 153675.0 153675.0 153675.0 153675.0 153675.0 153675.0 182518.0 182518.0 182518.0 182518.0 182518.0 182518.0 182518.0 182518.0
31479.0 36102.0 8174.0 0.0 148520.0 144470.0 72812.0 75628.0 49068.0 44204.0 122945.0 122580.0 109242.0 107421.0 268324.0 261133.0 55781.0 47847.0 207061.0 199930.0 337857.0 329907.0 131454.0 127455.0 87648.0 79725.0 102584.0 94474.0 55609.0 49448.0 144607.0 143938.0 257923.0 257634.0 74394.0 76754.0 100683.0 102257.0 91452.0 99815.0 150345.0 186013.0 150345.0 150345.0 150345.0 150345.0 150345.0 150345.0 150345.0 150345.0 186013.0 186013.0 186013.0 186013.0 186013.0 186013.0 186013.0 186013.0
160341.0 168507.0 144626.0 148520.0 0.0 4794.0 113173.0 120267.0 167138.0 169750.0 223912.0 218478.0 194276.0 187055.0 134732.0 129278.0 142036.0 140941.0 75497.0 71629.0 198061.0 190475.0 187316.0 190480.0 69617.0 74272.0 191897.0 186591.0 92994.0 99208.0 200641.0 193812.0 111617.0 112771.0 74212.0 73214.0 51785.0 54881.0 61952.0 55678.0 138719.0 38758.0 138719.0 138719.0 138719.0 138719.0 138719.0 138719.0 138719.0 138719.0 38758.0 38758.0 38758.0 38758.0 38758.0 38758.0 38758.0 38758.0
156852.0 165019.0 140455.0 144470.0 4794.0 0.0 110874.0 118114.0 162519.0 165193.0 219119.0 213684.0 189485.0 182269.0 136503.0 130851.0 137316.0 136275.0 76519.0 72212.0 200651.0 193013.0 182637.0 185762.0 64904.0 69676.0 189831.0 184386.0 88891.0 95251.0 199687.0 192983.0 114942.0 115834.0 70097.0 68851.0 48854.0 52510.0 57316.0 50943.0 138832.0 43398.0 138832.0 138832.0 138832.0 138832.0 138832.0 138832.0 138832.0 138832.0 43398.0 43398.0 43398.0 43398.0 43398.0 43398.0 43398.0 43398.0
62600.0 69503.0 75722.0 72812.0 113173.0 110874.0 0.0 8189.0 118271.0 115205.0 192552.0 190969.0 173676.0 169890.0 247148.0 241222.0 111784.0 104900.0 186136.0 180761.0 311171.0 303619.0 187772.0 185991.0 86820.0 79349.0 79250.0 73542.0 56672.0 50868.0 98845.0 94388.0 223274.0 225240.0 61835.0 69726.0 62851.0 58364.0 83211.0 89963.0 78028.0 143376.0 78028.0 78028.0 78028.0 78028.0 78028.0 78028.0 78028.0 78028.0 143376.0 143376.0 143376.0 143376.0 143376.0 143376.0 143376.0 143376.0
61940.0 68249.0 79283.0 75628.0 120267.0 118114.0 8189.0 0.0 122395.0 118892.0 196852.0 195552.0 178901.0 175369.0 254528.0 248678.0 117489.0 110398.0 193683.0 188406.0 318108.0 310594.0 194005.0 191993.0 94954.0 87428.0 71745.0 66329.0 64242.0 58093.0 90719.0 86368.0 229817.0 231956.0 69979.0 77848.0 70478.0 65647.0 91398.0 98148.0 74759.0 149722.0 74759.0 74759.0 74759.0 74759.0 74759.0 74759.0 74759.0 74759.0 149722.0 149722.0 149722.0 149722.0 149722.0 149722.0 149722.0 149722.0
77883.0 79708.0 43516.0 49068.0 167138.0 162519.0 118271.0 122395.0 0.0 7913.0 74488.0 73643.0 60859.0 60069.0 269391.0 261649.0 29028.0 26868.0 211245.0 203461.0 340431.0 332413.0 86988.0 81732.0 97987.0 92875.0 149263.0 141250.0 81038.0 79322.0 193099.0 192750.0 268597.0 266778.0 97150.0 95314.0 128130.0 132299.0 105206.0 112027.0 196277.0 205896.0 196277.0 196277.0 196277.0 196277.0 196277.0 196277.0 196277.0 196277.0 205896.0 205896.0 205896.0 205896.0 205896.0 205896.0 205896.0 205896.0
71682.0 73022.0 39609.0 44204.0 169750.0 165193.0 115205.0 118892.0 7913.0 0.0 78746.0 78584.0 67461.0 67166.0 274734.0 267044.0 35117.0 31551.0 216074.0 208348.0 345694.0 337675.0 94577.0 89142.0 101167.0 95548.0 142736.0 134767.0 81510.0 79008.0 187175.0 187067.0 272710.0 271096.0 98413.0 97208.0 129010.0 132756.0 107997.0 115139.0 193212.0 208479.0 193212.0 193212.0 193212.0 193212.0 193212.0 193212.0 193212.0 193212.0 208479.0 208479.0 208479.0 208479.0 208479.0 208479.0 208479.0 208479.0
149204.0 149223.0 117930.0 122945.0 223912.0 219119.0 192552.0 196852.0 74488.0 78746.0 0.0 8118.0 31671.0 39691.0 300987.0 292930.0 86422.0 91022.0 250144.0 242160.0 371164.0 363320.0 60045.0 51925.0 155605.0 153377.0 218501.0 210778.0 150003.0 150197.0 264570.0 264963.0 311953.0 308438.0 162970.0 158920.0 194080.0 199583.0 164209.0 168890.0 270462.0 261626.0 270462.0 270462.0 270462.0 270462.0 270462.0 270462.0 270462.0 270462.0 261626.0 261626.0 261626.0 261626.0 261626.0 261626.0 261626.0 261626.0
149831.0 150290.0 117141.0 122580.0 218478.0 213684.0 190969.0 195552.0 73643.0 78584.0 8118.0 0.0 24800.0 32697.0 293510.0 285449.0 82912.0 88050.0 243148.0 235171.0 363578.0 355748.0 51929.0 43817.0 150666.0 148798.0 219862.0 212051.0 146746.0 147356.0 265376.0 265508.0 305120.0 301498.0 159057.0 154704.0 190009.0 195721.0 159357.0 163758.0 268692.0 255959.0 268692.0 268692.0 268692.0 268692.0 268692.0 268692.0 268692.0 268692.0 255959.0 255959.0 255959.0 255959.0 255959.0 255959.0 255959.0 255959.0
138735.0 140452.0 102784.0 109242.0 194276.0 189485.0 173676.0 178901.0 60859.0 67461.0 31671.0 24800.0 0.0 8030.0 269474.0 261421.0 62672.0 68927.0 218495.0 210513.0 339782.0 331919.0 34883.0 27010.0 127135.0 125789.0 210098.0 202096.0 126112.0 127582.0 253761.0 253178.0 280379.0 276810.0 137106.0 132252.0 167670.0 173719.0 135919.0 139949.0 250648.0 231534.0 250648.0 250648.0 250648.0 250648.0 250648.0 250648.0 250648.0 250648.0 231534.0 231534.0 231534.0 231534.0 231534.0 231534.0 231534.0 231534.0
137562.0 139734.0 100609.0 107421.0 187055.0 182269.0 169890.0 175369.0 60069.0 67166.0 39691.0 32697.0 8030.0 0.0 261454.0 253402.0 58248.0 64998.0 210502.0 202521.0 331782.0 323915.0 30104.0 23025.0 120410.0 119384.0 209122.0 201074.0 120967.0 122848.0 252015.0 251169.0 272427.0 268830.0 131258.0 126146.0 161561.0 167774.0 129239.0 133030.0 246410.0 224138.0 246410.0 246410.0 246410.0 246410.0 246410.0 246410.0 246410.0 246410.0 224138.0 224138.0 224138.0 224138.0 224138.0 224138.0 224138.0 224138.0
287241.0 295263.0 262346.0 268324.0 134732.0 136503.0 247148.0 254528.0 269391.0 274734.0 300987.0 293510.0 269474.0 261454.0 0.0 8065.0 240429.0 243186.0 61891.0 68544.0 71127.0 63125.0 246101.0 252833.0 180687.0 188753.0 326272.0 320687.0 215176.0 222957.0 334467.0 327315.0 52757.0 44441.0 197790.0 193191.0 184448.0 188882.0 177603.0 169124.0 269783.0 116178.0 269783.0 269783.0 269783.0 269783.0 269783.0 269783.0 269783.0 269783.0 116178.0 116178.0 116178.0 116178.0 116178.0 116178.0 116178.0 116178.0
280412.0 288411.0 255079.0 261133.0 129278.0 130851.0 241222.0 248678.0 261649.0 267044.0 292930.0 285449.0 261421.0 253402.0 8065.0 0.0 232672.0 235502.0 55362.0 61675.0 79010.0 71022.0 238045.0 244771.0 173532.0 181657.0 320418.0 314733.0 208262.0 216094.0 329486.0 322426.0 54678.0 46250.0 191029.0 186284.0 178430.0 183062.0 170633.0 162152.0 265195.0 112592.0 265195.0 265195.0 265195.0 265195.0 265195.0 265195.0 265195.0 265195.0 112592.0 112592.0 112592.0 112592.0 112592.0 112592.0 112592.0 112592.0
87257.0 91519.0 47826.0 55781.0 142036.0 137316.0 111784.0 117489.0 29028.0 35117.0 86422.0 82912.0 62672.0 58248.0 240429.0 232672.0 0.0 7971.0 182610.0 174784.0 311493.0 303477.0 77528.0 74762.0 72422.0 68639.0 157865.0 149754.0 63858.0 64930.0 197655.0 196053.0 240665.0 238605.0 76659.0 73072.0 107881.0 113204.0 80395.0 86380.0 188170.0 180652.0 188170.0 188170.0 188170.0 188170.0 188170.0 188170.0 188170.0 188170.0 180652.0 180652.0 180652.0 180652.0 180652.0 180652.0 180652.0 180652.0
79316.0 83659.0 39868.0 47847.0 140941.0 136275.0 104900.0 110398.0 26868.0 31551.0 91022.0 88050.0 68927.0 64998.0 243186.0 235502.0 7971.0 0.0 184607.0 176859.0 314142.0 306124.0 85273.0 82289.0 71493.0 66869.0 149896.0 141784.0 59033.0 59306.0 189817.0 188285.0 241732.0 239941.0 73144.0 70294.0 104429.0 109347.0 79010.0 85541.0 181724.0 179673.0 181724.0 181724.0 181724.0 181724.0 181724.0 181724.0 181724.0 181724.0 179673.0 179673.0 179673.0 179673.0 179673.0 179673.0 179673.0 179673.0
225396.0 233434.0 201316.0 207061.0 75497.0 76519.0 186136.0 193683.0 211245.0 216074.0 250144.0 243148.0 218495.0 210502.0 61891.0 55362.0 182610.0 184607.0 0.0 7996.0 130837.0 122870.0 199675.0 205448.0 119459.0 127351.0 265378.0 259586.0 153426.0 161151.0 276117.0 269310.0 62806.0 58446.0 135921.0 131443.0 123291.0 128188.0 115959.0 107494.0 213451.0 68145.0 213451.0 213451.0 213451.0 213451.0 213451.0 213451.0 213451.0 213451.0 68145.0 68145.0 68145.0 68145.0 68145.0 68145.0 68145.0 68145.0
218748.0 226755.0 194084.0 199930.0 71629.0 72212.0 180761.0 188406.0 203461.0 208348.0 242160.0 235171.0 210513.0 202521.0 68544.0 61675.0 174784.0 176859.0 7996.0 0.0 138150.0 130163.0 191841.0 197569.0 112286.0 120276.0 260004.0 254085.0 146639.0 154440.0 271869.0 265194.0 70579.0 66381.0 129355.0 124654.0 117932.0 123137.0 109060.0 100581.0 210164.0 68493.0 210164.0 210164.0 210164.0 210164.0 210164.0 210164.0 210164.0 210164.0 68493.0 68493.0 68493.0 68493.0 68493.0 68493.0 68493.0 68493.0
355295.0 363398.0 332153.0 337857.0 198061.0 200651.0 311171.0 318108.0 340431.0 345694.0 371164.0 363578.0 339782.0 331782.0 71127.0 79010.0 311493.0 314142.0 130837.0 138150.0 0.0 8018.0 315202.0 322198.0 250290.0 258133.0 389436.0 384409.0 283800.0 291353.0 393443.0 386110.0 90958.0 87037.0 265885.0 261870.0 249474.0 252942.0 246581.0 238146.0 328359.0 171494.0 328359.0 328359.0 328359.0 328359.0 328359.0 328359.0 328359.0 328359.0 171494.0 171494.0 171494.0 171494.0 171494.0 171494.0 171494.0 171494.0
347448.0 355546.0 324186.0 329907.0 190475.0 193013.0 303619.0 310594.0 332413.0 337675.0 363320.0 355748.0 331919.0 323915.0 63125.0 71022.0 303477.0 306124.0 122870.0 130163.0 8018.0 0.0 307483.0 314449.0 242327.0 250184.0 381984.0 376909.0 275903.0 283472.0 386219.0 378886.0 84264.0 79988.0 258018.0 253965.0 241815.0 245355.0 238654.0 230215.0 321135.0 164411.0 321135.0 321135.0 321135.0 321135.0 321135.0 321135.0 321135.0 321135.0 164411.0 164411.0 164411.0 164411.0 164411.0 164411.0 164411.0 164411.0
162524.0 165527.0 124006.0 131454.0 187316.0 182637.0 187772.0 194005.0 86988.0 94577.0 60045.0 51929.0 34883.0 30104.0 246101.0 238045.0 77528.0 85273.0 199675.0 191841.0 315202.0 307483.0 0.0 8242.0 125923.0 126943.0 234010.0 225906.0 134722.0 138194.0 275041.0 273558.0 262412.0 258025.0 141516.0 135200.0 169788.0 176781.0 134776.0 136792.0 262112.0 222342.0 262112.0 262112.0 262112.0 262112.0 262112.0 262112.0 262112.0 262112.0 222342.0 222342.0 222342.0 222342.0 222342.0 222342.0 222342.0 222342.0
158238.0 160912.0 120214.0 127455.0 190480.0 185762.0 185991.0 191993.0 81732.0 89142.0 51925.0 43817.0 27010.0 23025.0 252833.0 244771.0 74762.0 82289.0 205448.0 197569.0 322198.0 314449.0 8242.0 0.0 127493.0 127966.0 229826.0 221739.0 134036.0 137051.0 271602.0 270352.0 268088.0 263864.0 141863.0 135854.0 170805.0 177602.0 136386.0 138882.0 261115.0 226086.0 261115.0 261115.0 261115.0 261115.0 261115.0 261115.0 261115.0 261115.0 226086.0 226086.0 226086.0 226086.0 226086.0 226086.0 226086.0 226086.0
108275.0 116026.0 81874.0 87648.0 69617.0 64904.0 86820.0 94954.0 97987.0 101167.0 155605.0 150666.0 127135.0 120410.0 180687.0 173532.0 72422.0 71493.0 119459.0 112286.0 250290.0 242327.0 125923.0 127493.0 0.0 8574.0 160670.0 153540.0 36583.0 44816.0 185665.0 181088.0 172503.0 171499.0 24996.0 17130.0 44732.0 52341.0 8902.0 14049.0 146755.0 108273.0 146755.0 146755.0 146755.0 146755.0 146755.0 146755.0 146755.0 146755.0 108273.0 108273.0 108273.0 108273.0 108273.0 108273.0 108273.0 108273.0
99777.0 107557.0 74211.0 79725.0 74272.0 69676.0 79349.0 87428.0 92875.0 95548.0 153377.0 148798.0 125789.0 119384.0 188753.0 181657.0 68639.0 66869.0 127351.0 120276.0 258133.0 250184.0 126943.0 127966.0 8574.0 0.0 152364.0 145184.0 28010.0 36245.0 178132.0 173727.0 179403.0 178634.0 18022.0 10000.0 42858.0 49893.0 12502.0 20344.0 141709.0 113029.0 141709.0 141709.0 141709.0 141709.0 141709.0 141709.0 141709.0 141709.0 113029.0 113029.0 113029.0 113029.0 113029.0 113029.0 113029.0 113029.0
71604.0 69756.0 110214.0 102584.0 191897.0 189831.0 79250.0 71745.0 149263.0 142736.0 218501.0 219862.0 210098.0 209122.0 326272.0 320418.0 157865.0 149896.0 265378.0 260004.0 389436.0 381984.0 234010.0 229826.0 160670.0 152364.0 0.0 8114.0 125282.0 117342.0 48726.0 52126.0 300467.0 302956.0 136733.0 143873.0 142100.0 137390.0 158958.0 166537.0 110171.0 220209.0 110171.0 110171.0 110171.0 110171.0 110171.0 110171.0 110171.0 110171.0 220209.0 220209.0 220209.0 220209.0 220209.0 220209.0 220209.0 220209.0
63533.0 61842.0 102100.0 94474.0 186591.0 184386.0 73542.0 66329.0 141250.0 134767.0 210778.0 212051.0 202096.0 201074.0 320687.0 314733.0 149754.0 141784.0 259586.0 254085.0 384409.0 376909.0 225906.0 221739.0 153540.0 145184.0 8114.0 0.0 117920.0 109921.0 55306.0 57924.0 295820.0 298130.0 129815.0 136839.0 136309.0 131880.0 152057.0 159737.0 109736.0 215591.0 109736.0 109736.0 109736.0 109736.0 109736.0 109736.0 109736.0 109736.0 215591.0 215591.0 215591.0 215591.0 215591.0 215591.0 215591.0 215591.0
72282.0 80205.0 51701.0 55609.0 92994.0 88891.0 56672.0 64242.0 81038.0 81510.0 150003.0 146746.0 126112.0 120967.0 215176.0 208262.0 63858.0 59033.0 153426.0 146639.0 283800.0 275903.0 134722.0 134036.0 36583.0 28010.0 125282.0 117920.0 0.0 8237.0 153911.0 150177.0 202484.0 202394.0 18794.0 21986.0 47626.0 51291.0 37692.0 46157.0 127471.0 130820.0 127471.0 127471.0 127471.0 127471.0 127471.0 127471.0 127471.0 127471.0 130820.0 130820.0 130820.0 130820.0 130820.0 130820.0 130820.0 130820.0
64336.0 72317.0 46401.0 49448.0 99208.0 95251.0 50868.0 58093.0 79322.0 79008.0 150197.0 147356.0 127582.0 122848.0 222957.0 216094.0 64930.0 59306.0 161151.0 154440.0 291353.0 283472.0 138194.0 137051.0 44816.0 36245.0 117342.0 109921.0 8237.0 0.0 146933.0 143436.0 209394.0 209482.0 25598.0 29863.0 51734.0 54325.0 45686.0 54119.0 124066.0 136565.0 124066.0 124066.0 124066.0 124066.0 124066.0 124066.0 124066.0 124066.0 136565.0 136565.0 136565.0 136565.0 136565.0 136565.0 136565.0 136565.0
115563.0 115422.0 151494.0 144607.0 200641.0 199687.0 98845.0 90719.0 193099.0 187175.0 264570.0 265376.0 253761.0 252015.0 334467.0 329486.0 197655.0 189817.0 276117.0 271869.0 393443.0 386219.0 275041.0 271602.0 185665.0 178132.0 48726.0 55306.0 153911.0 146933.0 0.0 8543.0 303812.0 306527.0 160679.0 168565.0 156640.0 150112.0 181859.0 188259.0 92852.0 223554.0 92852.0 92852.0 92852.0 92852.0 92852.0 92852.0 92852.0 92852.0 223554.0 223554.0 223554.0 223554.0 223554.0 223554.0 223554.0 223554.0
115760.0 116221.0 150560.0 143938.0 193812.0 192983.0 94388.0 86368.0 192750.0 187067.0 264963.0 265508.0 253178.0 251169.0 327315.0 322426.0 196053.0 188285.0 269310.0 265194.0 386110.0 378886.0 273558.0 270352.0 181088.0 173727.0 52126.0 57924.0 150177.0 143436.0 8543.0 0.0 296479.0 299194.0 156095.0 164045.0 150724.0 144011.0 176970.0 183154.0 84514.0 216221.0 84514.0 84514.0 84514.0 84514.0 84514.0 84514.0 84514.0 84514.0 216221.0 216221.0 216221.0 216221.0 216221.0 216221.0 216221.0 216221.0
271776.0 279942.0 253167.0 257923.0 111617.0 114942.0 223274.0 229817.0 268597.0 272710.0 311953.0 305120.0 280379.0 272427.0 52757.0 54678.0 240665.0 241732.0 62806.0 70579.0 90958.0 84264.0 262412.0 268088.0 172503.0 179403.0 300467.0 295820.0 202484.0 209394.0 303812.0 296479.0 0.0 8428.0 183856.0 181197.0 163346.0 165796.0 167097.0 159071.0 238728.0 81174.0 238728.0 238728.0 238728.0 238728.0 238728.0 238728.0 238728.0 238728.0 81174.0 81174.0 81174.0 81174.0 81174.0 81174.0 81174.0 81174.0
272380.0 280540.0 252662.0 257634.0 112771.0 115834.0 225240.0 231956.0 266778.0 271096.0 308438.0 301498.0 276810.0 268830.0 44441.0 46250.0 238605.0 239941.0 58446.0 66381.0 87037.0 79988.0 258025.0 263864.0 171499.0 178634.0 302956.0 298130.0 202394.0 209482.0 306527.0 299194.0 8428.0 0.0 183892.0 180886.0 164550.0 167382.0 166450.0 158293.0 241444.0 84457.0 241444.0 241444.0 241444.0 241444.0 241444.0 241444.0 241444.0 241444.0 84457.0 84457.0 84457.0 84457.0 84457.0 84457.0 84457.0 84457.0
89497.0 97563.0 70432.0 74394.0 74212.0 70097.0 61835.0 69979.0 97150.0 98413.0 162970.0 159057.0 137106.0 131258.0 197790.0 191029.0 76659.0 73144.0 135921.0 129355.0 265885.0 258018.0 141516.0 141863.0 24996.0 18022.0 136733.0 129815.0 18794.0 25598.0 160679.0 156095.0 183856.0 183892.0 0.0 8048.0 31289.0 36668.0 22244.0 30135.0 124185.0 112154.0 124185.0 124185.0 124185.0 124185.0 124185.0 124185.0 124185.0 124185.0 112154.0 112154.0 112154.0 112154.0 112154.0 112154.0 112154.0 112154.0
94190.0 102149.0 72056.0 76754.0 73214.0 68851.0 69726.0 77848.0 95314.0 97208.0 158920.0 154704.0 132252.0 126146.0 193191.0 186284.0 73072.0 70294.0 131443.0 124654.0 261870.0 253965.0 135200.0 135854.0 17130.0 10000.0 143873.0 136839.0 21986.0 29863.0 168565.0 164045.0 181197.0 180886.0 8048.0 0.0 35423.0 41798.0 15869.0 24263.0 131866.0 111706.0 131866.0 131866.0 131866.0 131866.0 131866.0 131866.0 131866.0 131866.0 111706.0 111706.0 111706.0 111706.0 111706.0 111706.0 111706.0 111706.0
109203.0 117345.0 98115.0 100683.0 51785.0 48854.0 62851.0 70478.0 128130.0 129010.0 194080.0 190009.0 167670.0 161561.0 184448.0 178430.0 107881.0 104429.0 123291.0 117932.0 249474.0 241815.0 169788.0 170805.0 44732.0 42858.0 142100.0 136309.0 47626.0 51734.0 156640.0 150724.0 163346.0 164550.0 31289.0 35423.0 0.0 8047.0 36455.0 38310.0 105814.0 86491.0 105814.0 105814.0 105814.0 105814.0 105814.0 105814.0 105814.0 105814.0 86491.0 86491.0 86491.0 86491.0 86491.0 86491.0 86491.0 86491.0
108437.0 116512.0 100302.0 102257.0 54881.0 52510.0 58364.0 65647.0 132299.0 132756.0 199583.0 195721.0 173719.0 167774.0 188882.0 183062.0 113204.0 109347.0 128188.0 123137.0 252942.0 245355.0 176781.0 177602.0 52341.0 49893.0 137390.0 131880.0 51291.0 54325.0 150112.0 144011.0 165796.0 167382.0 36668.0 41798.0 8047.0 0.0 44247.0 46347.0 97865.0 87390.0 97865.0 97865.0 97865.0 97865.0 97865.0 97865.0 97865.0 97865.0 87390.0 87390.0 87390.0 87390.0 87390.0 87390.0 87390.0 87390.0
109970.0 117896.0 86229.0 91452.0 61952.0 57316.0 83211.0 91398.0 105206.0 107997.0 164209.0 159357.0 135919.0 129239.0 177603.0 170633.0 80395.0 79010.0 115959.0 109060.0 246581.0 238654.0 134776.0 136386.0 8902.0 12502.0 158958.0 152057.0 37692.0 45686.0 181859.0 176970.0 167097.0 166450.0 22244.0 15869.0 36455.0 44247.0 0.0 8481.0 139943.0 100704.0 139943.0 139943.0 139943.0 139943.0 139943.0 139943.0 139943.0 139943.0 100704.0 100704.0 100704.0 100704.0 100704.0 100704.0 100704.0 100704.0
118426.0 126362.0 94478.0 99815.0 55678.0 50943.0 89963.0 98148.0 112027.0 115139.0 168890.0 163758.0 139949.0 133030.0 169124.0 162152.0 86380.0 85541.0 107494.0 100581.0 238146.0 230215.0 136792.0 138882.0 14049.0 20344.0 166537.0 159737.0 46157.0 54119.0 188259.0 183154.0 159071.0 158293.0 30135.0 24263.0 38310.0 46347.0 8481.0 0.0 143565.0 94275.0 143565.0 143565.0 143565.0 143565.0 143565.0 143565.0 143565.0 143565.0 94275.0 94275.0 94275.0 94275.0 94275.0 94275.0 94275.0 94275.0
134550.0 139846.0 153675.0 150345.0 138719.0 138832.0 78028.0 74759.0 196277.0 193212.0 270462.0 268692.0 250648.0 246410.0 269783.0 265195.0 188170.0 181724.0 213451.0 210164.0 328359.0 321135.0 262112.0 261115.0 146755.0 141709.0 110171.0 109736.0 127471.0 124066.0 92852.0 84514.0 238728.0 241444.0 124185.0 131866.0 105814.0 97865.0 139943.0 143565.0 0.0 158470.0 0.0 0.0 0.0 0.0 0.0 0.0 0.0 0.0 158470.0 158470.0 158470.0 158470.0 158470.0 158470.0 158470.0 158470.0
195588.0 203707.0 182518.0 186013.0 38758.0 43398.0 143376.0 149722.0 205896.0 208479.0 261626.0 255959.0 231534.0 224138.0 116178.0 112592.0 180652.0 179673.0 68145.0 68493.0 171494.0 164411.0 222342.0 226086.0 108273.0 113029.0 220209.0 215591.0 130820.0 136565.0 223554.0 216221.0 81174.0 84457.0 112154.0 111706.0 86491.0 87390.0 100704.0 94275.0 158470.0 0.0 158470.0 158470.0 158470.0 158470.0 158470.0 158470.0 158470.0 158470.0 0.0 0.0 0.0 0.0 0.0 0.0 0.0 0.0
134550.0 139846.0 153675.0 150345.0 138719.0 138832.0 78028.0 74759.0 196277.0 193212.0 270462.0 268692.0 250648.0 246410.0 269783.0 265195.0 188170.0 181724.0 213451.0 210164.0 328359.0 321135.0 262112.0 261115.0 146755.0 141709.0 110171.0 109736.0 127471.0 124066.0 92852.0 84514.0 238728.0 241444.0 124185.0 131866.0 105814.0 97865.0 139943.0 143565.0 0.0 158470.0 0.0 0.0 0.0 0.0 0.0 0.0 0.0 0.0 158470.0 158470.0 158470.0 158470.0 158470.0 158470.0 158470.0 158470.0
134550.0 139846.0 153675.0 150345.0 138719.0 138832.0 78028.0 74759.0 196277.0 193212.0 270462.0 268692.0 250648.0 246410.0 269783.0 265195.0 188170.0 181724.0 213451.0 210164.0 328359.0 321135.0 262112.0 261115.0 146755.0 141709.0 110171.0 109736.0 127471.0 124066.0 92852.0 84514.0 238728.0 241444.0 124185.0 131866.0 105814.0 97865.0 139943.0 143565.0 0.0 158470.0 0.0 0.0 0.0 0.0 0.0 0.0 0.0 0.0 158470.0 158470.0 158470.0 158470.0 158470.0 158470.0 158470.0 158470.0
134550.0 139846.0 153675.0 150345.0 138719.0 138832.0 78028.0 74759.0 196277.0 193212.0 270462.0 268692.0 250648.0 246410.0 269783.0 265195.0 188170.0 181724.0 213451.0 210164.0 328359.0 321135.0 262112.0 261115.0 146755.0 141709.0 110171.0 109736.0 127471.0 124066.0 92852.0 84514.0 238728.0 241444.0 124185.0 131866.0 105814.0 97865.0 139943.0 143565.0 0.0 158470.0 0.0 0.0 0.0 0.0 0.0 0.0 0.0 0.0 158470.0 158470.0 158470.0 158470.0 158470.0 158470.0 158470.0 158470.0
134550.0 139846.0 153675.0 150345.0 138719.0 138832.0 78028.0 74759.0 196277.0 193212.0 270462.0 268692.0 250648.0 246410.0 269783.0 265195.0 188170.0 181724.0 213451.0 210164.0 328359.0 321135.0 262112.0 261115.0 146755.0 141709.0 110171.0 109736.0 127471.0 124066.0 92852.0 84514.0 238728.0 241444.0 124185.0 131866.0 105814.0 97865.0 139943.0 143565.0 0.0 158470.0 0.0 0.0 0.0 0.0 0.0 0.0 0.0 0.0 158470.0 158470.0 158470.0 158470.0 158470.0 158470.0 158470.0 158470.0
134550.0 139846.0 153675.0 150345.0 138719.0 138832.0 78028.0 74759.0 196277.0 193212.0 270462.0 268692.0 250648.0 246410.0 269783.0 265195.0 188170.0 181724.0 213451.0 210164.0 328359.0 321135.0 262112.0 261115.0 146755.0 141709.0 110171.0 109736.0 127471.0 124066.0 92852.0 84514.0 238728.0 241444.0 124185.0 131866.0 105814.0 97865.0 139943.0 143565.0 0.0 158470.0 0.0 0.0 0.0 0.0 0.0 0.0 0.0 0.0 158470.0 158470.0 158470.0 158470.0 158470.0 158470.0 158470.0 158470.0
134550.0 139846.0 153675.0 150345.0 138719.0 138832.0 78028.0 74759.0 196277.0 193212.0 270462.0 268692.0 250648.0 246410.0 269783.0 265195.0 188170.0 181724.0 213451.0 210164.0 328359.0 321135.0 262112.0 261115.0 146755.0 141709.0 110171.0 109736.0 127471.0 124066.0 92852.0 84514.0 238728.0 241444.0 124185.0 131866.0 105814.0 97865.0 139943.0 143565.0 0.0 158470.0 0.0 0.0 0.0 0.0 0.0 0.0 0.0 0.0 158470.0 158470.0 158470.0 158470.0 158470.0 158470.0 158470.0 158470.0
134550.0 139846.0 153675.0 150345.0 138719.0 138832.0 78028.0 74759.0 196277.0 193212.0 270462.0 268692.0 250648.0 246410.0 269783.0 265195.0 188170.0 181724.0 213451.0 210164.0 328359.0 321135.0 262112.0 261115.0 146755.0 141709.0 110171.0 109736.0 127471.0 124066.0 92852.0 84514.0 238728.0 241444.0 124185.0 131866.0 105814.0 97865.0 139943.0 143565.0 0.0 158470.0 0.0 0.0 0.0 0.0 0.0 0.0 0.0 0.0 158470.0 158470.0 158470.0 158470.0 158470.0 158470.0 158470.0 158470.0
134550.0 139846.0 153675.0 150345.0 138719.0 138832.0 78028.0 74759.0 196277.0 193212.0 270462.0 268692.0 250648.0 246410.0 269783.0 265195.0 188170.0 181724.0 213451.0 210164.0 328359.0 321135.0 262112.0 261115.0 146755.0 141709.0 110171.0 109736.0 127471.0 124066.0 92852.0 84514.0 238728.0 241444.0 124185.0 131866.0 105814.0 97865.0 139943.0 143565.0 0.0 158470.0 0.0 0.0 0.0 0.0 0.0 0.0 0.0 0.0 158470.0 158470.0 158470.0 158470.0 158470.0 158470.0 158470.0 158470.0
195588.0 203707.0 182518.0 186013.0 38758.0 43398.0 143376.0 149722.0 205896.0 208479.0 261626.0 255959.0 231534.0 224138.0 116178.0 112592.0 180652.0 179673.0 68145.0 68493.0 171494.0 164411.0 222342.0 226086.0 108273.0 113029.0 220209.0 215591.0 130820.0 136565.0 223554.0 216221.0 81174.0 84457.0 112154.0 111706.0 86491.0 87390.0 100704.0 94275.0 158470.0 0.0 158470.0 158470.0 158470.0 158470.0 158470.0 158470.0 158470.0 158470.0 0.0 0.0 0.0 0.0 0.0 0.0 0.0 0.0
195588.0 203707.0 182518.0 186013.0 38758.0 43398.0 143376.0 149722.0 205896.0 208479.0 261626.0 255959.0 231534.0 224138.0 116178.0 112592.0 180652.0 179673.0 68145.0 68493.0 171494.0 164411.0 222342.0 226086.0 108273.0 113029.0 220209.0 215591.0 130820.0 136565.0 223554.0 216221.0 81174.0 84457.0 112154.0 111706.0 86491.0 87390.0 100704.0 94275.0 158470.0 0.0 158470.0 158470.0 158470.0 158470.0 158470.0 158470.0 158470.0 158470.0 0.0 0.0 0.0 0.0 0.0 0.0 0.0 0.0
195588.0 203707.0 182518.0 186013.0 38758.0 43398.0 143376.0 149722.0 205896.0 208479.0 261626.0 255959.0 231534.0 224138.0 116178.0 112592.0 180652.0 179673.0 68145.0 68493.0 171494.0 164411.0 222342.0 226086.0 108273.0 113029.0 220209.0 215591.0 130820.0 136565.0 223554.0 216221.0 81174.0 84457.0 112154.0 111706.0 86491.0 87390.0 100704.0 94275.0 158470.0 0.0 158470.0 158470.0 158470.0 158470.0 158470.0 158470.0 158470.0 158470.0 0.0 0.0 0.0 0.0 0.0 0.0 0.0 0.0
195588.0 203707.0 182518.0 186013.0 38758.0 43398.0 143376.0 149722.0 205896.0 208479.0 261626.0 255959.0 231534.0 224138.0 116178.0 112592.0 180652.0 179673.0 68145.0 68493.0 171494.0 164411.0 222342.0 226086.0 108273.0 113029.0 220209.0 215591.0 130820.0 136565.0 223554.0 216221.0 81174.0 84457.0 112154.0 111706.0 86491.0 87390.0 100704.0 94275.0 158470.0 0.0 158470.0 158470.0 158470.0 158470.0 158470.0 158470.0 158470.0 158470.0 0.0 0.0 0.0 0.0 0.0 0.0 0.0 0.0
195588.0 203707.0 182518.0 186013.0 38758.0 43398.0 143376.0 149722.0 205896.0 208479.0 261626.0 255959.0 231534.0 224138.0 116178.0 112592.0 180652.0 179673.0 68145.0 68493.0 171494.0 164411.0 222342.0 226086.0 108273.0 113029.0 220209.0 215591.0 130820.0 136565.0 223554.0 216221.0 81174.0 84457.0 112154.0 111706.0 86491.0 87390.0 100704.0 94275.0 158470.0 0.0 158470.0 158470.0 158470.0 158470.0 158470.0 158470.0 158470.0 158470.0 0.0 0.0 0.0 0.0 0.0 0.0 0.0 0.0
195588.0 203707.0 182518.0 186013.0 38758.0 43398.0 143376.0 149722.0 205896.0 208479.0 261626.0 255959.0 231534.0 224138.0 116178.0 112592.0 180652.0 179673.0 68145.0 68493.0 171494.0 164411.0 222342.0 226086.0 108273.0 113029.0 220209.0 215591.0 130820.0 136565.0 223554.0 216221.0 81174.0 84457.0 112154.0 111706.0 86491.0 87390.0 100704.0 94275.0 158470.0 0.0 158470.0 158470.0 158470.0 158470.0 158470.0 158470.0 158470.0 158470.0 0.0 0.0 0.0 0.0 0.0 0.0 0.0 0.0
195588.0 203707.0 182518.0 186013.0 38758.0 43398.0 143376.0 149722.0 205896.0 208479.0 261626.0 255959.0 231534.0 224138.0 116178.0 112592.0 180652.0 179673.0 68145.0 68493.0 171494.0 164411.0 222342.0 226086.0 108273.0 113029.0 220209.0 215591.0 130820.0 136565.0 223554.0 216221.0 81174.0 84457.0 112154.0 111706.0 86491.0 87390.0 100704.0 94275.0 158470.0 0.0 158470.0 158470.0 158470.0 158470.0 158470.0 158470.0 158470.0 158470.0 0.0 0.0 0.0 0.0 0.0 0.0 0.0 0.0
195588.0 203707.0 182518.0 186013.0 38758.0 43398.0 143376.0 149722.0 205896.0 208479.0 261626.0 255959.0 231534.0 224138.0 116178.0 112592.0 180652.0 179673.0 68145.0 68493.0 171494.0 164411.0 222342.0 226086.0 108273.0 113029.0 220209.0 215591.0 130820.0 136565.0 223554.0 216221.0 81174.0 84457.0 112154.0 111706.0 86491.0 87390.0 100704.0 94275.0 158470.0 0.0 158470.0 158470.0 158470.0 158470.0 158470.0 158470.0 158470.0 158470.0 0.0 0.0 0.0 0.0 0.0 0.0 0.0 0.0
FIXED_EDGES_SECTION
1 2
3 4
5 6
7 8
9 10
11 12
13 14
15 16
17 18
19 20
21 22
23 24
25 26
27 28
29 30
31 32
33 34
35 36
37 38
39 40
-1 
DEMAND_SECTION
1 247
2 247
3 211
4 211
5 399
6 399
7 394
8 394
9 72
10 72
11 542
12 542
13 258
14 258
15 268
16 268
17 180
18 180
19 319
20 319
21 229
22 229
23 234
24 234
25 271
26 271
27 265
28 265
29 89
30 89
31 251
32 251
33 534
34 534
35 380
36 380
37 373
38 373
39 421
40 421
41 0
42 0
43 0
44 0
45 0
46 0
47 0
48 0
49 0
50 0
51 0
52 0
53 0
54 0
55 0
56 0
57 0
58 0
DEPOT_SECTION
41 
-1 
CAPACITIES_SECTION
1250 
1375 
1500 
1625 
-1 
EOF