NAME: GFS_20_1
TYPE: GFSP
DIMENSION: 58
VEHICLES: 4
CAPACITY: 1250.0
TRIP_DIST_LIMIT: 600000.0
TOTAL_DIST_LIMIT: 1050000.0
EDGE_WEIGHT_TYPE: EXPLICIT
EDGE_WEIGHT_FORMAT: FULL_MATRIX
EDGE_WEIGHT_SECTION
0.0 7962.0 326064.0 322567.0 204887.0 207892.0 219740.0 227701.0 257872.0 255209.0 307383.0 312033.0 41035.0 34353.0 343610.0 338780.0 269643.0 273496.0 281803.0 283866.0 273670.0 269033.0 201328.0 201422.0 310112.0 302632.0 306689.0 303333.0 274305.0 276216.0 347127.0 339794.0 322895.0 316247.0 278678.0 272944.0 245007.0 247203.0 342213.0 344385.0 282043.0 124850.0 282043.0 282043.0 282043.0 282043.0 282043.0 282043.0 282043.0 282043.0 124850.0 124850.0 124850.0 124850.0 124850.0 124850.0 124850.0 124850.0
7962.0 0.0 321901.0 318405.0 199668.0 202895.0 214370.0 222346.0 250857.0 248082.0 303221.0 307870.0 43250.0 35737.0 339089.0 334134.0 264548.0 268563.0 274212.0 276343.0 268172.0 263677.0 195244.0 195563.0 305950.0 298440.0 299881.0 296627.0 267309.0 269331.0 342964.0 335632.0 317770.0 311045.0 274516.0 268782.0 239906.0 241897.0 338045.0 340060.0 277881.0 121060.0 277881.0 277881.0 277881.0 277881.0 277881.0 277881.0 277881.0 277881.0 121060.0 121060.0 121060.0 121060.0 121060.0 121060.0 121060.0 121060.0
326064.0 321901.0 0.0 8285.0 143778.0 136403.0 138079.0 132953.0 203411.0 211081.0 18763.0 15156.0 364784.0 356850.0 73793.0 78121.0 103363.0 95362.0 256106.0 249402.0 119603.0 114531.0 170813.0 163547.0 38165.0 43996.0 195485.0 187650.0 203280.0 195800.0 33853.0 25792.0 98742.0 101889.0 50500.0 58160.0 114985.0 121052.0 56786.0 64892.0 65346.0 202490.0 65346.0 65346.0 65346.0 65346.0 65346.0 65346.0 65346.0 65346.0 202490.0 202490.0 202490.0 202490.0 202490.0 202490.0 202490.0 202490.0
322567.0 318405.0 8285.0 0.0 142438.0 134887.0 137607.0 132864.0 205701.0 213249.0 15993.0 16421.0 361288.0 353353.0 81253.0 85237.0 105558.0 97661.0 258887.0 252313.0 122397.0 116929.0 170256.0 162785.0 42937.0 47742.0 199689.0 191799.0 206204.0 198835.0 42109.0 34077.0 104629.0 107353.0 49486.0 57409.0 115532.0 122004.0 64557.0 72585.0 60282.0 198994.0 60282.0 60282.0 60282.0 60282.0 60282.0 60282.0 60282.0 60282.0 198994.0 198994.0 198994.0 198994.0 198994.0 198994.0 198994.0 198994.0
204887.0 199668.0 143778.0 142438.0 0.0 8047.0 15698.0 23263.0 97042.0 101134.0 126453.0 128671.0 241011.0 232829.0 142100.0 136309.0 64998.0 69620.0 149268.0 145448.0 69533.0 64304.0 31199.0 22764.0 117756.0 109592.0 126786.0 120380.0 107881.0 104429.0 156640.0 150724.0 118129.0 111379.0 93285.0 85658.0 40415.0 42399.0 144396.0 144750.0 105814.0 86491.0 105814.0 105814.0 105814.0 105814.0 105814.0 105814.0 105814.0 105814.0 86491.0 86491.0 86491.0 86491.0 86491.0 86491.0 86491.0 86491.0
207892.0 202895.0 136403.0 134887.0 8047.0 0.0 17477.0 23398.0 103055.0 107502.0 118916.0 121331.0 244634.0 236483.0 137390.0 131880.0 61819.0 65687.0 155909.0 151877.0 68435.0 62527.0 39149.0 30739.0 111281.0 103155.0 130421.0 123748.0 113204.0 109347.0 150112.0 144011.0 115072.0 108596.0 85906.0 78379.0 37256.0 40787.0 138891.0 139595.0 97865.0 87390.0 97865.0 97865.0 97865.0 97865.0 97865.0 97865.0 97865.0 97865.0 87390.0 87390.0 87390.0 87390.0 87390.0 87390.0 87390.0 87390.0
219740.0 214370.0 138079.0 137607.0 15698.0 17477.0 0.0 7988.0 87342.0 92359.0 121667.0 122929.0 255367.0 247163.0 129704.0 123526.0 51243.0 56726.0 141106.0 136667.0 54132.0 49307.0 32741.0 25870.0 109139.0 100950.0 112961.0 106271.0 96609.0 92422.0 147910.0 142562.0 103843.0 96875.0 88127.0 80200.0 27406.0 27609.0 133354.0 133065.0 104539.0 102177.0 104539.0 104539.0 104539.0 104539.0 104539.0 104539.0 104539.0 104539.0 102177.0 102177.0 102177.0 102177.0 102177.0 102177.0 102177.0 102177.0
227701.0 222346.0 132953.0 132864.0 23263.0 23398.0 7988.0 0.0 86134.0 91713.0 117013.0 117842.0 263355.0 255151.0 122087.0 115814.0 43395.0 49103.0 140536.0 135731.0 46294.0 41334.0 38593.0 32553.0 102886.0 94722.0 108345.0 101404.0 94201.0 89480.0 141507.0 136393.0 95869.0 88889.0 83522.0 75534.0 20049.0 19625.0 126142.0 125650.0 101763.0 109679.0 101763.0 101763.0 101763.0 101763.0 101763.0 101763.0 101763.0 101763.0 109679.0 109679.0 109679.0 109679.0 109679.0 109679.0 109679.0 109679.0
257872.0 250857.0 203411.0 205701.0 97042.0 103055.0 87342.0 86134.0 0.0 8254.0 191098.0 189390.0 285327.0 277297.0 163403.0 155354.0 100148.0 108088.0 54841.0 49634.0 84183.0 88880.0 72976.0 79265.0 166900.0 159861.0 51035.0 50272.0 16497.0 20413.0 200528.0 198242.0 126033.0 118611.0 159889.0 152247.0 95163.0 87022.0 175553.0 171238.0 183973.0 166018.0 183973.0 183973.0 183973.0 183973.0 183973.0 183973.0 183973.0 183973.0 166018.0 166018.0 166018.0 166018.0 166018.0 166018.0 166018.0 166018.0
255209.0 248082.0 211081.0 213249.0 101134.0 107502.0 92359.0 91713.0 8254.0 0.0 198537.0 196971.0 281789.0 273810.0 171649.0 163602.0 107745.0 115722.0 48827.0 44380.0 92070.0 96572.0 75410.0 82234.0 174741.0 167636.0 56516.0 56611.0 21327.0 27019.0 208594.0 206230.0 134287.0 126864.0 167072.0 159371.0 101784.0 93789.0 183747.0 179465.0 190633.0 166783.0 190633.0 190633.0 190633.0 190633.0 190633.0 190633.0 190633.0 190633.0 166783.0 166783.0 166783.0 166783.0 166783.0 166783.0 166783.0 166783.0
307383.0 303221.0 18763.0 15993.0 126453.0 118916.0 121667.0 117013.0 191098.0 198537.0 0.0 8263.0 346104.0 338169.0 77672.0 80247.0 91118.0 83364.0 244673.0 238232.0 108466.0 102624.0 154296.0 146805.0 33792.0 36358.0 187256.0 179306.0 192192.0 184951.0 47623.0 39084.0 95830.0 97592.0 33542.0 41497.0 99931.0 106597.0 62922.0 70293.0 46895.0 183810.0 46895.0 46895.0 46895.0 46895.0 46895.0 46895.0 46895.0 46895.0 183810.0 183810.0 183810.0 183810.0 183810.0 183810.0 183810.0 183810.0
312033.0 307870.0 15156.0 16421.0 128671.0 121331.0 122929.0 117842.0 189390.0 196971.0 8263.0 0.0 350754.0 342819.0 69918.0 72822.0 89242.0 81317.0 242490.0 235903.0 105987.0 100573.0 155661.0 148391.0 27564.0 31558.0 183443.0 175536.0 189791.0 182416.0 39827.0 31327.0 89793.0 92028.0 35431.0 43027.0 100011.0 106226.0 54819.0 62296.0 53539.0 188460.0 53539.0 53539.0 53539.0 53539.0 53539.0 53539.0 53539.0 53539.0 188460.0 188460.0 188460.0 188460.0 188460.0 188460.0 188460.0 188460.0
41035.0 43250.0 364784.0 361288.0 241011.0 244634.0 255367.0 263355.0 285327.0 281789.0 346104.0 350754.0 0.0 8235.0 381390.0 376268.0 306006.0 310306.0 303349.0 306293.0 308756.0 304599.0 234376.0 235389.0 348813.0 341353.0 335401.0 332718.0 301820.0 304526.0 385848.0 378515.0 359104.0 352230.0 317399.0 311665.0 281392.0 282969.0 380746.0 382597.0 320764.0 164164.0 320764.0 320764.0 320764.0 320764.0 320764.0 320764.0 320764.0 320764.0 164164.0 164164.0 164164.0 164164.0 164164.0 164164.0 164164.0 164164.0
34353.0 35737.0 356850.0 353353.0 232829.0 236483.0 247163.0 255151.0 277297.0 273810.0 338169.0 342819.0 8235.0 0.0 373296.0 368150.0 297825.0 302149.0 295771.0 298639.0 300534.0 296389.0 226143.0 227155.0 340894.0 333412.0 327316.0 324599.0 293792.0 296454.0 377913.0 370580.0 350911.0 344029.0 309464.0 303730.0 273215.0 274767.0 372734.0 374547.0 312829.0 156343.0 312829.0 312829.0 312829.0 312829.0 312829.0 312829.0 312829.0 312829.0 156343.0 156343.0 156343.0 156343.0 156343.0 156343.0 156343.0 156343.0
343610.0 339089.0 73793.0 81253.0 142100.0 137390.0 129704.0 122087.0 163403.0 171649.0 77672.0 69918.0 381390.0 373296.0 0.0 8114.0 79115.0 72989.0 209504.0 201988.0 85254.0 85159.0 158794.0 154164.0 46455.0 49567.0 139894.0 132911.0 157865.0 149896.0 48726.0 52126.0 37892.0 44915.0 77541.0 78702.0 102329.0 103357.0 18091.0 10159.0 110171.0 220209.0 110171.0 110171.0 110171.0 110171.0 110171.0 110171.0 110171.0 110171.0 220209.0 220209.0 220209.0 220209.0 220209.0 220209.0 220209.0 220209.0
338780.0 334134.0 78121.0 85237.0 136309.0 131880.0 123526.0 115814.0 155354.0 163602.0 80247.0 72822.0 376268.0 368150.0 8114.0 0.0 72584.0 66837.0 201395.0 193883.0 77810.0 78065.0 152073.0 147661.0 47619.0 49419.0 131914.0 124891.0 149754.0 141784.0 55306.0 57924.0 29781.0 36819.0 76652.0 76989.0 96244.0 96835.0 24653.0 17505.0 109736.0 215591.0 109736.0 109736.0 109736.0 109736.0 109736.0 109736.0 109736.0 109736.0 215591.0 215591.0 215591.0 215591.0 215591.0 215591.0 215591.0 215591.0
269643.0 264548.0 103363.0 105558.0 64998.0 61819.0 51243.0 43395.0 100148.0 107745.0 91118.0 89242.0 306006.0 297825.0 79115.0 72584.0 0.0 8061.0 153563.0 147176.0 18611.0 11617.0 79726.0 75085.0 67807.0 60303.0 100546.0 92577.0 101226.0 94151.0 104256.0 100576.0 53260.0 46834.0 61349.0 54351.0 24642.0 24257.0 84849.0 83427.0 89706.0 148561.0 89706.0 89706.0 89706.0 89706.0 89706.0 89706.0 89706.0 89706.0 148561.0 148561.0 148561.0 148561.0 148561.0 148561.0 148561.0 148561.0
273496.0 268563.0 95362.0 97661.0 69620.0 65687.0 56726.0 49103.0 108088.0 115722.0 83364.0 81317.0 310306.0 302149.0 72989.0 66837.0 8061.0 0.0 161324.0 154869.0 25426.0 19277.0 86389.0 81334.0 59757.0 52243.0 106865.0 98868.0 108849.0 101677.0 96387.0 92594.0 50151.0 44493.0 54290.0 47611.0 29407.0 30807.0 77725.0 76720.0 83699.0 151405.0 83699.0 83699.0 83699.0 83699.0 83699.0 83699.0 83699.0 83699.0 151405.0 151405.0 151405.0 151405.0 151405.0 151405.0 151405.0 151405.0
281803.0 274212.0 256106.0 258887.0 149268.0 155909.0 141106.0 140536.0 54841.0 48827.0 244673.0 242490.0 303349.0 295771.0 209504.0 201395.0 153563.0 161324.0 0.0 7871.0 136530.0 142053.0 121781.0 129247.0 218835.0 212204.0 73616.0 78812.0 52931.0 60640.0 250392.0 248924.0 171617.0 164861.0 214115.0 206581.0 149981.0 141792.0 223491.0 218235.0 238750.0 207941.0 238750.0 238750.0 238750.0 238750.0 238750.0 238750.0 238750.0 238750.0 207941.0 207941.0 207941.0 207941.0 207941.0 207941.0 207941.0 207941.0
283866.0 276343.0 249402.0 252313.0 145448.0 151877.0 136667.0 135731.0 49634.0 44380.0 238232.0 235903.0 306293.0 298639.0 201988.0 193883.0 147176.0 154869.0 7871.0 0.0 129917.0 135622.0 118786.0 126009.0 211996.0 205457.0 65748.0 70991.0 46124.0 53669.0 243199.0 241844.0 164111.0 157415.0 207970.0 200503.0 144434.0 136155.0 216111.0 210779.0 233058.0 206777.0 233058.0 233058.0 233058.0 233058.0 233058.0 233058.0 233058.0 233058.0 206777.0 206777.0 206777.0 206777.0 206777.0 206777.0 206777.0 206777.0
273670.0 268172.0 119603.0 122397.0 69533.0 68435.0 54132.0 46294.0 84183.0 92070.0 108466.0 105987.0 308756.0 300534.0 85254.0 77810.0 18611.0 25426.0 136530.0 129917.0 0.0 7955.0 76786.0 73979.0 82730.0 75805.0 81942.0 73979.0 83809.0 76494.0 116996.0 114268.0 52756.0 45147.0 79678.0 72842.0 33214.0 27684.0 94244.0 91339.0 108311.0 155705.0 108311.0 108311.0 108311.0 108311.0 108311.0 108311.0 108311.0 108311.0 155705.0 155705.0 155705.0 155705.0 155705.0 155705.0 155705.0 155705.0
269033.0 263677.0 114531.0 116929.0 64304.0 62527.0 49307.0 41334.0 88880.0 96572.0 102624.0 100573.0 304599.0 296389.0 85159.0 78065.0 11617.0 19277.0 142053.0 135622.0 7955.0 0.0 74489.0 70892.0 78387.0 71115.0 89449.0 81515.0 89639.0 82540.0 113902.0 110668.0 55139.0 47877.0 72949.0 65892.0 26231.0 21913.0 92722.0 90486.0 100915.0 149917.0 100915.0 100915.0 100915.0 100915.0 100915.0 100915.0 100915.0 100915.0 149917.0 149917.0 149917.0 149917.0 149917.0 149917.0 149917.0 149917.0
201328.0 195244.0 170813.0 170256.0 31199.0 39149.0 32741.0 38593.0 72976.0 75410.0 154296.0 155661.0 234376.0 226143.0 158794.0 152073.0 79726.0 86389.0 121781.0 118786.0 76786.0 74489.0 0.0 8448.0 141473.0 133305.0 111739.0 106650.0 86430.0 84839.0 180095.0 174971.0 129354.0 121855.0 120770.0 112872.0 58369.0 55603.0 164039.0 163067.0 135822.0 95068.0 135822.0 135822.0 135822.0 135822.0 135822.0 135822.0 135822.0 135822.0 95068.0 95068.0 95068.0 95068.0 95068.0 95068.0 95068.0 95068.0
201422.0 195563.0 163547.0 162785.0 22764.0 30739.0 25870.0 32553.0 79265.0 82234.0 146805.0 148391.0 235389.0 227155.0 154164.0 147661.0 75085.0 81334.0 129247.0 126009.0 73979.0 70892.0 8448.0 0.0 135007.0 126819.0 115531.0 110028.0 91985.0 89815.0 173767.0 168431.0 126020.0 118672.0 113325.0 105477.0 52594.0 50829.0 158662.0 158029.0 127741.0 91411.0 127741.0 127741.0 127741.0 127741.0 127741.0 127741.0 127741.0 127741.0 91411.0 91411.0 91411.0 91411.0 91411.0 91411.0 91411.0 91411.0
310112.0 305950.0 38165.0 42937.0 117756.0 111281.0 109139.0 102886.0 166900.0 174741.0 33792.0 27564.0 348813.0 340894.0 46455.0 47619.0 67807.0 59757.0 218835.0 211996.0 82730.0 78387.0 141473.0 135007.0 0.0 8193.0 157324.0 149496.0 165920.0 158332.0 38893.0 33534.0 62245.0 64522.0 33760.0 37602.0 83455.0 88176.0 35632.0 41171.0 64593.0 186539.0 64593.0 64593.0 64593.0 64593.0 64593.0 64593.0 64593.0 64593.0 186539.0 186539.0 186539.0 186539.0 186539.0 186539.0 186539.0 186539.0
302632.0 298440.0 43996.0 47742.0 109592.0 103155.0 100950.0 94722.0 159861.0 167636.0 36358.0 31558.0 341353.0 333412.0 49567.0 49419.0 60303.0 52243.0 212204.0 205457.0 75805.0 71115.0 133305.0 126819.0 8193.0 0.0 151947.0 144058.0 159341.0 151832.0 47075.0 41674.0 59989.0 61320.0 28234.0 30861.0 75343.0 80196.0 41209.0 45721.0 60608.0 179059.0 60608.0 60608.0 60608.0 60608.0 60608.0 60608.0 60608.0 60608.0 179059.0 179059.0 179059.0 179059.0 179059.0 179059.0 179059.0 179059.0
306689.0 299881.0 195485.0 199689.0 126786.0 130421.0 112961.0 108345.0 51035.0 56516.0 187256.0 183443.0 335401.0 327316.0 139894.0 131914.0 100546.0 106865.0 73616.0 65748.0 81942.0 89449.0 111739.0 115531.0 157324.0 151947.0 0.0 8004.0 35191.0 30990.0 184223.0 184086.0 102622.0 96821.0 160947.0 154468.0 107907.0 99527.0 155397.0 149271.0 190251.0 206726.0 190251.0 190251.0 190251.0 190251.0 190251.0 190251.0 190251.0 190251.0 206726.0 206726.0 206726.0 206726.0 206726.0 206726.0 206726.0 206726.0
303333.0 296627.0 187650.0 191799.0 120380.0 123748.0 106271.0 101404.0 50272.0 56611.0 179306.0 175536.0 332718.0 324599.0 132911.0 124891.0 92577.0 98868.0 78812.0 70991.0 73979.0 81515.0 106650.0 110028.0 149496.0 144058.0 8004.0 0.0 35575.0 29860.0 176785.0 176516.0 95439.0 89459.0 152943.0 146469.0 100332.0 92001.0 148170.0 142178.0 182282.0 201399.0 182282.0 182282.0 182282.0 182282.0 182282.0 182282.0 182282.0 182282.0 201399.0 201399.0 201399.0 201399.0 201399.0 201399.0 201399.0 201399.0
274305.0 267309.0 203280.0 206204.0 107881.0 113204.0 96609.0 94201.0 16497.0 21327.0 192192.0 189791.0 301820.0 293792.0 157865.0 149754.0 101226.0 108849.0 52931.0 46124.0 83809.0 89639.0 86430.0 91985.0 165920.0 159341.0 35191.0 35575.0 0.0 7971.0 197655.0 196053.0 120032.0 112985.0 162266.0 154909.0 100238.0 91771.0 171224.0 166278.0 188170.0 180652.0 188170.0 188170.0 188170.0 188170.0 188170.0 188170.0 188170.0 188170.0 180652.0 180652.0 180652.0 180652.0 180652.0 180652.0 180652.0 180652.0
276216.0 269331.0 195800.0 198835.0 104429.0 109347.0 92422.0 89480.0 20413.0 27019.0 184951.0 182416.0 304526.0 296454.0 149896.0 141784.0 94151.0 101677.0 60640.0 53669.0 76494.0 82540.0 84839.0 89815.0 158332.0 151832.0 30990.0 29860.0 7971.0 0.0 189817.0 188285.0 112062.0 105019.0 155351.0 148079.0 94310.0 85787.0 163290.0 158320.0 181724.0 179673.0 181724.0 181724.0 181724.0 181724.0 181724.0 181724.0 181724.0 181724.0 179673.0 179673.0 179673.0 179673.0 179673.0 179673.0 179673.0 179673.0
347127.0 342964.0 33853.0 42109.0 156640.0 150112.0 147910.0 141507.0 200528.0 208594.0 47623.0 39827.0 385848.0 377913.0 48726.0 55306.0 104256.0 96387.0 250392.0 243199.0 116996.0 113902.0 180095.0 173767.0 38893.0 47075.0 184223.0 176785.0 197655.0 189817.0 0.0 8543.0 82151.0 87431.0 68525.0 74285.0 121859.0 126049.0 30724.0 38616.0 92852.0 223554.0 92852.0 92852.0 92852.0 92852.0 92852.0 92852.0 92852.0 92852.0 223554.0 223554.0 223554.0 223554.0 223554.0 223554.0 223554.0 223554.0
339794.0 335632.0 25792.0 34077.0 150724.0 144011.0 142562.0 136393.0 198242.0 206230.0 39084.0 31327.0 378515.0 370580.0 52126.0 57924.0 100576.0 92594.0 248924.0 241844.0 114268.0 110668.0 174971.0 168431.0 33534.0 41674.0 184086.0 176516.0 196053.0 188285.0 8543.0 0.0 82994.0 87670.0 61116.0 67236.0 116988.0 121610.0 34118.0 42335.0 84514.0 216221.0 84514.0 84514.0 84514.0 84514.0 84514.0 84514.0 84514.0 84514.0 216221.0 216221.0 216221.0 216221.0 216221.0 216221.0 216221.0 216221.0
322895.0 317770.0 98742.0 104629.0 118129.0 115072.0 103843.0 95869.0 126033.0 134287.0 95830.0 89793.0 359104.0 350911.0 37892.0 29781.0 53260.0 50151.0 171617.0 164111.0 52756.0 55139.0 129354.0 126020.0 62245.0 59989.0 102622.0 95439.0 120032.0 112062.0 82151.0 82994.0 0.0 7807.0 81411.0 78762.0 77889.0 76251.0 52781.0 46796.0 114021.0 201470.0 114021.0 114021.0 114021.0 114021.0 114021.0 114021.0 114021.0 114021.0 201470.0 201470.0 201470.0 201470.0 201470.0 201470.0 201470.0 201470.0
316247.0 311045.0 101889.0 107353.0 111379.0 108596.0 96875.0 88889.0 118611.0 126864.0 97592.0 92028.0 352230.0 344029.0 44915.0 36819.0 46834.0 44493.0 164861.0 157415.0 45147.0 47877.0 121855.0 118672.0 64522.0 61320.0 96821.0 89459.0 112985.0 105019.0 87431.0 87670.0 7807.0 0.0 80565.0 77197.0 71344.0 69266.0 58850.0 53376.0 112529.0 195359.0 112529.0 112529.0 112529.0 112529.0 112529.0 112529.0 112529.0 112529.0 195359.0 195359.0 195359.0 195359.0 195359.0 195359.0 195359.0 195359.0
278678.0 274516.0 50500.0 49486.0 93285.0 85906.0 88127.0 83522.0 159889.0 167072.0 33542.0 35431.0 317399.0 309464.0 77541.0 76652.0 61349.0 54290.0 214115.0 207970.0 79678.0 72949.0 120770.0 113325.0 33760.0 28234.0 160947.0 152943.0 162266.0 155351.0 68525.0 61116.0 81411.0 80565.0 0.0 8000.0 66908.0 73984.0 69152.0 73949.0 33292.0 155105.0 33292.0 33292.0 33292.0 33292.0 33292.0 33292.0 33292.0 33292.0 155105.0 155105.0 155105.0 155105.0 155105.0 155105.0 155105.0 155105.0
272944.0 268782.0 58160.0 57409.0 85658.0 78379.0 80200.0 75534.0 152247.0 159371.0 41497.0 43027.0 311665.0 303730.0 78702.0 76989.0 54351.0 47611.0 206581.0 200503.0 72842.0 65892.0 112872.0 105477.0 37602.0 30861.0 154468.0 146469.0 154909.0 148079.0 74285.0 67236.0 78762.0 77197.0 8000.0 0.0 58950.0 66105.0 72026.0 76098.0 35337.0 149371.0 35337.0 35337.0 35337.0 35337.0 35337.0 35337.0 35337.0 35337.0 149371.0 149371.0 149371.0 149371.0 149371.0 149371.0 149371.0 149371.0
245007.0 239906.0 114985.0 115532.0 40415.0 37256.0 27406.0 20049.0 95163.0 101784.0 99931.0 100011.0 281392.0 273215.0 102329.0 96244.0 24642.0 29407.0 149981.0 144434.0 33214.0 26231.0 58369.0 52594.0 83455.0 75343.0 107907.0 100332.0 100238.0 94310.0 121859.0 116988.0 77889.0 71344.0 66908.0 58950.0 0.0 8555.0 106095.0 105676.0 88850.0 124359.0 88850.0 88850.0 88850.0 88850.0 88850.0 88850.0 88850.0 88850.0 124359.0 124359.0 124359.0 124359.0 124359.0 124359.0 124359.0 124359.0
247203.0 241897.0 121052.0 122004.0 42399.0 40787.0 27609.0 19625.0 87022.0 93789.0 106597.0 106226.0 282969.0 274767.0 103357.0 96835.0 24257.0 30807.0 141792.0 136155.0 27684.0 21913.0 55603.0 50829.0 88176.0 80196.0 99527.0 92001.0 91771.0 85787.0 126049.0 121610.0 76251.0 69266.0 73984.0 66105.0 8555.0 0.0 108521.0 107465.0 96959.0 128140.0 96959.0 96959.0 96959.0 96959.0 96959.0 96959.0 96959.0 96959.0 128140.0 128140.0 128140.0 128140.0 128140.0 128140.0 128140.0 128140.0
342213.0 338045.0 56786.0 64557.0 144396.0 138891.0 133354.0 126142.0 175553.0 183747.0 62922.0 54819.0 380746.0 372734.0 18091.0 24653.0 84849.0 77725.0 223491.0 216111.0 94244.0 92722.0 164039.0 158662.0 35632.0 41209.0 155397.0 148170.0 171224.0 163290.0 30724.0 34118.0 52781.0 58850.0 69152.0 72026.0 106095.0 108521.0 0.0 8242.0 100102.0 218659.0 100102.0 100102.0 100102.0 100102.0 100102.0 100102.0 100102.0 100102.0 218659.0 218659.0 218659.0 218659.0 218659.0 218659.0 218659.0 218659.0
344385.0 340060.0 64892.0 72585.0 144750.0 139595.0 133065.0 125650.0 171238.0 179465.0 70293.0 62296.0 382597.0 374547.0 10159.0 17505.0 83427.0 76720.0 218235.0 210779.0 91339.0 90486.0 163067.0 158029.0 41171.0 45721.0 149271.0 142178.0 166278.0 158320.0 38616.0 42335.0 46796.0 53376.0 73949.0 76098.0 105676.0 107465.0 8242.0 0.0 105724.0 220823.0 105724.0 105724.0 105724.0 105724.0 105724.0 105724.0 105724.0 105724.0 220823.0 220823.0 220823.0 220823.0 220823.0 220823.0 220823.0 220823.0
282043.0 277881.0 65346.0 60282.0 105814.0 97865.0 104539.0 101763.0 183973.0 190633.0 46895.0 53539.0 320764.0 312829.0 110171.0 109736.0 89706.0 83699.0 238750.0 233058.0 108311.0 100915.0 135822.0 127741.0 64593.0 60608.0 190251.0 182282.0 188170.0 181724.0 92852.0 84514.0 114021.0 112529.0 33292.0 35337.0 88850.0 96959.0 100102.0 105724.0 0.0 158470.0 0.0 0.0 0.0 0.0 0.0 0.0 0.0 0.0 158470.0 158470.0 158470.0 158470.0 158470.0 158470.0 158470.0 158470.0
124850.0 121060.0 202490.0 198994.0 86491.0 87390.0 102177.0 109679.0 166018.0 166783.0 183810.0 188460.0 164164.0 156343.0 220209.0 215591.0 148561.0 151405.0 207941.0 206777.0 155705.0 149917.0 95068.0 91411.0 186539.0 179059.0 206726.0 201399.0 180652.0 179673.0 223554.0 216221.0 201470.0 195359.0 155105.0 149371.0 124359.0 128140.0 218659.0 220823.0 158470.0 0.0 158470.0 158470.0 158470.0 158470.0 158470.0 158470.0 158470.0 158470.0 0.0 0.0 0.0 0.0 0.0 0.0 0.0 0.0
282043.0 277881.0 65346.0 60282.0 105814.0 97865.0 104539.0 101763.0 183973.0 190633.0 46895.0 53539.0 320764.0 312829.0 110171.0 109736.0 89706.0 83699.0 238750.0 233058.0 108311.0 100915.0 135822.0 127741.0 64593.0 60608.0 190251.0 182282.0 188170.0 181724.0 92852.0 84514.0 114021.0 112529.0 33292.0 35337.0 88850.0 96959.0 100102.0 105724.0 0.0 158470.0 0.0 0.0 0.0 0.0 0.0 0.0 0.0 0.0 158470.0 158470.0 158470.0 158470.0 158470.0 158470.0 158470.0 158470.0
282043.0 277881.0 65346.0 60282.0 105814.0 97865.0 104539.0 101763.0 183973.0 190633.0 46895.0 53539.0 320764.0 312829.0 110171.0 109736.0 89706.0 83699.0 238750.0 233058.0 108311.0 100915.0 135822.0 127741.0 64593.0 60608.0 190251.0 182282.0 188170.0 181724.0 92852.0 84514.0 114021.0 112529.0 33292.0 35337.0 88850.0 96959.0 100102.0 105724.0 0.0 158470.0 0.0 0.0 0.0 0.0 0.0 0.0 0.0 0.0 158470.0 158470.0 158470.0 158470.0 158470.0 158470.0 158470.0 158470.0
282043.0 277881.0 65346.0 60282.0 105814.0 97865.0 104539.0 101763.0 183973.0 190633.0 46895.0 53539.0 320764.0 312829.0 110171.0 109736.0 89706.0 83699.0 238750.0 233058.0 108311.0 100915.0 135822.0 127741.0 64593.0 60608.0 190251.0 182282.0 188170.0 181724.0 92852.0 84514.0 114021.0 112529.0 33292.0 35337.0 88850.0 96959.0 100102.0 105724.0 0.0 158470.0 0.0 0.0 0.0 0.0 0.0 0.0 0.0 0.0 158470.0 158470.0 158470.0 158470.0 158470.0 158470.0 158470.0 158470.0
282043.0 277881.0 65346.0 60282.0 105814.0 97865.0 104539.0 101763.0 183973.0 190633.0 46895.0 53539.0 320764.0 312829.0 110171.0 109736.0 89706.0 83699.0 238750.0 233058.0 108311.0 100915.0 135822.0 127741.0 64593.0 60608.0 190251.0 182282.0 188170.0 181724.0 92852.0 84514.0 114021.0 112529.0 33292.0 35337.0 88850.0 96959.0 100102.0 105724.0 0.0 158470.0 0.0 0.0 0.0 0.0 0.0 0.0 0.0 0.0 158470.0 158470.0 158470.0 158470.0 158470.0 158470.0 158470.0 158470.0
282043.0 277881.0 65346.0 60282.0 105814.0 97865.0 104539.0 101763.0 183973.0 190633.0 46895.0 53539.0 320764.0 312829.0 110171.0 109736.0 89706.0 83699.0 238750.0 233058.0 108311.0 100915.0 135822.0 127741.0 64593.0 60608.0 190251.0 182282.0 188170.0 181724.0 92852.0 84514.0 114021.0 112529.0 33292.0 35337.0 88850.0 96959.0 100102.0 105724.0 0.0 158470.0 0.0 0.0 0.0 0.0 0.0 0.0 0.0 0.0 158470.0 158470.0 158470.0 158470.0 158470.0 158470.0 158470.0 158470.0
282043.0 277881.0 65346.0 60282.0 105814.0 97865.0 104539.0 101763.0 183973.0 190633.0 46895.0 53539.0 320764.0 312829.0 110171.0 109736.0 89706.0 83699.0 238750.0 233058.0 108311.0 100915.0 135822.0 127741.0 64593.0 60608.0 190251.0 182282.0 188170.0 181724.0 92852.0 84514.0 114021.0 112529.0 33292.0 35337.0 88850.0 96959.0 100102.0 105724.0 0.0 158470.0 0.0 0.0 0.0 0.0 0.0 0.0 0.0 0.0 158470.0 158470.0 158470.0 158470.0 158470.0 158470.0 158470.0 158470.0
282043.0 277881.0 65346.0 60282.0 105814.0 97865.0 104539.0 101763.0 183973.0 190633.0 46895.0 53539.0 320764.0 312829.0 110171.0 109736.0 89706.0 83699.0 238750.0 233058.0 108311.0 100915.0 135822.0 127741.0 64593.0 60608.0 190251.0 182282.0 188170.0 181724.0 92852.0 84514.0 114021.0 112529.0 33292.0 35337.0 88850.0 96959.0 100102.0 105724.0 0.0 158470.0 0.0 0.0 0.0 0.0 0.0 0.0 0.0 0.0 158470.0 158470.0 158470.0 158470.0 158470.0 158470.0 158470.0 158470.0
282043.0 277881.0 65346.0 60282.0 105814.0 97865.0 104539.0 101763.0 183973.0 190633.0 46895.0 53539.0 320764.0 312829.0 110171.0 109736.0 89706.0 83699.0 238750.0 233058.0 108311.0 100915.0 135822.0 127741.0 64593.0 60608.0 190251.0 182282.0 188170.0 181724.0 92852.0 84514.0 114021.0 112529.0 33292.0 35337.0 88850.0 96959.0 100102.0 105724.0 0.0 158470.0 0.0 0.0 0.0 0.0 0.0 0.0 0.0 0.0 158470.0 158470.0 158470.0 158470.0 158470.0 158470.0 158470.0 158470.0
124850.0 121060.0 202490.0 198994.0 86491.0 87390.0 102177.0 109679.0 166018.0 166783.0 183810.0 188460.0 164164.0 156343.0 220209.0 215591.0 148561.0 151405.0 207941.0 206777.0 155705.0 149917.0 95068.0 91411.0 186539.0 179059.0 206726.0 201399.0 180652.0 179673.0 223554.0 216221.0 201470.0 195359.0 155105.0 149371.0 124359.0 128140.0 218659.0 220823.0 158470.0 0.0 158470.0 158470.0 158470.0 158470.0 158470.0 158470.0 158470.0 158470.0 0.0 0.0 0.0 0.0 0.0 0.0 0.0 0.0
124850.0 121060.0 202490.0 198994.0 86491.0 87390.0 102177.0 109679.0 166018.0 166783.0 183810.0 188460.0 164164.0 156343.0 220209.0 215591.0 148561.0 151405.0 207941.0 206777.0 155705.0 149917.0 95068.0 91411.0 186539.0 179059.0 206726.0 201399.0 180652.0 179673.0 223554.0 216221.0 201470.0 195359.0 155105.0 149371.0 124359.0 128140.0 218659.0 220823.0 158470.0 0.0 158470.0 158470.0 158470.0 158470.0 158470.0 158470.0 158470.0 158470.0 0.0 0.0 0.0 0.0 0.0 0.0 0.0 0.0
124850.0 121060.0 202490.0 198994.0 86491.0 87390.0 102177.0 109679.0 166018.0 166783.0 183810.0 188460.0 164164.0 156343.0 220209.0 215591.0 148561.0 151405.0 207941.0 206777.0 155705.0 149917.0 95068.0 91411.0 186539.0 179059.0 206726.0 201399.0 180652.0 179673.0 223554.0 216221.0 201470.0 195359.0 155105.0 149371.0 124359.0 128140.0 218659.0 220823.0 158470.0 0.0 158470.0 158470.0 158470.0 158470.0 158470.0 158470.0 158470.0 158470.0 0.0 0.0 0.0 0.0 0.0 0.0 0.0 0.0
124850.0 121060.0 202490.0 198994.0 86491.0 87390.0 102177.0 109679.0 166018.0 166783.0 183810.0 188460.0 164164.0 156343.0 220209.0 215591.0 148561.0 151405.0 207941.0 206777.0 155705.0 149917.0 95068.0 91411.0 186539.0 179059.0 206726.0 201399.0 180652.0 179673.0 223554.0 216221.0 201470.0 195359.0 155105.0 149371.0 124359.0 128140.0 218659.0 220823.0 158470.0 0.0 158470.0 158470.0 158470.0 158470.0 158470.0 158470.0 158470.0 158470.0 0.0 0.0 0.0 0.0 0.0 0.0 0.0 0.0
124850.0 121060.0 202490.0 198994.0 86491.0 87390.0 102177.0 109679.0 166018.0 166783.0 183810.0 188460.0 164164.0 156343.0 220209.0 215591.0 148561.0 151405.0 207941.0 206777.0 155705.0 149917.0 95068.0 91411.0 186539.0 179059.0 206726.0 201399.0 180652.0 179673.0 223554.0 216221.0 201470.0 195359.0 155105.0 149371.0 124359.0 128140.0 218659.0 220823.0 158470.0 0.0 158470.0 158470.0 158470.0 158470.0 158470.0 158470.0 158470.0 158470.0 0.0 0.0 0.0 0.0 0.0 0.0 0.0 0.0
124850.0 121060.0 202490.0 198994.0 86491.0 87390.0 102177.0 109679.0 166018.0 166783.0 183810.0 188460.0 164164.0 156343.0 220209.0 215591.0 148561.0 151405.0 207941.0 206777.0 155705.0 149917.0 95068.0 91411.0 186539.0 179059.0 206726.0 201399.0 180652.0 179673.0 223554.0 216221.0 201470.0 195359.0 155105.0 149371.0 124359.0 128140.0 218659.0 220823.0 158470.0 0.0 158470.0 158470.0 158470.0 158470.0 158470.0 158470.0 158470.0 158470.0 0.0 0.0 0.0 0.0 0.0 0.0 0.0 0.0
124850.0 121060.0 202490.0 198994.0 86491.0 87390.0 102177.0 109679.0 166018.0 166783.0 183810.0 188460.0 164164.0 156343.0 220209.0 215591.0 148561.0 151405.0 207941.0 206777.0 155705.0 149917.0 95068.0 91411.0 186539.0 179059.0 206726.0 201399.0 180652.0 179673.0 223554.0 216221.0 201470.0 195359.0 155105.0 149371.0 124359.0 128140.0 218659.0 220823.0 158470.0 0.0 158470.0 158470.0 158470.0 158470.0 158470.0 158470.0 158470.0 158470.0 0.0 0.0 0.0 0.0 0.0 0.0 0.0 0.0
124850.0 121060.0 202490.0 198994.0 86491.0 87390.0 102177.0 109679.0 166018.0 166783.0 183810.0 188460.0 164164.0 156343.0 220209.0 215591.0 148561.0 151405.0 207941.0 206777.0 155705.0 149917.0 95068.0 91411.0 186539.0 179059.0 206726.0 201399.0 180652.0 179673.0 223554.0 216221.0 201470.0 195359.0 155105.0 149371.0 124359.0 128140.0 218659.0 220823.0 158470.0 0.0 158470.0 158470.0 158470.0 158470.0 158470.0 158470.0 158470.0 158470.0 0.0 0.0 0.0 0.0 0.0 0.0 0.0 0.0
FIXED_EDGES_SECTION
1 2
3 4
5 6
7 8
9 10
11 12
13 14
15 16
17 18
19 20
21 22
23 24
25 26
27 28
29 30
31 32
33 34
35 36
37 38
39 40
-1 
DEMAND_SECTION
1 322
2 322
3 369
4 369
5 373
6 373
7 432
8 432
9 112
10 112
11 292
12 292
13 421
14 421
15 265
16 265
17 207
18 207
19 277
20 277
21 341
22 341
23 119
24 119
25 396
26 396
27 186
28 186
29 180
30 180
31 251
32 251
33 497
34 497
35 485
36 485
37 94
38 94
39 500
40 500
41 0
42 0
43 0
44 0
45 0
46 0
47 0
48 0
49 0
50 0
51 0
52 0
53 0
54 0
55 0
56 0
57 0
58 0
DEPOT_SECTION
41 
-1 
CAPACITIES_SECTION
1250 
1375 
1500 
1625 
-1 
EOF