NAME: GFS_20_1
TYPE: GFSP
DIMENSION: 56
VEHICLES: 4
CAPACITY: 1250.0
TRIP_DIST_LIMIT: 600000.0
TOTAL_DIST_LIMIT: 1050000.0
EDGE_WEIGHT_TYPE: EXPLICIT
EDGE_WEIGHT_FORMAT: FULL_MATRIX
EDGE_WEIGHT_SECTION
0.0 7905.0 77126.0 85116.0 143751.0 139022.0 64489.0 69687.0 103655.0 95452.0 165227.0 165928.0 275568.0 272567.0 110100.0 102360.0 94609.0 100986.0 150555.0 149317.0 86259.0 88270.0 17275.0 19296.0 39635.0 47914.0 167353.0 174854.0 56199.0 52360.0 132283.0 124369.0 71699.0 74466.0 106687.0 107927.0 143087.0 136174.0 43868.0 51501.0 137159.0 120399.0 137159.0 137159.0 137159.0 137159.0 137159.0 137159.0 137159.0 120399.0 120399.0 120399.0 120399.0 120399.0 120399.0 120399.0
7905.0 0.0 70176.0 78152.0 137465.0 132525.0 57973.0 62749.0 97010.0 88770.0 159424.0 160405.0 282412.0 279515.0 102249.0 94501.0 88037.0 94196.0 157920.0 156812.0 82805.0 84187.0 24044.0 27064.0 42363.0 50183.0 160278.0 167728.0 49954.0 46857.0 125837.0 118007.0 68010.0 71544.0 114171.0 115575.0 150639.0 143789.0 35967.0 43598.0 133236.0 125451.0 133236.0 133236.0 133236.0 133236.0 133236.0 133236.0 133236.0 125451.0 125451.0 125451.0 125451.0 125451.0 125451.0 125451.0
77126.0 70176.0 0.0 7991.0 129129.0 121702.0 14291.0 7440.0 91445.0 85226.0 155090.0 159523.0 352586.0 349661.0 62507.0 56347.0 19238.0 24197.0 227473.0 225949.0 49476.0 43680.0 94173.0 95941.0 107723.0 113652.0 135585.0 141259.0 71235.0 76730.0 116930.0 111831.0 41764.0 49967.0 183423.0 184096.0 219548.0 212392.0 43941.0 37907.0 153652.0 193176.0 153652.0 153652.0 153652.0 153652.0 153652.0 153652.0 153652.0 193176.0 193176.0 193176.0 193176.0 193176.0 193176.0 193176.0
85116.0 78152.0 7991.0 0.0 130065.0 122477.0 21812.0 15430.0 93695.0 87959.0 156101.0 160879.0 360564.0 357647.0 61030.0 55571.0 12764.0 16450.0 235455.0 233915.0 51186.0 44572.0 102156.0 103926.0 115404.0 121203.0 134318.0 139671.0 77095.0 82972.0 118044.0 113396.0 45604.0 53570.0 191398.0 192041.0 227504.0 220336.0 51065.0 44575.0 157491.0 200878.0 157491.0 157491.0 157491.0 157491.0 157491.0 157491.0 157491.0 200878.0 200878.0 200878.0 200878.0 200878.0 200878.0 200878.0
143751.0 137465.0 129129.0 130065.0 0.0 7927.0 134599.0 128646.0 41364.0 49518.0 26044.0 31558.0 361462.0 360333.0 73074.0 75943.0 140571.0 138008.0 257176.0 259511.0 177709.0 172619.0 149529.0 157078.0 134417.0 131612.0 36858.0 44010.0 87568.0 91891.0 12431.0 19535.0 166896.0 174906.0 221997.0 227176.0 255539.0 251221.0 110594.0 107758.0 64505.0 192835.0 64505.0 64505.0 64505.0 64505.0 64505.0 64505.0 64505.0 192835.0 192835.0 192835.0 192835.0 192835.0 192835.0 192835.0
139022.0 132525.0 121702.0 122477.0 7927.0 0.0 127494.0 121396.0 35664.0 43924.0 33769.0 39479.0 361378.0 360250.0 65163.0 68126.0 132867.0 130212.0 256185.0 258303.0 170462.0 165263.0 145540.0 152956.0 131657.0 129316.0 35263.0 42921.0 82855.0 87668.0 6880.0 15070.0 159860.0 167913.0 220150.0 225113.0 254152.0 249629.0 104554.0 101373.0 68264.0 192751.0 68264.0 68264.0 68264.0 68264.0 68264.0 68264.0 68264.0 192751.0 192751.0 192751.0 192751.0 192751.0 192751.0 192751.0
64489.0 57973.0 14291.0 21812.0 134599.0 127494.0 0.0 8174.0 95117.0 88133.0 160259.0 164087.0 340025.0 336955.0 72331.0 65457.0 30121.0 36711.0 214272.0 212574.0 43516.0 39609.0 81714.0 82906.0 97414.0 103907.0 144328.0 150410.0 67580.0 71876.0 122216.0 116414.0 32456.0 40628.0 170144.0 170590.0 206103.0 198868.0 37321.0 33455.0 153675.0 182518.0 153675.0 153675.0 153675.0 153675.0 153675.0 153675.0 153675.0 182518.0 182518.0 182518.0 182518.0 182518.0 182518.0 182518.0
69687.0 62749.0 7440.0 15430.0 128646.0 121396.0 8174.0 0.0 89888.0 83240.0 154462.0 158560.0 345157.0 342225.0 64694.0 58008.0 26053.0 31527.0 220045.0 218539.0 49068.0 44204.0 86739.0 88509.0 100598.0 106660.0 137123.0 143073.0 66141.0 71198.0 116325.0 110820.0 39380.0 47635.0 176003.0 176708.0 212147.0 205006.0 37593.0 32207.0 150345.0 186013.0 150345.0 150345.0 150345.0 150345.0 150345.0 150345.0 150345.0 186013.0 186013.0 186013.0 186013.0 186013.0 186013.0 186013.0
103655.0 97010.0 91445.0 93695.0 41364.0 35664.0 95117.0 89888.0 0.0 8263.0 65863.0 69097.0 337211.0 335990.0 46883.0 45763.0 105322.0 104215.0 228054.0 229529.0 138598.0 134088.0 111049.0 118243.0 99786.0 98705.0 65030.0 72816.0 47708.0 53237.0 29186.0 21990.0 126993.0 134840.0 189828.0 194208.0 224896.0 219831.0 69241.0 66647.0 67138.0 168584.0 67138.0 67138.0 67138.0 67138.0 67138.0 67138.0 67138.0 168584.0 168584.0 168584.0 168584.0 168584.0 168584.0 168584.0
95452.0 88770.0 85226.0 87959.0 49518.0 43924.0 88133.0 83240.0 8263.0 0.0 73686.0 76587.0 331939.0 330910.0 45962.0 43489.0 99895.0 99285.0 221658.0 222966.0 131649.0 127368.0 103088.0 110213.0 92643.0 91959.0 72786.0 80519.0 39627.0 45425.0 37413.0 30049.0 119743.0 127507.0 182914.0 187135.0 218216.0 213016.0 61178.0 58858.0 69266.0 163413.0 69266.0 69266.0 69266.0 69266.0 69266.0 69266.0 69266.0 163413.0 163413.0 163413.0 163413.0 163413.0 163413.0 163413.0
165227.0 159424.0 155090.0 156101.0 26044.0 33769.0 160259.0 154462.0 65863.0 73686.0 0.0 8285.0 371118.0 369989.0 98742.0 101889.0 166606.0 163979.0 268373.0 271326.0 203500.0 198513.0 169329.0 177125.0 151455.0 147529.0 46195.0 50440.0 109586.0 112875.0 38165.0 43996.0 192449.0 200399.0 235834.0 241575.0 267886.0 264177.0 134772.0 132497.0 65346.0 202490.0 65346.0 65346.0 65346.0 65346.0 65346.0 65346.0 65346.0 202490.0 202490.0 202490.0 202490.0 202490.0 202490.0 202490.0
165928.0 160405.0 159523.0 160879.0 31558.0 39479.0 164087.0 158560.0 69097.0 76587.0 8285.0 0.0 367621.0 366492.0 104629.0 107353.0 171670.0 169332.0 264880.0 267889.0 207489.0 202724.0 169196.0 177079.0 150229.0 145893.0 54476.0 58687.0 110871.0 113615.0 42937.0 47742.0 196077.0 203936.0 233136.0 239063.0 264627.0 261125.0 137228.0 135404.0 60282.0 198994.0 60282.0 60282.0 60282.0 60282.0 60282.0 60282.0 60282.0 198994.0 198994.0 198994.0 198994.0 198994.0 198994.0 198994.0
275568.0 282412.0 352586.0 360564.0 361462.0 361378.0 340025.0 345157.0 337211.0 331939.0 371118.0 367621.0 0.0 8049.0 369555.0 363099.0 370136.0 376546.0 128690.0 132540.0 352158.0 356884.0 258426.0 257258.0 248934.0 245653.0 396555.0 404284.0 303048.0 295053.0 355166.0 347686.0 340102.0 339254.0 172044.0 173777.0 139646.0 147643.0 313630.0 321570.0 327097.0 170417.0 327097.0 327097.0 327097.0 327097.0 327097.0 327097.0 327097.0 170417.0 170417.0 170417.0 170417.0 170417.0 170417.0 170417.0
272567.0 279515.0 349661.0 357647.0 360333.0 360250.0 336955.0 342225.0 335990.0 330910.0 369989.0 366492.0 8049.0 0.0 367917.0 361368.0 367044.0 373547.0 124520.0 128027.0 348207.0 353059.0 255492.0 254093.0 246804.0 243774.0 395427.0 403155.0 301348.0 293362.0 354038.0 346557.0 336334.0 335314.0 168231.0 169640.0 135100.0 143065.0 311181.0 319146.0 325969.0 168223.0 325969.0 325969.0 325969.0 325969.0 325969.0 325969.0 325969.0 168223.0 168223.0 168223.0 168223.0 168223.0 168223.0 168223.0
110100.0 102249.0 62507.0 61030.0 73074.0 65163.0 72331.0 64694.0 46883.0 45962.0 98742.0 104629.0 369555.0 367917.0 0.0 7807.0 69676.0 65984.0 252930.0 253167.0 111810.0 105521.0 123151.0 128484.0 122362.0 124375.0 73291.0 78777.0 66593.0 74566.0 62245.0 59989.0 103910.0 112168.0 211263.0 214143.0 247682.0 241601.0 66499.0 59507.0 114021.0 201470.0 114021.0 114021.0 114021.0 114021.0 114021.0 114021.0 114021.0 201470.0 201470.0 201470.0 201470.0 201470.0 201470.0 201470.0
102360.0 94501.0 56347.0 55571.0 75943.0 68126.0 65457.0 58008.0 45763.0 43489.0 101889.0 107353.0 363099.0 361368.0 7807.0 0.0 65070.0 62096.0 245799.0 245945.0 105811.0 99762.0 115552.0 120805.0 115392.0 117665.0 79258.0 85078.0 60055.0 68052.0 64522.0 61320.0 97358.0 105619.0 203945.0 206731.0 240406.0 234267.0 58714.0 51701.0 112529.0 195359.0 112529.0 112529.0 112529.0 112529.0 112529.0 112529.0 112529.0 195359.0 195359.0 195359.0 195359.0 195359.0 195359.0 195359.0
94609.0 88037.0 19238.0 12764.0 140571.0 132867.0 30121.0 26053.0 105322.0 99895.0 166606.0 171670.0 370136.0 367044.0 69676.0 65070.0 0.0 7940.0 244178.0 242350.0 46449.0 38942.0 111830.0 112962.0 126627.0 132712.0 142516.0 147448.0 89824.0 95615.0 128743.0 124472.0 44697.0 51828.0 200016.0 200265.0 235817.0 228502.0 63177.0 57005.0 169876.0 212006.0 169876.0 169876.0 169876.0 169876.0 169876.0 169876.0 169876.0 212006.0 212006.0 212006.0 212006.0 212006.0 212006.0 212006.0
100986.0 94196.0 24197.0 16450.0 138008.0 130212.0 36711.0 31527.0 104215.0 99285.0 163979.0 169332.0 376546.0 373547.0 65984.0 62096.0 7940.0 0.0 250983.0 249272.0 53625.0 45947.0 118128.0 119577.0 131847.0 137650.0 138079.0 142727.0 92414.0 98622.0 126416.0 122579.0 52560.0 59574.0 206855.0 207258.0 242785.0 235523.0 67406.0 60705.0 169977.0 217317.0 169977.0 169977.0 169977.0 169977.0 169977.0 169977.0 169977.0 217317.0 217317.0 217317.0 217317.0 217317.0 217317.0 217317.0
150555.0 157920.0 227473.0 235455.0 257176.0 256185.0 214272.0 220045.0 228054.0 221658.0 268373.0 264880.0 128690.0 124520.0 252930.0 245799.0 244178.0 250983.0 0.0 7469.0 223705.0 228636.0 133986.0 131540.0 130757.0 129949.0 290809.0 298656.0 187124.0 179416.0 249639.0 241756.0 211974.0 210819.0 44185.0 45121.0 13028.0 20470.0 191607.0 199627.0 224357.0 75676.0 224357.0 224357.0 224357.0 224357.0 224357.0 224357.0 224357.0 75676.0 75676.0 75676.0 75676.0 75676.0 75676.0 75676.0
149317.0 156812.0 225949.0 233915.0 259511.0 258303.0 212574.0 218539.0 229529.0 222966.0 271326.0 267889.0 132540.0 128027.0 253167.0 245945.0 242350.0 249272.0 7469.0 0.0 220623.0 225739.0 133026.0 130157.0 131375.0 131050.0 292739.0 300598.0 187750.0 180135.0 251700.0 243754.0 209190.0 207767.0 42641.0 42254.0 7123.0 15136.0 191007.0 199014.0 227389.0 80817.0 227389.0 227389.0 227389.0 227389.0 227389.0 227389.0 227389.0 80817.0 80817.0 80817.0 80817.0 80817.0 80817.0 80817.0
86259.0 82805.0 49476.0 51186.0 177709.0 170462.0 43516.0 49068.0 138598.0 131649.0 203500.0 207489.0 352158.0 348207.0 111810.0 105811.0 46449.0 53625.0 223705.0 220623.0 0.0 7913.0 102242.0 99981.0 125153.0 132960.0 185014.0 190585.0 108511.0 111472.0 165378.0 159772.0 14913.0 12910.0 180128.0 178611.0 213687.0 205896.0 77206.0 75431.0 196277.0 205896.0 196277.0 196277.0 196277.0 196277.0 196277.0 196277.0 196277.0 205896.0 205896.0 205896.0 205896.0 205896.0 205896.0 205896.0
88270.0 84187.0 43680.0 44572.0 172619.0 165263.0 39609.0 44204.0 134088.0 127368.0 198513.0 202724.0 356884.0 353059.0 105521.0 99762.0 38942.0 45947.0 228636.0 225739.0 7913.0 0.0 104725.0 103028.0 126496.0 134081.0 178804.0 184229.0 106234.0 109708.0 160352.0 154981.0 16982.0 18567.0 184854.0 183610.0 218851.0 211115.0 75098.0 72550.0 193212.0 208479.0 193212.0 193212.0 193212.0 193212.0 193212.0 193212.0 193212.0 208479.0 208479.0 208479.0 208479.0 208479.0 208479.0 208479.0
17275.0 24044.0 94173.0 102156.0 149529.0 145540.0 81714.0 86739.0 111049.0 103088.0 169329.0 169196.0 258426.0 255492.0 123151.0 115552.0 111830.0 118128.0 133986.0 133026.0 102242.0 104725.0 0.0 8048.0 28053.0 36540.0 175819.0 183496.0 63545.0 57915.0 138686.0 130572.0 87951.0 90067.0 90401.0 92155.0 126951.0 120244.0 58332.0 66271.0 136518.0 103757.0 136518.0 136518.0 136518.0 136518.0 136518.0 136518.0 136518.0 103757.0 103757.0 103757.0 103757.0 103757.0 103757.0 103757.0
19296.0 27064.0 95941.0 103926.0 157078.0 152956.0 82906.0 88509.0 118243.0 110213.0 177125.0 177079.0 257258.0 254093.0 128484.0 120805.0 112962.0 119577.0 131540.0 130157.0 99981.0 103028.0 8048.0 0.0 35141.0 43476.0 182837.0 190475.0 70594.0 65288.0 146116.0 138029.0 86093.0 87498.0 87555.0 88653.0 123876.0 116915.0 62751.0 70526.0 144566.0 106109.0 144566.0 144566.0 144566.0 144566.0 144566.0 144566.0 144566.0 106109.0 106109.0 106109.0 106109.0 106109.0 106109.0 106109.0
39635.0 42363.0 107723.0 115404.0 134417.0 131657.0 97414.0 100598.0 99786.0 92643.0 151455.0 150229.0 248934.0 246804.0 122362.0 115392.0 126627.0 131847.0 130757.0 131375.0 125153.0 126496.0 28053.0 35141.0 0.0 8532.0 164474.0 172323.0 56387.0 48769.0 124807.0 116625.0 110373.0 113735.0 90444.0 94495.0 126243.0 120699.0 65557.0 73281.0 113808.0 85477.0 113808.0 113808.0 113808.0 113808.0 113808.0 113808.0 113808.0 85477.0 85477.0 85477.0 85477.0 85477.0 85477.0 85477.0
47914.0 50183.0 113652.0 121203.0 131612.0 129316.0 103907.0 106660.0 98705.0 91959.0 147529.0 145893.0 245653.0 243774.0 124375.0 117665.0 132712.0 137650.0 129949.0 131050.0 132960.0 134081.0 36540.0 43476.0 8532.0 0.0 162812.0 170680.0 57827.0 49919.0 122522.0 114388.0 118128.0 121704.0 91179.0 95848.0 126257.0 121125.0 70680.0 78161.0 108260.0 80183.0 108260.0 108260.0 108260.0 108260.0 108260.0 108260.0 108260.0 80183.0 80183.0 80183.0 80183.0 80183.0 80183.0 80183.0
167353.0 160278.0 135585.0 134318.0 36858.0 35263.0 144328.0 137123.0 65030.0 72786.0 46195.0 54476.0 396555.0 395427.0 73291.0 79258.0 142516.0 138079.0 290809.0 292739.0 185014.0 178804.0 175819.0 182837.0 164474.0 162812.0 0.0 7871.0 112279.0 118199.0 41398.0 49089.0 176502.0 184756.0 253949.0 258627.0 288422.0 283685.0 128651.0 123858.0 101167.0 227928.0 101167.0 101167.0 101167.0 101167.0 101167.0 101167.0 101167.0 227928.0 227928.0 227928.0 227928.0 227928.0 227928.0 227928.0
174854.0 167728.0 141259.0 139671.0 44010.0 42921.0 150410.0 143073.0 72816.0 80519.0 50440.0 58687.0 404284.0 403155.0 78777.0 85078.0 147448.0 142727.0 298656.0 300598.0 190585.0 184229.0 183496.0 190475.0 172323.0 170680.0 7871.0 0.0 119951.0 125942.0 49167.0 56916.0 182435.0 190696.0 261820.0 266493.0 296288.0 291555.0 135763.0 130796.0 107939.0 235656.0 107939.0 107939.0 107939.0 107939.0 107939.0 107939.0 107939.0 235656.0 235656.0 235656.0 235656.0 235656.0 235656.0 235656.0
56199.0 49954.0 71235.0 77095.0 87568.0 82855.0 67580.0 66141.0 47708.0 39627.0 109586.0 110871.0 303048.0 301348.0 66593.0 60055.0 89824.0 92414.0 187124.0 187750.0 108511.0 106234.0 63545.0 70594.0 56387.0 57827.0 112279.0 119951.0 0.0 7999.0 76096.0 68170.0 94591.0 101294.0 146517.0 150102.0 182552.0 176853.0 31313.0 34175.0 88814.0 135524.0 88814.0 88814.0 88814.0 88814.0 88814.0 88814.0 88814.0 135524.0 135524.0 135524.0 135524.0 135524.0 135524.0 135524.0
52360.0 46857.0 76730.0 82972.0 91891.0 87668.0 71876.0 71198.0 53237.0 45425.0 112875.0 113615.0 295053.0 293362.0 74566.0 68052.0 95615.0 98622.0 179416.0 180135.0 111472.0 109708.0 57915.0 65288.0 48769.0 49919.0 118199.0 125942.0 7999.0 0.0 80829.0 72752.0 97198.0 103510.0 139090.0 142832.0 175007.0 169397.0 34713.0 38991.0 88170.0 127556.0 88170.0 88170.0 88170.0 88170.0 88170.0 88170.0 88170.0 127556.0 127556.0 127556.0 127556.0 127556.0 127556.0 127556.0
132283.0 125837.0 116930.0 118044.0 12431.0 6880.0 122216.0 116325.0 29186.0 37413.0 38165.0 42937.0 355166.0 354038.0 62245.0 64522.0 128743.0 126416.0 249639.0 251700.0 165378.0 160352.0 138686.0 146116.0 124807.0 122522.0 41398.0 49167.0 76096.0 80829.0 0.0 8193.0 154491.0 162492.0 213413.0 218338.0 247507.0 242938.0 98322.0 95374.0 64593.0 186539.0 64593.0 64593.0 64593.0 64593.0 64593.0 64593.0 64593.0 186539.0 186539.0 186539.0 186539.0 186539.0 186539.0 186539.0
124369.0 118007.0 111831.0 113396.0 19535.0 15070.0 116414.0 110820.0 21990.0 30049.0 43996.0 47742.0 347686.0 346557.0 59989.0 61320.0 124472.0 122579.0 241756.0 243754.0 159772.0 154981.0 130572.0 138029.0 116625.0 114388.0 49089.0 56916.0 68170.0 72752.0 8193.0 0.0 148517.0 156438.0 205330.0 210219.0 239517.0 234902.0 91207.0 88610.0 60608.0 179059.0 60608.0 60608.0 60608.0 60608.0 60608.0 60608.0 60608.0 179059.0 179059.0 179059.0 179059.0 179059.0 179059.0 179059.0
71699.0 68010.0 41764.0 45604.0 166896.0 159860.0 32456.0 39380.0 126993.0 119743.0 192449.0 196077.0 340102.0 336334.0 103910.0 97358.0 44697.0 52560.0 211974.0 209190.0 14913.0 16982.0 87951.0 86093.0 110373.0 118128.0 176502.0 182435.0 94591.0 97198.0 154491.0 148517.0 0.0 8262.0 168106.0 167007.0 202335.0 194642.0 63304.0 62234.0 182844.0 191700.0 182844.0 182844.0 182844.0 182844.0 182844.0 182844.0 182844.0 191700.0 191700.0 191700.0 191700.0 191700.0 191700.0 191700.0
74466.0 71544.0 49967.0 53570.0 174906.0 167913.0 40628.0 47635.0 134840.0 127507.0 200399.0 203936.0 339254.0 335314.0 112168.0 105619.0 51828.0 59574.0 210819.0 207767.0 12910.0 18567.0 90067.0 87498.0 113735.0 121704.0 184756.0 190696.0 101294.0 103510.0 162492.0 156438.0 8262.0 0.0 167221.0 165732.0 200841.0 193062.0 70138.0 69576.0 189830.0 193544.0 189830.0 189830.0 189830.0 189830.0 189830.0 189830.0 189830.0 193544.0 193544.0 193544.0 193544.0 193544.0 193544.0 193544.0
106687.0 114171.0 183423.0 191398.0 221997.0 220150.0 170144.0 176003.0 189828.0 182914.0 235834.0 233136.0 172044.0 168231.0 211263.0 203945.0 200016.0 206855.0 44185.0 42641.0 180128.0 184854.0 90401.0 87555.0 90444.0 91179.0 253949.0 261820.0 146517.0 139090.0 213413.0 205330.0 168106.0 167221.0 0.0 8078.0 36602.0 30363.0 148473.0 156471.0 192960.0 64459.0 192960.0 192960.0 192960.0 192960.0 192960.0 192960.0 192960.0 64459.0 64459.0 64459.0 64459.0 64459.0 64459.0 64459.0
107927.0 115575.0 184096.0 192041.0 227176.0 225113.0 170590.0 176708.0 194208.0 187135.0 241575.0 239063.0 173777.0 169640.0 214143.0 206731.0 200265.0 207258.0 45121.0 42254.0 178611.0 183610.0 92155.0 88653.0 94495.0 95848.0 258627.0 266493.0 150102.0 142832.0 218338.0 210219.0 167007.0 165732.0 8078.0 0.0 35570.0 28300.0 150466.0 158422.0 199086.0 72531.0 199086.0 199086.0 199086.0 199086.0 199086.0 199086.0 199086.0 72531.0 72531.0 72531.0 72531.0 72531.0 72531.0 72531.0
143087.0 150639.0 219548.0 227504.0 255539.0 254152.0 206103.0 212147.0 224896.0 218216.0 267886.0 264627.0 139646.0 135100.0 247682.0 240406.0 235817.0 242785.0 13028.0 7123.0 213687.0 218851.0 126951.0 123876.0 126243.0 126257.0 288422.0 296288.0 182552.0 175007.0 247507.0 239517.0 202335.0 200841.0 36602.0 35570.0 0.0 8013.0 185071.0 193067.0 224102.0 80125.0 224102.0 224102.0 224102.0 224102.0 224102.0 224102.0 224102.0 80125.0 80125.0 80125.0 80125.0 80125.0 80125.0 80125.0
136174.0 143789.0 212392.0 220336.0 251221.0 249629.0 198868.0 205006.0 219831.0 213016.0 264177.0 261125.0 147643.0 143065.0 241601.0 234267.0 228502.0 235523.0 20470.0 15136.0 205896.0 211115.0 120244.0 116915.0 120699.0 121125.0 283685.0 291555.0 176853.0 169397.0 242938.0 234902.0 194642.0 193062.0 30363.0 28300.0 8013.0 0.0 178487.0 186464.0 220667.0 80081.0 220667.0 220667.0 220667.0 220667.0 220667.0 220667.0 220667.0 80081.0 80081.0 80081.0 80081.0 80081.0 80081.0 80081.0
43868.0 35967.0 43941.0 51065.0 110594.0 104554.0 37321.0 37593.0 69241.0 61178.0 134772.0 137228.0 313630.0 311181.0 66499.0 58714.0 63177.0 67406.0 191607.0 191007.0 77206.0 75098.0 58332.0 62751.0 65557.0 70680.0 128651.0 135763.0 31313.0 34713.0 98322.0 91207.0 63304.0 70138.0 148473.0 150466.0 185071.0 178487.0 0.0 8022.0 119700.0 150783.0 119700.0 119700.0 119700.0 119700.0 119700.0 119700.0 119700.0 150783.0 150783.0 150783.0 150783.0 150783.0 150783.0 150783.0
51501.0 43598.0 37907.0 44575.0 107758.0 101373.0 33455.0 32207.0 66647.0 58858.0 132497.0 135404.0 321570.0 319146.0 59507.0 51701.0 57005.0 60705.0 199627.0 199014.0 75431.0 72550.0 66271.0 70526.0 73281.0 78161.0 123858.0 130796.0 34175.0 38991.0 95374.0 88610.0 62234.0 69576.0 156471.0 158422.0 193067.0 186464.0 8022.0 0.0 120848.0 158330.0 120848.0 120848.0 120848.0 120848.0 120848.0 120848.0 120848.0 158330.0 158330.0 158330.0 158330.0 158330.0 158330.0 158330.0
137159.0 133236.0 153652.0 157491.0 64505.0 68264.0 153675.0 150345.0 67138.0 69266.0 65346.0 60282.0 327097.0 325969.0 114021.0 112529.0 169876.0 169977.0 224357.0 227389.0 196277.0 193212.0 136518.0 144566.0 113808.0 108260.0 101167.0 107939.0 88814.0 88170.0 64593.0 60608.0 182844.0 189830.0 192960.0 199086.0 224102.0 220667.0 119700.0 120848.0 0.0 158470.0 0.0 0.0 0.0 0.0 0.0 0.0 0.0 158470.0 158470.0 158470.0 158470.0 158470.0 158470.0 158470.0
120399.0 125451.0 193176.0 200878.0 192835.0 192751.0 182518.0 186013.0 168584.0 163413.0 202490.0 198994.0 170417.0 168223.0 201470.0 195359.0 212006.0 217317.0 75676.0 80817.0 205896.0 208479.0 103757.0 106109.0 85477.0 80183.0 227928.0 235656.0 135524.0 127556.0 186539.0 179059.0 191700.0 193544.0 64459.0 72531.0 80125.0 80081.0 150783.0 158330.0 158470.0 0.0 158470.0 158470.0 158470.0 158470.0 158470.0 158470.0 158470.0 0.0 0.0 0.0 0.0 0.0 0.0 0.0
137159.0 133236.0 153652.0 157491.0 64505.0 68264.0 153675.0 150345.0 67138.0 69266.0 65346.0 60282.0 327097.0 325969.0 114021.0 112529.0 169876.0 169977.0 224357.0 227389.0 196277.0 193212.0 136518.0 144566.0 113808.0 108260.0 101167.0 107939.0 88814.0 88170.0 64593.0 60608.0 182844.0 189830.0 192960.0 199086.0 224102.0 220667.0 119700.0 120848.0 0.0 158470.0 0.0 0.0 0.0 0.0 0.0 0.0 0.0 158470.0 158470.0 158470.0 158470.0 158470.0 158470.0 158470.0
137159.0 133236.0 153652.0 157491.0 64505.0 68264.0 153675.0 150345.0 67138.0 69266.0 65346.0 60282.0 327097.0 325969.0 114021.0 112529.0 169876.0 169977.0 224357.0 227389.0 196277.0 193212.0 136518.0 144566.0 113808.0 108260.0 101167.0 107939.0 88814.0 88170.0 64593.0 60608.0 182844.0 189830.0 192960.0 199086.0 224102.0 220667.0 119700.0 120848.0 0.0 158470.0 0.0 0.0 0.0 0.0 0.0 0.0 0.0 158470.0 158470.0 158470.0 158470.0 158470.0 158470.0 158470.0
137159.0 133236.0 153652.0 157491.0 64505.0 68264.0 153675.0 150345.0 67138.0 69266.0 65346.0 60282.0 327097.0 325969.0 114021.0 112529.0 169876.0 169977.0 224357.0 227389.0 196277.0 193212.0 136518.0 144566.0 113808.0 108260.0 101167.0 107939.0 88814.0 88170.0 64593.0 60608.0 182844.0 189830.0 192960.0 199086.0 224102.0 220667.0 119700.0 120848.0 0.0 158470.0 0.0 0.0 0.0 0.0 0.0 0.0 0.0 158470.0 158470.0 158470.0 158470.0 158470.0 158470.0 158470.0
137159.0 133236.0 153652.0 157491.0 64505.0 68264.0 153675.0 150345.0 67138.0 69266.0 65346.0 60282.0 327097.0 325969.0 114021.0 112529.0 169876.0 169977.0 224357.0 227389.0 196277.0 193212.0 136518.0 144566.0 113808.0 108260.0 101167.0 107939.0 88814.0 88170.0 64593.0 60608.0 182844.0 189830.0 192960.0 199086.0 224102.0 220667.0 119700.0 120848.0 0.0 158470.0 0.0 0.0 0.0 0.0 0.0 0.0 0.0 158470.0 158470.0 158470.0 158470.0 158470.0 158470.0 158470.0
137159.0 133236.0 153652.0 157491.0 64505.0 68264.0 153675.0 150345.0 67138.0 69266.0 65346.0 60282.0 327097.0 325969.0 114021.0 112529.0 169876.0 169977.0 224357.0 227389.0 196277.0 193212.0 136518.0 144566.0 113808.0 108260.0 101167.0 107939.0 88814.0 88170.0 64593.0 60608.0 182844.0 189830.0 192960.0 199086.0 224102.0 220667.0 119700.0 120848.0 0.0 158470.0 0.0 0.0 0.0 0.0 0.0 0.0 0.0 158470.0 158470.0 158470.0 158470.0 158470.0 158470.0 158470.0
137159.0 133236.0 153652.0 157491.0 64505.0 68264.0 153675.0 150345.0 67138.0 69266.0 65346.0 60282.0 327097.0 325969.0 114021.0 112529.0 169876.0 169977.0 224357.0 227389.0 196277.0 193212.0 136518.0 144566.0 113808.0 108260.0 101167.0 107939.0 88814.0 88170.0 64593.0 60608.0 182844.0 189830.0 192960.0 199086.0 224102.0 220667.0 119700.0 120848.0 0.0 158470.0 0.0 0.0 0.0 0.0 0.0 0.0 0.0 158470.0 158470.0 158470.0 158470.0 158470.0 158470.0 158470.0
137159.0 133236.0 153652.0 157491.0 64505.0 68264.0 153675.0 150345.0 67138.0 69266.0 65346.0 60282.0 327097.0 325969.0 114021.0 112529.0 169876.0 169977.0 224357.0 227389.0 196277.0 193212.0 136518.0 144566.0 113808.0 108260.0 101167.0 107939.0 88814.0 88170.0 64593.0 60608.0 182844.0 189830.0 192960.0 199086.0 224102.0 220667.0 119700.0 120848.0 0.0 158470.0 0.0 0.0 0.0 0.0 0.0 0.0 0.0 158470.0 158470.0 158470.0 158470.0 158470.0 158470.0 158470.0
120399.0 125451.0 193176.0 200878.0 192835.0 192751.0 182518.0 186013.0 168584.0 163413.0 202490.0 198994.0 170417.0 168223.0 201470.0 195359.0 212006.0 217317.0 75676.0 80817.0 205896.0 208479.0 103757.0 106109.0 85477.0 80183.0 227928.0 235656.0 135524.0 127556.0 186539.0 179059.0 191700.0 193544.0 64459.0 72531.0 80125.0 80081.0 150783.0 158330.0 158470.0 0.0 158470.0 158470.0 158470.0 158470.0 158470.0 158470.0 158470.0 0.0 0.0 0.0 0.0 0.0 0.0 0.0
120399.0 125451.0 193176.0 200878.0 192835.0 192751.0 182518.0 186013.0 168584.0 163413.0 202490.0 198994.0 170417.0 168223.0 201470.0 195359.0 212006.0 217317.0 75676.0 80817.0 205896.0 208479.0 103757.0 106109.0 85477.0 80183.0 227928.0 235656.0 135524.0 127556.0 186539.0 179059.0 191700.0 193544.0 64459.0 72531.0 80125.0 80081.0 150783.0 158330.0 158470.0 0.0 158470.0 158470.0 158470.0 158470.0 158470.0 158470.0 158470.0 0.0 0.0 0.0 0.0 0.0 0.0 0.0
120399.0 125451.0 193176.0 200878.0 192835.0 192751.0 182518.0 186013.0 168584.0 163413.0 202490.0 198994.0 170417.0 168223.0 201470.0 195359.0 212006.0 217317.0 75676.0 80817.0 205896.0 208479.0 103757.0 106109.0 85477.0 80183.0 227928.0 235656.0 135524.0 127556.0 186539.0 179059.0 191700.0 193544.0 64459.0 72531.0 80125.0 80081.0 150783.0 158330.0 158470.0 0.0 158470.0 158470.0 158470.0 158470.0 158470.0 158470.0 158470.0 0.0 0.0 0.0 0.0 0.0 0.0 0.0
120399.0 125451.0 193176.0 200878.0 192835.0 192751.0 182518.0 186013.0 168584.0 163413.0 202490.0 198994.0 170417.0 168223.0 201470.0 195359.0 212006.0 217317.0 75676.0 80817.0 205896.0 208479.0 103757.0 106109.0 85477.0 80183.0 227928.0 235656.0 135524.0 127556.0 186539.0 179059.0 191700.0 193544.0 64459.0 72531.0 80125.0 80081.0 150783.0 158330.0 158470.0 0.0 158470.0 158470.0 158470.0 158470.0 158470.0 158470.0 158470.0 0.0 0.0 0.0 0.0 0.0 0.0 0.0
120399.0 125451.0 193176.0 200878.0 192835.0 192751.0 182518.0 186013.0 168584.0 163413.0 202490.0 198994.0 170417.0 168223.0 201470.0 195359.0 212006.0 217317.0 75676.0 80817.0 205896.0 208479.0 103757.0 106109.0 85477.0 80183.0 227928.0 235656.0 135524.0 127556.0 186539.0 179059.0 191700.0 193544.0 64459.0 72531.0 80125.0 80081.0 150783.0 158330.0 158470.0 0.0 158470.0 158470.0 158470.0 158470.0 158470.0 158470.0 158470.0 0.0 0.0 0.0 0.0 0.0 0.0 0.0
120399.0 125451.0 193176.0 200878.0 192835.0 192751.0 182518.0 186013.0 168584.0 163413.0 202490.0 198994.0 170417.0 168223.0 201470.0 195359.0 212006.0 217317.0 75676.0 80817.0 205896.0 208479.0 103757.0 106109.0 85477.0 80183.0 227928.0 235656.0 135524.0 127556.0 186539.0 179059.0 191700.0 193544.0 64459.0 72531.0 80125.0 80081.0 150783.0 158330.0 158470.0 0.0 158470.0 158470.0 158470.0 158470.0 158470.0 158470.0 158470.0 0.0 0.0 0.0 0.0 0.0 0.0 0.0
120399.0 125451.0 193176.0 200878.0 192835.0 192751.0 182518.0 186013.0 168584.0 163413.0 202490.0 198994.0 170417.0 168223.0 201470.0 195359.0 212006.0 217317.0 75676.0 80817.0 205896.0 208479.0 103757.0 106109.0 85477.0 80183.0 227928.0 235656.0 135524.0 127556.0 186539.0 179059.0 191700.0 193544.0 64459.0 72531.0 80125.0 80081.0 150783.0 158330.0 158470.0 0.0 158470.0 158470.0 158470.0 158470.0 158470.0 158470.0 158470.0 0.0 0.0 0.0 0.0 0.0 0.0 0.0
FIXED_EDGES_SECTION
1 2
3 4
5 6
7 8
9 10
11 12
13 14
15 16
17 18
19 20
21 22
23 24
25 26
27 28
29 30
31 32
33 34
35 36
37 38
39 40
-1 
DEMAND_SECTION
1 90
2 90
3 90
4 90
5 247
6 247
7 211
8 211
9 155
10 155
11 369
12 369
13 491
14 491
15 497
16 497
17 224
18 224
19 620
20 620
21 72
22 72
23 177
24 177
25 358
26 358
27 316
28 316
29 277
30 277
31 396
32 396
33 74
34 74
35 84
36 84
37 336
38 336
39 96
40 96
41 0
42 0
43 0
44 0
45 0
46 0
47 0
48 0
49 0
50 0
51 0
52 0
53 0
54 0
55 0
56 0
DEPOT_SECTION
41 
-1 
CAPACITIES_SECTION
1250 
1375 
1500 
1625 
-1 
EOF