NAME: GFS_20_1
TYPE: GFSP
DIMENSION: 56
VEHICLES: 4
CAPACITY: 1250.0
TRIP_DIST_LIMIT: 600000.0
TOTAL_DIST_LIMIT: 1050000.0
EDGE_WEIGHT_TYPE: EXPLICIT
EDGE_WEIGHT_FORMAT: FULL_MATRIX
EDGE_WEIGHT_SECTION
0.0 7999.0 109738.0 116348.0 146002.0 138535.0 142055.0 140489.0 114453.0 112465.0 209956.0 216249.0 226890.0 223443.0 159001.0 151430.0 185129.0 176874.0 162896.0 165581.0 85046.0 92186.0 69686.0 69463.0 137397.0 140746.0 50224.0 42326.0 155646.0 148212.0 185014.0 187932.0 126583.0 130665.0 180629.0 177391.0 18774.0 12788.0 214654.0 214693.0 160498.0 85675.0 160498.0 160498.0 160498.0 160498.0 160498.0 160498.0 160498.0 85675.0 85675.0 85675.0 85675.0 85675.0 85675.0 85675.0
7999.0 0.0 102322.0 109062.0 141731.0 134416.0 149045.0 147689.0 113073.0 111621.0 217076.0 223451.0 234347.0 230988.0 151199.0 143608.0 192171.0 183932.0 160366.0 162695.0 77087.0 84268.0 72790.0 73388.0 134884.0 137817.0 46515.0 39069.0 147881.0 140409.0 192459.0 195266.0 119866.0 123721.0 174238.0 170809.0 23723.0 19504.0 222055.0 221979.0 155671.0 89876.0 155671.0 155671.0 155671.0 155671.0 155671.0 155671.0 155671.0 89876.0 89876.0 89876.0 89876.0 89876.0 89876.0 89876.0
109738.0 102322.0 0.0 8061.0 162720.0 159132.0 227611.0 229174.0 170883.0 174049.0 295271.0 302124.0 316323.0 314659.0 53260.0 46834.0 270155.0 261988.0 198671.0 196668.0 36237.0 29358.0 128577.0 135227.0 177789.0 175739.0 75931.0 81777.0 49142.0 43214.0 275524.0 276422.0 106707.0 103508.0 79829.0 74324.0 113862.0 116133.0 303420.0 301543.0 89706.0 148561.0 89706.0 89706.0 89706.0 89706.0 89706.0 89706.0 89706.0 148561.0 148561.0 148561.0 148561.0 148561.0 148561.0 148561.0
116348.0 109062.0 8061.0 0.0 170053.0 166606.0 231112.0 232934.0 178911.0 182100.0 298650.0 305503.0 319779.0 318295.0 50151.0 44493.0 273534.0 265366.0 206312.0 204203.0 44285.0 37308.0 131692.0 138593.0 185604.0 183459.0 80314.0 86607.0 45805.0 40876.0 279223.0 279928.0 113368.0 109855.0 71769.0 66292.0 119650.0 122267.0 306852.0 304922.0 83699.0 151405.0 83699.0 83699.0 83699.0 83699.0 83699.0 83699.0 83699.0 151405.0 151405.0 151405.0 151405.0 151405.0 151405.0 151405.0
146002.0 141731.0 162720.0 170053.0 0.0 8030.0 280379.0 276810.0 57995.0 65788.0 345139.0 350269.0 356640.0 351541.0 172667.0 166607.0 321777.0 313569.0 40799.0 36042.0 129699.0 134474.0 214328.0 215108.0 34883.0 27010.0 173068.0 169643.0 172996.0 166123.0 316347.0 320907.0 60859.0 67461.0 237309.0 230262.0 164726.0 158402.0 345738.0 347586.0 250648.0 231534.0 250648.0 250648.0 250648.0 250648.0 250648.0 250648.0 250648.0 231534.0 231534.0 231534.0 231534.0 231534.0 231534.0 231534.0
138535.0 134416.0 159132.0 166606.0 8030.0 0.0 272427.0 268830.0 50890.0 58706.0 337129.0 342249.0 348609.0 343513.0 171476.0 165192.0 313786.0 305581.0 41079.0 37756.0 125422.0 130531.0 207104.0 207755.0 30104.0 23025.0 166663.0 163031.0 171598.0 164537.0 308320.0 312886.0 60069.0 67166.0 234750.0 227826.0 157282.0 150872.0 337709.0 339561.0 246410.0 224138.0 246410.0 246410.0 246410.0 246410.0 246410.0 246410.0 246410.0 224138.0 224138.0 224138.0 224138.0 224138.0 224138.0 224138.0
142055.0 149045.0 227611.0 231112.0 280379.0 272427.0 0.0 8428.0 234402.0 229091.0 68247.0 75015.0 88714.0 87266.0 280847.0 274385.0 43162.0 34974.0 286327.0 291243.0 217097.0 222296.0 99665.0 92531.0 262412.0 268088.0 152218.0 147664.0 276656.0 270781.0 48507.0 48819.0 268597.0 272710.0 273093.0 273009.0 126328.0 129562.0 75824.0 74256.0 238728.0 81174.0 238728.0 238728.0 238728.0 238728.0 238728.0 238728.0 238728.0 81174.0 81174.0 81174.0 81174.0 81174.0 81174.0 81174.0
140489.0 147689.0 229174.0 232934.0 276810.0 268830.0 8428.0 0.0 229827.0 224343.0 69542.0 75764.0 87755.0 85560.0 282434.0 275845.0 45141.0 36872.0 281700.0 286774.0 217363.0 222792.0 102101.0 94663.0 258025.0 263864.0 153454.0 148529.0 278294.0 272256.0 46375.0 47969.0 266778.0 271096.0 275808.0 275725.0 125432.0 128187.0 75065.0 74383.0 241444.0 84457.0 241444.0 241444.0 241444.0 241444.0 241444.0 241444.0 241444.0 84457.0 84457.0 84457.0 84457.0 84457.0 84457.0 84457.0
114453.0 113073.0 170883.0 178911.0 57995.0 50890.0 234402.0 229827.0 0.0 7817.0 296224.0 300743.0 305345.0 299757.0 196732.0 189505.0 273976.0 265944.0 51939.0 57028.0 134667.0 141687.0 183724.0 182506.0 28841.0 35963.0 154721.0 149010.0 195764.0 187968.0 266261.0 271398.0 95211.0 103125.0 250454.0 244446.0 132499.0 124969.0 295078.0 297614.0 250760.0 197841.0 250760.0 250760.0 250760.0 250760.0 250760.0 250760.0 250760.0 197841.0 197841.0 197841.0 197841.0 197841.0 197841.0 197841.0
112465.0 111621.0 174049.0 182100.0 65788.0 58706.0 229091.0 224343.0 7817.0 0.0 290298.0 294704.0 298981.0 293307.0 201564.0 194247.0 268275.0 260285.0 57469.0 63110.0 137815.0 145022.0 181247.0 179704.0 35717.0 43197.0 154417.0 148412.0 200460.0 192604.0 260155.0 265391.0 101857.0 109762.0 253793.0 247933.0 130159.0 122501.0 288839.0 291498.0 252484.0 194778.0 252484.0 252484.0 252484.0 252484.0 252484.0 252484.0 252484.0 194778.0 194778.0 194778.0 194778.0 194778.0 194778.0 194778.0
209956.0 217076.0 295271.0 298650.0 345139.0 337129.0 68247.0 69542.0 296224.0 290298.0 0.0 8022.0 28460.0 32603.0 348478.0 342076.0 25228.0 33284.0 347760.0 353243.0 285205.0 290344.0 167031.0 160072.0 324789.0 330990.0 220057.0 215634.0 344264.0 338466.0 31693.0 25269.0 336316.0 340601.0 340323.0 340239.0 194528.0 197574.0 18761.0 11333.0 305958.0 149265.0 305958.0 305958.0 305958.0 305958.0 305958.0 305958.0 305958.0 149265.0 149265.0 149265.0 149265.0 149265.0 149265.0 149265.0
216249.0 223451.0 302124.0 305503.0 350269.0 342249.0 75015.0 75764.0 300743.0 294704.0 8022.0 0.0 20951.0 26016.0 355331.0 348929.0 32458.0 40238.0 352135.0 357730.0 292054.0 297161.0 173884.0 166925.0 329386.0 335693.0 226910.0 222487.0 351117.0 345319.0 34728.0 29390.0 342445.0 346829.0 347176.0 347092.0 201076.0 203947.0 13501.0 5638.0 312811.0 156118.0 312811.0 312811.0 312811.0 312811.0 312811.0 312811.0 312811.0 156118.0 156118.0 156118.0 156118.0 156118.0 156118.0 156118.0
226890.0 234347.0 316323.0 319779.0 356640.0 348609.0 88714.0 87755.0 305345.0 298981.0 28460.0 20951.0 0.0 8049.0 369555.0 363099.0 49264.0 55828.0 356165.0 362087.0 305111.0 310543.0 188183.0 181187.0 334145.0 340763.0 240884.0 236169.0 365357.0 359496.0 41892.0 39932.0 352158.0 356884.0 361462.0 361378.0 212685.0 214922.0 12954.0 17418.0 327097.0 170417.0 327097.0 327097.0 327097.0 327097.0 327097.0 327097.0 327097.0 170417.0 170417.0 170417.0 170417.0 170417.0 170417.0 170417.0
223443.0 230988.0 314659.0 318295.0 351541.0 343513.0 87266.0 85560.0 299757.0 293307.0 32603.0 26016.0 8049.0 0.0 367917.0 361368.0 50233.0 55954.0 350383.0 356391.0 302585.0 308163.0 186931.0 179762.0 328581.0 335284.0 239004.0 234072.0 363756.0 357775.0 39193.0 38674.0 348207.0 353059.0 360333.0 360250.0 209661.0 211632.0 14310.0 21292.0 325969.0 168223.0 325969.0 325969.0 325969.0 325969.0 325969.0 325969.0 325969.0 168223.0 168223.0 168223.0 168223.0 168223.0 168223.0 168223.0
159001.0 151199.0 53260.0 50151.0 172667.0 171476.0 280847.0 282434.0 196732.0 201564.0 348478.0 355331.0 369555.0 367917.0 0.0 7807.0 323362.0 315194.0 212555.0 208647.0 75302.0 67532.0 181653.0 188411.0 196134.0 192009.0 129127.0 134736.0 4510.0 10790.0 328784.0 329662.0 111810.0 105521.0 73074.0 65163.0 165388.0 166829.0 356646.0 354750.0 114021.0 201470.0 114021.0 114021.0 114021.0 114021.0 114021.0 114021.0 114021.0 201470.0 201470.0 201470.0 201470.0 201470.0 201470.0 201470.0
151430.0 143608.0 46834.0 44493.0 166607.0 165192.0 274385.0 275845.0 189505.0 194247.0 342076.0 348929.0 363099.0 361368.0 7807.0 0.0 316959.0 308792.0 206264.0 202519.0 67541.0 59799.0 175410.0 182050.0 189428.0 185458.0 122428.0 127855.0 6409.0 3633.0 322211.0 323187.0 105811.0 99762.0 75943.0 68126.0 158075.0 159394.0 350204.0 348348.0 112529.0 195359.0 112529.0 112529.0 112529.0 112529.0 112529.0 112529.0 112529.0 195359.0 195359.0 195359.0 195359.0 195359.0 195359.0 195359.0
185129.0 192171.0 270155.0 273534.0 321777.0 313786.0 43162.0 45141.0 273976.0 268275.0 25228.0 32458.0 49264.0 50233.0 323362.0 316959.0 0.0 8282.0 325725.0 330993.0 260088.0 265228.0 141915.0 134956.0 302363.0 308365.0 194940.0 190517.0 319148.0 313350.0 22567.0 16121.0 311609.0 315794.0 315206.0 315123.0 169490.0 172679.0 36574.0 32798.0 280842.0 124149.0 280842.0 280842.0 280842.0 280842.0 280842.0 280842.0 280842.0 124149.0 124149.0 124149.0 124149.0 124149.0 124149.0 124149.0
176874.0 183932.0 261988.0 265366.0 313569.0 305581.0 34974.0 36872.0 265944.0 260285.0 33284.0 40238.0 55828.0 55954.0 315194.0 308792.0 8282.0 0.0 317723.0 322952.0 251921.0 257060.0 133747.0 126789.0 294295.0 300263.0 186773.0 182350.0 310981.0 305182.0 22884.0 18508.0 303341.0 307539.0 307039.0 306955.0 161291.0 164437.0 42924.0 40042.0 272674.0 115982.0 272674.0 272674.0 272674.0 272674.0 272674.0 272674.0 272674.0 115982.0 115982.0 115982.0 115982.0 115982.0 115982.0 115982.0
162896.0 160366.0 198671.0 206312.0 40799.0 41079.0 286327.0 281700.0 51939.0 57469.0 347760.0 352135.0 356165.0 350383.0 212555.0 206264.0 325725.0 317723.0 0.0 8088.0 164017.0 169665.0 232582.0 232018.0 25501.0 23734.0 198082.0 193388.0 212671.0 205587.0 317559.0 322836.0 101025.0 107936.0 275293.0 268468.0 181445.0 174232.0 346150.0 348893.0 284593.0 247775.0 284593.0 284593.0 284593.0 284593.0 284593.0 284593.0 284593.0 247775.0 247775.0 247775.0 247775.0 247775.0 247775.0 247775.0
165581.0 162695.0 196668.0 204203.0 36042.0 37756.0 291243.0 286774.0 57028.0 63110.0 353243.0 357730.0 362087.0 356391.0 208647.0 202519.0 330993.0 322952.0 8088.0 0.0 162513.0 167883.0 235216.0 234917.0 28965.0 24880.0 199173.0 194756.0 208916.0 201968.0 323215.0 328395.0 96864.0 103502.0 272504.0 265569.0 184239.0 177170.0 351943.0 354564.0 283373.0 250835.0 283373.0 283373.0 283373.0 283373.0 283373.0 283373.0 283373.0 250835.0 250835.0 250835.0 250835.0 250835.0 250835.0 250835.0
85046.0 77087.0 36237.0 44285.0 129699.0 125422.0 217097.0 217363.0 134667.0 137815.0 285205.0 292054.0 305111.0 302585.0 75302.0 67541.0 260088.0 251921.0 164017.0 162513.0 0.0 8006.0 122630.0 127731.0 142375.0 140761.0 67765.0 70323.0 72441.0 64608.0 263473.0 265305.0 78323.0 77117.0 116010.0 110317.0 94182.0 94223.0 292421.0 291329.0 120994.0 143177.0 120994.0 120994.0 120994.0 120994.0 120994.0 120994.0 120994.0 143177.0 143177.0 143177.0 143177.0 143177.0 143177.0 143177.0
92186.0 84268.0 29358.0 37308.0 134474.0 130531.0 222296.0 222792.0 141687.0 145022.0 290344.0 297161.0 310543.0 308163.0 67532.0 59799.0 265228.0 257060.0 169665.0 167883.0 8006.0 0.0 126648.0 132083.0 148505.0 146594.0 71604.0 74895.0 64586.0 56802.0 269008.0 270680.0 80972.0 79010.0 108788.0 102933.0 100563.0 100975.0 297804.0 296552.0 116316.0 147199.0 116316.0 116316.0 116316.0 116316.0 116316.0 116316.0 116316.0 147199.0 147199.0 147199.0 147199.0 147199.0 147199.0 147199.0
69686.0 72790.0 128577.0 131692.0 214328.0 207104.0 99665.0 102101.0 183724.0 181247.0 167031.0 173884.0 188183.0 186931.0 181653.0 175410.0 141915.0 133747.0 232582.0 235216.0 122630.0 126648.0 0.0 8150.0 207083.0 210360.0 55045.0 52642.0 177396.0 171786.0 148046.0 148413.0 186362.0 188715.0 174340.0 174146.0 51250.0 58768.0 175242.0 173303.0 140034.0 20556.0 140034.0 140034.0 140034.0 140034.0 140034.0 140034.0 140034.0 20556.0 20556.0 20556.0 20556.0 20556.0 20556.0 20556.0
69463.0 73388.0 135227.0 138593.0 215108.0 207755.0 92531.0 94663.0 182506.0 179704.0 160072.0 166925.0 181187.0 179762.0 188411.0 182050.0 134956.0 126789.0 232018.0 234917.0 127731.0 132083.0 8150.0 0.0 206549.0 210119.0 60677.0 57422.0 184193.0 178435.0 140773.0 141340.0 189299.0 191951.0 182344.0 182074.0 50715.0 57786.0 168264.0 166344.0 148135.0 16669.0 148135.0 148135.0 148135.0 148135.0 148135.0 148135.0 148135.0 16669.0 16669.0 16669.0 16669.0 16669.0 16669.0 16669.0
137397.0 134884.0 177789.0 185604.0 34883.0 30104.0 262412.0 258025.0 28841.0 35717.0 324789.0 329386.0 334145.0 328581.0 196134.0 189428.0 302363.0 294295.0 25501.0 28965.0 142375.0 148505.0 207083.0 206549.0 0.0 8242.0 173097.0 168234.0 195823.0 188411.0 294950.0 300024.0 86988.0 94577.0 255783.0 249227.0 155956.0 148764.0 323832.0 326304.0 262112.0 222342.0 262112.0 262112.0 262112.0 262112.0 262112.0 262112.0 262112.0 222342.0 222342.0 222342.0 222342.0 222342.0 222342.0 222342.0
140746.0 137817.0 175739.0 183459.0 27010.0 23025.0 268088.0 263864.0 35963.0 43197.0 330990.0 335693.0 340763.0 335284.0 192009.0 185458.0 308365.0 300263.0 23734.0 24880.0 140761.0 146594.0 210360.0 210119.0 8242.0 0.0 174613.0 170065.0 191865.0 184577.0 301337.0 306314.0 81732.0 89142.0 253047.0 246356.0 159424.0 152400.0 330333.0 332687.0 261115.0 226086.0 261115.0 261115.0 261115.0 261115.0 261115.0 261115.0 261115.0 226086.0 226086.0 226086.0 226086.0 226086.0 226086.0 226086.0
50224.0 46515.0 75931.0 80314.0 173068.0 166663.0 152218.0 153454.0 154721.0 154417.0 220057.0 226910.0 240884.0 239004.0 129127.0 122428.0 194940.0 186773.0 198082.0 199173.0 67765.0 71604.0 55045.0 60677.0 173097.0 174613.0 0.0 8186.0 125062.0 118851.0 199828.0 200952.0 136297.0 137609.0 135400.0 133264.0 44251.0 49655.0 228025.0 226321.0 110802.0 75595.0 110802.0 110802.0 110802.0 110802.0 110802.0 110802.0 110802.0 75595.0 75595.0 75595.0 75595.0 75595.0 75595.0 75595.0
42326.0 39069.0 81777.0 86607.0 169643.0 163031.0 147664.0 148529.0 149010.0 148412.0 215634.0 222487.0 236169.0 234072.0 134736.0 127855.0 190517.0 182350.0 193388.0 194756.0 70323.0 74895.0 52642.0 57422.0 168234.0 170065.0 8186.0 0.0 130763.0 124315.0 194879.0 196249.0 135428.0 137204.0 143283.0 141013.0 36158.0 41469.0 223361.0 221893.0 118974.0 73098.0 118974.0 118974.0 118974.0 118974.0 118974.0 118974.0 118974.0 73098.0 73098.0 73098.0 73098.0 73098.0 73098.0 73098.0
155646.0 147881.0 49142.0 45805.0 172996.0 171598.0 276656.0 278294.0 195764.0 200460.0 344264.0 351117.0 365357.0 363756.0 4510.0 6409.0 319148.0 310981.0 212671.0 208916.0 72441.0 64586.0 177396.0 184193.0 195823.0 191865.0 125062.0 130763.0 0.0 8042.0 324634.0 325473.0 112189.0 106102.0 70489.0 62618.0 161721.0 163291.0 352443.0 350536.0 109849.0 197172.0 109849.0 109849.0 109849.0 109849.0 109849.0 109849.0 109849.0 197172.0 197172.0 197172.0 197172.0 197172.0 197172.0 197172.0
148212.0 140409.0 43214.0 40876.0 166123.0 164537.0 270781.0 272256.0 187968.0 192604.0 338466.0 345319.0 359496.0 357775.0 10790.0 3633.0 313350.0 305182.0 205587.0 201968.0 64608.0 56802.0 171786.0 178435.0 188411.0 184577.0 118851.0 124315.0 8042.0 0.0 318621.0 319585.0 105425.0 99560.0 74932.0 67189.0 154685.0 156072.0 346599.0 344738.0 109735.0 191730.0 109735.0 109735.0 109735.0 109735.0 109735.0 109735.0 109735.0 191730.0 191730.0 191730.0 191730.0 191730.0 191730.0 191730.0
185014.0 192459.0 275524.0 279223.0 316347.0 308320.0 48507.0 46375.0 266261.0 260155.0 31693.0 34728.0 41892.0 39193.0 328784.0 322211.0 22567.0 22884.0 317559.0 323215.0 263473.0 269008.0 148046.0 140773.0 294950.0 301337.0 199828.0 194879.0 324634.0 318621.0 0.0 7469.0 310455.0 315113.0 321550.0 321467.0 170819.0 173031.0 29764.0 31355.0 287186.0 129679.0 287186.0 287186.0 287186.0 287186.0 287186.0 287186.0 287186.0 129679.0 129679.0 129679.0 129679.0 129679.0 129679.0 129679.0
187932.0 195266.0 276422.0 279928.0 320907.0 312886.0 48819.0 47969.0 271398.0 265391.0 25269.0 29390.0 39932.0 38674.0 329662.0 323187.0 16121.0 18508.0 322836.0 328395.0 265305.0 270680.0 148413.0 141340.0 300024.0 306314.0 200952.0 196249.0 325473.0 319585.0 7469.0 0.0 313801.0 318321.0 321759.0 321676.0 173270.0 175787.0 27124.0 26905.0 287395.0 129575.0 287395.0 287395.0 287395.0 287395.0 287395.0 287395.0 287395.0 129575.0 129575.0 129575.0 129575.0 129575.0 129575.0 129575.0
126583.0 119866.0 106707.0 113368.0 60859.0 60069.0 268597.0 266778.0 95211.0 101857.0 336316.0 342445.0 352158.0 348207.0 111810.0 105811.0 311609.0 303341.0 101025.0 96864.0 78323.0 80972.0 186362.0 189299.0 86988.0 81732.0 136297.0 135428.0 112189.0 105425.0 310455.0 313801.0 0.0 7913.0 177709.0 170462.0 143300.0 139203.0 340209.0 340668.0 196277.0 205896.0 196277.0 196277.0 196277.0 196277.0 196277.0 196277.0 196277.0 205896.0 205896.0 205896.0 205896.0 205896.0 205896.0 205896.0
130665.0 123721.0 103508.0 109855.0 67461.0 67166.0 272710.0 271096.0 103125.0 109762.0 340601.0 346829.0 356884.0 353059.0 105521.0 99762.0 315794.0 307539.0 107936.0 103502.0 77117.0 79010.0 188715.0 191951.0 94577.0 89142.0 137609.0 137204.0 106102.0 99560.0 315113.0 318321.0 7913.0 0.0 172619.0 165263.0 146929.0 143165.0 344845.0 345154.0 193212.0 208479.0 193212.0 193212.0 193212.0 193212.0 193212.0 193212.0 193212.0 208479.0 208479.0 208479.0 208479.0 208479.0 208479.0 208479.0
180629.0 174238.0 79829.0 71769.0 237309.0 234750.0 273093.0 275808.0 250454.0 253793.0 340323.0 347176.0 361462.0 360333.0 73074.0 75943.0 315206.0 307039.0 275293.0 272504.0 116010.0 108788.0 174340.0 182344.0 255783.0 253047.0 135400.0 143283.0 70489.0 74932.0 321550.0 321759.0 177709.0 172619.0 0.0 7927.0 179301.0 183752.0 348535.0 346595.0 64505.0 192835.0 64505.0 64505.0 64505.0 64505.0 64505.0 64505.0 64505.0 192835.0 192835.0 192835.0 192835.0 192835.0 192835.0 192835.0
177391.0 170809.0 74324.0 66292.0 230262.0 227826.0 273009.0 275725.0 244446.0 247933.0 340239.0 347092.0 361378.0 360250.0 65163.0 68126.0 315123.0 306955.0 268468.0 265569.0 110317.0 102933.0 174146.0 182074.0 249227.0 246356.0 133264.0 141013.0 62618.0 67189.0 321467.0 321676.0 170462.0 165263.0 7927.0 0.0 176840.0 181015.0 348451.0 346511.0 68264.0 192751.0 68264.0 68264.0 68264.0 68264.0 68264.0 68264.0 68264.0 192751.0 192751.0 192751.0 192751.0 192751.0 192751.0 192751.0
18774.0 23723.0 113862.0 119650.0 164726.0 157282.0 126328.0 125432.0 132499.0 130159.0 194528.0 201076.0 212685.0 209661.0 165388.0 158075.0 169490.0 161291.0 181445.0 184239.0 94182.0 100563.0 51250.0 50715.0 155956.0 159424.0 44251.0 36158.0 161721.0 154685.0 170819.0 173270.0 143300.0 146929.0 179301.0 176840.0 0.0 7909.0 200227.0 199815.0 154464.0 66901.0 154464.0 154464.0 154464.0 154464.0 154464.0 154464.0 154464.0 66901.0 66901.0 66901.0 66901.0 66901.0 66901.0 66901.0
12788.0 19504.0 116133.0 122267.0 158402.0 150872.0 129562.0 128187.0 124969.0 122501.0 197574.0 203947.0 214922.0 211632.0 166829.0 159394.0 172679.0 164437.0 174232.0 177170.0 94223.0 100975.0 58768.0 57786.0 148764.0 152400.0 49655.0 41469.0 163291.0 156072.0 173031.0 175787.0 139203.0 143165.0 183752.0 181015.0 7909.0 0.0 202601.0 202486.0 160365.0 73696.0 160365.0 160365.0 160365.0 160365.0 160365.0 160365.0 160365.0 73696.0 73696.0 73696.0 73696.0 73696.0 73696.0 73696.0
214654.0 222055.0 303420.0 306852.0 345738.0 337709.0 75824.0 75065.0 295078.0 288839.0 18761.0 13501.0 12954.0 14310.0 356646.0 350204.0 36574.0 42924.0 346150.0 351943.0 292421.0 297804.0 175242.0 168264.0 323832.0 330333.0 228025.0 223361.0 352443.0 346599.0 29764.0 27124.0 340209.0 344845.0 348535.0 348451.0 200227.0 202601.0 0.0 7961.0 314170.0 157477.0 314170.0 314170.0 314170.0 314170.0 314170.0 314170.0 314170.0 157477.0 157477.0 157477.0 157477.0 157477.0 157477.0 157477.0
214693.0 221979.0 301543.0 304922.0 347586.0 339561.0 74256.0 74383.0 297614.0 291498.0 11333.0 5638.0 17418.0 21292.0 354750.0 348348.0 32798.0 40042.0 348893.0 354564.0 291329.0 296552.0 173303.0 166344.0 326304.0 332687.0 226321.0 221893.0 350536.0 344738.0 31355.0 26905.0 340668.0 345154.0 346595.0 346511.0 199815.0 202486.0 7961.0 0.0 312230.0 155537.0 312230.0 312230.0 312230.0 312230.0 312230.0 312230.0 312230.0 155537.0 155537.0 155537.0 155537.0 155537.0 155537.0 155537.0
160498.0 155671.0 89706.0 83699.0 250648.0 246410.0 238728.0 241444.0 250760.0 252484.0 305958.0 312811.0 327097.0 325969.0 114021.0 112529.0 280842.0 272674.0 284593.0 283373.0 120994.0 116316.0 140034.0 148135.0 262112.0 261115.0 110802.0 118974.0 109849.0 109735.0 287186.0 287395.0 196277.0 193212.0 64505.0 68264.0 154464.0 160365.0 314170.0 312230.0 0.0 158470.0 0.0 0.0 0.0 0.0 0.0 0.0 0.0 158470.0 158470.0 158470.0 158470.0 158470.0 158470.0 158470.0
85675.0 89876.0 148561.0 151405.0 231534.0 224138.0 81174.0 84457.0 197841.0 194778.0 149265.0 156118.0 170417.0 168223.0 201470.0 195359.0 124149.0 115982.0 247775.0 250835.0 143177.0 147199.0 20556.0 16669.0 222342.0 226086.0 75595.0 73098.0 197172.0 191730.0 129679.0 129575.0 205896.0 208479.0 192835.0 192751.0 66901.0 73696.0 157477.0 155537.0 158470.0 0.0 158470.0 158470.0 158470.0 158470.0 158470.0 158470.0 158470.0 0.0 0.0 0.0 0.0 0.0 0.0 0.0
160498.0 155671.0 89706.0 83699.0 250648.0 246410.0 238728.0 241444.0 250760.0 252484.0 305958.0 312811.0 327097.0 325969.0 114021.0 112529.0 280842.0 272674.0 284593.0 283373.0 120994.0 116316.0 140034.0 148135.0 262112.0 261115.0 110802.0 118974.0 109849.0 109735.0 287186.0 287395.0 196277.0 193212.0 64505.0 68264.0 154464.0 160365.0 314170.0 312230.0 0.0 158470.0 0.0 0.0 0.0 0.0 0.0 0.0 0.0 158470.0 158470.0 158470.0 158470.0 158470.0 158470.0 158470.0
160498.0 155671.0 89706.0 83699.0 250648.0 246410.0 238728.0 241444.0 250760.0 252484.0 305958.0 312811.0 327097.0 325969.0 114021.0 112529.0 280842.0 272674.0 284593.0 283373.0 120994.0 116316.0 140034.0 148135.0 262112.0 261115.0 110802.0 118974.0 109849.0 109735.0 287186.0 287395.0 196277.0 193212.0 64505.0 68264.0 154464.0 160365.0 314170.0 312230.0 0.0 158470.0 0.0 0.0 0.0 0.0 0.0 0.0 0.0 158470.0 158470.0 158470.0 158470.0 158470.0 158470.0 158470.0
160498.0 155671.0 89706.0 83699.0 250648.0 246410.0 238728.0 241444.0 250760.0 252484.0 305958.0 312811.0 327097.0 325969.0 114021.0 112529.0 280842.0 272674.0 284593.0 283373.0 120994.0 116316.0 140034.0 148135.0 262112.0 261115.0 110802.0 118974.0 109849.0 109735.0 287186.0 287395.0 196277.0 193212.0 64505.0 68264.0 154464.0 160365.0 314170.0 312230.0 0.0 158470.0 0.0 0.0 0.0 0.0 0.0 0.0 0.0 158470.0 158470.0 158470.0 158470.0 158470.0 158470.0 158470.0
160498.0 155671.0 89706.0 83699.0 250648.0 246410.0 238728.0 241444.0 250760.0 252484.0 305958.0 312811.0 327097.0 325969.0 114021.0 112529.0 280842.0 272674.0 284593.0 283373.0 120994.0 116316.0 140034.0 148135.0 262112.0 261115.0 110802.0 118974.0 109849.0 109735.0 287186.0 287395.0 196277.0 193212.0 64505.0 68264.0 154464.0 160365.0 314170.0 312230.0 0.0 158470.0 0.0 0.0 0.0 0.0 0.0 0.0 0.0 158470.0 158470.0 158470.0 158470.0 158470.0 158470.0 158470.0
160498.0 155671.0 89706.0 83699.0 250648.0 246410.0 238728.0 241444.0 250760.0 252484.0 305958.0 312811.0 327097.0 325969.0 114021.0 112529.0 280842.0 272674.0 284593.0 283373.0 120994.0 116316.0 140034.0 148135.0 262112.0 261115.0 110802.0 118974.0 109849.0 109735.0 287186.0 287395.0 196277.0 193212.0 64505.0 68264.0 154464.0 160365.0 314170.0 312230.0 0.0 158470.0 0.0 0.0 0.0 0.0 0.0 0.0 0.0 158470.0 158470.0 158470.0 158470.0 158470.0 158470.0 158470.0
160498.0 155671.0 89706.0 83699.0 250648.0 246410.0 238728.0 241444.0 250760.0 252484.0 305958.0 312811.0 327097.0 325969.0 114021.0 112529.0 280842.0 272674.0 284593.0 283373.0 120994.0 116316.0 140034.0 148135.0 262112.0 261115.0 110802.0 118974.0 109849.0 109735.0 287186.0 287395.0 196277.0 193212.0 64505.0 68264.0 154464.0 160365.0 314170.0 312230.0 0.0 158470.0 0.0 0.0 0.0 0.0 0.0 0.0 0.0 158470.0 158470.0 158470.0 158470.0 158470.0 158470.0 158470.0
160498.0 155671.0 89706.0 83699.0 250648.0 246410.0 238728.0 241444.0 250760.0 252484.0 305958.0 312811.0 327097.0 325969.0 114021.0 112529.0 280842.0 272674.0 284593.0 283373.0 120994.0 116316.0 140034.0 148135.0 262112.0 261115.0 110802.0 118974.0 109849.0 109735.0 287186.0 287395.0 196277.0 193212.0 64505.0 68264.0 154464.0 160365.0 314170.0 312230.0 0.0 158470.0 0.0 0.0 0.0 0.0 0.0 0.0 0.0 158470.0 158470.0 158470.0 158470.0 158470.0 158470.0 158470.0
85675.0 89876.0 148561.0 151405.0 231534.0 224138.0 81174.0 84457.0 197841.0 194778.0 149265.0 156118.0 170417.0 168223.0 201470.0 195359.0 124149.0 115982.0 247775.0 250835.0 143177.0 147199.0 20556.0 16669.0 222342.0 226086.0 75595.0 73098.0 197172.0 191730.0 129679.0 129575.0 205896.0 208479.0 192835.0 192751.0 66901.0 73696.0 157477.0 155537.0 158470.0 0.0 158470.0 158470.0 158470.0 158470.0 158470.0 158470.0 158470.0 0.0 0.0 0.0 0.0 0.0 0.0 0.0
85675.0 89876.0 148561.0 151405.0 231534.0 224138.0 81174.0 84457.0 197841.0 194778.0 149265.0 156118.0 170417.0 168223.0 201470.0 195359.0 124149.0 115982.0 247775.0 250835.0 143177.0 147199.0 20556.0 16669.0 222342.0 226086.0 75595.0 73098.0 197172.0 191730.0 129679.0 129575.0 205896.0 208479.0 192835.0 192751.0 66901.0 73696.0 157477.0 155537.0 158470.0 0.0 158470.0 158470.0 158470.0 158470.0 158470.0 158470.0 158470.0 0.0 0.0 0.0 0.0 0.0 0.0 0.0
85675.0 89876.0 148561.0 151405.0 231534.0 224138.0 81174.0 84457.0 197841.0 194778.0 149265.0 156118.0 170417.0 168223.0 201470.0 195359.0 124149.0 115982.0 247775.0 250835.0 143177.0 147199.0 20556.0 16669.0 222342.0 226086.0 75595.0 73098.0 197172.0 191730.0 129679.0 129575.0 205896.0 208479.0 192835.0 192751.0 66901.0 73696.0 157477.0 155537.0 158470.0 0.0 158470.0 158470.0 158470.0 158470.0 158470.0 158470.0 158470.0 0.0 0.0 0.0 0.0 0.0 0.0 0.0
85675.0 89876.0 148561.0 151405.0 231534.0 224138.0 81174.0 84457.0 197841.0 194778.0 149265.0 156118.0 170417.0 168223.0 201470.0 195359.0 124149.0 115982.0 247775.0 250835.0 143177.0 147199.0 20556.0 16669.0 222342.0 226086.0 75595.0 73098.0 197172.0 191730.0 129679.0 129575.0 205896.0 208479.0 192835.0 192751.0 66901.0 73696.0 157477.0 155537.0 158470.0 0.0 158470.0 158470.0 158470.0 158470.0 158470.0 158470.0 158470.0 0.0 0.0 0.0 0.0 0.0 0.0 0.0
85675.0 89876.0 148561.0 151405.0 231534.0 224138.0 81174.0 84457.0 197841.0 194778.0 149265.0 156118.0 170417.0 168223.0 201470.0 195359.0 124149.0 115982.0 247775.0 250835.0 143177.0 147199.0 20556.0 16669.0 222342.0 226086.0 75595.0 73098.0 197172.0 191730.0 129679.0 129575.0 205896.0 208479.0 192835.0 192751.0 66901.0 73696.0 157477.0 155537.0 158470.0 0.0 158470.0 158470.0 158470.0 158470.0 158470.0 158470.0 158470.0 0.0 0.0 0.0 0.0 0.0 0.0 0.0
85675.0 89876.0 148561.0 151405.0 231534.0 224138.0 81174.0 84457.0 197841.0 194778.0 149265.0 156118.0 170417.0 168223.0 201470.0 195359.0 124149.0 115982.0 247775.0 250835.0 143177.0 147199.0 20556.0 16669.0 222342.0 226086.0 75595.0 73098.0 197172.0 191730.0 129679.0 129575.0 205896.0 208479.0 192835.0 192751.0 66901.0 73696.0 157477.0 155537.0 158470.0 0.0 158470.0 158470.0 158470.0 158470.0 158470.0 158470.0 158470.0 0.0 0.0 0.0 0.0 0.0 0.0 0.0
85675.0 89876.0 148561.0 151405.0 231534.0 224138.0 81174.0 84457.0 197841.0 194778.0 149265.0 156118.0 170417.0 168223.0 201470.0 195359.0 124149.0 115982.0 247775.0 250835.0 143177.0 147199.0 20556.0 16669.0 222342.0 226086.0 75595.0 73098.0 197172.0 191730.0 129679.0 129575.0 205896.0 208479.0 192835.0 192751.0 66901.0 73696.0 157477.0 155537.0 158470.0 0.0 158470.0 158470.0 158470.0 158470.0 158470.0 158470.0 158470.0 0.0 0.0 0.0 0.0 0.0 0.0 0.0
FIXED_EDGES_SECTION
1 2
3 4
5 6
7 8
9 10
11 12
13 14
15 16
17 18
19 20
21 22
23 24
25 26
27 28
29 30
31 32
33 34
35 36
37 38
39 40
-1 
DEMAND_SECTION
1 130
2 130
3 207
4 207
5 258
6 258
7 534
8 534
9 321
10 321
11 280
12 280
13 491
14 491
15 497
16 497
17 224
18 224
19 120
20 120
21 541
22 541
23 235
24 235
25 234
26 234
27 324
28 324
29 461
30 461
31 60
32 60
33 72
34 72
35 247
36 247
37 342
38 342
39 71
40 71
41 0
42 0
43 0
44 0
45 0
46 0
47 0
48 0
49 0
50 0
51 0
52 0
53 0
54 0
55 0
56 0
DEPOT_SECTION
41 
-1 
CAPACITIES_SECTION
1250 
1375 
1500 
1625 
-1 
EOF