NAME: GFS_20_1
TYPE: GFSP
DIMENSION: 56
VEHICLES: 4
CAPACITY: 1250.0
TRIP_DIST_LIMIT: 600000.0
TOTAL_DIST_LIMIT: 1050000.0
EDGE_WEIGHT_TYPE: EXPLICIT
EDGE_WEIGHT_FORMAT: FULL_MATRIX
EDGE_WEIGHT_SECTION
0.0 7996.0 268911.0 263875.0 214651.0 211116.0 192297.0 193754.0 231242.0 238025.0 244569.0 250725.0 178620.0 186639.0 61891.0 55362.0 120192.0 114135.0 75254.0 67280.0 63223.0 71069.0 136488.0 144401.0 223525.0 228476.0 55350.0 47970.0 190782.0 196845.0 271556.0 265807.0 121574.0 113360.0 75497.0 76519.0 250144.0 243148.0 195820.0 188305.0 213451.0 68145.0 213451.0 213451.0 213451.0 213451.0 213451.0 213451.0 213451.0 68145.0 68145.0 68145.0 68145.0 68145.0 68145.0 68145.0
7996.0 0.0 264484.0 259613.0 210118.0 206825.0 184326.0 185764.0 223953.0 230795.0 236634.0 242771.0 172026.0 180037.0 68544.0 61675.0 115438.0 109611.0 73407.0 65669.0 71170.0 78996.0 130730.0 138593.0 215766.0 220664.0 62761.0 55209.0 184132.0 190332.0 265027.0 259180.0 128799.0 120605.0 71629.0 72212.0 242160.0 235171.0 188442.0 180966.0 210164.0 68493.0 210164.0 210164.0 210164.0 210164.0 210164.0 210164.0 210164.0 68493.0 68493.0 68493.0 68493.0 68493.0 68493.0 68493.0
268911.0 264484.0 0.0 8198.0 54450.0 57930.0 240141.0 232944.0 141802.0 137915.0 267505.0 265601.0 122952.0 118697.0 327761.0 322633.0 149171.0 154874.0 198704.0 206640.0 304186.0 308672.0 139248.0 132667.0 282752.0 279304.0 317158.0 311877.0 118278.0 110230.0 98037.0 102620.0 379468.0 371580.0 193531.0 192403.0 254489.0 255241.0 150909.0 150375.0 89757.0 217291.0 89757.0 89757.0 89757.0 89757.0 89757.0 89757.0 89757.0 217291.0 217291.0 217291.0 217291.0 217291.0 217291.0 217291.0
263875.0 259613.0 8198.0 0.0 50285.0 52789.0 241043.0 233960.0 144903.0 141388.0 269833.0 268160.0 122410.0 118626.0 322301.0 317293.0 144550.0 150051.0 192961.0 200948.0 298371.0 302856.0 135861.0 129544.0 284169.0 280931.0 311527.0 306364.0 118523.0 110669.0 103749.0 107929.0 373770.0 365835.0 188405.0 187436.0 257199.0 257704.0 152133.0 151178.0 82210.0 211476.0 82210.0 82210.0 82210.0 82210.0 82210.0 82210.0 82210.0 211476.0 211476.0 211476.0 211476.0 211476.0 211476.0 211476.0
214651.0 210118.0 54450.0 50285.0 0.0 8344.0 201255.0 194735.0 119249.0 118301.0 236205.0 235742.0 79554.0 77935.0 273941.0 268653.0 94742.0 100535.0 145624.0 153415.0 251387.0 255872.0 85746.0 79686.0 246096.0 243824.0 263627.0 258150.0 79265.0 72906.0 100692.0 101108.0 326732.0 318760.0 139408.0 138133.0 225736.0 224937.0 115786.0 112887.0 53939.0 164492.0 53939.0 53939.0 53939.0 53939.0 53939.0 53939.0 53939.0 164492.0 164492.0 164492.0 164492.0 164492.0 164492.0 164492.0
211116.0 206825.0 57930.0 52789.0 8344.0 0.0 205417.0 199060.0 126273.0 125602.0 241591.0 241341.0 83679.0 82748.0 269832.0 264711.0 91838.0 97267.0 140905.0 148801.0 246475.0 250960.0 85127.0 79624.0 250555.0 248503.0 259265.0 253953.0 84435.0 78541.0 109030.0 109398.0 321865.0 313938.0 135674.0 134655.0 231518.0 230503.0 121185.0 117884.0 45598.0 159580.0 45598.0 45598.0 45598.0 45598.0 45598.0 45598.0 45598.0 159580.0 159580.0 159580.0 159580.0 159580.0 159580.0 159580.0
192297.0 184326.0 240141.0 241043.0 201255.0 205417.0 0.0 7871.0 109998.0 117296.0 53141.0 58642.0 121769.0 123609.0 242937.0 234884.0 160679.0 164054.0 191450.0 191710.0 255483.0 263268.0 141106.0 140536.0 45960.0 45856.0 242582.0 234550.0 122977.0 130510.0 172450.0 164324.0 303349.0 295771.0 171445.0 166682.0 58119.0 50887.0 89411.0 89866.0 238750.0 207941.0 238750.0 238750.0 238750.0 238750.0 238750.0 238750.0 238750.0 207941.0 207941.0 207941.0 207941.0 207941.0 207941.0 207941.0
193754.0 185764.0 232944.0 233960.0 194735.0 199060.0 7871.0 0.0 102142.0 109430.0 54019.0 58633.0 115381.0 116933.0 245607.0 237572.0 157013.0 160663.0 189820.0 190410.0 256827.0 264555.0 136667.0 135731.0 51607.0 50515.0 244823.0 236794.0 116149.0 123563.0 164593.0 156468.0 306293.0 298639.0 169775.0 164992.0 56481.0 49855.0 82091.0 82839.0 233058.0 206777.0 233058.0 233058.0 233058.0 233058.0 233058.0 233058.0 233058.0 206777.0 206777.0 206777.0 206777.0 206777.0 206777.0 206777.0
231242.0 223953.0 141802.0 144903.0 119249.0 126273.0 109998.0 102142.0 0.0 7940.0 126862.0 124314.0 63177.0 57005.0 292091.0 284762.0 137457.0 144209.0 191522.0 196195.0 287519.0 294057.0 111299.0 104798.0 146606.0 141868.0 286592.0 279149.0 52674.0 53247.0 62453.0 54327.0 352752.0 344555.0 174381.0 170278.0 112937.0 114245.0 35929.0 43077.0 169876.0 212006.0 169876.0 169876.0 169876.0 169876.0 169876.0 169876.0 169876.0 212006.0 212006.0 212006.0 212006.0 212006.0 212006.0 212006.0
238025.0 230795.0 137915.0 141388.0 118301.0 125602.0 117296.0 109430.0 7940.0 0.0 132245.0 129340.0 67406.0 60705.0 299039.0 291754.0 142031.0 148888.0 196792.0 201662.0 293797.0 300257.0 116008.0 109245.0 153058.0 148110.0 293363.0 285965.0 56222.0 55659.0 55272.0 47164.0 359579.0 351373.0 179984.0 175962.0 117761.0 119491.0 43350.0 50243.0 169977.0 217317.0 169977.0 169977.0 169977.0 169977.0 169977.0 169977.0 169977.0 217317.0 217317.0 217317.0 217317.0 217317.0 217317.0 217317.0
244569.0 236634.0 267505.0 269833.0 236205.0 241591.0 53141.0 54019.0 126862.0 132245.0 0.0 8111.0 159419.0 159056.0 293124.0 285059.0 209484.0 213531.0 243839.0 244397.0 307791.0 315630.0 187741.0 185876.0 34815.0 26743.0 293615.0 285598.0 157159.0 163306.0 185364.0 177608.0 352728.0 345356.0 223793.0 219009.0 18123.0 13011.0 120434.0 123930.0 279075.0 260732.0 279075.0 279075.0 279075.0 279075.0 279075.0 279075.0 279075.0 260732.0 260732.0 260732.0 260732.0 260732.0 260732.0 260732.0
250725.0 242771.0 265601.0 268160.0 235742.0 241341.0 58642.0 58633.0 124314.0 129340.0 8111.0 0.0 159893.0 159122.0 299957.0 291892.0 212307.0 216563.0 248117.0 248900.0 313941.0 321753.0 190014.0 187827.0 42858.0 34774.0 300235.0 292212.0 157015.0 162863.0 181668.0 174016.0 359748.0 352334.0 228065.0 223274.0 12134.0 10896.0 120196.0 124151.0 279587.0 265317.0 279587.0 279587.0 279587.0 279587.0 279587.0 279587.0 279587.0 265317.0 265317.0 265317.0 265317.0 265317.0 265317.0 265317.0
178620.0 172026.0 122952.0 122410.0 79554.0 83679.0 121769.0 115381.0 63177.0 67406.0 159419.0 159893.0 0.0 8022.0 240484.0 233700.0 74663.0 81577.0 130228.0 135563.0 230463.0 236499.0 48804.0 41852.0 166895.0 164973.0 233306.0 226336.0 12345.0 18555.0 93024.0 87189.0 299566.0 291332.0 114433.0 110739.0 150900.0 148997.0 41194.0 35901.0 119700.0 150783.0 119700.0 119700.0 119700.0 119700.0 119700.0 119700.0 119700.0 150783.0 150783.0 150783.0 150783.0 150783.0 150783.0 150783.0
186639.0 180037.0 118697.0 118626.0 77935.0 82748.0 123609.0 116933.0 57005.0 60705.0 159056.0 159122.0 8022.0 0.0 248501.0 241711.0 81786.0 88782.0 137782.0 143230.0 238396.0 244403.0 56199.0 48990.0 168189.0 165894.0 241327.0 234358.0 4579.0 10884.0 85031.0 79169.0 307585.0 299351.0 122217.0 118572.0 149723.0 148243.0 39137.0 35164.0 120848.0 158330.0 120848.0 120848.0 120848.0 120848.0 120848.0 120848.0 120848.0 158330.0 158330.0 158330.0 158330.0 158330.0 158330.0 158330.0
61891.0 68544.0 327761.0 322301.0 273941.0 269832.0 242937.0 245607.0 292091.0 299039.0 293124.0 299957.0 240484.0 248501.0 0.0 8065.0 180439.0 174012.0 129756.0 121650.0 45194.0 50118.0 198055.0 206003.0 267939.0 273914.0 14001.0 16149.0 252623.0 258730.0 333441.0 327663.0 61399.0 53428.0 134732.0 136503.0 300987.0 293510.0 256414.0 249036.0 269783.0 116178.0 269783.0 269783.0 269783.0 269783.0 269783.0 269783.0 269783.0 116178.0 116178.0 116178.0 116178.0 116178.0 116178.0 116178.0
55362.0 61675.0 322633.0 317293.0 268653.0 264711.0 234884.0 237572.0 284762.0 291754.0 285059.0 291892.0 233700.0 241711.0 8065.0 0.0 174773.0 168457.0 125257.0 117117.0 47802.0 53622.0 191814.0 199739.0 259915.0 265874.0 16149.0 14001.0 245798.0 252004.0 326701.0 320848.0 69235.0 61327.0 129278.0 130851.0 292930.0 285449.0 249036.0 241693.0 265195.0 112592.0 265195.0 265195.0 265195.0 265195.0 265195.0 265195.0 265195.0 112592.0 112592.0 112592.0 112592.0 112592.0 112592.0 112592.0
120192.0 115438.0 149171.0 144550.0 94742.0 91838.0 160679.0 157013.0 137457.0 142031.0 209484.0 212307.0 74663.0 81786.0 180439.0 174773.0 0.0 7195.0 57455.0 63964.0 162355.0 167535.0 26233.0 32820.0 205647.0 206472.0 170915.0 164947.0 86363.0 89383.0 160716.0 156455.0 235661.0 227529.0 45947.0 43938.0 206003.0 201881.0 109179.0 101695.0 100929.0 77703.0 100929.0 100929.0 100929.0 100929.0 100929.0 100929.0 100929.0 77703.0 77703.0 77703.0 77703.0 77703.0 77703.0 77703.0
114135.0 109611.0 154874.0 150051.0 100535.0 97267.0 164054.0 160663.0 144209.0 148888.0 213531.0 216563.0 81577.0 88782.0 174012.0 168457.0 7195.0 0.0 50269.0 56836.0 155332.0 160458.0 32911.0 39792.0 208660.0 209736.0 164308.0 158438.0 93361.0 96498.0 167908.0 163650.0 228859.0 220741.0 39322.0 37650.0 210540.0 206228.0 115399.0 107839.0 104309.0 70508.0 104309.0 104309.0 104309.0 104309.0 104309.0 104309.0 104309.0 70508.0 70508.0 70508.0 70508.0 70508.0 70508.0 70508.0
75254.0 73407.0 198704.0 192961.0 145624.0 140905.0 191450.0 189820.0 191522.0 196792.0 243839.0 248117.0 130228.0 137782.0 129756.0 125257.0 57455.0 50269.0 0.0 8150.0 106123.0 110812.0 81644.0 89182.0 232582.0 235216.0 118612.0 113692.0 142344.0 146116.0 218164.0 213831.0 181118.0 173136.0 20052.0 24843.0 243936.0 238523.0 160115.0 152305.0 140034.0 20556.0 140034.0 140034.0 140034.0 140034.0 140034.0 140034.0 140034.0 20556.0 20556.0 20556.0 20556.0 20556.0 20556.0 20556.0
67280.0 65669.0 206640.0 200948.0 153415.0 148801.0 191710.0 190410.0 196195.0 201662.0 244397.0 248900.0 135563.0 143230.0 121650.0 117117.0 63964.0 56836.0 8150.0 0.0 98776.0 103694.0 87321.0 95015.0 232018.0 234917.0 110587.0 105600.0 147772.0 151845.0 224458.0 219960.0 173403.0 165392.0 22208.0 26780.0 245095.0 239483.0 164133.0 156299.0 148135.0 16669.0 148135.0 148135.0 148135.0 148135.0 148135.0 148135.0 148135.0 16669.0 16669.0 16669.0 16669.0 16669.0 16669.0 16669.0
63223.0 71170.0 304186.0 298371.0 251387.0 246475.0 255483.0 256827.0 287519.0 293797.0 307791.0 313941.0 230463.0 238396.0 45194.0 47802.0 162355.0 155332.0 106123.0 98776.0 0.0 7987.0 184000.0 191929.0 286371.0 291473.0 31804.0 35399.0 242808.0 247810.0 321701.0 316743.0 76524.0 68999.0 117168.0 120294.0 313261.0 306312.0 253034.0 245298.0 245365.0 88159.0 245365.0 245365.0 245365.0 245365.0 245365.0 245365.0 245365.0 88159.0 88159.0 88159.0 88159.0 88159.0 88159.0 88159.0
71069.0 78996.0 308672.0 302856.0 255872.0 250960.0 263268.0 264555.0 294057.0 300257.0 315630.0 321753.0 236499.0 244403.0 50118.0 53622.0 167535.0 160458.0 110812.0 103694.0 7987.0 0.0 189663.0 197560.0 294316.0 299400.0 37473.0 42028.0 248841.0 253697.0 327360.0 322515.0 74284.0 67162.0 122737.0 126028.0 321004.0 314080.0 259741.0 251984.0 249851.0 92214.0 249851.0 249851.0 249851.0 249851.0 249851.0 249851.0 249851.0 92214.0 92214.0 92214.0 92214.0 92214.0 92214.0 92214.0
136488.0 130730.0 139248.0 135861.0 85746.0 85127.0 141106.0 136667.0 111299.0 116008.0 187741.0 190014.0 48804.0 56199.0 198055.0 191814.0 26233.0 32911.0 81644.0 87321.0 184000.0 189663.0 0.0 7988.0 186817.0 186907.0 189632.0 183131.0 60772.0 64528.0 137708.0 132892.0 255367.0 247163.0 66937.0 63712.0 183029.0 179392.0 83168.0 75786.0 104539.0 102177.0 104539.0 104539.0 104539.0 104539.0 104539.0 104539.0 104539.0 102177.0 102177.0 102177.0 102177.0 102177.0 102177.0 102177.0
144401.0 138593.0 132667.0 129544.0 79686.0 79624.0 140536.0 135731.0 104798.0 109245.0 185876.0 187827.0 41852.0 48990.0 206003.0 199739.0 32820.0 39792.0 89182.0 95015.0 191929.0 197560.0 7988.0 0.0 186426.0 186171.0 197612.0 191100.0 53569.0 56939.0 129800.0 125051.0 263355.0 255151.0 74824.0 71653.0 180439.0 177113.0 78010.0 70866.0 101763.0 109679.0 101763.0 101763.0 101763.0 101763.0 101763.0 101763.0 101763.0 109679.0 109679.0 109679.0 109679.0 109679.0 109679.0 109679.0
223525.0 215766.0 282752.0 284169.0 246096.0 250555.0 45960.0 51607.0 146606.0 153058.0 34815.0 42858.0 166895.0 168189.0 267939.0 259915.0 205647.0 208660.0 232582.0 232018.0 286371.0 294316.0 186817.0 186426.0 0.0 8088.0 269657.0 261718.0 167185.0 174353.0 207952.0 199936.0 326258.0 319152.0 212817.0 208137.0 51844.0 44542.0 132057.0 133623.0 284593.0 247775.0 284593.0 284593.0 284593.0 284593.0 284593.0 284593.0 284593.0 247775.0 247775.0 247775.0 247775.0 247775.0 247775.0 247775.0
228476.0 220664.0 279304.0 280931.0 243824.0 248503.0 45856.0 50515.0 141868.0 148110.0 26743.0 34774.0 164973.0 165894.0 273914.0 265874.0 206472.0 209736.0 235216.0 234917.0 291473.0 299400.0 186907.0 186171.0 8088.0 0.0 275344.0 267381.0 164684.0 171646.0 202738.0 194767.0 332561.0 325391.0 215347.0 210632.0 43951.0 36825.0 129033.0 131040.0 283373.0 250835.0 283373.0 283373.0 283373.0 283373.0 283373.0 283373.0 283373.0 250835.0 250835.0 250835.0 250835.0 250835.0 250835.0 250835.0
55350.0 62761.0 317158.0 311527.0 263627.0 259265.0 242582.0 244823.0 286592.0 293363.0 293615.0 300235.0 233306.0 241327.0 14001.0 16149.0 170915.0 164308.0 118612.0 110587.0 31804.0 37473.0 189632.0 197612.0 269657.0 275344.0 0.0 8032.0 245542.0 251367.0 326026.0 320461.0 66330.0 58100.0 124996.0 127110.0 300701.0 293381.0 251158.0 243651.0 258629.0 104040.0 258629.0 258629.0 258629.0 258629.0 258629.0 258629.0 258629.0 104040.0 104040.0 104040.0 104040.0 104040.0 104040.0 104040.0
47970.0 55209.0 311877.0 306364.0 258150.0 253953.0 234550.0 236794.0 279149.0 285965.0 285598.0 292212.0 226336.0 234358.0 16149.0 14001.0 164947.0 158438.0 113692.0 105600.0 35399.0 42028.0 183131.0 191100.0 261718.0 267381.0 8032.0 0.0 238543.0 244467.0 319159.0 313518.0 73615.0 65409.0 119121.0 121045.0 292669.0 285350.0 243651.0 236173.0 253719.0 100037.0 253719.0 253719.0 253719.0 253719.0 253719.0 253719.0 253719.0 100037.0 100037.0 100037.0 100037.0 100037.0 100037.0 100037.0
190782.0 184132.0 118278.0 118523.0 79265.0 84435.0 122977.0 116149.0 52674.0 56222.0 157159.0 157015.0 12345.0 4579.0 252623.0 245798.0 86363.0 93361.0 142344.0 147772.0 242808.0 248841.0 60772.0 53569.0 167185.0 164684.0 245542.0 238543.0 0.0 8408.0 81060.0 75050.0 311819.0 303584.0 126722.0 123054.0 147417.0 146155.0 36822.0 33652.0 123494.0 162894.0 123494.0 123494.0 123494.0 123494.0 123494.0 123494.0 123494.0 162894.0 162894.0 162894.0 162894.0 162894.0 162894.0 162894.0
196845.0 190332.0 110230.0 110669.0 72906.0 78541.0 130510.0 123563.0 53247.0 55659.0 163306.0 162863.0 18555.0 10884.0 258730.0 252004.0 89383.0 96498.0 146116.0 151845.0 247810.0 253697.0 64528.0 56939.0 174353.0 171646.0 251367.0 244467.0 8408.0 0.0 74711.0 69137.0 317570.0 309338.0 131192.0 127701.0 152977.0 152046.0 42934.0 40755.0 119091.0 166617.0 119091.0 119091.0 119091.0 119091.0 119091.0 119091.0 119091.0 166617.0 166617.0 166617.0 166617.0 166617.0 166617.0 166617.0
271556.0 265027.0 98037.0 103749.0 100692.0 109030.0 172450.0 164593.0 62453.0 55272.0 185364.0 181668.0 93024.0 85031.0 333441.0 326701.0 160716.0 167908.0 218164.0 224458.0 321701.0 327360.0 137708.0 129800.0 207952.0 202738.0 326026.0 319159.0 81060.0 74711.0 0.0 8126.0 392183.0 383953.0 204623.0 201407.0 169728.0 172411.0 90959.0 95488.0 154576.0 238386.0 154576.0 154576.0 154576.0 154576.0 154576.0 154576.0 154576.0 238386.0 238386.0 238386.0 238386.0 238386.0 238386.0 238386.0
265807.0 259180.0 102620.0 107929.0 101108.0 109398.0 164324.0 156468.0 54327.0 47164.0 177608.0 174016.0 87189.0 79169.0 327663.0 320848.0 156455.0 163650.0 213831.0 219960.0 316743.0 322515.0 132892.0 125051.0 199936.0 194767.0 320461.0 313518.0 75050.0 69137.0 8126.0 0.0 386689.0 378456.0 199822.0 196492.0 162113.0 164674.0 83200.0 87919.0 154719.0 234156.0 154719.0 154719.0 154719.0 154719.0 154719.0 154719.0 154719.0 234156.0 234156.0 234156.0 234156.0 234156.0 234156.0 234156.0
121574.0 128799.0 379468.0 373770.0 326732.0 321865.0 303349.0 306293.0 352752.0 359579.0 352728.0 359748.0 299566.0 307585.0 61399.0 69235.0 235661.0 228859.0 181118.0 173403.0 76524.0 74284.0 255367.0 263355.0 326258.0 332561.0 66330.0 73615.0 311819.0 317570.0 392183.0 386689.0 0.0 8235.0 189764.0 192242.0 361249.0 353661.0 317217.0 309759.0 320764.0 164164.0 320764.0 320764.0 320764.0 320764.0 320764.0 320764.0 320764.0 164164.0 164164.0 164164.0 164164.0 164164.0 164164.0 164164.0
113360.0 120605.0 371580.0 365835.0 318760.0 313938.0 295771.0 298639.0 344555.0 351373.0 345356.0 352334.0 291332.0 299351.0 53428.0 61327.0 227529.0 220741.0 173136.0 165392.0 68999.0 67162.0 247163.0 255151.0 319152.0 325391.0 58100.0 65409.0 303584.0 309338.0 383953.0 378456.0 8235.0 0.0 181620.0 184074.0 353718.0 346158.0 309034.0 301569.0 312829.0 156343.0 312829.0 312829.0 312829.0 312829.0 312829.0 312829.0 312829.0 156343.0 156343.0 156343.0 156343.0 156343.0 156343.0 156343.0
75497.0 71629.0 193531.0 188405.0 139408.0 135674.0 171445.0 169775.0 174381.0 179984.0 223793.0 228065.0 114433.0 122217.0 134732.0 129278.0 45947.0 39322.0 20052.0 22208.0 117168.0 122737.0 66937.0 74824.0 212817.0 215347.0 124996.0 119121.0 126722.0 131192.0 204623.0 199822.0 189764.0 181620.0 0.0 4794.0 223912.0 218478.0 142023.0 134184.0 138719.0 38758.0 138719.0 138719.0 138719.0 138719.0 138719.0 138719.0 138719.0 38758.0 38758.0 38758.0 38758.0 38758.0 38758.0 38758.0
76519.0 72212.0 192403.0 187436.0 138133.0 134655.0 166682.0 164992.0 170278.0 175962.0 219009.0 223274.0 110739.0 118572.0 136503.0 130851.0 43938.0 37650.0 24843.0 26780.0 120294.0 126028.0 63712.0 71653.0 208137.0 210632.0 127110.0 121045.0 123054.0 127701.0 201407.0 196492.0 192242.0 184074.0 4794.0 0.0 219119.0 213684.0 137695.0 129853.0 138832.0 43398.0 138832.0 138832.0 138832.0 138832.0 138832.0 138832.0 138832.0 43398.0 43398.0 43398.0 43398.0 43398.0 43398.0 43398.0
250144.0 242160.0 254489.0 257199.0 225736.0 231518.0 58119.0 56481.0 112937.0 117761.0 18123.0 12134.0 150900.0 149723.0 300987.0 292930.0 206003.0 210540.0 243936.0 245095.0 313261.0 321004.0 183029.0 180439.0 51844.0 43951.0 300701.0 292669.0 147417.0 152977.0 169728.0 162113.0 361249.0 353718.0 223912.0 219119.0 0.0 8118.0 110629.0 115021.0 270462.0 261626.0 270462.0 270462.0 270462.0 270462.0 270462.0 270462.0 270462.0 261626.0 261626.0 261626.0 261626.0 261626.0 261626.0 261626.0
243148.0 235171.0 255241.0 257704.0 224937.0 230503.0 50887.0 49855.0 114245.0 119491.0 13011.0 10896.0 148997.0 148243.0 293510.0 285449.0 201881.0 206228.0 238523.0 239483.0 306312.0 314080.0 179392.0 177113.0 44542.0 36825.0 293381.0 285350.0 146155.0 152046.0 172411.0 164674.0 353661.0 346158.0 218478.0 213684.0 8118.0 0.0 109341.0 113259.0 268692.0 255959.0 268692.0 268692.0 268692.0 268692.0 268692.0 268692.0 268692.0 255959.0 255959.0 255959.0 255959.0 255959.0 255959.0 255959.0
195820.0 188442.0 150909.0 152133.0 115786.0 121185.0 89411.0 82091.0 35929.0 43350.0 120434.0 120196.0 41194.0 39137.0 256414.0 249036.0 109179.0 115399.0 160115.0 164133.0 253034.0 259741.0 83168.0 78010.0 132057.0 129033.0 251158.0 243651.0 36822.0 42934.0 90959.0 83200.0 317217.0 309034.0 142023.0 137695.0 110629.0 109341.0 0.0 7844.0 159981.0 180349.0 159981.0 159981.0 159981.0 159981.0 159981.0 159981.0 159981.0 180349.0 180349.0 180349.0 180349.0 180349.0 180349.0 180349.0
188305.0 180966.0 150375.0 151178.0 112887.0 117884.0 89866.0 82839.0 43077.0 50243.0 123930.0 124151.0 35901.0 35164.0 249036.0 241693.0 101695.0 107839.0 152305.0 156299.0 245298.0 251984.0 75786.0 70866.0 133623.0 131040.0 243651.0 236173.0 33652.0 40755.0 95488.0 87919.0 309759.0 301569.0 134184.0 129853.0 115021.0 113259.0 7844.0 0.0 155476.0 172526.0 155476.0 155476.0 155476.0 155476.0 155476.0 155476.0 155476.0 172526.0 172526.0 172526.0 172526.0 172526.0 172526.0 172526.0
213451.0 210164.0 89757.0 82210.0 53939.0 45598.0 238750.0 233058.0 169876.0 169977.0 279075.0 279587.0 119700.0 120848.0 269783.0 265195.0 100929.0 104309.0 140034.0 148135.0 245365.0 249851.0 104539.0 101763.0 284593.0 283373.0 258629.0 253719.0 123494.0 119091.0 154576.0 154719.0 320764.0 312829.0 138719.0 138832.0 270462.0 268692.0 159981.0 155476.0 0.0 158470.0 0.0 0.0 0.0 0.0 0.0 0.0 0.0 158470.0 158470.0 158470.0 158470.0 158470.0 158470.0 158470.0
68145.0 68493.0 217291.0 211476.0 164492.0 159580.0 207941.0 206777.0 212006.0 217317.0 260732.0 265317.0 150783.0 158330.0 116178.0 112592.0 77703.0 70508.0 20556.0 16669.0 88159.0 92214.0 102177.0 109679.0 247775.0 250835.0 104040.0 100037.0 162894.0 166617.0 238386.0 234156.0 164164.0 156343.0 38758.0 43398.0 261626.0 255959.0 180349.0 172526.0 158470.0 0.0 158470.0 158470.0 158470.0 158470.0 158470.0 158470.0 158470.0 0.0 0.0 0.0 0.0 0.0 0.0 0.0
213451.0 210164.0 89757.0 82210.0 53939.0 45598.0 238750.0 233058.0 169876.0 169977.0 279075.0 279587.0 119700.0 120848.0 269783.0 265195.0 100929.0 104309.0 140034.0 148135.0 245365.0 249851.0 104539.0 101763.0 284593.0 283373.0 258629.0 253719.0 123494.0 119091.0 154576.0 154719.0 320764.0 312829.0 138719.0 138832.0 270462.0 268692.0 159981.0 155476.0 0.0 158470.0 0.0 0.0 0.0 0.0 0.0 0.0 0.0 158470.0 158470.0 158470.0 158470.0 158470.0 158470.0 158470.0
213451.0 210164.0 89757.0 82210.0 53939.0 45598.0 238750.0 233058.0 169876.0 169977.0 279075.0 279587.0 119700.0 120848.0 269783.0 265195.0 100929.0 104309.0 140034.0 148135.0 245365.0 249851.0 104539.0 101763.0 284593.0 283373.0 258629.0 253719.0 123494.0 119091.0 154576.0 154719.0 320764.0 312829.0 138719.0 138832.0 270462.0 268692.0 159981.0 155476.0 0.0 158470.0 0.0 0.0 0.0 0.0 0.0 0.0 0.0 158470.0 158470.0 158470.0 158470.0 158470.0 158470.0 158470.0
213451.0 210164.0 89757.0 82210.0 53939.0 45598.0 238750.0 233058.0 169876.0 169977.0 279075.0 279587.0 119700.0 120848.0 269783.0 265195.0 100929.0 104309.0 140034.0 148135.0 245365.0 249851.0 104539.0 101763.0 284593.0 283373.0 258629.0 253719.0 123494.0 119091.0 154576.0 154719.0 320764.0 312829.0 138719.0 138832.0 270462.0 268692.0 159981.0 155476.0 0.0 158470.0 0.0 0.0 0.0 0.0 0.0 0.0 0.0 158470.0 158470.0 158470.0 158470.0 158470.0 158470.0 158470.0
213451.0 210164.0 89757.0 82210.0 53939.0 45598.0 238750.0 233058.0 169876.0 169977.0 279075.0 279587.0 119700.0 120848.0 269783.0 265195.0 100929.0 104309.0 140034.0 148135.0 245365.0 249851.0 104539.0 101763.0 284593.0 283373.0 258629.0 253719.0 123494.0 119091.0 154576.0 154719.0 320764.0 312829.0 138719.0 138832.0 270462.0 268692.0 159981.0 155476.0 0.0 158470.0 0.0 0.0 0.0 0.0 0.0 0.0 0.0 158470.0 158470.0 158470.0 158470.0 158470.0 158470.0 158470.0
213451.0 210164.0 89757.0 82210.0 53939.0 45598.0 238750.0 233058.0 169876.0 169977.0 279075.0 279587.0 119700.0 120848.0 269783.0 265195.0 100929.0 104309.0 140034.0 148135.0 245365.0 249851.0 104539.0 101763.0 284593.0 283373.0 258629.0 253719.0 123494.0 119091.0 154576.0 154719.0 320764.0 312829.0 138719.0 138832.0 270462.0 268692.0 159981.0 155476.0 0.0 158470.0 0.0 0.0 0.0 0.0 0.0 0.0 0.0 158470.0 158470.0 158470.0 158470.0 158470.0 158470.0 158470.0
213451.0 210164.0 89757.0 82210.0 53939.0 45598.0 238750.0 233058.0 169876.0 169977.0 279075.0 279587.0 119700.0 120848.0 269783.0 265195.0 100929.0 104309.0 140034.0 148135.0 245365.0 249851.0 104539.0 101763.0 284593.0 283373.0 258629.0 253719.0 123494.0 119091.0 154576.0 154719.0 320764.0 312829.0 138719.0 138832.0 270462.0 268692.0 159981.0 155476.0 0.0 158470.0 0.0 0.0 0.0 0.0 0.0 0.0 0.0 158470.0 158470.0 158470.0 158470.0 158470.0 158470.0 158470.0
213451.0 210164.0 89757.0 82210.0 53939.0 45598.0 238750.0 233058.0 169876.0 169977.0 279075.0 279587.0 119700.0 120848.0 269783.0 265195.0 100929.0 104309.0 140034.0 148135.0 245365.0 249851.0 104539.0 101763.0 284593.0 283373.0 258629.0 253719.0 123494.0 119091.0 154576.0 154719.0 320764.0 312829.0 138719.0 138832.0 270462.0 268692.0 159981.0 155476.0 0.0 158470.0 0.0 0.0 0.0 0.0 0.0 0.0 0.0 158470.0 158470.0 158470.0 158470.0 158470.0 158470.0 158470.0
68145.0 68493.0 217291.0 211476.0 164492.0 159580.0 207941.0 206777.0 212006.0 217317.0 260732.0 265317.0 150783.0 158330.0 116178.0 112592.0 77703.0 70508.0 20556.0 16669.0 88159.0 92214.0 102177.0 109679.0 247775.0 250835.0 104040.0 100037.0 162894.0 166617.0 238386.0 234156.0 164164.0 156343.0 38758.0 43398.0 261626.0 255959.0 180349.0 172526.0 158470.0 0.0 158470.0 158470.0 158470.0 158470.0 158470.0 158470.0 158470.0 0.0 0.0 0.0 0.0 0.0 0.0 0.0
68145.0 68493.0 217291.0 211476.0 164492.0 159580.0 207941.0 206777.0 212006.0 217317.0 260732.0 265317.0 150783.0 158330.0 116178.0 112592.0 77703.0 70508.0 20556.0 16669.0 88159.0 92214.0 102177.0 109679.0 247775.0 250835.0 104040.0 100037.0 162894.0 166617.0 238386.0 234156.0 164164.0 156343.0 38758.0 43398.0 261626.0 255959.0 180349.0 172526.0 158470.0 0.0 158470.0 158470.0 158470.0 158470.0 158470.0 158470.0 158470.0 0.0 0.0 0.0 0.0 0.0 0.0 0.0
68145.0 68493.0 217291.0 211476.0 164492.0 159580.0 207941.0 206777.0 212006.0 217317.0 260732.0 265317.0 150783.0 158330.0 116178.0 112592.0 77703.0 70508.0 20556.0 16669.0 88159.0 92214.0 102177.0 109679.0 247775.0 250835.0 104040.0 100037.0 162894.0 166617.0 238386.0 234156.0 164164.0 156343.0 38758.0 43398.0 261626.0 255959.0 180349.0 172526.0 158470.0 0.0 158470.0 158470.0 158470.0 158470.0 158470.0 158470.0 158470.0 0.0 0.0 0.0 0.0 0.0 0.0 0.0
68145.0 68493.0 217291.0 211476.0 164492.0 159580.0 207941.0 206777.0 212006.0 217317.0 260732.0 265317.0 150783.0 158330.0 116178.0 112592.0 77703.0 70508.0 20556.0 16669.0 88159.0 92214.0 102177.0 109679.0 247775.0 250835.0 104040.0 100037.0 162894.0 166617.0 238386.0 234156.0 164164.0 156343.0 38758.0 43398.0 261626.0 255959.0 180349.0 172526.0 158470.0 0.0 158470.0 158470.0 158470.0 158470.0 158470.0 158470.0 158470.0 0.0 0.0 0.0 0.0 0.0 0.0 0.0
68145.0 68493.0 217291.0 211476.0 164492.0 159580.0 207941.0 206777.0 212006.0 217317.0 260732.0 265317.0 150783.0 158330.0 116178.0 112592.0 77703.0 70508.0 20556.0 16669.0 88159.0 92214.0 102177.0 109679.0 247775.0 250835.0 104040.0 100037.0 162894.0 166617.0 238386.0 234156.0 164164.0 156343.0 38758.0 43398.0 261626.0 255959.0 180349.0 172526.0 158470.0 0.0 158470.0 158470.0 158470.0 158470.0 158470.0 158470.0 158470.0 0.0 0.0 0.0 0.0 0.0 0.0 0.0
68145.0 68493.0 217291.0 211476.0 164492.0 159580.0 207941.0 206777.0 212006.0 217317.0 260732.0 265317.0 150783.0 158330.0 116178.0 112592.0 77703.0 70508.0 20556.0 16669.0 88159.0 92214.0 102177.0 109679.0 247775.0 250835.0 104040.0 100037.0 162894.0 166617.0 238386.0 234156.0 164164.0 156343.0 38758.0 43398.0 261626.0 255959.0 180349.0 172526.0 158470.0 0.0 158470.0 158470.0 158470.0 158470.0 158470.0 158470.0 158470.0 0.0 0.0 0.0 0.0 0.0 0.0 0.0
68145.0 68493.0 217291.0 211476.0 164492.0 159580.0 207941.0 206777.0 212006.0 217317.0 260732.0 265317.0 150783.0 158330.0 116178.0 112592.0 77703.0 70508.0 20556.0 16669.0 88159.0 92214.0 102177.0 109679.0 247775.0 250835.0 104040.0 100037.0 162894.0 166617.0 238386.0 234156.0 164164.0 156343.0 38758.0 43398.0 261626.0 255959.0 180349.0 172526.0 158470.0 0.0 158470.0 158470.0 158470.0 158470.0 158470.0 158470.0 158470.0 0.0 0.0 0.0 0.0 0.0 0.0 0.0
FIXED_EDGES_SECTION
1 2
3 4
5 6
7 8
9 10
11 12
13 14
15 16
17 18
19 20
21 22
23 24
25 26
27 28
29 30
31 32
33 34
35 36
37 38
39 40
-1 
DEMAND_SECTION
1 319
2 319
3 216
4 216
5 100
6 100
7 277
8 277
9 224
10 224
11 138
12 138
13 96
14 96
15 268
16 268
17 75
18 75
19 235
20 235
21 184
22 184
23 432
24 432
25 120
26 120
27 341
28 341
29 349
30 349
31 497
32 497
33 421
34 421
35 399
36 399
37 542
38 542
39 82
40 82
41 0
42 0
43 0
44 0
45 0
46 0
47 0
48 0
49 0
50 0
51 0
52 0
53 0
54 0
55 0
56 0
DEPOT_SECTION
41 
-1 
CAPACITIES_SECTION
1250 
1375 
1500 
1625 
-1 
EOF