NAME: GFS_20_1
TYPE: GFSP
DIMENSION: 56
VEHICLES: 4
CAPACITY: 1250.0
TRIP_DIST_LIMIT: 600000.0
TOTAL_DIST_LIMIT: 1050000.0
EDGE_WEIGHT_TYPE: EXPLICIT
EDGE_WEIGHT_FORMAT: FULL_MATRIX
EDGE_WEIGHT_SECTION
0.0 7938.0 144860.0 139776.0 138531.0 132259.0 183906.0 190378.0 27900.0 32207.0 24129.0 16859.0 76335.0 81475.0 137235.0 137774.0 130149.0 123282.0 176975.0 182815.0 109413.0 103268.0 36734.0 32145.0 185326.0 187962.0 18553.0 23289.0 52319.0 45894.0 123525.0 123722.0 214629.0 206462.0 24149.0 28009.0 130180.0 131631.0 39914.0 34401.0 112043.0 96878.0 112043.0 112043.0 112043.0 112043.0 112043.0 112043.0 112043.0 96878.0 96878.0 96878.0 96878.0 96878.0 96878.0 96878.0
7938.0 0.0 147280.0 142534.0 137752.0 131792.0 183224.0 189487.0 34638.0 37802.0 30089.0 21982.0 71927.0 77605.0 134872.0 135854.0 127769.0 120660.0 174474.0 180081.0 107363.0 100840.0 41660.0 38101.0 193211.0 195804.0 26255.0 31225.0 56264.0 50515.0 118140.0 117962.0 211725.0 203558.0 27504.0 32950.0 125150.0 126997.0 44550.0 40002.0 105770.0 92464.0 105770.0 105770.0 105770.0 105770.0 105770.0 105770.0 105770.0 92464.0 92464.0 92464.0 92464.0 92464.0 92464.0 92464.0
144860.0 147280.0 0.0 8126.0 58112.0 52806.0 327508.0 334305.0 156501.0 164936.0 158631.0 156885.0 218164.0 224458.0 85526.0 77859.0 84717.0 88136.0 321701.0 327360.0 80265.0 86600.0 110354.0 117412.0 185364.0 181668.0 135672.0 140676.0 186878.0 178887.0 136157.0 143559.0 358991.0 350824.0 120712.0 118212.0 131762.0 124766.0 174327.0 166285.0 154576.0 238386.0 154576.0 154576.0 154576.0 154576.0 154576.0 154576.0 154576.0 238386.0 238386.0 238386.0 238386.0 238386.0 238386.0 238386.0
139776.0 142534.0 8126.0 0.0 62810.0 56811.0 321748.0 328620.0 150399.0 158859.0 152739.0 151301.0 213831.0 219960.0 89574.0 82113.0 88184.0 90968.0 316743.0 322515.0 81840.0 87647.0 104691.0 111571.0 177608.0 174016.0 129889.0 134629.0 180648.0 172650.0 138081.0 145302.0 354230.0 346063.0 115646.0 112743.0 134217.0 127495.0 168210.0 160150.0 154719.0 234156.0 154719.0 154719.0 154719.0 154719.0 154719.0 154719.0 154719.0 234156.0 234156.0 234156.0 234156.0 234156.0 234156.0 234156.0
138531.0 137752.0 58112.0 62810.0 0.0 8114.0 320269.0 326201.0 158958.0 166537.0 158794.0 154164.0 200885.0 208307.0 27985.0 20072.0 28947.0 34833.0 307008.0 311585.0 35806.0 44024.0 113359.0 121115.0 232425.0 229938.0 136733.0 143873.0 188809.0 181322.0 83978.0 91881.0 342581.0 334414.0 116880.0 118330.0 77672.0 69918.0 175753.0 168402.0 110171.0 220209.0 110171.0 110171.0 110171.0 110171.0 110171.0 110171.0 110171.0 220209.0 220209.0 220209.0 220209.0 220209.0 220209.0 220209.0
132259.0 131792.0 52806.0 56811.0 8114.0 0.0 314683.0 320715.0 152057.0 159737.0 152073.0 147661.0 196164.0 203472.0 32787.0 25323.0 32100.0 36536.0 302240.0 306957.0 33803.0 41838.0 106129.0 113900.0 224581.0 222170.0 129815.0 136839.0 182071.0 174517.0 85778.0 93542.0 337949.0 329782.0 110203.0 111347.0 80247.0 72822.0 169006.0 161570.0 109736.0 215591.0 109736.0 109736.0 109736.0 109736.0 109736.0 109736.0 109736.0 215591.0 215591.0 215591.0 215591.0 215591.0 215591.0 215591.0
183906.0 183224.0 327508.0 321748.0 320269.0 314683.0 0.0 8055.0 171739.0 163261.0 169036.0 170685.0 123909.0 115795.0 313649.0 316017.0 306670.0 298916.0 42740.0 48387.0 287746.0 280357.0 217154.0 210177.0 288722.0 295495.0 191867.0 187306.0 142423.0 150314.0 280150.0 277499.0 68957.0 62661.0 207694.0 209396.0 289269.0 293916.0 154117.0 162170.0 263929.0 110557.0 263929.0 263929.0 263929.0 263929.0 263929.0 263929.0 263929.0 110557.0 110557.0 110557.0 110557.0 110557.0 110557.0 110557.0
190378.0 189487.0 334305.0 328620.0 326201.0 320715.0 8055.0 0.0 178815.0 170344.0 175983.0 177428.0 128669.0 120606.0 319098.0 321607.0 312146.0 304349.0 40514.0 45112.0 293411.0 285951.0 223968.0 217059.0 296775.0 303550.0 198732.0 194313.0 149706.0 157564.0 284922.0 282271.0 62618.0 56794.0 214258.0 216129.0 294041.0 298691.0 161259.0 169297.0 268701.0 114448.0 268701.0 268701.0 268701.0 268701.0 268701.0 268701.0 268701.0 114448.0 114448.0 114448.0 114448.0 114448.0 114448.0 114448.0
27900.0 34638.0 156501.0 150399.0 158958.0 152057.0 171739.0 178815.0 0.0 8481.0 6325.0 14134.0 81388.0 84094.0 160864.0 160575.0 153864.0 147473.0 171197.0 177808.0 132755.0 127340.0 47028.0 39467.0 165912.0 169415.0 22244.0 15869.0 30592.0 22714.0 151086.0 151489.0 210242.0 202070.0 42504.0 40756.0 157462.0 158537.0 17827.0 9818.0 139943.0 100704.0 139943.0 139943.0 139943.0 139943.0 139943.0 139943.0 139943.0 100704.0 100704.0 100704.0 100704.0 100704.0 100704.0 100704.0
32207.0 37802.0 164936.0 158859.0 166537.0 159737.0 163261.0 170344.0 8481.0 0.0 8189.0 15823.0 75469.0 77611.0 167684.0 167631.0 160650.0 154096.0 163055.0 169730.0 139623.0 133974.0 55249.0 47769.0 169801.0 173622.0 30135.0 24263.0 22435.0 14785.0 155667.0 155692.0 202224.0 194044.0 49740.0 48654.0 162385.0 163805.0 9456.0 2204.0 143565.0 94275.0 143565.0 143565.0 143565.0 143565.0 143565.0 143565.0 143565.0 94275.0 94275.0 94275.0 94275.0 94275.0 94275.0 94275.0
24129.0 30089.0 158631.0 152739.0 158794.0 152073.0 169036.0 175983.0 6325.0 8189.0 0.0 8448.0 75548.0 78514.0 159600.0 159620.0 152558.0 145969.0 167153.0 173636.0 131558.0 125853.0 48452.0 41220.0 172235.0 175727.0 23075.0 18501.0 30015.0 22698.0 147649.0 147773.0 205963.0 197796.0 41918.0 41384.0 154296.0 155661.0 16972.0 10343.0 135822.0 95068.0 135822.0 135822.0 135822.0 135822.0 135822.0 135822.0 135822.0 95068.0 95068.0 95068.0 95068.0 95068.0 95068.0 95068.0
16859.0 21982.0 156885.0 151301.0 154164.0 147661.0 170685.0 177428.0 14134.0 15823.0 8448.0 0.0 71388.0 75102.0 153785.0 154124.0 146712.0 139937.0 166667.0 172911.0 125864.0 119879.0 46615.0 40051.0 179186.0 182472.0 21876.0 20297.0 35535.0 29041.0 139970.0 139910.0 205042.0 196848.0 37685.0 38711.0 146805.0 148391.0 23057.0 18022.0 127741.0 91411.0 127741.0 127741.0 127741.0 127741.0 127741.0 127741.0 127741.0 91411.0 91411.0 91411.0 91411.0 91411.0 91411.0 91411.0
76335.0 71927.0 218164.0 213831.0 200885.0 196164.0 123909.0 128669.0 81388.0 75469.0 75548.0 71388.0 0.0 8150.0 191393.0 194431.0 184552.0 176631.0 106123.0 110812.0 166728.0 158962.0 113043.0 108265.0 243839.0 248117.0 91819.0 91673.0 69686.0 72790.0 156255.0 153604.0 141915.0 133747.0 99423.0 104298.0 165374.0 170024.0 71321.0 76120.0 140034.0 20556.0 140034.0 140034.0 140034.0 140034.0 140034.0 140034.0 140034.0 20556.0 20556.0 20556.0 20556.0 20556.0 20556.0 20556.0
81475.0 77605.0 224458.0 219960.0 208307.0 203472.0 115795.0 120606.0 84094.0 77611.0 78514.0 75102.0 8150.0 0.0 199194.0 202138.0 192329.0 184429.0 98776.0 103694.0 174335.0 166617.0 118193.0 113073.0 244397.0 248900.0 96126.0 95371.0 69463.0 73388.0 164355.0 161704.0 134956.0 126789.0 104993.0 109482.0 173475.0 178124.0 72576.0 78042.0 148135.0 16669.0 148135.0 148135.0 148135.0 148135.0 148135.0 148135.0 148135.0 16669.0 16669.0 16669.0 16669.0 16669.0 16669.0 16669.0
137235.0 134872.0 85526.0 89574.0 27985.0 32787.0 313649.0 319098.0 160864.0 167684.0 159600.0 153785.0 191393.0 199194.0 0.0 7962.0 7103.0 14764.0 297118.0 301604.0 28126.0 34032.0 118547.0 125966.0 252803.0 250927.0 139200.0 146928.0 189256.0 182278.0 58400.0 66395.0 332594.0 324427.0 118442.0 121704.0 50999.0 42930.0 176433.0 169719.0 88720.0 210223.0 88720.0 88720.0 88720.0 88720.0 88720.0 88720.0 88720.0 210223.0 210223.0 210223.0 210223.0 210223.0 210223.0 210223.0
137774.0 135854.0 77859.0 82113.0 20072.0 25323.0 316017.0 321607.0 160575.0 167631.0 159620.0 154124.0 194431.0 202138.0 7962.0 0.0 11212.0 19049.0 300260.0 304794.0 28515.0 35660.0 117148.0 124702.0 247384.0 245326.0 138673.0 146265.0 189457.0 182318.0 65773.0 73761.0 335785.0 327618.0 118071.0 120836.0 58678.0 50684.0 176537.0 169623.0 94953.0 213414.0 94953.0 94953.0 94953.0 94953.0 94953.0 94953.0 94953.0 213414.0 213414.0 213414.0 213414.0 213414.0 213414.0 213414.0
130149.0 127769.0 84717.0 88184.0 28947.0 32100.0 306670.0 312146.0 153864.0 160650.0 152558.0 146712.0 184552.0 192329.0 7103.0 11212.0 0.0 8072.0 290320.0 294806.0 21207.0 26930.0 111816.0 119190.0 248256.0 246555.0 132246.0 139998.0 182191.0 175230.0 55234.0 63189.0 325797.0 317630.0 111469.0 114830.0 48726.0 41009.0 169379.0 162689.0 83749.0 203425.0 83749.0 83749.0 83749.0 83749.0 83749.0 83749.0 83749.0 203425.0 203425.0 203425.0 203425.0 203425.0 203425.0 203425.0
123282.0 120660.0 88136.0 90968.0 34833.0 36536.0 298916.0 304349.0 147473.0 154096.0 145969.0 139937.0 176631.0 184429.0 14764.0 19049.0 8072.0 0.0 282366.0 286852.0 16121.0 20133.0 106360.0 113595.0 246648.0 245202.0 126059.0 133890.0 175458.0 168601.0 49326.0 57165.0 317843.0 309676.0 105231.0 108943.0 43794.0 36630.0 162718.0 156159.0 76242.0 195471.0 76242.0 76242.0 76242.0 76242.0 76242.0 76242.0 76242.0 195471.0 195471.0 195471.0 195471.0 195471.0 195471.0 195471.0
176975.0 174474.0 321701.0 316743.0 307008.0 302240.0 42740.0 40514.0 171197.0 163055.0 167153.0 166667.0 106123.0 98776.0 297118.0 300260.0 290320.0 282366.0 0.0 7987.0 272752.0 264922.0 212794.0 206645.0 307791.0 313941.0 188541.0 185589.0 145324.0 152509.0 261586.0 258935.0 40278.0 32013.0 201097.0 204381.0 270705.0 275355.0 154884.0 162500.0 245365.0 88159.0 245365.0 245365.0 245365.0 245365.0 245365.0 245365.0 245365.0 88159.0 88159.0 88159.0 88159.0 88159.0 88159.0 88159.0
182815.0 180081.0 327360.0 322515.0 311585.0 306957.0 48387.0 45112.0 177808.0 169730.0 173636.0 172911.0 110812.0 103694.0 301604.0 304794.0 294806.0 286852.0 7987.0 0.0 277238.0 269414.0 218842.0 212810.0 315630.0 321753.0 194785.0 192025.0 152361.0 159455.0 266072.0 263421.0 32831.0 24552.0 206896.0 210372.0 275191.0 279840.0 161688.0 169231.0 249851.0 92214.0 249851.0 249851.0 249851.0 249851.0 249851.0 249851.0 249851.0 92214.0 92214.0 92214.0 92214.0 92214.0 92214.0 92214.0
109413.0 107363.0 80265.0 81840.0 35806.0 33803.0 287746.0 293411.0 132755.0 139623.0 131558.0 125864.0 166728.0 174335.0 28126.0 28515.0 21207.0 16121.0 272752.0 277238.0 0.0 8219.0 90674.0 98014.0 231373.0 230110.0 111074.0 118808.0 161285.0 154247.0 56298.0 63462.0 308229.0 300062.0 90319.0 93622.0 53254.0 47503.0 148422.0 141647.0 76270.0 185857.0 76270.0 76270.0 76270.0 76270.0 76270.0 76270.0 76270.0 185857.0 185857.0 185857.0 185857.0 185857.0 185857.0 185857.0
103268.0 100840.0 86600.0 87647.0 44024.0 41838.0 280357.0 285951.0 127340.0 133974.0 125853.0 119879.0 158962.0 166617.0 34032.0 35660.0 26930.0 20133.0 264922.0 269414.0 8219.0 0.0 86654.0 93774.0 231833.0 230855.0 105953.0 113802.0 155386.0 148496.0 51447.0 58165.0 300405.0 292238.0 85119.0 88954.0 49712.0 44958.0 142621.0 136035.0 68795.0 178033.0 68795.0 68795.0 68795.0 68795.0 68795.0 68795.0 68795.0 178033.0 178033.0 178033.0 178033.0 178033.0 178033.0 178033.0
36734.0 41660.0 110354.0 104691.0 113359.0 106129.0 217154.0 223968.0 47028.0 55249.0 48452.0 46615.0 113043.0 118193.0 118547.0 117148.0 111816.0 106360.0 212794.0 218842.0 90674.0 86654.0 0.0 7778.0 163934.0 165252.0 25388.0 31259.0 77610.0 69739.0 121168.0 123714.0 250796.0 242629.0 15340.0 8753.0 125360.0 124471.0 64704.0 56821.0 116844.0 133594.0 116844.0 116844.0 116844.0 116844.0 116844.0 116844.0 116844.0 133594.0 133594.0 133594.0 133594.0 133594.0 133594.0 133594.0
32145.0 38101.0 117412.0 111571.0 121115.0 113900.0 210177.0 217059.0 39467.0 47769.0 41220.0 40051.0 108265.0 113073.0 125966.0 124702.0 119190.0 113595.0 206645.0 212810.0 98014.0 93774.0 7778.0 0.0 161671.0 163354.0 18337.0 23631.0 70059.0 62154.0 126675.0 128876.0 244858.0 236634.0 15440.0 7401.0 131247.0 130672.0 57220.0 49280.0 121091.0 128765.0 121091.0 121091.0 121091.0 121091.0 121091.0 121091.0 121091.0 128765.0 128765.0 128765.0 128765.0 128765.0 128765.0 128765.0
185326.0 193211.0 185364.0 177608.0 232425.0 224581.0 288722.0 296775.0 165912.0 169801.0 172235.0 179186.0 243839.0 244397.0 252803.0 247384.0 248256.0 246648.0 307791.0 315630.0 231373.0 231833.0 163934.0 161671.0 0.0 8111.0 167083.0 162300.0 175075.0 171109.0 278191.0 282454.0 347738.0 339589.0 177111.0 169055.0 279729.0 276337.0 172627.0 168717.0 279075.0 260732.0 279075.0 279075.0 279075.0 279075.0 279075.0 279075.0 279075.0 260732.0 260732.0 260732.0 260732.0 260732.0 260732.0 260732.0
187962.0 195804.0 181668.0 174016.0 229938.0 222170.0 295495.0 303550.0 169415.0 173622.0 175727.0 182472.0 248117.0 248900.0 250927.0 245326.0 246555.0 245202.0 313941.0 321753.0 230110.0 230855.0 165252.0 163354.0 8111.0 0.0 169589.0 165111.0 179754.0 175526.0 277901.0 282358.0 353965.0 345794.0 178780.0 170705.0 279150.0 275540.0 176813.0 172619.0 279587.0 265317.0 279587.0 279587.0 279587.0 279587.0 279587.0 279587.0 279587.0 265317.0 265317.0 265317.0 265317.0 265317.0 265317.0 265317.0
18553.0 26255.0 135672.0 129889.0 136733.0 129815.0 191867.0 198732.0 22244.0 30135.0 23075.0 21876.0 91819.0 96126.0 139200.0 138673.0 132246.0 126059.0 188541.0 194785.0 111074.0 105953.0 25388.0 18337.0 167083.0 169589.0 0.0 8048.0 52570.0 44831.0 133093.0 134255.0 226904.0 218705.0 20841.0 18535.0 138771.0 139206.0 39556.0 31853.0 124185.0 112154.0 124185.0 124185.0 124185.0 124185.0 124185.0 124185.0 124185.0 112154.0 112154.0 112154.0 112154.0 112154.0 112154.0 112154.0
23289.0 31225.0 140676.0 134629.0 143873.0 136839.0 187306.0 194313.0 15869.0 24263.0 18501.0 20297.0 91673.0 95371.0 146928.0 146265.0 139998.0 133890.0 185589.0 192025.0 118808.0 113802.0 31259.0 23631.0 162300.0 165111.0 8048.0 0.0 46443.0 38526.0 141067.0 142153.0 224304.0 216134.0 28763.0 25570.0 146796.0 147252.0 33681.0 25686.0 131866.0 111706.0 131866.0 131866.0 131866.0 131866.0 131866.0 131866.0 131866.0 111706.0 111706.0 111706.0 111706.0 111706.0 111706.0 111706.0
52319.0 56264.0 186878.0 180648.0 188809.0 182071.0 142423.0 149706.0 30592.0 22435.0 30015.0 35535.0 69686.0 69463.0 189256.0 189457.0 182191.0 175458.0 145324.0 152361.0 161285.0 155386.0 77610.0 70059.0 175075.0 179754.0 52570.0 46443.0 0.0 7999.0 174037.0 173414.0 185129.0 176874.0 71933.0 71088.0 181291.0 183256.0 13067.0 20788.0 160498.0 85675.0 160498.0 160498.0 160498.0 160498.0 160498.0 160498.0 160498.0 85675.0 85675.0 85675.0 85675.0 85675.0 85675.0 85675.0
45894.0 50515.0 178887.0 172650.0 181322.0 174517.0 150314.0 157564.0 22714.0 14785.0 22698.0 29041.0 72790.0 73388.0 182278.0 182318.0 175230.0 168601.0 152509.0 159455.0 154247.0 148496.0 69739.0 62154.0 171109.0 175526.0 44831.0 38526.0 7999.0 0.0 168634.0 168292.0 192171.0 183932.0 64511.0 63366.0 175654.0 177370.0 5989.0 12978.0 155671.0 89876.0 155671.0 155671.0 155671.0 155671.0 155671.0 155671.0 155671.0 89876.0 89876.0 89876.0 89876.0 89876.0 89876.0 89876.0
123525.0 118140.0 136157.0 138081.0 83978.0 85778.0 280150.0 284922.0 151086.0 155667.0 147649.0 139970.0 156255.0 164355.0 58400.0 65773.0 55234.0 49326.0 261586.0 266072.0 56298.0 51447.0 121168.0 126675.0 278191.0 277901.0 133093.0 141067.0 174037.0 168634.0 0.0 7995.0 297062.0 288895.0 113718.0 120110.0 10047.0 17479.0 162681.0 157869.0 36893.0 174691.0 36893.0 36893.0 36893.0 36893.0 36893.0 36893.0 36893.0 174691.0 174691.0 174691.0 174691.0 174691.0 174691.0 174691.0
123722.0 117962.0 143559.0 145302.0 91881.0 93542.0 277499.0 282271.0 151489.0 155692.0 147773.0 139910.0 153604.0 161704.0 66395.0 73761.0 63189.0 57165.0 258935.0 263421.0 63462.0 58165.0 123714.0 128876.0 282454.0 282358.0 134255.0 142153.0 173414.0 168292.0 7995.0 0.0 294411.0 286244.0 115407.0 122112.0 17005.0 25009.0 162379.0 157896.0 31861.0 172040.0 31861.0 31861.0 31861.0 31861.0 31861.0 31861.0 31861.0 172040.0 172040.0 172040.0 172040.0 172040.0 172040.0 172040.0
214629.0 211725.0 358991.0 354230.0 342581.0 337949.0 68957.0 62618.0 210242.0 202224.0 205963.0 205042.0 141915.0 134956.0 332594.0 335785.0 325797.0 317843.0 40278.0 32831.0 308229.0 300405.0 250796.0 244858.0 347738.0 353965.0 226904.0 224304.0 185129.0 192171.0 297062.0 294411.0 0.0 8282.0 238665.0 242285.0 306182.0 310831.0 194300.0 201777.0 280842.0 124149.0 280842.0 280842.0 280842.0 280842.0 280842.0 280842.0 280842.0 124149.0 124149.0 124149.0 124149.0 124149.0 124149.0 124149.0
206462.0 203558.0 350824.0 346063.0 334414.0 329782.0 62661.0 56794.0 202070.0 194044.0 197796.0 196848.0 133747.0 126789.0 324427.0 327618.0 317630.0 309676.0 32013.0 24552.0 300062.0 292238.0 242629.0 236634.0 339589.0 345794.0 218705.0 216134.0 176874.0 183932.0 288895.0 286244.0 8282.0 0.0 230498.0 234117.0 298014.0 302664.0 186089.0 193584.0 272674.0 115982.0 272674.0 272674.0 272674.0 272674.0 272674.0 272674.0 272674.0 115982.0 115982.0 115982.0 115982.0 115982.0 115982.0 115982.0
24149.0 27504.0 120712.0 115646.0 116880.0 110203.0 207694.0 214258.0 42504.0 49740.0 41918.0 37685.0 99423.0 104993.0 118442.0 118071.0 111469.0 105231.0 201097.0 206896.0 90319.0 85119.0 15340.0 15440.0 177111.0 178780.0 20841.0 28763.0 71933.0 64511.0 113718.0 115407.0 238665.0 230498.0 0.0 8078.0 118925.0 118992.0 58884.0 51668.0 106667.0 119965.0 106667.0 106667.0 106667.0 106667.0 106667.0 106667.0 106667.0 119965.0 119965.0 119965.0 119965.0 119965.0 119965.0 119965.0
28009.0 32950.0 118212.0 112743.0 118330.0 111347.0 209396.0 216129.0 40756.0 48654.0 41384.0 38711.0 104298.0 109482.0 121704.0 120836.0 114830.0 108943.0 204381.0 210372.0 93622.0 88954.0 8753.0 7401.0 169055.0 170705.0 18535.0 25570.0 71088.0 63366.0 120110.0 122112.0 242285.0 234117.0 8078.0 0.0 124940.0 124628.0 58055.0 50388.0 113965.0 124850.0 113965.0 113965.0 113965.0 113965.0 113965.0 113965.0 113965.0 124850.0 124850.0 124850.0 124850.0 124850.0 124850.0 124850.0
130180.0 125150.0 131762.0 134217.0 77672.0 80247.0 289269.0 294041.0 157462.0 162385.0 154296.0 146805.0 165374.0 173475.0 50999.0 58678.0 48726.0 43794.0 270705.0 275191.0 53254.0 49712.0 125360.0 131247.0 279729.0 279150.0 138771.0 146796.0 181291.0 175654.0 10047.0 17005.0 306182.0 298014.0 118925.0 124940.0 0.0 8263.0 169678.0 164581.0 46895.0 183810.0 46895.0 46895.0 46895.0 46895.0 46895.0 46895.0 46895.0 183810.0 183810.0 183810.0 183810.0 183810.0 183810.0 183810.0
131631.0 126997.0 124766.0 127495.0 69918.0 72822.0 293916.0 298691.0 158537.0 163805.0 155661.0 148391.0 170024.0 178124.0 42930.0 50684.0 41009.0 36630.0 275355.0 279840.0 47503.0 44958.0 124471.0 130672.0 276337.0 275540.0 139206.0 147252.0 183256.0 177370.0 17479.0 25009.0 310831.0 302664.0 118992.0 124628.0 8263.0 0.0 171383.0 165989.0 53539.0 188460.0 53539.0 53539.0 53539.0 53539.0 53539.0 53539.0 53539.0 188460.0 188460.0 188460.0 188460.0 188460.0 188460.0 188460.0
39914.0 44550.0 174327.0 168210.0 175753.0 169006.0 154117.0 161259.0 17827.0 9456.0 16972.0 23057.0 71321.0 72576.0 176433.0 176537.0 169379.0 162718.0 154884.0 161688.0 148422.0 142621.0 64704.0 57220.0 172627.0 176813.0 39556.0 33681.0 13067.0 5989.0 162681.0 162379.0 194300.0 186089.0 58884.0 58055.0 169678.0 171383.0 0.0 8071.0 149818.0 89199.0 149818.0 149818.0 149818.0 149818.0 149818.0 149818.0 149818.0 89199.0 89199.0 89199.0 89199.0 89199.0 89199.0 89199.0
34401.0 40002.0 166285.0 160150.0 168402.0 161570.0 162170.0 169297.0 9818.0 2204.0 10343.0 18022.0 76120.0 78042.0 169719.0 169623.0 162689.0 156159.0 162500.0 169231.0 141647.0 136035.0 56821.0 49280.0 168717.0 172619.0 31853.0 25686.0 20788.0 12978.0 157869.0 157896.0 201777.0 193584.0 51668.0 50388.0 164581.0 165989.0 8071.0 0.0 145762.0 94711.0 145762.0 145762.0 145762.0 145762.0 145762.0 145762.0 145762.0 94711.0 94711.0 94711.0 94711.0 94711.0 94711.0 94711.0
112043.0 105770.0 154576.0 154719.0 110171.0 109736.0 263929.0 268701.0 139943.0 143565.0 135822.0 127741.0 140034.0 148135.0 88720.0 94953.0 83749.0 76242.0 245365.0 249851.0 76270.0 68795.0 116844.0 121091.0 279075.0 279587.0 124185.0 131866.0 160498.0 155671.0 36893.0 31861.0 280842.0 272674.0 106667.0 113965.0 46895.0 53539.0 149818.0 145762.0 0.0 158470.0 0.0 0.0 0.0 0.0 0.0 0.0 0.0 158470.0 158470.0 158470.0 158470.0 158470.0 158470.0 158470.0
96878.0 92464.0 238386.0 234156.0 220209.0 215591.0 110557.0 114448.0 100704.0 94275.0 95068.0 91411.0 20556.0 16669.0 210223.0 213414.0 203425.0 195471.0 88159.0 92214.0 185857.0 178033.0 133594.0 128765.0 260732.0 265317.0 112154.0 111706.0 85675.0 89876.0 174691.0 172040.0 124149.0 115982.0 119965.0 124850.0 183810.0 188460.0 89199.0 94711.0 158470.0 0.0 158470.0 158470.0 158470.0 158470.0 158470.0 158470.0 158470.0 0.0 0.0 0.0 0.0 0.0 0.0 0.0
112043.0 105770.0 154576.0 154719.0 110171.0 109736.0 263929.0 268701.0 139943.0 143565.0 135822.0 127741.0 140034.0 148135.0 88720.0 94953.0 83749.0 76242.0 245365.0 249851.0 76270.0 68795.0 116844.0 121091.0 279075.0 279587.0 124185.0 131866.0 160498.0 155671.0 36893.0 31861.0 280842.0 272674.0 106667.0 113965.0 46895.0 53539.0 149818.0 145762.0 0.0 158470.0 0.0 0.0 0.0 0.0 0.0 0.0 0.0 158470.0 158470.0 158470.0 158470.0 158470.0 158470.0 158470.0
112043.0 105770.0 154576.0 154719.0 110171.0 109736.0 263929.0 268701.0 139943.0 143565.0 135822.0 127741.0 140034.0 148135.0 88720.0 94953.0 83749.0 76242.0 245365.0 249851.0 76270.0 68795.0 116844.0 121091.0 279075.0 279587.0 124185.0 131866.0 160498.0 155671.0 36893.0 31861.0 280842.0 272674.0 106667.0 113965.0 46895.0 53539.0 149818.0 145762.0 0.0 158470.0 0.0 0.0 0.0 0.0 0.0 0.0 0.0 158470.0 158470.0 158470.0 158470.0 158470.0 158470.0 158470.0
112043.0 105770.0 154576.0 154719.0 110171.0 109736.0 263929.0 268701.0 139943.0 143565.0 135822.0 127741.0 140034.0 148135.0 88720.0 94953.0 83749.0 76242.0 245365.0 249851.0 76270.0 68795.0 116844.0 121091.0 279075.0 279587.0 124185.0 131866.0 160498.0 155671.0 36893.0 31861.0 280842.0 272674.0 106667.0 113965.0 46895.0 53539.0 149818.0 145762.0 0.0 158470.0 0.0 0.0 0.0 0.0 0.0 0.0 0.0 158470.0 158470.0 158470.0 158470.0 158470.0 158470.0 158470.0
112043.0 105770.0 154576.0 154719.0 110171.0 109736.0 263929.0 268701.0 139943.0 143565.0 135822.0 127741.0 140034.0 148135.0 88720.0 94953.0 83749.0 76242.0 245365.0 249851.0 76270.0 68795.0 116844.0 121091.0 279075.0 279587.0 124185.0 131866.0 160498.0 155671.0 36893.0 31861.0 280842.0 272674.0 106667.0 113965.0 46895.0 53539.0 149818.0 145762.0 0.0 158470.0 0.0 0.0 0.0 0.0 0.0 0.0 0.0 158470.0 158470.0 158470.0 158470.0 158470.0 158470.0 158470.0
112043.0 105770.0 154576.0 154719.0 110171.0 109736.0 263929.0 268701.0 139943.0 143565.0 135822.0 127741.0 140034.0 148135.0 88720.0 94953.0 83749.0 76242.0 245365.0 249851.0 76270.0 68795.0 116844.0 121091.0 279075.0 279587.0 124185.0 131866.0 160498.0 155671.0 36893.0 31861.0 280842.0 272674.0 106667.0 113965.0 46895.0 53539.0 149818.0 145762.0 0.0 158470.0 0.0 0.0 0.0 0.0 0.0 0.0 0.0 158470.0 158470.0 158470.0 158470.0 158470.0 158470.0 158470.0
112043.0 105770.0 154576.0 154719.0 110171.0 109736.0 263929.0 268701.0 139943.0 143565.0 135822.0 127741.0 140034.0 148135.0 88720.0 94953.0 83749.0 76242.0 245365.0 249851.0 76270.0 68795.0 116844.0 121091.0 279075.0 279587.0 124185.0 131866.0 160498.0 155671.0 36893.0 31861.0 280842.0 272674.0 106667.0 113965.0 46895.0 53539.0 149818.0 145762.0 0.0 158470.0 0.0 0.0 0.0 0.0 0.0 0.0 0.0 158470.0 158470.0 158470.0 158470.0 158470.0 158470.0 158470.0
112043.0 105770.0 154576.0 154719.0 110171.0 109736.0 263929.0 268701.0 139943.0 143565.0 135822.0 127741.0 140034.0 148135.0 88720.0 94953.0 83749.0 76242.0 245365.0 249851.0 76270.0 68795.0 116844.0 121091.0 279075.0 279587.0 124185.0 131866.0 160498.0 155671.0 36893.0 31861.0 280842.0 272674.0 106667.0 113965.0 46895.0 53539.0 149818.0 145762.0 0.0 158470.0 0.0 0.0 0.0 0.0 0.0 0.0 0.0 158470.0 158470.0 158470.0 158470.0 158470.0 158470.0 158470.0
96878.0 92464.0 238386.0 234156.0 220209.0 215591.0 110557.0 114448.0 100704.0 94275.0 95068.0 91411.0 20556.0 16669.0 210223.0 213414.0 203425.0 195471.0 88159.0 92214.0 185857.0 178033.0 133594.0 128765.0 260732.0 265317.0 112154.0 111706.0 85675.0 89876.0 174691.0 172040.0 124149.0 115982.0 119965.0 124850.0 183810.0 188460.0 89199.0 94711.0 158470.0 0.0 158470.0 158470.0 158470.0 158470.0 158470.0 158470.0 158470.0 0.0 0.0 0.0 0.0 0.0 0.0 0.0
96878.0 92464.0 238386.0 234156.0 220209.0 215591.0 110557.0 114448.0 100704.0 94275.0 95068.0 91411.0 20556.0 16669.0 210223.0 213414.0 203425.0 195471.0 88159.0 92214.0 185857.0 178033.0 133594.0 128765.0 260732.0 265317.0 112154.0 111706.0 85675.0 89876.0 174691.0 172040.0 124149.0 115982.0 119965.0 124850.0 183810.0 188460.0 89199.0 94711.0 158470.0 0.0 158470.0 158470.0 158470.0 158470.0 158470.0 158470.0 158470.0 0.0 0.0 0.0 0.0 0.0 0.0 0.0
96878.0 92464.0 238386.0 234156.0 220209.0 215591.0 110557.0 114448.0 100704.0 94275.0 95068.0 91411.0 20556.0 16669.0 210223.0 213414.0 203425.0 195471.0 88159.0 92214.0 185857.0 178033.0 133594.0 128765.0 260732.0 265317.0 112154.0 111706.0 85675.0 89876.0 174691.0 172040.0 124149.0 115982.0 119965.0 124850.0 183810.0 188460.0 89199.0 94711.0 158470.0 0.0 158470.0 158470.0 158470.0 158470.0 158470.0 158470.0 158470.0 0.0 0.0 0.0 0.0 0.0 0.0 0.0
96878.0 92464.0 238386.0 234156.0 220209.0 215591.0 110557.0 114448.0 100704.0 94275.0 95068.0 91411.0 20556.0 16669.0 210223.0 213414.0 203425.0 195471.0 88159.0 92214.0 185857.0 178033.0 133594.0 128765.0 260732.0 265317.0 112154.0 111706.0 85675.0 89876.0 174691.0 172040.0 124149.0 115982.0 119965.0 124850.0 183810.0 188460.0 89199.0 94711.0 158470.0 0.0 158470.0 158470.0 158470.0 158470.0 158470.0 158470.0 158470.0 0.0 0.0 0.0 0.0 0.0 0.0 0.0
96878.0 92464.0 238386.0 234156.0 220209.0 215591.0 110557.0 114448.0 100704.0 94275.0 95068.0 91411.0 20556.0 16669.0 210223.0 213414.0 203425.0 195471.0 88159.0 92214.0 185857.0 178033.0 133594.0 128765.0 260732.0 265317.0 112154.0 111706.0 85675.0 89876.0 174691.0 172040.0 124149.0 115982.0 119965.0 124850.0 183810.0 188460.0 89199.0 94711.0 158470.0 0.0 158470.0 158470.0 158470.0 158470.0 158470.0 158470.0 158470.0 0.0 0.0 0.0 0.0 0.0 0.0 0.0
96878.0 92464.0 238386.0 234156.0 220209.0 215591.0 110557.0 114448.0 100704.0 94275.0 95068.0 91411.0 20556.0 16669.0 210223.0 213414.0 203425.0 195471.0 88159.0 92214.0 185857.0 178033.0 133594.0 128765.0 260732.0 265317.0 112154.0 111706.0 85675.0 89876.0 174691.0 172040.0 124149.0 115982.0 119965.0 124850.0 183810.0 188460.0 89199.0 94711.0 158470.0 0.0 158470.0 158470.0 158470.0 158470.0 158470.0 158470.0 158470.0 0.0 0.0 0.0 0.0 0.0 0.0 0.0
96878.0 92464.0 238386.0 234156.0 220209.0 215591.0 110557.0 114448.0 100704.0 94275.0 95068.0 91411.0 20556.0 16669.0 210223.0 213414.0 203425.0 195471.0 88159.0 92214.0 185857.0 178033.0 133594.0 128765.0 260732.0 265317.0 112154.0 111706.0 85675.0 89876.0 174691.0 172040.0 124149.0 115982.0 119965.0 124850.0 183810.0 188460.0 89199.0 94711.0 158470.0 0.0 158470.0 158470.0 158470.0 158470.0 158470.0 158470.0 158470.0 0.0 0.0 0.0 0.0 0.0 0.0 0.0
FIXED_EDGES_SECTION
1 2
3 4
5 6
7 8
9 10
11 12
13 14
15 16
17 18
19 20
21 22
23 24
25 26
27 28
29 30
31 32
33 34
35 36
37 38
39 40
-1 
DEMAND_SECTION
1 214
2 214
3 497
4 497
5 265
6 265
7 350
8 350
9 421
10 421
11 119
12 119
13 235
14 235
15 274
16 274
17 379
18 379
19 184
20 184
21 493
22 493
23 191
24 191
25 138
26 138
27 380
28 380
29 130
30 130
31 97
32 97
33 224
34 224
35 114
36 114
37 292
38 292
39 158
40 158
41 0
42 0
43 0
44 0
45 0
46 0
47 0
48 0
49 0
50 0
51 0
52 0
53 0
54 0
55 0
56 0
DEPOT_SECTION
41 
-1 
CAPACITIES_SECTION
1250 
1375 
1500 
1625 
-1 
EOF