NAME: GFS_20_1
TYPE: GFSP
DIMENSION: 56
VEHICLES: 4
CAPACITY: 1250.0
TRIP_DIST_LIMIT: 600000.0
TOTAL_DIST_LIMIT: 1050000.0
EDGE_WEIGHT_TYPE: EXPLICIT
EDGE_WEIGHT_FORMAT: FULL_MATRIX
EDGE_WEIGHT_SECTION
0.0 8262.0 75176.0 82118.0 168106.0 167007.0 105116.0 98203.0 113730.0 106753.0 229844.0 226452.0 25560.0 21249.0 158018.0 156680.0 100042.0 96044.0 328029.0 328286.0 252834.0 260519.0 66125.0 64507.0 141754.0 133658.0 87951.0 86093.0 80952.0 86394.0 63304.0 62234.0 78639.0 73552.0 164376.0 171421.0 199364.0 191670.0 71699.0 68010.0 182844.0 191700.0 182844.0 182844.0 182844.0 182844.0 182844.0 182844.0 182844.0 191700.0 191700.0 191700.0 191700.0 191700.0 191700.0 191700.0
8262.0 0.0 82601.0 89356.0 167221.0 165732.0 105875.0 99318.0 113724.0 107060.0 229674.0 226009.0 33244.0 29455.0 160328.0 158595.0 104473.0 100953.0 327300.0 327758.0 251181.0 258938.0 70670.0 69848.0 150008.0 141913.0 90067.0 87498.0 88579.0 94210.0 70138.0 69576.0 86664.0 81401.0 165526.0 172376.0 198346.0 190568.0 74466.0 71544.0 189830.0 193544.0 189830.0 189830.0 189830.0 189830.0 189830.0 189830.0 189830.0 193544.0 193544.0 193544.0 193544.0 193544.0 193544.0 193544.0
75176.0 82601.0 0.0 7955.0 159205.0 161777.0 93314.0 85509.0 106286.0 98461.0 209276.0 208558.0 62792.0 59092.0 121137.0 123625.0 54132.0 46294.0 308412.0 306863.0 244556.0 251196.0 40150.0 32112.0 85254.0 77810.0 70406.0 75774.0 7607.0 15474.0 15984.0 13089.0 17654.0 10743.0 137385.0 145404.0 188654.0 182384.0 57678.0 49934.0 108311.0 155705.0 108311.0 108311.0 108311.0 108311.0 108311.0 108311.0 108311.0 155705.0 155705.0 155705.0 155705.0 155705.0 155705.0 155705.0
82118.0 89356.0 7955.0 0.0 156124.0 159050.0 91301.0 83705.0 104356.0 96680.0 204605.0 204149.0 70593.0 66675.0 115603.0 118462.0 49307.0 41334.0 303452.0 301745.0 240888.0 247394.0 40648.0 33190.0 85159.0 78065.0 68787.0 74772.0 9274.0 15878.0 20301.0 19940.0 22308.0 17211.0 132680.0 140705.0 185096.0 179024.0 57615.0 50189.0 100915.0 149917.0 100915.0 100915.0 100915.0 100915.0 100915.0 100915.0 100915.0 149917.0 149917.0 149917.0 149917.0 149917.0 149917.0 149917.0
168106.0 167221.0 159205.0 156124.0 0.0 8078.0 67587.0 75649.0 55928.0 63779.0 64393.0 59505.0 183033.0 174945.0 63979.0 56086.0 108461.0 116207.0 160087.0 160702.0 86555.0 93785.0 122918.0 130783.0 238115.0 231987.0 90401.0 87555.0 165022.0 171967.0 148473.0 156471.0 176851.0 169379.0 41046.0 38028.0 31341.0 23940.0 106687.0 114171.0 192960.0 64459.0 192960.0 192960.0 192960.0 192960.0 192960.0 192960.0 192960.0 64459.0 64459.0 64459.0 64459.0 64459.0 64459.0 64459.0
167007.0 165732.0 161777.0 159050.0 8078.0 0.0 69093.0 77147.0 56773.0 64758.0 68623.0 63021.0 182873.0 174785.0 71136.0 63179.0 112166.0 119773.0 162068.0 163065.0 86183.0 93702.0 124596.0 132597.0 241853.0 235566.0 92155.0 88653.0 167816.0 174924.0 150466.0 158422.0 179381.0 171780.0 48655.0 45992.0 32994.0 25041.0 107927.0 115575.0 199086.0 72531.0 199086.0 199086.0 199086.0 199086.0 199086.0 199086.0 199086.0 72531.0 72531.0 72531.0 72531.0 72531.0 72531.0 72531.0
105116.0 105875.0 93314.0 91301.0 67587.0 69093.0 0.0 8071.0 13067.0 5989.0 125535.0 122848.0 117001.0 108973.0 59143.0 55279.0 48887.0 55247.0 224730.0 224461.0 154117.0 161259.0 55504.0 63512.0 175753.0 169006.0 23100.0 20184.0 99717.0 107122.0 81430.0 89362.0 110790.0 103046.0 59816.0 66512.0 98453.0 91438.0 39115.0 46594.0 149818.0 89199.0 149818.0 149818.0 149818.0 149818.0 149818.0 149818.0 149818.0 89199.0 89199.0 89199.0 89199.0 89199.0 89199.0 89199.0
98203.0 99318.0 85509.0 83705.0 75649.0 77147.0 8071.0 0.0 20788.0 12978.0 133135.0 130601.0 109362.0 101361.0 63223.0 60173.0 43079.0 48880.0 232460.0 232106.0 162170.0 169297.0 47449.0 55479.0 168402.0 161570.0 15140.0 12419.0 92009.0 99483.0 73428.0 81344.0 102932.0 95150.0 66227.0 73219.0 106475.0 99489.0 31077.0 38526.0 145762.0 94711.0 145762.0 145762.0 145762.0 145762.0 145762.0 145762.0 145762.0 94711.0 94711.0 94711.0 94711.0 94711.0 94711.0 94711.0
113730.0 113724.0 106286.0 104356.0 55928.0 56773.0 13067.0 20788.0 0.0 7999.0 116115.0 112860.0 127331.0 119254.0 59318.0 53959.0 61382.0 68009.0 214654.0 214693.0 142423.0 149706.0 68044.0 76144.0 188809.0 182071.0 35926.0 31883.0 112741.0 120169.0 94143.0 102030.0 123720.0 115936.0 54729.0 60432.0 87137.0 79868.0 51169.0 58864.0 160498.0 85675.0 160498.0 160498.0 160498.0 160498.0 160498.0 160498.0 160498.0 85675.0 85675.0 85675.0 85675.0 85675.0 85675.0 85675.0
106753.0 107060.0 98461.0 96680.0 63779.0 64758.0 5989.0 12978.0 7999.0 0.0 123228.0 120196.0 119748.0 111682.0 61330.0 56800.0 54854.0 61145.0 222055.0 221979.0 150314.0 157564.0 60060.0 68172.0 181322.0 174517.0 28058.0 23896.0 104984.0 112460.0 86185.0 94060.0 115855.0 108045.0 59646.0 65891.0 94914.0 87712.0 43174.0 50865.0 155671.0 89876.0 155671.0 155671.0 155671.0 155671.0 155671.0 155671.0 155671.0 89876.0 89876.0 89876.0 89876.0 89876.0 89876.0 89876.0
229844.0 229674.0 209276.0 204605.0 64393.0 68623.0 125535.0 133135.0 116115.0 123228.0 0.0 8300.0 242495.0 234486.0 91318.0 86812.0 155315.0 163274.0 99663.0 98995.0 48826.0 51548.0 177782.0 184895.0 279849.0 274838.0 146337.0 145551.0 213865.0 219794.0 201359.0 209312.0 226634.0 219951.0 71927.0 63901.0 37930.0 45342.0 163546.0 170260.0 219294.0 63526.0 219294.0 219294.0 219294.0 219294.0 219294.0 219294.0 219294.0 63526.0 63526.0 63526.0 63526.0 63526.0 63526.0 63526.0
226452.0 226009.0 208558.0 204149.0 59505.0 63021.0 122848.0 130601.0 112860.0 120196.0 8300.0 0.0 239828.0 231784.0 92462.0 87365.0 154852.0 162835.0 101886.0 101843.0 43700.0 47485.0 176030.0 183323.0 280730.0 275532.0 144208.0 142983.0 213381.0 219507.0 200089.0 208078.0 226026.0 219179.0 71735.0 63769.0 31140.0 38881.0 161315.0 168223.0 221494.0 67000.0 221494.0 221494.0 221494.0 221494.0 221494.0 221494.0 221494.0 67000.0 67000.0 67000.0 67000.0 67000.0 67000.0 67000.0
25560.0 33244.0 62792.0 70593.0 183033.0 182873.0 117001.0 109362.0 127331.0 119748.0 242495.0 239828.0 0.0 8090.0 164360.0 164241.0 100751.0 95100.0 341714.0 341454.0 269056.0 276537.0 68479.0 63905.0 118479.0 110459.0 96746.0 96945.0 66793.0 70476.0 55594.0 51415.0 60990.0 57908.0 174039.0 181542.0 214353.0 206919.0 79498.0 73695.0 170653.0 199028.0 170653.0 170653.0 170653.0 170653.0 170653.0 170653.0 170653.0 199028.0 199028.0 199028.0 199028.0 199028.0 199028.0 199028.0
21249.0 29455.0 59092.0 66675.0 174945.0 174785.0 108973.0 101361.0 119254.0 111682.0 234486.0 231784.0 8090.0 0.0 156862.0 156601.0 93938.0 88567.0 333670.0 333433.0 260968.0 268448.0 61188.0 57050.0 120612.0 112526.0 88877.0 88942.0 63820.0 68277.0 50264.0 46983.0 59520.0 55464.0 166204.0 173675.0 206266.0 198830.0 71655.0 66023.0 167380.0 191448.0 167380.0 167380.0 167380.0 167380.0 167380.0 167380.0 167380.0 191448.0 191448.0 191448.0 191448.0 191448.0 191448.0 191448.0
158018.0 160328.0 121137.0 115603.0 63979.0 71136.0 59143.0 63223.0 59318.0 61330.0 91318.0 92462.0 164360.0 156862.0 0.0 8000.0 67330.0 74940.0 188473.0 186570.0 133677.0 138937.0 96005.0 101617.0 188532.0 183563.0 70263.0 73616.0 124851.0 130146.0 115828.0 123411.0 137900.0 131874.0 23979.0 30473.0 82126.0 78999.0 86374.0 90999.0 131325.0 34986.0 131325.0 131325.0 131325.0 131325.0 131325.0 131325.0 131325.0 34986.0 34986.0 34986.0 34986.0 34986.0 34986.0 34986.0
156680.0 158595.0 123625.0 118462.0 56086.0 63179.0 55279.0 60173.0 53959.0 56800.0 86812.0 87365.0 164241.0 156601.0 8000.0 0.0 69511.0 77336.0 185021.0 183289.0 127748.0 133255.0 96287.0 102367.0 193368.0 188182.0 68731.0 71265.0 127735.0 133359.0 117351.0 125088.0 140681.0 134365.0 16851.0 24092.0 75235.0 71755.0 85395.0 90579.0 138409.0 35028.0 138409.0 138409.0 138409.0 138409.0 138409.0 138409.0 138409.0 35028.0 35028.0 35028.0 35028.0 35028.0 35028.0 35028.0
100042.0 104473.0 54132.0 49307.0 108461.0 112166.0 48887.0 43079.0 61382.0 54854.0 155315.0 154852.0 100751.0 93938.0 67330.0 69511.0 0.0 7988.0 254306.0 252731.0 192060.0 198427.0 33917.0 36889.0 129704.0 123526.0 32049.0 40087.0 58556.0 64702.0 48804.0 56199.0 71339.0 64866.0 83388.0 91414.0 136488.0 130730.0 35046.0 34155.0 104539.0 102177.0 104539.0 104539.0 104539.0 104539.0 104539.0 104539.0 104539.0 102177.0 102177.0 102177.0 102177.0 102177.0 102177.0 102177.0
96044.0 100953.0 46294.0 41334.0 116207.0 119773.0 55247.0 48880.0 68009.0 61145.0 163274.0 162835.0 95100.0 88567.0 74940.0 77336.0 7988.0 0.0 262212.0 260599.0 200009.0 206393.0 30448.0 31809.0 122087.0 115814.0 36377.0 44216.0 50591.0 56715.0 41852.0 48990.0 63412.0 57036.0 91348.0 99373.0 144401.0 138593.0 35615.0 32939.0 101763.0 109679.0 101763.0 101763.0 101763.0 101763.0 101763.0 101763.0 101763.0 109679.0 109679.0 109679.0 109679.0 109679.0 109679.0 109679.0
328029.0 327300.0 308412.0 303452.0 160087.0 162068.0 224730.0 232460.0 214654.0 222055.0 99663.0 101886.0 341714.0 333670.0 188473.0 185021.0 254306.0 262212.0 0.0 7961.0 82346.0 74423.0 277444.0 284547.0 375909.0 371221.0 245908.0 244852.0 312725.0 318372.0 300912.0 308843.0 325621.0 319126.0 171117.0 163124.0 129139.0 137038.0 263076.0 269871.0 314170.0 157477.0 314170.0 314170.0 314170.0 314170.0 314170.0 314170.0 314170.0 157477.0 157477.0 157477.0 157477.0 157477.0 157477.0 157477.0
328286.0 327758.0 306863.0 301745.0 160702.0 163065.0 224461.0 232106.0 214693.0 221979.0 98995.0 101843.0 341454.0 333433.0 186570.0 183289.0 252731.0 260599.0 7961.0 0.0 85659.0 77899.0 276595.0 283577.0 373969.0 369337.0 245315.0 244518.0 311017.0 316525.0 299730.0 307627.0 323969.0 317593.0 169818.0 161868.0 130072.0 138031.0 262534.0 269206.0 312230.0 155537.0 312230.0 312230.0 312230.0 312230.0 312230.0 312230.0 312230.0 155537.0 155537.0 155537.0 155537.0 155537.0 155537.0 155537.0
252834.0 251181.0 244556.0 240888.0 86555.0 86183.0 154117.0 162170.0 142423.0 150314.0 48826.0 43700.0 269056.0 260968.0 133677.0 127748.0 192060.0 200009.0 82346.0 85659.0 0.0 8055.0 209292.0 217059.0 320269.0 314683.0 176805.0 174110.0 249977.0 256577.0 234564.0 242582.0 262196.0 254941.0 111234.0 103659.0 55953.0 62682.0 193228.0 200672.0 263929.0 110557.0 263929.0 263929.0 263929.0 263929.0 263929.0 263929.0 263929.0 110557.0 110557.0 110557.0 110557.0 110557.0 110557.0 110557.0
260519.0 258938.0 251196.0 247394.0 93785.0 93702.0 161259.0 169297.0 149706.0 157564.0 51548.0 47485.0 276537.0 268448.0 138937.0 133255.0 198427.0 206393.0 74423.0 77899.0 8055.0 0.0 216295.0 224009.0 326201.0 320715.0 183843.0 181308.0 256517.0 263034.0 241431.0 249452.0 268820.0 261628.0 116919.0 109215.0 62869.0 69855.0 200371.0 207764.0 268701.0 114448.0 268701.0 268701.0 268701.0 268701.0 268701.0 268701.0 268701.0 114448.0 114448.0 114448.0 114448.0 114448.0 114448.0 114448.0
66125.0 70670.0 40150.0 40648.0 122918.0 124596.0 55504.0 47449.0 68044.0 60060.0 177782.0 176030.0 68479.0 61188.0 96005.0 96287.0 33917.0 30448.0 277444.0 276595.0 209292.0 216295.0 0.0 8237.0 125282.0 117920.0 32517.0 36478.0 47409.0 55294.0 26295.0 34050.0 56749.0 48731.0 107288.0 115064.0 153426.0 146639.0 17639.0 9797.0 127471.0 130820.0 127471.0 127471.0 127471.0 127471.0 127471.0 127471.0 127471.0 130820.0 130820.0 130820.0 130820.0 130820.0 130820.0 130820.0
64507.0 69848.0 32112.0 33190.0 130783.0 132597.0 63512.0 55479.0 76144.0 68172.0 184895.0 183323.0 63905.0 57050.0 101617.0 102367.0 36889.0 31809.0 284547.0 283577.0 217059.0 224009.0 8237.0 0.0 117342.0 109921.0 40446.0 44679.0 39477.0 47391.0 18072.0 25888.0 48535.0 40507.0 113985.0 121837.0 161151.0 154440.0 25865.0 17992.0 124066.0 136565.0 124066.0 124066.0 124066.0 124066.0 124066.0 124066.0 124066.0 136565.0 136565.0 136565.0 136565.0 136565.0 136565.0 136565.0
141754.0 150008.0 85254.0 85159.0 238115.0 241853.0 175753.0 168402.0 188809.0 181322.0 279849.0 280730.0 118479.0 120612.0 188532.0 193368.0 129704.0 122087.0 375909.0 373969.0 320269.0 326201.0 125282.0 117342.0 0.0 8114.0 153699.0 159901.0 77878.0 69988.0 100564.0 94490.0 70384.0 78293.0 209354.0 217175.0 265378.0 260004.0 142616.0 135010.0 110171.0 220209.0 110171.0 110171.0 110171.0 110171.0 110171.0 110171.0 110171.0 220209.0 220209.0 220209.0 220209.0 220209.0 220209.0 220209.0
133658.0 141913.0 77810.0 78065.0 231987.0 235566.0 169006.0 161570.0 182071.0 174517.0 274838.0 275532.0 110459.0 112526.0 183563.0 188182.0 123526.0 115814.0 371221.0 369337.0 314683.0 320715.0 117920.0 109921.0 8114.0 0.0 146774.0 152836.0 70521.0 62676.0 92954.0 86737.0 62594.0 70555.0 203996.0 211865.0 259586.0 254085.0 135336.0 127676.0 109736.0 215591.0 109736.0 109736.0 109736.0 109736.0 109736.0 109736.0 109736.0 215591.0 215591.0 215591.0 215591.0 215591.0 215591.0 215591.0
87951.0 90067.0 70406.0 68787.0 90401.0 92155.0 23100.0 15140.0 35926.0 28058.0 146337.0 144208.0 96746.0 88877.0 70263.0 68731.0 32049.0 36377.0 245908.0 245315.0 176805.0 183843.0 32517.0 40446.0 153699.0 146774.0 0.0 8048.0 76975.0 84507.0 58332.0 66271.0 87802.0 80010.0 77345.0 84799.0 120976.0 114138.0 17275.0 24044.0 136518.0 103757.0 136518.0 136518.0 136518.0 136518.0 136518.0 136518.0 136518.0 103757.0 103757.0 103757.0 103757.0 103757.0 103757.0 103757.0
86093.0 87498.0 75774.0 74772.0 87555.0 88653.0 20184.0 12419.0 31883.0 23896.0 145551.0 142983.0 96945.0 88942.0 73616.0 71265.0 40087.0 44216.0 244852.0 244518.0 174110.0 181308.0 36478.0 44679.0 159901.0 152836.0 8048.0 0.0 82618.0 90299.0 62751.0 70526.0 92894.0 84965.0 78290.0 85416.0 118553.0 111459.0 19296.0 27064.0 144566.0 106109.0 144566.0 144566.0 144566.0 144566.0 144566.0 144566.0 144566.0 106109.0 106109.0 106109.0 106109.0 106109.0 106109.0 106109.0
80952.0 88579.0 7607.0 9274.0 165022.0 167816.0 99717.0 92009.0 112741.0 104984.0 213865.0 213381.0 66793.0 63820.0 124851.0 127735.0 58556.0 50591.0 312725.0 311017.0 249977.0 256517.0 47409.0 39477.0 77878.0 70521.0 76975.0 82618.0 0.0 7924.0 23574.0 19825.0 13130.0 9610.0 141938.0 149964.0 194150.0 188019.0 64825.0 57157.0 103862.0 159119.0 103862.0 103862.0 103862.0 103862.0 103862.0 103862.0 103862.0 159119.0 159119.0 159119.0 159119.0 159119.0 159119.0 159119.0
86394.0 94210.0 15474.0 15878.0 171967.0 174924.0 107122.0 99483.0 120169.0 112460.0 219794.0 219507.0 70476.0 68277.0 130146.0 133359.0 64702.0 56715.0 318372.0 316525.0 256577.0 263034.0 55294.0 47391.0 69988.0 62676.0 84507.0 90299.0 7924.0 0.0 31346.0 26882.0 10919.0 12870.0 147907.0 155927.0 200832.0 194812.0 72661.0 65026.0 100912.0 164086.0 100912.0 100912.0 100912.0 100912.0 100912.0 100912.0 100912.0 164086.0 164086.0 164086.0 164086.0 164086.0 164086.0 164086.0
63304.0 70138.0 15984.0 20301.0 148473.0 150466.0 81430.0 73428.0 94143.0 86185.0 201359.0 200089.0 55594.0 50264.0 115828.0 117351.0 48804.0 41852.0 300912.0 299730.0 234564.0 241431.0 26295.0 18072.0 100564.0 92954.0 58332.0 62751.0 23574.0 31346.0 0.0 8022.0 30803.0 22718.0 129916.0 137862.0 178620.0 172026.0 43868.0 35967.0 119700.0 150783.0 119700.0 119700.0 119700.0 119700.0 119700.0 119700.0 119700.0 150783.0 150783.0 150783.0 150783.0 150783.0 150783.0 150783.0
62234.0 69576.0 13089.0 19940.0 156471.0 158422.0 89362.0 81344.0 102030.0 94060.0 209312.0 208078.0 51415.0 46983.0 123411.0 125088.0 56199.0 48990.0 308843.0 307627.0 242582.0 249452.0 34050.0 25888.0 94490.0 86737.0 66271.0 70526.0 19825.0 26882.0 8022.0 0.0 24159.0 16199.0 137809.0 145766.0 186639.0 180037.0 51501.0 43598.0 120848.0 158330.0 120848.0 120848.0 120848.0 120848.0 120848.0 120848.0 120848.0 158330.0 158330.0 158330.0 158330.0 158330.0 158330.0 158330.0
78639.0 86664.0 17654.0 22308.0 176851.0 179381.0 110790.0 102932.0 123720.0 115855.0 226634.0 226026.0 60990.0 59520.0 137900.0 140681.0 71339.0 63412.0 325621.0 323969.0 262196.0 268820.0 56749.0 48535.0 70384.0 62594.0 87802.0 92894.0 13130.0 10919.0 30803.0 24159.0 0.0 8087.0 154713.0 162738.0 206301.0 200038.0 74387.0 66527.0 111434.0 172222.0 111434.0 111434.0 111434.0 111434.0 111434.0 111434.0 111434.0 172222.0 172222.0 172222.0 172222.0 172222.0 172222.0 172222.0
73552.0 81401.0 10743.0 17211.0 169379.0 171780.0 103046.0 95150.0 115936.0 108045.0 219951.0 219179.0 57908.0 55464.0 131874.0 134365.0 64866.0 57036.0 319126.0 317593.0 254941.0 261628.0 48731.0 40507.0 78293.0 70555.0 80010.0 84965.0 9610.0 12870.0 22718.0 16199.0 8087.0 0.0 148076.0 156093.0 199013.0 192666.0 66369.0 58497.0 112936.0 166420.0 112936.0 112936.0 112936.0 112936.0 112936.0 112936.0 112936.0 166420.0 166420.0 166420.0 166420.0 166420.0 166420.0 166420.0
164376.0 165526.0 137385.0 132680.0 41046.0 48655.0 59816.0 66227.0 54729.0 59646.0 71927.0 71735.0 174039.0 166204.0 23979.0 16851.0 83388.0 91348.0 171117.0 169818.0 111234.0 116919.0 107288.0 113985.0 209354.0 203996.0 77345.0 78290.0 141938.0 147907.0 129916.0 137809.0 154713.0 148076.0 0.0 8025.0 58385.0 55033.0 94550.0 100567.0 155178.0 31579.0 155178.0 155178.0 155178.0 155178.0 155178.0 155178.0 155178.0 31579.0 31579.0 31579.0 31579.0 31579.0 31579.0 31579.0
171421.0 172376.0 145404.0 140705.0 38028.0 45992.0 66512.0 73219.0 60432.0 65891.0 63901.0 63769.0 181542.0 173675.0 30473.0 24092.0 91414.0 99373.0 163124.0 161868.0 103659.0 109215.0 115064.0 121837.0 217175.0 211865.0 84799.0 85416.0 149964.0 155927.0 137862.0 145766.0 162738.0 156093.0 8025.0 0.0 51728.0 49060.0 102046.0 108196.0 161762.0 28701.0 161762.0 161762.0 161762.0 161762.0 161762.0 161762.0 161762.0 28701.0 28701.0 28701.0 28701.0 28701.0 28701.0 28701.0
199364.0 198346.0 188654.0 185096.0 31341.0 32994.0 98453.0 106475.0 87137.0 94914.0 37930.0 31140.0 214353.0 206266.0 82126.0 75235.0 136488.0 144401.0 129139.0 130072.0 55953.0 62869.0 153426.0 161151.0 265378.0 259586.0 120976.0 118553.0 194150.0 200832.0 178620.0 186639.0 206301.0 199013.0 58385.0 51728.0 0.0 7996.0 137553.0 144911.0 213451.0 68145.0 213451.0 213451.0 213451.0 213451.0 213451.0 213451.0 213451.0 68145.0 68145.0 68145.0 68145.0 68145.0 68145.0 68145.0
191670.0 190568.0 182384.0 179024.0 23940.0 25041.0 91438.0 99489.0 79868.0 87712.0 45342.0 38881.0 206919.0 198830.0 78999.0 71755.0 130730.0 138593.0 137038.0 138031.0 62682.0 69855.0 146639.0 154440.0 260004.0 254085.0 114138.0 111459.0 188019.0 194812.0 172026.0 180037.0 200038.0 192666.0 55033.0 49060.0 7996.0 0.0 130552.0 137990.0 210164.0 68493.0 210164.0 210164.0 210164.0 210164.0 210164.0 210164.0 210164.0 68493.0 68493.0 68493.0 68493.0 68493.0 68493.0 68493.0
71699.0 74466.0 57678.0 57615.0 106687.0 107927.0 39115.0 31077.0 51169.0 43174.0 163546.0 161315.0 79498.0 71655.0 86374.0 85395.0 35046.0 35615.0 263076.0 262534.0 193228.0 200371.0 17639.0 25865.0 142616.0 135336.0 17275.0 19296.0 64825.0 72661.0 43868.0 51501.0 74387.0 66369.0 94550.0 102046.0 137553.0 130552.0 0.0 7905.0 137159.0 120399.0 137159.0 137159.0 137159.0 137159.0 137159.0 137159.0 137159.0 120399.0 120399.0 120399.0 120399.0 120399.0 120399.0 120399.0
68010.0 71544.0 49934.0 50189.0 114171.0 115575.0 46594.0 38526.0 58864.0 50865.0 170260.0 168223.0 73695.0 66023.0 90999.0 90579.0 34155.0 32939.0 269871.0 269206.0 200672.0 207764.0 9797.0 17992.0 135010.0 127676.0 24044.0 27064.0 57157.0 65026.0 35967.0 43598.0 66527.0 58497.0 100567.0 108196.0 144911.0 137990.0 7905.0 0.0 133236.0 125451.0 133236.0 133236.0 133236.0 133236.0 133236.0 133236.0 133236.0 125451.0 125451.0 125451.0 125451.0 125451.0 125451.0 125451.0
182844.0 189830.0 108311.0 100915.0 192960.0 199086.0 149818.0 145762.0 160498.0 155671.0 219294.0 221494.0 170653.0 167380.0 131325.0 138409.0 104539.0 101763.0 314170.0 312230.0 263929.0 268701.0 127471.0 124066.0 110171.0 109736.0 136518.0 144566.0 103862.0 100912.0 119700.0 120848.0 111434.0 112936.0 155178.0 161762.0 213451.0 210164.0 137159.0 133236.0 0.0 158470.0 0.0 0.0 0.0 0.0 0.0 0.0 0.0 158470.0 158470.0 158470.0 158470.0 158470.0 158470.0 158470.0
191700.0 193544.0 155705.0 149917.0 64459.0 72531.0 89199.0 94711.0 85675.0 89876.0 63526.0 67000.0 199028.0 191448.0 34986.0 35028.0 102177.0 109679.0 157477.0 155537.0 110557.0 114448.0 130820.0 136565.0 220209.0 215591.0 103757.0 106109.0 159119.0 164086.0 150783.0 158330.0 172222.0 166420.0 31579.0 28701.0 68145.0 68493.0 120399.0 125451.0 158470.0 0.0 158470.0 158470.0 158470.0 158470.0 158470.0 158470.0 158470.0 0.0 0.0 0.0 0.0 0.0 0.0 0.0
182844.0 189830.0 108311.0 100915.0 192960.0 199086.0 149818.0 145762.0 160498.0 155671.0 219294.0 221494.0 170653.0 167380.0 131325.0 138409.0 104539.0 101763.0 314170.0 312230.0 263929.0 268701.0 127471.0 124066.0 110171.0 109736.0 136518.0 144566.0 103862.0 100912.0 119700.0 120848.0 111434.0 112936.0 155178.0 161762.0 213451.0 210164.0 137159.0 133236.0 0.0 158470.0 0.0 0.0 0.0 0.0 0.0 0.0 0.0 158470.0 158470.0 158470.0 158470.0 158470.0 158470.0 158470.0
182844.0 189830.0 108311.0 100915.0 192960.0 199086.0 149818.0 145762.0 160498.0 155671.0 219294.0 221494.0 170653.0 167380.0 131325.0 138409.0 104539.0 101763.0 314170.0 312230.0 263929.0 268701.0 127471.0 124066.0 110171.0 109736.0 136518.0 144566.0 103862.0 100912.0 119700.0 120848.0 111434.0 112936.0 155178.0 161762.0 213451.0 210164.0 137159.0 133236.0 0.0 158470.0 0.0 0.0 0.0 0.0 0.0 0.0 0.0 158470.0 158470.0 158470.0 158470.0 158470.0 158470.0 158470.0
182844.0 189830.0 108311.0 100915.0 192960.0 199086.0 149818.0 145762.0 160498.0 155671.0 219294.0 221494.0 170653.0 167380.0 131325.0 138409.0 104539.0 101763.0 314170.0 312230.0 263929.0 268701.0 127471.0 124066.0 110171.0 109736.0 136518.0 144566.0 103862.0 100912.0 119700.0 120848.0 111434.0 112936.0 155178.0 161762.0 213451.0 210164.0 137159.0 133236.0 0.0 158470.0 0.0 0.0 0.0 0.0 0.0 0.0 0.0 158470.0 158470.0 158470.0 158470.0 158470.0 158470.0 158470.0
182844.0 189830.0 108311.0 100915.0 192960.0 199086.0 149818.0 145762.0 160498.0 155671.0 219294.0 221494.0 170653.0 167380.0 131325.0 138409.0 104539.0 101763.0 314170.0 312230.0 263929.0 268701.0 127471.0 124066.0 110171.0 109736.0 136518.0 144566.0 103862.0 100912.0 119700.0 120848.0 111434.0 112936.0 155178.0 161762.0 213451.0 210164.0 137159.0 133236.0 0.0 158470.0 0.0 0.0 0.0 0.0 0.0 0.0 0.0 158470.0 158470.0 158470.0 158470.0 158470.0 158470.0 158470.0
182844.0 189830.0 108311.0 100915.0 192960.0 199086.0 149818.0 145762.0 160498.0 155671.0 219294.0 221494.0 170653.0 167380.0 131325.0 138409.0 104539.0 101763.0 314170.0 312230.0 263929.0 268701.0 127471.0 124066.0 110171.0 109736.0 136518.0 144566.0 103862.0 100912.0 119700.0 120848.0 111434.0 112936.0 155178.0 161762.0 213451.0 210164.0 137159.0 133236.0 0.0 158470.0 0.0 0.0 0.0 0.0 0.0 0.0 0.0 158470.0 158470.0 158470.0 158470.0 158470.0 158470.0 158470.0
182844.0 189830.0 108311.0 100915.0 192960.0 199086.0 149818.0 145762.0 160498.0 155671.0 219294.0 221494.0 170653.0 167380.0 131325.0 138409.0 104539.0 101763.0 314170.0 312230.0 263929.0 268701.0 127471.0 124066.0 110171.0 109736.0 136518.0 144566.0 103862.0 100912.0 119700.0 120848.0 111434.0 112936.0 155178.0 161762.0 213451.0 210164.0 137159.0 133236.0 0.0 158470.0 0.0 0.0 0.0 0.0 0.0 0.0 0.0 158470.0 158470.0 158470.0 158470.0 158470.0 158470.0 158470.0
182844.0 189830.0 108311.0 100915.0 192960.0 199086.0 149818.0 145762.0 160498.0 155671.0 219294.0 221494.0 170653.0 167380.0 131325.0 138409.0 104539.0 101763.0 314170.0 312230.0 263929.0 268701.0 127471.0 124066.0 110171.0 109736.0 136518.0 144566.0 103862.0 100912.0 119700.0 120848.0 111434.0 112936.0 155178.0 161762.0 213451.0 210164.0 137159.0 133236.0 0.0 158470.0 0.0 0.0 0.0 0.0 0.0 0.0 0.0 158470.0 158470.0 158470.0 158470.0 158470.0 158470.0 158470.0
191700.0 193544.0 155705.0 149917.0 64459.0 72531.0 89199.0 94711.0 85675.0 89876.0 63526.0 67000.0 199028.0 191448.0 34986.0 35028.0 102177.0 109679.0 157477.0 155537.0 110557.0 114448.0 130820.0 136565.0 220209.0 215591.0 103757.0 106109.0 159119.0 164086.0 150783.0 158330.0 172222.0 166420.0 31579.0 28701.0 68145.0 68493.0 120399.0 125451.0 158470.0 0.0 158470.0 158470.0 158470.0 158470.0 158470.0 158470.0 158470.0 0.0 0.0 0.0 0.0 0.0 0.0 0.0
191700.0 193544.0 155705.0 149917.0 64459.0 72531.0 89199.0 94711.0 85675.0 89876.0 63526.0 67000.0 199028.0 191448.0 34986.0 35028.0 102177.0 109679.0 157477.0 155537.0 110557.0 114448.0 130820.0 136565.0 220209.0 215591.0 103757.0 106109.0 159119.0 164086.0 150783.0 158330.0 172222.0 166420.0 31579.0 28701.0 68145.0 68493.0 120399.0 125451.0 158470.0 0.0 158470.0 158470.0 158470.0 158470.0 158470.0 158470.0 158470.0 0.0 0.0 0.0 0.0 0.0 0.0 0.0
191700.0 193544.0 155705.0 149917.0 64459.0 72531.0 89199.0 94711.0 85675.0 89876.0 63526.0 67000.0 199028.0 191448.0 34986.0 35028.0 102177.0 109679.0 157477.0 155537.0 110557.0 114448.0 130820.0 136565.0 220209.0 215591.0 103757.0 106109.0 159119.0 164086.0 150783.0 158330.0 172222.0 166420.0 31579.0 28701.0 68145.0 68493.0 120399.0 125451.0 158470.0 0.0 158470.0 158470.0 158470.0 158470.0 158470.0 158470.0 158470.0 0.0 0.0 0.0 0.0 0.0 0.0 0.0
191700.0 193544.0 155705.0 149917.0 64459.0 72531.0 89199.0 94711.0 85675.0 89876.0 63526.0 67000.0 199028.0 191448.0 34986.0 35028.0 102177.0 109679.0 157477.0 155537.0 110557.0 114448.0 130820.0 136565.0 220209.0 215591.0 103757.0 106109.0 159119.0 164086.0 150783.0 158330.0 172222.0 166420.0 31579.0 28701.0 68145.0 68493.0 120399.0 125451.0 158470.0 0.0 158470.0 158470.0 158470.0 158470.0 158470.0 158470.0 158470.0 0.0 0.0 0.0 0.0 0.0 0.0 0.0
191700.0 193544.0 155705.0 149917.0 64459.0 72531.0 89199.0 94711.0 85675.0 89876.0 63526.0 67000.0 199028.0 191448.0 34986.0 35028.0 102177.0 109679.0 157477.0 155537.0 110557.0 114448.0 130820.0 136565.0 220209.0 215591.0 103757.0 106109.0 159119.0 164086.0 150783.0 158330.0 172222.0 166420.0 31579.0 28701.0 68145.0 68493.0 120399.0 125451.0 158470.0 0.0 158470.0 158470.0 158470.0 158470.0 158470.0 158470.0 158470.0 0.0 0.0 0.0 0.0 0.0 0.0 0.0
191700.0 193544.0 155705.0 149917.0 64459.0 72531.0 89199.0 94711.0 85675.0 89876.0 63526.0 67000.0 199028.0 191448.0 34986.0 35028.0 102177.0 109679.0 157477.0 155537.0 110557.0 114448.0 130820.0 136565.0 220209.0 215591.0 103757.0 106109.0 159119.0 164086.0 150783.0 158330.0 172222.0 166420.0 31579.0 28701.0 68145.0 68493.0 120399.0 125451.0 158470.0 0.0 158470.0 158470.0 158470.0 158470.0 158470.0 158470.0 158470.0 0.0 0.0 0.0 0.0 0.0 0.0 0.0
191700.0 193544.0 155705.0 149917.0 64459.0 72531.0 89199.0 94711.0 85675.0 89876.0 63526.0 67000.0 199028.0 191448.0 34986.0 35028.0 102177.0 109679.0 157477.0 155537.0 110557.0 114448.0 130820.0 136565.0 220209.0 215591.0 103757.0 106109.0 159119.0 164086.0 150783.0 158330.0 172222.0 166420.0 31579.0 28701.0 68145.0 68493.0 120399.0 125451.0 158470.0 0.0 158470.0 158470.0 158470.0 158470.0 158470.0 158470.0 158470.0 0.0 0.0 0.0 0.0 0.0 0.0 0.0
FIXED_EDGES_SECTION
1 2
3 4
5 6
7 8
9 10
11 12
13 14
15 16
17 18
19 20
21 22
23 24
25 26
27 28
29 30
31 32
33 34
35 36
37 38
39 40
-1 
DEMAND_SECTION
1 74
2 74
3 341
4 341
5 84
6 84
7 158
8 158
9 130
10 130
11 563
12 563
13 479
14 479
15 100
16 100
17 432
18 432
19 71
20 71
21 350
22 350
23 89
24 89
25 265
26 265
27 177
28 177
29 353
30 353
31 96
32 96
33 583
34 583
35 371
36 371
37 319
38 319
39 90
40 90
41 0
42 0
43 0
44 0
45 0
46 0
47 0
48 0
49 0
50 0
51 0
52 0
53 0
54 0
55 0
56 0
DEPOT_SECTION
41 
-1 
CAPACITIES_SECTION
1250 
1375 
1500 
1625 
-1 
EOF