NAME: GFS_20_1
TYPE: GFSP
DIMENSION: 58
VEHICLES: 4
CAPACITY: 1250.0
TRIP_DIST_LIMIT: 600000.0
TOTAL_DIST_LIMIT: 1050000.0
EDGE_WEIGHT_TYPE: EXPLICIT
EDGE_WEIGHT_FORMAT: FULL_MATRIX
EDGE_WEIGHT_SECTION
0.0 8039.0 324172.0 324089.0 296163.0 303856.0 295703.0 288039.0 213450.0 216275.0 319055.0 324751.0 89340.0 93533.0 2678.0 8434.0 299747.0 293102.0 314439.0 306383.0 330586.0 337036.0 236648.0 229338.0 39645.0 36710.0 327672.0 324185.0 328881.0 329614.0 340596.0 344810.0 31096.0 33550.0 161674.0 164705.0 271395.0 263577.0 359266.0 366994.0 289808.0 132322.0 289808.0 289808.0 289808.0 289808.0 289808.0 289808.0 289808.0 289808.0 132322.0 132322.0 132322.0 132322.0 132322.0 132322.0 132322.0 132322.0
8039.0 0.0 332057.0 331973.0 304048.0 311740.0 302599.0 294959.0 221053.0 223963.0 323646.0 329457.0 95434.0 99264.0 10717.0 14253.0 307280.0 300591.0 321302.0 313237.0 337589.0 344092.0 243735.0 236357.0 33281.0 29455.0 334708.0 331131.0 334431.0 335303.0 348213.0 352375.0 30657.0 31136.0 169296.0 172267.0 279029.0 271232.0 367151.0 374879.0 297692.0 140267.0 297692.0 297692.0 297692.0 297692.0 297692.0 297692.0 297692.0 297692.0 140267.0 140267.0 140267.0 140267.0 140267.0 140267.0 140267.0 140267.0
324172.0 332057.0 0.0 7927.0 28077.0 20325.0 143503.0 141689.0 127140.0 120347.0 275293.0 272504.0 257176.0 259511.0 321550.0 321759.0 88258.0 93772.0 147992.0 147468.0 140571.0 138008.0 142143.0 149035.0 361462.0 360333.0 137163.0 143512.0 233044.0 225861.0 82408.0 90428.0 340323.0 347176.0 170102.0 169242.0 86653.0 88803.0 36858.0 44010.0 64505.0 192835.0 64505.0 64505.0 64505.0 64505.0 64505.0 64505.0 64505.0 64505.0 192835.0 192835.0 192835.0 192835.0 192835.0 192835.0 192835.0 192835.0
324089.0 331973.0 7927.0 0.0 29373.0 21744.0 136537.0 134941.0 124583.0 118069.0 268468.0 265569.0 256185.0 258303.0 321467.0 321676.0 81254.0 87029.0 140595.0 140243.0 132867.0 130212.0 137419.0 144523.0 361378.0 360250.0 129490.0 135919.0 225801.0 218566.0 74484.0 82510.0 340239.0 347092.0 169011.0 167935.0 81414.0 84128.0 35263.0 42921.0 68264.0 192751.0 68264.0 68264.0 68264.0 68264.0 68264.0 68264.0 68264.0 68264.0 192751.0 192751.0 192751.0 192751.0 192751.0 192751.0 192751.0 192751.0
296163.0 304048.0 28077.0 29373.0 0.0 7799.0 133487.0 130267.0 101654.0 94454.0 262985.0 260928.0 229535.0 232024.0 293541.0 293750.0 80421.0 83872.0 141355.0 139328.0 137624.0 136628.0 121746.0 127889.0 333453.0 332324.0 133862.0 139049.0 224004.0 217312.0 88493.0 96581.0 312314.0 319167.0 142610.0 141938.0 69625.0 69559.0 64297.0 71739.0 40422.0 164826.0 40422.0 40422.0 40422.0 40422.0 40422.0 40422.0 40422.0 40422.0 164826.0 164826.0 164826.0 164826.0 164826.0 164826.0 164826.0 164826.0
303856.0 311740.0 20325.0 21744.0 7799.0 0.0 135060.0 132254.0 108256.0 101205.0 265488.0 263211.0 237039.0 239461.0 301234.0 301443.0 80991.0 85112.0 141954.0 140362.0 137147.0 135705.0 126578.0 132988.0 341145.0 340017.0 133469.0 139010.0 225496.0 218650.0 85241.0 93385.0 320006.0 326859.0 150040.0 149286.0 73056.0 73765.0 56518.0 63944.0 47048.0 172518.0 47048.0 47048.0 47048.0 47048.0 47048.0 47048.0 47048.0 47048.0 172518.0 172518.0 172518.0 172518.0 172518.0 172518.0 172518.0 172518.0
295703.0 302599.0 143503.0 136537.0 133487.0 135060.0 0.0 7844.0 97648.0 100629.0 132057.0 129033.0 208713.0 206719.0 293421.0 296047.0 55283.0 50028.0 18881.0 11099.0 35929.0 43350.0 60362.0 66797.0 335312.0 332041.0 33864.0 28771.0 90517.0 83892.0 82275.0 79803.0 317315.0 323904.0 142023.0 137695.0 67628.0 72134.0 154244.0 160415.0 159981.0 180349.0 159981.0 159981.0 159981.0 159981.0 159981.0 159981.0 159981.0 159981.0 180349.0 180349.0 180349.0 180349.0 180349.0 180349.0 180349.0 180349.0
288039.0 294959.0 141689.0 134941.0 130267.0 132254.0 7844.0 0.0 90093.0 93262.0 133623.0 131040.0 201217.0 199309.0 285749.0 288338.0 54028.0 47922.0 26706.0 18932.0 43077.0 50243.0 52521.0 59008.0 327638.0 324405.0 40703.0 36217.0 94179.0 87929.0 84581.0 82814.0 309548.0 316153.0 134184.0 129853.0 62938.0 66817.0 154267.0 160673.0 155476.0 172526.0 155476.0 155476.0 155476.0 155476.0 155476.0 155476.0 155476.0 155476.0 172526.0 172526.0 172526.0 172526.0 172526.0 172526.0 172526.0 172526.0
213450.0 221053.0 127140.0 124583.0 101654.0 108256.0 97648.0 90093.0 0.0 8047.0 194437.0 195101.0 135825.0 136779.0 210925.0 212074.0 86517.0 80276.0 115593.0 108563.0 126726.0 131566.0 43259.0 42980.0 252006.0 250105.0 123118.0 122191.0 170996.0 167001.0 127164.0 131405.0 231189.0 238042.0 51785.0 48854.0 58035.0 50398.0 157750.0 165612.0 105814.0 86491.0 105814.0 105814.0 105814.0 105814.0 105814.0 105814.0 105814.0 105814.0 86491.0 86491.0 86491.0 86491.0 86491.0 86491.0 86491.0 86491.0
216275.0 223963.0 120347.0 118069.0 94454.0 101205.0 100629.0 93262.0 8047.0 0.0 201279.0 201765.0 140536.0 141830.0 213720.0 214605.0 84833.0 79113.0 118118.0 111372.0 128188.0 132633.0 49083.0 49718.0 254510.0 252846.0 124477.0 124071.0 176608.0 172374.0 124540.0 129191.0 233482.0 240335.0 54881.0 52510.0 55370.0 47405.0 151650.0 159520.0 97865.0 87390.0 97865.0 97865.0 97865.0 97865.0 97865.0 97865.0 97865.0 97865.0 87390.0 87390.0 87390.0 87390.0 87390.0 87390.0 87390.0 87390.0
319055.0 323646.0 275293.0 268468.0 262985.0 265488.0 132057.0 133623.0 194437.0 201279.0 0.0 8088.0 233074.0 227343.0 317559.0 322836.0 187272.0 181523.0 131737.0 129852.0 146606.0 153058.0 153017.0 151565.0 356165.0 350383.0 148385.0 140314.0 51266.0 59230.0 209770.0 205151.0 347760.0 352135.0 212817.0 208137.0 193769.0 195498.0 285506.0 291292.0 284593.0 247775.0 284593.0 284593.0 284593.0 284593.0 284593.0 284593.0 284593.0 284593.0 247775.0 247775.0 247775.0 247775.0 247775.0 247775.0 247775.0 247775.0
324751.0 329457.0 272504.0 265569.0 260928.0 263211.0 129033.0 131040.0 195101.0 201765.0 8088.0 0.0 238263.0 232661.0 323215.0 328395.0 184315.0 178807.0 127660.0 126211.0 141868.0 148110.0 153143.0 152134.0 362087.0 356391.0 143808.0 135811.0 45137.0 53206.0 205488.0 200649.0 353243.0 357730.0 215347.0 210632.0 192019.0 194072.0 281773.0 287424.0 283373.0 250835.0 283373.0 283373.0 283373.0 283373.0 283373.0 283373.0 283373.0 283373.0 250835.0 250835.0 250835.0 250835.0 250835.0 250835.0 250835.0 250835.0
89340.0 95434.0 257176.0 256185.0 229535.0 237039.0 208713.0 201217.0 135825.0 140536.0 233074.0 238263.0 0.0 7469.0 87382.0 91543.0 219204.0 211943.0 227214.0 219125.0 244178.0 250983.0 151355.0 143531.0 128690.0 124520.0 241499.0 237428.0 239920.0 240453.0 261108.0 264361.0 115679.0 120850.0 87180.0 88508.0 193065.0 185836.0 290809.0 298656.0 224357.0 75676.0 224357.0 224357.0 224357.0 224357.0 224357.0 224357.0 224357.0 224357.0 75676.0 75676.0 75676.0 75676.0 75676.0 75676.0 75676.0 75676.0
93533.0 99264.0 259511.0 258303.0 232024.0 239461.0 206719.0 199309.0 136779.0 141830.0 227343.0 232661.0 7469.0 0.0 91704.0 96258.0 219084.0 211704.0 225084.0 216995.0 242350.0 249272.0 150185.0 142212.0 132540.0 128027.0 239761.0 235477.0 235356.0 236093.0 261103.0 264142.0 120759.0 125641.0 89421.0 90373.0 193520.0 186445.0 292739.0 300598.0 227389.0 80817.0 227389.0 227389.0 227389.0 227389.0 227389.0 227389.0 227389.0 227389.0 80817.0 80817.0 80817.0 80817.0 80817.0 80817.0 80817.0 80817.0
2678.0 10717.0 321550.0 321467.0 293541.0 301234.0 293421.0 285749.0 210925.0 213720.0 317559.0 323215.0 87382.0 91704.0 0.0 7469.0 297244.0 290614.0 312168.0 304115.0 328265.0 334697.0 234303.0 227017.0 41892.0 39193.0 325340.0 321884.0 327059.0 327744.0 338063.0 342297.0 31693.0 34728.0 159146.0 162197.0 268858.0 261033.0 356644.0 364372.0 287186.0 129679.0 287186.0 287186.0 287186.0 287186.0 287186.0 287186.0 287186.0 287186.0 129679.0 129679.0 129679.0 129679.0 129679.0 129679.0 129679.0 129679.0
8434.0 14253.0 321759.0 321676.0 293750.0 301443.0 296047.0 288338.0 212074.0 214605.0 322836.0 328395.0 91543.0 96258.0 7469.0 0.0 298528.0 292015.0 314840.0 306807.0 330684.0 337016.0 236624.0 229471.0 39932.0 38674.0 327702.0 324407.0 331452.0 331987.0 339094.0 343477.0 25269.0 29390.0 160306.0 163523.0 269873.0 261987.0 356853.0 364581.0 287395.0 129575.0 287395.0 287395.0 287395.0 287395.0 287395.0 287395.0 287395.0 287395.0 129575.0 129575.0 129575.0 129575.0 129575.0 129575.0 129575.0 129575.0
299747.0 307280.0 88258.0 81254.0 80421.0 80991.0 55283.0 54028.0 86517.0 84833.0 187272.0 184315.0 219204.0 219084.0 297244.0 298528.0 0.0 8087.0 60990.0 59520.0 58453.0 59015.0 73040.0 81452.0 338459.0 336437.0 54524.0 58946.0 144996.0 137963.0 42128.0 45225.0 317703.0 324556.0 138228.0 135051.0 30329.0 38448.0 100812.0 107517.0 111434.0 172222.0 111434.0 111434.0 111434.0 111434.0 111434.0 111434.0 111434.0 111434.0 172222.0 172222.0 172222.0 172222.0 172222.0 172222.0 172222.0 172222.0
293102.0 300591.0 93772.0 87029.0 83872.0 85112.0 50028.0 47922.0 80276.0 79113.0 181523.0 178807.0 211943.0 211704.0 290614.0 292015.0 8087.0 0.0 57908.0 55464.0 58012.0 59656.0 65037.0 73459.0 331937.0 329806.0 54013.0 57409.0 140385.0 133554.0 49836.0 52439.0 311321.0 318174.0 131797.0 128493.0 26406.0 34177.0 108036.0 114871.0 112936.0 166420.0 112936.0 112936.0 112936.0 112936.0 112936.0 112936.0 112936.0 112936.0 166420.0 166420.0 166420.0 166420.0 166420.0 166420.0 166420.0 166420.0
314439.0 321302.0 147992.0 140595.0 141355.0 141954.0 18881.0 26706.0 115593.0 118118.0 131737.0 127660.0 227214.0 225084.0 312168.0 314840.0 60990.0 57908.0 0.0 8090.0 19735.0 27671.0 79218.0 85672.0 354059.0 350736.0 19246.0 11796.0 85628.0 78165.0 78099.0 73903.0 336169.0 342742.0 160789.0 156488.0 79887.0 85549.0 154249.0 159790.0 170653.0 199028.0 170653.0 170653.0 170653.0 170653.0 170653.0 170653.0 170653.0 170653.0 199028.0 199028.0 199028.0 199028.0 199028.0 199028.0 199028.0 199028.0
306383.0 313237.0 147468.0 140243.0 139328.0 140362.0 11099.0 18932.0 108563.0 111372.0 129852.0 126211.0 219125.0 216995.0 304115.0 306807.0 59520.0 55464.0 8090.0 0.0 26995.0 34826.0 71419.0 77741.0 346006.0 342668.0 25785.0 19244.0 85576.0 78457.0 80985.0 77476.0 328183.0 334739.0 153116.0 148781.0 75685.0 80836.0 155655.0 161470.0 167380.0 191448.0 167380.0 167380.0 167380.0 167380.0 167380.0 167380.0 167380.0 167380.0 191448.0 191448.0 191448.0 191448.0 191448.0 191448.0 191448.0 191448.0
330586.0 337589.0 140571.0 132867.0 137624.0 137147.0 35929.0 43077.0 126726.0 128188.0 146606.0 141868.0 244178.0 242350.0 328265.0 330684.0 58453.0 58012.0 19735.0 26995.0 0.0 7940.0 94098.0 101248.0 370136.0 367044.0 4004.0 7946.0 98046.0 90149.0 64488.0 58991.0 351507.0 358239.0 174381.0 170278.0 83235.0 90081.0 142516.0 147448.0 169876.0 212006.0 169876.0 169876.0 169876.0 169876.0 169876.0 169876.0 169876.0 169876.0 212006.0 212006.0 212006.0 212006.0 212006.0 212006.0 212006.0 212006.0
337036.0 344092.0 138008.0 130212.0 136628.0 135705.0 43350.0 50243.0 131566.0 132633.0 153058.0 148110.0 250983.0 249272.0 334697.0 337016.0 59015.0 59656.0 27671.0 34826.0 7940.0 0.0 100401.0 107752.0 376546.0 373547.0 9542.0 15885.0 103867.0 95883.0 59751.0 53659.0 357631.0 364424.0 179984.0 175962.0 85580.0 92780.0 138079.0 142727.0 169977.0 217317.0 169977.0 169977.0 169977.0 169977.0 169977.0 169977.0 169977.0 169977.0 217317.0 217317.0 217317.0 217317.0 217317.0 217317.0 217317.0 217317.0
236648.0 243735.0 142143.0 137419.0 121746.0 126578.0 60362.0 52521.0 43259.0 49083.0 153017.0 153143.0 151355.0 150185.0 234303.0 236624.0 73040.0 65037.0 79218.0 71419.0 94098.0 100401.0 0.0 8440.0 276147.0 273187.0 91078.0 88043.0 127739.0 123775.0 114638.0 116337.0 257429.0 264143.0 81847.0 77441.0 56498.0 53345.0 165784.0 173290.0 135648.0 120401.0 135648.0 135648.0 135648.0 135648.0 135648.0 135648.0 135648.0 135648.0 120401.0 120401.0 120401.0 120401.0 120401.0 120401.0 120401.0 120401.0
229338.0 236357.0 149035.0 144523.0 127889.0 132988.0 66797.0 59008.0 42980.0 49718.0 151565.0 152134.0 143531.0 142212.0 227017.0 229471.0 81452.0 73459.0 85672.0 77741.0 101248.0 107752.0 8440.0 0.0 268889.0 265813.0 98351.0 94946.0 129024.0 125532.0 123078.0 124765.0 250549.0 257179.0 76547.0 71997.0 64086.0 60404.0 173430.0 180983.0 140215.0 115283.0 140215.0 140215.0 140215.0 140215.0 140215.0 140215.0 140215.0 140215.0 115283.0 115283.0 115283.0 115283.0 115283.0 115283.0 115283.0 115283.0
39645.0 33281.0 361462.0 361378.0 333453.0 341145.0 335312.0 327638.0 252006.0 254510.0 356165.0 362087.0 128690.0 132540.0 41892.0 39932.0 338459.0 331937.0 354059.0 346006.0 370136.0 376546.0 276147.0 268889.0 0.0 8049.0 367200.0 363769.0 367632.0 368548.0 379013.0 383409.0 28460.0 20951.0 200238.0 203445.0 309793.0 301899.0 396555.0 404284.0 327097.0 170417.0 327097.0 327097.0 327097.0 327097.0 327097.0 327097.0 327097.0 327097.0 170417.0 170417.0 170417.0 170417.0 170417.0 170417.0 170417.0 170417.0
36710.0 29455.0 360333.0 360250.0 332324.0 340017.0 332041.0 324405.0 250105.0 252846.0 350383.0 356391.0 124520.0 128027.0 39193.0 38674.0 336437.0 329806.0 350736.0 342668.0 367044.0 373547.0 273187.0 265813.0 8049.0 0.0 364163.0 360581.0 362682.0 363738.0 377232.0 381485.0 32603.0 26016.0 198322.0 201389.0 308020.0 300181.0 395427.0 403155.0 325969.0 168223.0 325969.0 325969.0 325969.0 325969.0 325969.0 325969.0 325969.0 325969.0 168223.0 168223.0 168223.0 168223.0 168223.0 168223.0 168223.0 168223.0
327672.0 334708.0 137163.0 129490.0 133862.0 133469.0 33864.0 40703.0 123118.0 124477.0 148385.0 143808.0 241499.0 239761.0 325340.0 327702.0 54524.0 54013.0 19246.0 25785.0 4004.0 9542.0 91078.0 98351.0 367200.0 364163.0 0.0 8186.0 100314.0 92482.0 62011.0 56847.0 348413.0 355177.0 171041.0 166971.0 79240.0 86106.0 139774.0 144832.0 165956.0 208560.0 165956.0 165956.0 165956.0 165956.0 165956.0 165956.0 165956.0 165956.0 208560.0 208560.0 208560.0 208560.0 208560.0 208560.0 208560.0 208560.0
324185.0 331131.0 143512.0 135919.0 139049.0 139010.0 28771.0 36217.0 122191.0 124071.0 140314.0 135811.0 237428.0 235477.0 321884.0 324407.0 58946.0 57409.0 11796.0 19244.0 7946.0 15885.0 88043.0 94946.0 363769.0 360581.0 8186.0 0.0 92551.0 84782.0 69799.0 64850.0 345439.0 352108.0 168947.0 164762.0 81578.0 87998.0 147237.0 152426.0 170149.0 206844.0 170149.0 170149.0 170149.0 170149.0 170149.0 170149.0 170149.0 170149.0 206844.0 206844.0 206844.0 206844.0 206844.0 206844.0 206844.0 206844.0
328881.0 334431.0 233044.0 225801.0 224004.0 225496.0 90517.0 94179.0 170996.0 176608.0 51266.0 45137.0 239920.0 235356.0 327059.0 331452.0 144996.0 140385.0 85628.0 85576.0 98046.0 103867.0 127739.0 129024.0 367632.0 362682.0 100314.0 92551.0 0.0 8092.0 162315.0 157036.0 355480.0 360769.0 200702.0 195910.0 157027.0 160366.0 239628.0 244941.0 249526.0 238506.0 249526.0 249526.0 249526.0 249526.0 249526.0 249526.0 249526.0 249526.0 238506.0 238506.0 238506.0 238506.0 238506.0 238506.0 238506.0 238506.0
329614.0 335303.0 225861.0 218566.0 217312.0 218650.0 83892.0 87929.0 167001.0 172374.0 59230.0 53206.0 240453.0 236093.0 327744.0 331987.0 137963.0 133554.0 78165.0 78457.0 90149.0 95883.0 123775.0 125532.0 368548.0 363738.0 92482.0 84782.0 8092.0 0.0 154493.0 149137.0 355825.0 361249.0 198402.0 193618.0 150864.0 154459.0 231952.0 237205.0 243402.0 236487.0 243402.0 243402.0 243402.0 243402.0 243402.0 243402.0 243402.0 243402.0 236487.0 236487.0 236487.0 236487.0 236487.0 236487.0 236487.0 236487.0
340596.0 348213.0 82408.0 74484.0 88493.0 85241.0 82275.0 84581.0 127164.0 124540.0 209770.0 205488.0 261108.0 261103.0 338063.0 339094.0 42128.0 49836.0 78099.0 80985.0 64488.0 59751.0 114638.0 123078.0 379013.0 377232.0 62011.0 69799.0 162315.0 154493.0 0.0 8154.0 358019.0 364872.0 178922.0 175992.0 69221.0 77135.0 78344.0 83016.0 125530.0 211398.0 125530.0 125530.0 125530.0 125530.0 125530.0 125530.0 125530.0 125530.0 211398.0 211398.0 211398.0 211398.0 211398.0 211398.0 211398.0 211398.0
344810.0 352375.0 90428.0 82510.0 96581.0 93385.0 79803.0 82814.0 131405.0 129191.0 205151.0 200649.0 264361.0 264142.0 342297.0 343477.0 45225.0 52439.0 73903.0 77476.0 58991.0 53659.0 116337.0 124765.0 383409.0 381485.0 56847.0 64850.0 157036.0 149137.0 8154.0 0.0 362530.0 369383.0 183185.0 180109.0 73842.0 81898.0 84980.0 89267.0 133371.0 216364.0 133371.0 133371.0 133371.0 133371.0 133371.0 133371.0 133371.0 133371.0 216364.0 216364.0 216364.0 216364.0 216364.0 216364.0 216364.0 216364.0
31096.0 30657.0 340323.0 340239.0 312314.0 320006.0 317315.0 309548.0 231189.0 233482.0 347760.0 353243.0 115679.0 120759.0 31693.0 25269.0 317703.0 311321.0 336169.0 328183.0 351507.0 357631.0 257429.0 250549.0 28460.0 32603.0 348413.0 345439.0 355480.0 355825.0 358019.0 362530.0 0.0 8022.0 179525.0 182930.0 288817.0 280886.0 375416.0 383144.0 305958.0 149265.0 305958.0 305958.0 305958.0 305958.0 305958.0 305958.0 305958.0 305958.0 149265.0 149265.0 149265.0 149265.0 149265.0 149265.0 149265.0 149265.0
33550.0 31136.0 347176.0 347092.0 319167.0 326859.0 323904.0 316153.0 238042.0 240335.0 352135.0 357730.0 120850.0 125641.0 34728.0 29390.0 324556.0 318174.0 342742.0 334739.0 358239.0 364424.0 264143.0 257179.0 20951.0 26016.0 355177.0 352108.0 360769.0 361249.0 364872.0 369383.0 8022.0 0.0 186377.0 189783.0 295670.0 287739.0 382269.0 389997.0 312811.0 156118.0 312811.0 312811.0 312811.0 312811.0 312811.0 312811.0 312811.0 312811.0 156118.0 156118.0 156118.0 156118.0 156118.0 156118.0 156118.0 156118.0
161674.0 169296.0 170102.0 169011.0 142610.0 150040.0 142023.0 134184.0 51785.0 54881.0 212817.0 215347.0 87180.0 89421.0 159146.0 160306.0 138228.0 131797.0 160789.0 153116.0 174381.0 179984.0 81847.0 76547.0 200238.0 198322.0 171041.0 168947.0 200702.0 198402.0 178922.0 183185.0 179525.0 186377.0 0.0 4794.0 109733.0 101960.0 203644.0 211487.0 138719.0 38758.0 138719.0 138719.0 138719.0 138719.0 138719.0 138719.0 138719.0 138719.0 38758.0 38758.0 38758.0 38758.0 38758.0 38758.0 38758.0 38758.0
164705.0 172267.0 169242.0 167935.0 141938.0 149286.0 137695.0 129853.0 48854.0 52510.0 208137.0 210632.0 88508.0 90373.0 162197.0 163523.0 135051.0 128493.0 156488.0 148781.0 170278.0 175962.0 77441.0 71997.0 203445.0 201389.0 166971.0 164762.0 195910.0 193618.0 175992.0 180109.0 182930.0 189783.0 4794.0 0.0 106888.0 99212.0 202389.0 210245.0 138832.0 43398.0 138832.0 138832.0 138832.0 138832.0 138832.0 138832.0 138832.0 138832.0 43398.0 43398.0 43398.0 43398.0 43398.0 43398.0 43398.0 43398.0
271395.0 279029.0 86653.0 81414.0 69625.0 73056.0 67628.0 62938.0 58035.0 55370.0 193769.0 192019.0 193065.0 193520.0 268858.0 269873.0 30329.0 26406.0 79887.0 75685.0 83235.0 85580.0 56498.0 64086.0 309793.0 308020.0 79240.0 81578.0 157027.0 150864.0 69221.0 73842.0 288817.0 295670.0 109733.0 106888.0 0.0 8151.0 109345.0 116901.0 92538.0 142547.0 92538.0 92538.0 92538.0 92538.0 92538.0 92538.0 92538.0 92538.0 142547.0 142547.0 142547.0 142547.0 142547.0 142547.0 142547.0 142547.0
263577.0 271232.0 88803.0 84128.0 69559.0 73765.0 72134.0 66817.0 50398.0 47405.0 195498.0 194072.0 185836.0 186445.0 261033.0 261987.0 38448.0 34177.0 85549.0 80836.0 90081.0 92780.0 53345.0 60404.0 301899.0 300181.0 86106.0 87998.0 160366.0 154459.0 77135.0 81898.0 280886.0 287739.0 101960.0 99212.0 8151.0 0.0 113624.0 121299.0 89435.0 134468.0 89435.0 89435.0 89435.0 89435.0 89435.0 89435.0 89435.0 89435.0 134468.0 134468.0 134468.0 134468.0 134468.0 134468.0 134468.0 134468.0
359266.0 367151.0 36858.0 35263.0 64297.0 56518.0 154244.0 154267.0 157750.0 151650.0 285506.0 281773.0 290809.0 292739.0 356644.0 356853.0 100812.0 108036.0 154249.0 155655.0 142516.0 138079.0 165784.0 173430.0 396555.0 395427.0 139774.0 147237.0 239628.0 231952.0 78344.0 84980.0 375416.0 382269.0 203644.0 202389.0 109345.0 113624.0 0.0 7871.0 101167.0 227928.0 101167.0 101167.0 101167.0 101167.0 101167.0 101167.0 101167.0 101167.0 227928.0 227928.0 227928.0 227928.0 227928.0 227928.0 227928.0 227928.0
366994.0 374879.0 44010.0 42921.0 71739.0 63944.0 160415.0 160673.0 165612.0 159520.0 291292.0 287424.0 298656.0 300598.0 364372.0 364581.0 107517.0 114871.0 159790.0 161470.0 147448.0 142727.0 173290.0 180983.0 404284.0 403155.0 144832.0 152426.0 244941.0 237205.0 83016.0 89267.0 383144.0 389997.0 211487.0 210245.0 116901.0 121299.0 7871.0 0.0 107939.0 235656.0 107939.0 107939.0 107939.0 107939.0 107939.0 107939.0 107939.0 107939.0 235656.0 235656.0 235656.0 235656.0 235656.0 235656.0 235656.0 235656.0
289808.0 297692.0 64505.0 68264.0 40422.0 47048.0 159981.0 155476.0 105814.0 97865.0 284593.0 283373.0 224357.0 227389.0 287186.0 287395.0 111434.0 112936.0 170653.0 167380.0 169876.0 169977.0 135648.0 140215.0 327097.0 325969.0 165956.0 170149.0 249526.0 243402.0 125530.0 133371.0 305958.0 312811.0 138719.0 138832.0 92538.0 89435.0 101167.0 107939.0 0.0 158470.0 0.0 0.0 0.0 0.0 0.0 0.0 0.0 0.0 158470.0 158470.0 158470.0 158470.0 158470.0 158470.0 158470.0 158470.0
132322.0 140267.0 192835.0 192751.0 164826.0 172518.0 180349.0 172526.0 86491.0 87390.0 247775.0 250835.0 75676.0 80817.0 129679.0 129575.0 172222.0 166420.0 199028.0 191448.0 212006.0 217317.0 120401.0 115283.0 170417.0 168223.0 208560.0 206844.0 238506.0 236487.0 211398.0 216364.0 149265.0 156118.0 38758.0 43398.0 142547.0 134468.0 227928.0 235656.0 158470.0 0.0 158470.0 158470.0 158470.0 158470.0 158470.0 158470.0 158470.0 158470.0 0.0 0.0 0.0 0.0 0.0 0.0 0.0 0.0
289808.0 297692.0 64505.0 68264.0 40422.0 47048.0 159981.0 155476.0 105814.0 97865.0 284593.0 283373.0 224357.0 227389.0 287186.0 287395.0 111434.0 112936.0 170653.0 167380.0 169876.0 169977.0 135648.0 140215.0 327097.0 325969.0 165956.0 170149.0 249526.0 243402.0 125530.0 133371.0 305958.0 312811.0 138719.0 138832.0 92538.0 89435.0 101167.0 107939.0 0.0 158470.0 0.0 0.0 0.0 0.0 0.0 0.0 0.0 0.0 158470.0 158470.0 158470.0 158470.0 158470.0 158470.0 158470.0 158470.0
289808.0 297692.0 64505.0 68264.0 40422.0 47048.0 159981.0 155476.0 105814.0 97865.0 284593.0 283373.0 224357.0 227389.0 287186.0 287395.0 111434.0 112936.0 170653.0 167380.0 169876.0 169977.0 135648.0 140215.0 327097.0 325969.0 165956.0 170149.0 249526.0 243402.0 125530.0 133371.0 305958.0 312811.0 138719.0 138832.0 92538.0 89435.0 101167.0 107939.0 0.0 158470.0 0.0 0.0 0.0 0.0 0.0 0.0 0.0 0.0 158470.0 158470.0 158470.0 158470.0 158470.0 158470.0 158470.0 158470.0
289808.0 297692.0 64505.0 68264.0 40422.0 47048.0 159981.0 155476.0 105814.0 97865.0 284593.0 283373.0 224357.0 227389.0 287186.0 287395.0 111434.0 112936.0 170653.0 167380.0 169876.0 169977.0 135648.0 140215.0 327097.0 325969.0 165956.0 170149.0 249526.0 243402.0 125530.0 133371.0 305958.0 312811.0 138719.0 138832.0 92538.0 89435.0 101167.0 107939.0 0.0 158470.0 0.0 0.0 0.0 0.0 0.0 0.0 0.0 0.0 158470.0 158470.0 158470.0 158470.0 158470.0 158470.0 158470.0 158470.0
289808.0 297692.0 64505.0 68264.0 40422.0 47048.0 159981.0 155476.0 105814.0 97865.0 284593.0 283373.0 224357.0 227389.0 287186.0 287395.0 111434.0 112936.0 170653.0 167380.0 169876.0 169977.0 135648.0 140215.0 327097.0 325969.0 165956.0 170149.0 249526.0 243402.0 125530.0 133371.0 305958.0 312811.0 138719.0 138832.0 92538.0 89435.0 101167.0 107939.0 0.0 158470.0 0.0 0.0 0.0 0.0 0.0 0.0 0.0 0.0 158470.0 158470.0 158470.0 158470.0 158470.0 158470.0 158470.0 158470.0
289808.0 297692.0 64505.0 68264.0 40422.0 47048.0 159981.0 155476.0 105814.0 97865.0 284593.0 283373.0 224357.0 227389.0 287186.0 287395.0 111434.0 112936.0 170653.0 167380.0 169876.0 169977.0 135648.0 140215.0 327097.0 325969.0 165956.0 170149.0 249526.0 243402.0 125530.0 133371.0 305958.0 312811.0 138719.0 138832.0 92538.0 89435.0 101167.0 107939.0 0.0 158470.0 0.0 0.0 0.0 0.0 0.0 0.0 0.0 0.0 158470.0 158470.0 158470.0 158470.0 158470.0 158470.0 158470.0 158470.0
289808.0 297692.0 64505.0 68264.0 40422.0 47048.0 159981.0 155476.0 105814.0 97865.0 284593.0 283373.0 224357.0 227389.0 287186.0 287395.0 111434.0 112936.0 170653.0 167380.0 169876.0 169977.0 135648.0 140215.0 327097.0 325969.0 165956.0 170149.0 249526.0 243402.0 125530.0 133371.0 305958.0 312811.0 138719.0 138832.0 92538.0 89435.0 101167.0 107939.0 0.0 158470.0 0.0 0.0 0.0 0.0 0.0 0.0 0.0 0.0 158470.0 158470.0 158470.0 158470.0 158470.0 158470.0 158470.0 158470.0
289808.0 297692.0 64505.0 68264.0 40422.0 47048.0 159981.0 155476.0 105814.0 97865.0 284593.0 283373.0 224357.0 227389.0 287186.0 287395.0 111434.0 112936.0 170653.0 167380.0 169876.0 169977.0 135648.0 140215.0 327097.0 325969.0 165956.0 170149.0 249526.0 243402.0 125530.0 133371.0 305958.0 312811.0 138719.0 138832.0 92538.0 89435.0 101167.0 107939.0 0.0 158470.0 0.0 0.0 0.0 0.0 0.0 0.0 0.0 0.0 158470.0 158470.0 158470.0 158470.0 158470.0 158470.0 158470.0 158470.0
289808.0 297692.0 64505.0 68264.0 40422.0 47048.0 159981.0 155476.0 105814.0 97865.0 284593.0 283373.0 224357.0 227389.0 287186.0 287395.0 111434.0 112936.0 170653.0 167380.0 169876.0 169977.0 135648.0 140215.0 327097.0 325969.0 165956.0 170149.0 249526.0 243402.0 125530.0 133371.0 305958.0 312811.0 138719.0 138832.0 92538.0 89435.0 101167.0 107939.0 0.0 158470.0 0.0 0.0 0.0 0.0 0.0 0.0 0.0 0.0 158470.0 158470.0 158470.0 158470.0 158470.0 158470.0 158470.0 158470.0
132322.0 140267.0 192835.0 192751.0 164826.0 172518.0 180349.0 172526.0 86491.0 87390.0 247775.0 250835.0 75676.0 80817.0 129679.0 129575.0 172222.0 166420.0 199028.0 191448.0 212006.0 217317.0 120401.0 115283.0 170417.0 168223.0 208560.0 206844.0 238506.0 236487.0 211398.0 216364.0 149265.0 156118.0 38758.0 43398.0 142547.0 134468.0 227928.0 235656.0 158470.0 0.0 158470.0 158470.0 158470.0 158470.0 158470.0 158470.0 158470.0 158470.0 0.0 0.0 0.0 0.0 0.0 0.0 0.0 0.0
132322.0 140267.0 192835.0 192751.0 164826.0 172518.0 180349.0 172526.0 86491.0 87390.0 247775.0 250835.0 75676.0 80817.0 129679.0 129575.0 172222.0 166420.0 199028.0 191448.0 212006.0 217317.0 120401.0 115283.0 170417.0 168223.0 208560.0 206844.0 238506.0 236487.0 211398.0 216364.0 149265.0 156118.0 38758.0 43398.0 142547.0 134468.0 227928.0 235656.0 158470.0 0.0 158470.0 158470.0 158470.0 158470.0 158470.0 158470.0 158470.0 158470.0 0.0 0.0 0.0 0.0 0.0 0.0 0.0 0.0
132322.0 140267.0 192835.0 192751.0 164826.0 172518.0 180349.0 172526.0 86491.0 87390.0 247775.0 250835.0 75676.0 80817.0 129679.0 129575.0 172222.0 166420.0 199028.0 191448.0 212006.0 217317.0 120401.0 115283.0 170417.0 168223.0 208560.0 206844.0 238506.0 236487.0 211398.0 216364.0 149265.0 156118.0 38758.0 43398.0 142547.0 134468.0 227928.0 235656.0 158470.0 0.0 158470.0 158470.0 158470.0 158470.0 158470.0 158470.0 158470.0 158470.0 0.0 0.0 0.0 0.0 0.0 0.0 0.0 0.0
132322.0 140267.0 192835.0 192751.0 164826.0 172518.0 180349.0 172526.0 86491.0 87390.0 247775.0 250835.0 75676.0 80817.0 129679.0 129575.0 172222.0 166420.0 199028.0 191448.0 212006.0 217317.0 120401.0 115283.0 170417.0 168223.0 208560.0 206844.0 238506.0 236487.0 211398.0 216364.0 149265.0 156118.0 38758.0 43398.0 142547.0 134468.0 227928.0 235656.0 158470.0 0.0 158470.0 158470.0 158470.0 158470.0 158470.0 158470.0 158470.0 158470.0 0.0 0.0 0.0 0.0 0.0 0.0 0.0 0.0
132322.0 140267.0 192835.0 192751.0 164826.0 172518.0 180349.0 172526.0 86491.0 87390.0 247775.0 250835.0 75676.0 80817.0 129679.0 129575.0 172222.0 166420.0 199028.0 191448.0 212006.0 217317.0 120401.0 115283.0 170417.0 168223.0 208560.0 206844.0 238506.0 236487.0 211398.0 216364.0 149265.0 156118.0 38758.0 43398.0 142547.0 134468.0 227928.0 235656.0 158470.0 0.0 158470.0 158470.0 158470.0 158470.0 158470.0 158470.0 158470.0 158470.0 0.0 0.0 0.0 0.0 0.0 0.0 0.0 0.0
132322.0 140267.0 192835.0 192751.0 164826.0 172518.0 180349.0 172526.0 86491.0 87390.0 247775.0 250835.0 75676.0 80817.0 129679.0 129575.0 172222.0 166420.0 199028.0 191448.0 212006.0 217317.0 120401.0 115283.0 170417.0 168223.0 208560.0 206844.0 238506.0 236487.0 211398.0 216364.0 149265.0 156118.0 38758.0 43398.0 142547.0 134468.0 227928.0 235656.0 158470.0 0.0 158470.0 158470.0 158470.0 158470.0 158470.0 158470.0 158470.0 158470.0 0.0 0.0 0.0 0.0 0.0 0.0 0.0 0.0
132322.0 140267.0 192835.0 192751.0 164826.0 172518.0 180349.0 172526.0 86491.0 87390.0 247775.0 250835.0 75676.0 80817.0 129679.0 129575.0 172222.0 166420.0 199028.0 191448.0 212006.0 217317.0 120401.0 115283.0 170417.0 168223.0 208560.0 206844.0 238506.0 236487.0 211398.0 216364.0 149265.0 156118.0 38758.0 43398.0 142547.0 134468.0 227928.0 235656.0 158470.0 0.0 158470.0 158470.0 158470.0 158470.0 158470.0 158470.0 158470.0 158470.0 0.0 0.0 0.0 0.0 0.0 0.0 0.0 0.0
132322.0 140267.0 192835.0 192751.0 164826.0 172518.0 180349.0 172526.0 86491.0 87390.0 247775.0 250835.0 75676.0 80817.0 129679.0 129575.0 172222.0 166420.0 199028.0 191448.0 212006.0 217317.0 120401.0 115283.0 170417.0 168223.0 208560.0 206844.0 238506.0 236487.0 211398.0 216364.0 149265.0 156118.0 38758.0 43398.0 142547.0 134468.0 227928.0 235656.0 158470.0 0.0 158470.0 158470.0 158470.0 158470.0 158470.0 158470.0 158470.0 158470.0 0.0 0.0 0.0 0.0 0.0 0.0 0.0 0.0
FIXED_EDGES_SECTION
1 2
3 4
5 6
7 8
9 10
11 12
13 14
15 16
17 18
19 20
21 22
23 24
25 26
27 28
29 30
31 32
33 34
35 36
37 38
39 40
-1 
DEMAND_SECTION
1 99
2 99
3 247
4 247
5 618
6 618
7 82
8 82
9 373
10 373
11 120
12 120
13 620
14 620
15 60
16 60
17 583
18 583
19 479
20 479
21 224
22 224
23 279
24 279
25 491
26 491
27 211
28 211
29 380
30 380
31 55
32 55
33 280
34 280
35 399
36 399
37 171
38 171
39 316
40 316
41 0
42 0
43 0
44 0
45 0
46 0
47 0
48 0
49 0
50 0
51 0
52 0
53 0
54 0
55 0
56 0
57 0
58 0
DEPOT_SECTION
41 
-1 
CAPACITIES_SECTION
1250 
1375 
1500 
1625 
-1 
EOF