NAME: GFS_20_1
TYPE: GFSP
DIMENSION: 90
VEHICLES: 4
CAPACITY: 5000.0
TRIP_DIST_LIMIT: 750000.0
TOTAL_DIST_LIMIT: 1050000.0
EDGE_WEIGHT_TYPE: EXPLICIT
EDGE_WEIGHT_FORMAT: FULL_MATRIX
EDGE_WEIGHT_SECTION
0.0 7940.0 146606.0 141868.0 44697.0 51828.0 107353.0 100422.0 209248.0 215961.0 328265.0 330684.0 138236.0 132811.0 98046.0 90149.0 330586.0 337589.0 143987.0 139141.0 129357.0 125138.0 123338.0 115817.0 63177.0 57005.0 126862.0 124314.0 64488.0 58991.0 35929.0 43077.0 128743.0 124472.0 100378.0 92556.0 105919.0 106032.0 137624.0 137147.0 147227.0 151860.0 122033.0 115360.0 105322.0 99895.0 142516.0 147448.0 362073.0 354097.0 93817.0 87727.0 19238.0 12764.0 176928.0 168510.0 36514.0 31472.0 265554.0 257806.0 71080.0 65697.0 62453.0 54327.0 157451.0 155508.0 100183.0 102114.0 357670.0 357141.0 111299.0 104798.0 116348.0 124584.0 352752.0 344555.0 120429.0 121772.0 126726.0 128188.0 169876.0 212006.0 169876.0 169876.0 169876.0 169876.0 212006.0 212006.0 212006.0 212006.0
7940.0 0.0 153058.0 148110.0 52560.0 59574.0 110923.0 103738.0 214740.0 221565.0 334697.0 337016.0 137800.0 132729.0 103867.0 95883.0 337036.0 344092.0 142513.0 137320.0 135724.0 131233.0 129984.0 122551.0 67406.0 60705.0 132245.0 129340.0 59751.0 53659.0 43350.0 50243.0 126416.0 122579.0 96724.0 89138.0 112287.0 112731.0 136628.0 135705.0 145596.0 150539.0 117684.0 110749.0 104215.0 99285.0 138079.0 142727.0 368861.0 360895.0 98348.0 92636.0 24197.0 16450.0 183908.0 175503.0 43685.0 39119.0 272533.0 264789.0 67826.0 63135.0 55272.0 47164.0 163890.0 162164.0 105907.0 108232.0 364036.0 363401.0 116008.0 109245.0 122757.0 131064.0 359579.0 351373.0 126645.0 127640.0 131566.0 132633.0 169977.0 217317.0 169977.0 169977.0 169977.0 169977.0 217317.0 217317.0 217317.0 217317.0
146606.0 153058.0 0.0 8088.0 109123.0 100910.0 198490.0 196587.0 241626.0 244402.0 317559.0 322836.0 259559.0 252105.0 51266.0 59230.0 319055.0 323646.0 272011.0 269695.0 167152.0 170995.0 157321.0 151810.0 166895.0 168189.0 34815.0 42858.0 209770.0 205151.0 132057.0 133623.0 262862.0 256500.0 241768.0 233477.0 40799.0 41079.0 262985.0 265488.0 276038.0 278273.0 265113.0 259348.0 234655.0 227007.0 285506.0 291292.0 336153.0 328539.0 179092.0 171316.0 150048.0 152209.0 177115.0 171309.0 110635.0 117320.0 244184.0 237610.0 212671.0 205587.0 207952.0 199936.0 181445.0 174232.0 165592.0 159551.0 346150.0 348893.0 186817.0 186426.0 159802.0 162051.0 326258.0 319152.0 166019.0 173782.0 194437.0 201279.0 284593.0 247775.0 284593.0 284593.0 284593.0 284593.0 247775.0 247775.0 247775.0 247775.0
141868.0 148110.0 8088.0 0.0 105813.0 97687.0 197925.0 195707.0 244800.0 247801.0 323215.0 328395.0 257780.0 250420.0 45137.0 53206.0 324751.0 329457.0 269793.0 267256.0 168882.0 172371.0 159005.0 153213.0 164973.0 165894.0 26743.0 34774.0 205488.0 200649.0 129033.0 131040.0 260080.0 253872.0 238151.0 229886.0 36042.0 37756.0 260928.0 263211.0 273774.0 276214.0 261327.0 255404.0 232118.0 224578.0 281773.0 287424.0 342466.0 334815.0 178480.0 170611.0 146192.0 147989.0 181092.0 175045.0 106284.0 113228.0 249904.0 243235.0 208916.0 201968.0 202738.0 194767.0 184239.0 177170.0 165741.0 159971.0 351943.0 354564.0 186907.0 186171.0 161019.0 163668.0 332561.0 325391.0 167285.0 174884.0 195101.0 201765.0 283373.0 250835.0 283373.0 283373.0 283373.0 283373.0 250835.0 250835.0 250835.0 250835.0
44697.0 52560.0 109123.0 105813.0 0.0 8262.0 104144.0 99553.0 187699.0 193451.0 298308.0 301466.0 154854.0 147962.0 67066.0 60613.0 300475.0 307034.0 165298.0 162230.0 103696.0 102056.0 95504.0 87621.0 63304.0 62234.0 96950.0 96889.0 102234.0 98647.0 23531.0 27405.0 154491.0 148517.0 132698.0 124395.0 70413.0 68160.0 156964.0 158588.0 169143.0 172156.0 156177.0 150652.0 126993.0 119743.0 176502.0 182435.0 329211.0 321194.0 85814.0 77901.0 41764.0 45604.0 144187.0 135830.0 15831.0 14420.0 231716.0 223998.0 103766.0 96543.0 106259.0 98182.0 129947.0 126207.0 82336.0 80709.0 328029.0 328286.0 100042.0 96044.0 91124.0 98196.0 319626.0 311534.0 96635.0 100798.0 113255.0 117387.0 182844.0 191700.0 182844.0 182844.0 182844.0 182844.0 191700.0 191700.0 191700.0 191700.0
51828.0 59574.0 100910.0 97687.0 8262.0 0.0 109747.0 105531.0 189294.0 194806.0 297547.0 300890.0 162236.0 155247.0 59734.0 53630.0 299670.0 306101.0 173009.0 170065.0 105088.0 104096.0 96469.0 88638.0 70138.0 69576.0 89483.0 89758.0 110421.0 106736.0 31411.0 34453.0 162492.0 156438.0 140944.0 132639.0 62447.0 59992.0 164555.0 166324.0 176886.0 179777.0 164436.0 158914.0 134840.0 127507.0 184756.0 190696.0 327615.0 319597.0 91035.0 83021.0 49967.0 53570.0 143206.0 134931.0 18776.0 20534.0 230025.0 222337.0 112027.0 104795.0 113847.0 105747.0 130545.0 126365.0 85907.0 83567.0 327300.0 327758.0 104473.0 100953.0 92846.0 99494.0 317968.0 309918.0 98600.0 103335.0 117099.0 121648.0 189830.0 193544.0 189830.0 189830.0 189830.0 189830.0 193544.0 193544.0 193544.0 193544.0
107353.0 110923.0 198490.0 197925.0 104144.0 109747.0 0.0 7992.0 112321.0 120020.0 239896.0 240767.0 69544.0 61562.0 167883.0 162701.0 242450.0 250136.0 87178.0 88874.0 60054.0 51647.0 63540.0 62300.0 44616.0 50353.0 196457.0 198020.0 98446.0 103263.0 84259.0 77721.0 89873.0 81683.0 94961.0 89546.0 167011.0 161952.0 76680.0 82453.0 91461.0 90419.0 114768.0 114862.0 63998.0 56760.0 128874.0 136702.0 279026.0 271417.0 19458.0 27438.0 88207.0 94912.0 110133.0 103663.0 115257.0 107908.0 189928.0 182719.0 84738.0 78855.0 125317.0 121297.0 81307.0 84767.0 36260.0 44138.0 267763.0 265887.0 19278.0 14001.0 54539.0 60071.0 270668.0 262504.0 51886.0 45145.0 30051.0 26176.0 88120.0 113104.0 88120.0 88120.0 88120.0 88120.0 113104.0 113104.0 113104.0 113104.0
100422.0 103738.0 196587.0 195707.0 99553.0 105531.0 7992.0 0.0 120263.0 127944.0 247703.0 248622.0 67481.0 59491.0 164304.0 158857.0 250252.0 257921.0 84264.0 85291.0 65064.0 56754.0 67580.0 65492.0 38339.0 43471.0 193216.0 194484.0 90527.0 95289.0 78855.0 72671.0 85209.0 77062.0 88156.0 82464.0 164044.0 159276.0 73869.0 79120.0 88571.0 88168.0 108562.0 108301.0 58303.0 50720.0 123333.0 131117.0 286675.0 279045.0 18449.0 25504.0 81375.0 87877.0 116164.0 109437.0 109985.0 102474.0 197081.0 189819.0 76958.0 70967.0 117326.0 113311.0 87677.0 90711.0 38159.0 46205.0 275633.0 273774.0 24796.0 17781.0 58256.0 64496.0 278271.0 270098.0 56337.0 50288.0 37350.0 34022.0 88461.0 121085.0 88461.0 88461.0 88461.0 88461.0 121085.0 121085.0 121085.0 121085.0
209248.0 214740.0 241626.0 244800.0 187699.0 189294.0 112321.0 120263.0 0.0 7995.0 128674.0 128981.0 155235.0 149501.0 233256.0 231403.0 131290.0 139160.0 174093.0 179524.0 84213.0 85801.0 93134.0 100833.0 148659.0 156320.0 255101.0 259800.0 210763.0 215511.0 177042.0 169203.0 186669.0 179188.0 202911.0 198919.0 226040.0 218583.0 164956.0 172648.0 177522.0 172664.0 218777.0 220912.0 168653.0 163424.0 228058.0 235786.0 169769.0 162536.0 118066.0 122581.0 190558.0 198328.0 68158.0 71795.0 202868.0 197723.0 93181.0 87963.0 196802.0 191146.0 237358.0 232923.0 61315.0 67839.0 109139.0 108227.0 155801.0 153863.0 100373.0 108040.0 96579.0 89830.0 162168.0 154244.0 91131.0 87993.0 84777.0 86323.0 158600.0 7151.0 158600.0 158600.0 158600.0 158600.0 7151.0 7151.0 7151.0 7151.0
215961.0 221565.0 244402.0 247801.0 193451.0 194806.0 120020.0 127944.0 7995.0 0.0 120714.0 121080.0 163227.0 157493.0 237550.0 235922.0 123327.0 131188.0 182084.0 187515.0 89776.0 91875.0 98401.0 106188.0 155784.0 163497.0 258809.0 263687.0 218466.0 223144.0 183389.0 175545.0 194661.0 187173.0 210872.0 206850.0 229985.0 222439.0 172947.0 180639.0 185513.0 180656.0 226771.0 228899.0 176633.0 171381.0 236050.0 243778.0 161775.0 154548.0 125334.0 129655.0 197371.0 205178.0 69096.0 73559.0 208741.0 203758.0 86271.0 81340.0 204580.0 198868.0 244926.0 240415.0 65563.0 71586.0 115783.0 114538.0 147938.0 145999.0 107708.0 115436.0 102370.0 95329.0 154187.0 146271.0 97110.0 94404.0 92178.0 93961.0 166591.0 11757.0 166591.0 166591.0 166591.0 166591.0 11757.0 11757.0 11757.0 11757.0
328265.0 334697.0 317559.0 323215.0 298308.0 297547.0 239896.0 247703.0 128674.0 120714.0 0.0 7469.0 283821.0 278087.0 327059.0 327744.0 2678.0 10717.0 302679.0 308109.0 198974.0 203807.0 205066.0 212741.0 272044.0 280003.0 341256.0 347795.0 338063.0 342297.0 293421.0 285749.0 315255.0 307774.0 331585.0 327534.0 316347.0 308320.0 293541.0 301234.0 306107.0 301250.0 347375.0 349497.0 297295.0 292095.0 356644.0 364372.0 44180.0 38769.0 242910.0 246025.0 310758.0 318738.0 154361.0 162617.0 314135.0 310689.0 73415.0 79983.0 324634.0 318621.0 363575.0 358541.0 170819.0 173031.0 229897.0 226647.0 29764.0 31355.0 225907.0 233850.0 211945.0 203681.0 39744.0 34295.0 208159.0 208051.0 210925.0 213720.0 287186.0 129679.0 287186.0 287186.0 287186.0 287186.0 129679.0 129679.0 129679.0 129679.0
330684.0 337016.0 322836.0 328395.0 301466.0 300890.0 240767.0 248622.0 128981.0 121080.0 7469.0 0.0 284030.0 278296.0 331452.0 331987.0 8434.0 14253.0 302888.0 308318.0 201329.0 205916.0 207687.0 215419.0 273790.0 281720.0 346107.0 352566.0 339094.0 343477.0 296047.0 288338.0 315464.0 307983.0 331771.0 327887.0 320907.0 312886.0 293750.0 301443.0 306316.0 301459.0 347584.0 349747.0 297509.0 292319.0 356853.0 364581.0 47731.0 43234.0 244366.0 247702.0 313005.0 320974.0 157845.0 166022.0 317281.0 313679.0 78967.0 85255.0 325473.0 319585.0 364912.0 360008.0 173270.0 175787.0 231858.0 228840.0 27124.0 26905.0 227205.0 235117.0 214338.0 206144.0 44580.0 40002.0 210384.0 209986.0 212074.0 214605.0 287395.0 129575.0 287395.0 287395.0 287395.0 287395.0 129575.0 129575.0 129575.0 129575.0
138236.0 137800.0 259559.0 257780.0 154854.0 162236.0 69544.0 67481.0 155235.0 163227.0 283821.0 284030.0 0.0 8000.0 221902.0 215415.0 286443.0 294328.0 19247.0 24339.0 128055.0 119697.0 132661.0 131823.0 92829.0 92662.0 251718.0 251715.0 92809.0 100765.0 131534.0 127802.0 33760.0 28234.0 62932.0 64129.0 224045.0 220348.0 9783.0 17574.0 23163.0 20893.0 69152.0 73949.0 34802.0 38536.0 74009.0 81486.0 324994.0 317770.0 85830.0 92160.0 122910.0 126122.0 174069.0 168749.0 160947.0 152943.0 244231.0 237746.0 77378.0 78026.0 121595.0 122064.0 144670.0 149737.0 105405.0 113410.0 310805.0 308865.0 88127.0 83522.0 123921.0 128870.0 317399.0 309464.0 120770.0 113325.0 93285.0 85906.0 33292.0 155105.0 33292.0 33292.0 33292.0 33292.0 155105.0 155105.0 155105.0 155105.0
132811.0 132729.0 252105.0 250420.0 147962.0 155247.0 61562.0 59491.0 149501.0 157493.0 278087.0 278296.0 8000.0 0.0 214960.0 208565.0 280709.0 288594.0 26463.0 30377.0 120238.0 111867.0 124745.0 123851.0 85565.0 85729.0 244723.0 244851.0 90303.0 98094.0 124747.0 120795.0 37602.0 30861.0 63128.0 63278.0 216867.0 213059.0 16165.0 23438.0 30581.0 28857.0 72026.0 76098.0 31912.0 34071.0 78764.0 86413.0 319260.0 312036.0 77854.0 84234.0 116986.0 120529.0 166669.0 161237.0 154468.0 146469.0 237884.0 231315.0 74554.0 74427.0 119490.0 119445.0 137259.0 142204.0 97405.0 105410.0 305071.0 303131.0 80200.0 75534.0 115972.0 120984.0 311665.0 303730.0 112872.0 105477.0 85658.0 78379.0 35337.0 149371.0 35337.0 35337.0 35337.0 35337.0 149371.0 149371.0 149371.0 149371.0
98046.0 103867.0 51266.0 45137.0 67066.0 59734.0 167883.0 164304.0 233256.0 237550.0 327059.0 331452.0 221902.0 214960.0 0.0 8092.0 328881.0 334431.0 232236.0 228962.0 151233.0 152670.0 141519.0 134464.0 129826.0 129249.0 29957.0 30184.0 162315.0 157036.0 90517.0 94179.0 220705.0 215035.0 196455.0 188297.0 13938.0 20806.0 224004.0 225496.0 236035.0 239176.0 219114.0 212827.0 193737.0 186639.0 239628.0 244941.0 351420.0 343523.0 148676.0 140599.0 104532.0 105311.0 176193.0 168853.0 63868.0 71436.0 255256.0 247987.0 166997.0 160460.0 158004.0 150094.0 172032.0 166062.0 139959.0 135767.0 356563.0 358214.0 160189.0 157826.0 140920.0 145616.0 341524.0 333880.0 147193.0 153637.0 170996.0 176608.0 249526.0 238506.0 249526.0 249526.0 249526.0 249526.0 238506.0 238506.0 238506.0 238506.0
90149.0 95883.0 59230.0 53206.0 60613.0 53630.0 162701.0 158857.0 231403.0 235922.0 327744.0 331987.0 215415.0 208565.0 8092.0 0.0 329614.0 335303.0 225412.0 222002.0 148656.0 149672.0 139058.0 131816.0 123742.0 122840.0 37176.0 36304.0 154493.0 149137.0 83892.0 87929.0 213549.0 207987.0 188882.0 180751.0 20347.0 25733.0 217312.0 218650.0 229173.0 232443.0 211435.0 205087.0 186804.0 179804.0 231952.0 237205.0 352968.0 345042.0 143635.0 135561.0 97095.0 97646.0 175863.0 168336.0 56409.0 64101.0 256394.0 249042.0 159406.0 152957.0 149933.0 142031.0 170360.0 164641.0 135815.0 131985.0 357332.0 358807.0 155722.0 153038.0 137938.0 143005.0 343091.0 335377.0 144160.0 150323.0 167001.0 172374.0 243402.0 236487.0 243402.0 243402.0 243402.0 243402.0 236487.0 236487.0 236487.0 236487.0
330586.0 337036.0 319055.0 324751.0 300475.0 299670.0 242450.0 250252.0 131290.0 123327.0 2678.0 8434.0 286443.0 280709.0 328881.0 329614.0 0.0 8039.0 305301.0 310731.0 201317.0 206193.0 207357.0 215021.0 274483.0 282445.0 342918.0 349486.0 340596.0 344810.0 295703.0 288039.0 317877.0 310397.0 334199.0 330135.0 318115.0 310087.0 296163.0 303856.0 308729.0 303872.0 349997.0 352128.0 299920.0 294708.0 359266.0 366994.0 41568.0 36274.0 245393.0 248476.0 313111.0 321093.0 156469.0 164743.0 316303.0 312893.0 74872.0 81556.0 327188.0 321162.0 366068.0 361016.0 173149.0 175301.0 232304.0 229016.0 27746.0 29861.0 228411.0 236358.0 214280.0 206004.0 37325.0 32114.0 210524.0 210465.0 213450.0 216275.0 289808.0 132322.0 289808.0 289808.0 289808.0 289808.0 132322.0 132322.0 132322.0 132322.0
337589.0 344092.0 323646.0 329457.0 307034.0 306101.0 250136.0 257921.0 139160.0 131188.0 10717.0 14253.0 294328.0 288594.0 334431.0 335303.0 8039.0 0.0 313185.0 318616.0 208405.0 213402.0 214296.0 221923.0 281833.0 289807.0 347994.0 354645.0 348213.0 352375.0 302599.0 294959.0 325762.0 318281.0 342055.0 337953.0 323506.0 315476.0 304048.0 311740.0 316614.0 311757.0 357749.0 360033.0 307806.0 302559.0 367151.0 374879.0 33796.0 28991.0 252872.0 255865.0 320211.0 328197.0 162907.0 171224.0 322865.0 319559.0 79640.0 86612.0 334870.0 328804.0 373571.0 368468.0 180208.0 182187.0 239572.0 236173.0 22520.0 26510.0 235956.0 243912.0 221340.0 213032.0 30334.0 26140.0 217674.0 217754.0 221053.0 223963.0 297692.0 140267.0 297692.0 297692.0 297692.0 297692.0 140267.0 140267.0 140267.0 140267.0
143987.0 142513.0 272011.0 269793.0 165298.0 173009.0 87178.0 84264.0 174093.0 182084.0 302679.0 302888.0 19247.0 26463.0 232236.0 225412.0 305301.0 313185.0 0.0 8039.0 146443.0 138050.0 150650.0 149404.0 105294.0 103898.0 262179.0 261661.0 91554.0 99706.0 141774.0 138886.0 21669.0 20999.0 56489.0 60108.0 235333.0 232127.0 10515.0 6852.0 4308.0 8458.0 56256.0 62449.0 38925.0 45608.0 57273.0 64357.0 343852.0 336628.0 102270.0 108021.0 130370.0 132527.0 193126.0 187697.0 169868.0 161903.0 263359.0 256908.0 77480.0 80062.0 118678.0 120421.0 163717.0 168661.0 122420.0 130465.0 329663.0 327723.0 106124.0 101020.0 141716.0 147009.0 336257.0 328322.0 138860.0 131623.0 112091.0 104840.0 44275.0 173963.0 44275.0 44275.0 44275.0 44275.0 173963.0 173963.0 173963.0 173963.0
139141.0 137320.0 269695.0 267256.0 162230.0 170065.0 88874.0 85291.0 179524.0 187515.0 308109.0 308318.0 24339.0 30377.0 228962.0 222002.0 310731.0 318616.0 8039.0 0.0 148664.0 140248.0 152398.0 150747.0 103511.0 101527.0 258918.0 258174.0 84910.0 93060.0 138707.0 136217.0 13805.0 14763.0 49012.0 53097.0 232492.0 229527.0 14574.0 6940.0 8891.0 15949.0 48248.0 54411.0 35239.0 42689.0 50130.0 57431.0 349283.0 342059.0 102887.0 108189.0 126212.0 127964.0 196396.0 190723.0 166130.0 158207.0 268240.0 261685.0 71317.0 74442.0 111535.0 113547.0 166996.0 171663.0 123365.0 131407.0 335094.0 333154.0 108046.0 102494.0 143289.0 148933.0 341688.0 333753.0 140752.0 133775.0 115006.0 108009.0 52073.0 179394.0 52073.0 52073.0 52073.0 52073.0 179394.0 179394.0 179394.0 179394.0
129357.0 135724.0 167152.0 168882.0 103696.0 105088.0 60054.0 65064.0 84213.0 89776.0 198974.0 201329.0 128055.0 120238.0 151233.0 148656.0 201317.0 208405.0 146443.0 148664.0 0.0 8419.0 9904.0 16862.0 75421.0 83416.0 175296.0 179171.0 146330.0 148912.0 95054.0 87265.0 149907.0 141721.0 151868.0 145429.0 145476.0 138517.0 135934.0 142105.0 150672.0 148867.0 173229.0 172420.0 123361.0 115693.0 188391.0 196167.0 233873.0 225962.0 51451.0 51208.0 111805.0 119791.0 52769.0 45272.0 119067.0 114335.0 139159.0 131528.0 135688.0 128385.0 168445.0 162516.0 28224.0 27871.0 32932.0 28020.0 228326.0 227796.0 40777.0 47290.0 13041.0 5674.0 224784.0 216553.0 9856.0 14913.0 36012.0 44036.0 141771.0 88619.0 141771.0 141771.0 141771.0 141771.0 88619.0 88619.0 88619.0 88619.0
125138.0 131233.0 170995.0 172371.0 102056.0 104096.0 51647.0 56754.0 85801.0 91875.0 203807.0 205916.0 119697.0 111867.0 152670.0 149672.0 206193.0 213402.0 138050.0 140248.0 8419.0 0.0 14951.0 19185.0 69095.0 77116.0 177596.0 181141.0 139275.0 142112.0 91652.0 83812.0 141510.0 133322.0 143859.0 137521.0 147620.0 140900.0 127539.0 133693.0 142282.0 140523.0 165058.0 164356.0 115056.0 107429.0 180086.0 187870.0 239507.0 231634.0 43692.0 44114.0 107141.0 115095.0 60333.0 53101.0 117102.0 111928.0 145595.0 138022.0 128265.0 121073.0 162018.0 156283.0 34038.0 35031.0 26402.0 23024.0 232984.0 232211.0 32372.0 38998.0 11750.0 10180.0 230529.0 222294.0 5542.0 6503.0 28216.0 36262.0 133739.0 89649.0 133739.0 133739.0 133739.0 133739.0 89649.0 89649.0 89649.0 89649.0
123338.0 129984.0 157321.0 159005.0 95504.0 96469.0 63540.0 67580.0 93134.0 98401.0 205066.0 207687.0 132661.0 124745.0 141519.0 139058.0 207357.0 214296.0 150650.0 152398.0 9904.0 14951.0 0.0 7886.0 72630.0 80486.0 165425.0 169342.0 144416.0 146482.0 88367.0 80683.0 152789.0 144641.0 152476.0 145701.0 135629.0 128644.0 140140.0 145993.0 154920.0 153548.0 174461.0 173187.0 125461.0 117570.0 190346.0 198050.0 238926.0 230972.0 52086.0 50294.0 106369.0 114354.0 55172.0 47070.0 111055.0 106677.0 143187.0 135482.0 134634.0 127100.0 165288.0 159051.0 34643.0 32180.0 31813.0 25090.0 234575.0 234306.0 44550.0 49980.0 9599.0 4886.0 229697.0 221480.0 12021.0 20213.0 42895.0 50909.0 147836.0 97785.0 147836.0 147836.0 147836.0 147836.0 97785.0 97785.0 97785.0 97785.0
115817.0 122551.0 151810.0 153213.0 87621.0 88638.0 62300.0 65492.0 100833.0 106188.0 212741.0 215419.0 131823.0 123851.0 134464.0 131816.0 215021.0 221923.0 149404.0 150747.0 16862.0 19185.0 7886.0 0.0 66773.0 74495.0 158837.0 162571.0 138787.0 140555.0 80683.0 73038.0 150443.0 142350.0 148443.0 141454.0 128936.0 122087.0 138926.0 144489.0 153698.0 152708.0 170819.0 169218.0 122599.0 114573.0 187203.0 194842.0 246311.0 238346.0 48845.0 45967.0 99073.0 107046.0 61903.0 53643.0 103169.0 98807.0 150270.0 142548.0 129549.0 121892.0 158942.0 152558.0 42499.0 39737.0 28032.0 20407.0 242281.0 242063.0 44011.0 48387.0 8694.0 11195.0 237039.0 228830.0 14403.0 22673.0 45143.0 52941.0 148365.0 105378.0 148365.0 148365.0 148365.0 148365.0 105378.0 105378.0 105378.0 105378.0
63177.0 67406.0 166895.0 164973.0 63304.0 70138.0 44616.0 38339.0 148659.0 155784.0 272044.0 273790.0 92829.0 85565.0 129826.0 123742.0 274483.0 281833.0 105294.0 103511.0 75421.0 69095.0 72630.0 66773.0 0.0 8022.0 159419.0 159893.0 72048.0 73855.0 41194.0 35901.0 98322.0 91207.0 86395.0 78599.0 131316.0 127520.0 96106.0 98891.0 109390.0 111392.0 110090.0 106980.0 69241.0 61178.0 128651.0 135763.0 308490.0 300639.0 31028.0 26175.0 43941.0 51065.0 127604.0 119637.0 72287.0 64589.0 214547.0 206932.0 63767.0 55865.0 93024.0 87189.0 103110.0 103263.0 42700.0 47750.0 300912.0 299730.0 48804.0 41852.0 63615.0 72003.0 299566.0 291332.0 65608.0 64211.0 64470.0 65230.0 119700.0 150783.0 119700.0 119700.0 119700.0 119700.0 150783.0 150783.0 150783.0 150783.0
57005.0 60705.0 168189.0 165894.0 62234.0 69576.0 50353.0 43471.0 156320.0 163497.0 280003.0 281720.0 92662.0 85729.0 129249.0 122840.0 282445.0 289807.0 103898.0 101527.0 83416.0 77116.0 80486.0 74495.0 8022.0 0.0 159056.0 159122.0 64525.0 66061.0 39137.0 35164.0 95374.0 88610.0 80965.0 72978.0 131587.0 128236.0 95145.0 97325.0 107885.0 110411.0 104854.0 101323.0 66647.0 58858.0 123858.0 130796.0 316506.0 308656.0 38386.0 34033.0 37907.0 44575.0 135522.0 127526.0 69634.0 61738.0 222554.0 214936.0 57023.0 49030.0 85031.0 79169.0 111129.0 111247.0 50720.0 55684.0 308843.0 307627.0 56199.0 48990.0 71539.0 79946.0 307585.0 299351.0 73610.0 72221.0 71895.0 72248.0 120848.0 158330.0 120848.0 120848.0 120848.0 120848.0 158330.0 158330.0 158330.0 158330.0
126862.0 132245.0 34815.0 26743.0 96950.0 89483.0 196457.0 193216.0 255101.0 258809.0 341256.0 346107.0 251718.0 244723.0 29957.0 37176.0 342918.0 347994.0 262179.0 258918.0 175296.0 177596.0 165425.0 158837.0 159419.0 159056.0 0.0 8111.0 191327.0 185767.0 120434.0 123930.0 250630.0 244985.0 226022.0 217903.0 30066.0 36784.0 253912.0 255443.0 265985.0 269096.0 248483.0 242055.0 223693.0 216586.0 269001.0 274172.0 362649.0 354886.0 177111.0 169055.0 134271.0 134741.0 194461.0 187719.0 93584.0 101253.0 268367.0 261416.0 196538.0 190125.0 185364.0 177608.0 193841.0 187310.0 167083.0 162300.0 370377.0 372589.0 187741.0 185876.0 165912.0 169801.0 352728.0 345356.0 172235.0 179186.0 197715.0 203718.0 279075.0 260732.0 279075.0 279075.0 279075.0 279075.0 260732.0 260732.0 260732.0 260732.0
124314.0 129340.0 42858.0 34774.0 96889.0 89758.0 198020.0 194484.0 259800.0 263687.0 347795.0 352566.0 251715.0 244851.0 30184.0 36304.0 349486.0 354645.0 261661.0 258174.0 179171.0 181141.0 169342.0 162571.0 159893.0 159122.0 8111.0 0.0 188784.0 182986.0 120196.0 124151.0 249539.0 244091.0 224090.0 216042.0 33796.0 41251.0 253603.0 254889.0 265403.0 268723.0 246258.0 239669.0 223002.0 216055.0 266764.0 271762.0 369669.0 361884.0 178780.0 170705.0 132786.0 132782.0 200049.0 193154.0 92219.0 100052.0 275049.0 268040.0 194603.0 188394.0 181668.0 174016.0 198490.0 192115.0 169589.0 165111.0 376995.0 379109.0 190014.0 187827.0 169415.0 173622.0 359748.0 352334.0 175727.0 182472.0 200462.0 206257.0 279587.0 265317.0 279587.0 279587.0 279587.0 279587.0 265317.0 265317.0 265317.0 265317.0
64488.0 59751.0 209770.0 205488.0 102234.0 110421.0 98446.0 90527.0 210763.0 218466.0 338063.0 339094.0 92809.0 90303.0 162315.0 154493.0 340596.0 348213.0 91554.0 84910.0 146330.0 139275.0 144416.0 138787.0 72048.0 64525.0 191327.0 188784.0 0.0 8154.0 82275.0 84581.0 72166.0 70561.0 38573.0 32230.0 169446.0 168780.0 88493.0 85241.0 93744.0 99999.0 58008.0 50999.0 58403.0 57545.0 78344.0 83016.0 376438.0 368721.0 96387.0 95181.0 60473.0 57563.0 198996.0 191203.0 99207.0 92475.0 284592.0 277094.0 16000.0 19698.0 29522.0 29260.0 173112.0 174148.0 113427.0 119357.0 366126.0 364291.0 112483.0 104497.0 135182.0 143419.0 367838.0 359630.0 136481.0 133682.0 127164.0 124540.0 125530.0 211398.0 125530.0 125530.0 125530.0 125530.0 211398.0 211398.0 211398.0 211398.0
58991.0 53659.0 205151.0 200649.0 98647.0 106736.0 103263.0 95289.0 215511.0 223144.0 342297.0 343477.0 100765.0 98094.0 157036.0 149137.0 344810.0 352375.0 99706.0 93060.0 148912.0 142112.0 146482.0 140555.0 73855.0 66061.0 185767.0 182986.0 8154.0 0.0 79803.0 82814.0 80285.0 78714.0 46404.0 40303.0 164631.0 164286.0 96581.0 93385.0 101896.0 108150.0 64863.0 57527.0 66235.0 65007.0 84980.0 89267.0 380231.0 372473.0 99846.0 98027.0 57127.0 53303.0 201375.0 193460.0 94522.0 88122.0 287666.0 280117.0 23552.0 25682.0 22637.0 21351.0 176089.0 176780.0 115986.0 121541.0 370547.0 368768.0 116427.0 108464.0 137409.0 145746.0 371536.0 363317.0 139057.0 136710.0 131405.0 129191.0 133371.0 216364.0 133371.0 133371.0 133371.0 133371.0 216364.0 216364.0 216364.0 216364.0
35929.0 43350.0 132057.0 129033.0 23531.0 31411.0 84259.0 78855.0 177042.0 183389.0 293421.0 296047.0 131534.0 124747.0 90517.0 83892.0 295703.0 302599.0 141774.0 138707.0 95054.0 91652.0 88367.0 80683.0 41194.0 39137.0 120434.0 120196.0 82275.0 79803.0 0.0 7844.0 131087.0 125033.0 110358.0 102036.0 93853.0 91295.0 133487.0 135060.0 145614.0 148662.0 134088.0 128943.0 103472.0 96213.0 154244.0 160415.0 326592.0 318604.0 67206.0 59789.0 23636.0 30310.0 141254.0 132825.0 31152.0 23651.0 229846.0 222096.0 81951.0 74423.0 90959.0 83200.0 122833.0 120413.0 68368.0 68851.0 322942.0 322639.0 83168.0 78010.0 82021.0 90013.0 317217.0 309034.0 86626.0 89048.0 97648.0 100629.0 159981.0 180349.0 159981.0 159981.0 159981.0 159981.0 180349.0 180349.0 180349.0 180349.0
43077.0 50243.0 133623.0 131040.0 27405.0 34453.0 77721.0 72671.0 169203.0 175545.0 285749.0 288338.0 127802.0 120795.0 94179.0 87929.0 288039.0 294959.0 138886.0 136217.0 87265.0 83812.0 80683.0 73038.0 35901.0 35164.0 123930.0 124151.0 84581.0 82814.0 7844.0 0.0 129258.0 122886.0 110439.0 102136.0 96468.0 93311.0 130267.0 132254.0 142821.0 145518.0 134350.0 129597.0 101084.0 93549.0 154267.0 160673.0 319110.0 311126.0 60182.0 52598.0 28748.0 36135.0 133868.0 125447.0 37594.0 30540.0 222489.0 214740.0 82777.0 75005.0 95488.0 87919.0 115096.0 112775.0 60594.0 61008.0 315249.0 314910.0 75786.0 70866.0 74228.0 82255.0 309759.0 301569.0 78796.0 81209.0 90093.0 93262.0 155476.0 172526.0 155476.0 155476.0 155476.0 155476.0 172526.0 172526.0 172526.0 172526.0
128743.0 126416.0 262862.0 260080.0 154491.0 162492.0 89873.0 85209.0 186669.0 194661.0 315255.0 315464.0 33760.0 37602.0 220705.0 213549.0 317877.0 325762.0 21669.0 13805.0 149907.0 141510.0 152789.0 150443.0 98322.0 95374.0 250630.0 249539.0 72166.0 80285.0 131087.0 129258.0 0.0 8193.0 35402.0 40038.0 224904.0 222325.0 24611.0 17546.0 22537.0 29754.0 35632.0 41171.0 29186.0 37413.0 41398.0 49167.0 356310.0 349150.0 101796.0 106255.0 116930.0 118044.0 199274.0 193181.0 157324.0 149496.0 273941.0 267199.0 59345.0 63281.0 98148.0 100446.0 170015.0 174162.0 122594.0 130557.0 342239.0 340299.0 109139.0 102886.0 143437.0 149652.0 348813.0 340894.0 141473.0 135007.0 117756.0 111281.0 64593.0 186539.0 64593.0 64593.0 64593.0 64593.0 186539.0 186539.0 186539.0 186539.0
124472.0 122579.0 256500.0 253872.0 148517.0 156438.0 81683.0 77062.0 179188.0 187173.0 307774.0 307983.0 28234.0 30861.0 215035.0 207987.0 310397.0 318281.0 20999.0 14763.0 141721.0 133322.0 144641.0 142350.0 91207.0 88610.0 244985.0 244091.0 70561.0 78714.0 125033.0 122886.0 8193.0 0.0 36164.0 39195.0 218885.0 216119.0 20220.0 14953.0 23343.0 29454.0 41209.0 45721.0 21990.0 30049.0 49089.0 56916.0 348915.0 341719.0 93760.0 98345.0 111831.0 113396.0 191100.0 184994.0 151947.0 144058.0 266058.0 259285.0 56662.0 59679.0 97782.0 99429.0 161852.0 165977.0 114537.0 122514.0 334759.0 332819.0 100950.0 94722.0 135304.0 141485.0 341353.0 333412.0 133305.0 126819.0 109592.0 103155.0 60608.0 179059.0 60608.0 60608.0 60608.0 60608.0 179059.0 179059.0 179059.0 179059.0
100378.0 96724.0 241768.0 238151.0 132698.0 140944.0 94961.0 88156.0 202911.0 210872.0 331585.0 331771.0 62932.0 63128.0 196455.0 188882.0 334199.0 342055.0 56489.0 49012.0 151868.0 143859.0 152476.0 148443.0 86395.0 80965.0 226022.0 224090.0 38573.0 46404.0 110358.0 110439.0 35402.0 36164.0 0.0 8322.0 202290.0 200722.0 56137.0 51019.0 57865.0 64844.0 23998.0 20805.0 34771.0 39504.0 43887.0 50258.0 372095.0 364645.0 100560.0 102476.0 92070.0 91320.0 203975.0 196948.0 132606.0 125210.0 284782.0 277623.0 29490.0 36187.0 62862.0 65601.0 175789.0 178507.0 120721.0 128044.0 358510.0 356570.0 112837.0 105312.0 142879.0 150296.0 364054.0 355962.0 142457.0 137570.0 124973.0 120149.0 96105.0 202888.0 96105.0 96105.0 96105.0 96105.0 202888.0 202888.0 202888.0 202888.0
92556.0 89138.0 233477.0 229886.0 124395.0 132639.0 89546.0 82464.0 198919.0 206850.0 327534.0 327887.0 64129.0 63278.0 188297.0 180751.0 330135.0 337953.0 60108.0 53097.0 145429.0 137521.0 145701.0 141454.0 78599.0 72978.0 217903.0 216042.0 32230.0 40303.0 102036.0 102136.0 40038.0 39195.0 8322.0 0.0 194042.0 192436.0 58344.0 54123.0 61981.0 68560.0 32241.0 28383.0 32765.0 35905.0 52209.0 58542.0 367674.0 360169.0 94003.0 95528.0 83856.0 83260.0 197771.0 190617.0 124435.0 117004.0 279470.0 272244.0 21493.0 27920.0 58587.0 60462.0 169855.0 172328.0 113897.0 121087.0 354622.0 352721.0 106950.0 99290.0 136113.0 143668.0 359523.0 351403.0 135918.0 131303.0 119596.0 115128.0 97414.0 198964.0 97414.0 97414.0 97414.0 97414.0 198964.0 198964.0 198964.0 198964.0
105919.0 112287.0 40799.0 36042.0 70413.0 62447.0 167011.0 164044.0 226040.0 229985.0 316347.0 320907.0 224045.0 216867.0 13938.0 20347.0 318115.0 323506.0 235333.0 232492.0 145476.0 147620.0 135629.0 128936.0 131316.0 131587.0 30066.0 33796.0 169446.0 164631.0 93853.0 96468.0 224904.0 218885.0 202290.0 194042.0 0.0 8030.0 226727.0 228677.0 239243.0 241984.0 225380.0 219405.0 197275.0 189897.0 245843.0 251443.0 339782.0 331919.0 147605.0 139577.0 110261.0 111952.0 166961.0 159896.0 70242.0 77229.0 244111.0 236938.0 172996.0 166123.0 167153.0 159137.0 164726.0 158402.0 137106.0 132252.0 345738.0 347586.0 157846.0 156158.0 135919.0 139949.0 329872.0 322301.0 142240.0 149142.0 167670.0 173719.0 250648.0 231534.0 250648.0 250648.0 250648.0 250648.0 231534.0 231534.0 231534.0 231534.0
106032.0 112731.0 41079.0 37756.0 68160.0 59992.0 161952.0 159276.0 218583.0 222439.0 308320.0 312886.0 220348.0 213059.0 20806.0 25733.0 310087.0 315476.0 232127.0 229527.0 138517.0 140900.0 128644.0 122087.0 127520.0 128236.0 36784.0 41251.0 168780.0 164286.0 91295.0 93311.0 222325.0 216119.0 200722.0 192436.0 8030.0 0.0 223332.0 225526.0 236091.0 238613.0 224039.0 218270.0 194375.0 186858.0 244439.0 250213.0 331782.0 323915.0 142504.0 134523.0 108970.0 111219.0 159095.0 152081.0 69786.0 76306.0 236082.0 228908.0 171598.0 164537.0 167893.0 159822.0 157282.0 150872.0 131258.0 126146.0 337709.0 339561.0 152160.0 150767.0 129239.0 133030.0 321873.0 314296.0 135564.0 142619.0 161561.0 167774.0 246410.0 224138.0 246410.0 246410.0 246410.0 246410.0 224138.0 224138.0 224138.0 224138.0
137624.0 136628.0 262985.0 260928.0 156964.0 164555.0 76680.0 73869.0 164956.0 172947.0 293541.0 293750.0 9783.0 16165.0 224004.0 217312.0 296163.0 304048.0 10515.0 14574.0 135934.0 127539.0 140140.0 138926.0 96106.0 95145.0 253912.0 253603.0 88493.0 96581.0 133487.0 130267.0 24611.0 20220.0 56137.0 58344.0 226727.0 223332.0 0.0 7799.0 14782.0 15289.0 60227.0 65458.0 32420.0 37989.0 64297.0 71739.0 334715.0 327491.0 91954.0 97835.0 123214.0 125843.0 182787.0 177298.0 162159.0 154167.0 253787.0 247265.0 73606.0 75219.0 116637.0 117688.0 153376.0 158254.0 112013.0 120055.0 320526.0 318586.0 95611.0 90540.0 131217.0 136495.0 327120.0 319185.0 128347.0 121111.0 101654.0 94454.0 40422.0 164826.0 40422.0 40422.0 40422.0 40422.0 164826.0 164826.0 164826.0 164826.0
137147.0 135705.0 265488.0 263211.0 158588.0 166324.0 82453.0 79120.0 172648.0 180639.0 301234.0 301443.0 17574.0 23438.0 225496.0 218650.0 303856.0 311740.0 6852.0 6940.0 142105.0 133693.0 145993.0 144489.0 98891.0 97325.0 255443.0 254889.0 85241.0 93385.0 135060.0 132254.0 17546.0 14953.0 51019.0 54123.0 228677.0 225526.0 7799.0 0.0 10567.0 14943.0 53103.0 58704.0 32081.0 38857.0 56518.0 63944.0 342407.0 335183.0 96909.0 102427.0 123525.0 125676.0 189591.0 183966.0 163058.0 155097.0 261304.0 254747.0 70951.0 73356.0 112701.0 114230.0 160185.0 164908.0 117256.0 125303.0 328218.0 326278.0 101564.0 96163.0 136943.0 142467.0 334812.0 326877.0 134294.0 127232.0 108256.0 101205.0 47048.0 172518.0 47048.0 47048.0 47048.0 47048.0 172518.0 172518.0 172518.0 172518.0
147227.0 145596.0 276038.0 273774.0 169143.0 176886.0 91461.0 88571.0 177522.0 185513.0 306107.0 306316.0 23163.0 30581.0 236035.0 229173.0 308729.0 316614.0 4308.0 8891.0 150672.0 142282.0 154920.0 153698.0 109390.0 107885.0 265985.0 265403.0 93744.0 101896.0 145614.0 142821.0 22537.0 23343.0 57865.0 61981.0 239243.0 236091.0 14782.0 10567.0 0.0 7611.0 55819.0 62391.0 42481.0 49403.0 55327.0 62179.0 347281.0 340057.0 106577.0 112317.0 133875.0 135881.0 197191.0 191808.0 173523.0 165570.0 266971.0 260558.0 80004.0 82904.0 120426.0 122424.0 167786.0 172779.0 126727.0 134771.0 333092.0 331152.0 110388.0 105312.0 145998.0 151266.0 339686.0 331751.0 143121.0 135862.0 116238.0 108950.0 45843.0 177392.0 45843.0 45843.0 45843.0 45843.0 177392.0 177392.0 177392.0 177392.0
151860.0 150539.0 278273.0 276214.0 172156.0 179777.0 90419.0 88168.0 172664.0 180656.0 301250.0 301459.0 20893.0 28857.0 239176.0 232443.0 303872.0 311757.0 8458.0 15949.0 148867.0 140523.0 153548.0 152708.0 111392.0 110411.0 269096.0 268723.0 99999.0 108150.0 148662.0 145518.0 29754.0 29454.0 64844.0 68560.0 241984.0 238613.0 15289.0 14943.0 7611.0 0.0 63430.0 69971.0 46580.0 52809.0 62510.0 69185.0 342423.0 335200.0 106434.0 112555.0 137914.0 140275.0 194292.0 189150.0 177136.0 169153.0 262450.0 256141.0 85856.0 88295.0 127123.0 128879.0 164933.0 170180.0 126192.0 134210.0 328235.0 326294.0 109017.0 104386.0 144814.0 149739.0 334828.0 326894.0 141648.0 134167.0 113898.0 106404.0 38771.0 172534.0 38771.0 38771.0 38771.0 38771.0 172534.0 172534.0 172534.0 172534.0
122033.0 117684.0 265113.0 261327.0 156177.0 164436.0 114768.0 108562.0 218777.0 226771.0 347375.0 347584.0 69152.0 72026.0 219114.0 211435.0 349997.0 357749.0 56256.0 48248.0 173229.0 165058.0 174461.0 170819.0 110090.0 104854.0 248483.0 246258.0 58008.0 64863.0 134088.0 134350.0 35632.0 41209.0 23998.0 32241.0 225380.0 224039.0 60227.0 53103.0 55819.0 63430.0 0.0 8242.0 51159.0 58012.0 20518.0 26335.0 388511.0 381206.0 122376.0 124932.0 115135.0 113803.0 224723.0 217968.0 155397.0 148170.0 303435.0 296439.0 52442.0 59691.0 76183.0 80878.0 196067.0 199273.0 142893.0 150421.0 374359.0 372419.0 133354.0 126142.0 164874.0 172017.0 380746.0 372734.0 164039.0 158662.0 144396.0 138891.0 100102.0 218659.0 100102.0 100102.0 100102.0 100102.0 218659.0 218659.0 218659.0 218659.0
115360.0 110749.0 259348.0 255404.0 150652.0 158914.0 114862.0 108301.0 220912.0 228899.0 349497.0 349747.0 73949.0 76098.0 212827.0 205087.0 352128.0 360033.0 62449.0 54411.0 172420.0 164356.0 173187.0 169218.0 106980.0 101323.0 242055.0 239669.0 50999.0 57527.0 128943.0 129597.0 41171.0 45721.0 20805.0 28383.0 219405.0 218270.0 65458.0 58704.0 62391.0 69971.0 8242.0 0.0 52363.0 58451.0 27458.0 32119.0 390489.0 383117.0 121207.0 123251.0 109301.0 107574.0 224350.0 217412.0 149271.0 142178.0 304308.0 297223.0 46995.0 54607.0 68065.0 72917.0 195976.0 198878.0 141458.0 148816.0 376523.0 374583.0 133065.0 125650.0 163588.0 170946.0 382597.0 374547.0 163067.0 158029.0 144750.0 139595.0 105724.0 220823.0 105724.0 105724.0 105724.0 105724.0 220823.0 220823.0 220823.0 220823.0
105322.0 104215.0 234655.0 232118.0 126993.0 134840.0 63998.0 58303.0 168653.0 176633.0 297295.0 297509.0 34802.0 31912.0 193737.0 186804.0 299920.0 307806.0 38925.0 35239.0 123361.0 115056.0 125461.0 122599.0 69241.0 66647.0 223693.0 223002.0 58403.0 66235.0 103472.0 101084.0 29186.0 21990.0 34771.0 32765.0 197275.0 194375.0 32420.0 32081.0 42481.0 46580.0 51159.0 52363.0 0.0 8263.0 65030.0 72816.0 338149.0 330766.0 73758.0 77672.0 91445.0 93695.0 174130.0 167596.0 131052.0 123106.0 252296.0 245286.0 42730.0 43259.0 87588.0 87581.0 145249.0 148747.0 94595.0 102453.0 324284.0 322344.0 82928.0 76071.0 115973.0 122624.0 330239.0 322186.0 114509.0 108588.0 93348.0 87738.0 67138.0 168584.0 67138.0 67138.0 67138.0 67138.0 168584.0 168584.0 168584.0 168584.0
99895.0 99285.0 227007.0 224578.0 119743.0 127507.0 56760.0 50720.0 163424.0 171381.0 292095.0 292319.0 38536.0 34071.0 186639.0 179804.0 294708.0 302559.0 45608.0 42689.0 115693.0 107429.0 117570.0 114573.0 61178.0 58858.0 216586.0 216055.0 57545.0 65007.0 96213.0 93549.0 37413.0 30049.0 39504.0 35905.0 189897.0 186858.0 37989.0 38857.0 49403.0 52809.0 58012.0 58451.0 8263.0 0.0 72786.0 80519.0 332605.0 325165.0 65730.0 69490.0 85226.0 87959.0 166794.0 160144.0 124336.0 116358.0 245857.0 238780.0 41556.0 40549.0 87049.0 86277.0 138064.0 141368.0 86550.0 94375.0 319066.0 317126.0 75463.0 68432.0 108054.0 114819.0 324586.0 316503.0 106733.0 100983.0 86434.0 81148.0 69266.0 163413.0 69266.0 69266.0 69266.0 69266.0 163413.0 163413.0 163413.0 163413.0
142516.0 138079.0 285506.0 281773.0 176502.0 184756.0 128874.0 123333.0 228058.0 236050.0 356644.0 356853.0 74009.0 78764.0 239628.0 231952.0 359266.0 367151.0 57273.0 50130.0 188391.0 180086.0 190346.0 187203.0 128651.0 123858.0 269001.0 266764.0 78344.0 84980.0 154244.0 154267.0 41398.0 49089.0 43887.0 52209.0 245843.0 244439.0 64297.0 56518.0 55327.0 62510.0 20518.0 27458.0 65030.0 72786.0 0.0 7871.0 397652.0 390511.0 138410.0 141673.0 135585.0 134318.0 238953.0 232535.0 175898.0 168648.0 315110.0 308308.0 72858.0 79962.0 94648.0 99948.0 209908.0 213632.0 159173.0 166904.0 383628.0 381688.0 147917.0 141102.0 180817.0 187601.0 390186.0 382275.0 179505.0 173615.0 157750.0 151650.0 101167.0 227928.0 101167.0 101167.0 101167.0 101167.0 227928.0 227928.0 227928.0 227928.0
147448.0 142727.0 291292.0 287424.0 182435.0 190696.0 136702.0 131117.0 235786.0 243778.0 364372.0 364581.0 81486.0 86413.0 244941.0 237205.0 366994.0 374879.0 64357.0 57431.0 196167.0 187870.0 198050.0 194842.0 135763.0 130796.0 274172.0 271762.0 83016.0 89267.0 160415.0 160673.0 49167.0 56916.0 50258.0 58542.0 251443.0 250213.0 71739.0 63944.0 62179.0 69185.0 26335.0 32119.0 72816.0 80519.0 7871.0 0.0 405328.0 398203.0 146077.0 149237.0 141259.0 139671.0 246794.0 240359.0 181351.0 174214.0 322958.0 316162.0 78669.0 86004.0 97329.0 103071.0 217762.0 221465.0 166817.0 174522.0 391357.0 389416.0 155725.0 148879.0 188512.0 195337.0 397890.0 389988.0 187251.0 181404.0 165612.0 159520.0 107939.0 235656.0 107939.0 107939.0 107939.0 107939.0 235656.0 235656.0 235656.0 235656.0
362073.0 368861.0 336153.0 342466.0 329211.0 327615.0 279026.0 286675.0 169769.0 161775.0 44180.0 47731.0 324994.0 319260.0 351420.0 352968.0 41568.0 33796.0 343852.0 349283.0 233873.0 239507.0 238926.0 246311.0 308490.0 316506.0 362649.0 369669.0 376438.0 380231.0 326592.0 319110.0 356310.0 348915.0 372095.0 367674.0 339782.0 331782.0 334715.0 342407.0 347281.0 342423.0 388511.0 390489.0 338149.0 332605.0 397652.0 405328.0 0.0 8018.0 280407.0 282830.0 345291.0 353277.0 185475.0 193906.0 344996.0 342255.0 97606.0 105280.0 363565.0 357232.0 400988.0 395563.0 205708.0 206776.0 265885.0 261870.0 34804.0 42765.0 263955.0 271941.0 246581.0 238146.0 9922.0 17704.0 243424.0 244288.0 249474.0 252942.0 328359.0 171494.0 328359.0 328359.0 328359.0 328359.0 171494.0 171494.0 171494.0 171494.0
354097.0 360895.0 328539.0 334815.0 321194.0 319597.0 271417.0 279045.0 162536.0 154548.0 38769.0 43234.0 317770.0 312036.0 343523.0 345042.0 36274.0 28991.0 336628.0 342059.0 225962.0 231634.0 230972.0 238346.0 300639.0 308656.0 354886.0 361884.0 368721.0 372473.0 318604.0 311126.0 349150.0 341719.0 364645.0 360169.0 331919.0 323915.0 327491.0 335183.0 340057.0 335200.0 381206.0 383117.0 330766.0 325165.0 390511.0 398203.0 8018.0 0.0 272638.0 275010.0 337340.0 345326.0 177472.0 185904.0 336979.0 334241.0 89590.0 97262.0 355908.0 349542.0 393185.0 387733.0 197809.0 198830.0 258018.0 253965.0 35142.0 42934.0 256240.0 264228.0 238654.0 230215.0 2881.0 9697.0 235527.0 236445.0 241815.0 245355.0 321135.0 164411.0 321135.0 321135.0 321135.0 321135.0 164411.0 164411.0 164411.0 164411.0
93817.0 98348.0 179092.0 178480.0 85814.0 91035.0 19458.0 18449.0 118066.0 125334.0 242910.0 244366.0 85830.0 77854.0 148676.0 143635.0 245393.0 252872.0 102270.0 102887.0 51451.0 43692.0 52086.0 48845.0 31028.0 38386.0 177111.0 178780.0 96387.0 99846.0 67206.0 60182.0 101796.0 93760.0 100560.0 94003.0 147605.0 142504.0 91954.0 96909.0 106577.0 106434.0 122376.0 121207.0 73758.0 65730.0 138410.0 146077.0 280407.0 272638.0 0.0 8078.0 74610.0 81948.0 104023.0 96700.0 97740.0 90690.0 188258.0 180791.0 84747.0 77732.0 120712.0 115646.0 76978.0 78696.0 20841.0 28763.0 271483.0 270041.0 17813.0 11022.0 42504.0 49740.0 271692.0 263472.0 41918.0 37685.0 33509.0 34374.0 106667.0 119965.0 106667.0 106667.0 106667.0 106667.0 119965.0 119965.0 119965.0 119965.0
87727.0 92636.0 171316.0 170611.0 77901.0 83021.0 27438.0 25504.0 122581.0 129655.0 246025.0 247702.0 92160.0 84234.0 140599.0 135561.0 248476.0 255865.0 108021.0 108189.0 51208.0 44114.0 50294.0 45967.0 26175.0 34033.0 169055.0 170705.0 95181.0 98027.0 59789.0 52598.0 106255.0 98345.0 102476.0 95528.0 139577.0 134523.0 97835.0 102427.0 112317.0 112555.0 124932.0 123251.0 77672.0 69490.0 141673.0 149237.0 282830.0 275010.0 8078.0 0.0 68636.0 76187.0 103961.0 96325.0 90072.0 83138.0 189640.0 182091.0 84568.0 77196.0 118212.0 112743.0 78062.0 78977.0 18535.0 25570.0 274826.0 273594.0 23702.0 18274.0 40756.0 48654.0 273987.0 265756.0 41384.0 38711.0 39000.0 41004.0 113965.0 124850.0 113965.0 113965.0 113965.0 113965.0 124850.0 124850.0 124850.0 124850.0
19238.0 24197.0 150048.0 146192.0 41764.0 49967.0 88207.0 81375.0 190558.0 197371.0 310758.0 313005.0 122910.0 116986.0 104532.0 97095.0 313111.0 320211.0 130370.0 126212.0 111805.0 107141.0 106369.0 99073.0 43941.0 37907.0 134271.0 132786.0 60473.0 57127.0 23636.0 28748.0 116930.0 111831.0 92070.0 83856.0 110261.0 108970.0 123214.0 123525.0 133875.0 137914.0 115135.0 109301.0 91445.0 85226.0 135585.0 141259.0 345291.0 337340.0 74610.0 68636.0 0.0 7991.0 160747.0 152379.0 40687.0 33151.0 249298.0 241565.0 62735.0 55964.0 67325.0 59569.0 140011.0 138517.0 81717.0 84170.0 340046.0 339346.0 92144.0 85580.0 98891.0 107254.0 336065.0 327850.0 102623.0 103470.0 107622.0 108974.0 153652.0 193176.0 153652.0 153652.0 153652.0 153652.0 193176.0 193176.0 193176.0 193176.0
12764.0 16450.0 152209.0 147989.0 45604.0 53570.0 94912.0 87877.0 198328.0 205178.0 318738.0 320974.0 126122.0 120529.0 105311.0 97646.0 321093.0 328197.0 132527.0 127964.0 119791.0 115095.0 114354.0 107046.0 51065.0 44575.0 134741.0 132782.0 57563.0 53303.0 30310.0 36135.0 118044.0 113396.0 91320.0 83260.0 111952.0 111219.0 125843.0 125676.0 135881.0 140275.0 113803.0 107574.0 93695.0 87959.0 134318.0 139671.0 353277.0 345326.0 81948.0 76187.0 7991.0 0.0 168690.0 160317.0 41727.0 34920.0 257255.0 249521.0 61829.0 55705.0 61328.0 53393.0 147999.0 146504.0 89595.0 92135.0 348018.0 347304.0 99582.0 92869.0 106881.0 115245.0 344049.0 335833.0 110596.0 111377.0 115126.0 116264.0 157491.0 200878.0 157491.0 157491.0 157491.0 157491.0 200878.0 200878.0 200878.0 200878.0
176928.0 183908.0 177115.0 181092.0 144187.0 143206.0 110133.0 116164.0 68158.0 69096.0 154361.0 157845.0 174069.0 166669.0 176193.0 175863.0 156469.0 162907.0 193126.0 196396.0 52769.0 60333.0 55172.0 61903.0 127604.0 135522.0 194461.0 200049.0 198996.0 201375.0 141254.0 133868.0 199274.0 191100.0 203975.0 197771.0 166961.0 159095.0 182787.0 189591.0 197191.0 194292.0 224723.0 224350.0 174130.0 166794.0 238953.0 246794.0 185475.0 177472.0 104023.0 103961.0 160747.0 168690.0 0.0 8434.0 160015.0 156936.0 88629.0 80883.0 188454.0 181151.0 220431.0 214223.0 29411.0 25472.0 85579.0 79856.0 184121.0 184743.0 91370.0 98700.0 63989.0 55630.0 176031.0 167868.0 62577.0 66473.0 81548.0 88388.0 183483.0 75084.0 183483.0 183483.0 183483.0 183483.0 75084.0 75084.0 75084.0 75084.0
168510.0 175503.0 171309.0 175045.0 135830.0 134931.0 103663.0 109437.0 71795.0 73559.0 162617.0 166022.0 168749.0 161237.0 168853.0 168336.0 164743.0 171224.0 187697.0 190723.0 45272.0 53101.0 47070.0 53643.0 119637.0 127526.0 187719.0 193154.0 191203.0 193460.0 132825.0 125447.0 193181.0 184994.0 196948.0 190617.0 159896.0 152081.0 177298.0 183966.0 191808.0 189150.0 217968.0 217412.0 167596.0 160144.0 232535.0 240359.0 193906.0 185904.0 96700.0 96325.0 152379.0 160317.0 8434.0 0.0 151660.0 148535.0 97044.0 89297.0 180883.0 173514.0 212357.0 206091.0 24618.0 19060.0 77865.0 71921.0 192371.0 192912.0 84686.0 91831.0 56056.0 47786.0 184465.0 176301.0 54987.0 59384.0 75717.0 82859.0 179018.0 78498.0 179018.0 179018.0 179018.0 179018.0 78498.0 78498.0 78498.0 78498.0
36514.0 43685.0 110635.0 106284.0 15831.0 18776.0 115257.0 109985.0 202868.0 208741.0 314135.0 317281.0 160947.0 154468.0 63868.0 56409.0 316303.0 322865.0 169868.0 166130.0 119067.0 117102.0 111055.0 103169.0 72287.0 69634.0 93584.0 92219.0 99207.0 94522.0 31152.0 37594.0 157324.0 151947.0 132606.0 124435.0 70242.0 69786.0 162159.0 163058.0 173523.0 177136.0 155397.0 149271.0 131052.0 124336.0 175898.0 181351.0 344996.0 336979.0 97740.0 90072.0 40687.0 41727.0 160015.0 151660.0 0.0 8004.0 247481.0 239767.0 103168.0 96593.0 98901.0 90780.0 145574.0 141944.0 96319.0 95302.0 343854.0 344096.0 112961.0 108345.0 106371.0 113618.0 335401.0 327316.0 111739.0 115531.0 126786.0 130421.0 190251.0 206726.0 190251.0 190251.0 190251.0 190251.0 206726.0 206726.0 206726.0 206726.0
31472.0 39119.0 117320.0 113228.0 14420.0 20534.0 107908.0 102474.0 197723.0 203758.0 310689.0 313679.0 152943.0 146469.0 71436.0 64101.0 312893.0 319559.0 161903.0 158207.0 114335.0 111928.0 106677.0 98807.0 64589.0 61738.0 101253.0 100052.0 92475.0 88122.0 23651.0 30540.0 149496.0 144058.0 125210.0 117004.0 77229.0 76306.0 154167.0 155097.0 165570.0 169153.0 148170.0 142178.0 123106.0 116358.0 168648.0 174214.0 342255.0 334241.0 90690.0 83138.0 33151.0 34920.0 156936.0 148535.0 8004.0 0.0 244881.0 237147.0 95832.0 89115.0 93802.0 85681.0 141304.0 138019.0 90279.0 89738.0 340364.0 340440.0 106271.0 101404.0 101488.0 108986.0 332718.0 324599.0 106650.0 110028.0 120380.0 123748.0 182282.0 201399.0 182282.0 182282.0 182282.0 182282.0 201399.0 201399.0 201399.0 201399.0
265554.0 272533.0 244184.0 249904.0 231716.0 230025.0 189928.0 197081.0 93181.0 86271.0 73415.0 78967.0 244231.0 237884.0 255256.0 256394.0 74872.0 79640.0 263359.0 268240.0 139159.0 145595.0 143187.0 150270.0 214547.0 222554.0 268367.0 275049.0 284592.0 287666.0 229846.0 222489.0 273941.0 266058.0 284782.0 279470.0 244111.0 236082.0 253787.0 261304.0 266971.0 262450.0 303435.0 304308.0 252296.0 245857.0 315110.0 322958.0 97606.0 89590.0 188258.0 189640.0 249298.0 257255.0 88629.0 97044.0 247481.0 244881.0 0.0 7751.0 272813.0 265960.0 307561.0 301675.0 111581.0 111433.0 171893.0 167089.0 102077.0 104720.0 173038.0 180939.0 151420.0 142940.0 87943.0 79904.0 148945.0 150966.0 159876.0 164715.0 248445.0 97988.0 248445.0 248445.0 248445.0 248445.0 97988.0 97988.0 97988.0 97988.0
257806.0 264789.0 237610.0 243235.0 223998.0 222337.0 182719.0 189819.0 87963.0 81340.0 79983.0 85255.0 237746.0 231315.0 247987.0 249042.0 81556.0 86612.0 256908.0 261685.0 131528.0 138022.0 135482.0 142548.0 206932.0 214936.0 261416.0 268040.0 277094.0 280117.0 222096.0 214740.0 267199.0 259285.0 277623.0 272244.0 236938.0 228908.0 247265.0 254747.0 260558.0 256141.0 296439.0 297223.0 245286.0 238780.0 308308.0 316162.0 105280.0 97262.0 180791.0 182091.0 241565.0 249521.0 80883.0 89297.0 239767.0 237147.0 7751.0 0.0 265398.0 258511.0 299952.0 294041.0 104029.0 103773.0 164295.0 159437.0 108962.0 111336.0 165693.0 173576.0 143750.0 135270.0 95641.0 87582.0 141325.0 143437.0 152673.0 157633.0 242216.0 93095.0 242216.0 242216.0 242216.0 242216.0 93095.0 93095.0 93095.0 93095.0
71080.0 67826.0 212671.0 208916.0 103766.0 112027.0 84738.0 76958.0 196802.0 204580.0 324634.0 325473.0 77378.0 74554.0 166997.0 159406.0 327188.0 334870.0 77480.0 71317.0 135688.0 128265.0 134634.0 129549.0 63767.0 57023.0 196538.0 194603.0 16000.0 23552.0 81951.0 82777.0 59345.0 56662.0 29490.0 21493.0 172996.0 171598.0 73606.0 70951.0 80004.0 85856.0 52442.0 46995.0 42730.0 41556.0 72858.0 78669.0 363565.0 355908.0 84747.0 84568.0 62735.0 61829.0 188454.0 180883.0 103168.0 95832.0 272813.0 265398.0 0.0 8042.0 45521.0 44899.0 161721.0 163291.0 103076.0 109576.0 352443.0 350536.0 99937.0 91977.0 125195.0 133211.0 355098.0 346911.0 125908.0 122402.0 114093.0 110914.0 109849.0 197172.0 109849.0 109849.0 109849.0 109849.0 197172.0 197172.0 197172.0 197172.0
65697.0 63135.0 205587.0 201968.0 96543.0 104795.0 78855.0 70967.0 191146.0 198868.0 318621.0 319585.0 78026.0 74427.0 160460.0 152957.0 321162.0 328804.0 80062.0 74442.0 128385.0 121073.0 127100.0 121892.0 55865.0 49030.0 190125.0 188394.0 19698.0 25682.0 74423.0 75005.0 63281.0 59679.0 36187.0 27920.0 166123.0 164537.0 75219.0 73356.0 82904.0 88295.0 59691.0 54607.0 43259.0 40549.0 79962.0 86004.0 357232.0 349542.0 77732.0 77196.0 55964.0 55705.0 181151.0 173514.0 96593.0 89115.0 265960.0 258511.0 8042.0 0.0 48315.0 46348.0 154685.0 156072.0 95657.0 102019.0 346599.0 344738.0 93353.0 85370.0 117703.0 125783.0 348694.0 340495.0 118577.0 115298.0 107810.0 104988.0 109735.0 191730.0 109735.0 109735.0 109735.0 109735.0 191730.0 191730.0 191730.0 191730.0
62453.0 55272.0 207952.0 202738.0 106259.0 113847.0 125317.0 117326.0 237358.0 244926.0 363575.0 364912.0 121595.0 119490.0 158004.0 149933.0 366068.0 373571.0 118678.0 111535.0 168445.0 162018.0 165288.0 158942.0 93024.0 85031.0 185364.0 181668.0 29522.0 22637.0 90959.0 95488.0 98148.0 97782.0 62862.0 58587.0 167153.0 167893.0 116637.0 112701.0 120426.0 127123.0 76183.0 68065.0 87588.0 87049.0 94648.0 97329.0 400988.0 393185.0 120712.0 118212.0 67325.0 61328.0 220431.0 212357.0 98901.0 93802.0 307561.0 299952.0 45521.0 48315.0 0.0 8126.0 196056.0 196277.0 135672.0 140676.0 392011.0 390374.0 137708.0 129800.0 156501.0 164936.0 392183.0 383953.0 158631.0 156885.0 152921.0 151064.0 154576.0 238386.0 154576.0 154576.0 154576.0 154576.0 238386.0 238386.0 238386.0 238386.0
54327.0 47164.0 199936.0 194767.0 98182.0 105747.0 121297.0 113311.0 232923.0 240415.0 358541.0 360008.0 122064.0 119445.0 150094.0 142031.0 361016.0 368468.0 120421.0 113547.0 162516.0 156283.0 159051.0 152558.0 87189.0 79169.0 177608.0 174016.0 29260.0 21351.0 83200.0 87919.0 100446.0 99429.0 65601.0 60462.0 159137.0 159822.0 117688.0 114230.0 122424.0 128879.0 80878.0 72917.0 87581.0 86277.0 99948.0 103071.0 395563.0 387733.0 115646.0 112743.0 59569.0 53393.0 214223.0 206091.0 90780.0 85681.0 301675.0 294041.0 44899.0 46348.0 8126.0 0.0 190298.0 190289.0 129889.0 134629.0 387123.0 385617.0 132892.0 125051.0 150399.0 158859.0 386689.0 378456.0 152739.0 151301.0 148268.0 146767.0 154719.0 234156.0 154719.0 154719.0 154719.0 154719.0 234156.0 234156.0 234156.0 234156.0
157451.0 163890.0 181445.0 184239.0 129947.0 130545.0 81307.0 87677.0 61315.0 65563.0 170819.0 173270.0 144670.0 137259.0 172032.0 170360.0 173149.0 180208.0 163717.0 166996.0 28224.0 34038.0 34643.0 42499.0 103110.0 111129.0 193841.0 198490.0 173112.0 176089.0 122833.0 115096.0 170015.0 161852.0 175789.0 169855.0 164726.0 157282.0 153376.0 160185.0 167786.0 164933.0 196067.0 195976.0 145249.0 138064.0 209908.0 217762.0 205708.0 197809.0 76978.0 78062.0 140011.0 147999.0 29411.0 24618.0 145574.0 141304.0 111581.0 104029.0 161721.0 154685.0 196056.0 190298.0 0.0 7909.0 60410.0 56169.0 200227.0 199815.0 62953.0 70567.0 41133.0 32875.0 196658.0 188425.0 37719.0 39431.0 52260.0 58988.0 154464.0 66901.0 154464.0 154464.0 154464.0 154464.0 66901.0 66901.0 66901.0 66901.0
155508.0 162164.0 174232.0 177170.0 126207.0 126365.0 84767.0 90711.0 67839.0 71586.0 173031.0 175787.0 149737.0 142204.0 166062.0 164641.0 175301.0 182187.0 168661.0 171663.0 27871.0 35031.0 32180.0 39737.0 103263.0 111247.0 187310.0 192115.0 174148.0 176780.0 120413.0 112775.0 174162.0 165977.0 178507.0 172328.0 158402.0 150872.0 158254.0 164908.0 172779.0 170180.0 199273.0 198878.0 148747.0 141368.0 213632.0 221465.0 206776.0 198830.0 78696.0 78977.0 138517.0 146504.0 25472.0 19060.0 141944.0 138019.0 111433.0 103773.0 163291.0 156072.0 196277.0 190289.0 7909.0 0.0 60795.0 55667.0 202601.0 202486.0 65920.0 73228.0 40000.0 31520.0 197576.0 189355.0 37723.0 41062.0 56657.0 63833.0 160365.0 73696.0 160365.0 160365.0 160365.0 160365.0 73696.0 73696.0 73696.0 73696.0
100183.0 105907.0 165592.0 165741.0 82336.0 85907.0 36260.0 38159.0 109139.0 115783.0 229897.0 231858.0 105405.0 97405.0 139959.0 135815.0 232304.0 239572.0 122420.0 123365.0 32932.0 26402.0 31813.0 28032.0 42700.0 50720.0 167083.0 169589.0 113427.0 115986.0 68368.0 60594.0 122594.0 114537.0 120721.0 113897.0 137106.0 131258.0 112013.0 117256.0 126727.0 126192.0 142893.0 141458.0 94595.0 86550.0 159173.0 166817.0 265885.0 258018.0 20841.0 18535.0 81717.0 89595.0 85579.0 77865.0 96319.0 90279.0 171893.0 164295.0 103076.0 95657.0 135672.0 129889.0 60410.0 60795.0 0.0 8048.0 258956.0 258015.0 21239.0 22424.0 22244.0 30135.0 256922.0 248687.0 23075.0 21876.0 31289.0 36668.0 124185.0 112154.0 124185.0 124185.0 124185.0 124185.0 112154.0 112154.0 112154.0 112154.0
102114.0 108232.0 159551.0 159971.0 80709.0 83567.0 44138.0 46205.0 108227.0 114538.0 226647.0 228840.0 113410.0 105410.0 135767.0 131985.0 229016.0 236173.0 130465.0 131407.0 28020.0 23024.0 25090.0 20407.0 47750.0 55684.0 162300.0 165111.0 119357.0 121541.0 68851.0 61008.0 130557.0 122514.0 128044.0 121087.0 132252.0 126146.0 120055.0 125303.0 134771.0 134210.0 150421.0 148816.0 102453.0 94375.0 166904.0 174522.0 261870.0 253965.0 28763.0 25570.0 84170.0 92135.0 79856.0 71921.0 95302.0 89738.0 167089.0 159437.0 109576.0 102019.0 140676.0 134629.0 56169.0 55667.0 8048.0 0.0 255890.0 255180.0 28011.0 30201.0 15869.0 24263.0 252797.0 244565.0 18501.0 20297.0 35423.0 41798.0 131866.0 111706.0 131866.0 131866.0 131866.0 131866.0 111706.0 111706.0 111706.0 111706.0
357670.0 364036.0 346150.0 351943.0 328029.0 327300.0 267763.0 275633.0 155801.0 147938.0 29764.0 27124.0 310805.0 305071.0 356563.0 357332.0 27746.0 22520.0 329663.0 335094.0 228326.0 232984.0 234575.0 242281.0 300912.0 308843.0 370377.0 376995.0 366126.0 370547.0 322942.0 315249.0 342239.0 334759.0 358510.0 354622.0 345738.0 337709.0 320526.0 328218.0 333092.0 328235.0 374359.0 376523.0 324284.0 319066.0 383628.0 391357.0 34804.0 35142.0 271483.0 274826.0 340046.0 348018.0 184121.0 192371.0 343854.0 340364.0 102077.0 108962.0 352443.0 346599.0 392011.0 387123.0 200227.0 202601.0 258956.0 255890.0 0.0 7961.0 254306.0 262212.0 241323.0 233102.0 37772.0 38521.0 237423.0 237087.0 239150.0 241611.0 314170.0 157477.0 314170.0 314170.0 314170.0 314170.0 157477.0 157477.0 157477.0 157477.0
357141.0 363401.0 348893.0 354564.0 328286.0 327758.0 265887.0 273774.0 153863.0 145999.0 31355.0 26905.0 308865.0 303131.0 358214.0 358807.0 29861.0 26510.0 327723.0 333154.0 227796.0 232211.0 234306.0 242063.0 299730.0 307627.0 372589.0 379109.0 364291.0 368768.0 322639.0 314910.0 340299.0 332819.0 356570.0 352721.0 347586.0 339561.0 318586.0 326278.0 331152.0 326294.0 372419.0 374583.0 322344.0 317126.0 381688.0 389416.0 42765.0 42934.0 270041.0 273594.0 339346.0 347304.0 184743.0 192912.0 344096.0 340440.0 104720.0 111336.0 350536.0 344738.0 390374.0 385617.0 199815.0 202486.0 258015.0 255180.0 7961.0 0.0 252731.0 260599.0 240822.0 232675.0 45511.0 45743.0 236758.0 236140.0 237453.0 239754.0 312230.0 155537.0 312230.0 312230.0 312230.0 312230.0 155537.0 155537.0 155537.0 155537.0
111299.0 116008.0 186817.0 186907.0 100042.0 104473.0 19278.0 24796.0 100373.0 107708.0 225907.0 227205.0 88127.0 80200.0 160189.0 155722.0 228411.0 235956.0 106124.0 108046.0 40777.0 32372.0 44550.0 44011.0 48804.0 56199.0 187741.0 190014.0 112483.0 116427.0 83168.0 75786.0 109139.0 100950.0 112837.0 106950.0 157846.0 152160.0 95611.0 101564.0 110388.0 109017.0 133354.0 133065.0 82928.0 75463.0 147917.0 155725.0 263955.0 256240.0 17813.0 23702.0 92144.0 99582.0 91370.0 84686.0 112961.0 106271.0 173038.0 165693.0 99937.0 93353.0 137708.0 132892.0 62953.0 65920.0 21239.0 28011.0 254306.0 252731.0 0.0 7988.0 35857.0 40906.0 255367.0 247163.0 32741.0 25870.0 15698.0 17477.0 104539.0 102177.0 104539.0 104539.0 104539.0 104539.0 102177.0 102177.0 102177.0 102177.0
104798.0 109245.0 186426.0 186171.0 96044.0 100953.0 14001.0 17781.0 108040.0 115436.0 233850.0 235117.0 83522.0 75534.0 157826.0 153038.0 236358.0 243912.0 101020.0 102494.0 47290.0 38998.0 49980.0 48387.0 41852.0 48990.0 185876.0 187827.0 104497.0 108464.0 78010.0 70866.0 102886.0 94722.0 105312.0 99290.0 156158.0 150767.0 90540.0 96163.0 105312.0 104386.0 126142.0 125650.0 76071.0 68432.0 141102.0 148879.0 271941.0 264228.0 11022.0 18274.0 85580.0 92869.0 98700.0 91831.0 108345.0 101404.0 180939.0 173576.0 91977.0 85370.0 129800.0 125051.0 70567.0 73228.0 22424.0 30201.0 262212.0 260599.0 7988.0 0.0 40796.0 46767.0 263355.0 255151.0 38593.0 32553.0 23263.0 23398.0 101763.0 109679.0 101763.0 101763.0 101763.0 101763.0 109679.0 109679.0 109679.0 109679.0
116348.0 122757.0 159802.0 161019.0 91124.0 92846.0 54539.0 58256.0 96579.0 102370.0 211945.0 214338.0 123921.0 115972.0 140920.0 137938.0 214280.0 221340.0 141716.0 143289.0 13041.0 11750.0 9599.0 8694.0 63615.0 71539.0 165912.0 169415.0 135182.0 137409.0 82021.0 74228.0 143437.0 135304.0 142879.0 136113.0 135919.0 129239.0 131217.0 136943.0 145998.0 144814.0 164874.0 163588.0 115973.0 108054.0 180817.0 188512.0 246581.0 238654.0 42504.0 40756.0 98891.0 106881.0 63989.0 56056.0 106371.0 101488.0 151420.0 143750.0 125195.0 117703.0 156501.0 150399.0 41133.0 40000.0 22244.0 15869.0 241323.0 240822.0 35857.0 40796.0 0.0 8481.0 237442.0 229215.0 6325.0 14134.0 36455.0 44247.0 139943.0 100704.0 139943.0 139943.0 139943.0 139943.0 100704.0 100704.0 100704.0 100704.0
124584.0 131064.0 162051.0 163668.0 98196.0 99494.0 60071.0 64496.0 89830.0 95329.0 203681.0 206144.0 128870.0 120984.0 145616.0 143005.0 206004.0 213032.0 147009.0 148933.0 5674.0 10180.0 4886.0 11195.0 72003.0 79946.0 169801.0 173622.0 143419.0 145746.0 90013.0 82255.0 149652.0 141485.0 150296.0 143668.0 139949.0 133030.0 136495.0 142467.0 151266.0 149739.0 172017.0 170946.0 122624.0 114819.0 187601.0 195337.0 238146.0 230215.0 49740.0 48654.0 107254.0 115245.0 55630.0 47786.0 113618.0 108986.0 142940.0 135270.0 133211.0 125783.0 164936.0 158859.0 32875.0 31520.0 30135.0 24263.0 233102.0 232675.0 40906.0 46767.0 8481.0 0.0 228994.0 220768.0 8189.0 15823.0 38310.0 46347.0 143565.0 94275.0 143565.0 143565.0 143565.0 143565.0 94275.0 94275.0 94275.0 94275.0
352752.0 359579.0 326258.0 332561.0 319626.0 317968.0 270668.0 278271.0 162168.0 154187.0 39744.0 44580.0 317399.0 311665.0 341524.0 343091.0 37325.0 30334.0 336257.0 341688.0 224784.0 230529.0 229697.0 237039.0 299566.0 307585.0 352728.0 359748.0 367838.0 371536.0 317217.0 309759.0 348813.0 341353.0 364054.0 359523.0 329872.0 321873.0 327120.0 334812.0 339686.0 334828.0 380746.0 382597.0 330239.0 324586.0 390186.0 397890.0 9922.0 2881.0 271692.0 273987.0 336065.0 344049.0 176031.0 184465.0 335401.0 332718.0 87943.0 95641.0 355098.0 348694.0 392183.0 386689.0 196658.0 197576.0 256922.0 252797.0 37772.0 45511.0 255367.0 263355.0 237442.0 228994.0 0.0 8235.0 234376.0 235389.0 241011.0 244634.0 320764.0 164164.0 320764.0 320764.0 320764.0 320764.0 164164.0 164164.0 164164.0 164164.0
344555.0 351373.0 319152.0 325391.0 311534.0 309918.0 262504.0 270098.0 154244.0 146271.0 34295.0 40002.0 309464.0 303730.0 333880.0 335377.0 32114.0 26140.0 328322.0 333753.0 216553.0 222294.0 221480.0 228830.0 291332.0 299351.0 345356.0 352334.0 359630.0 363317.0 309034.0 301569.0 340894.0 333412.0 355962.0 351403.0 322301.0 314296.0 319185.0 326877.0 331751.0 326894.0 372734.0 374547.0 322186.0 316503.0 382275.0 389988.0 17704.0 9697.0 263472.0 265756.0 327850.0 335833.0 167868.0 176301.0 327316.0 324599.0 79904.0 87582.0 346911.0 340495.0 383953.0 378456.0 188425.0 189355.0 248687.0 244565.0 38521.0 45743.0 247163.0 255151.0 229215.0 220768.0 8235.0 0.0 226143.0 227155.0 232829.0 236483.0 312829.0 156343.0 312829.0 312829.0 312829.0 312829.0 156343.0 156343.0 156343.0 156343.0
120429.0 126645.0 166019.0 167285.0 96635.0 98600.0 51886.0 56337.0 91131.0 97110.0 208159.0 210384.0 120770.0 112872.0 147193.0 144160.0 210524.0 217674.0 138860.0 140752.0 9856.0 5542.0 12021.0 14403.0 65608.0 73610.0 172235.0 175727.0 136481.0 139057.0 86626.0 78796.0 141473.0 133305.0 142457.0 135918.0 142240.0 135564.0 128347.0 134294.0 143121.0 141648.0 164039.0 163067.0 114509.0 106733.0 179505.0 187251.0 243424.0 235527.0 41918.0 41384.0 102623.0 110596.0 62577.0 54987.0 111739.0 106650.0 148945.0 141325.0 125908.0 118577.0 158631.0 152739.0 37719.0 37723.0 23075.0 18501.0 237423.0 236758.0 32741.0 38593.0 6325.0 8189.0 234376.0 226143.0 0.0 8448.0 31199.0 39149.0 135822.0 95068.0 135822.0 135822.0 135822.0 135822.0 95068.0 95068.0 95068.0 95068.0
121772.0 127640.0 173782.0 174884.0 100798.0 103335.0 45145.0 50288.0 87993.0 94404.0 208051.0 209986.0 113325.0 105477.0 153637.0 150323.0 210465.0 217754.0 131623.0 133775.0 14913.0 6503.0 20213.0 22673.0 64211.0 72221.0 179186.0 182472.0 133682.0 136710.0 89048.0 81209.0 135007.0 126819.0 137570.0 131303.0 149142.0 142619.0 121111.0 127232.0 135862.0 134167.0 158662.0 158029.0 108588.0 100983.0 173615.0 181404.0 244288.0 236445.0 37685.0 38711.0 103470.0 111377.0 66473.0 59384.0 115531.0 110028.0 150966.0 143437.0 122402.0 115298.0 156885.0 151301.0 39431.0 41062.0 21876.0 20297.0 237087.0 236140.0 25870.0 32553.0 14134.0 15823.0 235389.0 227155.0 8448.0 0.0 22764.0 30739.0 127741.0 91411.0 127741.0 127741.0 127741.0 127741.0 91411.0 91411.0 91411.0 91411.0
126726.0 131566.0 194437.0 195101.0 113255.0 117099.0 30051.0 37350.0 84777.0 92178.0 210925.0 212074.0 93285.0 85658.0 170996.0 167001.0 213450.0 221053.0 112091.0 115006.0 36012.0 28216.0 42895.0 45143.0 64470.0 71895.0 197715.0 200462.0 127164.0 131405.0 97648.0 90093.0 117756.0 109592.0 124973.0 119596.0 167670.0 161561.0 101654.0 108256.0 116238.0 113898.0 144396.0 144750.0 93348.0 86434.0 157750.0 165612.0 249474.0 241815.0 33509.0 39000.0 107622.0 115126.0 81548.0 75717.0 126786.0 120380.0 159876.0 152673.0 114093.0 107810.0 152921.0 148268.0 52260.0 56657.0 31289.0 35423.0 239150.0 237453.0 15698.0 23263.0 36455.0 38310.0 241011.0 232829.0 31199.0 22764.0 0.0 8047.0 105814.0 86491.0 105814.0 105814.0 105814.0 105814.0 86491.0 86491.0 86491.0 86491.0
128188.0 132633.0 201279.0 201765.0 117387.0 121648.0 26176.0 34022.0 86323.0 93961.0 213720.0 214605.0 85906.0 78379.0 176608.0 172374.0 216275.0 223963.0 104840.0 108009.0 44036.0 36262.0 50909.0 52941.0 65230.0 72248.0 203718.0 206257.0 124540.0 129191.0 100629.0 93262.0 111281.0 103155.0 120149.0 115128.0 173719.0 167774.0 94454.0 101205.0 108950.0 106404.0 138891.0 139595.0 87738.0 81148.0 151650.0 159520.0 252942.0 245355.0 34374.0 41004.0 108974.0 116264.0 88388.0 82859.0 130421.0 123748.0 164715.0 157633.0 110914.0 104988.0 151064.0 146767.0 58988.0 63833.0 36668.0 41798.0 241611.0 239754.0 17477.0 23398.0 44247.0 46347.0 244634.0 236483.0 39149.0 30739.0 8047.0 0.0 97865.0 87390.0 97865.0 97865.0 97865.0 97865.0 87390.0 87390.0 87390.0 87390.0
169876.0 169977.0 284593.0 283373.0 182844.0 189830.0 88120.0 88461.0 158600.0 166591.0 287186.0 287395.0 33292.0 35337.0 249526.0 243402.0 289808.0 297692.0 44275.0 52073.0 141771.0 133739.0 147836.0 148365.0 119700.0 120848.0 279075.0 279587.0 125530.0 133371.0 159981.0 155476.0 64593.0 60608.0 96105.0 97414.0 250648.0 246410.0 40422.0 47048.0 45843.0 38771.0 100102.0 105724.0 67138.0 69266.0 101167.0 107939.0 328359.0 321135.0 106667.0 113965.0 153652.0 157491.0 183483.0 179018.0 190251.0 182282.0 248445.0 242216.0 109849.0 109735.0 154576.0 154719.0 154464.0 160365.0 124185.0 131866.0 314170.0 312230.0 104539.0 101763.0 139943.0 143565.0 320764.0 312829.0 135822.0 127741.0 105814.0 97865.0 0.0 158470.0 0.0 0.0 0.0 0.0 158470.0 158470.0 158470.0 158470.0
212006.0 217317.0 247775.0 250835.0 191700.0 193544.0 113104.0 121085.0 7151.0 11757.0 129679.0 129575.0 155105.0 149371.0 238506.0 236487.0 132322.0 140267.0 173963.0 179394.0 88619.0 89649.0 97785.0 105378.0 150783.0 158330.0 260732.0 265317.0 211398.0 216364.0 180349.0 172526.0 186539.0 179059.0 202888.0 198964.0 231534.0 224138.0 164826.0 172518.0 177392.0 172534.0 218659.0 220823.0 168584.0 163413.0 227928.0 235656.0 171494.0 164411.0 119965.0 124850.0 193176.0 200878.0 75084.0 78498.0 206726.0 201399.0 97988.0 93095.0 197172.0 191730.0 238386.0 234156.0 66901.0 73696.0 112154.0 111706.0 157477.0 155537.0 102177.0 109679.0 100704.0 94275.0 164164.0 156343.0 95068.0 91411.0 86491.0 87390.0 158470.0 0.0 158470.0 158470.0 158470.0 158470.0 0.0 0.0 0.0 0.0
169876.0 169977.0 284593.0 283373.0 182844.0 189830.0 88120.0 88461.0 158600.0 166591.0 287186.0 287395.0 33292.0 35337.0 249526.0 243402.0 289808.0 297692.0 44275.0 52073.0 141771.0 133739.0 147836.0 148365.0 119700.0 120848.0 279075.0 279587.0 125530.0 133371.0 159981.0 155476.0 64593.0 60608.0 96105.0 97414.0 250648.0 246410.0 40422.0 47048.0 45843.0 38771.0 100102.0 105724.0 67138.0 69266.0 101167.0 107939.0 328359.0 321135.0 106667.0 113965.0 153652.0 157491.0 183483.0 179018.0 190251.0 182282.0 248445.0 242216.0 109849.0 109735.0 154576.0 154719.0 154464.0 160365.0 124185.0 131866.0 314170.0 312230.0 104539.0 101763.0 139943.0 143565.0 320764.0 312829.0 135822.0 127741.0 105814.0 97865.0 0.0 158470.0 0.0 0.0 0.0 0.0 158470.0 158470.0 158470.0 158470.0
169876.0 169977.0 284593.0 283373.0 182844.0 189830.0 88120.0 88461.0 158600.0 166591.0 287186.0 287395.0 33292.0 35337.0 249526.0 243402.0 289808.0 297692.0 44275.0 52073.0 141771.0 133739.0 147836.0 148365.0 119700.0 120848.0 279075.0 279587.0 125530.0 133371.0 159981.0 155476.0 64593.0 60608.0 96105.0 97414.0 250648.0 246410.0 40422.0 47048.0 45843.0 38771.0 100102.0 105724.0 67138.0 69266.0 101167.0 107939.0 328359.0 321135.0 106667.0 113965.0 153652.0 157491.0 183483.0 179018.0 190251.0 182282.0 248445.0 242216.0 109849.0 109735.0 154576.0 154719.0 154464.0 160365.0 124185.0 131866.0 314170.0 312230.0 104539.0 101763.0 139943.0 143565.0 320764.0 312829.0 135822.0 127741.0 105814.0 97865.0 0.0 158470.0 0.0 0.0 0.0 0.0 158470.0 158470.0 158470.0 158470.0
169876.0 169977.0 284593.0 283373.0 182844.0 189830.0 88120.0 88461.0 158600.0 166591.0 287186.0 287395.0 33292.0 35337.0 249526.0 243402.0 289808.0 297692.0 44275.0 52073.0 141771.0 133739.0 147836.0 148365.0 119700.0 120848.0 279075.0 279587.0 125530.0 133371.0 159981.0 155476.0 64593.0 60608.0 96105.0 97414.0 250648.0 246410.0 40422.0 47048.0 45843.0 38771.0 100102.0 105724.0 67138.0 69266.0 101167.0 107939.0 328359.0 321135.0 106667.0 113965.0 153652.0 157491.0 183483.0 179018.0 190251.0 182282.0 248445.0 242216.0 109849.0 109735.0 154576.0 154719.0 154464.0 160365.0 124185.0 131866.0 314170.0 312230.0 104539.0 101763.0 139943.0 143565.0 320764.0 312829.0 135822.0 127741.0 105814.0 97865.0 0.0 158470.0 0.0 0.0 0.0 0.0 158470.0 158470.0 158470.0 158470.0
169876.0 169977.0 284593.0 283373.0 182844.0 189830.0 88120.0 88461.0 158600.0 166591.0 287186.0 287395.0 33292.0 35337.0 249526.0 243402.0 289808.0 297692.0 44275.0 52073.0 141771.0 133739.0 147836.0 148365.0 119700.0 120848.0 279075.0 279587.0 125530.0 133371.0 159981.0 155476.0 64593.0 60608.0 96105.0 97414.0 250648.0 246410.0 40422.0 47048.0 45843.0 38771.0 100102.0 105724.0 67138.0 69266.0 101167.0 107939.0 328359.0 321135.0 106667.0 113965.0 153652.0 157491.0 183483.0 179018.0 190251.0 182282.0 248445.0 242216.0 109849.0 109735.0 154576.0 154719.0 154464.0 160365.0 124185.0 131866.0 314170.0 312230.0 104539.0 101763.0 139943.0 143565.0 320764.0 312829.0 135822.0 127741.0 105814.0 97865.0 0.0 158470.0 0.0 0.0 0.0 0.0 158470.0 158470.0 158470.0 158470.0
212006.0 217317.0 247775.0 250835.0 191700.0 193544.0 113104.0 121085.0 7151.0 11757.0 129679.0 129575.0 155105.0 149371.0 238506.0 236487.0 132322.0 140267.0 173963.0 179394.0 88619.0 89649.0 97785.0 105378.0 150783.0 158330.0 260732.0 265317.0 211398.0 216364.0 180349.0 172526.0 186539.0 179059.0 202888.0 198964.0 231534.0 224138.0 164826.0 172518.0 177392.0 172534.0 218659.0 220823.0 168584.0 163413.0 227928.0 235656.0 171494.0 164411.0 119965.0 124850.0 193176.0 200878.0 75084.0 78498.0 206726.0 201399.0 97988.0 93095.0 197172.0 191730.0 238386.0 234156.0 66901.0 73696.0 112154.0 111706.0 157477.0 155537.0 102177.0 109679.0 100704.0 94275.0 164164.0 156343.0 95068.0 91411.0 86491.0 87390.0 158470.0 0.0 158470.0 158470.0 158470.0 158470.0 0.0 0.0 0.0 0.0
212006.0 217317.0 247775.0 250835.0 191700.0 193544.0 113104.0 121085.0 7151.0 11757.0 129679.0 129575.0 155105.0 149371.0 238506.0 236487.0 132322.0 140267.0 173963.0 179394.0 88619.0 89649.0 97785.0 105378.0 150783.0 158330.0 260732.0 265317.0 211398.0 216364.0 180349.0 172526.0 186539.0 179059.0 202888.0 198964.0 231534.0 224138.0 164826.0 172518.0 177392.0 172534.0 218659.0 220823.0 168584.0 163413.0 227928.0 235656.0 171494.0 164411.0 119965.0 124850.0 193176.0 200878.0 75084.0 78498.0 206726.0 201399.0 97988.0 93095.0 197172.0 191730.0 238386.0 234156.0 66901.0 73696.0 112154.0 111706.0 157477.0 155537.0 102177.0 109679.0 100704.0 94275.0 164164.0 156343.0 95068.0 91411.0 86491.0 87390.0 158470.0 0.0 158470.0 158470.0 158470.0 158470.0 0.0 0.0 0.0 0.0
212006.0 217317.0 247775.0 250835.0 191700.0 193544.0 113104.0 121085.0 7151.0 11757.0 129679.0 129575.0 155105.0 149371.0 238506.0 236487.0 132322.0 140267.0 173963.0 179394.0 88619.0 89649.0 97785.0 105378.0 150783.0 158330.0 260732.0 265317.0 211398.0 216364.0 180349.0 172526.0 186539.0 179059.0 202888.0 198964.0 231534.0 224138.0 164826.0 172518.0 177392.0 172534.0 218659.0 220823.0 168584.0 163413.0 227928.0 235656.0 171494.0 164411.0 119965.0 124850.0 193176.0 200878.0 75084.0 78498.0 206726.0 201399.0 97988.0 93095.0 197172.0 191730.0 238386.0 234156.0 66901.0 73696.0 112154.0 111706.0 157477.0 155537.0 102177.0 109679.0 100704.0 94275.0 164164.0 156343.0 95068.0 91411.0 86491.0 87390.0 158470.0 0.0 158470.0 158470.0 158470.0 158470.0 0.0 0.0 0.0 0.0
212006.0 217317.0 247775.0 250835.0 191700.0 193544.0 113104.0 121085.0 7151.0 11757.0 129679.0 129575.0 155105.0 149371.0 238506.0 236487.0 132322.0 140267.0 173963.0 179394.0 88619.0 89649.0 97785.0 105378.0 150783.0 158330.0 260732.0 265317.0 211398.0 216364.0 180349.0 172526.0 186539.0 179059.0 202888.0 198964.0 231534.0 224138.0 164826.0 172518.0 177392.0 172534.0 218659.0 220823.0 168584.0 163413.0 227928.0 235656.0 171494.0 164411.0 119965.0 124850.0 193176.0 200878.0 75084.0 78498.0 206726.0 201399.0 97988.0 93095.0 197172.0 191730.0 238386.0 234156.0 66901.0 73696.0 112154.0 111706.0 157477.0 155537.0 102177.0 109679.0 100704.0 94275.0 164164.0 156343.0 95068.0 91411.0 86491.0 87390.0 158470.0 0.0 158470.0 158470.0 158470.0 158470.0 0.0 0.0 0.0 0.0
FIXED_EDGES_SECTION
1 2
3 4
5 6
7 8
9 10
11 12
13 14
15 16
17 18
19 20
21 22
23 24
25 26
27 28
29 30
31 32
33 34
35 36
37 38
39 40
41 42
43 44
45 46
47 48
49 50
51 52
53 54
55 56
57 58
59 60
61 62
63 64
65 66
67 68
69 70
71 72
73 74
75 76
77 78
79 80
-1 
DEMAND_SECTION
1 224
2 224
3 120
4 120
5 74
6 74
7 56
8 56
9 37
10 37
11 60
12 60
13 485
14 485
15 380
16 380
17 99
18 99
19 104
20 104
21 223
22 223
23 291
24 291
25 96
26 96
27 138
28 138
29 55
30 55
31 82
32 82
33 396
34 396
35 375
36 375
37 258
38 258
39 618
40 618
41 341
42 341
43 500
44 500
45 155
46 155
47 316
48 316
49 229
50 229
51 114
52 114
53 90
54 90
55 68
56 68
57 186
58 186
59 244
60 244
61 461
62 461
63 497
64 497
65 342
66 342
67 380
68 380
69 71
70 71
71 432
72 432
73 421
74 421
75 421
76 421
77 119
78 119
79 373
80 373
81 0
82 0
83 0
84 0
85 0
86 0
87 0
88 0
89 0
90 0
DEPOT_SECTION
81 
-1 
CAPACITIES_SECTION
5000 
5500 
6000 
6500 
-1 
EOF