NAME: GFS_20_1
TYPE: GFSP
DIMENSION: 88
VEHICLES: 4
CAPACITY: 5000.0
TRIP_DIST_LIMIT: 750000.0
TOTAL_DIST_LIMIT: 1050000.0
EDGE_WEIGHT_TYPE: EXPLICIT
EDGE_WEIGHT_FORMAT: FULL_MATRIX
EDGE_WEIGHT_SECTION
0.0 8088.0 77729.0 80873.0 205647.0 208660.0 162896.0 160366.0 177115.0 171309.0 148385.0 140314.0 100784.0 94723.0 150922.0 151584.0 336153.0 328539.0 262985.0 265488.0 128083.0 136112.0 300489.0 303585.0 166019.0 173782.0 269657.0 261718.0 185163.0 192826.0 194437.0 201279.0 356165.0 350383.0 197982.0 192604.0 186817.0 186426.0 326258.0 319152.0 207952.0 199936.0 309277.0 301443.0 289651.0 287165.0 141534.0 148447.0 212555.0 206264.0 209770.0 205151.0 282752.0 284169.0 141133.0 146543.0 159759.0 154491.0 167152.0 170995.0 109123.0 100910.0 167762.0 163987.0 285506.0 291292.0 132057.0 133623.0 319055.0 323646.0 265113.0 259348.0 166895.0 168189.0 262893.0 260309.0 188245.0 196744.0 110635.0 117320.0 284593.0 247775.0 284593.0 284593.0 284593.0 247775.0 247775.0 247775.0
8088.0 0.0 75296.0 77705.0 206472.0 209736.0 165581.0 162695.0 181092.0 175045.0 143808.0 135811.0 100135.0 94558.0 152119.0 152328.0 342466.0 334815.0 260928.0 263211.0 122015.0 129977.0 297866.0 301157.0 167285.0 174884.0 275344.0 267381.0 183533.0 191094.0 195101.0 201765.0 362087.0 356391.0 202382.0 197213.0 186907.0 186171.0 332561.0 325391.0 202738.0 194767.0 314951.0 307144.0 287435.0 284737.0 138268.0 144948.0 208647.0 202519.0 205488.0 200649.0 279304.0 280931.0 136137.0 141844.0 159479.0 154542.0 168882.0 172371.0 105813.0 97687.0 166681.0 163241.0 281773.0 287424.0 129033.0 131040.0 324751.0 329457.0 261327.0 255404.0 164973.0 165894.0 259560.0 257196.0 189128.0 197650.0 106284.0 113228.0 283373.0 250835.0 283373.0 283373.0 283373.0 250835.0 250835.0 250835.0
77729.0 75296.0 0.0 8039.0 139229.0 143728.0 112858.0 107338.0 138700.0 130839.0 76280.0 68149.0 31032.0 30242.0 89347.0 86679.0 319759.0 311768.0 185640.0 187928.0 71470.0 79108.0 222768.0 225931.0 104006.0 110206.0 246316.0 238364.0 108579.0 116018.0 127327.0 132974.0 333545.0 329114.0 162602.0 159968.0 116671.0 114583.0 309968.0 302072.0 137945.0 129825.0 284442.0 277212.0 212143.0 209510.0 64443.0 71814.0 136487.0 129807.0 134949.0 131286.0 205534.0 206696.0 72280.0 75277.0 88354.0 85046.0 108608.0 109519.0 32716.0 24553.0 92808.0 90348.0 208771.0 214834.0 54625.0 55894.0 294240.0 300267.0 188533.0 183164.0 89780.0 90605.0 185544.0 182741.0 122662.0 131059.0 39880.0 44148.0 208797.0 196710.0 208797.0 208797.0 208797.0 196710.0 196710.0 196710.0
80873.0 77705.0 8039.0 0.0 141984.0 146772.0 118529.0 112717.0 145222.0 137261.0 70179.0 61999.0 35617.0 36314.0 93697.0 90408.0 327017.0 319020.0 183925.0 185898.0 63517.0 71208.0 220236.0 223661.0 108040.0 113856.0 253354.0 245421.0 107834.0 115047.0 130022.0 135327.0 340464.0 336115.0 169192.0 166766.0 118667.0 116065.0 317245.0 309322.0 131669.0 123543.0 291314.0 284133.0 210170.0 207249.0 60666.0 67621.0 132020.0 125557.0 129925.0 125924.0 201880.0 203329.0 65444.0 68958.0 90298.0 87660.0 113179.0 113578.0 28257.0 20038.0 93221.0 91411.0 204739.0 210633.0 51328.0 53668.0 301095.0 307195.0 184395.0 178797.0 88671.0 88788.0 182026.0 179527.0 125751.0 134046.0 32974.0 38031.0 208225.0 201614.0 208225.0 208225.0 208225.0 201614.0 201614.0 201614.0
205647.0 206472.0 139229.0 141984.0 0.0 7195.0 60221.0 56387.0 83051.0 78186.0 133780.0 133180.0 108848.0 112770.0 55161.0 54148.0 243887.0 236339.0 100102.0 107135.0 167773.0 169878.0 141490.0 139481.0 40710.0 32395.0 170915.0 164947.0 63105.0 64538.0 11984.0 9706.0 245077.0 243490.0 95327.0 100528.0 26233.0 32820.0 235661.0 227529.0 160716.0 156455.0 198647.0 193746.0 123600.0 126547.0 109263.0 111472.0 124479.0 118086.0 134060.0 138795.0 149171.0 144550.0 143464.0 136597.0 52658.0 54325.0 43495.0 36729.0 125155.0 129063.0 58515.0 55458.0 158922.0 166790.0 109179.0 101695.0 206958.0 214676.0 146824.0 147834.0 74663.0 81786.0 132829.0 125276.0 17433.0 9094.0 138567.0 132072.0 100929.0 77703.0 100929.0 100929.0 100929.0 77703.0 77703.0 77703.0
208660.0 209736.0 143728.0 146772.0 7195.0 0.0 58814.0 55874.0 79175.0 74870.0 140560.0 139804.0 113090.0 116624.0 57754.0 57730.0 237032.0 229509.0 105052.0 112240.0 174177.0 176425.0 145972.0 143640.0 42786.0 34878.0 164308.0 158438.0 70287.0 71722.0 17751.0 16891.0 237989.0 236447.0 90104.0 95629.0 32911.0 39792.0 228859.0 220741.0 167908.0 163650.0 191675.0 186836.0 127858.0 131146.0 115789.0 118192.0 131578.0 125223.0 141209.0 145974.0 154874.0 150051.0 150120.0 143346.0 58309.0 59276.0 43972.0 38190.0 130780.0 134425.0 65197.0 61781.0 164784.0 172644.0 115399.0 107839.0 199940.0 207676.0 153098.0 154291.0 81577.0 88782.0 138884.0 131249.0 21068.0 12746.0 144455.0 138099.0 104309.0 70508.0 104309.0 104309.0 104309.0 70508.0 70508.0 70508.0
162896.0 165581.0 112858.0 118529.0 60221.0 58814.0 0.0 7999.0 33578.0 25497.0 141435.0 137393.0 83189.0 82620.0 32491.0 40702.0 217965.0 209991.0 156070.0 162385.0 164982.0 169730.0 198399.0 197283.0 30015.0 35535.0 142487.0 135047.0 95182.0 101003.0 54942.0 62728.0 226890.0 223443.0 55928.0 56773.0 61382.0 68009.0 208657.0 200455.0 186878.0 180648.0 177750.0 171192.0 181291.0 183256.0 114216.0 120115.0 159001.0 151430.0 165772.0 167974.0 200594.0 197240.0 147454.0 143281.0 60205.0 53543.0 20724.0 29042.0 113730.0 113724.0 77610.0 70059.0 209110.0 216888.0 108721.0 101176.0 187248.0 194026.0 193927.0 193050.0 94143.0 102030.0 182191.0 175458.0 47070.0 52282.0 129502.0 125749.0 160498.0 85675.0 160498.0 160498.0 160498.0 85675.0 85675.0 85675.0
160366.0 162695.0 107338.0 112717.0 56387.0 55874.0 7999.0 0.0 41577.0 33475.0 133633.0 129695.0 77185.0 77192.0 24578.0 32721.0 225751.0 217783.0 150110.0 156268.0 157722.0 162340.0 192525.0 191644.0 22698.0 29041.0 150257.0 142856.0 87580.0 93556.0 49858.0 57822.0 234347.0 230988.0 63779.0 64758.0 54854.0 61145.0 216470.0 208263.0 178887.0 172650.0 185258.0 178768.0 175654.0 177370.0 106403.0 112226.0 151199.0 143608.0 157879.0 160028.0 193813.0 190627.0 139799.0 135515.0 52259.0 45547.0 14177.0 22576.0 106753.0 107060.0 69739.0 62154.0 202172.0 209926.0 101074.0 93483.0 194715.0 201554.0 186731.0 185710.0 86185.0 94060.0 175230.0 168601.0 41868.0 47949.0 122472.0 118515.0 155671.0 89876.0 155671.0 155671.0 155671.0 89876.0 89876.0 89876.0
177115.0 181092.0 138700.0 145222.0 83051.0 79175.0 33578.0 41577.0 0.0 8434.0 174385.0 170017.0 111180.0 108932.0 65938.0 74249.0 185475.0 177472.0 182787.0 189591.0 196092.0 201270.0 224483.0 222529.0 62577.0 66473.0 110220.0 102577.0 127620.0 132962.0 81548.0 88388.0 196048.0 192163.0 24044.0 23354.0 91370.0 98700.0 176031.0 167868.0 220431.0 214223.0 146791.0 139894.0 206650.0 209489.0 147238.0 153362.0 191926.0 184432.0 198996.0 201375.0 229908.0 225972.0 179921.0 176114.0 93660.0 87115.0 52769.0 60333.0 144187.0 143206.0 110848.0 103398.0 238953.0 246794.0 141254.0 133868.0 156469.0 162907.0 224723.0 224350.0 127604.0 135522.0 212206.0 205140.0 74515.0 77143.0 160015.0 156936.0 183483.0 75084.0 183483.0 183483.0 183483.0 75084.0 75084.0 75084.0
171309.0 175045.0 130839.0 137261.0 78186.0 74870.0 25497.0 33475.0 8434.0 0.0 165978.0 161589.0 103016.0 100950.0 57677.0 66043.0 193906.0 185904.0 177298.0 183966.0 187703.0 192857.0 219234.0 217525.0 54987.0 59384.0 118635.0 111003.0 120188.0 125722.0 75717.0 82859.0 204340.0 200505.0 32296.0 31757.0 84686.0 91831.0 184465.0 176301.0 212357.0 206091.0 155084.0 148226.0 201594.0 204179.0 138841.0 145000.0 184298.0 176763.0 191203.0 193460.0 223661.0 219911.0 171488.0 167697.0 85696.0 79009.0 45272.0 53101.0 135830.0 134931.0 103032.0 95518.0 232535.0 240359.0 132825.0 125447.0 164743.0 171224.0 217968.0 217412.0 119637.0 127526.0 205715.0 198755.0 68403.0 71705.0 151660.0 148535.0 179018.0 78498.0 179018.0 179018.0 179018.0 78498.0 78498.0 78498.0
148385.0 143808.0 76280.0 70179.0 133780.0 140560.0 141435.0 133633.0 174385.0 165978.0 0.0 8186.0 77336.0 84790.0 109111.0 101433.0 359384.0 351415.0 133862.0 133469.0 39388.0 38364.0 163205.0 168188.0 117367.0 118537.0 283889.0 276479.0 75387.0 78888.0 123118.0 124477.0 367200.0 364163.0 197361.0 197734.0 107650.0 101081.0 350091.0 341888.0 61690.0 53581.0 318370.0 312088.0 157097.0 152353.0 27238.0 22548.0 66731.0 61882.0 62011.0 56847.0 138833.0 141793.0 11804.0 3281.0 86463.0 90293.0 126382.0 122014.0 44722.0 52174.0 75405.0 79796.0 139774.0 144832.0 33864.0 40703.0 327672.0 334708.0 119269.0 112720.0 59389.0 53119.0 120200.0 119576.0 123137.0 129134.0 37885.0 32177.0 165956.0 208560.0 165956.0 165956.0 165956.0 208560.0 208560.0 208560.0
140314.0 135811.0 68149.0 61999.0 133180.0 139804.0 137393.0 129695.0 170017.0 161589.0 8186.0 0.0 70333.0 77591.0 105318.0 97931.0 355317.0 347332.0 139049.0 139010.0 36216.0 36891.0 169549.0 174322.0 114410.0 116132.0 279865.0 272378.0 76917.0 81132.0 122191.0 124071.0 363769.0 360581.0 193247.0 193330.0 106953.0 100760.0 345957.0 337770.0 69797.0 61679.0 314810.0 308415.0 162845.0 158349.0 24330.0 22106.0 74027.0 68822.0 69799.0 64850.0 146005.0 148744.0 10427.0 7406.0 84254.0 87421.0 123156.0 119242.0 36865.0 44151.0 74669.0 78361.0 147237.0 152426.0 28771.0 36217.0 324185.0 331131.0 126720.0 120308.0 59687.0 54203.0 127132.0 126210.0 121681.0 128057.0 29741.0 24017.0 170149.0 206844.0 170149.0 170149.0 170149.0 206844.0 206844.0 206844.0
100784.0 100135.0 31032.0 35617.0 108848.0 113090.0 83189.0 77185.0 111180.0 103016.0 77336.0 70333.0 0.0 8254.0 58337.0 55740.0 294998.0 286982.0 164066.0 167297.0 87509.0 93815.0 203411.0 205701.0 72976.0 79265.0 220544.0 212700.0 85566.0 93448.0 97042.0 103055.0 307114.0 303039.0 135224.0 133399.0 87342.0 86134.0 285327.0 277297.0 136713.0 128888.0 257872.0 250857.0 191098.0 189390.0 55882.0 64053.0 126033.0 118611.0 127118.0 125243.0 190374.0 190431.0 78079.0 77651.0 59471.0 55149.0 77684.0 78487.0 35972.0 32794.0 67156.0 63205.0 195082.0 201772.0 45826.0 42537.0 267588.0 273908.0 175553.0 171238.0 68664.0 71807.0 170124.0 166211.0 92033.0 100491.0 51035.0 50272.0 183973.0 166018.0 183973.0 183973.0 183973.0 166018.0 166018.0 166018.0
94723.0 94558.0 30242.0 36314.0 112770.0 116624.0 82620.0 77192.0 108932.0 100950.0 84790.0 77591.0 8254.0 0.0 60387.0 58907.0 291514.0 283505.0 171454.0 174832.0 92662.0 99303.0 211081.0 213249.0 75410.0 82234.0 217468.0 209568.0 92926.0 100853.0 101134.0 107502.0 304399.0 300148.0 132921.0 130635.0 92359.0 91713.0 281789.0 273810.0 144611.0 136748.0 255209.0 248082.0 198537.0 196971.0 63977.0 72151.0 134287.0 126864.0 135340.0 133406.0 198452.0 198431.0 84941.0 84957.0 65037.0 59996.0 79183.0 80832.0 42191.0 37821.0 74013.0 69591.0 203238.0 209953.0 53849.0 50760.0 264972.0 271145.0 183747.0 179465.0 76435.0 79814.0 178200.0 174211.0 95668.0 104186.0 56516.0 56611.0 190633.0 166783.0 190633.0 190633.0 190633.0 166783.0 166783.0 166783.0
150922.0 152119.0 89347.0 93697.0 55161.0 57754.0 32491.0 24578.0 65938.0 57677.0 109111.0 105318.0 58337.0 60387.0 0.0 8574.0 250290.0 242327.0 136533.0 141969.0 134240.0 138547.0 178879.0 178924.0 15200.0 22901.0 174790.0 167413.0 67028.0 73842.0 44732.0 52341.0 258498.0 255265.0 88356.0 89222.0 42227.0 46076.0 241027.0 232817.0 154942.0 148543.0 209498.0 203099.0 163085.0 163800.0 81874.0 87648.0 128875.0 121168.0 134909.0 136619.0 176403.0 173960.0 115490.0 111035.0 29566.0 21950.0 19666.0 20491.0 84209.0 85445.0 47496.0 39722.0 184032.0 191645.0 76816.0 69146.0 218894.0 225816.0 167483.0 165777.0 62874.0 70564.0 157127.0 151012.0 37761.0 46114.0 99686.0 95196.0 146755.0 108273.0 146755.0 146755.0 146755.0 108273.0 108273.0 108273.0
151584.0 152328.0 86679.0 90408.0 54148.0 57730.0 40702.0 32721.0 74249.0 66043.0 101433.0 97931.0 55740.0 58907.0 8574.0 0.0 258133.0 250184.0 130032.0 135240.0 127772.0 131791.0 172236.0 172543.0 17989.0 23529.0 182634.0 175321.0 58906.0 65902.0 42858.0 49893.0 265859.0 262748.0 96377.0 97475.0 37483.0 40153.0 248920.0 240702.0 146438.0 140082.0 216959.0 210655.0 156791.0 157215.0 74211.0 79725.0 120347.0 112632.0 126337.0 128050.0 168773.0 166517.0 108189.0 103454.0 21150.0 13389.0 25437.0 23487.0 78702.0 80613.0 39072.0 31295.0 176220.0 183794.0 69676.0 61912.0 226294.0 233292.0 159444.0 157601.0 54301.0 61993.0 149358.0 143377.0 36857.0 45389.0 93897.0 88986.0 141709.0 113029.0 141709.0 141709.0 141709.0 113029.0 113029.0 113029.0
336153.0 342466.0 319759.0 327017.0 243887.0 237032.0 217965.0 225751.0 185475.0 193906.0 359384.0 355317.0 294998.0 291514.0 250290.0 258133.0 0.0 8018.0 334715.0 342407.0 381299.0 386655.0 372379.0 368883.0 243424.0 244288.0 75502.0 82941.0 303622.0 306903.0 249474.0 252942.0 32595.0 24611.0 162071.0 162331.0 263955.0 271941.0 9922.0 17704.0 400988.0 395563.0 47053.0 50478.0 353699.0 358349.0 332153.0 337857.0 367600.0 360779.0 376438.0 380231.0 387180.0 381365.0 365307.0 361246.0 275423.0 270082.0 233873.0 239507.0 329211.0 327615.0 290901.0 284216.0 397652.0 405328.0 326592.0 319110.0 41568.0 33796.0 388511.0 390489.0 308490.0 316506.0 373322.0 365365.0 245467.0 243253.0 344996.0 342255.0 328359.0 171494.0 328359.0 328359.0 328359.0 171494.0 171494.0 171494.0
328539.0 334815.0 311768.0 319020.0 236339.0 229509.0 209991.0 217783.0 177472.0 185904.0 351415.0 347332.0 286982.0 283505.0 242327.0 250184.0 8018.0 0.0 327491.0 335183.0 373283.0 378642.0 365156.0 361659.0 235527.0 236445.0 67550.0 74954.0 295889.0 299223.0 241815.0 245355.0 35851.0 27857.0 154088.0 154320.0 256240.0 264228.0 2881.0 9697.0 393185.0 387733.0 40632.0 43364.0 346475.0 351125.0 324186.0 329907.0 359930.0 353085.0 368721.0 372473.0 379956.0 374141.0 357316.0 353271.0 267531.0 262160.0 225962.0 231634.0 321194.0 319597.0 283059.0 276352.0 390511.0 398203.0 318604.0 311126.0 36274.0 28991.0 381206.0 383117.0 300639.0 308656.0 366074.0 358131.0 237744.0 235607.0 336979.0 334241.0 321135.0 164411.0 321135.0 321135.0 321135.0 164411.0 164411.0 164411.0
262985.0 260928.0 185640.0 183925.0 100102.0 105052.0 156070.0 150110.0 182787.0 177298.0 133862.0 139049.0 164066.0 171454.0 136533.0 130032.0 334715.0 327491.0 0.0 7799.0 172827.0 170135.0 42468.0 42582.0 128347.0 121111.0 264960.0 259908.0 78528.0 70619.0 101654.0 94454.0 333453.0 332324.0 195156.0 200584.0 95611.0 90540.0 327120.0 319185.0 116637.0 117688.0 288399.0 284237.0 27175.0 27323.0 125785.0 121139.0 77379.0 77429.0 88493.0 96581.0 53170.0 46792.0 145570.0 137065.0 111975.0 119746.0 135934.0 127539.0 156964.0 164555.0 98186.0 104091.0 64297.0 71739.0 133487.0 130267.0 296163.0 304048.0 60227.0 65458.0 96106.0 95145.0 43775.0 36032.0 109235.0 105663.0 162159.0 154167.0 40422.0 164826.0 40422.0 40422.0 40422.0 164826.0 164826.0 164826.0
265488.0 263211.0 187928.0 185898.0 107135.0 112240.0 162385.0 156268.0 189591.0 183966.0 133469.0 139010.0 167297.0 174832.0 141969.0 135240.0 342407.0 335183.0 7799.0 0.0 172087.0 169050.0 37042.0 38419.0 134294.0 127232.0 272629.0 267542.0 82053.0 74076.0 108256.0 101205.0 341145.0 340017.0 202327.0 207660.0 101564.0 96163.0 334812.0 326877.0 112701.0 114230.0 296091.0 291929.0 24291.0 22261.0 126965.0 121908.0 74462.0 75268.0 85241.0 93385.0 45373.0 39022.0 145074.0 136626.0 116666.0 124563.0 142105.0 133693.0 158588.0 166324.0 102210.0 108426.0 56518.0 63944.0 135060.0 132254.0 303856.0 311740.0 53103.0 58704.0 98891.0 97325.0 36711.0 29230.0 115732.0 112449.0 163058.0 155097.0 47048.0 172518.0 47048.0 47048.0 47048.0 172518.0 172518.0 172518.0
128083.0 122015.0 71470.0 63517.0 167773.0 174177.0 164982.0 157722.0 196092.0 187703.0 39388.0 36216.0 87509.0 92662.0 134240.0 127772.0 381299.0 373283.0 172827.0 172087.0 0.0 8160.0 200376.0 205794.0 145212.0 148065.0 306275.0 298565.0 113096.0 117336.0 156444.0 158925.0 391770.0 388131.0 219924.0 219028.0 141584.0 135826.0 371732.0 363630.0 83725.0 76301.0 342561.0 335840.0 195389.0 190263.0 58698.0 58137.0 102030.0 98492.0 94859.0 88005.0 173508.0 177318.0 27594.0 36112.0 117041.0 118919.0 153194.0 150382.0 52157.0 54881.0 109553.0 112397.0 172984.0 177161.0 59153.0 66945.0 352126.0 358782.0 152801.0 145532.0 95494.0 90336.0 155967.0 156254.0 155199.0 162074.0 36526.0 39237.0 205338.0 239442.0 205338.0 205338.0 205338.0 239442.0 239442.0 239442.0
136112.0 129977.0 79108.0 71208.0 169878.0 176425.0 169730.0 162340.0 201270.0 192857.0 38364.0 36891.0 93815.0 99303.0 138547.0 131791.0 386655.0 378642.0 170135.0 169050.0 8160.0 0.0 196359.0 201997.0 148979.0 151435.0 311489.0 303827.0 113457.0 117208.0 158750.0 160848.0 396618.0 393100.0 224994.0 224326.0 143646.0 137582.0 377131.0 369006.0 77010.0 69807.0 347456.0 340818.0 192048.0 186676.0 60637.0 58974.0 97696.0 94668.0 89906.0 82753.0 168584.0 172668.0 27054.0 35126.0 119996.0 122371.0 157226.0 154046.0 58057.0 61489.0 111416.0 114762.0 167637.0 171577.0 62411.0 70254.0 356975.0 363711.0 147613.0 140185.0 96566.0 90893.0 151473.0 152123.0 157898.0 164519.0 42823.0 44441.0 203519.0 242642.0 203519.0 203519.0 203519.0 242642.0 242642.0 242642.0
300489.0 297866.0 222768.0 220236.0 141490.0 145972.0 198399.0 192525.0 224483.0 219234.0 163205.0 169549.0 203411.0 211081.0 178879.0 172236.0 372379.0 365156.0 42468.0 37042.0 200376.0 196359.0 0.0 8285.0 170813.0 163547.0 302650.0 297740.0 118662.0 110677.0 143778.0 136403.0 371118.0 369989.0 235834.0 241575.0 138079.0 132953.0 364784.0 356850.0 130889.0 134411.0 326064.0 321901.0 18763.0 15156.0 160259.0 154462.0 98742.0 101889.0 107640.0 115542.0 36719.0 28955.0 174373.0 166194.0 153700.0 161604.0 178349.0 169963.0 192449.0 200399.0 139052.0 145387.0 46195.0 50440.0 168988.0 166880.0 333828.0 341713.0 56786.0 64892.0 134772.0 132497.0 46234.0 44279.0 151455.0 147529.0 195485.0 187650.0 65346.0 202490.0 65346.0 65346.0 65346.0 202490.0 202490.0 202490.0
303585.0 301157.0 225931.0 223661.0 139481.0 143640.0 197283.0 191644.0 222529.0 217525.0 168188.0 174322.0 205701.0 213249.0 178924.0 172543.0 368883.0 361659.0 42582.0 38419.0 205794.0 201997.0 8285.0 0.0 170256.0 162785.0 299153.0 294243.0 120459.0 112486.0 142438.0 134887.0 367621.0 366492.0 233136.0 239063.0 137607.0 132864.0 361288.0 353353.0 137877.0 141147.0 322567.0 318405.0 15993.0 16421.0 164087.0 158560.0 104629.0 107353.0 113908.0 121896.0 44884.0 37008.0 179494.0 171228.0 154548.0 162327.0 177482.0 169141.0 196077.0 203936.0 140501.0 146566.0 54476.0 58687.0 172562.0 170119.0 330331.0 338216.0 64557.0 72585.0 137228.0 135404.0 53171.0 50408.0 150229.0 145893.0 199689.0 191799.0 60282.0 198994.0 60282.0 60282.0 60282.0 198994.0 198994.0 198994.0
166019.0 167285.0 104006.0 108040.0 40710.0 42786.0 30015.0 22698.0 62577.0 54987.0 117367.0 114410.0 72976.0 75410.0 15200.0 17989.0 243424.0 235527.0 128347.0 134294.0 145212.0 148979.0 170813.0 170256.0 0.0 8448.0 168054.0 160961.0 65233.0 70988.0 31199.0 39149.0 249972.0 247113.0 82867.0 85057.0 32741.0 38593.0 234376.0 226143.0 158631.0 152739.0 201328.0 195244.0 154296.0 155661.0 90327.0 95199.0 129354.0 121855.0 136481.0 139057.0 171214.0 168137.0 124766.0 119574.0 32019.0 27074.0 9856.0 5542.0 96635.0 98600.0 48452.0 41220.0 179505.0 187251.0 86626.0 78796.0 210524.0 217674.0 164039.0 163067.0 65608.0 73610.0 152558.0 145969.0 23619.0 31617.0 111739.0 106650.0 135822.0 95068.0 135822.0 135822.0 135822.0 95068.0 95068.0 95068.0
173782.0 174884.0 110206.0 113856.0 32395.0 34878.0 35535.0 29041.0 66473.0 59384.0 118537.0 116132.0 79265.0 82234.0 22901.0 23529.0 244288.0 236445.0 121111.0 127232.0 148065.0 151435.0 163547.0 162785.0 8448.0 0.0 169167.0 162274.0 61401.0 66504.0 22764.0 30739.0 249740.0 247139.0 85279.0 88186.0 25870.0 32553.0 235389.0 227155.0 156885.0 151301.0 201422.0 195563.0 146805.0 148391.0 91848.0 96113.0 126020.0 118672.0 133682.0 136710.0 165059.0 161727.0 126547.0 120909.0 32098.0 29153.0 14913.0 6503.0 100798.0 103335.0 46615.0 40051.0 173615.0 181404.0 89048.0 81209.0 210465.0 217754.0 158662.0 158029.0 64211.0 72221.0 146712.0 139937.0 15185.0 23308.0 115531.0 110028.0 127741.0 91411.0 127741.0 127741.0 127741.0 91411.0 91411.0 91411.0
269657.0 275344.0 246316.0 253354.0 170915.0 164308.0 142487.0 150257.0 110220.0 118635.0 283889.0 279865.0 220544.0 217468.0 174790.0 182634.0 75502.0 67550.0 264960.0 272629.0 306275.0 311489.0 302650.0 299153.0 168054.0 169167.0 0.0 8032.0 229123.0 232763.0 175587.0 179620.0 87599.0 82828.0 86635.0 87282.0 189632.0 197612.0 66330.0 58100.0 326026.0 320461.0 39621.0 31803.0 283969.0 288619.0 256657.0 262358.0 293468.0 286491.0 301996.0 305534.0 317158.0 311527.0 289883.0 285763.0 200069.0 194630.0 158455.0 164240.0 254283.0 252978.0 215770.0 208977.0 327607.0 335395.0 251158.0 243651.0 49406.0 54438.0 317129.0 318562.0 233306.0 241327.0 302448.0 294623.0 171111.0 169492.0 270098.0 267145.0 258629.0 104040.0 258629.0 258629.0 258629.0 104040.0 104040.0 104040.0
261718.0 267381.0 238364.0 245421.0 164947.0 158438.0 135047.0 142856.0 102577.0 111003.0 276479.0 272378.0 212700.0 209568.0 167413.0 175321.0 82941.0 74954.0 259908.0 267542.0 298565.0 303827.0 297740.0 294243.0 160961.0 162274.0 8032.0 0.0 222512.0 226298.0 169281.0 173516.0 95627.0 90817.0 79135.0 79539.0 183131.0 191100.0 73615.0 65409.0 319159.0 313518.0 47570.0 39792.0 279059.0 283684.0 249254.0 255028.0 286969.0 279936.0 295371.0 298801.0 311877.0 306364.0 282366.0 278324.0 192979.0 187424.0 151313.0 157244.0 246542.0 245171.0 208843.0 201979.0 322238.0 330045.0 243651.0 236173.0 57380.0 62470.0 311440.0 312728.0 226336.0 234358.0 296901.0 289116.0 164618.0 163244.0 262351.0 259460.0 253719.0 100037.0 253719.0 253719.0 253719.0 100037.0 100037.0 100037.0
185163.0 183533.0 108579.0 107834.0 63105.0 70287.0 95182.0 87580.0 127620.0 120188.0 75387.0 76917.0 85566.0 92926.0 67028.0 58906.0 303622.0 295889.0 78528.0 82053.0 113096.0 113457.0 118662.0 120459.0 65233.0 61401.0 229123.0 222512.0 0.0 7986.0 54851.0 53399.0 306807.0 304818.0 146585.0 149583.0 39735.0 31778.0 294987.0 286776.0 98071.0 93486.0 259475.0 254097.0 105620.0 104275.0 56022.0 54996.0 64694.0 57477.0 72873.0 76692.0 110701.0 109125.0 86403.0 78522.0 37997.0 46179.0 74918.0 67328.0 82809.0 89557.0 20970.0 28256.0 117641.0 125126.0 60629.0 55412.0 268135.0 275688.0 100549.0 98753.0 19520.0 22811.0 90935.0 85400.0 58164.0 61226.0 91638.0 83865.0 100394.0 140747.0 100394.0 100394.0 100394.0 140747.0 140747.0 140747.0
192826.0 191094.0 116018.0 115047.0 64538.0 71722.0 101003.0 93556.0 132962.0 125722.0 78888.0 81132.0 93448.0 100853.0 73842.0 65902.0 306903.0 299223.0 70619.0 74076.0 117336.0 117208.0 110677.0 112486.0 70988.0 66504.0 232763.0 226298.0 7986.0 0.0 57471.0 54930.0 309299.0 307503.0 151249.0 154561.0 43179.0 35237.0 298389.0 290195.0 96223.0 92205.0 262346.0 257138.0 97684.0 96293.0 61485.0 59600.0 60719.0 53908.0 69729.0 74262.0 103169.0 101414.0 90228.0 82098.0 45269.0 53467.0 80503.0 72649.0 89521.0 96483.0 28749.0 35795.0 110349.0 117900.0 66892.0 62134.0 270870.0 278495.0 93662.0 92230.0 26386.0 28049.0 83541.0 77817.0 61681.0 63761.0 97637.0 89765.0 93350.0 142168.0 93350.0 93350.0 93350.0 142168.0 142168.0 142168.0
194437.0 195101.0 127327.0 130022.0 11984.0 17751.0 54942.0 49858.0 81548.0 75717.0 123118.0 122191.0 97042.0 101134.0 44732.0 42858.0 249474.0 241815.0 101654.0 108256.0 156444.0 158750.0 143778.0 142438.0 31199.0 22764.0 175587.0 169281.0 54851.0 57471.0 0.0 8047.0 252006.0 250105.0 96495.0 100906.0 15698.0 23263.0 241011.0 232829.0 152921.0 148268.0 204887.0 199668.0 126453.0 128671.0 98115.0 100683.0 118129.0 111379.0 127164.0 131405.0 148489.0 144436.0 132531.0 125862.0 40743.0 42364.0 36012.0 28216.0 113255.0 117099.0 47714.0 44048.0 157750.0 165612.0 97648.0 90093.0 213450.0 221053.0 144396.0 144750.0 64470.0 71895.0 131189.0 123932.0 8000.0 6380.0 126786.0 120380.0 105814.0 86491.0 105814.0 105814.0 105814.0 86491.0 86491.0 86491.0
201279.0 201765.0 132974.0 135327.0 9706.0 16891.0 62728.0 57822.0 88388.0 82859.0 124477.0 124071.0 103055.0 107502.0 52341.0 49893.0 252942.0 245355.0 94454.0 101205.0 158925.0 160848.0 136403.0 134887.0 39149.0 30739.0 179620.0 173516.0 53399.0 54930.0 8047.0 0.0 254510.0 252846.0 102302.0 107065.0 17477.0 23398.0 244634.0 236483.0 151064.0 146767.0 207892.0 202895.0 118916.0 121331.0 100302.0 102257.0 115072.0 108596.0 124540.0 129191.0 142167.0 137877.0 134310.0 127329.0 45225.0 47969.0 44036.0 36262.0 117387.0 121648.0 49435.0 46939.0 151650.0 159520.0 100629.0 93262.0 216275.0 223963.0 138891.0 139595.0 65230.0 72248.0 125283.0 117880.0 16024.0 11266.0 130421.0 123748.0 97865.0 87390.0 97865.0 97865.0 97865.0 87390.0 87390.0 87390.0
356165.0 362087.0 333545.0 340464.0 245077.0 237989.0 226890.0 234347.0 196048.0 204340.0 367200.0 363769.0 307114.0 304399.0 258498.0 265859.0 32595.0 35851.0 333453.0 341145.0 391770.0 396618.0 371118.0 367621.0 249972.0 249740.0 87599.0 95627.0 306807.0 309299.0 252006.0 254510.0 0.0 8049.0 172044.0 173777.0 267134.0 275048.0 38726.0 42065.0 404841.0 399922.0 49257.0 56333.0 352437.0 357087.0 340025.0 345157.0 369555.0 363099.0 379013.0 383409.0 385918.0 380103.0 373979.0 369290.0 281594.0 277008.0 240823.0 245577.0 340102.0 339254.0 295959.0 289755.0 396555.0 404284.0 335312.0 327638.0 39645.0 33281.0 387287.0 389450.0 313630.0 321570.0 372053.0 364098.0 248934.0 245653.0 355932.0 352537.0 327097.0 170417.0 327097.0 327097.0 327097.0 170417.0 170417.0 170417.0
350383.0 356391.0 329114.0 336115.0 243490.0 236447.0 223443.0 230988.0 192163.0 200505.0 364163.0 360581.0 303039.0 300148.0 255265.0 262748.0 24611.0 27857.0 332324.0 340017.0 388131.0 393100.0 369989.0 366492.0 247113.0 247139.0 82828.0 90817.0 304818.0 307503.0 250105.0 252846.0 8049.0 0.0 168231.0 169640.0 265099.0 273041.0 30736.0 34444.0 402768.0 397725.0 45796.0 52291.0 351308.0 355958.0 336955.0 342225.0 367917.0 361368.0 377232.0 381485.0 384790.0 378974.0 370747.0 366201.0 278867.0 274098.0 237856.0 242824.0 336334.0 335314.0 293511.0 287186.0 395427.0 403155.0 332041.0 324405.0 36710.0 29455.0 386158.0 388321.0 311181.0 319146.0 370924.0 362970.0 246804.0 243774.0 352164.0 348917.0 325969.0 168223.0 325969.0 325969.0 325969.0 168223.0 168223.0 168223.0
197982.0 202382.0 162602.0 169192.0 95327.0 90104.0 55928.0 63779.0 24044.0 32296.0 197361.0 193247.0 135224.0 132921.0 88356.0 96377.0 162071.0 154088.0 195156.0 202327.0 219924.0 224994.0 235834.0 233136.0 82867.0 85279.0 86635.0 79135.0 146585.0 151249.0 96495.0 102302.0 172044.0 168231.0 0.0 8078.0 108461.0 116207.0 152736.0 144539.0 241497.0 235558.0 122787.0 115945.0 217522.0 221117.0 170144.0 176003.0 211263.0 203945.0 218939.0 221798.0 244386.0 239870.0 203250.0 199192.0 114725.0 108762.0 73055.0 79695.0 168106.0 167221.0 131257.0 124087.0 253949.0 261820.0 164528.0 157038.0 132449.0 138933.0 240891.0 241138.0 148473.0 156471.0 227557.0 220181.0 90444.0 91179.0 183936.0 180729.0 192960.0 64459.0 192960.0 192960.0 192960.0 64459.0 64459.0 64459.0
192604.0 197213.0 159968.0 166766.0 100528.0 95629.0 56773.0 64758.0 23354.0 31757.0 197734.0 193330.0 133399.0 130635.0 89222.0 97475.0 162331.0 154320.0 200584.0 207660.0 219028.0 224326.0 241575.0 239063.0 85057.0 88186.0 87282.0 79539.0 149583.0 154561.0 100906.0 107065.0 173777.0 169640.0 8078.0 0.0 112166.0 119773.0 152836.0 144693.0 243415.0 237296.0 124575.0 117480.0 223369.0 226773.0 170590.0 176708.0 214143.0 206731.0 221508.0 224101.0 249229.0 244893.0 203206.0 199452.0 116559.0 110216.0 75201.0 82323.0 167007.0 165732.0 133497.0 126159.0 258627.0 266493.0 164562.0 157199.0 134339.0 140539.0 245146.0 245159.0 150466.0 158422.0 232095.0 224819.0 94495.0 95848.0 182819.0 179939.0 199086.0 72531.0 199086.0 199086.0 199086.0 72531.0 72531.0 72531.0
186817.0 186907.0 116671.0 118667.0 26233.0 32911.0 61382.0 54854.0 91370.0 84686.0 107650.0 106953.0 87342.0 92359.0 42227.0 37483.0 263955.0 256240.0 95611.0 101564.0 141584.0 143646.0 138079.0 137607.0 32741.0 25870.0 189632.0 183131.0 39735.0 43179.0 15698.0 17477.0 267134.0 265099.0 108461.0 112166.0 0.0 7988.0 255367.0 247163.0 137708.0 132892.0 219740.0 214370.0 121667.0 122929.0 83036.0 85287.0 103843.0 96875.0 112483.0 116427.0 139248.0 135861.0 117246.0 110437.0 28372.0 32365.0 40777.0 32372.0 100042.0 104473.0 32300.0 29463.0 147917.0 155725.0 83168.0 75786.0 228411.0 235956.0 133354.0 133065.0 48804.0 56199.0 121056.0 114186.0 18521.0 21998.0 112961.0 106271.0 104539.0 102177.0 104539.0 104539.0 104539.0 102177.0 102177.0 102177.0
186426.0 186171.0 114583.0 116065.0 32820.0 39792.0 68009.0 61145.0 98700.0 91831.0 101081.0 100760.0 86134.0 91713.0 46076.0 40153.0 271941.0 264228.0 90540.0 96163.0 135826.0 137582.0 132953.0 132864.0 38593.0 32553.0 197612.0 191100.0 31778.0 35237.0 23263.0 23398.0 275048.0 273041.0 116207.0 119773.0 7988.0 0.0 263355.0 255151.0 129800.0 125051.0 227701.0 222346.0 117013.0 117842.0 77139.0 78891.0 95869.0 88889.0 104497.0 108464.0 132667.0 129544.0 110967.0 103940.0 26692.0 32432.0 47290.0 38998.0 96044.0 100953.0 26285.0 25050.0 141102.0 148879.0 78010.0 70866.0 236358.0 243912.0 126142.0 125650.0 41852.0 48990.0 114183.0 107473.0 26503.0 29636.0 108345.0 101404.0 101763.0 109679.0 101763.0 101763.0 101763.0 109679.0 109679.0 109679.0
326258.0 332561.0 309968.0 317245.0 235661.0 228859.0 208657.0 216470.0 176031.0 184465.0 350091.0 345957.0 285327.0 281789.0 241027.0 248920.0 9922.0 2881.0 327120.0 334812.0 371732.0 377131.0 364784.0 361288.0 234376.0 235389.0 66330.0 73615.0 294987.0 298389.0 241011.0 244634.0 38726.0 30736.0 152736.0 152836.0 255367.0 263355.0 0.0 8235.0 392183.0 386689.0 41035.0 43250.0 346104.0 350754.0 322868.0 328635.0 359104.0 352230.0 367838.0 371536.0 379468.0 373770.0 355918.0 351927.0 266389.0 260956.0 224784.0 230529.0 319626.0 317968.0 282003.0 275258.0 390186.0 397890.0 317217.0 309759.0 37325.0 30334.0 380746.0 382597.0 299566.0 307585.0 365664.0 357732.0 236861.0 234821.0 335401.0 332718.0 320764.0 164164.0 320764.0 320764.0 320764.0 164164.0 164164.0 164164.0
319152.0 325391.0 302072.0 309322.0 227529.0 220741.0 200455.0 208263.0 167868.0 176301.0 341888.0 337770.0 277297.0 273810.0 232817.0 240702.0 17704.0 9697.0 319185.0 326877.0 363630.0 369006.0 356850.0 353353.0 226143.0 227155.0 58100.0 65409.0 286776.0 290195.0 232829.0 236483.0 42065.0 34444.0 144539.0 144693.0 247163.0 255151.0 8235.0 0.0 383953.0 378456.0 34353.0 35737.0 338169.0 342819.0 314663.0 320419.0 350911.0 344029.0 359630.0 363317.0 371580.0 365835.0 347740.0 343730.0 258155.0 252728.0 216553.0 222294.0 311534.0 309918.0 273770.0 267023.0 382275.0 389988.0 309034.0 301569.0 32114.0 26140.0 372734.0 374547.0 291332.0 299351.0 357688.0 349765.0 228655.0 226645.0 327316.0 324599.0 312829.0 156343.0 312829.0 312829.0 312829.0 156343.0 156343.0 156343.0
207952.0 202738.0 137945.0 131669.0 160716.0 167908.0 186878.0 178887.0 220431.0 212357.0 61690.0 69797.0 136713.0 144611.0 154942.0 146438.0 400988.0 393185.0 116637.0 112701.0 83725.0 77010.0 130889.0 137877.0 158631.0 156885.0 326026.0 319159.0 98071.0 96223.0 152921.0 151064.0 404841.0 402768.0 241497.0 243415.0 137708.0 129800.0 392183.0 383953.0 0.0 8126.0 357318.0 351794.0 131762.0 124766.0 81239.0 73221.0 41087.0 44801.0 29522.0 22637.0 98037.0 103749.0 66979.0 62715.0 126861.0 133349.0 168445.0 162018.0 106259.0 113847.0 110354.0 117412.0 94648.0 97329.0 90959.0 95488.0 366068.0 373571.0 76183.0 68065.0 93024.0 85031.0 84717.0 88136.0 155965.0 159295.0 98901.0 93802.0 154576.0 238386.0 154576.0 154576.0 154576.0 238386.0 238386.0 238386.0
199936.0 194767.0 129825.0 123543.0 156455.0 163650.0 180648.0 172650.0 214223.0 206091.0 53581.0 61679.0 128888.0 136748.0 148543.0 140082.0 395563.0 387733.0 117688.0 114230.0 76301.0 69807.0 134411.0 141147.0 152739.0 151301.0 320461.0 313518.0 93486.0 92205.0 148268.0 146767.0 399922.0 397725.0 235558.0 237296.0 132892.0 125051.0 386689.0 378456.0 8126.0 0.0 352187.0 346561.0 134217.0 127495.0 73595.0 65644.0 40699.0 43047.0 29260.0 21351.0 102620.0 107929.0 58904.0 54590.0 120836.0 127108.0 162516.0 156283.0 98182.0 105747.0 104691.0 111571.0 99948.0 103071.0 83200.0 87919.0 361016.0 368468.0 80878.0 72917.0 87189.0 79169.0 88184.0 90968.0 150990.0 154648.0 90780.0 85681.0 154719.0 234156.0 154719.0 154719.0 154719.0 234156.0 234156.0 234156.0
309277.0 314951.0 284442.0 291314.0 198647.0 191675.0 177750.0 185258.0 146791.0 155084.0 318370.0 314810.0 257872.0 255209.0 209498.0 216959.0 47053.0 40632.0 288399.0 296091.0 342561.0 347456.0 326064.0 322567.0 201328.0 201422.0 39621.0 47570.0 259475.0 262346.0 204887.0 207892.0 49257.0 45796.0 122787.0 124575.0 219740.0 227701.0 41035.0 34353.0 357318.0 352187.0 0.0 7962.0 307383.0 312033.0 291165.0 296430.0 322895.0 316247.0 332051.0 336165.0 340864.0 335049.0 324986.0 320413.0 233104.0 228305.0 192061.0 197059.0 290859.0 289997.0 247850.0 241473.0 351501.0 359230.0 286290.0 278643.0 9862.0 16346.0 342213.0 344385.0 265516.0 273492.0 326886.0 319044.0 201376.0 198585.0 306689.0 303333.0 282043.0 124850.0 282043.0 282043.0 282043.0 124850.0 124850.0 124850.0
301443.0 307144.0 277212.0 284133.0 193746.0 186836.0 171192.0 178768.0 139894.0 148226.0 312088.0 308415.0 250857.0 248082.0 203099.0 210655.0 50478.0 43364.0 284237.0 291929.0 335840.0 340818.0 321901.0 318405.0 195244.0 195563.0 31803.0 39792.0 254097.0 257138.0 199668.0 202895.0 56333.0 52291.0 115945.0 117480.0 214370.0 222346.0 43250.0 35737.0 351794.0 346561.0 7962.0 0.0 303221.0 307870.0 284864.0 290235.0 317770.0 311045.0 326791.0 330780.0 336702.0 330886.0 318556.0 314091.0 227106.0 222159.0 185893.0 191071.0 284050.0 283073.0 242080.0 235604.0 347339.0 355067.0 279838.0 272221.0 17613.0 23063.0 338045.0 340060.0 259730.0 267722.0 322844.0 314887.0 195946.0 193399.0 299881.0 296627.0 277881.0 121060.0 277881.0 277881.0 277881.0 121060.0 121060.0 121060.0
289651.0 287435.0 212143.0 210170.0 123600.0 127858.0 181291.0 175654.0 206650.0 201594.0 157097.0 162845.0 191098.0 198537.0 163085.0 156791.0 353699.0 346475.0 27175.0 24291.0 195389.0 192048.0 18763.0 15993.0 154296.0 146805.0 283969.0 279059.0 105620.0 97684.0 126453.0 118916.0 352437.0 351308.0 217522.0 223369.0 121667.0 117013.0 346104.0 338169.0 131762.0 134217.0 307383.0 303221.0 0.0 8263.0 151229.0 146093.0 95830.0 97592.0 105932.0 114059.0 46900.0 38746.0 168610.0 160216.0 139038.0 146751.0 161493.0 153155.0 182879.0 190611.0 125360.0 131247.0 57925.0 63724.0 159351.0 156517.0 315148.0 323032.0 62922.0 70293.0 122905.0 121540.0 48726.0 43794.0 134238.0 129940.0 187256.0 179306.0 46895.0 183810.0 46895.0 46895.0 46895.0 183810.0 183810.0 183810.0
287165.0 284737.0 209510.0 207249.0 126547.0 131146.0 183256.0 177370.0 209489.0 204179.0 152353.0 158349.0 189390.0 196971.0 163800.0 157215.0 358349.0 351125.0 27323.0 22261.0 190263.0 186676.0 15156.0 16421.0 155661.0 148391.0 288619.0 283684.0 104275.0 96293.0 128671.0 121331.0 357087.0 355958.0 221117.0 226773.0 122929.0 117842.0 350754.0 342819.0 124766.0 127495.0 312033.0 307870.0 8263.0 0.0 147744.0 142293.0 89793.0 92028.0 99561.0 107647.0 38679.0 30547.0 163747.0 155425.0 138847.0 146707.0 163194.0 154807.0 179690.0 187536.0 124471.0 130672.0 49766.0 55721.0 156170.0 153699.0 319797.0 327682.0 54819.0 62296.0 120867.0 118988.0 41009.0 36630.0 136331.0 132478.0 183443.0 175536.0 53539.0 188460.0 53539.0 53539.0 53539.0 188460.0 188460.0 188460.0
141534.0 138268.0 64443.0 60666.0 109263.0 115789.0 114216.0 106403.0 147238.0 138841.0 27238.0 24330.0 55882.0 63977.0 81874.0 74211.0 332153.0 324186.0 125785.0 126965.0 58698.0 60637.0 160259.0 164087.0 90327.0 91848.0 256657.0 249254.0 56022.0 61485.0 98115.0 100302.0 340025.0 336955.0 170144.0 170590.0 83036.0 77139.0 322868.0 314663.0 81239.0 73595.0 291165.0 284864.0 151229.0 147744.0 0.0 8174.0 72331.0 65457.0 71940.0 69521.0 141237.0 142676.0 34757.0 29270.0 59929.0 63278.0 99237.0 95076.0 32456.0 40628.0 50883.0 54158.0 144328.0 150410.0 10336.0 14459.0 300482.0 307500.0 124099.0 118833.0 37321.0 33455.0 121360.0 118938.0 97414.0 103907.0 36620.0 28627.0 153675.0 182518.0 153675.0 153675.0 153675.0 182518.0 182518.0 182518.0
148447.0 144948.0 71814.0 67621.0 111472.0 118192.0 120115.0 112226.0 153362.0 145000.0 22548.0 22106.0 64053.0 72151.0 87648.0 79725.0 337857.0 329907.0 121139.0 121908.0 58137.0 58974.0 154462.0 158560.0 95199.0 96113.0 262358.0 255028.0 54996.0 59600.0 100683.0 102257.0 345157.0 342225.0 176003.0 176708.0 85287.0 78891.0 328635.0 320419.0 73221.0 65644.0 296430.0 290235.0 146093.0 142293.0 8174.0 0.0 64694.0 58008.0 63920.0 61372.0 134359.0 136067.0 32111.0 25187.0 64018.0 68148.0 104369.0 99736.0 39380.0 47635.0 52996.0 57250.0 137123.0 143073.0 18434.0 22276.0 305677.0 312774.0 116803.0 111351.0 37593.0 32207.0 114634.0 112535.0 100598.0 106660.0 41168.0 33244.0 150345.0 186013.0 150345.0 150345.0 150345.0 186013.0 186013.0 186013.0
212555.0 208647.0 136487.0 132020.0 124479.0 131578.0 159001.0 151199.0 191926.0 184298.0 66731.0 74027.0 126033.0 134287.0 128875.0 120347.0 367600.0 359930.0 77379.0 74462.0 102030.0 97696.0 98742.0 104629.0 129354.0 126020.0 293468.0 286969.0 64694.0 60719.0 118129.0 115072.0 369555.0 367917.0 211263.0 214143.0 103843.0 95869.0 359104.0 350911.0 41087.0 40699.0 322895.0 317770.0 95830.0 89793.0 72331.0 64694.0 0.0 7807.0 11595.0 19362.0 72126.0 75404.0 77077.0 69406.0 99382.0 106968.0 139158.0 131821.0 103910.0 112168.0 81559.0 89269.0 73291.0 78777.0 82549.0 83791.0 331334.0 339003.0 52781.0 46796.0 66499.0 59507.0 53955.0 54467.0 122362.0 124375.0 102622.0 95439.0 114021.0 201470.0 114021.0 114021.0 114021.0 201470.0 201470.0 201470.0
206264.0 202519.0 129807.0 125557.0 118086.0 125223.0 151430.0 143608.0 184432.0 176763.0 61882.0 68822.0 118611.0 126864.0 121168.0 112632.0 360779.0 353085.0 77429.0 75268.0 98492.0 94668.0 101889.0 107353.0 121855.0 118672.0 286491.0 279936.0 57477.0 53908.0 111379.0 108596.0 363099.0 361368.0 203945.0 206731.0 96875.0 88889.0 352230.0 344029.0 44801.0 43047.0 316247.0 311045.0 97592.0 92028.0 65457.0 58008.0 7807.0 0.0 16065.0 22189.0 77273.0 79937.0 72700.0 64724.0 91703.0 99248.0 131675.0 124412.0 97358.0 105619.0 73917.0 81606.0 79258.0 85078.0 75586.0 76518.0 324750.0 332388.0 58850.0 53376.0 58714.0 51701.0 58332.0 57872.0 115392.0 117665.0 96821.0 89459.0 112529.0 195359.0 112529.0 112529.0 112529.0 195359.0 195359.0 195359.0
209770.0 205488.0 134949.0 129925.0 134060.0 141209.0 165772.0 157879.0 198996.0 191203.0 62011.0 69799.0 127118.0 135340.0 134909.0 126337.0 376438.0 368721.0 88493.0 85241.0 94859.0 89906.0 107640.0 113908.0 136481.0 133682.0 301996.0 295371.0 72873.0 69729.0 127164.0 124540.0 379013.0 377232.0 218939.0 221508.0 112483.0 104497.0 367838.0 359630.0 29522.0 29260.0 332051.0 326791.0 105932.0 99561.0 71940.0 63920.0 11595.0 16065.0 0.0 8154.0 78692.0 82844.0 71391.0 64349.0 105696.0 112962.0 146330.0 139275.0 102234.0 110421.0 88171.0 95726.0 78344.0 83016.0 82275.0 84581.0 340596.0 348213.0 58008.0 50999.0 72048.0 64525.0 61910.0 63503.0 130978.0 133474.0 99207.0 92475.0 125530.0 211398.0 125530.0 125530.0 125530.0 211398.0 211398.0 211398.0
205151.0 200649.0 131286.0 125924.0 138795.0 145974.0 167974.0 160028.0 201375.0 193460.0 56847.0 64850.0 125243.0 133406.0 136619.0 128050.0 380231.0 372473.0 96581.0 93385.0 88005.0 82753.0 115542.0 121896.0 139057.0 136710.0 305534.0 298801.0 76692.0 74262.0 131405.0 129191.0 383409.0 381485.0 221798.0 224101.0 116427.0 108464.0 371536.0 363317.0 22637.0 21351.0 336165.0 330780.0 114059.0 107647.0 69521.0 61372.0 19362.0 22189.0 8154.0 0.0 85921.0 90360.0 65513.0 58936.0 107770.0 114744.0 148912.0 142112.0 98647.0 106736.0 90606.0 97979.0 84980.0 89267.0 79803.0 82814.0 344810.0 352375.0 64863.0 57527.0 73855.0 66061.0 69646.0 71489.0 134834.0 137756.0 94522.0 88122.0 133371.0 216364.0 133371.0 133371.0 133371.0 216364.0 216364.0 216364.0
282752.0 279304.0 205534.0 201880.0 149171.0 154874.0 200594.0 193813.0 229908.0 223661.0 138833.0 146005.0 190374.0 198452.0 176403.0 168773.0 387180.0 379956.0 53170.0 45373.0 173508.0 168584.0 36719.0 44884.0 171214.0 165059.0 317158.0 311877.0 110701.0 103169.0 148489.0 142167.0 385918.0 384790.0 244386.0 249229.0 139248.0 132667.0 379468.0 371580.0 98037.0 102620.0 340864.0 336702.0 46900.0 38679.0 141237.0 134359.0 72126.0 77273.0 78692.0 85921.0 0.0 8198.0 149169.0 141531.0 148416.0 156610.0 179909.0 171552.0 173630.0 181845.0 131641.0 138925.0 11410.0 18572.0 150909.0 150375.0 348629.0 356514.0 21864.0 30056.0 122952.0 118697.0 20253.0 25396.0 155394.0 153383.0 174034.0 166578.0 89757.0 217291.0 89757.0 89757.0 89757.0 217291.0 217291.0 217291.0
284169.0 280931.0 206696.0 203329.0 144550.0 150051.0 197240.0 190627.0 225972.0 219911.0 141793.0 148744.0 190431.0 198431.0 173960.0 166517.0 381365.0 374141.0 46792.0 39022.0 177318.0 172668.0 28955.0 37008.0 168137.0 161727.0 311527.0 306364.0 109125.0 101414.0 144436.0 137877.0 380103.0 378974.0 239870.0 244893.0 135861.0 129544.0 373770.0 365835.0 103749.0 107929.0 335049.0 330886.0 38746.0 30547.0 142676.0 136067.0 75404.0 79937.0 82844.0 90360.0 8198.0 0.0 152413.0 144588.0 146476.0 154644.0 176622.0 168229.0 175130.0 183297.0 130093.0 137201.0 19257.0 25729.0 152133.0 151178.0 342813.0 350698.0 28184.0 36404.0 122410.0 118626.0 21613.0 24221.0 151527.0 149130.0 176257.0 168674.0 82210.0 211476.0 82210.0 82210.0 82210.0 211476.0 211476.0 211476.0
141133.0 136137.0 72280.0 65444.0 143464.0 150120.0 147454.0 139799.0 179921.0 171488.0 11804.0 10427.0 78079.0 84941.0 115490.0 108189.0 365307.0 357316.0 145570.0 145074.0 27594.0 27054.0 174373.0 179494.0 124766.0 126547.0 289883.0 282366.0 86403.0 90228.0 132531.0 134310.0 373979.0 370747.0 203250.0 203206.0 117246.0 110967.0 355918.0 347740.0 66979.0 58904.0 324986.0 318556.0 168610.0 163747.0 34757.0 32111.0 77077.0 72700.0 71391.0 65513.0 149169.0 152413.0 0.0 8540.0 94680.0 97802.0 133460.0 129623.0 43080.0 49438.0 84949.0 88751.0 149628.0 154407.0 38733.0 46344.0 334382.0 341301.0 129183.0 122370.0 69662.0 63855.0 130869.0 130548.0 132086.0 138421.0 32474.0 28944.0 177758.0 217268.0 177758.0 177758.0 177758.0 217268.0 217268.0 217268.0
146543.0 141844.0 75277.0 68958.0 136597.0 143346.0 143281.0 135515.0 176114.0 167697.0 3281.0 7406.0 77651.0 84957.0 111035.0 103454.0 361246.0 353271.0 137065.0 136626.0 36112.0 35126.0 166194.0 171228.0 119574.0 120909.0 285763.0 278324.0 78522.0 82098.0 125862.0 127329.0 369290.0 366201.0 199192.0 199452.0 110437.0 103940.0 351927.0 343730.0 62715.0 54590.0 320413.0 314091.0 160216.0 155425.0 29270.0 25187.0 69406.0 64724.0 64349.0 58936.0 141531.0 144588.0 8540.0 0.0 88870.0 92510.0 128507.0 124279.0 44241.0 51437.0 78161.0 82397.0 142311.0 147279.0 35153.0 42271.0 329741.0 336746.0 121821.0 115182.0 62327.0 56175.0 123007.0 122490.0 125759.0 131847.0 36330.0 31137.0 169228.0 211139.0 169228.0 169228.0 169228.0 211139.0 211139.0 211139.0
159759.0 159479.0 88354.0 90298.0 52658.0 58309.0 60205.0 52259.0 93660.0 85696.0 86463.0 84254.0 59471.0 65037.0 29566.0 21150.0 275423.0 267531.0 111975.0 116666.0 117041.0 119996.0 153700.0 154548.0 32019.0 32098.0 200069.0 192979.0 37997.0 45269.0 40743.0 45225.0 281594.0 278867.0 114725.0 116559.0 28372.0 26692.0 266389.0 258155.0 126861.0 120836.0 233104.0 227106.0 139038.0 138847.0 59929.0 64018.0 99382.0 91703.0 105696.0 107770.0 148416.0 146476.0 94680.0 88870.0 0.0 8199.0 41714.0 36044.0 72511.0 76475.0 17932.0 10156.0 155583.0 163098.0 57895.0 50143.0 242231.0 249447.0 138521.0 136541.0 33946.0 41870.0 128806.0 123045.0 38317.0 45729.0 86190.0 80001.0 126955.0 122677.0 126955.0 126955.0 126955.0 122677.0 122677.0 122677.0
154491.0 154542.0 85046.0 87660.0 54325.0 59276.0 53543.0 45547.0 87115.0 79009.0 90293.0 87421.0 55149.0 59996.0 21950.0 13389.0 270082.0 262160.0 119746.0 124563.0 118919.0 122371.0 161604.0 162327.0 27074.0 29153.0 194630.0 187424.0 46179.0 53467.0 42364.0 47969.0 277008.0 274098.0 108762.0 110216.0 32365.0 32432.0 260956.0 252728.0 133349.0 127108.0 228305.0 222159.0 146751.0 146707.0 63278.0 68148.0 106968.0 99248.0 112962.0 114744.0 156610.0 154644.0 97802.0 92510.0 8199.0 0.0 36269.0 31821.0 72166.0 75308.0 25871.0 18128.0 163780.0 171291.0 59962.0 52118.0 237535.0 244651.0 146680.0 144642.0 40942.0 48685.0 137004.0 131237.0 38440.0 46531.0 86597.0 80934.0 133796.0 120562.0 133796.0 133796.0 133796.0 120562.0 120562.0 120562.0
167152.0 168882.0 108608.0 113179.0 43495.0 43972.0 20724.0 14177.0 52769.0 45272.0 126382.0 123156.0 77684.0 79183.0 19666.0 25437.0 233873.0 225962.0 135934.0 142105.0 153194.0 157226.0 178349.0 177482.0 9856.0 14913.0 158455.0 151313.0 74918.0 80503.0 36012.0 44036.0 240823.0 237856.0 73055.0 75201.0 40777.0 47290.0 224784.0 216553.0 168445.0 162516.0 192061.0 185893.0 161493.0 163194.0 99237.0 104369.0 139158.0 131675.0 146330.0 148912.0 179909.0 176622.0 133460.0 128507.0 41714.0 36269.0 0.0 8419.0 103696.0 105088.0 58306.0 51045.0 188391.0 196167.0 95054.0 87265.0 201317.0 208405.0 173229.0 172420.0 75421.0 83416.0 161469.0 154752.0 28015.0 34707.0 119067.0 114335.0 141771.0 88619.0 141771.0 141771.0 141771.0 88619.0 88619.0 88619.0
170995.0 172371.0 109519.0 113578.0 36729.0 38190.0 29042.0 22576.0 60333.0 53101.0 122014.0 119242.0 78487.0 80832.0 20491.0 23487.0 239507.0 231634.0 127539.0 133693.0 150382.0 154046.0 169963.0 169141.0 5542.0 6503.0 164240.0 157244.0 67328.0 72649.0 28216.0 36262.0 245577.0 242824.0 79695.0 82323.0 32372.0 38998.0 230529.0 222294.0 162018.0 156283.0 197059.0 191071.0 153155.0 154807.0 95076.0 99736.0 131821.0 124412.0 139275.0 142112.0 171552.0 168229.0 129623.0 124279.0 36044.0 31821.0 8419.0 0.0 102056.0 104096.0 51667.0 44738.0 180086.0 187870.0 91652.0 83812.0 206193.0 213402.0 165058.0 164356.0 69095.0 77116.0 153176.0 146420.0 20301.0 27703.0 117102.0 111928.0 133739.0 89649.0 133739.0 133739.0 133739.0 89649.0 89649.0 89649.0
109123.0 105813.0 32716.0 28257.0 125155.0 130780.0 113730.0 106753.0 144187.0 135830.0 44722.0 36865.0 35972.0 42191.0 84209.0 78702.0 329211.0 321194.0 156964.0 158588.0 52157.0 58057.0 192449.0 196077.0 96635.0 100798.0 254283.0 246542.0 82809.0 89521.0 113255.0 117387.0 340102.0 336334.0 168106.0 167007.0 100042.0 96044.0 319626.0 311534.0 106259.0 98182.0 290859.0 284050.0 182879.0 179690.0 32456.0 39380.0 103910.0 97358.0 102234.0 98647.0 173630.0 175130.0 43080.0 44241.0 72511.0 72166.0 103696.0 102056.0 0.0 8262.0 71050.0 71010.0 176502.0 182435.0 23531.0 27405.0 300475.0 307034.0 156177.0 150652.0 63304.0 62234.0 153796.0 151386.0 110373.0 118128.0 15831.0 14420.0 182844.0 191700.0 182844.0 182844.0 182844.0 191700.0 191700.0 191700.0
100910.0 97687.0 24553.0 20038.0 129063.0 134425.0 113724.0 107060.0 143206.0 134931.0 52174.0 44151.0 32794.0 37821.0 85445.0 80613.0 327615.0 319597.0 164555.0 166324.0 54881.0 61489.0 200399.0 203936.0 98600.0 103335.0 252978.0 245171.0 89557.0 96483.0 117099.0 121648.0 339254.0 335314.0 167221.0 165732.0 104473.0 100953.0 317968.0 309918.0 113847.0 105747.0 289997.0 283073.0 190611.0 187536.0 40628.0 47635.0 112168.0 105619.0 110421.0 106736.0 181845.0 183297.0 49438.0 51437.0 76475.0 75308.0 105088.0 104096.0 8262.0 0.0 76638.0 75925.0 184756.0 190696.0 31411.0 34453.0 299670.0 306101.0 164436.0 158914.0 70138.0 69576.0 161988.0 159515.0 113735.0 121704.0 18776.0 20534.0 189830.0 193544.0 189830.0 189830.0 189830.0 193544.0 193544.0 193544.0
167762.0 166681.0 92808.0 93221.0 58515.0 65197.0 77610.0 69739.0 110848.0 103032.0 75405.0 74669.0 67156.0 74013.0 47496.0 39072.0 290901.0 283059.0 98186.0 102210.0 109553.0 111416.0 139052.0 140501.0 48452.0 46615.0 215770.0 208843.0 20970.0 28749.0 47714.0 49435.0 295959.0 293511.0 131257.0 133497.0 32300.0 26285.0 282003.0 273770.0 110354.0 104691.0 247850.0 242080.0 125360.0 124471.0 50883.0 52996.0 81559.0 73917.0 88171.0 90606.0 131641.0 130093.0 84949.0 78161.0 17932.0 25871.0 58306.0 51667.0 71050.0 76638.0 0.0 7778.0 138442.0 145873.0 51901.0 44976.0 256812.0 264166.0 121011.0 118825.0 17672.0 25644.0 111816.0 106360.0 48172.0 53763.0 82567.0 75433.0 116844.0 133594.0 116844.0 116844.0 116844.0 133594.0 133594.0 133594.0
163987.0 163241.0 90348.0 91411.0 55458.0 61781.0 70059.0 62154.0 103398.0 95518.0 79796.0 78361.0 63205.0 69591.0 39722.0 31295.0 284216.0 276352.0 104091.0 108426.0 112397.0 114762.0 145387.0 146566.0 41220.0 40051.0 208977.0 201979.0 28256.0 35795.0 44048.0 46939.0 289755.0 287186.0 124087.0 126159.0 29463.0 25050.0 275258.0 267023.0 117412.0 111571.0 241473.0 235604.0 131247.0 130672.0 54158.0 57250.0 89269.0 81606.0 95726.0 97979.0 138925.0 137201.0 88751.0 82397.0 10156.0 18128.0 51045.0 44738.0 71010.0 75925.0 7778.0 0.0 145889.0 153358.0 53735.0 46323.0 250507.0 257804.0 128618.0 126520.0 24395.0 32408.0 119190.0 113595.0 43368.0 49757.0 83565.0 76815.0 121091.0 128765.0 121091.0 121091.0 121091.0 128765.0 128765.0 128765.0
285506.0 281773.0 208771.0 204739.0 158922.0 164784.0 209110.0 202172.0 238953.0 232535.0 139774.0 147237.0 195082.0 203238.0 184032.0 176220.0 397652.0 390511.0 64297.0 56518.0 172984.0 167637.0 46195.0 54476.0 179505.0 173615.0 327607.0 322238.0 117641.0 110349.0 157750.0 151650.0 396555.0 395427.0 253949.0 258627.0 147917.0 141102.0 390186.0 382275.0 94648.0 99948.0 351501.0 347339.0 57925.0 49766.0 144328.0 137123.0 73291.0 79258.0 78344.0 84980.0 11410.0 19257.0 149628.0 142311.0 155583.0 163780.0 188391.0 180086.0 176502.0 184756.0 138442.0 145889.0 0.0 7871.0 154244.0 154267.0 359266.0 367151.0 20518.0 27458.0 128651.0 123858.0 26955.0 33823.0 164474.0 162812.0 175898.0 168648.0 101167.0 227928.0 101167.0 101167.0 101167.0 227928.0 227928.0 227928.0
291292.0 287424.0 214834.0 210633.0 166790.0 172644.0 216888.0 209926.0 246794.0 240359.0 144832.0 152426.0 201772.0 209953.0 191645.0 183794.0 405328.0 398203.0 71739.0 63944.0 177161.0 171577.0 50440.0 58687.0 187251.0 181404.0 335395.0 330045.0 125126.0 117900.0 165612.0 159520.0 404284.0 403155.0 261820.0 266493.0 155725.0 148879.0 397890.0 389988.0 97329.0 103071.0 359230.0 355067.0 63724.0 55721.0 150410.0 143073.0 78777.0 85078.0 83016.0 89267.0 18572.0 25729.0 154407.0 147279.0 163098.0 171291.0 196167.0 187870.0 182435.0 190696.0 145873.0 153358.0 7871.0 0.0 160415.0 160673.0 366994.0 374879.0 26335.0 32119.0 135763.0 130796.0 34698.0 41680.0 172323.0 170680.0 181351.0 174214.0 107939.0 235656.0 107939.0 107939.0 107939.0 235656.0 235656.0 235656.0
132057.0 129033.0 54625.0 51328.0 109179.0 115399.0 108721.0 101074.0 141254.0 132825.0 33864.0 28771.0 45826.0 53849.0 76816.0 69676.0 326592.0 318604.0 133487.0 135060.0 59153.0 62411.0 168988.0 172562.0 86626.0 89048.0 251158.0 243651.0 60629.0 66892.0 97648.0 100629.0 335312.0 332041.0 164528.0 164562.0 83168.0 78010.0 317217.0 309034.0 90959.0 83200.0 286290.0 279838.0 159351.0 156170.0 10336.0 18434.0 82549.0 75586.0 82275.0 79803.0 150909.0 152133.0 38733.0 35153.0 57895.0 59962.0 95054.0 91652.0 23531.0 31411.0 51901.0 53735.0 154244.0 160415.0 0.0 7844.0 295703.0 302599.0 134088.0 128943.0 41194.0 39137.0 130932.0 128253.0 96108.0 103135.0 31152.0 23651.0 159981.0 180349.0 159981.0 159981.0 159981.0 180349.0 180349.0 180349.0
133623.0 131040.0 55894.0 53668.0 101695.0 107839.0 101176.0 93483.0 133868.0 125447.0 40703.0 36217.0 42537.0 50760.0 69146.0 61912.0 319110.0 311126.0 130267.0 132254.0 66945.0 70254.0 166880.0 170119.0 78796.0 81209.0 243651.0 236173.0 55412.0 62134.0 90093.0 93262.0 327638.0 324405.0 157038.0 157199.0 75786.0 70866.0 309759.0 301569.0 95488.0 87919.0 278643.0 272221.0 156517.0 153699.0 14459.0 22276.0 83791.0 76518.0 84581.0 82814.0 150375.0 151178.0 46344.0 42271.0 50143.0 52118.0 87265.0 83812.0 27405.0 34453.0 44976.0 46323.0 154267.0 160673.0 7844.0 0.0 288039.0 294959.0 134350.0 129597.0 35901.0 35164.0 130243.0 127110.0 88403.0 95512.0 37594.0 30540.0 155476.0 172526.0 155476.0 155476.0 155476.0 172526.0 172526.0 172526.0
319055.0 324751.0 294240.0 301095.0 206958.0 199940.0 187248.0 194715.0 156469.0 164743.0 327672.0 324185.0 267588.0 264972.0 218894.0 226294.0 41568.0 36274.0 296163.0 303856.0 352126.0 356975.0 333828.0 330331.0 210524.0 210465.0 49406.0 57380.0 268135.0 270870.0 213450.0 216275.0 39645.0 36710.0 132449.0 134339.0 228411.0 236358.0 37325.0 32114.0 366068.0 361016.0 9862.0 17613.0 315148.0 319797.0 300482.0 305677.0 331334.0 324750.0 340596.0 344810.0 348629.0 342813.0 334382.0 329741.0 242231.0 237535.0 201317.0 206193.0 300475.0 299670.0 256812.0 250507.0 359266.0 366994.0 295703.0 288039.0 0.0 8039.0 349997.0 352128.0 274483.0 282445.0 334763.0 326809.0 210104.0 207125.0 316303.0 312893.0 289808.0 132322.0 289808.0 289808.0 289808.0 132322.0 132322.0 132322.0
323646.0 329457.0 300267.0 307195.0 214676.0 207676.0 194026.0 201554.0 162907.0 171224.0 334708.0 331131.0 273908.0 271145.0 225816.0 233292.0 33796.0 28991.0 304048.0 311740.0 358782.0 363711.0 341713.0 338216.0 217674.0 217754.0 54438.0 62470.0 275688.0 278495.0 221053.0 223963.0 33281.0 29455.0 138933.0 140539.0 235956.0 243912.0 30334.0 26140.0 373571.0 368468.0 16346.0 23063.0 323032.0 327682.0 307500.0 312774.0 339003.0 332388.0 348213.0 352375.0 356514.0 350698.0 341301.0 336746.0 249447.0 244651.0 208405.0 213402.0 307034.0 306101.0 264166.0 257804.0 367151.0 374879.0 302599.0 294959.0 8039.0 0.0 357749.0 360033.0 281833.0 289807.0 342648.0 334694.0 217615.0 214739.0 322865.0 319559.0 297692.0 140267.0 297692.0 297692.0 297692.0 140267.0 140267.0 140267.0
265113.0 261327.0 188533.0 184395.0 146824.0 153098.0 193927.0 186731.0 224723.0 217968.0 119269.0 126720.0 175553.0 183747.0 167483.0 159444.0 388511.0 381206.0 60227.0 53103.0 152801.0 147613.0 56786.0 64557.0 164039.0 158662.0 317129.0 311440.0 100549.0 93662.0 144396.0 138891.0 387287.0 386158.0 240891.0 245146.0 133354.0 126142.0 380746.0 372734.0 76183.0 80878.0 342213.0 338045.0 62922.0 54819.0 124099.0 116803.0 52781.0 58850.0 58008.0 64863.0 21864.0 28184.0 129183.0 121821.0 138521.0 146680.0 173229.0 165058.0 156177.0 164436.0 121011.0 128618.0 20518.0 26335.0 134088.0 134350.0 349997.0 357749.0 0.0 8242.0 110090.0 104854.0 16455.0 24377.0 150655.0 149829.0 155397.0 148170.0 100102.0 218659.0 100102.0 100102.0 100102.0 218659.0 218659.0 218659.0
259348.0 255404.0 183164.0 178797.0 147834.0 154291.0 193050.0 185710.0 224350.0 217412.0 112720.0 120308.0 171238.0 179465.0 165777.0 157601.0 390489.0 383117.0 65458.0 58704.0 145532.0 140185.0 64892.0 72585.0 163067.0 158029.0 318562.0 312728.0 98753.0 92230.0 144750.0 139595.0 389450.0 388321.0 241138.0 245159.0 133065.0 125650.0 382597.0 374547.0 68065.0 72917.0 344385.0 340060.0 70293.0 62296.0 118833.0 111351.0 46796.0 53376.0 50999.0 57527.0 30056.0 36404.0 122370.0 115182.0 136541.0 144642.0 172420.0 164356.0 150652.0 158914.0 118825.0 126520.0 27458.0 32119.0 128943.0 129597.0 352128.0 360033.0 8242.0 0.0 106980.0 101323.0 22272.0 29482.0 150721.0 150361.0 149271.0 142178.0 105724.0 220823.0 105724.0 105724.0 105724.0 220823.0 220823.0 220823.0
166895.0 164973.0 89780.0 88671.0 74663.0 81577.0 94143.0 86185.0 127604.0 119637.0 59389.0 59687.0 68664.0 76435.0 62874.0 54301.0 308490.0 300639.0 96106.0 98891.0 95494.0 96566.0 134772.0 137228.0 65608.0 64211.0 233306.0 226336.0 19520.0 26386.0 64470.0 65230.0 313630.0 311181.0 148473.0 150466.0 48804.0 41852.0 299566.0 291332.0 93024.0 87189.0 265516.0 259730.0 122905.0 120867.0 37321.0 37593.0 66499.0 58714.0 72048.0 73855.0 122952.0 122410.0 69662.0 62327.0 33946.0 40942.0 75421.0 69095.0 63304.0 70138.0 17672.0 24395.0 128651.0 135763.0 41194.0 35901.0 274483.0 281833.0 110090.0 106980.0 0.0 8022.0 102756.0 98235.0 65557.0 70680.0 72287.0 64589.0 119700.0 150783.0 119700.0 119700.0 119700.0 150783.0 150783.0 150783.0
168189.0 165894.0 90605.0 88788.0 81786.0 88782.0 102030.0 94060.0 135522.0 127526.0 53119.0 54203.0 71807.0 79814.0 70564.0 61993.0 316506.0 308656.0 95145.0 97325.0 90336.0 90893.0 132497.0 135404.0 73610.0 72221.0 241327.0 234358.0 22811.0 28049.0 71895.0 72248.0 321570.0 319146.0 156471.0 158422.0 56199.0 48990.0 307585.0 299351.0 85031.0 79169.0 273492.0 267722.0 121540.0 118988.0 33455.0 32207.0 59507.0 51701.0 64525.0 66061.0 118697.0 118626.0 63855.0 56175.0 41870.0 48685.0 83416.0 77116.0 62234.0 69576.0 25644.0 32408.0 123858.0 130796.0 39137.0 35164.0 282445.0 289807.0 104854.0 101323.0 8022.0 0.0 98446.0 94405.0 73281.0 78161.0 69634.0 61738.0 120848.0 158330.0 120848.0 120848.0 120848.0 158330.0 158330.0 158330.0
262893.0 259560.0 185544.0 182026.0 132829.0 138884.0 182191.0 175230.0 212206.0 205715.0 120200.0 127132.0 170124.0 178200.0 157127.0 149358.0 373322.0 366074.0 43775.0 36711.0 155967.0 151473.0 46234.0 53171.0 152558.0 146712.0 302448.0 296901.0 90935.0 83541.0 131189.0 125283.0 372053.0 370924.0 227557.0 232095.0 121056.0 114183.0 365664.0 357688.0 84717.0 88184.0 326886.0 322844.0 48726.0 41009.0 121360.0 114634.0 53955.0 58332.0 61910.0 69646.0 20253.0 21613.0 130869.0 123007.0 128806.0 137004.0 161469.0 153176.0 153796.0 161988.0 111816.0 119190.0 26955.0 34698.0 130932.0 130243.0 334763.0 342648.0 16455.0 22272.0 102756.0 98446.0 0.0 8072.0 137787.0 136379.0 154690.0 147132.0 83749.0 203425.0 83749.0 83749.0 83749.0 203425.0 203425.0 203425.0
260309.0 257196.0 182741.0 179527.0 125276.0 131249.0 175458.0 168601.0 205140.0 198755.0 119576.0 126210.0 166211.0 174211.0 151012.0 143377.0 365365.0 358131.0 36032.0 29230.0 156254.0 152123.0 44279.0 50408.0 145969.0 139937.0 294623.0 289116.0 85400.0 77817.0 123932.0 117880.0 364098.0 362970.0 220181.0 224819.0 114186.0 107473.0 357732.0 349765.0 88136.0 90968.0 319044.0 314887.0 43794.0 36630.0 118938.0 112535.0 54467.0 57872.0 63503.0 71489.0 25396.0 24221.0 130548.0 122490.0 123045.0 131237.0 154752.0 146420.0 151386.0 159515.0 106360.0 113595.0 33823.0 41680.0 128253.0 127110.0 326809.0 334694.0 24377.0 29482.0 98235.0 94405.0 8072.0 0.0 130654.0 129023.0 153084.0 145398.0 76242.0 195471.0 76242.0 76242.0 76242.0 195471.0 195471.0 195471.0
188245.0 189128.0 122662.0 125751.0 17433.0 21068.0 47070.0 41868.0 74515.0 68403.0 123137.0 121681.0 92033.0 95668.0 37761.0 36857.0 245467.0 237744.0 109235.0 115732.0 155199.0 157898.0 151455.0 150229.0 23619.0 15185.0 171111.0 164618.0 58164.0 61681.0 8000.0 16024.0 248934.0 246804.0 90444.0 94495.0 18521.0 26503.0 236861.0 228655.0 155965.0 150990.0 201376.0 195946.0 134238.0 136331.0 97414.0 100598.0 122362.0 115392.0 130978.0 134834.0 155394.0 151527.0 132086.0 125759.0 38317.0 38440.0 28015.0 20301.0 110373.0 113735.0 48172.0 43368.0 164474.0 172323.0 96108.0 88403.0 210104.0 217615.0 150655.0 150721.0 65557.0 73281.0 137787.0 130654.0 0.0 8532.0 124400.0 118307.0 113808.0 85477.0 113808.0 113808.0 113808.0 85477.0 85477.0 85477.0
196744.0 197650.0 131059.0 134046.0 9094.0 12746.0 52282.0 47949.0 77143.0 71705.0 129134.0 128057.0 100491.0 104186.0 46114.0 45389.0 243253.0 235607.0 105663.0 112449.0 162074.0 164519.0 147529.0 145893.0 31617.0 23308.0 169492.0 163244.0 61226.0 63761.0 6380.0 11266.0 245653.0 243774.0 91179.0 95848.0 21998.0 29636.0 234821.0 226645.0 159295.0 154648.0 198585.0 193399.0 129940.0 132478.0 103907.0 106660.0 124375.0 117665.0 133474.0 137756.0 153383.0 149130.0 138421.0 131847.0 45729.0 46531.0 34707.0 27703.0 118128.0 121704.0 53763.0 49757.0 162812.0 170680.0 103135.0 95512.0 207125.0 214739.0 149829.0 150361.0 70680.0 78161.0 136379.0 129023.0 8532.0 0.0 131918.0 125655.0 108260.0 80183.0 108260.0 108260.0 108260.0 80183.0 80183.0 80183.0
110635.0 106284.0 39880.0 32974.0 138567.0 144455.0 129502.0 122472.0 160015.0 151660.0 37885.0 29741.0 51035.0 56516.0 99686.0 93897.0 344996.0 336979.0 162159.0 163058.0 36526.0 42823.0 195485.0 199689.0 111739.0 115531.0 270098.0 262351.0 91638.0 97637.0 126786.0 130421.0 355932.0 352164.0 183936.0 182819.0 112961.0 108345.0 335401.0 327316.0 98901.0 90780.0 306689.0 299881.0 187256.0 183443.0 36620.0 41168.0 102622.0 96821.0 99207.0 94522.0 174034.0 176257.0 32474.0 36330.0 86190.0 86597.0 119067.0 117102.0 15831.0 18776.0 82567.0 83565.0 175898.0 181351.0 31152.0 37594.0 316303.0 322865.0 155397.0 149271.0 72287.0 69634.0 154690.0 153084.0 124400.0 131918.0 0.0 8004.0 190251.0 206726.0 190251.0 190251.0 190251.0 206726.0 206726.0 206726.0
117320.0 113228.0 44148.0 38031.0 132072.0 138099.0 125749.0 118515.0 156936.0 148535.0 32177.0 24017.0 50272.0 56611.0 95196.0 88986.0 342255.0 334241.0 154167.0 155097.0 39237.0 44441.0 187650.0 191799.0 106650.0 110028.0 267145.0 259460.0 83865.0 89765.0 120380.0 123748.0 352537.0 348917.0 180729.0 179939.0 106271.0 101404.0 332718.0 324599.0 93802.0 85681.0 303333.0 296627.0 179306.0 175536.0 28627.0 33244.0 95439.0 89459.0 92475.0 88122.0 166578.0 168674.0 28944.0 31137.0 80001.0 80934.0 114335.0 111928.0 14420.0 20534.0 75433.0 76815.0 168648.0 174214.0 23651.0 30540.0 312893.0 319559.0 148170.0 142178.0 64589.0 61738.0 147132.0 145398.0 118307.0 125655.0 8004.0 0.0 182282.0 201399.0 182282.0 182282.0 182282.0 201399.0 201399.0 201399.0
284593.0 283373.0 208797.0 208225.0 100929.0 104309.0 160498.0 155671.0 183483.0 179018.0 165956.0 170149.0 183973.0 190633.0 146755.0 141709.0 328359.0 321135.0 40422.0 47048.0 205338.0 203519.0 65346.0 60282.0 135822.0 127741.0 258629.0 253719.0 100394.0 93350.0 105814.0 97865.0 327097.0 325969.0 192960.0 199086.0 104539.0 101763.0 320764.0 312829.0 154576.0 154719.0 282043.0 277881.0 46895.0 53539.0 153675.0 150345.0 114021.0 112529.0 125530.0 133371.0 89757.0 82210.0 177758.0 169228.0 126955.0 133796.0 141771.0 133739.0 182844.0 189830.0 116844.0 121091.0 101167.0 107939.0 159981.0 155476.0 289808.0 297692.0 100102.0 105724.0 119700.0 120848.0 83749.0 76242.0 113808.0 108260.0 190251.0 182282.0 0.0 158470.0 0.0 0.0 0.0 158470.0 158470.0 158470.0
247775.0 250835.0 196710.0 201614.0 77703.0 70508.0 85675.0 89876.0 75084.0 78498.0 208560.0 206844.0 166018.0 166783.0 108273.0 113029.0 171494.0 164411.0 164826.0 172518.0 239442.0 242642.0 202490.0 198994.0 95068.0 91411.0 104040.0 100037.0 140747.0 142168.0 86491.0 87390.0 170417.0 168223.0 64459.0 72531.0 102177.0 109679.0 164164.0 156343.0 238386.0 234156.0 124850.0 121060.0 183810.0 188460.0 182518.0 186013.0 201470.0 195359.0 211398.0 216364.0 217291.0 211476.0 217268.0 211139.0 122677.0 120562.0 88619.0 89649.0 191700.0 193544.0 133594.0 128765.0 227928.0 235656.0 180349.0 172526.0 132322.0 140267.0 218659.0 220823.0 150783.0 158330.0 203425.0 195471.0 85477.0 80183.0 206726.0 201399.0 158470.0 0.0 158470.0 158470.0 158470.0 0.0 0.0 0.0
284593.0 283373.0 208797.0 208225.0 100929.0 104309.0 160498.0 155671.0 183483.0 179018.0 165956.0 170149.0 183973.0 190633.0 146755.0 141709.0 328359.0 321135.0 40422.0 47048.0 205338.0 203519.0 65346.0 60282.0 135822.0 127741.0 258629.0 253719.0 100394.0 93350.0 105814.0 97865.0 327097.0 325969.0 192960.0 199086.0 104539.0 101763.0 320764.0 312829.0 154576.0 154719.0 282043.0 277881.0 46895.0 53539.0 153675.0 150345.0 114021.0 112529.0 125530.0 133371.0 89757.0 82210.0 177758.0 169228.0 126955.0 133796.0 141771.0 133739.0 182844.0 189830.0 116844.0 121091.0 101167.0 107939.0 159981.0 155476.0 289808.0 297692.0 100102.0 105724.0 119700.0 120848.0 83749.0 76242.0 113808.0 108260.0 190251.0 182282.0 0.0 158470.0 0.0 0.0 0.0 158470.0 158470.0 158470.0
284593.0 283373.0 208797.0 208225.0 100929.0 104309.0 160498.0 155671.0 183483.0 179018.0 165956.0 170149.0 183973.0 190633.0 146755.0 141709.0 328359.0 321135.0 40422.0 47048.0 205338.0 203519.0 65346.0 60282.0 135822.0 127741.0 258629.0 253719.0 100394.0 93350.0 105814.0 97865.0 327097.0 325969.0 192960.0 199086.0 104539.0 101763.0 320764.0 312829.0 154576.0 154719.0 282043.0 277881.0 46895.0 53539.0 153675.0 150345.0 114021.0 112529.0 125530.0 133371.0 89757.0 82210.0 177758.0 169228.0 126955.0 133796.0 141771.0 133739.0 182844.0 189830.0 116844.0 121091.0 101167.0 107939.0 159981.0 155476.0 289808.0 297692.0 100102.0 105724.0 119700.0 120848.0 83749.0 76242.0 113808.0 108260.0 190251.0 182282.0 0.0 158470.0 0.0 0.0 0.0 158470.0 158470.0 158470.0
284593.0 283373.0 208797.0 208225.0 100929.0 104309.0 160498.0 155671.0 183483.0 179018.0 165956.0 170149.0 183973.0 190633.0 146755.0 141709.0 328359.0 321135.0 40422.0 47048.0 205338.0 203519.0 65346.0 60282.0 135822.0 127741.0 258629.0 253719.0 100394.0 93350.0 105814.0 97865.0 327097.0 325969.0 192960.0 199086.0 104539.0 101763.0 320764.0 312829.0 154576.0 154719.0 282043.0 277881.0 46895.0 53539.0 153675.0 150345.0 114021.0 112529.0 125530.0 133371.0 89757.0 82210.0 177758.0 169228.0 126955.0 133796.0 141771.0 133739.0 182844.0 189830.0 116844.0 121091.0 101167.0 107939.0 159981.0 155476.0 289808.0 297692.0 100102.0 105724.0 119700.0 120848.0 83749.0 76242.0 113808.0 108260.0 190251.0 182282.0 0.0 158470.0 0.0 0.0 0.0 158470.0 158470.0 158470.0
247775.0 250835.0 196710.0 201614.0 77703.0 70508.0 85675.0 89876.0 75084.0 78498.0 208560.0 206844.0 166018.0 166783.0 108273.0 113029.0 171494.0 164411.0 164826.0 172518.0 239442.0 242642.0 202490.0 198994.0 95068.0 91411.0 104040.0 100037.0 140747.0 142168.0 86491.0 87390.0 170417.0 168223.0 64459.0 72531.0 102177.0 109679.0 164164.0 156343.0 238386.0 234156.0 124850.0 121060.0 183810.0 188460.0 182518.0 186013.0 201470.0 195359.0 211398.0 216364.0 217291.0 211476.0 217268.0 211139.0 122677.0 120562.0 88619.0 89649.0 191700.0 193544.0 133594.0 128765.0 227928.0 235656.0 180349.0 172526.0 132322.0 140267.0 218659.0 220823.0 150783.0 158330.0 203425.0 195471.0 85477.0 80183.0 206726.0 201399.0 158470.0 0.0 158470.0 158470.0 158470.0 0.0 0.0 0.0
247775.0 250835.0 196710.0 201614.0 77703.0 70508.0 85675.0 89876.0 75084.0 78498.0 208560.0 206844.0 166018.0 166783.0 108273.0 113029.0 171494.0 164411.0 164826.0 172518.0 239442.0 242642.0 202490.0 198994.0 95068.0 91411.0 104040.0 100037.0 140747.0 142168.0 86491.0 87390.0 170417.0 168223.0 64459.0 72531.0 102177.0 109679.0 164164.0 156343.0 238386.0 234156.0 124850.0 121060.0 183810.0 188460.0 182518.0 186013.0 201470.0 195359.0 211398.0 216364.0 217291.0 211476.0 217268.0 211139.0 122677.0 120562.0 88619.0 89649.0 191700.0 193544.0 133594.0 128765.0 227928.0 235656.0 180349.0 172526.0 132322.0 140267.0 218659.0 220823.0 150783.0 158330.0 203425.0 195471.0 85477.0 80183.0 206726.0 201399.0 158470.0 0.0 158470.0 158470.0 158470.0 0.0 0.0 0.0
247775.0 250835.0 196710.0 201614.0 77703.0 70508.0 85675.0 89876.0 75084.0 78498.0 208560.0 206844.0 166018.0 166783.0 108273.0 113029.0 171494.0 164411.0 164826.0 172518.0 239442.0 242642.0 202490.0 198994.0 95068.0 91411.0 104040.0 100037.0 140747.0 142168.0 86491.0 87390.0 170417.0 168223.0 64459.0 72531.0 102177.0 109679.0 164164.0 156343.0 238386.0 234156.0 124850.0 121060.0 183810.0 188460.0 182518.0 186013.0 201470.0 195359.0 211398.0 216364.0 217291.0 211476.0 217268.0 211139.0 122677.0 120562.0 88619.0 89649.0 191700.0 193544.0 133594.0 128765.0 227928.0 235656.0 180349.0 172526.0 132322.0 140267.0 218659.0 220823.0 150783.0 158330.0 203425.0 195471.0 85477.0 80183.0 206726.0 201399.0 158470.0 0.0 158470.0 158470.0 158470.0 0.0 0.0 0.0
FIXED_EDGES_SECTION
1 2
3 4
5 6
7 8
9 10
11 12
13 14
15 16
17 18
19 20
21 22
23 24
25 26
27 28
29 30
31 32
33 34
35 36
37 38
39 40
41 42
43 44
45 46
47 48
49 50
51 52
53 54
55 56
57 58
59 60
61 62
63 64
65 66
67 68
69 70
71 72
73 74
75 76
77 78
79 80
-1 
DEMAND_SECTION
1 120
2 120
3 157
4 157
5 75
6 75
7 130
8 130
9 68
10 68
11 211
12 211
13 112
14 112
15 271
16 271
17 229
18 229
19 618
20 618
21 68
22 68
23 369
24 369
25 119
26 119
27 341
28 341
29 119
30 119
31 373
32 373
33 491
34 491
35 84
36 84
37 432
38 432
39 421
40 421
41 497
42 497
43 322
44 322
45 292
46 292
47 211
48 211
49 497
50 497
51 55
52 55
53 216
54 216
55 217
56 217
57 94
58 94
59 223
60 223
61 74
62 74
63 191
64 191
65 316
66 316
67 82
68 82
69 99
70 99
71 500
72 500
73 96
74 96
75 379
76 379
77 358
78 358
79 186
80 186
81 0
82 0
83 0
84 0
85 0
86 0
87 0
88 0
DEPOT_SECTION
81 
-1 
CAPACITIES_SECTION
5000 
5500 
6000 
6500 
-1 
EOF