NAME: GFS_20_1
TYPE: GFSP
DIMENSION: 90
VEHICLES: 4
CAPACITY: 5000.0
TRIP_DIST_LIMIT: 750000.0
TOTAL_DIST_LIMIT: 1050000.0
EDGE_WEIGHT_TYPE: EXPLICIT
EDGE_WEIGHT_FORMAT: FULL_MATRIX
EDGE_WEIGHT_SECTION
0.0 8186.0 110975.0 103143.0 65814.0 63407.0 91633.0 84936.0 124223.0 118414.0 97359.0 89463.0 140674.0 146731.0 137163.0 129490.0 174385.0 165978.0 120539.0 113078.0 133780.0 140560.0 325340.0 327702.0 130323.0 122432.0 157670.0 163364.0 65220.0 58067.0 96878.0 98996.0 126382.0 122014.0 188060.0 192805.0 354707.0 354119.0 109111.0 101433.0 157097.0 152353.0 47741.0 40478.0 350091.0 341888.0 67971.0 62378.0 103074.0 95236.0 90229.0 91586.0 39388.0 38364.0 15509.0 8763.0 27238.0 22548.0 66731.0 61882.0 241499.0 239761.0 33864.0 40703.0 78646.0 82993.0 91078.0 98351.0 86463.0 90293.0 134385.0 128915.0 359384.0 351415.0 143586.0 148153.0 78085.0 71995.0 48763.0 49248.0 165956.0 208560.0 165956.0 165956.0 165956.0 165956.0 208560.0 208560.0 208560.0 208560.0
8186.0 0.0 102797.0 94963.0 65214.0 63793.0 88468.0 82166.0 131349.0 125712.0 104496.0 96495.0 132650.0 138768.0 143512.0 135919.0 170017.0 161589.0 116836.0 109229.0 133180.0 139804.0 321884.0 324407.0 126669.0 118892.0 163041.0 168516.0 57626.0 50687.0 94760.0 96244.0 123156.0 119242.0 186422.0 190884.0 351350.0 350932.0 105318.0 97931.0 162845.0 158349.0 39572.0 32380.0 345957.0 337770.0 75023.0 69068.0 110750.0 102856.0 93482.0 95475.0 36216.0 36891.0 16737.0 13449.0 24330.0 22106.0 74027.0 68822.0 237428.0 235477.0 28771.0 36217.0 81741.0 86683.0 88043.0 94946.0 84254.0 87421.0 139106.0 133347.0 355317.0 347332.0 149247.0 153563.0 76030.0 70574.0 50121.0 51928.0 170149.0 206844.0 170149.0 170149.0 170149.0 170149.0 206844.0 206844.0 206844.0 206844.0
110975.0 102797.0 0.0 7871.0 118446.0 124360.0 106137.0 107599.0 225564.0 221377.0 199767.0 191445.0 35042.0 42716.0 231251.0 224655.0 141428.0 134606.0 113959.0 107864.0 160679.0 164054.0 289912.0 294522.0 120565.0 117262.0 241660.0 244893.0 52931.0 60640.0 119918.0 114115.0 123863.0 126953.0 191450.0 191710.0 319271.0 321170.0 106586.0 106532.0 244673.0 242490.0 63688.0 71472.0 303349.0 295771.0 171251.0 163809.0 209504.0 201395.0 163727.0 169806.0 100271.0 108358.0 109690.0 113183.0 99416.0 106923.0 171617.0 164861.0 203145.0 198274.0 89411.0 89866.0 153563.0 161324.0 107323.0 106292.0 113853.0 108746.0 214115.0 206581.0 313258.0 305391.0 231141.0 233112.0 111710.0 114686.0 122977.0 130510.0 238750.0 207941.0 238750.0 238750.0 238750.0 238750.0 207941.0 207941.0 207941.0 207941.0
103143.0 94963.0 7871.0 0.0 112410.0 118095.0 101877.0 102857.0 218340.0 214061.0 192438.0 184116.0 41985.0 49488.0 224421.0 217750.0 141932.0 134839.0 111560.0 105139.0 157013.0 160663.0 291922.0 296377.0 118627.0 114858.0 235405.0 238786.0 46124.0 53669.0 115583.0 110113.0 121450.0 124067.0 189820.0 190410.0 321393.0 323109.0 103599.0 102960.0 238232.0 235903.0 55818.0 63600.0 306293.0 298639.0 163812.0 156420.0 201988.0 193883.0 157518.0 163436.0 92695.0 100758.0 102056.0 105437.0 92011.0 99433.0 164111.0 157415.0 204872.0 200220.0 82091.0 82839.0 147176.0 154869.0 102992.0 102502.0 109046.0 104323.0 207970.0 200503.0 316187.0 308285.0 224656.0 226773.0 106457.0 109035.0 116149.0 123563.0 233058.0 206777.0 233058.0 233058.0 233058.0 233058.0 206777.0 206777.0 206777.0 206777.0
65814.0 65214.0 118446.0 112410.0 0.0 8006.0 34867.0 26981.0 116051.0 114038.0 94123.0 86496.0 134667.0 137815.0 116010.0 110317.0 118514.0 110540.0 63531.0 57709.0 68031.0 74758.0 263473.0 265305.0 72345.0 64336.0 123340.0 126448.0 67177.0 60820.0 33806.0 38665.0 66401.0 60205.0 122630.0 127731.0 292421.0 291329.0 53825.0 45255.0 126827.0 125316.0 78323.0 77117.0 290727.0 282493.0 72441.0 64608.0 108732.0 101237.0 45453.0 52090.0 100339.0 102023.0 50313.0 57831.0 41642.0 43443.0 75302.0 67541.0 182675.0 182013.0 43455.0 36989.0 36237.0 44285.0 33563.0 41999.0 24855.0 31880.0 95688.0 88136.0 299684.0 291821.0 113519.0 114977.0 17247.0 9010.0 21103.0 27654.0 120994.0 143177.0 120994.0 120994.0 120994.0 120994.0 143177.0 143177.0 143177.0 143177.0
63407.0 63793.0 124360.0 118095.0 8006.0 0.0 42569.0 34731.0 108231.0 106118.0 86133.0 78492.0 141687.0 145022.0 108788.0 102933.0 125536.0 117654.0 70779.0 65220.0 70823.0 77777.0 269008.0 270680.0 79359.0 71414.0 117317.0 120751.0 72369.0 65586.0 40218.0 45745.0 73105.0 66525.0 126648.0 132083.0 297804.0 296552.0 61390.0 52842.0 120412.0 118599.0 80972.0 79010.0 296825.0 288592.0 64586.0 56802.0 100731.0 93248.0 39434.0 45512.0 99617.0 100666.0 47983.0 55035.0 41425.0 41693.0 67532.0 59799.0 189031.0 188560.0 45090.0 39568.0 29358.0 37308.0 41211.0 49619.0 32055.0 39454.0 89912.0 82542.0 305705.0 297871.0 106976.0 108757.0 24938.0 16766.0 15697.0 20785.0 116316.0 147199.0 116316.0 116316.0 116316.0 116316.0 147199.0 147199.0 147199.0 147199.0
91633.0 88468.0 106137.0 101877.0 34867.0 42569.0 0.0 7905.0 147409.0 146254.0 127297.0 120025.0 113816.0 115334.0 143751.0 139022.0 84738.0 76558.0 29618.0 23061.0 55995.0 60638.0 233713.0 236079.0 39115.0 31077.0 145088.0 146617.0 64030.0 61182.0 13809.0 9113.0 34751.0 31065.0 100483.0 103982.0 263076.0 262534.0 19087.0 10548.0 150338.0 150323.0 86259.0 88270.0 259091.0 250867.0 107130.0 99369.0 142616.0 135336.0 71308.0 79244.0 119325.0 122996.0 77126.0 85116.0 64489.0 69687.0 110100.0 102360.0 150555.0 149317.0 60624.0 52792.0 65720.0 73412.0 1610.0 7250.0 11801.0 3638.0 117227.0 109243.0 268263.0 260326.0 137939.0 137849.0 17639.0 25865.0 55060.0 62337.0 137159.0 120399.0 137159.0 137159.0 137159.0 137159.0 120399.0 120399.0 120399.0 120399.0
84936.0 82166.0 107599.0 102857.0 26981.0 34731.0 7905.0 0.0 140365.0 139024.0 119843.0 112487.0 117552.0 119518.0 137465.0 132525.0 92442.0 84305.0 37272.0 30926.0 57574.0 62889.0 240588.0 242835.0 46594.0 38526.0 140063.0 141932.0 62607.0 58856.0 14367.0 14083.0 41699.0 37104.0 105285.0 109207.0 269871.0 269206.0 26973.0 18410.0 144958.0 144627.0 82805.0 84187.0 266390.0 258162.0 99314.0 91530.0 135010.0 127676.0 65002.0 72791.0 113991.0 117309.0 70176.0 78152.0 57973.0 62749.0 102249.0 94501.0 157920.0 156812.0 54927.0 47092.0 58746.0 66564.0 6723.0 15120.0 6326.0 5435.0 112124.0 104180.0 275517.0 267595.0 132329.0 132562.0 9797.0 17992.0 47184.0 54432.0 133236.0 125451.0 133236.0 133236.0 133236.0 133236.0 125451.0 125451.0 125451.0 125451.0
124223.0 131349.0 225564.0 218340.0 116051.0 108231.0 147409.0 140365.0 0.0 7962.0 26864.0 34900.0 247781.0 251825.0 25791.0 20478.0 219306.0 212808.0 170399.0 167229.0 139885.0 145914.0 338938.0 339147.0 176433.0 169719.0 58400.0 66395.0 172890.0 165030.0 139200.0 146928.0 168533.0 160246.0 191393.0 199194.0 365923.0 363983.0 164055.0 156249.0 50999.0 42930.0 168166.0 162280.0 372490.0 364525.0 56327.0 62746.0 27985.0 32787.0 77721.0 69537.0 159232.0 154462.0 118709.0 118146.0 126570.0 119660.0 57569.0 62581.0 272060.0 273819.0 136280.0 135856.0 81689.0 74096.0 145837.0 153464.0 135633.0 143831.0 58555.0 62117.0 380114.0 372885.0 44000.0 51609.0 131082.0 123814.0 104011.0 95887.0 88720.0 210223.0 88720.0 88720.0 88720.0 88720.0 210223.0 210223.0 210223.0 210223.0
118414.0 125712.0 221377.0 214061.0 114038.0 106118.0 146254.0 139024.0 7962.0 0.0 21636.0 29951.0 244394.0 248631.0 33265.0 27215.0 220068.0 213377.0 170152.0 166645.0 141809.0 148040.0 342129.0 342338.0 176537.0 169623.0 65773.0 73761.0 168917.0 161009.0 138673.0 146265.0 168745.0 160540.0 194431.0 202138.0 369114.0 367174.0 163355.0 155382.0 58678.0 50684.0 163084.0 157005.0 375535.0 367530.0 50909.0 57806.0 20072.0 25323.0 77882.0 69777.0 152738.0 147778.0 113615.0 112643.0 122096.0 114961.0 51695.0 57275.0 274158.0 275712.0 131975.0 131950.0 80719.0 73442.0 144703.0 152511.0 134540.0 142717.0 63839.0 66670.0 383280.0 375985.0 51001.0 58602.0 129575.0 122082.0 100826.0 92564.0 94953.0 213414.0 94953.0 94953.0 94953.0 94953.0 213414.0 213414.0 213414.0 213414.0
97359.0 104496.0 199767.0 192438.0 94123.0 86133.0 127297.0 119843.0 26864.0 21636.0 0.0 8322.0 223060.0 227406.0 44359.0 36518.0 203975.0 196948.0 152476.0 148443.0 128672.0 135304.0 331585.0 331771.0 159428.0 152206.0 73610.0 81202.0 147366.0 139446.0 120721.0 128044.0 151868.0 143859.0 183552.0 190967.0 358510.0 356570.0 144989.0 136801.0 68903.0 61955.0 141546.0 135551.0 364054.0 355962.0 29490.0 36187.0 17342.0 13869.0 62156.0 54532.0 132656.0 128099.0 92070.0 91320.0 100463.0 93329.0 30752.0 35792.0 260650.0 261746.0 110358.0 110439.0 62750.0 56243.0 125784.0 133815.0 115737.0 123837.0 62932.0 63128.0 372095.0 364645.0 57865.0 64844.0 110218.0 102472.0 79788.0 71450.0 96105.0 202888.0 96105.0 96105.0 96105.0 96105.0 202888.0 202888.0 202888.0 202888.0
89463.0 96495.0 191445.0 184116.0 86496.0 78492.0 120025.0 112487.0 34900.0 29951.0 8322.0 0.0 214805.0 219185.0 50205.0 42278.0 197771.0 190617.0 145701.0 141454.0 123894.0 130664.0 327534.0 327887.0 152877.0 145539.0 77671.0 84998.0 139052.0 131131.0 113897.0 121087.0 145429.0 137521.0 179507.0 186784.0 354622.0 352721.0 137937.0 129673.0 73830.0 67344.0 133328.0 127389.0 359523.0 351403.0 21493.0 27920.0 22878.0 16755.0 56800.0 49580.0 125259.0 120919.0 83856.0 83260.0 92146.0 85032.0 23237.0 27689.0 255413.0 256326.0 102036.0 102136.0 56240.0 50226.0 118530.0 126642.0 108555.0 116604.0 64129.0 63278.0 367674.0 360169.0 61981.0 68560.0 102805.0 94963.0 71678.0 63316.0 97414.0 198964.0 97414.0 97414.0 97414.0 97414.0 198964.0 198964.0 198964.0 198964.0
140674.0 132650.0 35042.0 41985.0 134667.0 141687.0 113816.0 117552.0 247781.0 244394.0 223060.0 214805.0 0.0 7817.0 250454.0 244446.0 125767.0 120344.0 112428.0 108204.0 163251.0 165194.0 266261.0 271398.0 116555.0 115563.0 256941.0 259223.0 77090.0 85004.0 127253.0 120108.0 121861.0 127005.0 183724.0 182506.0 295078.0 297614.0 108221.0 110904.0 261123.0 259925.0 95211.0 103125.0 276458.0 269158.0 195764.0 187968.0 234414.0 226323.0 179767.0 186718.0 134319.0 142309.0 136867.0 141537.0 124837.0 132849.0 196732.0 189505.0 181263.0 175634.0 114505.0 112989.0 170883.0 178911.0 115278.0 111712.0 123814.0 117070.0 229004.0 221158.0 286377.0 278651.0 247999.0 249007.0 124033.0 128962.0 143775.0 151911.0 250760.0 197841.0 250760.0 250760.0 250760.0 250760.0 197841.0 197841.0 197841.0 197841.0
146731.0 138768.0 42716.0 49488.0 137815.0 145022.0 115334.0 119518.0 251825.0 248631.0 227406.0 219185.0 7817.0 0.0 253793.0 247933.0 121832.0 116784.0 111915.0 108174.0 163193.0 164805.0 260155.0 265391.0 115424.0 114972.0 259367.0 261427.0 82506.0 90338.0 128543.0 121182.0 121126.0 126678.0 181247.0 179704.0 288839.0 291498.0 108482.0 111736.0 263806.0 262837.0 101857.0 109762.0 269716.0 262473.0 200460.0 192604.0 239118.0 231046.0 182608.0 189724.0 141498.0 149449.0 142369.0 147283.0 130019.0 138096.0 201564.0 194247.0 175665.0 169888.0 119687.0 117775.0 174049.0 182100.0 116838.0 112764.0 125712.0 118689.0 231411.0 223518.0 279630.0 271936.0 250805.0 251591.0 126439.0 131740.0 147849.0 156070.0 252484.0 194778.0 252484.0 252484.0 252484.0 252484.0 194778.0 194778.0 194778.0 194778.0
137163.0 143512.0 231251.0 224421.0 116010.0 108788.0 143751.0 137465.0 25791.0 33265.0 44359.0 50205.0 250454.0 253793.0 0.0 7927.0 208662.0 202806.0 163427.0 161379.0 126688.0 132007.0 321550.0 321759.0 168268.0 162274.0 32612.0 40607.0 178340.0 170758.0 133683.0 141689.0 160139.0 151723.0 174340.0 182344.0 348535.0 346595.0 158627.0 151488.0 25547.0 17873.0 177709.0 172619.0 355129.0 347194.0 70489.0 74932.0 52132.0 54954.0 72475.0 64713.0 174433.0 170525.0 129129.0 130065.0 134599.0 128646.0 73074.0 75943.0 257176.0 259511.0 143503.0 141689.0 79829.0 71769.0 142143.0 149035.0 132032.0 140113.0 37857.0 43598.0 362724.0 355500.0 18777.0 26267.0 128946.0 122612.0 108280.0 100942.0 64505.0 192835.0 64505.0 64505.0 64505.0 64505.0 192835.0 192835.0 192835.0 192835.0
129490.0 135919.0 224655.0 217750.0 110317.0 102933.0 139022.0 132525.0 20478.0 27215.0 36518.0 42278.0 244446.0 247933.0 7927.0 0.0 206112.0 200038.0 159658.0 157285.0 124857.0 130458.0 321467.0 321676.0 164865.0 158641.0 38864.0 46807.0 171725.0 164083.0 129418.0 137374.0 156787.0 148390.0 174146.0 182074.0 348451.0 346511.0 154410.0 147071.0 32767.0 25480.0 170462.0 165263.0 354969.0 347070.0 62618.0 67189.0 45155.0 47480.0 67755.0 59779.0 166617.0 162660.0 121702.0 122477.0 127494.0 121396.0 65163.0 68126.0 256185.0 258303.0 136537.0 134941.0 74324.0 66292.0 137419.0 144523.0 127251.0 135389.0 38942.0 43503.0 362640.0 355281.0 23799.0 31391.0 123789.0 117209.0 101697.0 94191.0 68264.0 192751.0 68264.0 68264.0 68264.0 68264.0 192751.0 192751.0 192751.0 192751.0
174385.0 170017.0 141428.0 141932.0 118514.0 125536.0 84738.0 92442.0 219306.0 220068.0 203975.0 197771.0 125767.0 121832.0 208662.0 206112.0 0.0 8434.0 55172.0 61903.0 83051.0 79175.0 154361.0 157845.0 46183.0 54178.0 198626.0 197005.0 127569.0 129439.0 85579.0 79856.0 52769.0 60333.0 66278.0 62168.0 184121.0 184743.0 65938.0 74249.0 206650.0 209489.0 156111.0 160895.0 176031.0 167868.0 188454.0 181151.0 220627.0 214131.0 142294.0 150328.0 196092.0 201270.0 160747.0 168690.0 147238.0 153362.0 191926.0 184432.0 67821.0 65473.0 141254.0 133868.0 141558.0 147733.0 85735.0 77527.0 93660.0 87115.0 174069.0 166669.0 185475.0 177472.0 197191.0 194292.0 101585.0 109651.0 139384.0 146131.0 183483.0 75084.0 183483.0 183483.0 183483.0 183483.0 75084.0 75084.0 75084.0 75084.0
165978.0 161589.0 134606.0 134839.0 110540.0 117654.0 76558.0 84305.0 212808.0 213377.0 196948.0 190617.0 120344.0 116784.0 202806.0 200038.0 8434.0 0.0 47070.0 53643.0 78186.0 74870.0 162617.0 166022.0 38332.0 46240.0 193780.0 192441.0 119369.0 121132.0 77865.0 71921.0 45272.0 53101.0 67658.0 64468.0 192371.0 192912.0 57677.0 66043.0 201594.0 204179.0 147839.0 152563.0 184465.0 176301.0 180883.0 173514.0 213490.0 206895.0 135516.0 143600.0 187703.0 192857.0 152379.0 160317.0 138841.0 145000.0 184298.0 176763.0 76222.0 73906.0 132825.0 125447.0 134378.0 140717.0 77588.0 69330.0 85696.0 79009.0 168749.0 161237.0 193906.0 185904.0 191808.0 189150.0 93534.0 101640.0 131340.0 138182.0 179018.0 78498.0 179018.0 179018.0 179018.0 179018.0 78498.0 78498.0 78498.0 78498.0
120539.0 116836.0 113959.0 111560.0 63531.0 70779.0 29618.0 37272.0 170399.0 170152.0 152476.0 145701.0 112428.0 111915.0 163427.0 159658.0 55172.0 47070.0 0.0 7886.0 51677.0 52894.0 205066.0 207687.0 9847.0 3303.0 159618.0 159784.0 82959.0 82463.0 31813.0 25090.0 9904.0 14951.0 79302.0 81119.0 234575.0 234306.0 11562.0 19246.0 166198.0 167462.0 109108.0 112479.0 229697.0 221480.0 134634.0 127100.0 168542.0 161624.0 92717.0 100906.0 145758.0 150101.0 106369.0 114354.0 93302.0 98939.0 137888.0 130263.0 121110.0 119742.0 88367.0 80683.0 89763.0 96737.0 30572.0 22472.0 38736.0 31946.0 132661.0 124745.0 238926.0 230972.0 154920.0 153548.0 46469.0 54598.0 84272.0 91184.0 147836.0 97785.0 147836.0 147836.0 147836.0 147836.0 97785.0 97785.0 97785.0 97785.0
113078.0 109229.0 107864.0 105139.0 57709.0 65220.0 23061.0 30926.0 167229.0 166645.0 148443.0 141454.0 108204.0 108174.0 161379.0 157285.0 61903.0 53643.0 7886.0 0.0 55059.0 57166.0 212741.0 215419.0 17644.0 10701.0 159142.0 159702.0 75283.0 74644.0 28032.0 20407.0 16862.0 19185.0 86657.0 88709.0 242281.0 242063.0 4035.0 12518.0 165346.0 166225.0 101255.0 104595.0 237039.0 228830.0 129549.0 121892.0 164218.0 157135.0 89825.0 97983.0 137906.0 142293.0 99073.0 107046.0 85844.0 91657.0 132661.0 124968.0 128439.0 126887.0 80683.0 73038.0 85970.0 93232.0 24220.0 15813.0 33290.0 25832.0 131823.0 123851.0 246311.0 238346.0 153698.0 152708.0 40479.0 48705.0 78110.0 85297.0 148365.0 105378.0 148365.0 148365.0 148365.0 148365.0 105378.0 105378.0 105378.0 105378.0
133780.0 133180.0 160679.0 157013.0 68031.0 70823.0 55995.0 57574.0 139885.0 141809.0 128672.0 123894.0 163251.0 163193.0 126688.0 124857.0 83051.0 78186.0 51677.0 55059.0 0.0 7195.0 204393.0 205189.0 50910.0 48880.0 115629.0 114275.0 119845.0 116413.0 43273.0 47201.0 43495.0 36729.0 57455.0 63964.0 232167.0 230279.0 55161.0 54148.0 123600.0 126547.0 140041.0 140824.0 235661.0 227529.0 120285.0 114472.0 145967.0 140647.0 67283.0 74321.0 167773.0 169878.0 118272.0 125634.0 109263.0 111472.0 124479.0 118086.0 132361.0 133946.0 109179.0 101695.0 71267.0 74850.0 55182.0 54517.0 52658.0 54325.0 91176.0 83940.0 243887.0 236339.0 114334.0 111259.0 59348.0 63026.0 86363.0 89383.0 100929.0 77703.0 100929.0 100929.0 100929.0 100929.0 77703.0 77703.0 77703.0 77703.0
140560.0 139804.0 164054.0 160663.0 74758.0 77777.0 60638.0 62889.0 145914.0 148040.0 135304.0 130664.0 165194.0 164805.0 132007.0 130458.0 79175.0 74870.0 52894.0 57166.0 7195.0 0.0 197370.0 198112.0 50772.0 49879.0 119599.0 117834.0 124664.0 121545.0 48522.0 51644.0 43972.0 38190.0 50269.0 56836.0 225074.0 223172.0 57754.0 57730.0 127858.0 131146.0 145628.0 146651.0 228859.0 220741.0 127369.0 121606.0 152621.0 147410.0 74179.0 81086.0 174177.0 176425.0 125053.0 132472.0 115789.0 118192.0 131578.0 125223.0 126157.0 127956.0 115399.0 107839.0 78395.0 81853.0 59959.0 58454.0 58309.0 59276.0 95921.0 88899.0 237032.0 229509.0 119072.0 115665.0 65353.0 69440.0 93361.0 96498.0 104309.0 70508.0 104309.0 104309.0 104309.0 104309.0 70508.0 70508.0 70508.0 70508.0
325340.0 321884.0 289912.0 291922.0 263473.0 269008.0 233713.0 240588.0 338938.0 342129.0 331585.0 327534.0 266261.0 260155.0 321550.0 321467.0 154361.0 162617.0 205066.0 212741.0 204393.0 197370.0 0.0 7469.0 195225.0 202998.0 303406.0 300755.0 281920.0 283734.0 229897.0 226647.0 198974.0 203807.0 148046.0 140773.0 29764.0 31355.0 216607.0 223980.0 312526.0 317175.0 310455.0 315113.0 39744.0 34295.0 324634.0 318621.0 348912.0 344204.0 271476.0 278116.0 349924.0 354745.0 310758.0 318738.0 298157.0 303326.0 328784.0 322211.0 87382.0 91704.0 293421.0 285749.0 275524.0 279223.0 234303.0 227017.0 239840.0 235180.0 283821.0 278087.0 44180.0 38769.0 306107.0 301250.0 248295.0 255494.0 284386.0 289531.0 287186.0 129679.0 287186.0 287186.0 287186.0 287186.0 129679.0 129679.0 129679.0 129679.0
327702.0 324407.0 294522.0 296377.0 265305.0 270680.0 236079.0 242835.0 339147.0 342338.0 331771.0 327887.0 271398.0 265391.0 321759.0 321676.0 157845.0 166022.0 207687.0 215419.0 205189.0 198112.0 7469.0 0.0 197840.0 205533.0 303615.0 300964.0 285391.0 287023.0 231858.0 228840.0 201329.0 205916.0 148413.0 141340.0 27124.0 26905.0 219245.0 226476.0 312734.0 317384.0 313801.0 318321.0 44580.0 40002.0 325473.0 319585.0 349080.0 344515.0 272075.0 278582.0 352914.0 357605.0 313005.0 320974.0 300565.0 305582.0 329662.0 323187.0 91543.0 96258.0 296047.0 288338.0 276422.0 279928.0 236624.0 229471.0 241902.0 237445.0 284030.0 278296.0 47731.0 43234.0 306316.0 301459.0 250363.0 257445.0 286135.0 291110.0 287395.0 129575.0 287395.0 287395.0 287395.0 287395.0 129575.0 129575.0 129575.0 129575.0
130323.0 126669.0 120565.0 118627.0 72345.0 79359.0 39115.0 46594.0 176433.0 176537.0 159428.0 152877.0 116555.0 115424.0 168268.0 164865.0 46183.0 38332.0 9847.0 17644.0 50910.0 50772.0 195225.0 197840.0 0.0 8071.0 162681.0 162379.0 92030.0 91846.0 39556.0 33681.0 8190.0 16588.0 71321.0 72576.0 224730.0 224461.0 21407.0 28923.0 169678.0 171383.0 118579.0 122098.0 220012.0 211791.0 142622.0 135213.0 175753.0 169006.0 98744.0 106914.0 155548.0 159928.0 116082.0 124070.0 103090.0 108646.0 146000.0 138448.0 111451.0 110225.0 98213.0 90525.0 96695.0 103351.0 39960.0 32086.0 47493.0 41196.0 136244.0 128428.0 229214.0 221268.0 158861.0 157053.0 55504.0 63512.0 93267.0 99951.0 149818.0 89199.0 149818.0 149818.0 149818.0 149818.0 89199.0 89199.0 89199.0 89199.0
122432.0 118892.0 117262.0 114858.0 64336.0 71414.0 31077.0 38526.0 169719.0 169623.0 152206.0 145539.0 115563.0 114972.0 162274.0 158641.0 54178.0 46240.0 3303.0 10701.0 48880.0 49879.0 202998.0 205533.0 8071.0 0.0 157869.0 157896.0 85970.0 85332.0 31853.0 25686.0 6601.0 12284.0 76120.0 78042.0 232460.0 232106.0 14012.0 20999.0 164581.0 165989.0 111913.0 115166.0 228019.0 219797.0 134909.0 127448.0 168402.0 161570.0 91999.0 100185.0 148208.0 152445.0 108115.0 116105.0 95211.0 100677.0 138238.0 130655.0 119478.0 118289.0 90534.0 82807.0 89457.0 96284.0 31900.0 24108.0 39482.0 33126.0 131063.0 123175.0 237204.0 229263.0 153449.0 151934.0 47449.0 55479.0 85226.0 91961.0 145762.0 94711.0 145762.0 145762.0 145762.0 145762.0 94711.0 94711.0 94711.0 94711.0
157670.0 163041.0 241660.0 235405.0 123340.0 117317.0 145088.0 140063.0 58400.0 65773.0 73610.0 77671.0 256941.0 259367.0 32612.0 38864.0 198626.0 193780.0 159618.0 159142.0 115629.0 119599.0 303406.0 303615.0 162681.0 157869.0 0.0 7995.0 189539.0 182480.0 133093.0 141067.0 154516.0 146242.0 156255.0 164355.0 330391.0 328451.0 157049.0 151065.0 10047.0 17479.0 193562.0 189463.0 336985.0 329050.0 95298.0 97822.0 83978.0 85778.0 77938.0 72083.0 196426.0 193471.0 147339.0 149768.0 150081.0 145385.0 98712.0 99711.0 240577.0 243592.0 157774.0 154485.0 88331.0 80874.0 143507.0 149145.0 134015.0 141542.0 27956.0 35883.0 344580.0 337356.0 15748.0 9548.0 132948.0 128130.0 121040.0 115052.0 36893.0 174691.0 36893.0 36893.0 36893.0 36893.0 174691.0 174691.0 174691.0 174691.0
163364.0 168516.0 244893.0 238786.0 126448.0 120751.0 146617.0 141932.0 66395.0 73761.0 81202.0 84998.0 259223.0 261427.0 40607.0 46807.0 197005.0 192441.0 159784.0 159702.0 114275.0 117834.0 300755.0 300964.0 162379.0 157896.0 7995.0 0.0 193110.0 186197.0 134255.0 142153.0 154256.0 146077.0 153604.0 161704.0 327740.0 325800.0 157785.0 152125.0 17005.0 25009.0 198152.0 194280.0 334334.0 326399.0 102101.0 104281.0 91881.0 93542.0 81327.0 76025.0 202318.0 199568.0 152607.0 155331.0 154767.0 150359.0 105632.0 106309.0 237927.0 240959.0 162162.0 158571.0 92154.0 84967.0 145055.0 150348.0 135790.0 143121.0 30848.0 38321.0 341929.0 334705.0 23411.0 16438.0 135206.0 130782.0 125348.0 119695.0 31861.0 172040.0 31861.0 31861.0 31861.0 31861.0 172040.0 172040.0 172040.0 172040.0
65220.0 57626.0 52931.0 46124.0 67177.0 72369.0 64030.0 62607.0 172890.0 168917.0 147366.0 139052.0 77090.0 82506.0 178340.0 171725.0 127569.0 119369.0 82959.0 75283.0 119845.0 124664.0 281920.0 285391.0 92030.0 85970.0 189539.0 193110.0 0.0 7971.0 76659.0 73072.0 92043.0 91971.0 161700.0 163985.0 311682.0 312281.0 72422.0 68639.0 192192.0 189791.0 29028.0 35117.0 301820.0 293792.0 119321.0 111684.0 157865.0 149754.0 111784.0 117489.0 71431.0 77992.0 59863.0 64956.0 47826.0 55781.0 120032.0 112985.0 194985.0 191779.0 37521.0 37039.0 101226.0 108849.0 64720.0 67050.0 68238.0 65520.0 162266.0 154909.0 311493.0 303477.0 178590.0 180821.0 63858.0 64930.0 70060.0 77587.0 188170.0 180652.0 188170.0 188170.0 188170.0 188170.0 180652.0 180652.0 180652.0 180652.0
58067.0 50687.0 60640.0 53669.0 60820.0 65586.0 61182.0 58856.0 165030.0 161009.0 139446.0 131131.0 85004.0 90338.0 170758.0 164083.0 129439.0 121132.0 82463.0 74644.0 116413.0 121545.0 283734.0 287023.0 91846.0 85332.0 182480.0 186197.0 7971.0 0.0 73144.0 70294.0 91150.0 90353.0 160373.0 163036.0 313479.0 313880.0 71493.0 66869.0 184951.0 182416.0 26868.0 31551.0 304526.0 296454.0 111358.0 103730.0 149896.0 141784.0 104900.0 110398.0 67510.0 73588.0 52068.0 57375.0 39868.0 47847.0 112062.0 105019.0 197135.0 194197.0 29556.0 29228.0 94151.0 101677.0 61697.0 64957.0 64138.0 62276.0 155351.0 148079.0 314142.0 306124.0 171315.0 173686.0 59033.0 59306.0 62503.0 69901.0 181724.0 179673.0 181724.0 181724.0 181724.0 181724.0 179673.0 179673.0 179673.0 179673.0
96878.0 94760.0 119918.0 115583.0 33806.0 40218.0 13809.0 14367.0 139200.0 138673.0 120721.0 113897.0 127253.0 128543.0 133683.0 129418.0 85579.0 77865.0 31813.0 28032.0 43273.0 48522.0 229897.0 231858.0 39556.0 31853.0 133093.0 134255.0 76659.0 73144.0 0.0 8048.0 32932.0 26402.0 91819.0 96126.0 258956.0 258015.0 24996.0 18022.0 138771.0 139206.0 97150.0 98413.0 256922.0 248687.0 103076.0 95657.0 136733.0 129815.0 61835.0 69979.0 127520.0 130514.0 81717.0 89595.0 70432.0 74394.0 106444.0 98898.0 148907.0 148353.0 68368.0 60594.0 58077.0 65237.0 12599.0 16095.0 10523.0 11320.0 105405.0 97405.0 265885.0 258018.0 126727.0 126192.0 18794.0 25598.0 54903.0 60985.0 124185.0 112154.0 124185.0 124185.0 124185.0 124185.0 112154.0 112154.0 112154.0 112154.0
98996.0 96244.0 114115.0 110113.0 38665.0 45745.0 9113.0 14083.0 146928.0 146265.0 128044.0 121087.0 120108.0 121182.0 141689.0 137374.0 79856.0 71921.0 25090.0 20407.0 47201.0 51644.0 226647.0 228840.0 33681.0 25686.0 141067.0 142153.0 73072.0 70294.0 8048.0 0.0 28020.0 23024.0 91673.0 95371.0 255890.0 255180.0 17130.0 10000.0 146796.0 147252.0 95314.0 97208.0 252797.0 244565.0 109576.0 102019.0 143873.0 136839.0 69726.0 77848.0 127800.0 131260.0 84170.0 92135.0 72056.0 76754.0 112806.0 105174.0 144453.0 143563.0 68851.0 61008.0 65572.0 72880.0 8775.0 8418.0 13816.0 8890.0 113410.0 105410.0 261870.0 253965.0 134771.0 134210.0 21986.0 29863.0 59622.0 66276.0 131866.0 111706.0 131866.0 131866.0 131866.0 131866.0 111706.0 111706.0 111706.0 111706.0
126382.0 123156.0 123863.0 121450.0 66401.0 73105.0 34751.0 41699.0 168533.0 168745.0 151868.0 145429.0 121861.0 121126.0 160139.0 156787.0 52769.0 45272.0 9904.0 16862.0 43495.0 43972.0 198974.0 201329.0 8190.0 6601.0 154516.0 154256.0 92043.0 91150.0 32932.0 28020.0 0.0 8419.0 69796.0 71957.0 228326.0 227796.0 19666.0 25437.0 161493.0 163194.0 117590.0 120622.0 224784.0 216553.0 135688.0 128385.0 168306.0 161655.0 90895.0 99050.0 153194.0 157226.0 111805.0 119791.0 99237.0 104369.0 139158.0 131675.0 116437.0 115624.0 95054.0 87265.0 89197.0 95702.0 35332.0 28258.0 41714.0 36269.0 128055.0 120238.0 233873.0 225962.0 150672.0 148867.0 49998.0 57760.0 87467.0 93833.0 141771.0 88619.0 141771.0 141771.0 141771.0 141771.0 88619.0 88619.0 88619.0 88619.0
122014.0 119242.0 126953.0 124067.0 60205.0 66525.0 31065.0 37104.0 160246.0 160540.0 143859.0 137521.0 127005.0 126678.0 151723.0 148390.0 60333.0 53101.0 14951.0 19185.0 36729.0 38190.0 203807.0 205916.0 16588.0 12284.0 146242.0 146077.0 91971.0 90353.0 26402.0 23024.0 8419.0 0.0 70055.0 73125.0 232984.0 232211.0 20491.0 23487.0 153155.0 154807.0 116320.0 118833.0 230529.0 222294.0 128265.0 121073.0 160391.0 153827.0 82664.0 90803.0 150382.0 154046.0 107141.0 115095.0 95076.0 99736.0 131821.0 124412.0 122522.0 122060.0 91652.0 83812.0 81283.0 87642.0 31293.0 25634.0 36044.0 31821.0 119697.0 111867.0 239507.0 231634.0 142282.0 140523.0 44492.0 51860.0 81305.0 87310.0 133739.0 89649.0 133739.0 133739.0 133739.0 133739.0 89649.0 89649.0 89649.0 89649.0
188060.0 186422.0 191450.0 189820.0 122630.0 126648.0 100483.0 105285.0 191393.0 194431.0 183552.0 179507.0 183724.0 181247.0 174340.0 174146.0 66278.0 67658.0 79302.0 86657.0 57455.0 50269.0 148046.0 148413.0 71321.0 76120.0 156255.0 153604.0 161700.0 160373.0 91819.0 91673.0 69796.0 70055.0 0.0 8150.0 175242.0 173303.0 89304.0 93535.0 165374.0 170024.0 186362.0 188715.0 181118.0 173136.0 177396.0 171786.0 200885.0 196164.0 123724.0 130169.0 219247.0 222333.0 172662.0 180350.0 162105.0 165515.0 181653.0 175410.0 85164.0 88963.0 160115.0 152305.0 128577.0 131692.0 100412.0 95639.0 102338.0 100489.0 136643.0 130833.0 188862.0 181555.0 158956.0 154099.0 110424.0 116068.0 142344.0 146116.0 140034.0 20556.0 140034.0 140034.0 140034.0 140034.0 20556.0 20556.0 20556.0 20556.0
192805.0 190884.0 191710.0 190410.0 127731.0 132083.0 103982.0 109207.0 199194.0 202138.0 190967.0 186784.0 182506.0 179704.0 182344.0 182074.0 62168.0 64468.0 81119.0 88709.0 63964.0 56836.0 140773.0 141340.0 72576.0 78042.0 164355.0 161704.0 163985.0 163036.0 96126.0 95371.0 71957.0 73125.0 8150.0 0.0 168264.0 166344.0 91614.0 96452.0 173475.0 178124.0 189299.0 191951.0 173403.0 165392.0 184193.0 178435.0 208307.0 203472.0 130745.0 137342.0 223166.0 226490.0 177484.0 185246.0 166554.0 170262.0 188411.0 182050.0 77051.0 80935.0 164133.0 156299.0 135227.0 138593.0 104026.0 98749.0 106639.0 104247.0 144680.0 138810.0 181240.0 173883.0 167042.0 162199.0 114867.0 120850.0 147772.0 151845.0 148135.0 16669.0 148135.0 148135.0 148135.0 148135.0 16669.0 16669.0 16669.0 16669.0
354707.0 351350.0 319271.0 321393.0 292421.0 297804.0 263076.0 269871.0 365923.0 369114.0 358510.0 354622.0 295078.0 288839.0 348535.0 348451.0 184121.0 192371.0 234575.0 242281.0 232167.0 225074.0 29764.0 27124.0 224730.0 232460.0 330391.0 327740.0 311682.0 313479.0 258956.0 255890.0 228326.0 232984.0 175242.0 168264.0 0.0 7961.0 246127.0 253423.0 339510.0 344160.0 340209.0 344845.0 37772.0 38521.0 352443.0 346599.0 375909.0 371221.0 298954.0 305394.0 379601.0 384376.0 340046.0 348018.0 327552.0 332620.0 356646.0 350204.0 117085.0 121241.0 322942.0 315249.0 303420.0 306852.0 263636.0 256435.0 268983.0 264475.0 310805.0 305071.0 34804.0 35142.0 333092.0 328235.0 277444.0 284547.0 313257.0 318234.0 314170.0 157477.0 314170.0 314170.0 314170.0 314170.0 157477.0 157477.0 157477.0 157477.0
354119.0 350932.0 321170.0 323109.0 291329.0 296552.0 262534.0 269206.0 363983.0 367174.0 356570.0 352721.0 297614.0 291498.0 346595.0 346511.0 184743.0 192912.0 234306.0 242063.0 230279.0 223172.0 31355.0 26905.0 224461.0 232106.0 328451.0 325800.0 312281.0 313880.0 258015.0 255180.0 227796.0 232211.0 173303.0 166344.0 7961.0 0.0 245868.0 253017.0 337570.0 342220.0 340668.0 345154.0 45511.0 45743.0 350536.0 344738.0 373969.0 369337.0 297014.0 303461.0 379670.0 384306.0 339346.0 347304.0 327022.0 331933.0 354750.0 348348.0 118355.0 122907.0 322639.0 314910.0 301543.0 304922.0 263049.0 255985.0 268134.0 263831.0 308865.0 303131.0 42765.0 42934.0 331152.0 326294.0 276595.0 283577.0 312071.0 316877.0 312230.0 155537.0 312230.0 312230.0 312230.0 312230.0 155537.0 155537.0 155537.0 155537.0
109111.0 105318.0 106586.0 103599.0 53825.0 61390.0 19087.0 26973.0 164055.0 163355.0 144989.0 137937.0 108221.0 108482.0 158627.0 154410.0 65938.0 57677.0 11562.0 4035.0 55161.0 57754.0 216607.0 219245.0 21407.0 14012.0 157049.0 157785.0 72422.0 71493.0 24996.0 17130.0 19666.0 20491.0 89304.0 91614.0 246127.0 245868.0 0.0 8574.0 163085.0 163800.0 97987.0 101167.0 241027.0 232817.0 125800.0 118114.0 160670.0 153540.0 86820.0 94954.0 134240.0 138547.0 95067.0 103043.0 81874.0 87648.0 128875.0 121168.0 132428.0 130903.0 76816.0 69146.0 82644.0 89997.0 20287.0 11854.0 29566.0 21950.0 129597.0 121610.0 250290.0 242327.0 151288.0 150462.0 36583.0 44816.0 74147.0 81382.0 146755.0 108273.0 146755.0 146755.0 146755.0 146755.0 108273.0 108273.0 108273.0 108273.0
101433.0 97931.0 106532.0 102960.0 45255.0 52842.0 10548.0 18410.0 156249.0 155382.0 136801.0 129673.0 110904.0 111736.0 151488.0 147071.0 74249.0 66043.0 19246.0 12518.0 54148.0 57730.0 223980.0 226476.0 28923.0 20999.0 151065.0 152125.0 68639.0 66869.0 18022.0 10000.0 25437.0 23487.0 93535.0 96452.0 253423.0 253017.0 8574.0 0.0 156791.0 157215.0 92875.0 95548.0 248920.0 240702.0 117299.0 109593.0 152364.0 145184.0 79349.0 87428.0 127772.0 131791.0 87159.0 95147.0 74211.0 79725.0 120347.0 112632.0 140342.0 138984.0 69676.0 61912.0 74672.0 82153.0 11714.0 3298.0 21150.0 13389.0 123410.0 115410.0 258133.0 250184.0 144741.0 144207.0 28010.0 36245.0 65593.0 72808.0 141709.0 113029.0 141709.0 141709.0 141709.0 141709.0 113029.0 113029.0 113029.0 113029.0
157097.0 162845.0 244673.0 238232.0 126827.0 120412.0 150338.0 144958.0 50999.0 58678.0 68903.0 73830.0 261123.0 263806.0 25547.0 32767.0 206650.0 201594.0 166198.0 165346.0 123600.0 127858.0 312526.0 312734.0 169678.0 164581.0 10047.0 17005.0 192192.0 184951.0 138771.0 146796.0 161493.0 153155.0 165374.0 173475.0 339510.0 337570.0 163085.0 156791.0 0.0 8263.0 194738.0 190291.0 346104.0 338169.0 92730.0 96025.0 77672.0 80247.0 81424.0 74901.0 195389.0 192048.0 147551.0 149460.0 151229.0 146093.0 95830.0 97592.0 249695.0 252702.0 159351.0 156517.0 91118.0 83364.0 148742.0 154728.0 139038.0 146751.0 33542.0 41497.0 353699.0 346475.0 13747.0 12650.0 137426.0 132161.0 122891.0 116432.0 46895.0 183810.0 46895.0 46895.0 46895.0 46895.0 183810.0 183810.0 183810.0 183810.0
152353.0 158349.0 242490.0 235903.0 125316.0 118599.0 150323.0 144627.0 42930.0 50684.0 61955.0 67344.0 259925.0 262837.0 17873.0 25480.0 209489.0 204179.0 167462.0 166225.0 126547.0 131146.0 317175.0 317384.0 171383.0 165989.0 17479.0 25009.0 189791.0 182416.0 139206.0 147252.0 163194.0 154807.0 170024.0 178124.0 344160.0 342220.0 163800.0 157215.0 8263.0 0.0 191175.0 186478.0 350754.0 342819.0 86906.0 90681.0 69918.0 72822.0 80232.0 73226.0 190263.0 186676.0 143385.0 144919.0 147744.0 142293.0 89793.0 92028.0 254203.0 257020.0 156170.0 153699.0 89242.0 81317.0 148718.0 155019.0 138847.0 146707.0 35431.0 43027.0 358349.0 351125.0 12542.0 15940.0 136741.0 131099.0 120053.0 113257.0 53539.0 188460.0 53539.0 53539.0 53539.0 53539.0 188460.0 188460.0 188460.0 188460.0
47741.0 39572.0 63688.0 55818.0 78323.0 80972.0 86259.0 82805.0 168166.0 163084.0 141546.0 133328.0 95211.0 101857.0 177709.0 170462.0 156111.0 147839.0 109108.0 101255.0 140041.0 145628.0 310455.0 313801.0 118579.0 111913.0 193562.0 198152.0 29028.0 26868.0 97150.0 95314.0 117590.0 116320.0 186362.0 189299.0 340209.0 340668.0 97987.0 92875.0 194738.0 191175.0 0.0 7913.0 330773.0 322732.0 112189.0 105425.0 149263.0 141250.0 118271.0 122395.0 42977.0 50055.0 49476.0 51186.0 43516.0 49068.0 111810.0 105811.0 223705.0 220623.0 36298.0 41469.0 106707.0 113368.0 86562.0 90724.0 87389.0 86858.0 167631.0 160941.0 340431.0 332413.0 180991.0 184350.0 81038.0 79322.0 72976.0 78511.0 196277.0 205896.0 196277.0 196277.0 196277.0 196277.0 205896.0 205896.0 205896.0 205896.0
40478.0 32380.0 71472.0 63600.0 77117.0 79010.0 88270.0 84187.0 162280.0 157005.0 135551.0 127389.0 103125.0 109762.0 172619.0 165263.0 160895.0 152563.0 112479.0 104595.0 140824.0 146651.0 315113.0 318321.0 122098.0 115166.0 189463.0 194280.0 35117.0 31551.0 98413.0 97208.0 120622.0 118833.0 188715.0 191951.0 344845.0 345154.0 101167.0 95548.0 190291.0 186478.0 7913.0 0.0 336077.0 328006.0 106102.0 99560.0 142736.0 134767.0 115205.0 118892.0 36315.0 42992.0 43680.0 44572.0 39609.0 44204.0 105521.0 99762.0 228636.0 225739.0 33922.0 40180.0 103508.0 109855.0 88433.0 93203.0 88354.0 88551.0 163954.0 157461.0 345694.0 337675.0 176558.0 180166.0 81510.0 79008.0 69720.0 74626.0 193212.0 208479.0 193212.0 193212.0 193212.0 193212.0 208479.0 208479.0 208479.0 208479.0
350091.0 345957.0 303349.0 306293.0 290727.0 296825.0 259091.0 266390.0 372490.0 375535.0 364054.0 359523.0 276458.0 269716.0 355129.0 354969.0 176031.0 184465.0 229697.0 237039.0 235661.0 228859.0 39744.0 44580.0 220012.0 228019.0 336985.0 334334.0 301820.0 304526.0 256922.0 252797.0 224784.0 230529.0 181118.0 173403.0 37772.0 45511.0 241027.0 248920.0 346104.0 350754.0 330773.0 336077.0 0.0 8235.0 355098.0 348694.0 381390.0 376268.0 302930.0 309944.0 371732.0 377131.0 336065.0 344049.0 322868.0 328635.0 359104.0 352230.0 108600.0 110584.0 317217.0 309759.0 306006.0 310306.0 259862.0 252097.0 266389.0 260956.0 317399.0 311665.0 9922.0 2881.0 339686.0 334828.0 274748.0 282347.0 311819.0 317570.0 320764.0 164164.0 320764.0 320764.0 320764.0 320764.0 164164.0 164164.0 164164.0 164164.0
341888.0 337770.0 295771.0 298639.0 282493.0 288592.0 250867.0 258162.0 364525.0 367530.0 355962.0 351403.0 269158.0 262473.0 347194.0 347070.0 167868.0 176301.0 221480.0 228830.0 227529.0 220741.0 34295.0 40002.0 211791.0 219797.0 329050.0 326399.0 293792.0 296454.0 248687.0 244565.0 216553.0 222294.0 173136.0 165392.0 38521.0 45743.0 232817.0 240702.0 338169.0 342819.0 322732.0 328006.0 8235.0 0.0 346911.0 340495.0 373296.0 368150.0 294791.0 301823.0 363630.0 369006.0 327850.0 335833.0 314663.0 320419.0 350911.0 344029.0 100391.0 102439.0 309034.0 301569.0 297825.0 302149.0 251636.0 243877.0 258155.0 252728.0 309464.0 303730.0 17704.0 9697.0 331751.0 326894.0 266515.0 274113.0 303584.0 309338.0 312829.0 156343.0 312829.0 312829.0 312829.0 312829.0 156343.0 156343.0 156343.0 156343.0
67971.0 75023.0 171251.0 163812.0 72441.0 64586.0 107130.0 99314.0 56327.0 50909.0 29490.0 21493.0 195764.0 200460.0 70489.0 62618.0 188454.0 180883.0 134634.0 129549.0 120285.0 127369.0 324634.0 325473.0 142622.0 134909.0 95298.0 102101.0 119321.0 111358.0 103076.0 109576.0 135688.0 128265.0 177396.0 184193.0 352443.0 350536.0 125800.0 117299.0 92730.0 86906.0 112189.0 106102.0 355098.0 346911.0 0.0 8042.0 38659.0 30590.0 54144.0 49080.0 104104.0 100042.0 62735.0 61829.0 71841.0 64413.0 4510.0 6409.0 249097.0 249406.0 81951.0 82777.0 49142.0 45805.0 105744.0 114114.0 96259.0 103942.0 77378.0 74554.0 363565.0 355908.0 80004.0 85856.0 89518.0 81348.0 54803.0 46460.0 109849.0 197172.0 109849.0 109849.0 109849.0 109849.0 197172.0 197172.0 197172.0 197172.0
62378.0 69068.0 163809.0 156420.0 64608.0 56802.0 99369.0 91530.0 62746.0 57806.0 36187.0 27920.0 187968.0 192604.0 74932.0 67189.0 181151.0 173514.0 127100.0 121892.0 114472.0 121606.0 318621.0 319585.0 135213.0 127448.0 97822.0 104281.0 111684.0 103730.0 95657.0 102019.0 128385.0 121073.0 171786.0 178435.0 346599.0 344738.0 118114.0 109593.0 96025.0 90681.0 105425.0 99560.0 348694.0 340495.0 8042.0 0.0 46542.0 38513.0 49496.0 45373.0 99607.0 96038.0 55964.0 55705.0 64409.0 57164.0 10790.0 3633.0 242335.0 242516.0 74423.0 75005.0 43214.0 40876.0 98001.0 106391.0 88609.0 96219.0 78026.0 74427.0 357232.0 349542.0 82904.0 88295.0 81740.0 73547.0 46765.0 38431.0 109735.0 191730.0 109735.0 109735.0 109735.0 109735.0 191730.0 191730.0 191730.0 191730.0
103074.0 110750.0 209504.0 201988.0 108732.0 100731.0 142616.0 135010.0 27985.0 20072.0 17342.0 22878.0 234414.0 239118.0 52132.0 45155.0 220627.0 213490.0 168542.0 164218.0 145967.0 152621.0 348912.0 349080.0 175753.0 168402.0 83978.0 91881.0 157865.0 149896.0 136733.0 143873.0 168306.0 160391.0 200885.0 208307.0 375909.0 373969.0 160670.0 152364.0 77672.0 69918.0 149263.0 142736.0 381390.0 373296.0 38659.0 46542.0 0.0 8114.0 79250.0 71745.0 135472.0 130072.0 100209.0 98168.0 110214.0 102584.0 37892.0 44915.0 277849.0 278877.0 120411.0 121425.0 79115.0 72989.0 141138.0 149306.0 131225.0 139230.0 77541.0 78702.0 389436.0 381984.0 68600.0 76046.0 125282.0 117342.0 92752.0 84344.0 110171.0 220209.0 110171.0 110171.0 110171.0 110171.0 220209.0 220209.0 220209.0 220209.0
95236.0 102856.0 201395.0 193883.0 101237.0 93248.0 135336.0 127676.0 32787.0 25323.0 13869.0 16755.0 226323.0 231046.0 54954.0 47480.0 214131.0 206895.0 161624.0 157135.0 140647.0 147410.0 344204.0 344515.0 169006.0 161570.0 85778.0 93542.0 149754.0 141784.0 129815.0 136839.0 161655.0 153827.0 196164.0 203472.0 371221.0 369337.0 153540.0 145184.0 80247.0 72822.0 141250.0 134767.0 376268.0 368150.0 30590.0 38513.0 8114.0 0.0 73542.0 66329.0 128180.0 122960.0 92140.0 90195.0 102100.0 94474.0 29781.0 36819.0 272132.0 273008.0 112298.0 113335.0 72584.0 66837.0 133875.0 142095.0 124034.0 131986.0 76652.0 76989.0 384409.0 376909.0 70131.0 77360.0 117920.0 109921.0 84895.0 76492.0 109736.0 215591.0 109736.0 109736.0 109736.0 109736.0 215591.0 215591.0 215591.0 215591.0
90229.0 93482.0 163727.0 157518.0 45453.0 39434.0 71308.0 65002.0 77721.0 77882.0 62156.0 56800.0 179767.0 182608.0 72475.0 67755.0 142294.0 135516.0 92717.0 89825.0 67283.0 74179.0 271476.0 272075.0 98744.0 91999.0 77938.0 81327.0 111784.0 104900.0 61835.0 69726.0 90895.0 82664.0 123724.0 130745.0 298954.0 297014.0 86820.0 79349.0 81424.0 80232.0 118271.0 115205.0 302930.0 294791.0 54144.0 49496.0 79250.0 73542.0 0.0 8189.0 129391.0 128508.0 76770.0 81521.0 75722.0 72812.0 58543.0 53101.0 198634.0 199627.0 81982.0 77719.0 11809.0 8746.0 69702.0 76773.0 59566.0 67671.0 50482.0 43191.0 311171.0 303619.0 68233.0 69524.0 56672.0 50868.0 45489.0 41647.0 78028.0 143376.0 78028.0 78028.0 78028.0 78028.0 143376.0 143376.0 143376.0 143376.0
91586.0 95475.0 169806.0 163436.0 52090.0 45512.0 79244.0 72791.0 69537.0 69777.0 54532.0 49580.0 186718.0 189724.0 64713.0 59779.0 150328.0 143600.0 100906.0 97983.0 74321.0 81086.0 278116.0 278582.0 106914.0 100185.0 72083.0 76025.0 117489.0 110398.0 69979.0 77848.0 99050.0 90803.0 130169.0 137342.0 305394.0 303461.0 94954.0 87428.0 74901.0 73226.0 122395.0 118892.0 309944.0 301823.0 49080.0 45373.0 71745.0 66329.0 8189.0 0.0 130952.0 129565.0 78919.0 83006.0 79283.0 75628.0 53567.0 48876.0 206120.0 207229.0 86250.0 82547.0 16264.0 9037.0 77641.0 84816.0 67472.0 75611.0 45297.0 38573.0 318108.0 310594.0 61479.0 63339.0 64242.0 58093.0 49436.0 44415.0 74759.0 149722.0 74759.0 74759.0 74759.0 74759.0 149722.0 149722.0 149722.0 149722.0
39388.0 36216.0 100271.0 92695.0 100339.0 99617.0 119325.0 113991.0 159232.0 152738.0 132656.0 125259.0 134319.0 141498.0 174433.0 166617.0 196092.0 187703.0 145758.0 137906.0 167773.0 174177.0 349924.0 352914.0 155548.0 148208.0 196426.0 202318.0 71431.0 67510.0 127520.0 127800.0 153194.0 150382.0 219247.0 223166.0 379601.0 379670.0 134240.0 127772.0 195389.0 190263.0 42977.0 36315.0 371732.0 363630.0 104104.0 99607.0 135472.0 128180.0 129391.0 130952.0 0.0 8160.0 52891.0 47954.0 58698.0 58137.0 102030.0 98492.0 263911.0 261246.0 59153.0 66945.0 117715.0 122312.0 119189.0 125095.0 117041.0 118919.0 173638.0 168266.0 381299.0 373283.0 182031.0 186885.0 109230.0 104755.0 86313.0 88007.0 205338.0 239442.0 205338.0 205338.0 205338.0 205338.0 239442.0 239442.0 239442.0 239442.0
38364.0 36891.0 108358.0 100758.0 102023.0 100666.0 122996.0 117309.0 154462.0 147778.0 128099.0 120919.0 142309.0 149449.0 170525.0 162660.0 201270.0 192857.0 150101.0 142293.0 169878.0 176425.0 354745.0 357605.0 159928.0 152445.0 193471.0 199568.0 77992.0 73588.0 130514.0 131260.0 157226.0 154046.0 222333.0 226490.0 384376.0 384306.0 138547.0 131791.0 192048.0 186676.0 50055.0 42992.0 377131.0 369006.0 100042.0 96038.0 130072.0 122960.0 128508.0 129565.0 8160.0 0.0 53014.0 47125.0 60637.0 58974.0 97696.0 94668.0 269076.0 266575.0 62411.0 70254.0 116974.0 121112.0 122763.0 129011.0 119996.0 122371.0 171387.0 166296.0 386655.0 378642.0 178831.0 183923.0 111985.0 107026.0 86686.0 87602.0 203519.0 242642.0 203519.0 203519.0 203519.0 203519.0 242642.0 242642.0 242642.0 242642.0
15509.0 16737.0 109690.0 102056.0 50313.0 47983.0 77126.0 70176.0 118709.0 113615.0 92070.0 83856.0 136867.0 142369.0 129129.0 121702.0 160747.0 152379.0 106369.0 99073.0 118272.0 125053.0 310758.0 313005.0 116082.0 108115.0 147339.0 152607.0 59863.0 52068.0 81717.0 84170.0 111805.0 107141.0 172662.0 177484.0 340046.0 339346.0 95067.0 87159.0 147551.0 143385.0 49476.0 43680.0 336065.0 327850.0 62735.0 55964.0 100209.0 92140.0 76770.0 78919.0 52891.0 53014.0 0.0 7991.0 14291.0 7440.0 62507.0 56347.0 227473.0 225949.0 23636.0 28748.0 65017.0 70073.0 76476.0 84008.0 71372.0 75579.0 122910.0 116986.0 345291.0 337340.0 133875.0 137914.0 62948.0 56635.0 33672.0 35192.0 153652.0 193176.0 153652.0 153652.0 153652.0 153652.0 193176.0 193176.0 193176.0 193176.0
8763.0 13449.0 113183.0 105437.0 57831.0 55035.0 85116.0 78152.0 118146.0 112643.0 91320.0 83260.0 141537.0 147283.0 130065.0 122477.0 168690.0 160317.0 114354.0 107046.0 125634.0 132472.0 318738.0 320974.0 124070.0 116105.0 149768.0 155331.0 64956.0 57375.0 89595.0 92135.0 119791.0 115095.0 180350.0 185246.0 348018.0 347304.0 103043.0 95147.0 149460.0 144919.0 51186.0 44572.0 344049.0 335833.0 61829.0 55705.0 98168.0 90195.0 81521.0 83006.0 47954.0 47125.0 7991.0 0.0 21812.0 15430.0 61030.0 55571.0 235455.0 233915.0 30310.0 36135.0 69913.0 74359.0 84464.0 91998.0 79282.0 83558.0 126122.0 120529.0 353277.0 345326.0 135881.0 140275.0 70845.0 64405.0 40166.0 40485.0 157491.0 200878.0 157491.0 157491.0 157491.0 157491.0 200878.0 200878.0 200878.0 200878.0
27238.0 24330.0 99416.0 92011.0 41642.0 41425.0 64489.0 57973.0 126570.0 122096.0 100463.0 92146.0 124837.0 130019.0 134599.0 127494.0 147238.0 138841.0 93302.0 85844.0 109263.0 115789.0 298157.0 300565.0 103090.0 95211.0 150081.0 154767.0 47826.0 39868.0 70432.0 72056.0 99237.0 95076.0 162105.0 166554.0 327552.0 327022.0 81874.0 74211.0 151229.0 147744.0 43516.0 39609.0 322868.0 314663.0 71841.0 64409.0 110214.0 102100.0 75722.0 79283.0 58698.0 60637.0 14291.0 21812.0 0.0 8174.0 72331.0 65457.0 214272.0 212574.0 10336.0 14459.0 63979.0 70246.0 63985.0 71145.0 59929.0 63278.0 124369.0 117852.0 332153.0 324186.0 137482.0 140848.0 51701.0 46401.0 30266.0 35072.0 153675.0 182518.0 153675.0 153675.0 153675.0 153675.0 182518.0 182518.0 182518.0 182518.0
22548.0 22106.0 106923.0 99433.0 43443.0 41693.0 69687.0 62749.0 119660.0 114961.0 93329.0 85032.0 132849.0 138096.0 128646.0 121396.0 153362.0 145000.0 98939.0 91657.0 111472.0 118192.0 303326.0 305582.0 108646.0 100677.0 145385.0 150359.0 55781.0 47847.0 74394.0 76754.0 104369.0 99736.0 165515.0 170262.0 332620.0 331933.0 87648.0 79725.0 146093.0 142293.0 49068.0 44204.0 328635.0 320419.0 64413.0 57164.0 102584.0 94474.0 72812.0 75628.0 58137.0 58974.0 7440.0 15430.0 8174.0 0.0 64694.0 58008.0 220045.0 218539.0 18434.0 22276.0 61003.0 66650.0 69039.0 76570.0 64018.0 68148.0 120269.0 114042.0 337857.0 329907.0 132363.0 136049.0 55609.0 49448.0 28282.0 31263.0 150345.0 186013.0 150345.0 150345.0 150345.0 150345.0 186013.0 186013.0 186013.0 186013.0
66731.0 74027.0 171617.0 164111.0 75302.0 67532.0 110100.0 102249.0 57569.0 51695.0 30752.0 23237.0 196732.0 201564.0 73074.0 65163.0 191926.0 184298.0 137888.0 132661.0 124479.0 131578.0 328784.0 329662.0 146000.0 138238.0 98712.0 105632.0 120032.0 112062.0 106444.0 112806.0 139158.0 131821.0 181653.0 188411.0 356646.0 354750.0 128875.0 120347.0 95830.0 89793.0 111810.0 105521.0 359104.0 350911.0 4510.0 10790.0 37892.0 29781.0 58543.0 53567.0 102030.0 97696.0 62507.0 61030.0 72331.0 64694.0 0.0 7807.0 252930.0 253167.0 82549.0 83791.0 53260.0 50151.0 108741.0 117139.0 99382.0 106968.0 81411.0 78762.0 367600.0 359930.0 83300.0 89320.0 92465.0 84260.0 57022.0 48782.0 114021.0 201470.0 114021.0 114021.0 114021.0 114021.0 201470.0 201470.0 201470.0 201470.0
61882.0 68822.0 164861.0 157415.0 67541.0 59799.0 102360.0 94501.0 62581.0 57275.0 35792.0 27689.0 189505.0 194247.0 75943.0 68126.0 184432.0 176763.0 130263.0 124968.0 118086.0 125223.0 322211.0 323187.0 138448.0 130655.0 99711.0 106309.0 112985.0 105019.0 98898.0 105174.0 131675.0 124412.0 175410.0 182050.0 350204.0 348348.0 121168.0 112632.0 97592.0 92028.0 105811.0 99762.0 352230.0 344029.0 6409.0 3633.0 44915.0 36819.0 53101.0 48876.0 98492.0 94668.0 56347.0 55571.0 65457.0 58008.0 7807.0 0.0 245799.0 245945.0 75586.0 76518.0 46834.0 44493.0 101010.0 109416.0 91703.0 99248.0 80565.0 77197.0 360779.0 353085.0 84627.0 90210.0 84722.0 76510.0 49231.0 40979.0 112529.0 195359.0 112529.0 112529.0 112529.0 112529.0 195359.0 195359.0 195359.0 195359.0
241499.0 237428.0 203145.0 204872.0 182675.0 189031.0 150555.0 157920.0 272060.0 274158.0 260650.0 255413.0 181263.0 175665.0 257176.0 256185.0 67821.0 76222.0 121110.0 128439.0 132361.0 126157.0 87382.0 91543.0 111451.0 119478.0 240577.0 237927.0 194985.0 197135.0 148907.0 144453.0 116437.0 122522.0 85164.0 77051.0 117085.0 118355.0 132428.0 140342.0 249695.0 254203.0 223705.0 228636.0 108600.0 100391.0 249097.0 242335.0 277849.0 272132.0 198634.0 206120.0 263911.0 269076.0 227473.0 235455.0 214272.0 220045.0 252930.0 245799.0 0.0 7469.0 208713.0 201217.0 200405.0 205409.0 151355.0 143531.0 158134.0 152492.0 219994.0 213615.0 117896.0 109920.0 242769.0 238309.0 166435.0 174155.0 203777.0 209816.0 224357.0 75676.0 224357.0 224357.0 224357.0 224357.0 75676.0 75676.0 75676.0 75676.0
239761.0 235477.0 198274.0 200220.0 182013.0 188560.0 149317.0 156812.0 273819.0 275712.0 261746.0 256326.0 175634.0 169888.0 259511.0 258303.0 65473.0 73906.0 119742.0 126887.0 133946.0 127956.0 91704.0 96258.0 110225.0 118289.0 243592.0 240959.0 191779.0 194197.0 148353.0 143563.0 115624.0 122060.0 88963.0 80935.0 121241.0 122907.0 130903.0 138984.0 252702.0 257020.0 220623.0 225739.0 110584.0 102439.0 249406.0 242516.0 278877.0 273008.0 199627.0 207229.0 261246.0 266575.0 225949.0 233915.0 212574.0 218539.0 253167.0 245945.0 7469.0 0.0 206719.0 199309.0 200963.0 206195.0 150185.0 142212.0 157323.0 151402.0 222555.0 216023.0 120080.0 112068.0 245447.0 241166.0 165540.0 173378.0 203090.0 209336.0 227389.0 80817.0 227389.0 227389.0 227389.0 227389.0 80817.0 80817.0 80817.0 80817.0
33864.0 28771.0 89411.0 82091.0 43455.0 45090.0 60624.0 54927.0 136280.0 131975.0 110358.0 102036.0 114505.0 119687.0 143503.0 136537.0 141254.0 132825.0 88367.0 80683.0 109179.0 115399.0 293421.0 296047.0 98213.0 90534.0 157774.0 162162.0 37521.0 29556.0 68368.0 68851.0 95054.0 91652.0 160115.0 164133.0 322942.0 322639.0 76816.0 69676.0 159351.0 156170.0 36298.0 33922.0 317217.0 309034.0 81951.0 74423.0 120411.0 112298.0 81982.0 86250.0 59153.0 62411.0 23636.0 30310.0 10336.0 18434.0 82549.0 75586.0 208713.0 206719.0 0.0 7844.0 70452.0 77244.0 60362.0 66797.0 57895.0 59962.0 131534.0 124747.0 326592.0 318604.0 145614.0 148662.0 50175.0 46323.0 36822.0 42934.0 159981.0 180349.0 159981.0 159981.0 159981.0 159981.0 180349.0 180349.0 180349.0 180349.0
40703.0 36217.0 89866.0 82839.0 36989.0 39568.0 52792.0 47092.0 135856.0 131950.0 110439.0 102136.0 112989.0 117775.0 141689.0 134941.0 133868.0 125447.0 80683.0 73038.0 101695.0 107839.0 285749.0 288338.0 90525.0 82807.0 154485.0 158571.0 37039.0 29228.0 60594.0 61008.0 87265.0 83812.0 152305.0 156299.0 315249.0 314910.0 69146.0 61912.0 156517.0 153699.0 41469.0 40180.0 309759.0 301569.0 82777.0 75005.0 121425.0 113335.0 77719.0 82547.0 66945.0 70254.0 28748.0 36135.0 14459.0 22276.0 83791.0 76518.0 201217.0 199309.0 7844.0 0.0 66466.0 73641.0 52521.0 59008.0 50143.0 52118.0 127802.0 120795.0 319110.0 311126.0 142821.0 145518.0 42529.0 39074.0 33652.0 40755.0 155476.0 172526.0 155476.0 155476.0 155476.0 155476.0 172526.0 172526.0 172526.0 172526.0
78646.0 81741.0 153563.0 147176.0 36237.0 29358.0 65720.0 58746.0 81689.0 80719.0 62750.0 56240.0 170883.0 174049.0 79829.0 74324.0 141558.0 134378.0 89763.0 85970.0 71267.0 78395.0 275524.0 276422.0 96695.0 89457.0 88331.0 92154.0 101226.0 94151.0 58077.0 65572.0 89197.0 81283.0 128577.0 135227.0 303420.0 301543.0 82644.0 74672.0 91118.0 89242.0 106707.0 103508.0 306006.0 297825.0 49142.0 43214.0 79115.0 72584.0 11809.0 16264.0 117715.0 116974.0 65017.0 69913.0 63979.0 61003.0 53260.0 46834.0 200405.0 200963.0 70452.0 66466.0 0.0 8061.0 64148.0 71829.0 53946.0 62143.0 61349.0 54351.0 314445.0 306799.0 77639.0 79603.0 49660.0 42888.0 33796.0 29859.0 89706.0 148561.0 89706.0 89706.0 89706.0 89706.0 148561.0 148561.0 148561.0 148561.0
82993.0 86683.0 161324.0 154869.0 44285.0 37308.0 73412.0 66564.0 74096.0 73442.0 56243.0 50226.0 178911.0 182100.0 71769.0 66292.0 147733.0 140717.0 96737.0 93232.0 74850.0 81853.0 279223.0 279928.0 103351.0 96284.0 80874.0 84967.0 108849.0 101677.0 65237.0 72880.0 95702.0 87642.0 131692.0 138593.0 306852.0 304922.0 89997.0 82153.0 83364.0 81317.0 113368.0 109855.0 310306.0 302149.0 45805.0 40876.0 72989.0 66837.0 8746.0 9037.0 122312.0 121112.0 70073.0 74359.0 70246.0 66650.0 50151.0 44493.0 205409.0 206195.0 77244.0 73641.0 8061.0 0.0 71828.0 79375.0 61615.0 69813.0 54290.0 47611.0 318629.0 311038.0 69819.0 72012.0 57591.0 50919.0 40424.0 35411.0 83699.0 151405.0 83699.0 83699.0 83699.0 83699.0 151405.0 151405.0 151405.0 151405.0
91078.0 88043.0 107323.0 102992.0 33563.0 41211.0 1610.0 6723.0 145837.0 144703.0 125784.0 118530.0 115278.0 116838.0 142143.0 137419.0 85735.0 77588.0 30572.0 24220.0 55182.0 59959.0 234303.0 236624.0 39960.0 31900.0 143507.0 145055.0 64720.0 61697.0 12599.0 8775.0 35332.0 31293.0 100412.0 104026.0 263636.0 263049.0 20287.0 11714.0 148742.0 148718.0 86562.0 88433.0 259862.0 251636.0 105744.0 98001.0 141138.0 133875.0 69702.0 77641.0 119189.0 122763.0 76476.0 84464.0 63985.0 69039.0 108741.0 101010.0 151355.0 150185.0 60362.0 52521.0 64148.0 71828.0 0.0 8440.0 10213.0 2030.0 115640.0 107658.0 269013.0 261083.0 136335.0 136256.0 16317.0 24553.0 53897.0 61095.0 135648.0 120401.0 135648.0 135648.0 135648.0 135648.0 120401.0 120401.0 120401.0 120401.0
98351.0 94946.0 106292.0 102502.0 41999.0 49619.0 7250.0 15120.0 153464.0 152511.0 133815.0 126642.0 111712.0 112764.0 149035.0 144523.0 77527.0 69330.0 22472.0 15813.0 54517.0 58454.0 227017.0 229471.0 32086.0 24108.0 149145.0 150348.0 67050.0 64957.0 16095.0 8418.0 28258.0 25634.0 95639.0 98749.0 256435.0 255985.0 11854.0 3298.0 154728.0 155019.0 90724.0 93203.0 252097.0 243877.0 114114.0 106391.0 149306.0 142095.0 76773.0 84816.0 125095.0 129011.0 84008.0 91998.0 71145.0 76570.0 117139.0 109416.0 143531.0 142212.0 66797.0 59008.0 71829.0 79375.0 8440.0 0.0 18087.0 10172.0 121415.0 113416.0 261297.0 253353.0 142568.0 142169.0 24753.0 32989.0 62300.0 69533.0 140215.0 115283.0 140215.0 140215.0 140215.0 140215.0 115283.0 115283.0 115283.0 115283.0
86463.0 84254.0 113853.0 109046.0 24855.0 32055.0 11801.0 6326.0 135633.0 134540.0 115737.0 108555.0 123814.0 125712.0 132032.0 127251.0 93660.0 85696.0 38736.0 33290.0 52658.0 58309.0 239840.0 241902.0 47493.0 39482.0 134015.0 135790.0 68238.0 64138.0 10523.0 13816.0 41714.0 36044.0 102338.0 106639.0 268983.0 268134.0 29566.0 21150.0 139038.0 138847.0 87389.0 88354.0 266389.0 258155.0 96259.0 88609.0 131225.0 124034.0 59566.0 67472.0 117041.0 119996.0 71372.0 79282.0 59929.0 64018.0 99382.0 91703.0 158134.0 157323.0 57895.0 50143.0 53946.0 61615.0 10213.0 18087.0 0.0 8199.0 106094.0 98135.0 275423.0 267531.0 126506.0 126604.0 8462.0 16060.0 45812.0 52486.0 126955.0 122677.0 126955.0 126955.0 126955.0 126955.0 122677.0 122677.0 122677.0 122677.0
90293.0 87421.0 108746.0 104323.0 31880.0 39454.0 3638.0 5435.0 143831.0 142717.0 123837.0 116604.0 117070.0 118689.0 140113.0 135389.0 87115.0 79009.0 31946.0 25832.0 54325.0 59276.0 235180.0 237445.0 41196.0 33126.0 141542.0 143121.0 65520.0 62276.0 11320.0 8890.0 36269.0 31821.0 100489.0 104247.0 264475.0 263831.0 21950.0 13389.0 146751.0 146707.0 86858.0 88551.0 260956.0 252728.0 103942.0 96219.0 139230.0 131986.0 67671.0 75611.0 118919.0 122371.0 75579.0 83558.0 63278.0 68148.0 106968.0 99248.0 152492.0 151402.0 59962.0 52118.0 62143.0 69813.0 2030.0 10172.0 8199.0 0.0 113667.0 105687.0 270082.0 262160.0 134329.0 134271.0 14649.0 22874.0 52373.0 59471.0 133796.0 120562.0 133796.0 133796.0 133796.0 133796.0 120562.0 120562.0 120562.0 120562.0
134385.0 139106.0 214115.0 207970.0 95688.0 89912.0 117227.0 112124.0 58555.0 63839.0 62932.0 64129.0 229004.0 231411.0 37857.0 38942.0 174069.0 168749.0 132661.0 131823.0 91176.0 95921.0 283821.0 284030.0 136244.0 131063.0 27956.0 30848.0 162266.0 155351.0 105405.0 113410.0 128055.0 119697.0 136643.0 144680.0 310805.0 308865.0 129597.0 123410.0 33542.0 35431.0 167631.0 163954.0 317399.0 309464.0 77378.0 78026.0 77541.0 76652.0 50482.0 45297.0 173638.0 171387.0 122910.0 126122.0 124369.0 120269.0 81411.0 80565.0 219994.0 222555.0 131534.0 127802.0 61349.0 54290.0 115640.0 121415.0 106094.0 113667.0 0.0 8000.0 324994.0 317770.0 23163.0 20893.0 104997.0 100259.0 94713.0 89330.0 33292.0 155105.0 33292.0 33292.0 33292.0 33292.0 155105.0 155105.0 155105.0 155105.0
128915.0 133347.0 206581.0 200503.0 88136.0 82542.0 109243.0 104180.0 62117.0 66670.0 63128.0 63278.0 221158.0 223518.0 43598.0 43503.0 166669.0 161237.0 124745.0 123851.0 83940.0 88899.0 278087.0 278296.0 128428.0 123175.0 35883.0 38321.0 154909.0 148079.0 97405.0 105410.0 120238.0 111867.0 130833.0 138810.0 305071.0 303131.0 121610.0 115410.0 41497.0 43027.0 160941.0 157461.0 311665.0 303730.0 74554.0 74427.0 78702.0 76989.0 43191.0 38573.0 168266.0 166296.0 116986.0 120529.0 117852.0 114042.0 78762.0 77197.0 213615.0 216023.0 124747.0 120795.0 54351.0 47611.0 107658.0 113416.0 98135.0 105687.0 8000.0 0.0 319260.0 312036.0 30581.0 28857.0 97132.0 92514.0 87966.0 82921.0 35337.0 149371.0 35337.0 35337.0 35337.0 35337.0 149371.0 149371.0 149371.0 149371.0
359384.0 355317.0 313258.0 316187.0 299684.0 305705.0 268263.0 275517.0 380114.0 383280.0 372095.0 367674.0 286377.0 279630.0 362724.0 362640.0 185475.0 193906.0 238926.0 246311.0 243887.0 237032.0 44180.0 47731.0 229214.0 237204.0 344580.0 341929.0 311493.0 314142.0 265885.0 261870.0 233873.0 239507.0 188862.0 181240.0 34804.0 42765.0 250290.0 258133.0 353699.0 358349.0 340431.0 345694.0 9922.0 17704.0 363565.0 357232.0 389436.0 384409.0 311171.0 318108.0 381299.0 386655.0 345291.0 353277.0 332153.0 337857.0 367600.0 360779.0 117896.0 120080.0 326592.0 319110.0 314445.0 318629.0 269013.0 261297.0 275423.0 270082.0 324994.0 319260.0 0.0 8018.0 347281.0 342423.0 283800.0 291353.0 320763.0 326430.0 328359.0 171494.0 328359.0 328359.0 328359.0 328359.0 171494.0 171494.0 171494.0 171494.0
351415.0 347332.0 305391.0 308285.0 291821.0 297871.0 260326.0 267595.0 372885.0 375985.0 364645.0 360169.0 278651.0 271936.0 355500.0 355281.0 177472.0 185904.0 230972.0 238346.0 236339.0 229509.0 38769.0 43234.0 221268.0 229263.0 337356.0 334705.0 303477.0 306124.0 258018.0 253965.0 225962.0 231634.0 181555.0 173883.0 35142.0 42934.0 242327.0 250184.0 346475.0 351125.0 332413.0 337675.0 2881.0 9697.0 355908.0 349542.0 381984.0 376909.0 303619.0 310594.0 373283.0 378642.0 337340.0 345326.0 324186.0 329907.0 359930.0 353085.0 109920.0 112068.0 318604.0 311126.0 306799.0 311038.0 261083.0 253353.0 267531.0 262160.0 317770.0 312036.0 8018.0 0.0 340057.0 335200.0 275903.0 283472.0 312905.0 318604.0 321135.0 164411.0 321135.0 321135.0 321135.0 321135.0 164411.0 164411.0 164411.0 164411.0
143586.0 149247.0 231141.0 224656.0 113519.0 106976.0 137939.0 132329.0 44000.0 51001.0 57865.0 61981.0 247999.0 250805.0 18777.0 23799.0 197191.0 191808.0 154920.0 153698.0 114334.0 119072.0 306107.0 306316.0 158861.0 153449.0 15748.0 23411.0 178590.0 171315.0 126727.0 134771.0 150672.0 142282.0 158956.0 167042.0 333092.0 331152.0 151288.0 144741.0 13747.0 12542.0 180991.0 176558.0 339686.0 331751.0 80004.0 82904.0 68600.0 70131.0 68233.0 61479.0 182031.0 178831.0 133875.0 135881.0 137482.0 132363.0 83300.0 84627.0 242769.0 245447.0 145614.0 142821.0 77639.0 69819.0 136335.0 142568.0 126506.0 134329.0 23163.0 30581.0 347281.0 340057.0 0.0 7611.0 124564.0 119078.0 109185.0 102691.0 45843.0 177392.0 45843.0 45843.0 45843.0 45843.0 177392.0 177392.0 177392.0 177392.0
148153.0 153563.0 233112.0 226773.0 114977.0 108757.0 137849.0 132562.0 51609.0 58602.0 64844.0 68560.0 249007.0 251591.0 26267.0 31391.0 194292.0 189150.0 153548.0 152708.0 111259.0 115665.0 301250.0 301459.0 157053.0 151934.0 9548.0 16438.0 180821.0 173686.0 126192.0 134210.0 148867.0 140523.0 154099.0 162199.0 328235.0 326294.0 150462.0 144207.0 12650.0 15940.0 184350.0 180166.0 334828.0 326894.0 85856.0 88295.0 76046.0 77360.0 69524.0 63339.0 186885.0 183923.0 137914.0 140275.0 140848.0 136049.0 89320.0 90210.0 238309.0 241166.0 148662.0 145518.0 79603.0 72012.0 136256.0 142169.0 126604.0 134271.0 20893.0 28857.0 342423.0 335200.0 7611.0 0.0 125163.0 120068.0 111993.0 105861.0 38771.0 172534.0 38771.0 38771.0 38771.0 38771.0 172534.0 172534.0 172534.0 172534.0
78085.0 76030.0 111710.0 106457.0 17247.0 24938.0 17639.0 9797.0 131082.0 129575.0 110218.0 102805.0 124033.0 126439.0 128946.0 123789.0 101585.0 93534.0 46469.0 40479.0 59348.0 65353.0 248295.0 250363.0 55504.0 47449.0 132948.0 135206.0 63858.0 59033.0 18794.0 21986.0 49998.0 44492.0 110424.0 114867.0 277444.0 276595.0 36583.0 28010.0 137426.0 136741.0 81038.0 81510.0 274748.0 266515.0 89518.0 81740.0 125282.0 117920.0 56672.0 64242.0 109230.0 111985.0 62948.0 70845.0 51701.0 55609.0 92465.0 84722.0 166435.0 165540.0 50175.0 42529.0 49660.0 57591.0 16317.0 24753.0 8462.0 14649.0 104997.0 97132.0 283800.0 275903.0 124564.0 125163.0 0.0 8237.0 37806.0 44823.0 127471.0 130820.0 127471.0 127471.0 127471.0 127471.0 130820.0 130820.0 130820.0 130820.0
71995.0 70574.0 114686.0 109035.0 9010.0 16766.0 25865.0 17992.0 123814.0 122082.0 102472.0 94963.0 128962.0 131740.0 122612.0 117209.0 109651.0 101640.0 54598.0 48705.0 63026.0 69440.0 255494.0 257445.0 63512.0 55479.0 128130.0 130782.0 64930.0 59306.0 25598.0 29863.0 57760.0 51860.0 116068.0 120850.0 284547.0 283577.0 44816.0 36245.0 132161.0 131099.0 79322.0 79008.0 282347.0 274113.0 81348.0 73547.0 117342.0 109921.0 50868.0 58093.0 104755.0 107026.0 56635.0 64405.0 46401.0 49448.0 84260.0 76510.0 174155.0 173378.0 46323.0 39074.0 42888.0 50919.0 24553.0 32989.0 16060.0 22874.0 100259.0 92514.0 291353.0 283472.0 119078.0 120068.0 8237.0 0.0 29760.0 36617.0 124066.0 136565.0 124066.0 124066.0 124066.0 124066.0 136565.0 136565.0 136565.0 136565.0
48763.0 50121.0 122977.0 116149.0 21103.0 15697.0 55060.0 47184.0 104011.0 100826.0 79788.0 71678.0 143775.0 147849.0 108280.0 101697.0 139384.0 131340.0 84272.0 78110.0 86363.0 93361.0 284386.0 286135.0 93267.0 85226.0 121040.0 125348.0 70060.0 62503.0 54903.0 59622.0 87467.0 81305.0 142344.0 147772.0 313257.0 312071.0 74147.0 65593.0 122891.0 120053.0 72976.0 69720.0 311819.0 303584.0 54803.0 46765.0 92752.0 84895.0 45489.0 49436.0 86313.0 86686.0 33672.0 40166.0 30266.0 28282.0 57022.0 49231.0 203777.0 203090.0 36822.0 33652.0 33796.0 40424.0 53897.0 62300.0 45812.0 52373.0 94713.0 87966.0 320763.0 312905.0 109185.0 111993.0 37806.0 29760.0 0.0 8408.0 123494.0 162894.0 123494.0 123494.0 123494.0 123494.0 162894.0 162894.0 162894.0 162894.0
49248.0 51928.0 130510.0 123563.0 27654.0 20785.0 62337.0 54432.0 95887.0 92564.0 71450.0 63316.0 151911.0 156070.0 100942.0 94191.0 146131.0 138182.0 91184.0 85297.0 89383.0 96498.0 289531.0 291110.0 99951.0 91961.0 115052.0 119695.0 77587.0 69901.0 60985.0 66276.0 93833.0 87310.0 146116.0 151845.0 318234.0 316877.0 81382.0 72808.0 116432.0 113257.0 78511.0 74626.0 317570.0 309338.0 46460.0 38431.0 84344.0 76492.0 41647.0 44415.0 88007.0 87602.0 35192.0 40485.0 35072.0 31263.0 48782.0 40979.0 209816.0 209336.0 42934.0 40755.0 29859.0 35411.0 61095.0 69533.0 52486.0 59471.0 89330.0 82921.0 326430.0 318604.0 102691.0 105861.0 44823.0 36617.0 8408.0 0.0 119091.0 166617.0 119091.0 119091.0 119091.0 119091.0 166617.0 166617.0 166617.0 166617.0
165956.0 170149.0 238750.0 233058.0 120994.0 116316.0 137159.0 133236.0 88720.0 94953.0 96105.0 97414.0 250760.0 252484.0 64505.0 68264.0 183483.0 179018.0 147836.0 148365.0 100929.0 104309.0 287186.0 287395.0 149818.0 145762.0 36893.0 31861.0 188170.0 181724.0 124185.0 131866.0 141771.0 133739.0 140034.0 148135.0 314170.0 312230.0 146755.0 141709.0 46895.0 53539.0 196277.0 193212.0 320764.0 312829.0 109849.0 109735.0 110171.0 109736.0 78028.0 74759.0 205338.0 203519.0 153652.0 157491.0 153675.0 150345.0 114021.0 112529.0 224357.0 227389.0 159981.0 155476.0 89706.0 83699.0 135648.0 140215.0 126955.0 133796.0 33292.0 35337.0 328359.0 321135.0 45843.0 38771.0 127471.0 124066.0 123494.0 119091.0 0.0 158470.0 0.0 0.0 0.0 0.0 158470.0 158470.0 158470.0 158470.0
208560.0 206844.0 207941.0 206777.0 143177.0 147199.0 120399.0 125451.0 210223.0 213414.0 202888.0 198964.0 197841.0 194778.0 192835.0 192751.0 75084.0 78498.0 97785.0 105378.0 77703.0 70508.0 129679.0 129575.0 89199.0 94711.0 174691.0 172040.0 180652.0 179673.0 112154.0 111706.0 88619.0 89649.0 20556.0 16669.0 157477.0 155537.0 108273.0 113029.0 183810.0 188460.0 205896.0 208479.0 164164.0 156343.0 197172.0 191730.0 220209.0 215591.0 143376.0 149722.0 239442.0 242642.0 193176.0 200878.0 182518.0 186013.0 201470.0 195359.0 75676.0 80817.0 180349.0 172526.0 148561.0 151405.0 120401.0 115283.0 122677.0 120562.0 155105.0 149371.0 171494.0 164411.0 177392.0 172534.0 130820.0 136565.0 162894.0 166617.0 158470.0 0.0 158470.0 158470.0 158470.0 158470.0 0.0 0.0 0.0 0.0
165956.0 170149.0 238750.0 233058.0 120994.0 116316.0 137159.0 133236.0 88720.0 94953.0 96105.0 97414.0 250760.0 252484.0 64505.0 68264.0 183483.0 179018.0 147836.0 148365.0 100929.0 104309.0 287186.0 287395.0 149818.0 145762.0 36893.0 31861.0 188170.0 181724.0 124185.0 131866.0 141771.0 133739.0 140034.0 148135.0 314170.0 312230.0 146755.0 141709.0 46895.0 53539.0 196277.0 193212.0 320764.0 312829.0 109849.0 109735.0 110171.0 109736.0 78028.0 74759.0 205338.0 203519.0 153652.0 157491.0 153675.0 150345.0 114021.0 112529.0 224357.0 227389.0 159981.0 155476.0 89706.0 83699.0 135648.0 140215.0 126955.0 133796.0 33292.0 35337.0 328359.0 321135.0 45843.0 38771.0 127471.0 124066.0 123494.0 119091.0 0.0 158470.0 0.0 0.0 0.0 0.0 158470.0 158470.0 158470.0 158470.0
165956.0 170149.0 238750.0 233058.0 120994.0 116316.0 137159.0 133236.0 88720.0 94953.0 96105.0 97414.0 250760.0 252484.0 64505.0 68264.0 183483.0 179018.0 147836.0 148365.0 100929.0 104309.0 287186.0 287395.0 149818.0 145762.0 36893.0 31861.0 188170.0 181724.0 124185.0 131866.0 141771.0 133739.0 140034.0 148135.0 314170.0 312230.0 146755.0 141709.0 46895.0 53539.0 196277.0 193212.0 320764.0 312829.0 109849.0 109735.0 110171.0 109736.0 78028.0 74759.0 205338.0 203519.0 153652.0 157491.0 153675.0 150345.0 114021.0 112529.0 224357.0 227389.0 159981.0 155476.0 89706.0 83699.0 135648.0 140215.0 126955.0 133796.0 33292.0 35337.0 328359.0 321135.0 45843.0 38771.0 127471.0 124066.0 123494.0 119091.0 0.0 158470.0 0.0 0.0 0.0 0.0 158470.0 158470.0 158470.0 158470.0
165956.0 170149.0 238750.0 233058.0 120994.0 116316.0 137159.0 133236.0 88720.0 94953.0 96105.0 97414.0 250760.0 252484.0 64505.0 68264.0 183483.0 179018.0 147836.0 148365.0 100929.0 104309.0 287186.0 287395.0 149818.0 145762.0 36893.0 31861.0 188170.0 181724.0 124185.0 131866.0 141771.0 133739.0 140034.0 148135.0 314170.0 312230.0 146755.0 141709.0 46895.0 53539.0 196277.0 193212.0 320764.0 312829.0 109849.0 109735.0 110171.0 109736.0 78028.0 74759.0 205338.0 203519.0 153652.0 157491.0 153675.0 150345.0 114021.0 112529.0 224357.0 227389.0 159981.0 155476.0 89706.0 83699.0 135648.0 140215.0 126955.0 133796.0 33292.0 35337.0 328359.0 321135.0 45843.0 38771.0 127471.0 124066.0 123494.0 119091.0 0.0 158470.0 0.0 0.0 0.0 0.0 158470.0 158470.0 158470.0 158470.0
165956.0 170149.0 238750.0 233058.0 120994.0 116316.0 137159.0 133236.0 88720.0 94953.0 96105.0 97414.0 250760.0 252484.0 64505.0 68264.0 183483.0 179018.0 147836.0 148365.0 100929.0 104309.0 287186.0 287395.0 149818.0 145762.0 36893.0 31861.0 188170.0 181724.0 124185.0 131866.0 141771.0 133739.0 140034.0 148135.0 314170.0 312230.0 146755.0 141709.0 46895.0 53539.0 196277.0 193212.0 320764.0 312829.0 109849.0 109735.0 110171.0 109736.0 78028.0 74759.0 205338.0 203519.0 153652.0 157491.0 153675.0 150345.0 114021.0 112529.0 224357.0 227389.0 159981.0 155476.0 89706.0 83699.0 135648.0 140215.0 126955.0 133796.0 33292.0 35337.0 328359.0 321135.0 45843.0 38771.0 127471.0 124066.0 123494.0 119091.0 0.0 158470.0 0.0 0.0 0.0 0.0 158470.0 158470.0 158470.0 158470.0
208560.0 206844.0 207941.0 206777.0 143177.0 147199.0 120399.0 125451.0 210223.0 213414.0 202888.0 198964.0 197841.0 194778.0 192835.0 192751.0 75084.0 78498.0 97785.0 105378.0 77703.0 70508.0 129679.0 129575.0 89199.0 94711.0 174691.0 172040.0 180652.0 179673.0 112154.0 111706.0 88619.0 89649.0 20556.0 16669.0 157477.0 155537.0 108273.0 113029.0 183810.0 188460.0 205896.0 208479.0 164164.0 156343.0 197172.0 191730.0 220209.0 215591.0 143376.0 149722.0 239442.0 242642.0 193176.0 200878.0 182518.0 186013.0 201470.0 195359.0 75676.0 80817.0 180349.0 172526.0 148561.0 151405.0 120401.0 115283.0 122677.0 120562.0 155105.0 149371.0 171494.0 164411.0 177392.0 172534.0 130820.0 136565.0 162894.0 166617.0 158470.0 0.0 158470.0 158470.0 158470.0 158470.0 0.0 0.0 0.0 0.0
208560.0 206844.0 207941.0 206777.0 143177.0 147199.0 120399.0 125451.0 210223.0 213414.0 202888.0 198964.0 197841.0 194778.0 192835.0 192751.0 75084.0 78498.0 97785.0 105378.0 77703.0 70508.0 129679.0 129575.0 89199.0 94711.0 174691.0 172040.0 180652.0 179673.0 112154.0 111706.0 88619.0 89649.0 20556.0 16669.0 157477.0 155537.0 108273.0 113029.0 183810.0 188460.0 205896.0 208479.0 164164.0 156343.0 197172.0 191730.0 220209.0 215591.0 143376.0 149722.0 239442.0 242642.0 193176.0 200878.0 182518.0 186013.0 201470.0 195359.0 75676.0 80817.0 180349.0 172526.0 148561.0 151405.0 120401.0 115283.0 122677.0 120562.0 155105.0 149371.0 171494.0 164411.0 177392.0 172534.0 130820.0 136565.0 162894.0 166617.0 158470.0 0.0 158470.0 158470.0 158470.0 158470.0 0.0 0.0 0.0 0.0
208560.0 206844.0 207941.0 206777.0 143177.0 147199.0 120399.0 125451.0 210223.0 213414.0 202888.0 198964.0 197841.0 194778.0 192835.0 192751.0 75084.0 78498.0 97785.0 105378.0 77703.0 70508.0 129679.0 129575.0 89199.0 94711.0 174691.0 172040.0 180652.0 179673.0 112154.0 111706.0 88619.0 89649.0 20556.0 16669.0 157477.0 155537.0 108273.0 113029.0 183810.0 188460.0 205896.0 208479.0 164164.0 156343.0 197172.0 191730.0 220209.0 215591.0 143376.0 149722.0 239442.0 242642.0 193176.0 200878.0 182518.0 186013.0 201470.0 195359.0 75676.0 80817.0 180349.0 172526.0 148561.0 151405.0 120401.0 115283.0 122677.0 120562.0 155105.0 149371.0 171494.0 164411.0 177392.0 172534.0 130820.0 136565.0 162894.0 166617.0 158470.0 0.0 158470.0 158470.0 158470.0 158470.0 0.0 0.0 0.0 0.0
208560.0 206844.0 207941.0 206777.0 143177.0 147199.0 120399.0 125451.0 210223.0 213414.0 202888.0 198964.0 197841.0 194778.0 192835.0 192751.0 75084.0 78498.0 97785.0 105378.0 77703.0 70508.0 129679.0 129575.0 89199.0 94711.0 174691.0 172040.0 180652.0 179673.0 112154.0 111706.0 88619.0 89649.0 20556.0 16669.0 157477.0 155537.0 108273.0 113029.0 183810.0 188460.0 205896.0 208479.0 164164.0 156343.0 197172.0 191730.0 220209.0 215591.0 143376.0 149722.0 239442.0 242642.0 193176.0 200878.0 182518.0 186013.0 201470.0 195359.0 75676.0 80817.0 180349.0 172526.0 148561.0 151405.0 120401.0 115283.0 122677.0 120562.0 155105.0 149371.0 171494.0 164411.0 177392.0 172534.0 130820.0 136565.0 162894.0 166617.0 158470.0 0.0 158470.0 158470.0 158470.0 158470.0 0.0 0.0 0.0 0.0
FIXED_EDGES_SECTION
1 2
3 4
5 6
7 8
9 10
11 12
13 14
15 16
17 18
19 20
21 22
23 24
25 26
27 28
29 30
31 32
33 34
35 36
37 38
39 40
41 42
43 44
45 46
47 48
49 50
51 52
53 54
55 56
57 58
59 60
61 62
63 64
65 66
67 68
69 70
71 72
73 74
75 76
77 78
79 80
-1 
DEMAND_SECTION
1 211
2 211
3 277
4 277
5 541
6 541
7 90
8 90
9 274
10 274
11 375
12 375
13 321
14 321
15 247
16 247
17 68
18 68
19 291
20 291
21 75
22 75
23 60
24 60
25 158
26 158
27 97
28 97
29 180
30 180
31 380
32 380
33 223
34 223
35 235
36 235
37 71
38 71
39 271
40 271
41 292
42 292
43 72
44 72
45 421
46 421
47 461
48 461
49 265
50 265
51 394
52 394
53 68
54 68
55 90
56 90
57 211
58 211
59 497
60 497
61 620
62 620
63 82
64 82
65 207
66 207
67 279
68 279
69 94
70 94
71 485
72 485
73 229
74 229
75 341
76 341
77 89
78 89
79 349
80 349
81 0
82 0
83 0
84 0
85 0
86 0
87 0
88 0
89 0
90 0
DEPOT_SECTION
81 
-1 
CAPACITIES_SECTION
5000 
5500 
6000 
6500 
-1 
EOF