NAME: GFS_20_1
TYPE: GFSP
DIMENSION: 90
VEHICLES: 4
CAPACITY: 5000.0
TRIP_DIST_LIMIT: 750000.0
TOTAL_DIST_LIMIT: 1050000.0
EDGE_WEIGHT_TYPE: EXPLICIT
EDGE_WEIGHT_FORMAT: FULL_MATRIX
EDGE_WEIGHT_SECTION
0.0 8006.0 88106.0 79795.0 36265.0 35285.0 85229.0 77494.0 99906.0 92130.0 108383.0 100396.0 23517.0 31935.0 129433.0 131296.0 114508.0 119295.0 27083.0 34992.0 100056.0 100814.0 56394.0 50419.0 20035.0 12156.0 43732.0 35171.0 96470.0 92689.0 6654.0 6245.0 131944.0 130978.0 38378.0 44218.0 47232.0 42146.0 128476.0 123674.0 247353.0 241436.0 60543.0 67365.0 221579.0 214730.0 118067.0 110686.0 47795.0 40507.0 50194.0 52838.0 19251.0 27139.0 132373.0 139227.0 34696.0 26479.0 125904.0 128375.0 47951.0 51009.0 250911.0 242697.0 144048.0 151411.0 127804.0 130367.0 103083.0 95627.0 195552.0 187916.0 112125.0 106125.0 58192.0 65959.0 129201.0 131893.0 104771.0 108720.0 123436.0 135005.0 123436.0 123436.0 123436.0 123436.0 135005.0 135005.0 135005.0 135005.0
8006.0 0.0 81968.0 73675.0 34234.0 35054.0 77819.0 70048.0 97813.0 90216.0 116349.0 108340.0 31168.0 39608.0 137439.0 139286.0 121602.0 126579.0 23497.0 31434.0 107153.0 108173.0 64399.0 58372.0 24384.0 17608.0 51451.0 42877.0 91239.0 87964.0 9070.0 13770.0 129113.0 127682.0 45279.0 50547.0 41117.0 36923.0 128004.0 123621.0 255225.0 249337.0 62098.0 69430.0 229580.0 222735.0 111358.0 103853.0 42994.0 36255.0 56590.0 58489.0 11428.0 19190.0 139672.0 146618.0 35229.0 26675.0 133804.0 136337.0 41818.0 44102.0 258616.0 250387.0 138396.0 145645.0 125520.0 128536.0 96768.0 89136.0 203557.0 195921.0 104131.0 98119.0 51116.0 58751.0 132263.0 135356.0 102024.0 105488.0 122800.0 142135.0 122800.0 122800.0 122800.0 122800.0 142135.0 142135.0 142135.0 142135.0
88106.0 81968.0 0.0 8311.0 59926.0 67110.0 25859.0 27681.0 56691.0 55079.0 188816.0 181755.0 110663.0 118656.0 206168.0 209938.0 169806.0 177095.0 62762.0 56291.0 157177.0 161807.0 136650.0 128659.0 85322.0 87260.0 129788.0 121626.0 16906.0 21829.0 82931.0 90597.0 70138.0 64386.0 106632.0 105802.0 40899.0 46520.0 191373.0 189388.0 312399.0 307747.0 138092.0 146229.0 294447.0 288547.0 31951.0 26387.0 98345.0 97753.0 110178.0 105586.0 71841.0 66820.0 189216.0 197149.0 70389.0 71658.0 196215.0 201006.0 88784.0 82135.0 311625.0 303458.0 57056.0 63989.0 72853.0 79801.0 15243.0 9712.0 270050.0 262850.0 64939.0 65821.0 81794.0 82123.0 209735.0 213864.0 51870.0 48634.0 89809.0 189257.0 89809.0 89809.0 89809.0 89809.0 189257.0 189257.0 189257.0 189257.0
79795.0 73675.0 8311.0 0.0 52079.0 59430.0 25081.0 24465.0 56444.0 53685.0 180915.0 173792.0 102370.0 110379.0 198516.0 202177.0 163347.0 170522.0 54526.0 48182.0 150500.0 154927.0 128633.0 120691.0 77244.0 79032.0 121542.0 113359.0 21742.0 24033.0 74630.0 82303.0 73694.0 68604.0 98851.0 98270.0 32592.0 38263.0 184577.0 182400.0 305754.0 300998.0 130214.0 138323.0 287195.0 281219.0 39712.0 33525.0 91183.0 90267.0 102791.0 98459.0 63613.0 58744.0 182781.0 190683.0 62739.0 63659.0 188932.0 193594.0 81825.0 75463.0 305245.0 297078.0 65128.0 72160.0 75370.0 81873.0 23447.0 16888.0 262650.0 255410.0 65921.0 65777.0 75620.0 76541.0 201877.0 205924.0 52973.0 50905.0 88942.0 182886.0 88942.0 88942.0 88942.0 88942.0 182886.0 182886.0 182886.0 182886.0
36265.0 34234.0 59926.0 52079.0 0.0 7999.0 66593.0 60055.0 63749.0 56062.0 128891.0 121865.0 54593.0 61692.0 146517.0 150102.0 115445.0 122010.0 11794.0 7257.0 101758.0 105246.0 76874.0 68795.0 26131.0 30176.0 71871.0 64302.0 64192.0 59052.0 29667.0 35804.0 95694.0 94904.0 46780.0 46665.0 25396.0 17331.0 161836.0 157664.0 256302.0 251191.0 96188.0 103324.0 235889.0 229740.0 91778.0 85483.0 72405.0 67199.0 51634.0 48541.0 31313.0 34175.0 134764.0 142455.0 11298.0 12245.0 137681.0 142008.0 67580.0 66141.0 256905.0 248738.0 112279.0 119951.0 91591.0 94375.0 75091.0 68963.0 211027.0 203711.0 102970.0 99130.0 71235.0 77095.0 165466.0 168115.0 68519.0 72648.0 88814.0 135524.0 88814.0 88814.0 88814.0 88814.0 135524.0 135524.0 135524.0 135524.0
35285.0 35054.0 67110.0 59430.0 7999.0 0.0 74566.0 68052.0 65320.0 57410.0 121888.0 115020.0 50755.0 57244.0 139090.0 142832.0 107457.0 114011.0 16286.0 14765.0 93759.0 97264.0 70312.0 62097.0 21125.0 26855.0 66766.0 59621.0 70265.0 64597.0 28676.0 33460.0 98112.0 97963.0 39567.0 38938.0 33373.0 25299.0 163013.0 158507.0 248333.0 243242.0 95827.0 102607.0 228136.0 222033.0 99042.0 92925.0 75787.0 70002.0 43768.0 40544.0 34713.0 38991.0 126769.0 134458.0 3353.0 8819.0 129897.0 134324.0 71876.0 71198.0 248907.0 240740.0 118199.0 125942.0 93274.0 95418.0 82177.0 76311.0 203368.0 196082.0 110891.0 106956.0 76730.0 82972.0 163810.0 166110.0 71040.0 75833.0 88170.0 127556.0 88170.0 88170.0 88170.0 88170.0 127556.0 127556.0 127556.0 127556.0
85229.0 77819.0 25859.0 25081.0 66593.0 74566.0 0.0 7807.0 81411.0 78762.0 191926.0 184298.0 108741.0 117139.0 211263.0 214143.0 181653.0 188411.0 64694.0 60719.0 168180.0 171829.0 139158.0 131821.0 88416.0 87977.0 128875.0 120347.0 42605.0 47523.0 81559.0 89269.0 95830.0 89793.0 111946.0 112939.0 41794.0 49685.0 172667.0 171476.0 322895.0 317770.0 126033.0 134287.0 301830.0 295489.0 37892.0 29781.0 82549.0 83791.0 118129.0 115072.0 66499.0 59507.0 201049.0 208813.0 77889.0 76251.0 203838.0 207800.0 72331.0 64694.0 323362.0 315194.0 73291.0 78777.0 98712.0 105632.0 30752.0 23237.0 276597.0 269162.0 41087.0 40699.0 62507.0 61030.0 196732.0 201564.0 77379.0 74462.0 114021.0 201470.0 114021.0 114021.0 114021.0 114021.0 201470.0 201470.0 201470.0 201470.0
77494.0 70048.0 27681.0 24465.0 60055.0 68052.0 7807.0 0.0 80565.0 77197.0 184432.0 176763.0 101010.0 109416.0 203945.0 206731.0 175410.0 182050.0 57477.0 53908.0 161801.0 165262.0 131675.0 124412.0 81149.0 80471.0 121168.0 112632.0 44525.0 48268.0 73917.0 81606.0 97592.0 92028.0 104840.0 106084.0 34895.0 42908.0 166607.0 165192.0 316247.0 311045.0 118611.0 126864.0 294724.0 288329.0 44915.0 36819.0 75586.0 76518.0 111379.0 108596.0 58714.0 51701.0 194766.0 202485.0 71344.0 69266.0 196841.0 200687.0 65457.0 58008.0 316959.0 308792.0 79258.0 85078.0 99711.0 106309.0 35792.0 27689.0 269399.0 261940.0 44801.0 43047.0 56347.0 55571.0 189505.0 194247.0 77429.0 75268.0 112529.0 195359.0 112529.0 112529.0 112529.0 112529.0 195359.0 195359.0 195359.0 195359.0
99906.0 97813.0 56691.0 56444.0 63749.0 65320.0 81411.0 80565.0 0.0 8000.0 174069.0 168749.0 115640.0 121415.0 185994.0 191532.0 136643.0 144680.0 74447.0 66734.0 126882.0 133415.0 128055.0 119697.0 85830.0 92160.0 129597.0 123410.0 43029.0 35505.0 93263.0 98720.0 33542.0 35431.0 96663.0 91759.0 67413.0 65533.0 224045.0 220348.0 278678.0 274516.0 159889.0 167072.0 266234.0 261405.0 77541.0 76652.0 131534.0 127802.0 93285.0 85906.0 92829.0 92662.0 155235.0 163227.0 66908.0 73984.0 170972.0 177344.0 124369.0 120269.0 277477.0 269310.0 74009.0 81486.0 27956.0 30848.0 62932.0 64129.0 244231.0 237746.0 121595.0 122064.0 122910.0 126122.0 229004.0 231411.0 9783.0 17574.0 33292.0 155105.0 33292.0 33292.0 33292.0 33292.0 155105.0 155105.0 155105.0 155105.0
92130.0 90216.0 55079.0 53685.0 56062.0 57410.0 78762.0 77197.0 8000.0 0.0 166669.0 161237.0 107658.0 113416.0 179003.0 184420.0 130833.0 138810.0 66942.0 59327.0 120644.0 126994.0 120238.0 111867.0 77854.0 84234.0 121610.0 115410.0 43208.0 35168.0 85480.0 90839.0 41497.0 43027.0 88779.0 83989.0 61228.0 58771.0 216867.0 213059.0 272944.0 268782.0 152247.0 159371.0 260183.0 255227.0 78702.0 76989.0 124747.0 120795.0 85658.0 78379.0 85565.0 85729.0 149501.0 157493.0 58950.0 66105.0 164385.0 170627.0 117852.0 114042.0 271743.0 263576.0 78764.0 86413.0 35883.0 38321.0 63128.0 63278.0 237884.0 231315.0 119490.0 119445.0 116986.0 120529.0 221158.0 223518.0 16165.0 23438.0 35337.0 149371.0 35337.0 35337.0 35337.0 35337.0 149371.0 149371.0 149371.0 149371.0
108383.0 116349.0 188816.0 180915.0 128891.0 121888.0 191926.0 184432.0 174069.0 166669.0 0.0 8434.0 85735.0 77527.0 24044.0 23354.0 66278.0 62168.0 127620.0 132962.0 62399.0 54637.0 52769.0 60333.0 104023.0 103961.0 65938.0 74249.0 191646.0 185279.0 110848.0 103398.0 206650.0 209489.0 82350.0 84484.0 150839.0 143580.0 166961.0 159095.0 146791.0 139894.0 111180.0 108932.0 115168.0 107846.0 220627.0 214131.0 141254.0 133868.0 81548.0 88388.0 127604.0 135522.0 68158.0 69096.0 118696.0 117302.0 36140.0 31902.0 147238.0 153362.0 156563.0 148284.0 238953.0 246794.0 198626.0 197005.0 203975.0 197771.0 88629.0 80883.0 220431.0 214223.0 160747.0 168690.0 125767.0 121832.0 182787.0 189591.0 183483.0 75084.0 183483.0 183483.0 183483.0 183483.0 75084.0 75084.0 75084.0 75084.0
100396.0 108340.0 181755.0 173792.0 121865.0 115020.0 184298.0 176763.0 168749.0 161237.0 8434.0 0.0 77588.0 69330.0 32296.0 31757.0 67658.0 64468.0 120188.0 125722.0 61999.0 54598.0 45272.0 53101.0 96700.0 96325.0 57677.0 66043.0 185023.0 178808.0 103032.0 95518.0 201594.0 204179.0 75611.0 78254.0 143395.0 136240.0 159896.0 152081.0 155084.0 148226.0 103016.0 100950.0 123593.0 116256.0 213490.0 206895.0 132825.0 125447.0 75717.0 82859.0 119637.0 127526.0 71795.0 73559.0 111874.0 110134.0 41956.0 38783.0 138841.0 145000.0 164495.0 156213.0 232535.0 240359.0 193780.0 192441.0 196948.0 190617.0 97044.0 89297.0 212357.0 206091.0 152379.0 160317.0 120344.0 116784.0 177298.0 183966.0 179018.0 78498.0 179018.0 179018.0 179018.0 179018.0 78498.0 78498.0 78498.0 78498.0
23517.0 31168.0 110663.0 102370.0 54593.0 50755.0 108741.0 101010.0 115640.0 107658.0 85735.0 77588.0 0.0 8440.0 107547.0 108885.0 100412.0 104026.0 48172.0 55480.0 86251.0 85421.0 35332.0 31293.0 29823.0 24423.0 20287.0 11714.0 117815.0 113316.0 27787.0 20068.0 148742.0 148718.0 30708.0 38573.0 70046.0 64206.0 124636.0 118722.0 227392.0 221205.0 53972.0 58631.0 199917.0 192891.0 141138.0 133875.0 60362.0 52521.0 43259.0 49083.0 42595.0 50279.0 116845.0 123076.0 48812.0 42669.0 106045.0 107720.0 63985.0 69039.0 232314.0 224146.0 165784.0 173290.0 143507.0 145055.0 125784.0 118530.0 173664.0 165974.0 134802.0 128504.0 76476.0 84464.0 115278.0 116838.0 121746.0 126578.0 135648.0 120401.0 135648.0 135648.0 135648.0 135648.0 120401.0 120401.0 120401.0 120401.0
31935.0 39608.0 118656.0 110379.0 61692.0 57244.0 117139.0 109416.0 121415.0 113416.0 77527.0 69330.0 8440.0 0.0 99596.0 100741.0 95639.0 98749.0 55988.0 63084.0 81746.0 80259.0 28258.0 25634.0 36119.0 31765.0 11854.0 3298.0 125387.0 120662.0 35967.0 28197.0 154728.0 155019.0 31289.0 39180.0 78182.0 72146.0 125027.0 118751.0 220021.0 213743.0 54674.0 58263.0 191976.0 184893.0 149306.0 142095.0 66797.0 59008.0 42980.0 49718.0 51035.0 58711.0 111381.0 117334.0 55025.0 49564.0 98892.0 100245.0 71145.0 76570.0 225444.0 217279.0 173430.0 180983.0 149145.0 150348.0 133815.0 126642.0 165658.0 157953.0 143141.0 136788.0 84008.0 91998.0 111712.0 112764.0 127889.0 132988.0 140215.0 115283.0 140215.0 140215.0 140215.0 140215.0 115283.0 115283.0 115283.0 115283.0
129433.0 137439.0 206168.0 198516.0 146517.0 139090.0 211263.0 203945.0 185994.0 179003.0 24044.0 32296.0 107547.0 99596.0 0.0 8078.0 62433.0 55986.0 146585.0 151249.0 63979.0 56086.0 73055.0 79695.0 122852.0 123807.0 88356.0 96377.0 207529.0 200706.0 131257.0 124087.0 217522.0 221117.0 99787.0 100443.0 169690.0 162123.0 189920.0 181994.0 122787.0 115945.0 135224.0 132921.0 92381.0 85358.0 238115.0 231987.0 164528.0 157038.0 96495.0 102302.0 148473.0 156471.0 57329.0 55609.0 135791.0 135495.0 22372.0 14598.0 170144.0 176003.0 132704.0 124431.0 253949.0 261820.0 208913.0 206530.0 221145.0 215400.0 66146.0 58488.0 241497.0 235558.0 183423.0 191398.0 146184.0 141601.0 195156.0 202327.0 192960.0 64459.0 192960.0 192960.0 192960.0 192960.0 64459.0 64459.0 64459.0 64459.0
131296.0 139286.0 209938.0 202177.0 150102.0 142832.0 214143.0 206731.0 191532.0 184420.0 23354.0 31757.0 108885.0 100741.0 8078.0 0.0 70226.0 63925.0 149583.0 154561.0 71136.0 63179.0 75201.0 82323.0 125871.0 126336.0 89222.0 97475.0 211862.0 205193.0 133497.0 126159.0 223369.0 226773.0 103326.0 104532.0 172770.0 165336.0 185915.0 177946.0 124575.0 117480.0 133399.0 130635.0 91854.0 84499.0 241853.0 235566.0 164562.0 157199.0 100906.0 107065.0 150466.0 158422.0 65403.0 63584.0 139568.0 138822.0 30444.0 22661.0 170590.0 176708.0 135981.0 127743.0 258627.0 266493.0 214895.0 212656.0 225001.0 219063.0 65290.0 57541.0 243415.0 237296.0 184096.0 192041.0 140702.0 135863.0 200584.0 207660.0 199086.0 72531.0 199086.0 199086.0 199086.0 199086.0 72531.0 72531.0 72531.0 72531.0
114508.0 121602.0 169806.0 163347.0 115445.0 107457.0 181653.0 175410.0 136643.0 130833.0 66278.0 67658.0 100412.0 95639.0 62433.0 70226.0 0.0 8150.0 120371.0 121991.0 14452.0 16043.0 69796.0 70055.0 99423.0 104298.0 89304.0 93535.0 166728.0 158962.0 113043.0 108265.0 165374.0 170024.0 76335.0 71927.0 140828.0 132752.0 214328.0 207104.0 142747.0 138407.0 147478.0 148731.0 129756.0 125257.0 200885.0 196164.0 160115.0 152305.0 65968.0 67101.0 130228.0 137782.0 19441.0 27343.0 104225.0 107774.0 41056.0 49018.0 162105.0 165515.0 141915.0 133747.0 209277.0 217027.0 156255.0 153604.0 183552.0 179507.0 108925.0 103054.0 218164.0 213831.0 172662.0 180350.0 183724.0 181247.0 146352.0 154031.0 140034.0 20556.0 140034.0 140034.0 140034.0 140034.0 20556.0 20556.0 20556.0 20556.0
119295.0 126579.0 177095.0 170522.0 122010.0 114011.0 188411.0 182050.0 144680.0 138810.0 62168.0 64468.0 104026.0 98749.0 55986.0 63925.0 8150.0 0.0 126479.0 128424.0 20253.0 18629.0 71957.0 73125.0 104993.0 109482.0 91614.0 96452.0 174335.0 166617.0 118193.0 113073.0 173475.0 178124.0 81475.0 77605.0 147344.0 139270.0 215108.0 207755.0 135316.0 130822.0 149357.0 150172.0 121650.0 117117.0 208307.0 203472.0 164133.0 156299.0 71752.0 73501.0 135563.0 143230.0 13099.0 20470.0 110743.0 113923.0 34066.0 42107.0 166554.0 170262.0 134956.0 126789.0 217172.0 224935.0 164355.0 161704.0 190967.0 186784.0 100782.0 94937.0 224458.0 219960.0 177484.0 185246.0 182506.0 179704.0 154378.0 162043.0 148135.0 16669.0 148135.0 148135.0 148135.0 148135.0 16669.0 16669.0 16669.0 16669.0
27083.0 23497.0 62762.0 54526.0 11794.0 16286.0 64694.0 57477.0 74447.0 66942.0 127620.0 120188.0 48172.0 55988.0 146585.0 149583.0 120371.0 126479.0 0.0 7986.0 106297.0 109014.0 74918.0 67328.0 23735.0 24509.0 67028.0 58906.0 69765.0 65686.0 20970.0 28256.0 105620.0 104275.0 47404.0 49230.0 23219.0 16283.0 150327.0 146283.0 259475.0 254097.0 85566.0 92926.0 237256.0 230852.0 93857.0 86950.0 60629.0 55412.0 54851.0 53399.0 19520.0 22811.0 139437.0 146937.0 18400.0 12612.0 139474.0 143221.0 56022.0 54996.0 260920.0 252753.0 117641.0 125126.0 102072.0 105235.0 77971.0 71035.0 211928.0 204479.0 98071.0 93486.0 60450.0 66703.0 155653.0 158606.0 78528.0 82053.0 100394.0 140747.0 100394.0 100394.0 100394.0 100394.0 140747.0 140747.0 140747.0 140747.0
34992.0 31434.0 56291.0 48182.0 7257.0 14765.0 60719.0 53908.0 66734.0 59327.0 132962.0 125722.0 55480.0 63084.0 151249.0 154561.0 121991.0 128424.0 7986.0 0.0 108174.0 111416.0 80503.0 72649.0 29071.0 31342.0 73842.0 65902.0 62338.0 57981.0 28749.0 35795.0 97684.0 96293.0 51514.0 52221.0 19016.0 11034.0 157655.0 153749.0 262346.0 257138.0 93448.0 100853.0 241234.0 234975.0 87811.0 81178.0 66892.0 62134.0 57471.0 54930.0 26386.0 28049.0 141249.0 148888.0 17838.0 15754.0 143151.0 147241.0 61485.0 59600.0 263225.0 255057.0 110349.0 117900.0 94257.0 97560.0 71534.0 64933.0 216166.0 208789.0 96223.0 92205.0 64452.0 70131.0 163633.0 166591.0 70619.0 74076.0 93350.0 142168.0 93350.0 93350.0 93350.0 93350.0 142168.0 142168.0 142168.0 142168.0
100056.0 107153.0 157177.0 150500.0 101758.0 93759.0 168180.0 161801.0 126882.0 120644.0 62399.0 61999.0 86251.0 81746.0 63979.0 71136.0 14452.0 20253.0 106297.0 108174.0 0.0 8000.0 56746.0 56292.0 85079.0 89866.0 75984.0 79765.0 154887.0 147277.0 98609.0 93813.0 156639.0 161042.0 61892.0 57607.0 127091.0 119017.0 202012.0 194925.0 155254.0 150577.0 134308.0 135924.0 139615.0 134584.0 188532.0 183563.0 145769.0 137969.0 51688.0 53248.0 115828.0 123411.0 33140.0 40714.0 90490.0 93725.0 45165.0 52424.0 147675.0 151063.0 155182.0 147014.0 198496.0 206302.0 147536.0 144895.0 171191.0 166848.0 117369.0 110986.0 204234.0 199783.0 158210.0 165900.0 173765.0 171739.0 136469.0 144028.0 131325.0 34986.0 131325.0 131325.0 131325.0 131325.0 34986.0 34986.0 34986.0 34986.0
100814.0 108173.0 161807.0 154927.0 105246.0 97264.0 171829.0 165262.0 133415.0 126994.0 54637.0 54598.0 85421.0 80259.0 56086.0 63179.0 16043.0 18629.0 109014.0 111416.0 8000.0 0.0 53912.0 54624.0 87018.0 91210.0 73495.0 78030.0 160182.0 152698.0 99887.0 94605.0 163618.0 167844.0 63244.0 59852.0 130416.0 122367.0 198286.0 191069.0 151100.0 146140.0 131558.0 132722.0 133717.0 128441.0 193368.0 188182.0 145505.0 137670.0 54165.0 56792.0 117351.0 125088.0 31610.0 38453.0 93948.0 96551.0 37848.0 44864.0 147961.0 151741.0 151909.0 143742.0 204418.0 212247.0 154622.0 151979.0 176043.0 171436.0 110896.0 104336.0 207086.0 202386.0 158985.0 166772.0 168274.0 165996.0 142929.0 150421.0 138409.0 35028.0 138409.0 138409.0 138409.0 138409.0 35028.0 35028.0 35028.0 35028.0
56394.0 64399.0 136650.0 128633.0 76874.0 70312.0 139158.0 131675.0 128055.0 120238.0 52769.0 45272.0 35332.0 28258.0 73055.0 75201.0 69796.0 71957.0 74918.0 80503.0 56746.0 53912.0 0.0 8419.0 51451.0 51208.0 19666.0 25437.0 140561.0 134672.0 58306.0 51045.0 161493.0 163194.0 31769.0 36378.0 98130.0 90974.0 145476.0 138517.0 192061.0 185893.0 77684.0 79183.0 165203.0 158336.0 168306.0 161655.0 95054.0 87265.0 36012.0 44036.0 75421.0 83416.0 84213.0 89776.0 67276.0 64992.0 70737.0 72439.0 99237.0 104369.0 197202.0 189030.0 188391.0 196167.0 154516.0 154256.0 151868.0 145429.0 139159.0 131528.0 168445.0 162516.0 111805.0 119791.0 121861.0 121126.0 135934.0 142105.0 141771.0 88619.0 141771.0 141771.0 141771.0 141771.0 88619.0 88619.0 88619.0 88619.0
50419.0 58372.0 128659.0 120691.0 68795.0 62097.0 131821.0 124412.0 119697.0 111867.0 60333.0 53101.0 31293.0 25634.0 79695.0 82323.0 70055.0 73125.0 67328.0 72649.0 56292.0 54624.0 8419.0 0.0 43692.0 44114.0 20491.0 23487.0 132306.0 126355.0 51667.0 44738.0 153155.0 154807.0 23352.0 28122.0 90543.0 83248.0 147620.0 140900.0 197059.0 191071.0 78487.0 80832.0 171423.0 164704.0 160391.0 153827.0 91652.0 83812.0 28216.0 36262.0 69095.0 77116.0 85801.0 91875.0 59023.0 57035.0 75568.0 77966.0 95076.0 99736.0 201291.0 193120.0 180086.0 187870.0 146242.0 146077.0 143859.0 137521.0 145595.0 138022.0 162018.0 156283.0 107141.0 115095.0 127005.0 126678.0 127539.0 133693.0 133739.0 89649.0 133739.0 133739.0 133739.0 133739.0 89649.0 89649.0 89649.0 89649.0
20035.0 24384.0 85322.0 77244.0 26131.0 21125.0 88416.0 81149.0 85830.0 77854.0 104023.0 96700.0 29823.0 36119.0 122852.0 125871.0 99423.0 104993.0 23735.0 29071.0 85079.0 87018.0 51451.0 43692.0 0.0 8078.0 45831.0 38517.0 90319.0 85119.0 15340.0 15440.0 118925.0 118992.0 24149.0 27504.0 46900.0 39558.0 147605.0 142504.0 236611.0 231089.0 78364.0 84495.0 213669.0 207213.0 116880.0 110203.0 67206.0 60182.0 33509.0 34374.0 31028.0 38386.0 118066.0 125334.0 19002.0 13899.0 116101.0 119655.0 66134.0 67886.0 238665.0 230498.0 138410.0 146077.0 113718.0 115407.0 100560.0 94003.0 188258.0 180791.0 120712.0 115646.0 74610.0 81948.0 144157.0 146104.0 91954.0 96909.0 106667.0 119965.0 106667.0 106667.0 106667.0 106667.0 119965.0 119965.0 119965.0 119965.0
12156.0 17608.0 87260.0 79032.0 30176.0 26855.0 87977.0 80471.0 92160.0 84234.0 103961.0 96325.0 24423.0 31765.0 123807.0 126336.0 104298.0 109482.0 24509.0 31342.0 89866.0 91210.0 51208.0 44114.0 8078.0 0.0 42557.0 34560.0 93622.0 88954.0 8753.0 7401.0 124940.0 124628.0 28009.0 32950.0 47387.0 40788.0 139577.0 134523.0 239560.0 233856.0 70543.0 76834.0 215344.0 208712.0 118330.0 111347.0 59789.0 52598.0 39000.0 41004.0 26175.0 34033.0 122581.0 129655.0 25389.0 18403.0 118472.0 121545.0 59338.0 61684.0 242285.0 234117.0 141673.0 149237.0 120110.0 122112.0 102476.0 95528.0 189640.0 182091.0 118212.0 112743.0 68636.0 76187.0 137154.0 139326.0 97835.0 102427.0 113965.0 124850.0 113965.0 113965.0 113965.0 113965.0 124850.0 124850.0 124850.0 124850.0
43732.0 51451.0 129788.0 121542.0 71871.0 66766.0 128875.0 121168.0 129597.0 121610.0 65938.0 57677.0 20287.0 11854.0 88356.0 89222.0 89304.0 91614.0 67028.0 73842.0 75984.0 73495.0 19666.0 20491.0 45831.0 42557.0 0.0 8574.0 135936.0 130918.0 47496.0 39722.0 163085.0 163800.0 35100.0 42357.0 89555.0 83278.0 127135.0 120410.0 209498.0 203099.0 58337.0 60387.0 180687.0 173532.0 160670.0 153540.0 76816.0 69146.0 44732.0 52341.0 62874.0 70564.0 103874.0 109372.0 64263.0 59634.0 88864.0 89719.0 81874.0 87648.0 215666.0 207462.0 184032.0 191645.0 157049.0 157785.0 144989.0 137937.0 154293.0 146572.0 154942.0 148543.0 95067.0 103043.0 108221.0 108482.0 136533.0 141969.0 146755.0 108273.0 146755.0 146755.0 146755.0 146755.0 108273.0 108273.0 108273.0 108273.0
35171.0 42877.0 121626.0 113359.0 64302.0 59621.0 120347.0 112632.0 123410.0 115410.0 74249.0 66043.0 11714.0 3298.0 96377.0 97475.0 93535.0 96452.0 58906.0 65902.0 79765.0 78030.0 25437.0 23487.0 38517.0 34560.0 8574.0 0.0 128153.0 123327.0 39072.0 31295.0 156791.0 157215.0 31671.0 39449.0 81236.0 75106.0 125789.0 119384.0 216959.0 210655.0 55740.0 58907.0 188753.0 181657.0 152364.0 145184.0 69676.0 61912.0 42858.0 49893.0 54301.0 61993.0 109003.0 114849.0 57301.0 52121.0 95921.0 97168.0 74211.0 79725.0 222552.0 214377.0 176220.0 183794.0 151065.0 152125.0 136801.0 129673.0 162421.0 154713.0 146438.0 140082.0 87159.0 95147.0 110904.0 111736.0 130032.0 135240.0 141709.0 113029.0 141709.0 141709.0 141709.0 141709.0 113029.0 113029.0 113029.0 113029.0
96470.0 91239.0 16906.0 21742.0 64192.0 70265.0 42605.0 44525.0 43029.0 43208.0 191646.0 185023.0 117815.0 125387.0 207529.0 211862.0 166728.0 174335.0 69765.0 62338.0 154887.0 160182.0 140561.0 132306.0 90319.0 93622.0 135936.0 128153.0 0.0 8219.0 90674.0 98014.0 53254.0 47503.0 109413.0 107363.0 50743.0 54388.0 206078.0 203756.0 309425.0 305129.0 150091.0 158089.0 293735.0 288164.0 35806.0 33803.0 112466.0 111144.0 111038.0 105472.0 82150.0 78285.0 185951.0 193940.0 73287.0 76422.0 195931.0 201255.0 103295.0 97098.0 308229.0 300062.0 48100.0 55760.0 56298.0 63462.0 19971.0 21723.0 270021.0 263018.0 80265.0 81840.0 97360.0 98214.0 221697.0 225450.0 36698.0 32446.0 76270.0 185857.0 76270.0 76270.0 76270.0 76270.0 185857.0 185857.0 185857.0 185857.0
92689.0 87964.0 21829.0 24033.0 59052.0 64597.0 47523.0 48268.0 35505.0 35168.0 185279.0 178808.0 113316.0 120662.0 200706.0 205193.0 158962.0 166617.0 65686.0 57981.0 147277.0 152698.0 134672.0 126355.0 85119.0 88954.0 130918.0 123327.0 8219.0 0.0 86654.0 93774.0 49712.0 44958.0 103268.0 100840.0 48568.0 51082.0 205945.0 203316.0 301606.0 297368.0 148015.0 155896.0 286341.0 280845.0 44024.0 41838.0 112106.0 110220.0 104291.0 98479.0 79535.0 76392.0 178139.0 186131.0 67484.0 71284.0 188700.0 194147.0 103325.0 97585.0 300405.0 292238.0 53744.0 61555.0 51447.0 58165.0 27970.0 28631.0 262793.0 255840.0 86600.0 87647.0 98469.0 99972.0 219422.0 222931.0 30063.0 27031.0 68795.0 178033.0 68795.0 68795.0 68795.0 68795.0 178033.0 178033.0 178033.0 178033.0
6654.0 9070.0 82931.0 74630.0 29667.0 28676.0 81559.0 73917.0 93263.0 85480.0 110848.0 103032.0 27787.0 35967.0 131257.0 133497.0 113043.0 118193.0 20970.0 28749.0 98609.0 99887.0 58306.0 51667.0 15340.0 8753.0 47496.0 39072.0 90674.0 86654.0 0.0 7778.0 125360.0 124471.0 36734.0 41660.0 42258.0 36590.0 134772.0 130070.0 247850.0 242080.0 67156.0 74013.0 223087.0 216367.0 113359.0 106129.0 51901.0 44976.0 47714.0 49435.0 17672.0 25644.0 131292.0 138338.0 28204.0 19890.0 126607.0 129471.0 50883.0 52996.0 250796.0 242629.0 138442.0 145873.0 121168.0 123714.0 98023.0 90743.0 197246.0 189658.0 110354.0 104691.0 59909.0 67441.0 135812.0 138453.0 98186.0 102210.0 116844.0 133594.0 116844.0 116844.0 116844.0 116844.0 133594.0 133594.0 133594.0 133594.0
6245.0 13770.0 90597.0 82303.0 35804.0 33460.0 89269.0 81606.0 98720.0 90839.0 103398.0 95518.0 20068.0 28197.0 124087.0 126159.0 108265.0 113073.0 28256.0 35795.0 93813.0 94605.0 51045.0 44738.0 15440.0 7401.0 39722.0 31295.0 98014.0 93774.0 7778.0 0.0 131247.0 130672.0 32145.0 38101.0 50000.0 44166.0 132179.0 127123.0 241473.0 235604.0 63205.0 69591.0 216094.0 209306.0 121115.0 113900.0 53735.0 46323.0 44048.0 46939.0 24395.0 32408.0 126154.0 133029.0 32309.0 24737.0 120073.0 122693.0 54158.0 57250.0 244858.0 236634.0 145889.0 153358.0 126675.0 128876.0 105716.0 98477.0 190153.0 182541.0 117412.0 111571.0 64423.0 72174.0 130350.0 132693.0 104091.0 108426.0 121091.0 128765.0 121091.0 121091.0 121091.0 121091.0 128765.0 128765.0 128765.0 128765.0
131944.0 129113.0 70138.0 73694.0 95694.0 98112.0 95830.0 97592.0 33542.0 41497.0 206650.0 201594.0 148742.0 154728.0 217522.0 223369.0 165374.0 173475.0 105620.0 97684.0 156639.0 163618.0 161493.0 153155.0 118925.0 124940.0 163085.0 156791.0 53254.0 49712.0 125360.0 131247.0 0.0 8263.0 130180.0 125150.0 94463.0 94450.0 252954.0 249766.0 307383.0 303221.0 191098.0 198537.0 295123.0 290535.0 77672.0 80247.0 159351.0 156517.0 126453.0 118916.0 122905.0 121540.0 183940.0 191931.0 99931.0 106597.0 201439.0 208149.0 151229.0 146093.0 306182.0 298014.0 57925.0 63724.0 10047.0 17005.0 68903.0 73830.0 273769.0 267556.0 131762.0 134217.0 147551.0 149460.0 261123.0 263806.0 27175.0 24291.0 46895.0 183810.0 46895.0 46895.0 46895.0 46895.0 183810.0 183810.0 183810.0 183810.0
130978.0 127682.0 64386.0 68604.0 94904.0 97963.0 89793.0 92028.0 35431.0 43027.0 209489.0 204179.0 148718.0 155019.0 221117.0 226773.0 170024.0 178124.0 104275.0 96293.0 161042.0 167844.0 163194.0 154807.0 118992.0 124628.0 163800.0 157215.0 47503.0 44958.0 124471.0 130672.0 8263.0 0.0 131631.0 126997.0 91512.0 92178.0 249968.0 247009.0 312033.0 307870.0 189390.0 196971.0 299761.0 295192.0 69918.0 72822.0 156170.0 153699.0 128671.0 121331.0 120867.0 118988.0 188589.0 196581.0 100011.0 106226.0 205581.0 212133.0 147744.0 142293.0 310831.0 302664.0 49766.0 55721.0 17479.0 25009.0 61955.0 67344.0 278356.0 272027.0 124766.0 127495.0 143385.0 144919.0 259925.0 262837.0 27323.0 22261.0 53539.0 188460.0 53539.0 53539.0 53539.0 53539.0 188460.0 188460.0 188460.0 188460.0
38378.0 45279.0 106632.0 98851.0 46780.0 39567.0 111946.0 104840.0 96663.0 88779.0 82350.0 75611.0 30708.0 31289.0 99787.0 103326.0 76335.0 81475.0 47404.0 51514.0 61892.0 63244.0 31769.0 23352.0 24149.0 28009.0 35100.0 31671.0 109413.0 103268.0 36734.0 32145.0 130180.0 131631.0 0.0 7938.0 70180.0 62459.0 155306.0 149308.0 212462.0 206946.0 84642.0 88999.0 189892.0 183548.0 138531.0 132259.0 85360.0 77731.0 12758.0 18511.0 54111.0 61851.0 94573.0 101673.0 36352.0 35783.0 92079.0 95857.0 86290.0 89291.0 214629.0 206462.0 157012.0 164820.0 123525.0 123722.0 121732.0 115738.0 164689.0 157292.0 144860.0 139776.0 96378.0 104030.0 142523.0 143183.0 104332.0 110399.0 112043.0 96878.0 112043.0 112043.0 112043.0 112043.0 96878.0 96878.0 96878.0 96878.0
44218.0 50547.0 105802.0 98270.0 46665.0 38938.0 112939.0 106084.0 91759.0 83989.0 84484.0 78254.0 38573.0 39180.0 100443.0 104532.0 71927.0 77605.0 49230.0 52221.0 57607.0 59852.0 36378.0 28122.0 27504.0 32950.0 42357.0 39449.0 107363.0 100840.0 41660.0 38101.0 125150.0 126997.0 7938.0 0.0 71201.0 63254.0 163200.0 157226.0 210302.0 205002.0 92534.0 96933.0 189225.0 183098.0 137752.0 131792.0 91768.0 84250.0 6057.0 10574.0 58432.0 65885.0 90654.0 98001.0 35595.0 36902.0 91022.0 95386.0 92112.0 94635.0 211725.0 203558.0 154477.0 162323.0 118140.0 117962.0 120722.0 115126.0 164432.0 157158.0 147280.0 142534.0 101567.0 109069.0 150178.0 150716.0 99807.0 106171.0 105770.0 92464.0 105770.0 105770.0 105770.0 105770.0 92464.0 92464.0 92464.0 92464.0
47232.0 41117.0 40899.0 32592.0 25396.0 33373.0 41794.0 34895.0 67413.0 61228.0 150839.0 143395.0 70046.0 78182.0 169690.0 172770.0 140828.0 147344.0 23219.0 19016.0 127091.0 130416.0 98130.0 90543.0 46900.0 47387.0 89555.0 81236.0 50743.0 48568.0 42258.0 50000.0 94463.0 91512.0 70180.0 71201.0 0.0 8076.0 158525.0 155498.0 281361.0 276150.0 99509.0 107446.0 260046.0 253728.0 71128.0 64004.0 64906.0 62188.0 76485.0 73845.0 31447.0 27827.0 160129.0 167800.0 36609.0 34458.0 162046.0 166022.0 57130.0 52863.0 282191.0 274024.0 97337.0 104544.0 92975.0 97654.0 55853.0 48486.0 234863.0 227449.0 77634.0 74024.0 55825.0 59831.0 171032.0 174718.0 68676.0 70174.0 97835.0 160920.0 97835.0 97835.0 97835.0 97835.0 160920.0 160920.0 160920.0 160920.0
42146.0 36923.0 46520.0 38263.0 17331.0 25299.0 49685.0 42908.0 65533.0 58771.0 143580.0 136240.0 64206.0 72146.0 162123.0 165336.0 132752.0 139270.0 16283.0 11034.0 119017.0 122367.0 90974.0 83248.0 39558.0 40788.0 83278.0 75106.0 54388.0 51082.0 36590.0 44166.0 94450.0 92178.0 62459.0 63254.0 8076.0 0.0 158814.0 155408.0 273340.0 268151.0 97425.0 105166.0 252244.0 245968.0 77586.0 70733.0 66009.0 62387.0 68484.0 65773.0 28764.0 27229.0 152054.0 159725.0 28533.0 26678.0 154178.0 158240.0 59170.0 55891.0 274125.0 265957.0 101913.0 109306.0 92111.0 96226.0 61711.0 54754.0 227140.0 219751.0 85657.0 81929.0 59714.0 64484.0 168547.0 171922.0 67932.0 70311.0 94554.0 152851.0 94554.0 94554.0 94554.0 94554.0 152851.0 152851.0 152851.0 152851.0
128476.0 128004.0 191373.0 184577.0 161836.0 163013.0 172667.0 166607.0 224045.0 216867.0 166961.0 159896.0 124636.0 125027.0 189920.0 185915.0 214328.0 215108.0 150327.0 157655.0 202012.0 198286.0 145476.0 147620.0 147605.0 139577.0 127135.0 125789.0 206078.0 205945.0 134772.0 132179.0 252954.0 249968.0 155306.0 163200.0 158525.0 158814.0 0.0 8030.0 308253.0 300679.0 70666.0 66908.0 269474.0 261421.0 210098.0 202096.0 93853.0 96468.0 167670.0 173719.0 131316.0 131587.0 226040.0 229985.0 162910.0 154439.0 201516.0 198652.0 102784.0 109242.0 321777.0 313569.0 245843.0 251443.0 250925.0 254870.0 202290.0 194042.0 244111.0 236938.0 167153.0 159137.0 110261.0 111952.0 57995.0 65788.0 226727.0 228677.0 250648.0 231534.0 250648.0 250648.0 250648.0 250648.0 231534.0 231534.0 231534.0 231534.0
123674.0 123621.0 189388.0 182400.0 157664.0 158507.0 171476.0 165192.0 220348.0 213059.0 159095.0 152081.0 118722.0 118751.0 181994.0 177946.0 207104.0 207755.0 146283.0 153749.0 194925.0 191069.0 138517.0 140900.0 142504.0 134523.0 120410.0 119384.0 203756.0 203316.0 130070.0 127123.0 249766.0 247009.0 149308.0 157226.0 155498.0 155408.0 8030.0 0.0 300225.0 292649.0 64820.0 60494.0 261454.0 253402.0 209122.0 201074.0 91295.0 93311.0 161561.0 167774.0 127520.0 128236.0 218583.0 222439.0 158267.0 149854.0 193757.0 190820.0 100609.0 107421.0 313786.0 305581.0 244439.0 250213.0 247450.0 251195.0 200722.0 192436.0 236082.0 228908.0 167893.0 159822.0 108970.0 111219.0 50890.0 58706.0 223332.0 225526.0 246410.0 224138.0 246410.0 246410.0 246410.0 246410.0 224138.0 224138.0 224138.0 224138.0
247353.0 255225.0 312399.0 305754.0 256302.0 248333.0 322895.0 316247.0 278678.0 272944.0 146791.0 155084.0 227392.0 220021.0 122787.0 124575.0 142747.0 135316.0 259475.0 262346.0 155254.0 151100.0 192061.0 197059.0 236611.0 239560.0 209498.0 216959.0 309425.0 301606.0 247850.0 241473.0 307383.0 312033.0 212462.0 210302.0 281361.0 273340.0 308253.0 300225.0 0.0 7962.0 257872.0 255209.0 44034.0 51331.0 343610.0 338780.0 286290.0 278643.0 204887.0 207892.0 265516.0 273492.0 123475.0 115486.0 245007.0 247203.0 121493.0 119799.0 291165.0 296430.0 27211.0 24960.0 351501.0 359230.0 298264.0 295613.0 326272.0 322081.0 65112.0 71733.0 357318.0 352187.0 303867.0 311852.0 258008.0 251882.0 288399.0 296091.0 282043.0 124850.0 282043.0 282043.0 282043.0 282043.0 124850.0 124850.0 124850.0 124850.0
241436.0 249337.0 307747.0 300998.0 251191.0 243242.0 317770.0 311045.0 274516.0 268782.0 139894.0 148226.0 221205.0 213743.0 115945.0 117480.0 138407.0 130822.0 254097.0 257138.0 150577.0 146140.0 185893.0 191071.0 231089.0 233856.0 203099.0 210655.0 305129.0 297368.0 242080.0 235604.0 303221.0 307870.0 206946.0 205002.0 276150.0 268151.0 300679.0 292649.0 7962.0 0.0 250857.0 248082.0 36180.0 43397.0 339089.0 334134.0 279838.0 272221.0 199668.0 202895.0 259730.0 267722.0 119291.0 111298.0 239906.0 241897.0 115534.0 113502.0 284864.0 290235.0 33350.0 29523.0 347339.0 355067.0 294102.0 291451.0 321747.0 317411.0 57260.0 63976.0 351794.0 346561.0 297674.0 305664.0 250221.0 244064.0 284237.0 291929.0 277881.0 121060.0 277881.0 277881.0 277881.0 277881.0 121060.0 121060.0 121060.0 121060.0
60543.0 62098.0 138092.0 130214.0 96188.0 95827.0 126033.0 118611.0 159889.0 152247.0 111180.0 103016.0 53972.0 54674.0 135224.0 133399.0 147478.0 149357.0 85566.0 93448.0 134308.0 131558.0 77684.0 78487.0 78364.0 70543.0 58337.0 55740.0 150091.0 148015.0 67156.0 63205.0 191098.0 189390.0 84642.0 92534.0 99509.0 97425.0 70666.0 64820.0 257872.0 250857.0 0.0 8254.0 223938.0 216185.0 163403.0 155354.0 45826.0 42537.0 97042.0 103055.0 68664.0 71807.0 161224.0 166174.0 95163.0 87022.0 141696.0 140643.0 55882.0 64053.0 267337.0 259057.0 195082.0 201772.0 187618.0 190563.0 151556.0 143333.0 197394.0 189722.0 136713.0 128888.0 69414.0 75601.0 71667.0 75852.0 164066.0 167297.0 183973.0 166018.0 183973.0 183973.0 183973.0 183973.0 166018.0 166018.0 166018.0 166018.0
67365.0 69430.0 146229.0 138323.0 103324.0 102607.0 134287.0 126864.0 167072.0 159371.0 108932.0 100950.0 58631.0 58263.0 132921.0 130635.0 148731.0 150172.0 92926.0 100853.0 135924.0 132722.0 79183.0 80832.0 84495.0 76834.0 60387.0 58907.0 158089.0 155896.0 74013.0 69591.0 198537.0 196971.0 88999.0 96933.0 107446.0 105166.0 66908.0 60494.0 255209.0 248082.0 8254.0 0.0 220394.0 212570.0 171649.0 163602.0 53849.0 50760.0 101134.0 107502.0 76435.0 79814.0 161729.0 166356.0 101784.0 93789.0 140639.0 139125.0 63977.0 72151.0 265445.0 257163.0 203238.0 209953.0 194874.0 197661.0 159749.0 151535.0 193941.0 186319.0 144611.0 136748.0 77373.0 83392.0 63611.0 67661.0 171454.0 174832.0 190633.0 166783.0 190633.0 190633.0 190633.0 190633.0 166783.0 166783.0 166783.0 166783.0
221579.0 229580.0 294447.0 287195.0 235889.0 228136.0 301830.0 294724.0 266234.0 260183.0 115168.0 123593.0 199917.0 191976.0 92381.0 91854.0 129756.0 121650.0 237256.0 241234.0 139615.0 133717.0 165203.0 171423.0 213669.0 215344.0 180687.0 188753.0 293735.0 286341.0 223087.0 216094.0 295123.0 299761.0 189892.0 189225.0 260046.0 252244.0 269474.0 261454.0 44034.0 36180.0 223938.0 220394.0 0.0 8065.0 326272.0 320687.0 256414.0 249036.0 184448.0 188882.0 240484.0 248501.0 112405.0 104859.0 224785.0 225596.0 98267.0 94037.0 262346.0 268324.0 67941.0 62160.0 338077.0 345893.0 286003.0 283353.0 309022.0 303947.0 26625.0 34366.0 333441.0 327663.0 275735.0 283700.0 217274.0 210824.0 275894.0 283514.0 269783.0 116178.0 269783.0 269783.0 269783.0 269783.0 116178.0 116178.0 116178.0 116178.0
214730.0 222735.0 288547.0 281219.0 229740.0 222033.0 295489.0 288329.0 261405.0 255227.0 107846.0 116256.0 192891.0 184893.0 85358.0 84499.0 125257.0 117117.0 230852.0 234975.0 134584.0 128441.0 158336.0 164704.0 207213.0 208712.0 173532.0 181657.0 288164.0 280845.0 216367.0 209306.0 290535.0 295192.0 183548.0 183098.0 253728.0 245968.0 261421.0 253402.0 51331.0 43397.0 216185.0 212570.0 8065.0 0.0 320418.0 314733.0 249036.0 241693.0 178430.0 183062.0 233700.0 241711.0 108441.0 101088.0 218687.0 219299.0 92352.0 87741.0 255079.0 261133.0 74217.0 67989.0 332856.0 340687.0 281416.0 278765.0 303203.0 298009.0 19238.0 26969.0 326701.0 320848.0 268533.0 276490.0 209220.0 202780.0 271026.0 278605.0 265195.0 112592.0 265195.0 265195.0 265195.0 265195.0 112592.0 112592.0 112592.0 112592.0
118067.0 111358.0 31951.0 39712.0 91778.0 99042.0 37892.0 44915.0 77541.0 78702.0 220627.0 213490.0 141138.0 149306.0 238115.0 241853.0 200885.0 208307.0 93857.0 87811.0 188532.0 193368.0 168306.0 160391.0 116880.0 118330.0 160670.0 152364.0 35806.0 44024.0 113359.0 121115.0 77672.0 69918.0 138531.0 137752.0 71128.0 77586.0 210098.0 209122.0 343610.0 339089.0 163403.0 171649.0 326272.0 320418.0 0.0 8114.0 120411.0 121425.0 142100.0 137390.0 100564.0 94490.0 220238.0 228202.0 102329.0 103357.0 228072.0 232922.0 110214.0 102584.0 342581.0 334414.0 37569.0 41865.0 83978.0 91881.0 17342.0 22878.0 301956.0 294772.0 58112.0 62810.0 100209.0 98168.0 234414.0 239118.0 69757.0 63619.0 110171.0 220209.0 110171.0 110171.0 110171.0 110171.0 220209.0 220209.0 220209.0 220209.0
110686.0 103853.0 26387.0 33525.0 85483.0 92925.0 29781.0 36819.0 76652.0 76989.0 214131.0 206895.0 133875.0 142095.0 231987.0 235566.0 196164.0 203472.0 86950.0 81178.0 183563.0 188182.0 161655.0 153827.0 110203.0 111347.0 153540.0 145184.0 33803.0 41838.0 106129.0 113900.0 80247.0 72822.0 132259.0 131792.0 64004.0 70733.0 202096.0 201074.0 338780.0 334134.0 155354.0 163602.0 320687.0 314733.0 8114.0 0.0 112298.0 113335.0 136309.0 131880.0 92954.0 86737.0 215565.0 223504.0 96244.0 96835.0 222431.0 227118.0 102100.0 94474.0 337949.0 329782.0 44850.0 49598.0 85778.0 93542.0 13869.0 16755.0 296174.0 288935.0 52806.0 56811.0 92140.0 90195.0 226323.0 231046.0 69569.0 64061.0 109736.0 215591.0 109736.0 109736.0 109736.0 109736.0 215591.0 215591.0 215591.0 215591.0
47795.0 42994.0 98345.0 91183.0 72405.0 75787.0 82549.0 75586.0 131534.0 124747.0 141254.0 132825.0 60362.0 66797.0 164528.0 164562.0 160115.0 164133.0 60629.0 66892.0 145769.0 145505.0 95054.0 91652.0 67206.0 59789.0 76816.0 69676.0 112466.0 112106.0 51901.0 53735.0 159351.0 156170.0 85360.0 91768.0 64906.0 66009.0 93853.0 91295.0 286290.0 279838.0 45826.0 53849.0 256414.0 249036.0 120411.0 112298.0 0.0 7844.0 97648.0 100629.0 41194.0 39137.0 177042.0 183389.0 76756.0 68389.0 165562.0 166532.0 10336.0 18434.0 292227.0 284053.0 154244.0 160415.0 157774.0 162162.0 110358.0 102036.0 229846.0 222096.0 90959.0 83200.0 23636.0 30310.0 114505.0 119687.0 133487.0 135060.0 159981.0 180349.0 159981.0 159981.0 159981.0 159981.0 180349.0 180349.0 180349.0 180349.0
40507.0 36255.0 97753.0 90267.0 67199.0 70002.0 83791.0 76518.0 127802.0 120795.0 133868.0 125447.0 52521.0 59008.0 157038.0 157199.0 152305.0 156299.0 55412.0 62134.0 137969.0 137670.0 87265.0 83812.0 60182.0 52598.0 69146.0 61912.0 111144.0 110220.0 44976.0 46323.0 156517.0 153699.0 77731.0 84250.0 62188.0 62387.0 96468.0 93311.0 278643.0 272221.0 42537.0 50760.0 249036.0 241693.0 121425.0 113335.0 7844.0 0.0 90093.0 93262.0 35901.0 35164.0 169203.0 175545.0 70743.0 62269.0 157821.0 158864.0 14459.0 22276.0 284450.0 276282.0 154267.0 160673.0 154485.0 158571.0 110439.0 102136.0 222489.0 214740.0 95488.0 87919.0 28748.0 36135.0 112989.0 117775.0 130267.0 132254.0 155476.0 172526.0 155476.0 155476.0 155476.0 155476.0 172526.0 172526.0 172526.0 172526.0
50194.0 56590.0 110178.0 102791.0 51634.0 43768.0 118129.0 111379.0 93285.0 85658.0 81548.0 75717.0 43259.0 42980.0 96495.0 100906.0 65968.0 71752.0 54851.0 57471.0 51688.0 54165.0 36012.0 28216.0 33509.0 39000.0 44732.0 42858.0 111038.0 104291.0 47714.0 44048.0 126453.0 128671.0 12758.0 6057.0 76485.0 68484.0 167670.0 161561.0 204887.0 199668.0 97042.0 101134.0 184448.0 178430.0 142100.0 136309.0 97648.0 90093.0 0.0 8047.0 64470.0 71895.0 84777.0 92178.0 40415.0 42399.0 86183.0 90828.0 98115.0 100683.0 206073.0 197906.0 157750.0 165612.0 119100.0 118517.0 124973.0 119596.0 159876.0 152673.0 152921.0 148268.0 107622.0 115126.0 152935.0 153192.0 101654.0 108256.0 105814.0 86491.0 105814.0 105814.0 105814.0 105814.0 86491.0 86491.0 86491.0 86491.0
52838.0 58489.0 105586.0 98459.0 48541.0 40544.0 115072.0 108596.0 85906.0 78379.0 88388.0 82859.0 49083.0 49718.0 102302.0 107065.0 67101.0 73501.0 53399.0 54930.0 53248.0 56792.0 44036.0 36262.0 34374.0 41004.0 52341.0 49893.0 105472.0 98479.0 49435.0 46939.0 118916.0 121331.0 18511.0 10574.0 73845.0 65773.0 173719.0 167774.0 207892.0 202895.0 103055.0 107502.0 188882.0 183062.0 137390.0 131880.0 100629.0 93262.0 8047.0 0.0 65230.0 72248.0 86323.0 93961.0 37256.0 40787.0 90712.0 95814.0 100302.0 102257.0 208366.0 200199.0 151650.0 159520.0 111416.0 110686.0 120149.0 115128.0 164715.0 157633.0 151064.0 146767.0 108974.0 116264.0 160425.0 160819.0 94454.0 101205.0 97865.0 87390.0 97865.0 97865.0 97865.0 97865.0 87390.0 87390.0 87390.0 87390.0
19251.0 11428.0 71841.0 63613.0 31313.0 34713.0 66499.0 58714.0 92829.0 85565.0 127604.0 119637.0 42595.0 51035.0 148473.0 150466.0 130228.0 135563.0 19520.0 26386.0 115828.0 117351.0 75421.0 69095.0 31028.0 26175.0 62874.0 54301.0 82150.0 79535.0 17672.0 24395.0 122905.0 120867.0 54111.0 58432.0 31447.0 28764.0 131316.0 127520.0 265516.0 259730.0 68664.0 76435.0 240484.0 233700.0 100564.0 92954.0 41194.0 35901.0 64470.0 65230.0 0.0 8022.0 148659.0 155784.0 35949.0 27908.0 144239.0 147009.0 37321.0 37593.0 268437.0 260270.0 128651.0 135763.0 120064.0 123676.0 86395.0 78599.0 214547.0 206932.0 93024.0 87189.0 43941.0 51065.0 139897.0 143417.0 96106.0 98891.0 119700.0 150783.0 119700.0 119700.0 119700.0 119700.0 150783.0 150783.0 150783.0 150783.0
27139.0 19190.0 66820.0 58744.0 34175.0 38991.0 59507.0 51701.0 92662.0 85729.0 135522.0 127526.0 50279.0 58711.0 156471.0 158422.0 137782.0 143230.0 22811.0 28049.0 123411.0 125088.0 83416.0 77116.0 38386.0 34033.0 70564.0 61993.0 78285.0 76392.0 25644.0 32408.0 121540.0 118988.0 61851.0 65885.0 27827.0 27229.0 131587.0 128236.0 273492.0 267722.0 71807.0 79814.0 248501.0 241711.0 94490.0 86737.0 39137.0 35164.0 71895.0 72248.0 8022.0 0.0 156320.0 163497.0 40756.0 33369.0 152241.0 155029.0 33455.0 32207.0 276316.0 268149.0 123858.0 130796.0 119339.0 123413.0 80965.0 72978.0 222554.0 214936.0 85031.0 79169.0 37907.0 44575.0 143425.0 147287.0 95145.0 97325.0 120848.0 158330.0 120848.0 120848.0 120848.0 120848.0 158330.0 158330.0 158330.0 158330.0
132373.0 139672.0 189216.0 182781.0 134764.0 126769.0 201049.0 194766.0 155235.0 149501.0 68158.0 71795.0 116845.0 111381.0 57329.0 65403.0 19441.0 13099.0 139437.0 141249.0 33140.0 31610.0 84213.0 85801.0 118066.0 122581.0 103874.0 109003.0 185951.0 178139.0 131292.0 126154.0 183940.0 188589.0 94573.0 90654.0 160129.0 152054.0 226040.0 218583.0 123475.0 119291.0 161224.0 161729.0 112405.0 108441.0 220238.0 215565.0 177042.0 169203.0 84777.0 86323.0 148659.0 156320.0 0.0 7995.0 123521.0 126864.0 35058.0 42748.0 179571.0 183328.0 122474.0 114307.0 228058.0 235786.0 174821.0 172170.0 202911.0 198919.0 93181.0 87963.0 237358.0 232923.0 190558.0 198328.0 191472.0 188292.0 164956.0 172648.0 158600.0 7151.0 158600.0 158600.0 158600.0 158600.0 7151.0 7151.0 7151.0 7151.0
139227.0 146618.0 197149.0 190683.0 142455.0 134458.0 208813.0 202485.0 163227.0 157493.0 69096.0 73559.0 123076.0 117334.0 55609.0 63584.0 27343.0 20470.0 146937.0 148888.0 40714.0 38453.0 89776.0 91875.0 125334.0 129655.0 109372.0 114849.0 193940.0 186131.0 138338.0 133029.0 191931.0 196581.0 101673.0 98001.0 167800.0 159725.0 229985.0 222439.0 115486.0 111298.0 166174.0 166356.0 104859.0 101088.0 228202.0 223504.0 183389.0 175545.0 92178.0 93961.0 155784.0 163497.0 7995.0 0.0 131195.0 134387.0 34068.0 41104.0 186176.0 190104.0 114611.0 106444.0 236050.0 243778.0 182812.0 180161.0 210872.0 206850.0 86271.0 81340.0 244926.0 240415.0 197371.0 205178.0 193807.0 190342.0 172947.0 180639.0 166591.0 11757.0 166591.0 166591.0 166591.0 166591.0 11757.0 11757.0 11757.0 11757.0
34696.0 35229.0 70389.0 62739.0 11298.0 3353.0 77889.0 71344.0 66908.0 58950.0 118696.0 111874.0 48812.0 55025.0 135791.0 139568.0 104225.0 110743.0 18400.0 17838.0 90490.0 93948.0 67276.0 59023.0 19002.0 25389.0 64263.0 57301.0 73287.0 67484.0 28204.0 32309.0 99931.0 100011.0 36352.0 35595.0 36609.0 28533.0 162910.0 158267.0 245007.0 239906.0 95163.0 101784.0 224785.0 218687.0 102329.0 96244.0 76756.0 70743.0 40415.0 37256.0 35949.0 40756.0 123521.0 131195.0 0.0 8555.0 126545.0 130981.0 73253.0 72910.0 245622.0 237455.0 121150.0 128910.0 94831.0 96728.0 85432.0 79617.0 200027.0 192745.0 114049.0 110035.0 78626.0 85031.0 162541.0 164701.0 72953.0 77963.0 88850.0 124359.0 88850.0 88850.0 88850.0 88850.0 124359.0 124359.0 124359.0 124359.0
26479.0 26675.0 71658.0 63659.0 12245.0 8819.0 76251.0 69266.0 73984.0 66105.0 117302.0 110134.0 42669.0 49564.0 135495.0 138822.0 107774.0 113923.0 12612.0 15754.0 93725.0 96551.0 64992.0 57035.0 13899.0 18403.0 59634.0 52121.0 76422.0 71284.0 19890.0 24737.0 106597.0 106226.0 35783.0 36902.0 34458.0 26678.0 154439.0 149854.0 247203.0 241897.0 87022.0 93789.0 225596.0 219299.0 103357.0 96835.0 68389.0 62269.0 42399.0 40787.0 27908.0 33369.0 126864.0 134387.0 8555.0 0.0 127594.0 131579.0 65211.0 65269.0 248458.0 240291.0 124515.0 132179.0 101939.0 104184.0 86879.0 80487.0 200464.0 193073.0 110563.0 106065.0 71247.0 77920.0 155065.0 157428.0 79469.0 84025.0 96959.0 128140.0 96959.0 96959.0 96959.0 96959.0 128140.0 128140.0 128140.0 128140.0
125904.0 133804.0 196215.0 188932.0 137681.0 129897.0 203838.0 196841.0 170972.0 164385.0 36140.0 41956.0 106045.0 98892.0 22372.0 30444.0 41056.0 34066.0 139474.0 143151.0 45165.0 37848.0 70737.0 75568.0 116101.0 118472.0 88864.0 95921.0 195931.0 188700.0 126607.0 120073.0 201439.0 205581.0 92079.0 91022.0 162046.0 154178.0 201516.0 193757.0 121493.0 115534.0 141696.0 140639.0 98267.0 92352.0 228072.0 222431.0 165562.0 157821.0 86183.0 90712.0 144239.0 152241.0 35058.0 34068.0 126545.0 127594.0 0.0 8049.0 169972.0 175045.0 126830.0 118613.0 241131.0 248987.0 192467.0 189826.0 210852.0 205697.0 74095.0 67183.0 236615.0 231214.0 182475.0 190453.0 161878.0 157971.0 180409.0 187823.0 176257.0 42206.0 176257.0 176257.0 176257.0 176257.0 42206.0 42206.0 42206.0 42206.0
128375.0 136337.0 201006.0 193594.0 142008.0 134324.0 207800.0 200687.0 177344.0 170627.0 31902.0 38783.0 107720.0 100245.0 14598.0 22661.0 49018.0 42107.0 143221.0 147241.0 52424.0 44864.0 72439.0 77966.0 119655.0 121545.0 89719.0 97168.0 201255.0 194147.0 129471.0 122693.0 208149.0 212133.0 95857.0 95386.0 166022.0 158240.0 198652.0 190820.0 119799.0 113502.0 140643.0 139125.0 94037.0 87741.0 232922.0 227118.0 166532.0 158864.0 90828.0 95814.0 147009.0 155029.0 42748.0 41104.0 130981.0 131579.0 8049.0 0.0 171379.0 176739.0 126851.0 118584.0 246876.0 254740.0 199278.0 196684.0 215768.0 210416.0 69056.0 61855.0 239751.0 234161.0 184179.0 192169.0 157355.0 153169.0 186705.0 194051.0 183114.0 49871.0 183114.0 183114.0 183114.0 183114.0 49871.0 49871.0 49871.0 49871.0
47951.0 41818.0 88784.0 81825.0 67580.0 71876.0 72331.0 65457.0 124369.0 117852.0 147238.0 138841.0 63985.0 71145.0 170144.0 170590.0 162105.0 166554.0 56022.0 61485.0 147675.0 147961.0 99237.0 95076.0 66134.0 59338.0 81874.0 74211.0 103295.0 103325.0 50883.0 54158.0 151229.0 147744.0 86290.0 92112.0 57130.0 59170.0 102784.0 100609.0 291165.0 284864.0 55882.0 63977.0 262346.0 255079.0 110214.0 102100.0 10336.0 14459.0 98115.0 100302.0 37321.0 33455.0 179571.0 186176.0 73253.0 65211.0 169972.0 171379.0 0.0 8174.0 296285.0 288123.0 144328.0 150410.0 150081.0 154767.0 100463.0 92146.0 235853.0 228111.0 81239.0 73595.0 14291.0 21812.0 124837.0 130019.0 125785.0 126965.0 153675.0 182518.0 153675.0 153675.0 153675.0 153675.0 182518.0 182518.0 182518.0 182518.0
51009.0 44102.0 82135.0 75463.0 66141.0 71198.0 64694.0 58008.0 120269.0 114042.0 153362.0 145000.0 69039.0 76570.0 176003.0 176708.0 165515.0 170262.0 54996.0 59600.0 151063.0 151741.0 104369.0 99736.0 67886.0 61684.0 87648.0 79725.0 97098.0 97585.0 52996.0 57250.0 146093.0 142293.0 89291.0 94635.0 52863.0 55891.0 109242.0 107421.0 296430.0 290235.0 64053.0 72151.0 268324.0 261133.0 102584.0 94474.0 18434.0 22276.0 100683.0 102257.0 37593.0 32207.0 183328.0 190104.0 72910.0 65269.0 175045.0 176739.0 8174.0 0.0 301016.0 292841.0 137123.0 143073.0 145385.0 150359.0 93329.0 85032.0 241896.0 234166.0 73221.0 65644.0 7440.0 15430.0 132849.0 138096.0 121139.0 121908.0 150345.0 186013.0 150345.0 150345.0 150345.0 150345.0 186013.0 186013.0 186013.0 186013.0
250911.0 258616.0 311625.0 305245.0 256905.0 248907.0 323362.0 316959.0 277477.0 271743.0 156563.0 164495.0 232314.0 225444.0 132704.0 135981.0 141915.0 134956.0 260920.0 263225.0 155182.0 151909.0 197202.0 201291.0 238665.0 242285.0 215666.0 222552.0 308229.0 300405.0 250796.0 244858.0 306182.0 310831.0 214629.0 211725.0 282191.0 274125.0 321777.0 313786.0 27211.0 33350.0 267337.0 265445.0 67941.0 74217.0 342581.0 337949.0 292227.0 284450.0 206073.0 208366.0 268437.0 276316.0 122474.0 114611.0 245622.0 248458.0 126830.0 126851.0 296285.0 301016.0 0.0 8282.0 350300.0 358028.0 297062.0 294411.0 325182.0 321333.0 84170.0 89529.0 358991.0 354230.0 308411.0 316349.0 273976.0 268275.0 287197.0 294890.0 280842.0 124149.0 280842.0 280842.0 280842.0 280842.0 124149.0 124149.0 124149.0 124149.0
242697.0 250387.0 303458.0 297078.0 248738.0 240740.0 315194.0 308792.0 269310.0 263576.0 148284.0 156213.0 224146.0 217279.0 124431.0 127743.0 133747.0 126789.0 252753.0 255057.0 147014.0 143742.0 189030.0 193120.0 230498.0 234117.0 207462.0 214377.0 300062.0 292238.0 242629.0 236634.0 298014.0 302664.0 206462.0 203558.0 274024.0 265957.0 313569.0 305581.0 24960.0 29523.0 259057.0 257163.0 62160.0 67989.0 334414.0 329782.0 284053.0 276282.0 197906.0 200199.0 260270.0 268149.0 114307.0 106444.0 237455.0 240291.0 118613.0 118584.0 288123.0 292841.0 8282.0 0.0 342133.0 349861.0 288895.0 286244.0 317014.0 313166.0 76892.0 81997.0 350824.0 346063.0 300234.0 308170.0 265944.0 260285.0 279030.0 286722.0 272674.0 115982.0 272674.0 272674.0 272674.0 272674.0 115982.0 115982.0 115982.0 115982.0
144048.0 138396.0 57056.0 65128.0 112279.0 118199.0 73291.0 79258.0 74009.0 78764.0 238953.0 232535.0 165784.0 173430.0 253949.0 258627.0 209277.0 217172.0 117641.0 110349.0 198496.0 204418.0 188391.0 180086.0 138410.0 141673.0 184032.0 176220.0 48100.0 53744.0 138442.0 145889.0 57925.0 49766.0 157012.0 154477.0 97337.0 101913.0 245843.0 244439.0 351501.0 347339.0 195082.0 203238.0 338077.0 332856.0 37569.0 44850.0 154244.0 154267.0 157750.0 151650.0 128651.0 123858.0 228058.0 236050.0 121150.0 124515.0 241131.0 246876.0 144328.0 137123.0 350300.0 342133.0 0.0 7871.0 67073.0 74765.0 43887.0 52209.0 315110.0 308308.0 94648.0 99948.0 135585.0 134318.0 266686.0 270889.0 64297.0 56518.0 101167.0 227928.0 101167.0 101167.0 101167.0 101167.0 227928.0 227928.0 227928.0 227928.0
151411.0 145645.0 63989.0 72160.0 119951.0 125942.0 78777.0 85078.0 81486.0 86413.0 246794.0 240359.0 173290.0 180983.0 261820.0 266493.0 217027.0 224935.0 125126.0 117900.0 206302.0 212247.0 196167.0 187870.0 146077.0 149237.0 191645.0 183794.0 55760.0 61555.0 145873.0 153358.0 63724.0 55721.0 164820.0 162323.0 104544.0 109306.0 251443.0 250213.0 359230.0 355067.0 201772.0 209953.0 345893.0 340687.0 41865.0 49598.0 160415.0 160673.0 165612.0 159520.0 135763.0 130796.0 235786.0 243778.0 128910.0 132179.0 248987.0 254740.0 150410.0 143073.0 358028.0 349861.0 7871.0 0.0 73172.0 80696.0 50258.0 58542.0 322958.0 316162.0 97329.0 103071.0 141259.0 139671.0 273310.0 277613.0 71739.0 63944.0 107939.0 235656.0 107939.0 107939.0 107939.0 107939.0 235656.0 235656.0 235656.0 235656.0
127804.0 125520.0 72853.0 75370.0 91591.0 93274.0 98712.0 99711.0 27956.0 35883.0 198626.0 193780.0 143507.0 149145.0 208913.0 214895.0 156255.0 164355.0 102072.0 94257.0 147536.0 154622.0 154516.0 146242.0 113718.0 120110.0 157049.0 151065.0 56298.0 51447.0 121168.0 126675.0 10047.0 17479.0 123525.0 118140.0 92975.0 92111.0 250925.0 247450.0 298264.0 294102.0 187618.0 194874.0 286003.0 281416.0 83978.0 85778.0 157774.0 154485.0 119100.0 111416.0 120064.0 119339.0 174821.0 182812.0 94831.0 101939.0 192467.0 199278.0 150081.0 145385.0 297062.0 288895.0 67073.0 73172.0 0.0 7995.0 73610.0 77671.0 264666.0 258437.0 136157.0 138081.0 147339.0 149768.0 256941.0 259367.0 24300.0 24466.0 36893.0 174691.0 36893.0 36893.0 36893.0 36893.0 174691.0 174691.0 174691.0 174691.0
130367.0 128536.0 79801.0 81873.0 94375.0 95418.0 105632.0 106309.0 30848.0 38321.0 197005.0 192441.0 145055.0 150348.0 206530.0 212656.0 153604.0 161704.0 105235.0 97560.0 144895.0 151979.0 154256.0 146077.0 115407.0 122112.0 157785.0 152125.0 63462.0 58165.0 123714.0 128876.0 17005.0 25009.0 123722.0 117962.0 97654.0 96226.0 254870.0 251195.0 295613.0 291451.0 190563.0 197661.0 283353.0 278765.0 91881.0 93542.0 162162.0 158571.0 118517.0 110686.0 123676.0 123413.0 172170.0 180161.0 96728.0 104184.0 189826.0 196684.0 154767.0 150359.0 294411.0 286244.0 74765.0 80696.0 7995.0 0.0 81202.0 84998.0 262015.0 255786.0 143559.0 145302.0 152607.0 155331.0 259223.0 261427.0 29503.0 31170.0 31861.0 172040.0 31861.0 31861.0 31861.0 31861.0 172040.0 172040.0 172040.0 172040.0
103083.0 96768.0 15243.0 23447.0 75091.0 82177.0 30752.0 35792.0 62932.0 63128.0 203975.0 196948.0 125784.0 133815.0 221145.0 225001.0 183552.0 190967.0 77971.0 71534.0 171191.0 176043.0 151868.0 143859.0 100560.0 102476.0 144989.0 136801.0 19971.0 27970.0 98023.0 105716.0 68903.0 61955.0 121732.0 120722.0 55853.0 61711.0 202290.0 200722.0 326272.0 321747.0 151556.0 159749.0 309022.0 303203.0 17342.0 13869.0 110358.0 110439.0 124973.0 120149.0 86395.0 80965.0 202911.0 210872.0 85432.0 86879.0 210852.0 215768.0 100463.0 93329.0 325182.0 317014.0 43887.0 50258.0 73610.0 81202.0 0.0 8322.0 284782.0 277623.0 62862.0 65601.0 92070.0 91320.0 223060.0 227406.0 56137.0 51019.0 96105.0 202888.0 96105.0 96105.0 96105.0 96105.0 202888.0 202888.0 202888.0 202888.0
95627.0 89136.0 9712.0 16888.0 68963.0 76311.0 23237.0 27689.0 64129.0 63278.0 197771.0 190617.0 118530.0 126642.0 215400.0 219063.0 179507.0 186784.0 71035.0 64933.0 166848.0 171436.0 145429.0 137521.0 94003.0 95528.0 137937.0 129673.0 21723.0 28631.0 90743.0 98477.0 73830.0 67344.0 115738.0 115126.0 48486.0 54754.0 194042.0 192436.0 322081.0 317411.0 143333.0 151535.0 303947.0 298009.0 22878.0 16755.0 102036.0 102136.0 119596.0 115128.0 78599.0 72978.0 198919.0 206850.0 79617.0 80487.0 205697.0 210416.0 92146.0 85032.0 321333.0 313166.0 52209.0 58542.0 77671.0 84998.0 8322.0 0.0 279470.0 272244.0 58587.0 60462.0 83856.0 83260.0 214805.0 219185.0 58344.0 54123.0 97414.0 198964.0 97414.0 97414.0 97414.0 97414.0 198964.0 198964.0 198964.0 198964.0
195552.0 203557.0 270050.0 262650.0 211027.0 203368.0 276597.0 269399.0 244231.0 237884.0 88629.0 97044.0 173664.0 165658.0 66146.0 65290.0 108925.0 100782.0 211928.0 216166.0 117369.0 110896.0 139159.0 145595.0 188258.0 189640.0 154293.0 162421.0 270021.0 262793.0 197246.0 190153.0 273769.0 278356.0 164689.0 164432.0 234863.0 227140.0 244111.0 236082.0 65112.0 57260.0 197394.0 193941.0 26625.0 19238.0 301956.0 296174.0 229846.0 222489.0 159876.0 164715.0 214547.0 222554.0 93181.0 86271.0 200027.0 200464.0 74095.0 69056.0 235853.0 241896.0 84170.0 76892.0 315110.0 322958.0 264666.0 262015.0 284782.0 279470.0 0.0 7751.0 307561.0 301675.0 249298.0 257255.0 193009.0 186814.0 253787.0 261304.0 248445.0 97988.0 248445.0 248445.0 248445.0 248445.0 97988.0 97988.0 97988.0 97988.0
187916.0 195921.0 262850.0 255410.0 203711.0 196082.0 269162.0 261940.0 237746.0 231315.0 80883.0 89297.0 165974.0 157953.0 58488.0 57541.0 103054.0 94937.0 204479.0 208789.0 110986.0 104336.0 131528.0 138022.0 180791.0 182091.0 146572.0 154713.0 263018.0 255840.0 189658.0 182541.0 267556.0 272027.0 157292.0 157158.0 227449.0 219751.0 236938.0 228908.0 71733.0 63976.0 189722.0 186319.0 34366.0 26969.0 294772.0 288935.0 222096.0 214740.0 152673.0 157633.0 206932.0 214936.0 87963.0 81340.0 192745.0 193073.0 67183.0 61855.0 228111.0 234166.0 89529.0 81997.0 308308.0 316162.0 258437.0 255786.0 277623.0 272244.0 7751.0 0.0 299952.0 294041.0 241565.0 249521.0 186279.0 180186.0 247265.0 254747.0 242216.0 93095.0 242216.0 242216.0 242216.0 242216.0 93095.0 93095.0 93095.0 93095.0
112125.0 104131.0 64939.0 65921.0 102970.0 110891.0 41087.0 44801.0 121595.0 119490.0 220431.0 212357.0 134802.0 143141.0 241497.0 243415.0 218164.0 224458.0 98071.0 96223.0 204234.0 207086.0 168445.0 162018.0 120712.0 118212.0 154942.0 146438.0 80265.0 86600.0 110354.0 117412.0 131762.0 124766.0 144860.0 147280.0 77634.0 85657.0 167153.0 167893.0 357318.0 351794.0 136713.0 144611.0 333441.0 326701.0 58112.0 52806.0 90959.0 95488.0 152921.0 151064.0 93024.0 85031.0 237358.0 244926.0 114049.0 110563.0 236615.0 239751.0 81239.0 73221.0 358991.0 350824.0 94648.0 97329.0 136157.0 143559.0 62862.0 58587.0 307561.0 299952.0 0.0 8126.0 67325.0 61328.0 202322.0 208285.0 116637.0 112701.0 154576.0 238386.0 154576.0 154576.0 154576.0 154576.0 238386.0 238386.0 238386.0 238386.0
106125.0 98119.0 65821.0 65777.0 99130.0 106956.0 40699.0 43047.0 122064.0 119445.0 214223.0 206091.0 128504.0 136788.0 235558.0 237296.0 213831.0 219960.0 93486.0 92205.0 199783.0 202386.0 162516.0 156283.0 115646.0 112743.0 148543.0 140082.0 81840.0 87647.0 104691.0 111571.0 134217.0 127495.0 139776.0 142534.0 74024.0 81929.0 159137.0 159822.0 352187.0 346561.0 128888.0 136748.0 327663.0 320848.0 62810.0 56811.0 83200.0 87919.0 148268.0 146767.0 87189.0 79169.0 232923.0 240415.0 110035.0 106065.0 231214.0 234161.0 73595.0 65644.0 354230.0 346063.0 99948.0 103071.0 138081.0 145302.0 65601.0 60462.0 301675.0 294041.0 8126.0 0.0 59569.0 53393.0 194231.0 200215.0 117688.0 114230.0 154719.0 234156.0 154719.0 154719.0 154719.0 154719.0 234156.0 234156.0 234156.0 234156.0
58192.0 51116.0 81794.0 75620.0 71235.0 76730.0 62507.0 56347.0 122910.0 116986.0 160747.0 152379.0 76476.0 84008.0 183423.0 184096.0 172662.0 177484.0 60450.0 64452.0 158210.0 158985.0 111805.0 107141.0 74610.0 68636.0 95067.0 87159.0 97360.0 98469.0 59909.0 64423.0 147551.0 143385.0 96378.0 101567.0 55825.0 59714.0 110261.0 108970.0 303867.0 297674.0 69414.0 77373.0 275735.0 268533.0 100209.0 92140.0 23636.0 28748.0 107622.0 108974.0 43941.0 37907.0 190558.0 197371.0 78626.0 71247.0 182475.0 184179.0 14291.0 7440.0 308411.0 300234.0 135585.0 141259.0 147339.0 152607.0 92070.0 83856.0 249298.0 241565.0 67325.0 59569.0 0.0 7991.0 136867.0 142369.0 123214.0 123525.0 153652.0 193176.0 153652.0 153652.0 153652.0 153652.0 193176.0 193176.0 193176.0 193176.0
65959.0 58751.0 82123.0 76541.0 77095.0 82972.0 61030.0 55571.0 126122.0 120529.0 168690.0 160317.0 84464.0 91998.0 191398.0 192041.0 180350.0 185246.0 66703.0 70131.0 165900.0 166772.0 119791.0 115095.0 81948.0 76187.0 103043.0 95147.0 98214.0 99972.0 67441.0 72174.0 149460.0 144919.0 104030.0 109069.0 59831.0 64484.0 111952.0 111219.0 311852.0 305664.0 75601.0 83392.0 283700.0 276490.0 98168.0 90195.0 30310.0 36135.0 115126.0 116264.0 51065.0 44575.0 198328.0 205178.0 85031.0 77920.0 190453.0 192169.0 21812.0 15430.0 316349.0 308170.0 134318.0 139671.0 149768.0 155331.0 91320.0 83260.0 257255.0 249521.0 61328.0 53393.0 7991.0 0.0 141537.0 147283.0 125843.0 125676.0 157491.0 200878.0 157491.0 157491.0 157491.0 157491.0 200878.0 200878.0 200878.0 200878.0
129201.0 132263.0 209735.0 201877.0 165466.0 163810.0 196732.0 189505.0 229004.0 221158.0 125767.0 120344.0 115278.0 111712.0 146184.0 140702.0 183724.0 182506.0 155653.0 163633.0 173765.0 168274.0 121861.0 127005.0 144157.0 137154.0 108221.0 110904.0 221697.0 219422.0 135812.0 130350.0 261123.0 259925.0 142523.0 150178.0 171032.0 168547.0 57995.0 50890.0 258008.0 250221.0 71667.0 63611.0 217274.0 209220.0 234414.0 226323.0 114505.0 112989.0 152935.0 160425.0 139897.0 143425.0 191472.0 193807.0 162541.0 155065.0 161878.0 157355.0 124837.0 132849.0 273976.0 265944.0 266686.0 273310.0 256941.0 259223.0 223060.0 214805.0 193009.0 186279.0 202322.0 194231.0 136867.0 141537.0 0.0 7817.0 233958.0 237705.0 250760.0 197841.0 250760.0 250760.0 250760.0 250760.0 197841.0 197841.0 197841.0 197841.0
131893.0 135356.0 213864.0 205924.0 168115.0 166110.0 201564.0 194247.0 231411.0 223518.0 121832.0 116784.0 116838.0 112764.0 141601.0 135863.0 181247.0 179704.0 158606.0 166591.0 171739.0 165996.0 121126.0 126678.0 146104.0 139326.0 108482.0 111736.0 225450.0 222931.0 138453.0 132693.0 263806.0 262837.0 143183.0 150716.0 174718.0 171922.0 65788.0 58706.0 251882.0 244064.0 75852.0 67661.0 210824.0 202780.0 239118.0 231046.0 119687.0 117775.0 153192.0 160819.0 143417.0 147287.0 188292.0 190342.0 164701.0 157428.0 157971.0 153169.0 130019.0 138096.0 268275.0 260285.0 270889.0 277613.0 259367.0 261427.0 227406.0 219185.0 186814.0 180186.0 208285.0 200215.0 142369.0 147283.0 7817.0 0.0 236631.0 240587.0 252484.0 194778.0 252484.0 252484.0 252484.0 252484.0 194778.0 194778.0 194778.0 194778.0
104771.0 102024.0 51870.0 52973.0 68519.0 71040.0 77379.0 77429.0 9783.0 16165.0 182787.0 177298.0 121746.0 127889.0 195156.0 200584.0 146352.0 154378.0 78528.0 70619.0 136469.0 142929.0 135934.0 127539.0 91954.0 97835.0 136533.0 130032.0 36698.0 30063.0 98186.0 104091.0 27175.0 27323.0 104332.0 99807.0 68676.0 67932.0 226727.0 223332.0 288399.0 284237.0 164066.0 171454.0 275894.0 271026.0 69757.0 69569.0 133487.0 130267.0 101654.0 94454.0 96106.0 95145.0 164956.0 172947.0 72953.0 79469.0 180409.0 186705.0 125785.0 121139.0 287197.0 279030.0 64297.0 71739.0 24300.0 29503.0 56137.0 58344.0 253787.0 247265.0 116637.0 117688.0 123214.0 125843.0 233958.0 236631.0 0.0 7799.0 40422.0 164826.0 40422.0 40422.0 40422.0 40422.0 164826.0 164826.0 164826.0 164826.0
108720.0 105488.0 48634.0 50905.0 72648.0 75833.0 74462.0 75268.0 17574.0 23438.0 189591.0 183966.0 126578.0 132988.0 202327.0 207660.0 154031.0 162043.0 82053.0 74076.0 144028.0 150421.0 142105.0 133693.0 96909.0 102427.0 141969.0 135240.0 32446.0 27031.0 102210.0 108426.0 24291.0 22261.0 110399.0 106171.0 70174.0 70311.0 228677.0 225526.0 296091.0 291929.0 167297.0 174832.0 283514.0 278605.0 63619.0 64061.0 135060.0 132254.0 108256.0 101205.0 98891.0 97325.0 172648.0 180639.0 77963.0 84025.0 187823.0 194051.0 126965.0 121908.0 294890.0 286722.0 56518.0 63944.0 24466.0 31170.0 51019.0 54123.0 261304.0 254747.0 112701.0 114230.0 123525.0 125676.0 237705.0 240587.0 7799.0 0.0 47048.0 172518.0 47048.0 47048.0 47048.0 47048.0 172518.0 172518.0 172518.0 172518.0
123436.0 122800.0 89809.0 88942.0 88814.0 88170.0 114021.0 112529.0 33292.0 35337.0 183483.0 179018.0 135648.0 140215.0 192960.0 199086.0 140034.0 148135.0 100394.0 93350.0 131325.0 138409.0 141771.0 133739.0 106667.0 113965.0 146755.0 141709.0 76270.0 68795.0 116844.0 121091.0 46895.0 53539.0 112043.0 105770.0 97835.0 94554.0 250648.0 246410.0 282043.0 277881.0 183973.0 190633.0 269783.0 265195.0 110171.0 109736.0 159981.0 155476.0 105814.0 97865.0 119700.0 120848.0 158600.0 166591.0 88850.0 96959.0 176257.0 183114.0 153675.0 150345.0 280842.0 272674.0 101167.0 107939.0 36893.0 31861.0 96105.0 97414.0 248445.0 242216.0 154576.0 154719.0 153652.0 157491.0 250760.0 252484.0 40422.0 47048.0 0.0 158470.0 0.0 0.0 0.0 0.0 158470.0 158470.0 158470.0 158470.0
135005.0 142135.0 189257.0 182886.0 135524.0 127556.0 201470.0 195359.0 155105.0 149371.0 75084.0 78498.0 120401.0 115283.0 64459.0 72531.0 20556.0 16669.0 140747.0 142168.0 34986.0 35028.0 88619.0 89649.0 119965.0 124850.0 108273.0 113029.0 185857.0 178033.0 133594.0 128765.0 183810.0 188460.0 96878.0 92464.0 160920.0 152851.0 231534.0 224138.0 124850.0 121060.0 166018.0 166783.0 116178.0 112592.0 220209.0 215591.0 180349.0 172526.0 86491.0 87390.0 150783.0 158330.0 7151.0 11757.0 124359.0 128140.0 42206.0 49871.0 182518.0 186013.0 124149.0 115982.0 227928.0 235656.0 174691.0 172040.0 202888.0 198964.0 97988.0 93095.0 238386.0 234156.0 193176.0 200878.0 197841.0 194778.0 164826.0 172518.0 158470.0 0.0 158470.0 158470.0 158470.0 158470.0 0.0 0.0 0.0 0.0
123436.0 122800.0 89809.0 88942.0 88814.0 88170.0 114021.0 112529.0 33292.0 35337.0 183483.0 179018.0 135648.0 140215.0 192960.0 199086.0 140034.0 148135.0 100394.0 93350.0 131325.0 138409.0 141771.0 133739.0 106667.0 113965.0 146755.0 141709.0 76270.0 68795.0 116844.0 121091.0 46895.0 53539.0 112043.0 105770.0 97835.0 94554.0 250648.0 246410.0 282043.0 277881.0 183973.0 190633.0 269783.0 265195.0 110171.0 109736.0 159981.0 155476.0 105814.0 97865.0 119700.0 120848.0 158600.0 166591.0 88850.0 96959.0 176257.0 183114.0 153675.0 150345.0 280842.0 272674.0 101167.0 107939.0 36893.0 31861.0 96105.0 97414.0 248445.0 242216.0 154576.0 154719.0 153652.0 157491.0 250760.0 252484.0 40422.0 47048.0 0.0 158470.0 0.0 0.0 0.0 0.0 158470.0 158470.0 158470.0 158470.0
123436.0 122800.0 89809.0 88942.0 88814.0 88170.0 114021.0 112529.0 33292.0 35337.0 183483.0 179018.0 135648.0 140215.0 192960.0 199086.0 140034.0 148135.0 100394.0 93350.0 131325.0 138409.0 141771.0 133739.0 106667.0 113965.0 146755.0 141709.0 76270.0 68795.0 116844.0 121091.0 46895.0 53539.0 112043.0 105770.0 97835.0 94554.0 250648.0 246410.0 282043.0 277881.0 183973.0 190633.0 269783.0 265195.0 110171.0 109736.0 159981.0 155476.0 105814.0 97865.0 119700.0 120848.0 158600.0 166591.0 88850.0 96959.0 176257.0 183114.0 153675.0 150345.0 280842.0 272674.0 101167.0 107939.0 36893.0 31861.0 96105.0 97414.0 248445.0 242216.0 154576.0 154719.0 153652.0 157491.0 250760.0 252484.0 40422.0 47048.0 0.0 158470.0 0.0 0.0 0.0 0.0 158470.0 158470.0 158470.0 158470.0
123436.0 122800.0 89809.0 88942.0 88814.0 88170.0 114021.0 112529.0 33292.0 35337.0 183483.0 179018.0 135648.0 140215.0 192960.0 199086.0 140034.0 148135.0 100394.0 93350.0 131325.0 138409.0 141771.0 133739.0 106667.0 113965.0 146755.0 141709.0 76270.0 68795.0 116844.0 121091.0 46895.0 53539.0 112043.0 105770.0 97835.0 94554.0 250648.0 246410.0 282043.0 277881.0 183973.0 190633.0 269783.0 265195.0 110171.0 109736.0 159981.0 155476.0 105814.0 97865.0 119700.0 120848.0 158600.0 166591.0 88850.0 96959.0 176257.0 183114.0 153675.0 150345.0 280842.0 272674.0 101167.0 107939.0 36893.0 31861.0 96105.0 97414.0 248445.0 242216.0 154576.0 154719.0 153652.0 157491.0 250760.0 252484.0 40422.0 47048.0 0.0 158470.0 0.0 0.0 0.0 0.0 158470.0 158470.0 158470.0 158470.0
123436.0 122800.0 89809.0 88942.0 88814.0 88170.0 114021.0 112529.0 33292.0 35337.0 183483.0 179018.0 135648.0 140215.0 192960.0 199086.0 140034.0 148135.0 100394.0 93350.0 131325.0 138409.0 141771.0 133739.0 106667.0 113965.0 146755.0 141709.0 76270.0 68795.0 116844.0 121091.0 46895.0 53539.0 112043.0 105770.0 97835.0 94554.0 250648.0 246410.0 282043.0 277881.0 183973.0 190633.0 269783.0 265195.0 110171.0 109736.0 159981.0 155476.0 105814.0 97865.0 119700.0 120848.0 158600.0 166591.0 88850.0 96959.0 176257.0 183114.0 153675.0 150345.0 280842.0 272674.0 101167.0 107939.0 36893.0 31861.0 96105.0 97414.0 248445.0 242216.0 154576.0 154719.0 153652.0 157491.0 250760.0 252484.0 40422.0 47048.0 0.0 158470.0 0.0 0.0 0.0 0.0 158470.0 158470.0 158470.0 158470.0
135005.0 142135.0 189257.0 182886.0 135524.0 127556.0 201470.0 195359.0 155105.0 149371.0 75084.0 78498.0 120401.0 115283.0 64459.0 72531.0 20556.0 16669.0 140747.0 142168.0 34986.0 35028.0 88619.0 89649.0 119965.0 124850.0 108273.0 113029.0 185857.0 178033.0 133594.0 128765.0 183810.0 188460.0 96878.0 92464.0 160920.0 152851.0 231534.0 224138.0 124850.0 121060.0 166018.0 166783.0 116178.0 112592.0 220209.0 215591.0 180349.0 172526.0 86491.0 87390.0 150783.0 158330.0 7151.0 11757.0 124359.0 128140.0 42206.0 49871.0 182518.0 186013.0 124149.0 115982.0 227928.0 235656.0 174691.0 172040.0 202888.0 198964.0 97988.0 93095.0 238386.0 234156.0 193176.0 200878.0 197841.0 194778.0 164826.0 172518.0 158470.0 0.0 158470.0 158470.0 158470.0 158470.0 0.0 0.0 0.0 0.0
135005.0 142135.0 189257.0 182886.0 135524.0 127556.0 201470.0 195359.0 155105.0 149371.0 75084.0 78498.0 120401.0 115283.0 64459.0 72531.0 20556.0 16669.0 140747.0 142168.0 34986.0 35028.0 88619.0 89649.0 119965.0 124850.0 108273.0 113029.0 185857.0 178033.0 133594.0 128765.0 183810.0 188460.0 96878.0 92464.0 160920.0 152851.0 231534.0 224138.0 124850.0 121060.0 166018.0 166783.0 116178.0 112592.0 220209.0 215591.0 180349.0 172526.0 86491.0 87390.0 150783.0 158330.0 7151.0 11757.0 124359.0 128140.0 42206.0 49871.0 182518.0 186013.0 124149.0 115982.0 227928.0 235656.0 174691.0 172040.0 202888.0 198964.0 97988.0 93095.0 238386.0 234156.0 193176.0 200878.0 197841.0 194778.0 164826.0 172518.0 158470.0 0.0 158470.0 158470.0 158470.0 158470.0 0.0 0.0 0.0 0.0
135005.0 142135.0 189257.0 182886.0 135524.0 127556.0 201470.0 195359.0 155105.0 149371.0 75084.0 78498.0 120401.0 115283.0 64459.0 72531.0 20556.0 16669.0 140747.0 142168.0 34986.0 35028.0 88619.0 89649.0 119965.0 124850.0 108273.0 113029.0 185857.0 178033.0 133594.0 128765.0 183810.0 188460.0 96878.0 92464.0 160920.0 152851.0 231534.0 224138.0 124850.0 121060.0 166018.0 166783.0 116178.0 112592.0 220209.0 215591.0 180349.0 172526.0 86491.0 87390.0 150783.0 158330.0 7151.0 11757.0 124359.0 128140.0 42206.0 49871.0 182518.0 186013.0 124149.0 115982.0 227928.0 235656.0 174691.0 172040.0 202888.0 198964.0 97988.0 93095.0 238386.0 234156.0 193176.0 200878.0 197841.0 194778.0 164826.0 172518.0 158470.0 0.0 158470.0 158470.0 158470.0 158470.0 0.0 0.0 0.0 0.0
135005.0 142135.0 189257.0 182886.0 135524.0 127556.0 201470.0 195359.0 155105.0 149371.0 75084.0 78498.0 120401.0 115283.0 64459.0 72531.0 20556.0 16669.0 140747.0 142168.0 34986.0 35028.0 88619.0 89649.0 119965.0 124850.0 108273.0 113029.0 185857.0 178033.0 133594.0 128765.0 183810.0 188460.0 96878.0 92464.0 160920.0 152851.0 231534.0 224138.0 124850.0 121060.0 166018.0 166783.0 116178.0 112592.0 220209.0 215591.0 180349.0 172526.0 86491.0 87390.0 150783.0 158330.0 7151.0 11757.0 124359.0 128140.0 42206.0 49871.0 182518.0 186013.0 124149.0 115982.0 227928.0 235656.0 174691.0 172040.0 202888.0 198964.0 97988.0 93095.0 238386.0 234156.0 193176.0 200878.0 197841.0 194778.0 164826.0 172518.0 158470.0 0.0 158470.0 158470.0 158470.0 158470.0 0.0 0.0 0.0 0.0
FIXED_EDGES_SECTION
1 2
3 4
5 6
7 8
9 10
11 12
13 14
15 16
17 18
19 20
21 22
23 24
25 26
27 28
29 30
31 32
33 34
35 36
37 38
39 40
41 42
43 44
45 46
47 48
49 50
51 52
53 54
55 56
57 58
59 60
61 62
63 64
65 66
67 68
69 70
71 72
73 74
75 76
77 78
79 80
-1 
DEMAND_SECTION
1 256
2 256
3 57
4 57
5 277
6 277
7 497
8 497
9 485
10 485
11 68
12 68
13 279
14 279
15 84
16 84
17 235
18 235
19 119
20 119
21 100
22 100
23 223
24 223
25 114
26 114
27 271
28 271
29 493
30 493
31 191
32 191
33 292
34 292
35 214
36 214
37 293
38 293
39 258
40 258
41 322
42 322
43 112
44 112
45 268
46 268
47 265
48 265
49 82
50 82
51 373
52 373
53 96
54 96
55 37
56 37
57 94
58 94
59 313
60 313
61 211
62 211
63 224
64 224
65 316
66 316
67 97
68 97
69 375
70 375
71 244
72 244
73 497
74 497
75 90
76 90
77 321
78 321
79 618
80 618
81 0
82 0
83 0
84 0
85 0
86 0
87 0
88 0
89 0
90 0
DEPOT_SECTION
81 
-1 
CAPACITIES_SECTION
5000 
5500 
6000 
6500 
-1 
EOF