NAME: GFS_20_1
TYPE: GFSP
DIMENSION: 90
VEHICLES: 4
CAPACITY: 5000.0
TRIP_DIST_LIMIT: 750000.0
TOTAL_DIST_LIMIT: 1050000.0
EDGE_WEIGHT_TYPE: EXPLICIT
EDGE_WEIGHT_FORMAT: FULL_MATRIX
EDGE_WEIGHT_SECTION
0.0 8039.0 340596.0 344810.0 49406.0 57380.0 44610.0 40158.0 2678.0 8434.0 328881.0 329614.0 320441.0 313887.0 24271.0 25194.0 73165.0 74735.0 286823.0 291993.0 334382.0 329741.0 306028.0 303378.0 327188.0 321162.0 37325.0 32114.0 351528.0 346808.0 341561.0 344751.0 289882.0 281845.0 271395.0 263577.0 286443.0 280709.0 218938.0 217675.0 218894.0 226294.0 163425.0 159506.0 278073.0 281792.0 286940.0 292776.0 322367.0 326905.0 308729.0 303872.0 150656.0 143367.0 202357.0 197377.0 101430.0 109315.0 242231.0 237535.0 314439.0 306383.0 82938.0 75664.0 334250.0 337490.0 267820.0 261673.0 296530.0 302954.0 214280.0 206004.0 318115.0 310087.0 299920.0 294708.0 324172.0 324089.0 319055.0 324751.0 289808.0 132322.0 289808.0 289808.0 289808.0 289808.0 132322.0 132322.0 132322.0 132322.0
8039.0 0.0 348213.0 352375.0 54438.0 62470.0 52395.0 48151.0 10717.0 14253.0 334431.0 335303.0 328262.0 321678.0 30237.0 32462.0 80647.0 81865.0 294169.0 299411.0 341301.0 336746.0 313913.0 311262.0 334870.0 328804.0 30334.0 26140.0 359387.0 354635.0 349445.0 352636.0 297510.0 289480.0 279029.0 271232.0 294328.0 288594.0 226043.0 224640.0 225816.0 233292.0 171192.0 167178.0 285744.0 289521.0 294501.0 300385.0 330251.0 334790.0 316614.0 311757.0 158504.0 151171.0 209972.0 204907.0 107758.0 115574.0 249447.0 244651.0 321302.0 313237.0 90970.0 83676.0 340543.0 343896.0 272612.0 266350.0 301377.0 307909.0 221340.0 213032.0 323506.0 315476.0 307806.0 302559.0 332057.0 331973.0 323646.0 329457.0 297692.0 140267.0 297692.0 297692.0 297692.0 297692.0 140267.0 140267.0 140267.0 140267.0
340596.0 348213.0 0.0 8154.0 301996.0 295371.0 296064.0 301457.0 338063.0 339094.0 162315.0 154493.0 36668.0 36621.0 332903.0 324736.0 267628.0 267324.0 61408.0 53643.0 71391.0 64349.0 109301.0 116384.0 16000.0 19698.0 367838.0 359630.0 41161.0 33508.0 64576.0 57898.0 50726.0 58783.0 69221.0 77135.0 92809.0 90303.0 129846.0 134715.0 134909.0 126337.0 177769.0 181142.0 62847.0 60525.0 54109.0 47835.0 96383.0 90860.0 93744.0 99999.0 191420.0 198022.0 138241.0 143519.0 248236.0 242054.0 105696.0 112962.0 78099.0 80985.0 262108.0 267753.0 117683.0 110385.0 196765.0 201947.0 194468.0 189927.0 135182.0 143419.0 169446.0 168780.0 58403.0 57545.0 82408.0 74484.0 209770.0 205488.0 125530.0 211398.0 125530.0 125530.0 125530.0 125530.0 211398.0 211398.0 211398.0 211398.0
344810.0 352375.0 8154.0 0.0 305534.0 298801.0 300348.0 305874.0 342297.0 343477.0 157036.0 149137.0 44792.0 44431.0 337413.0 329246.0 271738.0 271216.0 62545.0 55300.0 65513.0 58936.0 117454.0 124532.0 23552.0 25682.0 371536.0 363317.0 47481.0 40213.0 72019.0 65112.0 55447.0 63513.0 73842.0 81898.0 100765.0 98094.0 132100.0 136581.0 136619.0 128050.0 182431.0 185530.0 67940.0 66353.0 57874.0 52298.0 104437.0 98839.0 101896.0 108150.0 196241.0 202678.0 142525.0 147488.0 251439.0 245105.0 107770.0 114744.0 73903.0 77476.0 266947.0 272446.0 111920.0 104417.0 193964.0 199369.0 190567.0 185773.0 137409.0 145746.0 164631.0 164286.0 66235.0 65007.0 90428.0 82510.0 205151.0 200649.0 133371.0 216364.0 133371.0 133371.0 133371.0 133371.0 216364.0 216364.0 216364.0 216364.0
49406.0 54438.0 301996.0 305534.0 0.0 8032.0 31804.0 37473.0 47916.0 53519.0 280033.0 280979.0 285172.0 278075.0 59713.0 52958.0 40965.0 37198.0 245542.0 251367.0 289883.0 285763.0 274850.0 272199.0 289527.0 282980.0 66330.0 58100.0 316882.0 311494.0 309380.0 311993.0 251682.0 243795.0 233397.0 225938.0 255254.0 249386.0 176068.0 173851.0 174790.0 182634.0 129176.0 123686.0 240544.0 245127.0 247903.0 254310.0 291188.0 295721.0 277514.0 272694.0 118612.0 110587.0 164814.0 158777.0 55350.0 62761.0 200069.0 194630.0 269666.0 261577.0 65726.0 57816.0 287049.0 290665.0 218418.0 212268.0 247138.0 253594.0 171118.0 162674.0 269071.0 261040.0 266243.0 260255.0 292930.0 292584.0 269657.0 275344.0 258629.0 104040.0 258629.0 258629.0 258629.0 258629.0 104040.0 104040.0 104040.0 104040.0
57380.0 62470.0 295371.0 298801.0 8032.0 0.0 35399.0 42028.0 55842.0 61291.0 272006.0 272963.0 279102.0 271925.0 66740.0 59666.0 38242.0 33112.0 238543.0 244467.0 282366.0 278324.0 269940.0 267289.0 283065.0 276441.0 73615.0 65409.0 310876.0 305386.0 303861.0 306333.0 245175.0 237323.0 226949.0 219562.0 250235.0 244233.0 168894.0 166522.0 167413.0 175321.0 123744.0 117987.0 234163.0 238882.0 241264.0 247756.0 286282.0 290784.0 272641.0 267744.0 113692.0 105600.0 158597.0 152390.0 47970.0 55209.0 192979.0 187424.0 262118.0 254028.0 65027.0 57412.0 279173.0 282833.0 210441.0 204314.0 239151.0 245590.0 163903.0 155444.0 261039.0 253008.0 260461.0 254353.0 287816.0 287302.0 261718.0 267381.0 253719.0 100037.0 253719.0 253719.0 253719.0 253719.0 100037.0 100037.0 100037.0 100037.0
44610.0 52395.0 296064.0 300348.0 31804.0 35399.0 0.0 7987.0 42039.0 43330.0 291630.0 291735.0 275867.0 269289.0 40278.0 32013.0 29371.0 32927.0 242808.0 247810.0 291585.0 286668.0 261586.0 258935.0 282600.0 276606.0 76524.0 68999.0 307008.0 302240.0 297118.0 300260.0 245343.0 237299.0 226851.0 219013.0 242000.0 236266.0 175696.0 174915.0 176289.0 183398.0 118816.0 114938.0 233495.0 237185.0 242490.0 248259.0 277924.0 282462.0 264287.0 259430.0 106123.0 98776.0 157846.0 153007.0 63223.0 71170.0 198605.0 194224.0 271858.0 263845.0 40827.0 32890.0 293787.0 296571.0 234512.0 228995.0 262741.0 268605.0 171197.0 163055.0 281630.0 273648.0 255461.0 250175.0 279730.0 279646.0 286371.0 291473.0 245365.0 88159.0 245365.0 245365.0 245365.0 245365.0 88159.0 88159.0 88159.0 88159.0
40158.0 48151.0 301457.0 305874.0 37473.0 42028.0 7987.0 0.0 37500.0 37654.0 299314.0 299357.0 280610.0 274151.0 32831.0 24552.0 36247.0 40505.0 248841.0 253697.0 298228.0 293203.0 266072.0 263421.0 287819.0 281940.0 74284.0 67162.0 311585.0 306957.0 301604.0 304794.0 250733.0 242674.0 232238.0 224343.0 246486.0 240752.0 182231.0 181650.0 183077.0 190072.0 123867.0 120347.0 238772.0 242277.0 248058.0 253699.0 282410.0 286948.0 268773.0 263915.0 110812.0 103694.0 163354.0 158755.0 71069.0 78996.0 204923.0 200708.0 278587.0 270592.0 42998.0 35545.0 301040.0 303732.0 242448.0 236950.0 270654.0 276493.0 177808.0 169730.0 289383.0 281407.0 259914.0 254794.0 284216.0 284132.0 294316.0 299400.0 249851.0 92214.0 249851.0 249851.0 249851.0 249851.0 92214.0 92214.0 92214.0 92214.0
2678.0 10717.0 338063.0 342297.0 47916.0 55842.0 42039.0 37500.0 0.0 7469.0 327059.0 327744.0 317839.0 311295.0 22567.0 22884.0 70701.0 72404.0 284386.0 289531.0 332090.0 327419.0 303406.0 300755.0 324634.0 318621.0 39744.0 34295.0 348912.0 344204.0 338938.0 342129.0 287347.0 279308.0 268858.0 261033.0 283821.0 278087.0 216588.0 215373.0 216607.0 223980.0 160844.0 156959.0 275524.0 279223.0 284428.0 290248.0 319745.0 324283.0 306107.0 301250.0 148046.0 140773.0 199828.0 194879.0 99379.0 107286.0 239840.0 235180.0 312168.0 304115.0 80262.0 72997.0 332173.0 335375.0 266261.0 260155.0 294950.0 301337.0 211945.0 203681.0 316347.0 308320.0 297295.0 292095.0 321550.0 321467.0 317559.0 323215.0 287186.0 129679.0 287186.0 287186.0 287186.0 287186.0 129679.0 129679.0 129679.0 129679.0
8434.0 14253.0 339094.0 343477.0 53519.0 61291.0 43330.0 37654.0 7469.0 0.0 331452.0 331987.0 318181.0 311760.0 16121.0 18508.0 72587.0 75076.0 286135.0 291110.0 334657.0 329835.0 303615.0 300964.0 325473.0 319585.0 44580.0 40002.0 349080.0 344515.0 339147.0 342338.0 288368.0 280312.0 269873.0 261987.0 284030.0 278296.0 218892.0 217936.0 219245.0 226476.0 161520.0 157964.0 276422.0 279928.0 285644.0 291323.0 319954.0 324492.0 306316.0 301459.0 148413.0 141340.0 200952.0 196249.0 103180.0 111144.0 241902.0 237445.0 314840.0 306807.0 79626.0 72546.0 335689.0 338735.0 271398.0 265391.0 300024.0 306314.0 214338.0 206144.0 320907.0 312886.0 297509.0 292319.0 321759.0 321676.0 322836.0 328395.0 287395.0 129575.0 287395.0 287395.0 287395.0 287395.0 129575.0 129575.0 129575.0 129575.0
328881.0 334431.0 162315.0 157036.0 280033.0 272006.0 291630.0 299314.0 327059.0 331452.0 0.0 8092.0 186264.0 179821.0 331860.0 323622.0 263906.0 258815.0 127278.0 133364.0 91867.0 98104.0 248289.0 252608.0 166997.0 160460.0 341524.0 333880.0 203301.0 195395.0 223187.0 217890.0 155398.0 156386.0 157027.0 160366.0 221902.0 214960.0 139640.0 134817.0 132315.0 130117.0 207974.0 204691.0 160613.0 167643.0 147995.0 153253.0 244699.0 241701.0 236035.0 239176.0 220716.0 221952.0 177137.0 174288.0 228667.0 220673.0 131830.0 128704.0 85628.0 85576.0 275863.0 277180.0 46193.0 54478.0 71642.0 79453.0 48697.0 40690.0 140920.0 145616.0 13938.0 20806.0 193737.0 186639.0 233044.0 225801.0 51266.0 45137.0 249526.0 238506.0 249526.0 249526.0 249526.0 249526.0 238506.0 238506.0 238506.0 238506.0
329614.0 335303.0 154493.0 149137.0 280979.0 272963.0 291735.0 299357.0 327744.0 331987.0 8092.0 0.0 178880.0 172538.0 332003.0 323746.0 263740.0 258854.0 120711.0 126584.0 83885.0 90223.0 241609.0 246053.0 159406.0 152957.0 343091.0 335377.0 195522.0 187637.0 215649.0 210275.0 148650.0 149882.0 150864.0 154459.0 215415.0 208565.0 136381.0 131921.0 129474.0 126801.0 205377.0 202370.0 154219.0 161126.0 141346.0 146422.0 237646.0 234539.0 229173.0 232443.0 218357.0 219877.0 173522.0 170998.0 228982.0 220989.0 127354.0 124639.0 78165.0 78457.0 274900.0 276450.0 38106.0 46386.0 76306.0 84115.0 55110.0 47339.0 137938.0 143005.0 20347.0 25733.0 186804.0 179804.0 225861.0 218566.0 59230.0 53206.0 243402.0 236487.0 243402.0 243402.0 243402.0 243402.0 236487.0 236487.0 236487.0 236487.0
320441.0 328262.0 36668.0 44792.0 285172.0 279102.0 275867.0 280610.0 317839.0 318181.0 186264.0 178880.0 0.0 8311.0 311625.0 303458.0 248452.0 249163.0 66016.0 57825.0 100071.0 91934.0 72853.0 79801.0 22592.0 26639.0 349891.0 341776.0 31951.0 26387.0 38122.0 34918.0 40899.0 46520.0 55380.0 61281.0 56691.0 55079.0 122427.0 128881.0 129788.0 121626.0 157177.0 161807.0 47510.0 41095.0 48370.0 40506.0 61632.0 57063.0 57462.0 63468.0 169806.0 177095.0 120591.0 127237.0 233467.0 228064.0 100588.0 108707.0 100730.0 100974.0 240124.0 245980.0 144407.0 138058.0 209735.0 213864.0 212165.0 208765.0 127637.0 135056.0 191373.0 189388.0 23734.0 26252.0 48315.0 40552.0 230311.0 227014.0 89809.0 189257.0 89809.0 89809.0 89809.0 89809.0 189257.0 189257.0 189257.0 189257.0
313887.0 321678.0 36621.0 44431.0 278075.0 271925.0 269289.0 274151.0 311295.0 311760.0 179821.0 172538.0 8311.0 0.0 305245.0 297078.0 241676.0 242229.0 58104.0 50010.0 95147.0 86847.0 75370.0 81873.0 20944.0 22454.0 342996.0 334862.0 39712.0 33525.0 45908.0 43104.0 32592.0 38263.0 47290.0 53425.0 56444.0 53685.0 114257.0 120656.0 121542.0 113359.0 150500.0 154927.0 39439.0 33341.0 40105.0 32267.0 66214.0 62310.0 60482.0 65845.0 163347.0 170522.0 113336.0 119823.0 226062.0 220564.0 92306.0 100418.0 94518.0 94326.0 233752.0 239580.0 138675.0 132578.0 201877.0 205924.0 204757.0 201500.0 119482.0 126956.0 184577.0 182400.0 21804.0 21648.0 53560.0 46082.0 223236.0 220086.0 88942.0 182886.0 88942.0 88942.0 88942.0 88942.0 182886.0 182886.0 182886.0 182886.0
24271.0 30237.0 332903.0 337413.0 59713.0 66740.0 40278.0 32831.0 22567.0 16121.0 331860.0 332003.0 311625.0 305245.0 0.0 8282.0 69044.0 73199.0 280773.0 285515.0 330633.0 325527.0 297062.0 294411.0 319148.0 313350.0 60542.0 56123.0 342581.0 337949.0 332594.0 335785.0 282191.0 274125.0 263700.0 255770.0 277477.0 271743.0 214598.0 214192.0 215666.0 222552.0 155182.0 151909.0 270155.0 273534.0 279643.0 285190.0 313401.0 317939.0 299763.0 294906.0 141915.0 134956.0 194940.0 190517.0 103285.0 111265.0 237097.0 233024.0 311089.0 303115.0 73021.0 65941.0 333868.0 336538.0 273976.0 268275.0 302363.0 308365.0 210242.0 202224.0 321777.0 313786.0 290956.0 285737.0 315206.0 315123.0 325725.0 330993.0 280842.0 124149.0 280842.0 280842.0 280842.0 280842.0 124149.0 124149.0 124149.0 124149.0
25194.0 32462.0 324736.0 329246.0 52958.0 59666.0 32013.0 24552.0 22884.0 18508.0 323622.0 323746.0 303458.0 297078.0 8282.0 0.0 60777.0 64927.0 272605.0 277347.0 322483.0 317366.0 288895.0 286244.0 310981.0 305182.0 62504.0 57170.0 334414.0 329782.0 324427.0 327618.0 274024.0 265957.0 255533.0 247602.0 269310.0 263576.0 206431.0 206001.0 207462.0 214377.0 147014.0 143742.0 261988.0 265366.0 271475.0 277023.0 305233.0 309772.0 291596.0 286739.0 133747.0 126789.0 186773.0 182350.0 95087.0 103062.0 228911.0 224856.0 302911.0 294931.0 64854.0 57773.0 325592.0 328271.0 265944.0 260285.0 294295.0 300263.0 202070.0 194044.0 313569.0 305581.0 282789.0 277570.0 307039.0 306955.0 317723.0 322952.0 272674.0 115982.0 272674.0 272674.0 272674.0 272674.0 115982.0 115982.0 115982.0 115982.0
73165.0 80647.0 267628.0 271738.0 40965.0 38242.0 29371.0 36247.0 70701.0 72587.0 263906.0 263740.0 248452.0 241676.0 69044.0 60777.0 0.0 8300.0 213702.0 218831.0 262214.0 257304.0 235515.0 232864.0 254415.0 248262.0 101650.0 93637.0 279849.0 274838.0 270906.0 273893.0 216947.0 208931.0 198479.0 190729.0 215929.0 210178.0 146337.0 145551.0 146936.0 154028.0 91318.0 86812.0 205273.0 209238.0 213865.0 219794.0 251853.0 256391.0 238216.0 233358.0 79514.0 71756.0 129410.0 124262.0 37930.0 45342.0 169321.0 164875.0 242495.0 234486.0 28991.0 22901.0 264841.0 267494.0 208977.0 203848.0 236799.0 242346.0 141828.0 133685.0 254276.0 246337.0 228606.0 223019.0 253659.0 253575.0 260916.0 265685.0 219294.0 63526.0 219294.0 219294.0 219294.0 219294.0 63526.0 63526.0 63526.0 63526.0
74735.0 81865.0 267324.0 271216.0 37198.0 33112.0 32927.0 40505.0 72404.0 75076.0 258815.0 258854.0 249163.0 242229.0 73199.0 64927.0 8300.0 0.0 212414.0 217792.0 259709.0 255016.0 237714.0 235064.0 254404.0 248083.0 100780.0 92635.0 280730.0 275532.0 272579.0 275345.0 216747.0 208776.0 198334.0 190699.0 218129.0 212325.0 144208.0 142983.0 144243.0 151579.0 92462.0 87365.0 205286.0 209529.0 213381.0 219507.0 254053.0 258562.0 240415.0 235558.0 81500.0 73522.0 129358.0 123804.0 31140.0 38881.0 167584.0 162809.0 239828.0 231784.0 37007.0 31176.0 260979.0 263856.0 202710.0 197427.0 230715.0 236408.0 139545.0 131278.0 248935.0 240967.0 229778.0 223974.0 255840.0 255592.0 254638.0 259545.0 221494.0 67000.0 221494.0 221494.0 221494.0 221494.0 67000.0 67000.0 67000.0 67000.0
286823.0 294169.0 61408.0 62545.0 245542.0 238543.0 242808.0 248841.0 284386.0 286135.0 127278.0 120711.0 66016.0 58104.0 280773.0 272605.0 213702.0 212414.0 0.0 8408.0 59633.0 51850.0 121040.0 125348.0 54803.0 46765.0 311819.0 303584.0 92752.0 84895.0 104011.0 100826.0 28546.0 29200.0 31981.0 37933.0 94713.0 87966.0 70206.0 74212.0 74147.0 65593.0 127969.0 129610.0 33796.0 40424.0 20811.0 27039.0 118764.0 116638.0 109185.0 111993.0 142344.0 147772.0 87300.0 90544.0 190782.0 184132.0 45812.0 52373.0 47905.0 43938.0 212133.0 216865.0 91965.0 88059.0 143775.0 147849.0 147533.0 144781.0 75441.0 83878.0 130064.0 126961.0 67471.0 59898.0 108280.0 101697.0 167185.0 164684.0 123494.0 162894.0 123494.0 123494.0 123494.0 123494.0 162894.0 162894.0 162894.0 162894.0
291993.0 299411.0 53643.0 55300.0 251367.0 244467.0 247810.0 253697.0 289531.0 291110.0 133364.0 126584.0 57825.0 50010.0 285515.0 277347.0 218831.0 217792.0 8408.0 0.0 60697.0 52477.0 115052.0 119695.0 46460.0 38431.0 317570.0 309338.0 84344.0 76492.0 95887.0 92564.0 22077.0 24650.0 30008.0 37127.0 89330.0 82921.0 76850.0 81295.0 81382.0 72808.0 131844.0 133922.0 29859.0 35411.0 15231.0 19933.0 111801.0 109395.0 102691.0 105861.0 146116.0 151845.0 91177.0 95013.0 196845.0 190332.0 52486.0 59471.0 51562.0 48706.0 216321.0 221270.0 96354.0 91865.0 151911.0 156070.0 155114.0 152164.0 82145.0 90514.0 136715.0 133892.0 60561.0 53288.0 100942.0 94191.0 174353.0 171646.0 119091.0 166617.0 119091.0 119091.0 119091.0 119091.0 166617.0 166617.0 166617.0 166617.0
334382.0 341301.0 71391.0 65513.0 289883.0 282366.0 291585.0 298228.0 332090.0 334657.0 91867.0 83885.0 100071.0 95147.0 330633.0 322483.0 262214.0 259709.0 59633.0 60697.0 0.0 8540.0 169321.0 175073.0 78635.0 73432.0 355918.0 347740.0 112547.0 104866.0 134645.0 128594.0 80194.0 84851.0 90617.0 97305.0 146169.0 140718.0 116077.0 116729.0 115490.0 108189.0 182408.0 182716.0 90265.0 94739.0 75234.0 76955.0 161333.0 157104.0 155142.0 159796.0 196844.0 201311.0 142630.0 144201.0 234548.0 227158.0 94680.0 97802.0 20468.0 28497.0 264519.0 268413.0 46408.0 38994.0 137236.0 143668.0 128959.0 123298.0 120421.0 128531.0 100349.0 100918.0 113264.0 107839.0 148345.0 140620.0 141133.0 136137.0 177758.0 217268.0 177758.0 177758.0 177758.0 177758.0 217268.0 217268.0 217268.0 217268.0
329741.0 336746.0 64349.0 58936.0 285763.0 278324.0 286668.0 293203.0 327419.0 329835.0 98104.0 90223.0 91934.0 86847.0 325527.0 317366.0 257304.0 255016.0 51850.0 52477.0 8540.0 0.0 160847.0 166568.0 70760.0 65308.0 351927.0 343730.0 105475.0 97684.0 126947.0 121055.0 71708.0 76475.0 82458.0 89286.0 137631.0 132179.0 110977.0 112122.0 111035.0 103454.0 176205.0 176780.0 81911.0 86274.0 66863.0 68450.0 153057.0 148918.0 146722.0 151327.0 190655.0 195329.0 136142.0 138041.0 230415.0 223128.0 88870.0 92510.0 19156.0 26320.0 258865.0 262932.0 53423.0 46438.0 139906.0 146072.0 133240.0 127928.0 115499.0 123738.0 105878.0 105925.0 104779.0 99312.0 140155.0 132462.0 146543.0 141844.0 169228.0 211139.0 169228.0 169228.0 169228.0 169228.0 211139.0 211139.0 211139.0 211139.0
306028.0 313913.0 109301.0 117454.0 274850.0 269940.0 261586.0 266072.0 303406.0 303615.0 248289.0 241609.0 72853.0 75370.0 297062.0 288895.0 235515.0 237714.0 121040.0 115052.0 169321.0 160847.0 0.0 7995.0 95298.0 97822.0 336985.0 329050.0 83978.0 85778.0 58400.0 65773.0 92975.0 92111.0 93287.0 92541.0 27956.0 35883.0 147117.0 155087.0 157049.0 151065.0 147536.0 154622.0 88331.0 80874.0 100295.0 95339.0 21521.0 28723.0 15748.0 9548.0 156255.0 164355.0 125275.0 133454.0 229658.0 226375.0 134015.0 141542.0 165570.0 163616.0 225557.0 231413.0 210553.0 205243.0 256941.0 259367.0 265703.0 263910.0 151086.0 155667.0 250925.0 247450.0 56080.0 62164.0 32612.0 38864.0 286951.0 284999.0 36893.0 174691.0 36893.0 36893.0 36893.0 36893.0 174691.0 174691.0 174691.0 174691.0
303378.0 311262.0 116384.0 124532.0 272199.0 267289.0 258935.0 263421.0 300755.0 300964.0 252608.0 246053.0 79801.0 81873.0 294411.0 286244.0 232864.0 235064.0 125348.0 119695.0 175073.0 166568.0 7995.0 0.0 102101.0 104281.0 334334.0 326399.0 91881.0 93542.0 66395.0 73761.0 97654.0 96226.0 96623.0 95244.0 30848.0 38321.0 147717.0 155735.0 157785.0 152125.0 144895.0 151979.0 92154.0 84967.0 104738.0 100194.0 29168.0 36493.0 23411.0 16438.0 153604.0 161704.0 124074.0 132259.0 227021.0 223734.0 135790.0 143121.0 170628.0 168379.0 222906.0 228762.0 215632.0 210514.0 259223.0 261427.0 268770.0 267199.0 151489.0 155692.0 254870.0 251195.0 61878.0 67413.0 40607.0 46807.0 290382.0 288626.0 31861.0 172040.0 31861.0 31861.0 31861.0 31861.0 172040.0 172040.0 172040.0 172040.0
327188.0 334870.0 16000.0 23552.0 289527.0 283065.0 282600.0 287819.0 324634.0 325473.0 166997.0 159406.0 22592.0 20944.0 319148.0 310981.0 254415.0 254404.0 54803.0 46460.0 78635.0 70760.0 95298.0 102101.0 0.0 8042.0 355098.0 346911.0 38659.0 30590.0 56327.0 50909.0 37951.0 45742.0 56131.0 63709.0 77378.0 74554.0 119857.0 125341.0 125800.0 117299.0 163971.0 167692.0 49142.0 45805.0 42906.0 35645.0 84053.0 79175.0 80004.0 85856.0 177396.0 184193.0 125062.0 130763.0 236318.0 230371.0 96259.0 103942.0 81461.0 82823.0 247984.0 253800.0 123886.0 117169.0 195764.0 200460.0 195823.0 191865.0 125195.0 133211.0 172996.0 171598.0 42730.0 41556.0 70489.0 62618.0 212671.0 208916.0 109849.0 197172.0 109849.0 109849.0 109849.0 109849.0 197172.0 197172.0 197172.0 197172.0
321162.0 328804.0 19698.0 25682.0 282980.0 276441.0 276606.0 281940.0 318621.0 319585.0 160460.0 152957.0 26639.0 22454.0 313350.0 305182.0 248262.0 248083.0 46765.0 38431.0 73432.0 65308.0 97822.0 104281.0 8042.0 0.0 348694.0 340495.0 46542.0 38513.0 62746.0 57806.0 31337.0 39330.0 49782.0 57599.0 78026.0 74427.0 112361.0 117709.0 118114.0 109593.0 158187.0 161669.0 43214.0 40876.0 35581.0 28690.0 88089.0 83686.0 82904.0 88295.0 171786.0 178435.0 118851.0 124315.0 229514.0 223470.0 88609.0 96219.0 74833.0 75767.0 242462.0 248144.0 117978.0 111510.0 187968.0 192604.0 188411.0 184577.0 117703.0 125783.0 166123.0 164537.0 43259.0 40549.0 74932.0 67189.0 205587.0 201968.0 109735.0 191730.0 109735.0 109735.0 109735.0 109735.0 191730.0 191730.0 191730.0 191730.0
37325.0 30334.0 367838.0 371536.0 66330.0 73615.0 76524.0 74284.0 39744.0 44580.0 341524.0 343091.0 349891.0 342996.0 60542.0 62504.0 101650.0 100780.0 311819.0 317570.0 355918.0 351927.0 336985.0 334334.0 355098.0 348694.0 0.0 8235.0 381390.0 376268.0 372490.0 375535.0 317363.0 309421.0 298991.0 291409.0 317399.0 311665.0 242397.0 240126.0 241027.0 248920.0 192902.0 188087.0 306006.0 310306.0 313798.0 320067.0 353323.0 357861.0 339686.0 334828.0 181118.0 173403.0 230097.0 224380.0 121574.0 128799.0 266389.0 260956.0 335638.0 327549.0 117041.0 109278.0 351489.0 355457.0 276458.0 269716.0 305284.0 312277.0 237442.0 228994.0 329872.0 321873.0 330239.0 324586.0 355129.0 354969.0 326258.0 332561.0 320764.0 164164.0 320764.0 320764.0 320764.0 320764.0 164164.0 164164.0 164164.0 164164.0
32114.0 26140.0 359630.0 363317.0 58100.0 65409.0 68999.0 67162.0 34295.0 40002.0 333880.0 335377.0 341776.0 334862.0 56123.0 57170.0 93637.0 92635.0 303584.0 309338.0 347740.0 343730.0 329050.0 326399.0 346911.0 340495.0 8235.0 0.0 373296.0 368150.0 364525.0 367530.0 309166.0 301228.0 290800.0 283227.0 309464.0 303730.0 234167.0 231910.0 232817.0 240702.0 184836.0 179969.0 297825.0 302149.0 305585.0 311864.0 345388.0 349926.0 331751.0 326894.0 173136.0 165392.0 221923.0 216183.0 113360.0 120605.0 258155.0 252728.0 327468.0 319378.0 109680.0 101845.0 343509.0 347435.0 269158.0 262473.0 297994.0 304932.0 229215.0 220768.0 322301.0 314296.0 322186.0 316503.0 347194.0 347070.0 319152.0 325391.0 312829.0 156343.0 312829.0 312829.0 312829.0 312829.0 156343.0 156343.0 156343.0 156343.0
351528.0 359387.0 41161.0 47481.0 316882.0 310876.0 307008.0 311585.0 348912.0 349080.0 203301.0 195522.0 31951.0 39712.0 342581.0 334414.0 279849.0 280730.0 92752.0 84344.0 112547.0 105475.0 83978.0 91881.0 38659.0 46542.0 381390.0 373296.0 0.0 8114.0 27985.0 20072.0 71128.0 77586.0 86939.0 93126.0 77541.0 78702.0 153699.0 159901.0 160670.0 152364.0 188532.0 193368.0 79115.0 72989.0 77878.0 69988.0 65974.0 59056.0 68600.0 76046.0 200885.0 208307.0 152456.0 159164.0 265378.0 260004.0 131225.0 139230.0 118479.0 120612.0 271075.0 276932.0 158839.0 151539.0 234414.0 239118.0 234010.0 229826.0 158958.0 166537.0 210098.0 209122.0 51885.0 56844.0 52132.0 45155.0 250186.0 246123.0 110171.0 220209.0 110171.0 110171.0 110171.0 110171.0 220209.0 220209.0 220209.0 220209.0
346808.0 354635.0 33508.0 40213.0 311494.0 305386.0 302240.0 306957.0 344204.0 344515.0 195395.0 187637.0 26387.0 33525.0 337949.0 329782.0 274838.0 275532.0 84895.0 76492.0 104866.0 97684.0 85778.0 93542.0 30590.0 38513.0 376268.0 368150.0 8114.0 0.0 32787.0 25323.0 64004.0 70733.0 80340.0 86818.0 76652.0 76989.0 146774.0 152836.0 153540.0 145184.0 183563.0 188182.0 72584.0 66837.0 70521.0 62676.0 69071.0 62522.0 70131.0 77360.0 196164.0 203472.0 146820.0 153346.0 259586.0 254085.0 124034.0 131986.0 110459.0 112526.0 266457.0 272313.0 151086.0 143857.0 226323.0 231046.0 225906.0 221739.0 152057.0 159737.0 202096.0 201074.0 48256.0 52287.0 54954.0 47480.0 242142.0 238114.0 109736.0 215591.0 109736.0 109736.0 109736.0 109736.0 215591.0 215591.0 215591.0 215591.0
341561.0 349445.0 64576.0 72019.0 309380.0 303861.0 297118.0 301604.0 338938.0 339147.0 223187.0 215649.0 38122.0 45908.0 332594.0 324427.0 270906.0 272579.0 104011.0 95887.0 134645.0 126947.0 58400.0 66395.0 56327.0 62746.0 372490.0 364525.0 27985.0 32787.0 0.0 7962.0 77714.0 82063.0 89381.0 93659.0 58555.0 62117.0 155856.0 162863.0 164055.0 156249.0 180204.0 185903.0 81689.0 74096.0 85546.0 77880.0 38813.0 31594.0 44000.0 51609.0 191393.0 199194.0 147681.0 155121.0 260032.0 255314.0 135633.0 143831.0 137568.0 138397.0 261089.0 266945.0 180190.0 173384.0 247781.0 251825.0 250212.0 246714.0 160864.0 167684.0 228814.0 227072.0 45216.0 52867.0 25791.0 20478.0 268070.0 264600.0 88720.0 210223.0 88720.0 88720.0 88720.0 88720.0 210223.0 210223.0 210223.0 210223.0
344751.0 352636.0 57898.0 65112.0 311993.0 306333.0 300260.0 304794.0 342129.0 342338.0 217890.0 210275.0 34918.0 43104.0 335785.0 327618.0 273893.0 275345.0 100826.0 92564.0 128594.0 121055.0 65773.0 73761.0 50909.0 57806.0 375535.0 367530.0 20072.0 25323.0 7962.0 0.0 75563.0 80559.0 88535.0 93401.0 63839.0 66670.0 155480.0 162280.0 163355.0 155382.0 182887.0 188352.0 80719.0 73442.0 83191.0 75370.0 46609.0 39463.0 51001.0 58602.0 194431.0 202138.0 149257.0 156512.0 261992.0 257083.0 134540.0 142717.0 132369.0 133565.0 264280.0 270136.0 174423.0 167466.0 244394.0 248631.0 246009.0 242310.0 160575.0 167631.0 223863.0 222341.0 46229.0 53280.0 33265.0 27215.0 263393.0 259747.0 94953.0 213414.0 94953.0 94953.0 94953.0 94953.0 213414.0 213414.0 213414.0 213414.0
289882.0 297510.0 50726.0 55447.0 251682.0 245175.0 245343.0 250733.0 287347.0 288368.0 155398.0 148650.0 40899.0 32592.0 282191.0 274024.0 216947.0 216747.0 28546.0 22077.0 80194.0 71708.0 92975.0 97654.0 37951.0 31337.0 317363.0 309166.0 71128.0 64004.0 77714.0 75563.0 0.0 8076.0 18495.0 26468.0 67413.0 61228.0 82834.0 88832.0 89555.0 81236.0 127091.0 130416.0 12777.0 14648.0 8031.0 3612.0 90224.0 88209.0 80736.0 83793.0 140828.0 147344.0 87541.0 92983.0 198370.0 192423.0 60099.0 68124.0 73200.0 70725.0 211534.0 217098.0 118151.0 113376.0 171032.0 174718.0 175867.0 173251.0 88137.0 95938.0 158525.0 155498.0 38938.0 31374.0 79936.0 73562.0 195720.0 193227.0 97835.0 160920.0 97835.0 97835.0 97835.0 97835.0 160920.0 160920.0 160920.0 160920.0
281845.0 289480.0 58783.0 63513.0 243795.0 237323.0 237299.0 242674.0 279308.0 280312.0 156386.0 149882.0 46520.0 38263.0 274125.0 265957.0 208931.0 208776.0 29200.0 24650.0 84851.0 76475.0 92111.0 96226.0 45742.0 39330.0 309421.0 301228.0 77586.0 70733.0 82063.0 80559.0 8076.0 0.0 10452.0 18392.0 65533.0 58771.0 76114.0 82408.0 83278.0 75106.0 119017.0 122367.0 5523.0 11261.0 9617.0 11317.0 91250.0 89878.0 80848.0 83207.0 132752.0 139270.0 79521.0 85051.0 190621.0 184741.0 54093.0 62236.0 76144.0 72878.0 203459.0 209023.0 120776.0 116458.0 168547.0 171922.0 174672.0 172418.0 81373.0 89005.0 158814.0 155408.0 40545.0 32430.0 81908.0 76036.0 195201.0 193029.0 94554.0 152851.0 94554.0 94554.0 94554.0 94554.0 152851.0 152851.0 152851.0 152851.0
271395.0 279029.0 69221.0 73842.0 233397.0 226949.0 226851.0 232238.0 268858.0 269873.0 157027.0 150864.0 55380.0 47290.0 263700.0 255533.0 198479.0 198334.0 31981.0 30008.0 90617.0 82458.0 93287.0 96623.0 56131.0 49782.0 298991.0 290800.0 86939.0 80340.0 89381.0 88535.0 18495.0 10452.0 0.0 8151.0 65791.0 58407.0 67109.0 73761.0 74821.0 66896.0 108618.0 111922.0 7877.0 15333.0 17385.0 21545.0 94786.0 94188.0 83398.0 84849.0 122399.0 128871.0 69069.0 74634.0 180330.0 174509.0 46286.0 54484.0 79887.0 75685.0 193105.0 198632.0 123703.0 119998.0 164656.0 167623.0 172426.0 170647.0 72288.0 79678.0 158540.0 154658.0 45806.0 37551.0 86653.0 81414.0 193769.0 192019.0 92538.0 142547.0 92538.0 92538.0 92538.0 92538.0 142547.0 142547.0 142547.0 142547.0
263577.0 271232.0 77135.0 81898.0 225938.0 219562.0 219013.0 224343.0 261033.0 261987.0 160366.0 154459.0 61281.0 53425.0 255770.0 247602.0 190729.0 190699.0 37933.0 37127.0 97305.0 89286.0 92541.0 95244.0 63709.0 57599.0 291409.0 283227.0 93126.0 86818.0 93659.0 93401.0 26468.0 18392.0 8151.0 0.0 64669.0 56945.0 62198.0 69261.0 70548.0 63001.0 100639.0 104075.0 14606.0 20211.0 25430.0 29626.0 95891.0 95921.0 83827.0 84547.0 114360.0 120892.0 61353.0 67174.0 173160.0 167466.0 43232.0 51315.0 85549.0 80836.0 185067.0 190639.0 128664.0 125348.0 164464.0 167073.0 173565.0 172164.0 67227.0 74235.0 161219.0 156996.0 49023.0 40954.0 88803.0 84128.0 195498.0 194072.0 89435.0 134468.0 89435.0 89435.0 89435.0 89435.0 134468.0 134468.0 134468.0 134468.0
286443.0 294328.0 92809.0 100765.0 255254.0 250235.0 242000.0 246486.0 283821.0 284030.0 221902.0 215415.0 56691.0 56444.0 277477.0 269310.0 215929.0 218129.0 94713.0 89330.0 146169.0 137631.0 27956.0 30848.0 77378.0 78026.0 317399.0 309464.0 77541.0 76652.0 58555.0 63839.0 67413.0 65533.0 65791.0 64669.0 0.0 8000.0 119791.0 127706.0 129597.0 123410.0 126882.0 133415.0 61349.0 54290.0 74242.0 70148.0 37057.0 40667.0 23163.0 20893.0 136643.0 144680.0 100425.0 108519.0 208615.0 204737.0 106094.0 113667.0 140598.0 138032.0 205971.0 211828.0 185563.0 180699.0 229004.0 231411.0 238053.0 236407.0 123921.0 128870.0 224045.0 220348.0 34802.0 38536.0 37857.0 38942.0 259559.0 257780.0 33292.0 155105.0 33292.0 33292.0 33292.0 33292.0 155105.0 155105.0 155105.0 155105.0
280709.0 288594.0 90303.0 98094.0 249386.0 244233.0 236266.0 240752.0 278087.0 278296.0 214960.0 208565.0 55079.0 53685.0 271743.0 263576.0 210178.0 212325.0 87966.0 82921.0 140718.0 132179.0 35883.0 38321.0 74554.0 74427.0 311665.0 303730.0 78702.0 76989.0 62117.0 66670.0 61228.0 58771.0 58407.0 56945.0 8000.0 0.0 111819.0 119727.0 121610.0 115410.0 120644.0 126994.0 54351.0 47611.0 67735.0 64141.0 44365.0 47369.0 30581.0 28857.0 130833.0 138810.0 93049.0 101102.0 202097.0 198064.0 98135.0 105687.0 134385.0 131546.0 200237.0 206094.0 179269.0 174600.0 221158.0 223518.0 230449.0 228894.0 115972.0 120984.0 216867.0 213059.0 31912.0 34071.0 43598.0 43503.0 252105.0 250420.0 35337.0 149371.0 35337.0 35337.0 35337.0 35337.0 149371.0 149371.0 149371.0 149371.0
218938.0 226043.0 129846.0 132100.0 176068.0 168894.0 175696.0 182231.0 216588.0 218892.0 139640.0 136381.0 122427.0 114257.0 214598.0 206431.0 146337.0 144208.0 70206.0 76850.0 116077.0 110977.0 147117.0 147717.0 119857.0 112361.0 242397.0 234167.0 153699.0 146774.0 155856.0 155480.0 82834.0 76114.0 67109.0 62198.0 119791.0 111819.0 0.0 8048.0 10339.0 9609.0 70263.0 68731.0 74984.0 82040.0 76975.0 84507.0 154821.0 155953.0 141688.0 140676.0 84120.0 87231.0 38087.0 34649.0 120976.0 114138.0 24404.0 18615.0 96746.0 88877.0 148891.0 152493.0 125539.0 126315.0 118291.0 118690.0 135372.0 136664.0 5344.0 13675.0 135138.0 128642.0 111049.0 103088.0 149529.0 145540.0 160204.0 161155.0 136518.0 103757.0 136518.0 136518.0 136518.0 136518.0 103757.0 103757.0 103757.0 103757.0
217675.0 224640.0 134715.0 136581.0 173851.0 166522.0 174915.0 181650.0 215373.0 217936.0 134817.0 131921.0 128881.0 120656.0 214192.0 206001.0 145551.0 142983.0 74212.0 81295.0 116729.0 112122.0 155087.0 155735.0 125341.0 117709.0 240126.0 231910.0 159901.0 152836.0 162863.0 162280.0 88832.0 82408.0 73761.0 69261.0 127706.0 119727.0 8048.0 0.0 2658.0 8830.0 73616.0 71265.0 81609.0 88866.0 82618.0 90299.0 162578.0 163602.0 149507.0 148584.0 87024.0 89462.0 44517.0 40089.0 118553.0 111459.0 29103.0 21845.0 96945.0 88942.0 149675.0 152887.0 123150.0 124446.0 110815.0 111028.0 128581.0 130149.0 6256.0 12123.0 129713.0 123010.0 118243.0 110213.0 157078.0 152956.0 153580.0 154772.0 144566.0 106109.0 144566.0 144566.0 144566.0 144566.0 106109.0 106109.0 106109.0 106109.0
218894.0 225816.0 134909.0 136619.0 174790.0 167413.0 176289.0 183077.0 216607.0 219245.0 132315.0 129474.0 129788.0 121542.0 215666.0 207462.0 146936.0 144243.0 74147.0 81382.0 115490.0 111035.0 157049.0 157785.0 125800.0 118114.0 241027.0 232817.0 160670.0 153540.0 164055.0 163355.0 89555.0 83278.0 74821.0 70548.0 129597.0 121610.0 10339.0 2658.0 0.0 8574.0 75984.0 73495.0 82644.0 89997.0 83191.0 90927.0 164297.0 165228.0 151288.0 150462.0 89304.0 91614.0 47175.0 42722.0 119459.0 112286.0 29566.0 21950.0 95595.0 87566.0 151470.0 154584.0 121112.0 122528.0 108221.0 108482.0 125923.0 127493.0 8902.0 14049.0 127135.0 120410.0 119565.0 111497.0 158627.0 154410.0 150922.0 152119.0 146755.0 108273.0 146755.0 146755.0 146755.0 146755.0 108273.0 108273.0 108273.0 108273.0
226294.0 233292.0 126337.0 128050.0 182634.0 175321.0 183398.0 190072.0 223980.0 226476.0 130117.0 126801.0 121626.0 113359.0 222552.0 214377.0 154028.0 151579.0 65593.0 72808.0 108189.0 103454.0 151065.0 152125.0 117299.0 109593.0 248920.0 240702.0 152364.0 145184.0 156249.0 155382.0 81236.0 75106.0 66896.0 63001.0 123410.0 115410.0 9609.0 8830.0 8574.0 0.0 79765.0 78030.0 74672.0 82153.0 74764.0 82533.0 157570.0 158263.0 144741.0 144207.0 93535.0 96452.0 47286.0 44201.0 127351.0 120276.0 21150.0 13389.0 88537.0 80576.0 157533.0 160928.0 116148.0 117087.0 110904.0 111736.0 126943.0 127966.0 12502.0 20344.0 125789.0 119384.0 112000.0 103874.0 151488.0 147071.0 151584.0 152328.0 141709.0 113029.0 141709.0 141709.0 141709.0 141709.0 113029.0 113029.0 113029.0 113029.0
163425.0 171192.0 177769.0 182431.0 129176.0 123744.0 118816.0 123867.0 160844.0 161520.0 207974.0 205377.0 157177.0 150500.0 155182.0 147014.0 91318.0 92462.0 127969.0 131844.0 182408.0 176205.0 147536.0 144895.0 163971.0 158187.0 192902.0 184836.0 188532.0 183563.0 180204.0 182887.0 127091.0 119017.0 108618.0 100639.0 126882.0 120644.0 70263.0 73616.0 75984.0 79765.0 0.0 8000.0 114982.0 118414.0 124851.0 130146.0 163392.0 167538.0 149603.0 145159.0 14452.0 20253.0 40692.0 38210.0 82126.0 78999.0 87949.0 86268.0 164360.0 156862.0 84639.0 90016.0 195754.0 196291.0 173765.0 171739.0 196200.0 199128.0 67811.0 62381.0 202012.0 194925.0 137358.0 131703.0 164241.0 163574.0 221688.0 224008.0 131325.0 34986.0 131325.0 131325.0 131325.0 131325.0 34986.0 34986.0 34986.0 34986.0
159506.0 167178.0 181142.0 185530.0 123686.0 117987.0 114938.0 120347.0 156959.0 157964.0 204691.0 202370.0 161807.0 154927.0 151909.0 143742.0 86812.0 87365.0 129610.0 133922.0 182716.0 176780.0 154622.0 151979.0 167692.0 161669.0 188087.0 179969.0 193368.0 188182.0 185903.0 188352.0 130416.0 122367.0 111922.0 104075.0 133415.0 126994.0 68731.0 71265.0 73495.0 78030.0 8000.0 0.0 118569.0 122428.0 127735.0 133359.0 170102.0 174081.0 156269.0 152002.0 16043.0 18629.0 43032.0 39083.0 75235.0 71755.0 88037.0 85626.0 164241.0 156601.0 82530.0 87349.0 194171.0 195046.0 168274.0 165996.0 191302.0 194482.0 65753.0 59585.0 198286.0 191069.0 142558.0 136636.0 170558.0 169652.0 216803.0 219348.0 138409.0 35028.0 138409.0 138409.0 138409.0 138409.0 35028.0 35028.0 35028.0 35028.0
278073.0 285744.0 62847.0 67940.0 240544.0 234163.0 233495.0 238772.0 275524.0 276422.0 160613.0 154219.0 47510.0 39439.0 270155.0 261988.0 205273.0 205286.0 33796.0 29859.0 90265.0 81911.0 88331.0 92154.0 49142.0 43214.0 306006.0 297825.0 79115.0 72584.0 81689.0 80719.0 12777.0 5523.0 7877.0 14606.0 61349.0 54351.0 74984.0 81609.0 82644.0 74672.0 114982.0 118569.0 0.0 8061.0 15059.0 16293.0 88534.0 87567.0 77639.0 79603.0 128577.0 135227.0 75931.0 81777.0 187711.0 181971.0 53946.0 62143.0 81185.0 77680.0 199262.0 204930.0 125661.0 121489.0 170883.0 174049.0 177789.0 175739.0 80165.0 87546.0 162720.0 159132.0 38659.0 30404.0 79829.0 74324.0 198671.0 196668.0 89706.0 148561.0 89706.0 89706.0 89706.0 89706.0 148561.0 148561.0 148561.0 148561.0
281792.0 289521.0 60525.0 66353.0 245127.0 238882.0 237185.0 242277.0 279223.0 279928.0 167643.0 161126.0 41095.0 33341.0 273534.0 265366.0 209238.0 209529.0 40424.0 35411.0 94739.0 86274.0 80874.0 84967.0 45805.0 40876.0 310306.0 302149.0 72989.0 66837.0 74096.0 73442.0 14648.0 11261.0 15333.0 20211.0 54290.0 47611.0 82040.0 88866.0 89997.0 82153.0 118414.0 122428.0 8061.0 0.0 20182.0 18113.0 80545.0 79515.0 69819.0 72012.0 131692.0 138593.0 80314.0 86607.0 192813.0 187258.0 61615.0 69813.0 86969.0 83945.0 202271.0 208096.0 131744.0 127261.0 178911.0 182100.0 185604.0 183459.0 87152.0 94324.0 170053.0 166606.0 30629.0 22368.0 71769.0 66292.0 206312.0 204203.0 83699.0 151405.0 83699.0 83699.0 83699.0 83699.0 151405.0 151405.0 151405.0 151405.0
286940.0 294501.0 54109.0 57874.0 247903.0 241264.0 242490.0 248058.0 284428.0 285644.0 147995.0 141346.0 48370.0 40105.0 279643.0 271475.0 213865.0 213381.0 20811.0 15231.0 75234.0 66863.0 100295.0 104738.0 42906.0 35581.0 313798.0 305585.0 77878.0 70521.0 85546.0 83191.0 8031.0 9617.0 17385.0 25430.0 74242.0 67735.0 76975.0 82618.0 83191.0 74764.0 124851.0 127735.0 15059.0 20182.0 0.0 7924.0 98096.0 96180.0 88378.0 91209.0 138827.0 145069.0 84707.0 89620.0 194150.0 188019.0 53630.0 61503.0 66793.0 63820.0 209472.0 214819.0 111567.0 107093.0 163009.0 166717.0 167896.0 165334.0 82310.0 90306.0 150875.0 147738.0 46847.0 39143.0 87935.0 81589.0 187867.0 185447.0 103862.0 159119.0 103862.0 103862.0 103862.0 103862.0 159119.0 159119.0 159119.0 159119.0
292776.0 300385.0 47835.0 52298.0 254310.0 247756.0 248259.0 253699.0 290248.0 291323.0 153253.0 146422.0 40506.0 32267.0 285190.0 277023.0 219794.0 219507.0 27039.0 19933.0 76955.0 68450.0 95339.0 100194.0 35645.0 28690.0 320067.0 311864.0 69988.0 62676.0 77880.0 75370.0 3612.0 11317.0 21545.0 29626.0 70148.0 64141.0 84507.0 90299.0 90927.0 82533.0 130146.0 133359.0 16293.0 18113.0 7924.0 0.0 91901.0 89627.0 82783.0 86080.0 143944.0 150397.0 90419.0 95708.0 200832.0 194812.0 61386.0 69312.0 70476.0 68277.0 214649.0 220162.0 115469.0 110553.0 170306.0 174133.0 174570.0 171804.0 89830.0 97740.0 156641.0 153763.0 40636.0 33387.0 81246.0 74670.0 194133.0 191512.0 100912.0 164086.0 100912.0 100912.0 100912.0 100912.0 164086.0 164086.0 164086.0 164086.0
322367.0 330251.0 96383.0 104437.0 291188.0 286282.0 277924.0 282410.0 319745.0 319954.0 244699.0 237646.0 61632.0 66214.0 313401.0 305233.0 251853.0 254053.0 118764.0 111801.0 161333.0 153057.0 21521.0 29168.0 84053.0 88089.0 353323.0 345388.0 65974.0 69071.0 38813.0 46609.0 90224.0 91250.0 94786.0 95891.0 37057.0 44365.0 154821.0 162578.0 164297.0 157570.0 163392.0 170102.0 88534.0 80545.0 98096.0 91901.0 0.0 7456.0 13903.0 18831.0 172590.0 180691.0 137397.0 145461.0 245337.0 241596.0 138909.0 146835.0 160114.0 159188.0 241895.0 247751.0 204655.0 198714.0 259380.0 262408.0 265860.0 263419.0 159223.0 164661.0 248499.0 245662.0 51295.0 58999.0 14177.0 21991.0 285945.0 283407.0 57108.0 191029.0 57108.0 57108.0 57108.0 57108.0 191029.0 191029.0 191029.0 191029.0
326905.0 334790.0 90860.0 98839.0 295721.0 290784.0 282462.0 286948.0 324283.0 324492.0 241701.0 234539.0 57063.0 62310.0 317939.0 309772.0 256391.0 258562.0 116638.0 109395.0 157104.0 148918.0 28723.0 36493.0 79175.0 83686.0 357861.0 349926.0 59056.0 62522.0 31594.0 39463.0 88209.0 89878.0 94188.0 95921.0 40667.0 47369.0 155953.0 163602.0 165228.0 158263.0 167538.0 174081.0 87567.0 79515.0 96180.0 89627.0 7456.0 0.0 18404.0 24764.0 177127.0 185194.0 140207.0 148193.0 249274.0 245351.0 139127.0 147151.0 156710.0 156126.0 246434.0 252290.0 200985.0 194855.0 258383.0 261615.0 264074.0 261419.0 160491.0 166216.0 245878.0 243256.0 49414.0 57448.0 8764.0 16558.0 283741.0 281013.0 63495.0 195567.0 63495.0 63495.0 63495.0 63495.0 195567.0 195567.0 195567.0 195567.0
308729.0 316614.0 93744.0 101896.0 277514.0 272641.0 264287.0 268773.0 306107.0 306316.0 236035.0 229173.0 57462.0 60482.0 299763.0 291596.0 238216.0 240415.0 109185.0 102691.0 155142.0 146722.0 15748.0 23411.0 80004.0 82904.0 339686.0 331751.0 68600.0 70131.0 44000.0 51001.0 80736.0 80848.0 83398.0 83827.0 23163.0 30581.0 141688.0 149507.0 151288.0 144741.0 149603.0 156269.0 77639.0 69819.0 88378.0 82783.0 13903.0 18404.0 0.0 7611.0 158956.0 167042.0 123552.0 131630.0 231501.0 227726.0 126506.0 134329.0 152365.0 150856.0 228258.0 234114.0 197233.0 191660.0 247999.0 250805.0 255415.0 253260.0 145998.0 151266.0 239243.0 236091.0 42481.0 49403.0 18777.0 23799.0 276038.0 273774.0 45843.0 177392.0 45843.0 45843.0 45843.0 45843.0 177392.0 177392.0 177392.0 177392.0
303872.0 311757.0 99999.0 108150.0 272694.0 267744.0 259430.0 263915.0 301250.0 301459.0 239176.0 232443.0 63468.0 65845.0 294906.0 286739.0 233358.0 235558.0 111993.0 105861.0 159796.0 151327.0 9548.0 16438.0 85856.0 88295.0 334828.0 326894.0 76046.0 77360.0 51609.0 58602.0 83793.0 83207.0 84849.0 84547.0 20893.0 28857.0 140676.0 148584.0 150462.0 144207.0 145159.0 152002.0 79603.0 72012.0 91209.0 86080.0 18831.0 24764.0 7611.0 0.0 154099.0 162199.0 120693.0 128832.0 227217.0 223641.0 126604.0 134271.0 156200.0 154347.0 223401.0 229257.0 201168.0 195806.0 249007.0 251591.0 257246.0 255320.0 144814.0 149739.0 241984.0 238613.0 46580.0 52809.0 26267.0 31391.0 278273.0 276214.0 38771.0 172534.0 38771.0 38771.0 38771.0 38771.0 172534.0 172534.0 172534.0 172534.0
150656.0 158504.0 191420.0 196241.0 118612.0 113692.0 106123.0 110812.0 148046.0 148413.0 220716.0 218357.0 169806.0 163347.0 141915.0 133747.0 79514.0 81500.0 142344.0 146116.0 196844.0 190655.0 156255.0 153604.0 177396.0 171786.0 181118.0 173136.0 200885.0 196164.0 191393.0 194431.0 140828.0 132752.0 122399.0 114360.0 136643.0 130833.0 84120.0 87024.0 89304.0 93535.0 14452.0 16043.0 128577.0 131692.0 138827.0 143944.0 172590.0 177127.0 158956.0 154099.0 0.0 8150.0 55045.0 52642.0 75254.0 73407.0 102338.0 100489.0 178737.0 171211.0 70707.0 76406.0 209658.0 210346.0 183724.0 181247.0 207083.0 210360.0 81388.0 75469.0 214328.0 207104.0 149369.0 144055.0 174340.0 174146.0 232582.0 235216.0 140034.0 20556.0 140034.0 140034.0 140034.0 140034.0 20556.0 20556.0 20556.0 20556.0
143367.0 151171.0 198022.0 202678.0 110587.0 105600.0 98776.0 103694.0 140773.0 141340.0 221952.0 219877.0 177095.0 170522.0 134956.0 126789.0 71756.0 73522.0 147772.0 151845.0 201311.0 195329.0 164355.0 161704.0 184193.0 178435.0 173403.0 165392.0 208307.0 203472.0 199194.0 202138.0 147344.0 139270.0 128871.0 120892.0 144680.0 138810.0 87231.0 89462.0 91614.0 96452.0 20253.0 18629.0 135227.0 138593.0 145069.0 150397.0 180691.0 185194.0 167042.0 162199.0 8150.0 0.0 60677.0 57422.0 67280.0 65669.0 106639.0 104247.0 182868.0 175230.0 64494.0 69769.0 212536.0 213524.0 182506.0 179704.0 206549.0 210119.0 84094.0 77611.0 215108.0 207755.0 156912.0 151463.0 182344.0 182074.0 232018.0 234917.0 148135.0 16669.0 148135.0 148135.0 148135.0 148135.0 16669.0 16669.0 16669.0 16669.0
202357.0 209972.0 138241.0 142525.0 164814.0 158597.0 157846.0 163354.0 199828.0 200952.0 177137.0 173522.0 120591.0 113336.0 194940.0 186773.0 129410.0 129358.0 87300.0 91177.0 142630.0 136142.0 125275.0 124074.0 125062.0 118851.0 230097.0 221923.0 152456.0 146820.0 147681.0 149257.0 87541.0 79521.0 69069.0 61353.0 100425.0 93049.0 38087.0 44517.0 47175.0 47286.0 40692.0 43032.0 75931.0 80314.0 84707.0 90419.0 137397.0 140207.0 123552.0 120693.0 55045.0 60677.0 0.0 8186.0 112984.0 107858.0 49353.0 49572.0 125248.0 118031.0 125169.0 130264.0 159528.0 159223.0 154721.0 154417.0 173097.0 174613.0 38330.0 37691.0 173068.0 166663.0 103033.0 96381.0 135400.0 133264.0 198082.0 199173.0 110802.0 75595.0 110802.0 110802.0 110802.0 110802.0 75595.0 75595.0 75595.0 75595.0
197377.0 204907.0 143519.0 147488.0 158777.0 152390.0 153007.0 158755.0 194879.0 196249.0 174288.0 170998.0 127237.0 119823.0 190517.0 182350.0 124262.0 123804.0 90544.0 95013.0 144201.0 138041.0 133454.0 132259.0 130763.0 124315.0 224380.0 216183.0 159164.0 153346.0 155121.0 156512.0 92983.0 85051.0 74634.0 67174.0 108519.0 101102.0 34649.0 40089.0 42722.0 44201.0 38210.0 39083.0 81777.0 86607.0 89620.0 95708.0 145461.0 148193.0 131630.0 128832.0 52642.0 57422.0 8186.0 0.0 106241.0 100865.0 49794.0 48655.0 126200.0 118756.0 121612.0 126335.0 158736.0 158863.0 149010.0 148412.0 168234.0 170065.0 33836.0 31712.0 169643.0 163031.0 110289.0 103453.0 143283.0 141013.0 193388.0 194756.0 118974.0 73098.0 118974.0 118974.0 118974.0 118974.0 73098.0 73098.0 73098.0 73098.0
101430.0 107758.0 248236.0 251439.0 55350.0 47970.0 63223.0 71069.0 99379.0 103180.0 228667.0 228982.0 233467.0 226062.0 103285.0 95087.0 37930.0 31140.0 190782.0 196845.0 234548.0 230415.0 229658.0 227021.0 236318.0 229514.0 121574.0 113360.0 265378.0 259586.0 260032.0 261992.0 198370.0 190621.0 180330.0 173160.0 208615.0 202097.0 120976.0 118553.0 119459.0 127351.0 82126.0 75235.0 187711.0 192813.0 194150.0 200832.0 245337.0 249274.0 231501.0 227217.0 75254.0 67280.0 112984.0 106241.0 0.0 7996.0 145128.0 139483.0 214353.0 206266.0 61164.0 57972.0 232827.0 236138.0 171603.0 166291.0 199675.0 205448.0 115959.0 107494.0 218495.0 210502.0 215833.0 209335.0 245596.0 244425.0 223525.0 228476.0 213451.0 68145.0 213451.0 213451.0 213451.0 213451.0 68145.0 68145.0 68145.0 68145.0
109315.0 115574.0 242054.0 245105.0 62761.0 55209.0 71170.0 78996.0 107286.0 111144.0 220673.0 220989.0 228064.0 220564.0 111265.0 103062.0 45342.0 38881.0 184132.0 190332.0 227158.0 223128.0 226375.0 223734.0 230371.0 223470.0 128799.0 120605.0 260004.0 254085.0 255314.0 257083.0 192423.0 184741.0 174509.0 167466.0 204737.0 198064.0 114138.0 111459.0 112286.0 120276.0 78999.0 71755.0 181971.0 187258.0 188019.0 194812.0 241596.0 245351.0 227726.0 223641.0 73407.0 65669.0 107858.0 100865.0 7996.0 0.0 138393.0 132571.0 206919.0 198830.0 67063.0 64480.0 224975.0 228340.0 163834.0 158592.0 191841.0 197569.0 109060.0 100581.0 210513.0 202521.0 210872.0 204227.0 241451.0 240062.0 215766.0 220664.0 210164.0 68493.0 210164.0 210164.0 210164.0 210164.0 68493.0 68493.0 68493.0 68493.0
242231.0 249447.0 105696.0 107770.0 200069.0 192979.0 198605.0 204923.0 239840.0 241902.0 131830.0 127354.0 100588.0 92306.0 237097.0 228911.0 169321.0 167584.0 45812.0 52486.0 94680.0 88870.0 134015.0 135790.0 96259.0 88609.0 266389.0 258155.0 131225.0 124034.0 135633.0 134540.0 60099.0 54093.0 46286.0 43232.0 106094.0 98135.0 24404.0 29103.0 29566.0 21150.0 87949.0 88037.0 53946.0 61615.0 53630.0 61386.0 138909.0 139127.0 126506.0 126604.0 102338.0 106639.0 49353.0 49794.0 145128.0 138393.0 0.0 8199.0 76413.0 68969.0 169995.0 174119.0 110487.0 109929.0 123814.0 125712.0 136224.0 136041.0 29672.0 38080.0 129700.0 124183.0 91860.0 83653.0 132032.0 127251.0 159759.0 159479.0 126955.0 122677.0 126955.0 126955.0 126955.0 126955.0 122677.0 122677.0 122677.0 122677.0
237535.0 244651.0 112962.0 114744.0 194630.0 187424.0 194224.0 200708.0 235180.0 237445.0 128704.0 124639.0 108707.0 100418.0 233024.0 224856.0 164875.0 162809.0 52373.0 59471.0 97802.0 92510.0 141542.0 143121.0 103942.0 96219.0 260956.0 252728.0 139230.0 131986.0 143831.0 142717.0 68124.0 62236.0 54484.0 51315.0 113667.0 105687.0 18615.0 21845.0 21950.0 13389.0 86268.0 85626.0 62143.0 69813.0 61503.0 69312.0 146835.0 147151.0 134329.0 134271.0 100489.0 104247.0 49572.0 48655.0 139483.0 132571.0 8199.0 0.0 78783.0 71043.0 166800.0 170614.0 110144.0 110212.0 117070.0 118689.0 130563.0 130758.0 23523.0 31994.0 125786.0 119946.0 100032.0 91832.0 140113.0 135389.0 154491.0 154542.0 133796.0 120562.0 133796.0 133796.0 133796.0 133796.0 120562.0 120562.0 120562.0 120562.0
314439.0 321302.0 78099.0 73903.0 269666.0 262118.0 271858.0 278587.0 312168.0 314840.0 85628.0 78165.0 100730.0 94518.0 311089.0 302911.0 242495.0 239828.0 47905.0 51562.0 20468.0 19156.0 165570.0 170628.0 81461.0 74833.0 335638.0 327468.0 118479.0 110459.0 137568.0 132369.0 73200.0 76144.0 79887.0 85549.0 140598.0 134385.0 96746.0 96945.0 95595.0 88537.0 164360.0 164241.0 81185.0 86969.0 66793.0 70476.0 160114.0 156710.0 152365.0 156200.0 178737.0 182868.0 125248.0 126200.0 214353.0 206919.0 76413.0 78783.0 0.0 8090.0 245552.0 249239.0 45004.0 40314.0 121630.0 127596.0 116675.0 111900.0 100897.0 108867.0 91657.0 90705.0 109888.0 103407.0 147992.0 140595.0 131737.0 127660.0 170653.0 199028.0 170653.0 170653.0 170653.0 170653.0 199028.0 199028.0 199028.0 199028.0
306383.0 313237.0 80985.0 77476.0 261577.0 254028.0 263845.0 270592.0 304115.0 306807.0 85576.0 78457.0 100974.0 94326.0 303115.0 294931.0 234486.0 231784.0 43938.0 48706.0 28497.0 26320.0 163616.0 168379.0 82823.0 75767.0 327549.0 319378.0 120612.0 112526.0 138397.0 133565.0 70725.0 72878.0 75685.0 80836.0 138032.0 131546.0 88877.0 88942.0 87566.0 80576.0 156862.0 156601.0 77680.0 83945.0 63820.0 68277.0 159188.0 156126.0 150856.0 154347.0 171211.0 175230.0 118031.0 118756.0 206266.0 198830.0 68969.0 71043.0 8090.0 0.0 237736.0 241364.0 48038.0 44545.0 116776.0 122470.0 113531.0 109215.0 92965.0 100892.0 90432.0 88785.0 108423.0 101577.0 147468.0 140243.0 129852.0 126211.0 167380.0 191448.0 167380.0 167380.0 167380.0 167380.0 191448.0 191448.0 191448.0 191448.0
82938.0 90970.0 262108.0 266947.0 65726.0 65027.0 40827.0 42998.0 80262.0 79626.0 275863.0 274900.0 240124.0 233752.0 73021.0 64854.0 28991.0 37007.0 212133.0 216321.0 264519.0 258865.0 225557.0 222906.0 247984.0 242462.0 117041.0 109680.0 271075.0 266457.0 261089.0 264280.0 211534.0 203459.0 193105.0 185067.0 205971.0 200237.0 148891.0 149675.0 151470.0 157533.0 84639.0 82530.0 199262.0 202271.0 209472.0 214649.0 241895.0 246434.0 228258.0 223401.0 70707.0 64494.0 125169.0 121612.0 61164.0 67063.0 169995.0 166800.0 245552.0 237736.0 0.0 8101.0 272107.0 273911.0 225985.0 221523.0 252875.0 257797.0 145035.0 137552.0 267273.0 259495.0 219450.0 214279.0 243701.0 243617.0 277659.0 281835.0 209336.0 50865.0 209336.0 209336.0 209336.0 209336.0 50865.0 50865.0 50865.0 50865.0
75664.0 83676.0 267753.0 272446.0 57816.0 57412.0 32890.0 35545.0 72997.0 72546.0 277180.0 276450.0 245980.0 239580.0 65941.0 57773.0 22901.0 31176.0 216865.0 221270.0 268413.0 262932.0 231413.0 228762.0 253800.0 248144.0 109278.0 101845.0 276932.0 272313.0 266945.0 270136.0 217098.0 209023.0 198632.0 190639.0 211828.0 206094.0 152493.0 152887.0 154584.0 160928.0 90016.0 87349.0 204930.0 208096.0 214819.0 220162.0 247751.0 252290.0 234114.0 229257.0 76406.0 69769.0 130264.0 126335.0 57972.0 64480.0 174119.0 170614.0 249239.0 241364.0 8101.0 0.0 274741.0 276773.0 225664.0 220973.0 252893.0 258021.0 148461.0 140782.0 268271.0 260436.0 225307.0 220135.0 249557.0 249474.0 277480.0 281856.0 215192.0 57106.0 215192.0 215192.0 215192.0 215192.0 57106.0 57106.0 57106.0 57106.0
334250.0 340543.0 117683.0 111920.0 287049.0 279173.0 293787.0 301040.0 332173.0 335689.0 46193.0 38106.0 144407.0 138675.0 333868.0 325592.0 264841.0 260979.0 91965.0 96354.0 46408.0 53423.0 210553.0 215632.0 123886.0 117978.0 351489.0 343509.0 158839.0 151086.0 180190.0 174423.0 118151.0 120776.0 123703.0 128664.0 185563.0 179269.0 125539.0 123150.0 121112.0 116148.0 195754.0 194171.0 125661.0 131744.0 111567.0 115469.0 204655.0 200985.0 197233.0 201168.0 209658.0 212536.0 159528.0 158736.0 232827.0 224975.0 110487.0 110144.0 45004.0 48038.0 272107.0 274741.0 0.0 8425.0 103224.0 110588.0 88535.0 81748.0 128444.0 135160.0 56380.0 58724.0 154779.0 148391.0 192234.0 184699.0 96856.0 91183.0 215326.0 229147.0 215326.0 215326.0 215326.0 215326.0 229147.0 229147.0 229147.0 229147.0
337490.0 343896.0 110385.0 104417.0 290665.0 282833.0 296571.0 303732.0 335375.0 338735.0 54478.0 46386.0 138058.0 132578.0 336538.0 328271.0 267494.0 263856.0 88059.0 91865.0 38994.0 46438.0 205243.0 210514.0 117169.0 111510.0 355457.0 347435.0 151539.0 143857.0 173384.0 167466.0 113376.0 116458.0 119998.0 125348.0 180699.0 174600.0 126315.0 124446.0 122528.0 117087.0 196291.0 195046.0 121489.0 127261.0 107093.0 110553.0 198714.0 194855.0 191660.0 195806.0 210346.0 213524.0 159223.0 158863.0 236138.0 228340.0 109929.0 110212.0 40314.0 44545.0 273911.0 276773.0 8425.0 0.0 110901.0 118177.0 96835.0 90113.0 129508.0 136537.0 64804.0 67094.0 149293.0 143139.0 186094.0 178486.0 105255.0 99530.0 210954.0 230070.0 210954.0 210954.0 210954.0 210954.0 230070.0 230070.0 230070.0 230070.0
267820.0 272612.0 196765.0 193964.0 218418.0 210441.0 234512.0 242448.0 266261.0 271398.0 71642.0 76306.0 209735.0 201877.0 273976.0 265944.0 208977.0 202710.0 143775.0 151911.0 137236.0 139906.0 256941.0 259223.0 195764.0 187968.0 276458.0 269158.0 234414.0 226323.0 247781.0 244394.0 171032.0 168547.0 164656.0 164464.0 229004.0 221158.0 118291.0 110815.0 108221.0 110904.0 173765.0 168274.0 170883.0 178911.0 163009.0 170306.0 259380.0 258383.0 247999.0 249007.0 183724.0 182506.0 154721.0 149010.0 171603.0 163834.0 123814.0 117070.0 121630.0 116776.0 225985.0 225664.0 103224.0 110901.0 0.0 7817.0 28841.0 35963.0 116745.0 117305.0 57995.0 50890.0 209090.0 200961.0 250454.0 244446.0 51939.0 57028.0 250760.0 197841.0 250760.0 250760.0 250760.0 250760.0 197841.0 197841.0 197841.0 197841.0
261673.0 266350.0 201947.0 199369.0 212268.0 204314.0 228995.0 236950.0 260155.0 265391.0 79453.0 84115.0 213864.0 205924.0 268275.0 260285.0 203848.0 197427.0 147849.0 156070.0 143668.0 146072.0 259367.0 261427.0 200460.0 192604.0 269716.0 262473.0 239118.0 231046.0 251825.0 248631.0 174718.0 171922.0 167623.0 167073.0 231411.0 223518.0 118690.0 111028.0 108482.0 111736.0 171739.0 165996.0 174049.0 182100.0 166717.0 174133.0 262408.0 261615.0 250805.0 251591.0 181247.0 179704.0 154417.0 148412.0 166291.0 158592.0 125712.0 118689.0 127596.0 122470.0 221523.0 220973.0 110588.0 118177.0 7817.0 0.0 35717.0 43197.0 116807.0 116800.0 65788.0 58706.0 212449.0 204275.0 253793.0 247933.0 57469.0 63110.0 252484.0 194778.0 252484.0 252484.0 252484.0 252484.0 194778.0 194778.0 194778.0 194778.0
296530.0 301377.0 194468.0 190567.0 247138.0 239151.0 262741.0 270654.0 294950.0 300024.0 48697.0 55110.0 212165.0 204757.0 302363.0 294295.0 236799.0 230715.0 147533.0 155114.0 128959.0 133240.0 265703.0 268770.0 195823.0 188411.0 305284.0 297994.0 234010.0 225906.0 250212.0 246009.0 175867.0 174672.0 172426.0 173565.0 238053.0 230449.0 135372.0 128581.0 125923.0 126943.0 196200.0 191302.0 177789.0 185604.0 167896.0 174570.0 265860.0 264074.0 255415.0 257246.0 207083.0 206549.0 173097.0 168234.0 199675.0 191841.0 136224.0 130563.0 116675.0 113531.0 252875.0 252893.0 88535.0 96835.0 28841.0 35717.0 0.0 8242.0 134776.0 136792.0 34883.0 30104.0 214723.0 206871.0 255783.0 249227.0 25501.0 28965.0 262112.0 222342.0 262112.0 262112.0 262112.0 262112.0 222342.0 222342.0 222342.0 222342.0
302954.0 307909.0 189927.0 185773.0 253594.0 245590.0 268605.0 276493.0 301337.0 306314.0 40690.0 47339.0 208765.0 201500.0 308365.0 300263.0 242346.0 236408.0 144781.0 152164.0 123298.0 127928.0 263910.0 267199.0 191865.0 184577.0 312277.0 304932.0 229826.0 221739.0 246714.0 242310.0 173251.0 172418.0 170647.0 172164.0 236407.0 228894.0 136664.0 130149.0 127493.0 127966.0 199128.0 194482.0 175739.0 183459.0 165334.0 171804.0 263419.0 261419.0 253260.0 255320.0 210360.0 210119.0 174613.0 170065.0 205448.0 197569.0 136041.0 130758.0 111900.0 109215.0 257797.0 258021.0 81748.0 90113.0 35963.0 43197.0 8242.0 0.0 136386.0 138882.0 27010.0 23025.0 212178.0 204427.0 253047.0 246356.0 23734.0 24880.0 261115.0 226086.0 261115.0 261115.0 261115.0 261115.0 226086.0 226086.0 226086.0 226086.0
214280.0 221340.0 135182.0 137409.0 171118.0 163903.0 171197.0 177808.0 211945.0 214338.0 140920.0 137938.0 127637.0 119482.0 210242.0 202070.0 141828.0 139545.0 75441.0 82145.0 120421.0 115499.0 151086.0 151489.0 125195.0 117703.0 237442.0 229215.0 158958.0 152057.0 160864.0 160575.0 88137.0 81373.0 72288.0 67227.0 123921.0 115972.0 5344.0 6256.0 8902.0 12502.0 67811.0 65753.0 80165.0 87152.0 82310.0 89830.0 159223.0 160491.0 145998.0 144814.0 81388.0 84094.0 38330.0 33836.0 115959.0 109060.0 29672.0 23523.0 100897.0 92965.0 145035.0 148461.0 128444.0 129508.0 116745.0 116807.0 134776.0 136386.0 0.0 8481.0 135919.0 129239.0 115973.0 108054.0 154173.0 150300.0 159802.0 161019.0 139943.0 100704.0 139943.0 139943.0 139943.0 139943.0 100704.0 100704.0 100704.0 100704.0
206004.0 213032.0 143419.0 145746.0 162674.0 155444.0 163055.0 169730.0 203681.0 206144.0 145616.0 143005.0 135056.0 126956.0 202224.0 194044.0 133685.0 131278.0 83878.0 90514.0 128531.0 123738.0 155667.0 155692.0 133211.0 125783.0 228994.0 220768.0 166537.0 159737.0 167684.0 167631.0 95938.0 89005.0 79678.0 74235.0 128870.0 120984.0 13675.0 12123.0 14049.0 20344.0 62381.0 59585.0 87546.0 94324.0 90306.0 97740.0 164661.0 166216.0 151266.0 149739.0 75469.0 77611.0 37691.0 31712.0 107494.0 100581.0 38080.0 31994.0 108867.0 100892.0 137552.0 140782.0 135160.0 136537.0 117305.0 116800.0 136792.0 138882.0 8481.0 0.0 139949.0 133030.0 122624.0 114819.0 160136.0 156529.0 162051.0 163668.0 143565.0 94275.0 143565.0 143565.0 143565.0 143565.0 94275.0 94275.0 94275.0 94275.0
318115.0 323506.0 169446.0 164631.0 269071.0 261039.0 281630.0 289383.0 316347.0 320907.0 13938.0 20347.0 191373.0 184577.0 321777.0 313569.0 254276.0 248935.0 130064.0 136715.0 100349.0 105878.0 250925.0 254870.0 172996.0 166123.0 329872.0 322301.0 210098.0 202096.0 228814.0 223863.0 158525.0 158814.0 158540.0 161219.0 224045.0 216867.0 135138.0 129713.0 127135.0 125789.0 202012.0 198286.0 162720.0 170053.0 150875.0 156641.0 248499.0 245878.0 239243.0 241984.0 214328.0 215108.0 173068.0 169643.0 218495.0 210513.0 129700.0 125786.0 91657.0 90432.0 267273.0 268271.0 56380.0 64804.0 57995.0 65788.0 34883.0 27010.0 135919.0 139949.0 0.0 8030.0 197275.0 189897.0 237309.0 230262.0 40799.0 36042.0 250648.0 231534.0 250648.0 250648.0 250648.0 250648.0 231534.0 231534.0 231534.0 231534.0
310087.0 315476.0 168780.0 164286.0 261040.0 253008.0 273648.0 281407.0 308320.0 312886.0 20806.0 25733.0 189388.0 182400.0 313786.0 305581.0 246337.0 240967.0 126961.0 133892.0 100918.0 105925.0 247450.0 251195.0 171598.0 164537.0 321873.0 314296.0 209122.0 201074.0 227072.0 222341.0 155498.0 155408.0 154658.0 156996.0 220348.0 213059.0 128642.0 123010.0 120410.0 119384.0 194925.0 191069.0 159132.0 166606.0 147738.0 153763.0 245662.0 243256.0 236091.0 238613.0 207104.0 207755.0 166663.0 163031.0 210502.0 202521.0 124183.0 119946.0 90705.0 88785.0 259495.0 260436.0 58724.0 67094.0 50890.0 58706.0 30104.0 23025.0 129239.0 133030.0 8030.0 0.0 194375.0 186858.0 234750.0 227826.0 41079.0 37756.0 246410.0 224138.0 246410.0 246410.0 246410.0 246410.0 224138.0 224138.0 224138.0 224138.0
299920.0 307806.0 58403.0 66235.0 266243.0 260461.0 255461.0 259914.0 297295.0 297509.0 193737.0 186804.0 23734.0 21804.0 290956.0 282789.0 228606.0 229778.0 67471.0 60561.0 113264.0 104779.0 56080.0 61878.0 42730.0 43259.0 330239.0 322186.0 51885.0 48256.0 45216.0 46229.0 38938.0 40545.0 45806.0 49023.0 34802.0 31912.0 111049.0 118243.0 119565.0 112000.0 137358.0 142558.0 38659.0 30629.0 46847.0 40636.0 51295.0 49414.0 42481.0 46580.0 149369.0 156912.0 103033.0 110289.0 215833.0 210872.0 91860.0 100032.0 109888.0 108423.0 219450.0 225307.0 154779.0 149293.0 209090.0 212449.0 214723.0 212178.0 115973.0 122624.0 197275.0 194375.0 0.0 8263.0 41364.0 35664.0 234655.0 232118.0 67138.0 168584.0 67138.0 67138.0 67138.0 67138.0 168584.0 168584.0 168584.0 168584.0
294708.0 302559.0 57545.0 65007.0 260255.0 254353.0 250175.0 254794.0 292095.0 292319.0 186639.0 179804.0 26252.0 21648.0 285737.0 277570.0 223019.0 223974.0 59898.0 53288.0 107839.0 99312.0 62164.0 67413.0 41556.0 40549.0 324586.0 316503.0 56844.0 52287.0 52867.0 53280.0 31374.0 32430.0 37551.0 40954.0 38536.0 34071.0 103088.0 110213.0 111497.0 103874.0 131703.0 136636.0 30404.0 22368.0 39143.0 33387.0 58999.0 57448.0 49403.0 52809.0 144055.0 151463.0 96381.0 103453.0 209335.0 204227.0 83653.0 91832.0 103407.0 101577.0 214279.0 220135.0 148391.0 143139.0 200961.0 204275.0 206871.0 204427.0 108054.0 114819.0 189897.0 186858.0 8263.0 0.0 49518.0 43924.0 227007.0 224578.0 69266.0 163413.0 69266.0 69266.0 69266.0 69266.0 163413.0 163413.0 163413.0 163413.0
324172.0 332057.0 82408.0 90428.0 292930.0 287816.0 279730.0 284216.0 321550.0 321759.0 233044.0 225861.0 48315.0 53560.0 315206.0 307039.0 253659.0 255840.0 108280.0 100942.0 148345.0 140155.0 32612.0 40607.0 70489.0 74932.0 355129.0 347194.0 52132.0 54954.0 25791.0 33265.0 79936.0 81908.0 86653.0 88803.0 37857.0 43598.0 149529.0 157078.0 158627.0 151488.0 164241.0 170558.0 79829.0 71769.0 87935.0 81246.0 14177.0 8764.0 18777.0 26267.0 174340.0 182344.0 135400.0 143283.0 245596.0 241451.0 132032.0 140113.0 147992.0 147468.0 243701.0 249557.0 192234.0 186094.0 250454.0 253793.0 255783.0 253047.0 154173.0 160136.0 237309.0 234750.0 41364.0 49518.0 0.0 7927.0 275293.0 272504.0 64505.0 192835.0 64505.0 64505.0 64505.0 64505.0 192835.0 192835.0 192835.0 192835.0
324089.0 331973.0 74484.0 82510.0 292584.0 287302.0 279646.0 284132.0 321467.0 321676.0 225801.0 218566.0 40552.0 46082.0 315123.0 306955.0 253575.0 255592.0 101697.0 94191.0 140620.0 132462.0 38864.0 46807.0 62618.0 67189.0 354969.0 347070.0 45155.0 47480.0 20478.0 27215.0 73562.0 76036.0 81414.0 84128.0 38942.0 43503.0 145540.0 152956.0 154410.0 147071.0 163574.0 169652.0 74324.0 66292.0 81589.0 74670.0 21991.0 16558.0 23799.0 31391.0 174146.0 182074.0 133264.0 141013.0 244425.0 240062.0 127251.0 135389.0 140595.0 140243.0 243617.0 249474.0 184699.0 178486.0 244446.0 247933.0 249227.0 246356.0 150300.0 156529.0 230262.0 227826.0 35664.0 43924.0 7927.0 0.0 268468.0 265569.0 68264.0 192751.0 68264.0 68264.0 68264.0 68264.0 192751.0 192751.0 192751.0 192751.0
319055.0 323646.0 209770.0 205151.0 269657.0 261718.0 286371.0 294316.0 317559.0 322836.0 51266.0 59230.0 230311.0 223236.0 325725.0 317723.0 260916.0 254638.0 167185.0 174353.0 141133.0 146543.0 286951.0 290382.0 212671.0 205587.0 326258.0 319152.0 250186.0 242142.0 268070.0 263393.0 195720.0 195201.0 193769.0 195498.0 259559.0 252105.0 160204.0 153580.0 150922.0 151584.0 221688.0 216803.0 198671.0 206312.0 187867.0 194133.0 285945.0 283741.0 276038.0 278273.0 232582.0 232018.0 198082.0 193388.0 223525.0 215766.0 159759.0 154491.0 131737.0 129852.0 277659.0 277480.0 96856.0 105255.0 51939.0 57469.0 25501.0 23734.0 159802.0 162051.0 40799.0 41079.0 234655.0 227007.0 275293.0 268468.0 0.0 8088.0 284593.0 247775.0 284593.0 284593.0 284593.0 284593.0 247775.0 247775.0 247775.0 247775.0
324751.0 329457.0 205488.0 200649.0 275344.0 267381.0 291473.0 299400.0 323215.0 328395.0 45137.0 53206.0 227014.0 220086.0 330993.0 322952.0 265685.0 259545.0 164684.0 171646.0 136137.0 141844.0 284999.0 288626.0 208916.0 201968.0 332561.0 325391.0 246123.0 238114.0 264600.0 259747.0 193227.0 193029.0 192019.0 194072.0 257780.0 250420.0 161155.0 154772.0 152119.0 152328.0 224008.0 219348.0 196668.0 204203.0 185447.0 191512.0 283407.0 281013.0 273774.0 276214.0 235216.0 234917.0 199173.0 194756.0 228476.0 220664.0 159479.0 154542.0 127660.0 126211.0 281835.0 281856.0 91183.0 99530.0 57028.0 63110.0 28965.0 24880.0 161019.0 163668.0 36042.0 37756.0 232118.0 224578.0 272504.0 265569.0 8088.0 0.0 283373.0 250835.0 283373.0 283373.0 283373.0 283373.0 250835.0 250835.0 250835.0 250835.0
289808.0 297692.0 125530.0 133371.0 258629.0 253719.0 245365.0 249851.0 287186.0 287395.0 249526.0 243402.0 89809.0 88942.0 280842.0 272674.0 219294.0 221494.0 123494.0 119091.0 177758.0 169228.0 36893.0 31861.0 109849.0 109735.0 320764.0 312829.0 110171.0 109736.0 88720.0 94953.0 97835.0 94554.0 92538.0 89435.0 33292.0 35337.0 136518.0 144566.0 146755.0 141709.0 131325.0 138409.0 89706.0 83699.0 103862.0 100912.0 57108.0 63495.0 45843.0 38771.0 140034.0 148135.0 110802.0 118974.0 213451.0 210164.0 126955.0 133796.0 170653.0 167380.0 209336.0 215192.0 215326.0 210954.0 250760.0 252484.0 262112.0 261115.0 139943.0 143565.0 250648.0 246410.0 67138.0 69266.0 64505.0 68264.0 284593.0 283373.0 0.0 158470.0 0.0 0.0 0.0 0.0 158470.0 158470.0 158470.0 158470.0
132322.0 140267.0 211398.0 216364.0 104040.0 100037.0 88159.0 92214.0 129679.0 129575.0 238506.0 236487.0 189257.0 182886.0 124149.0 115982.0 63526.0 67000.0 162894.0 166617.0 217268.0 211139.0 174691.0 172040.0 197172.0 191730.0 164164.0 156343.0 220209.0 215591.0 210223.0 213414.0 160920.0 152851.0 142547.0 134468.0 155105.0 149371.0 103757.0 106109.0 108273.0 113029.0 34986.0 35028.0 148561.0 151405.0 159119.0 164086.0 191029.0 195567.0 177392.0 172534.0 20556.0 16669.0 75595.0 73098.0 68145.0 68493.0 122677.0 120562.0 199028.0 191448.0 50865.0 57106.0 229147.0 230070.0 197841.0 194778.0 222342.0 226086.0 100704.0 94275.0 231534.0 224138.0 168584.0 163413.0 192835.0 192751.0 247775.0 250835.0 158470.0 0.0 158470.0 158470.0 158470.0 158470.0 0.0 0.0 0.0 0.0
289808.0 297692.0 125530.0 133371.0 258629.0 253719.0 245365.0 249851.0 287186.0 287395.0 249526.0 243402.0 89809.0 88942.0 280842.0 272674.0 219294.0 221494.0 123494.0 119091.0 177758.0 169228.0 36893.0 31861.0 109849.0 109735.0 320764.0 312829.0 110171.0 109736.0 88720.0 94953.0 97835.0 94554.0 92538.0 89435.0 33292.0 35337.0 136518.0 144566.0 146755.0 141709.0 131325.0 138409.0 89706.0 83699.0 103862.0 100912.0 57108.0 63495.0 45843.0 38771.0 140034.0 148135.0 110802.0 118974.0 213451.0 210164.0 126955.0 133796.0 170653.0 167380.0 209336.0 215192.0 215326.0 210954.0 250760.0 252484.0 262112.0 261115.0 139943.0 143565.0 250648.0 246410.0 67138.0 69266.0 64505.0 68264.0 284593.0 283373.0 0.0 158470.0 0.0 0.0 0.0 0.0 158470.0 158470.0 158470.0 158470.0
289808.0 297692.0 125530.0 133371.0 258629.0 253719.0 245365.0 249851.0 287186.0 287395.0 249526.0 243402.0 89809.0 88942.0 280842.0 272674.0 219294.0 221494.0 123494.0 119091.0 177758.0 169228.0 36893.0 31861.0 109849.0 109735.0 320764.0 312829.0 110171.0 109736.0 88720.0 94953.0 97835.0 94554.0 92538.0 89435.0 33292.0 35337.0 136518.0 144566.0 146755.0 141709.0 131325.0 138409.0 89706.0 83699.0 103862.0 100912.0 57108.0 63495.0 45843.0 38771.0 140034.0 148135.0 110802.0 118974.0 213451.0 210164.0 126955.0 133796.0 170653.0 167380.0 209336.0 215192.0 215326.0 210954.0 250760.0 252484.0 262112.0 261115.0 139943.0 143565.0 250648.0 246410.0 67138.0 69266.0 64505.0 68264.0 284593.0 283373.0 0.0 158470.0 0.0 0.0 0.0 0.0 158470.0 158470.0 158470.0 158470.0
289808.0 297692.0 125530.0 133371.0 258629.0 253719.0 245365.0 249851.0 287186.0 287395.0 249526.0 243402.0 89809.0 88942.0 280842.0 272674.0 219294.0 221494.0 123494.0 119091.0 177758.0 169228.0 36893.0 31861.0 109849.0 109735.0 320764.0 312829.0 110171.0 109736.0 88720.0 94953.0 97835.0 94554.0 92538.0 89435.0 33292.0 35337.0 136518.0 144566.0 146755.0 141709.0 131325.0 138409.0 89706.0 83699.0 103862.0 100912.0 57108.0 63495.0 45843.0 38771.0 140034.0 148135.0 110802.0 118974.0 213451.0 210164.0 126955.0 133796.0 170653.0 167380.0 209336.0 215192.0 215326.0 210954.0 250760.0 252484.0 262112.0 261115.0 139943.0 143565.0 250648.0 246410.0 67138.0 69266.0 64505.0 68264.0 284593.0 283373.0 0.0 158470.0 0.0 0.0 0.0 0.0 158470.0 158470.0 158470.0 158470.0
289808.0 297692.0 125530.0 133371.0 258629.0 253719.0 245365.0 249851.0 287186.0 287395.0 249526.0 243402.0 89809.0 88942.0 280842.0 272674.0 219294.0 221494.0 123494.0 119091.0 177758.0 169228.0 36893.0 31861.0 109849.0 109735.0 320764.0 312829.0 110171.0 109736.0 88720.0 94953.0 97835.0 94554.0 92538.0 89435.0 33292.0 35337.0 136518.0 144566.0 146755.0 141709.0 131325.0 138409.0 89706.0 83699.0 103862.0 100912.0 57108.0 63495.0 45843.0 38771.0 140034.0 148135.0 110802.0 118974.0 213451.0 210164.0 126955.0 133796.0 170653.0 167380.0 209336.0 215192.0 215326.0 210954.0 250760.0 252484.0 262112.0 261115.0 139943.0 143565.0 250648.0 246410.0 67138.0 69266.0 64505.0 68264.0 284593.0 283373.0 0.0 158470.0 0.0 0.0 0.0 0.0 158470.0 158470.0 158470.0 158470.0
132322.0 140267.0 211398.0 216364.0 104040.0 100037.0 88159.0 92214.0 129679.0 129575.0 238506.0 236487.0 189257.0 182886.0 124149.0 115982.0 63526.0 67000.0 162894.0 166617.0 217268.0 211139.0 174691.0 172040.0 197172.0 191730.0 164164.0 156343.0 220209.0 215591.0 210223.0 213414.0 160920.0 152851.0 142547.0 134468.0 155105.0 149371.0 103757.0 106109.0 108273.0 113029.0 34986.0 35028.0 148561.0 151405.0 159119.0 164086.0 191029.0 195567.0 177392.0 172534.0 20556.0 16669.0 75595.0 73098.0 68145.0 68493.0 122677.0 120562.0 199028.0 191448.0 50865.0 57106.0 229147.0 230070.0 197841.0 194778.0 222342.0 226086.0 100704.0 94275.0 231534.0 224138.0 168584.0 163413.0 192835.0 192751.0 247775.0 250835.0 158470.0 0.0 158470.0 158470.0 158470.0 158470.0 0.0 0.0 0.0 0.0
132322.0 140267.0 211398.0 216364.0 104040.0 100037.0 88159.0 92214.0 129679.0 129575.0 238506.0 236487.0 189257.0 182886.0 124149.0 115982.0 63526.0 67000.0 162894.0 166617.0 217268.0 211139.0 174691.0 172040.0 197172.0 191730.0 164164.0 156343.0 220209.0 215591.0 210223.0 213414.0 160920.0 152851.0 142547.0 134468.0 155105.0 149371.0 103757.0 106109.0 108273.0 113029.0 34986.0 35028.0 148561.0 151405.0 159119.0 164086.0 191029.0 195567.0 177392.0 172534.0 20556.0 16669.0 75595.0 73098.0 68145.0 68493.0 122677.0 120562.0 199028.0 191448.0 50865.0 57106.0 229147.0 230070.0 197841.0 194778.0 222342.0 226086.0 100704.0 94275.0 231534.0 224138.0 168584.0 163413.0 192835.0 192751.0 247775.0 250835.0 158470.0 0.0 158470.0 158470.0 158470.0 158470.0 0.0 0.0 0.0 0.0
132322.0 140267.0 211398.0 216364.0 104040.0 100037.0 88159.0 92214.0 129679.0 129575.0 238506.0 236487.0 189257.0 182886.0 124149.0 115982.0 63526.0 67000.0 162894.0 166617.0 217268.0 211139.0 174691.0 172040.0 197172.0 191730.0 164164.0 156343.0 220209.0 215591.0 210223.0 213414.0 160920.0 152851.0 142547.0 134468.0 155105.0 149371.0 103757.0 106109.0 108273.0 113029.0 34986.0 35028.0 148561.0 151405.0 159119.0 164086.0 191029.0 195567.0 177392.0 172534.0 20556.0 16669.0 75595.0 73098.0 68145.0 68493.0 122677.0 120562.0 199028.0 191448.0 50865.0 57106.0 229147.0 230070.0 197841.0 194778.0 222342.0 226086.0 100704.0 94275.0 231534.0 224138.0 168584.0 163413.0 192835.0 192751.0 247775.0 250835.0 158470.0 0.0 158470.0 158470.0 158470.0 158470.0 0.0 0.0 0.0 0.0
132322.0 140267.0 211398.0 216364.0 104040.0 100037.0 88159.0 92214.0 129679.0 129575.0 238506.0 236487.0 189257.0 182886.0 124149.0 115982.0 63526.0 67000.0 162894.0 166617.0 217268.0 211139.0 174691.0 172040.0 197172.0 191730.0 164164.0 156343.0 220209.0 215591.0 210223.0 213414.0 160920.0 152851.0 142547.0 134468.0 155105.0 149371.0 103757.0 106109.0 108273.0 113029.0 34986.0 35028.0 148561.0 151405.0 159119.0 164086.0 191029.0 195567.0 177392.0 172534.0 20556.0 16669.0 75595.0 73098.0 68145.0 68493.0 122677.0 120562.0 199028.0 191448.0 50865.0 57106.0 229147.0 230070.0 197841.0 194778.0 222342.0 226086.0 100704.0 94275.0 231534.0 224138.0 168584.0 163413.0 192835.0 192751.0 247775.0 250835.0 158470.0 0.0 158470.0 158470.0 158470.0 158470.0 0.0 0.0 0.0 0.0
FIXED_EDGES_SECTION
1 2
3 4
5 6
7 8
9 10
11 12
13 14
15 16
17 18
19 20
21 22
23 24
25 26
27 28
29 30
31 32
33 34
35 36
37 38
39 40
41 42
43 44
45 46
47 48
49 50
51 52
53 54
55 56
57 58
59 60
61 62
63 64
65 66
67 68
69 70
71 72
73 74
75 76
77 78
79 80
-1 
DEMAND_SECTION
1 99
2 99
3 55
4 55
5 341
6 341
7 184
8 184
9 60
10 60
11 380
12 380
13 57
14 57
15 224
16 224
17 563
18 563
19 349
20 349
21 217
22 217
23 97
24 97
25 461
26 461
27 421
28 421
29 265
30 265
31 274
32 274
33 293
34 293
35 171
36 171
37 485
38 485
39 177
40 177
41 271
42 271
43 100
44 100
45 207
46 207
47 353
48 353
49 219
50 219
51 341
52 341
53 235
54 235
55 324
56 324
57 319
58 319
59 94
60 94
61 479
62 479
63 114
64 114
65 76
66 76
67 321
68 321
69 234
70 234
71 421
72 421
73 258
74 258
75 155
76 155
77 247
78 247
79 120
80 120
81 0
82 0
83 0
84 0
85 0
86 0
87 0
88 0
89 0
90 0
DEPOT_SECTION
81 
-1 
CAPACITIES_SECTION
5000 
5500 
6000 
6500 
-1 
EOF