NAME: GFS_20_1
TYPE: GFSP
DIMENSION: 90
VEHICLES: 4
CAPACITY: 5000.0
TRIP_DIST_LIMIT: 750000.0
TOTAL_DIST_LIMIT: 1050000.0
EDGE_WEIGHT_TYPE: EXPLICIT
EDGE_WEIGHT_FORMAT: FULL_MATRIX
EDGE_WEIGHT_SECTION
0.0 8198.0 282752.0 279304.0 25501.0 24576.0 182884.0 176991.0 231129.0 237004.0 21864.0 30056.0 118278.0 110230.0 176403.0 168773.0 187910.0 181431.0 56858.0 64910.0 158629.0 166075.0 148489.0 142167.0 155394.0 153383.0 130612.0 134331.0 34471.0 27135.0 172806.0 179356.0 99426.0 91878.0 104532.0 110040.0 55855.0 63619.0 193531.0 192403.0 188147.0 194202.0 141802.0 137915.0 129614.0 121883.0 198704.0 206640.0 387180.0 379956.0 372991.0 371051.0 89639.0 81473.0 54450.0 57930.0 244386.0 249229.0 139248.0 132667.0 278572.0 273972.0 194821.0 187966.0 36719.0 44884.0 152283.0 153107.0 105413.0 105410.0 364779.0 371632.0 317158.0 311877.0 205534.0 201880.0 187414.0 179572.0 243527.0 241764.0 89757.0 217291.0 89757.0 89757.0 89757.0 89757.0 217291.0 217291.0 217291.0 217291.0
8198.0 0.0 284169.0 280931.0 18722.0 19874.0 184898.0 179241.0 226107.0 232135.0 28184.0 36404.0 118523.0 110669.0 173960.0 166517.0 184689.0 178414.0 54618.0 62844.0 156671.0 163913.0 144436.0 137877.0 151527.0 149130.0 128132.0 132274.0 26360.0 19108.0 170002.0 176310.0 99059.0 91746.0 102223.0 107290.0 47817.0 55527.0 188405.0 187436.0 182720.0 188944.0 144903.0 141388.0 128655.0 121077.0 192961.0 200948.0 381365.0 374141.0 367176.0 365236.0 87171.0 79097.0 50285.0 52789.0 239870.0 244893.0 135861.0 129544.0 273705.0 269265.0 197650.0 190995.0 28955.0 37008.0 154495.0 154901.0 107998.0 108581.0 358964.0 365816.0 311527.0 306364.0 206696.0 203329.0 188177.0 180406.0 245305.0 243285.0 82210.0 211476.0 82210.0 82210.0 82210.0 82210.0 211476.0 211476.0 211476.0 211476.0
282752.0 284169.0 0.0 8088.0 275293.0 268468.0 101025.0 107936.0 213113.0 208869.0 265113.0 259348.0 167185.0 174353.0 150922.0 151584.0 163005.0 160598.0 234655.0 227007.0 153017.0 151565.0 194437.0 201279.0 188245.0 196744.0 179092.0 171316.0 285945.0 283741.0 159802.0 162051.0 187867.0 194133.0 196260.0 196426.0 286951.0 290382.0 212817.0 208137.0 221688.0 216803.0 146606.0 153058.0 164017.0 169665.0 232582.0 232018.0 336153.0 328539.0 346150.0 348893.0 209095.0 214935.0 246096.0 250555.0 197982.0 192604.0 186817.0 186426.0 220411.0 212631.0 96856.0 105255.0 300489.0 303585.0 131737.0 129852.0 178638.0 180731.0 347760.0 352135.0 269657.0 261718.0 77729.0 80873.0 97463.0 104749.0 40799.0 41079.0 284593.0 247775.0 284593.0 284593.0 284593.0 284593.0 247775.0 247775.0 247775.0 247775.0
279304.0 280931.0 8088.0 0.0 272504.0 265569.0 96864.0 103502.0 216952.0 212937.0 261327.0 255404.0 164684.0 171646.0 152119.0 152328.0 165074.0 162298.0 232118.0 224578.0 153143.0 152134.0 195101.0 201765.0 189128.0 197650.0 178480.0 170611.0 283407.0 281013.0 161019.0 163668.0 185447.0 191512.0 194787.0 195279.0 284999.0 288626.0 215347.0 210632.0 224008.0 219348.0 141868.0 148110.0 162513.0 167883.0 235216.0 234917.0 342466.0 334815.0 351943.0 354564.0 207299.0 212921.0 243824.0 248503.0 202382.0 197213.0 186907.0 186171.0 225686.0 217856.0 91183.0 99530.0 297866.0 301157.0 127660.0 126211.0 174711.0 176493.0 353243.0 357730.0 275344.0 267381.0 75296.0 77705.0 95516.0 102528.0 36042.0 37756.0 283373.0 250835.0 283373.0 283373.0 283373.0 283373.0 250835.0 250835.0 250835.0 250835.0
25501.0 18722.0 275293.0 272504.0 0.0 7927.0 177709.0 172619.0 207853.0 213987.0 37740.0 44860.0 108280.0 100942.0 158627.0 151488.0 168268.0 162274.0 41364.0 49518.0 142143.0 149035.0 127140.0 120347.0 134417.0 131612.0 112971.0 117740.0 14177.0 8764.0 154173.0 160136.0 87935.0 81246.0 87568.0 91891.0 32612.0 40607.0 170102.0 169242.0 164241.0 170558.0 140571.0 138008.0 116010.0 108788.0 174340.0 182344.0 362724.0 355500.0 348535.0 346595.0 72475.0 64713.0 33789.0 34896.0 221997.0 227176.0 119385.0 113448.0 255539.0 251221.0 192234.0 186094.0 26044.0 31558.0 147992.0 147468.0 103015.0 104983.0 340323.0 347176.0 292930.0 287816.0 197570.0 194815.0 178340.0 170758.0 237309.0 234750.0 64505.0 192835.0 64505.0 64505.0 64505.0 64505.0 192835.0 192835.0 192835.0 192835.0
24576.0 19874.0 268468.0 265569.0 7927.0 0.0 170462.0 165263.0 206645.0 212580.0 32115.0 38598.0 101697.0 94191.0 154410.0 147071.0 164865.0 158641.0 35664.0 43924.0 137419.0 144523.0 124583.0 118069.0 131657.0 129316.0 108610.0 112997.0 21991.0 16558.0 150300.0 156529.0 81589.0 74670.0 82855.0 87668.0 38864.0 46807.0 169011.0 167935.0 163574.0 169652.0 132867.0 130212.0 110317.0 102933.0 174146.0 182074.0 362640.0 355281.0 348451.0 346511.0 67755.0 59779.0 30415.0 33364.0 220150.0 225113.0 116018.0 109762.0 254152.0 249629.0 184699.0 178486.0 33769.0 39479.0 140595.0 140243.0 95343.0 97178.0 340239.0 347092.0 292584.0 287302.0 190773.0 187864.0 171725.0 164083.0 230262.0 227826.0 68264.0 192751.0 68264.0 68264.0 68264.0 68264.0 192751.0 192751.0 192751.0 192751.0
182884.0 184898.0 101025.0 96864.0 177709.0 170462.0 0.0 7913.0 185209.0 184758.0 164539.0 158546.0 72976.0 78511.0 97987.0 92875.0 118579.0 111913.0 138598.0 131649.0 86562.0 90724.0 128130.0 132299.0 125153.0 132960.0 100635.0 92751.0 189432.0 186373.0 105206.0 112027.0 93419.0 98283.0 108511.0 111472.0 193562.0 198152.0 167138.0 162519.0 172441.0 170905.0 46449.0 53625.0 78323.0 80972.0 186362.0 189299.0 340431.0 332413.0 340209.0 340668.0 118271.0 122395.0 151347.0 157044.0 180128.0 178611.0 114955.0 110921.0 213687.0 205896.0 23321.0 24940.0 203500.0 207489.0 30798.0 30251.0 77883.0 79708.0 336316.0 342445.0 265845.0 258030.0 30315.0 23144.0 29028.0 26868.0 60859.0 60069.0 196277.0 205896.0 196277.0 196277.0 196277.0 196277.0 205896.0 205896.0 205896.0 205896.0
176991.0 179241.0 107936.0 103502.0 172619.0 165263.0 7913.0 0.0 189152.0 188992.0 158300.0 152140.0 69720.0 74626.0 101167.0 95548.0 122098.0 115166.0 134088.0 127368.0 88433.0 93203.0 129010.0 132756.0 126496.0 134081.0 100249.0 92536.0 184606.0 181322.0 107997.0 115139.0 89741.0 94134.0 106234.0 109708.0 189463.0 194280.0 169750.0 165193.0 174643.0 173452.0 38942.0 45947.0 77117.0 79010.0 188715.0 191951.0 345694.0 337675.0 344845.0 345154.0 115205.0 118892.0 147112.0 153074.0 184854.0 183610.0 115309.0 110802.0 218851.0 211115.0 22833.0 21661.0 198513.0 202724.0 24747.0 25923.0 71682.0 73022.0 340601.0 346829.0 270891.0 263121.0 38215.0 31042.0 35117.0 31551.0 67461.0 67166.0 193212.0 208479.0 193212.0 193212.0 193212.0 193212.0 208479.0 208479.0 208479.0 208479.0
231129.0 226107.0 213113.0 216952.0 207853.0 206645.0 185209.0 189152.0 0.0 8049.0 229342.0 230266.0 156547.0 162077.0 88864.0 95921.0 67479.0 75032.0 178207.0 171816.0 106045.0 98892.0 86183.0 90712.0 81477.0 80218.0 116101.0 118472.0 207777.0 211614.0 83746.0 75578.0 158262.0 164659.0 137681.0 129897.0 192467.0 189826.0 37806.0 38742.0 45165.0 37848.0 200091.0 206445.0 135518.0 141379.0 41056.0 34066.0 164374.0 156574.0 157592.0 157097.0 148900.0 156329.0 176875.0 173342.0 22372.0 30444.0 99995.0 107971.0 47890.0 44614.0 207776.0 210089.0 219997.0 216769.0 184394.0 176390.0 191004.0 199127.0 151827.0 158349.0 89653.0 83154.0 170836.0 176810.0 157629.0 158346.0 201516.0 193757.0 176257.0 42206.0 176257.0 176257.0 176257.0 176257.0 42206.0 42206.0 42206.0 42206.0
237004.0 232135.0 208869.0 212937.0 213987.0 212580.0 184758.0 188992.0 8049.0 0.0 234678.0 235386.0 159254.0 165075.0 89719.0 97168.0 68347.0 76170.0 183519.0 176951.0 107720.0 100245.0 90828.0 95814.0 85629.0 85052.0 119655.0 121545.0 214246.0 217936.0 85289.0 76936.0 161931.0 168526.0 142008.0 134324.0 199278.0 196684.0 44405.0 44768.0 52424.0 44864.0 201462.0 207995.0 138162.0 144309.0 49018.0 42107.0 161549.0 153670.0 156439.0 156348.0 153676.0 161242.0 182645.0 179346.0 14598.0 22661.0 104074.0 112004.0 41572.0 37555.0 207065.0 209687.0 226645.0 223570.0 185283.0 177235.0 193823.0 201908.0 151608.0 157880.0 86300.0 79422.0 169198.0 175412.0 156782.0 157902.0 198652.0 190820.0 183114.0 49871.0 183114.0 183114.0 183114.0 183114.0 49871.0 49871.0 49871.0 49871.0
21864.0 28184.0 265113.0 261327.0 37740.0 32115.0 164539.0 158300.0 229342.0 234678.0 0.0 8242.0 103759.0 95434.0 167483.0 159444.0 180977.0 173992.0 51159.0 58012.0 148655.0 156537.0 144396.0 138891.0 150655.0 149829.0 122376.0 124932.0 50673.0 43380.0 164874.0 172017.0 86652.0 78776.0 96426.0 102971.0 70345.0 78341.0 192356.0 190707.0 188051.0 193469.0 122033.0 117684.0 117604.0 109647.0 199654.0 207344.0 388511.0 381206.0 374359.0 372419.0 82453.0 74395.0 54425.0 60509.0 240891.0 245146.0 133354.0 126142.0 276048.0 270945.0 175242.0 168141.0 56786.0 64557.0 133764.0 135265.0 86663.0 85767.0 366147.0 373000.0 317129.0 311440.0 188533.0 184395.0 171224.0 163290.0 225380.0 224039.0 100102.0 218659.0 100102.0 100102.0 100102.0 100102.0 218659.0 218659.0 218659.0 218659.0
30056.0 36404.0 259348.0 255404.0 44860.0 38598.0 158546.0 152140.0 230266.0 235386.0 8242.0 0.0 99912.0 91522.0 165777.0 157601.0 180037.0 172872.0 52363.0 58451.0 146588.0 154618.0 144750.0 139595.0 150721.0 150361.0 121207.0 123251.0 58212.0 51032.0 163588.0 170946.0 83818.0 75895.0 95562.0 102465.0 77313.0 85293.0 193611.0 191773.0 189721.0 194885.0 115360.0 110749.0 114827.0 106828.0 201670.0 209249.0 390489.0 383117.0 376523.0 374583.0 82180.0 74320.0 57625.0 64378.0 241138.0 245159.0 133065.0 125650.0 276603.0 271316.0 168588.0 161362.0 64892.0 72585.0 127748.0 129599.0 80714.0 79292.0 368311.0 375164.0 318562.0 312728.0 183164.0 178797.0 166278.0 158320.0 219405.0 218270.0 105724.0 220823.0 105724.0 105724.0 105724.0 105724.0 220823.0 220823.0 220823.0 220823.0
118278.0 118523.0 167185.0 164684.0 108280.0 101697.0 72976.0 69720.0 156547.0 159254.0 103759.0 99912.0 0.0 8408.0 74147.0 65593.0 93267.0 85226.0 67471.0 59898.0 53897.0 62300.0 76469.0 76820.0 77804.0 82729.0 42959.0 38494.0 118764.0 116638.0 75441.0 83878.0 20811.0 27039.0 37861.0 43069.0 121040.0 125348.0 126722.0 123054.0 127969.0 129610.0 52674.0 56222.0 21103.0 15697.0 142344.0 147772.0 320763.0 312905.0 313257.0 312071.0 45489.0 49436.0 79265.0 84435.0 160515.0 162355.0 60772.0 53569.0 197100.0 190446.0 91965.0 88059.0 133309.0 136473.0 47905.0 43938.0 34617.0 42661.0 305889.0 312721.0 245542.0 238543.0 89480.0 87280.0 70060.0 62503.0 130064.0 126961.0 123494.0 162894.0 123494.0 123494.0 123494.0 123494.0 162894.0 162894.0 162894.0 162894.0
110230.0 110669.0 174353.0 171646.0 100942.0 94191.0 78511.0 74626.0 162077.0 165075.0 95434.0 91522.0 8408.0 0.0 81382.0 72808.0 99951.0 91961.0 60561.0 53288.0 61095.0 69533.0 80159.0 79715.0 82222.0 86506.0 46904.0 43606.0 111801.0 109395.0 82145.0 90514.0 15231.0 19933.0 36756.0 43113.0 115052.0 119695.0 131192.0 127701.0 131844.0 133922.0 53247.0 55659.0 27654.0 20785.0 146116.0 151845.0 326430.0 318604.0 318234.0 316877.0 41647.0 44415.0 72906.0 78541.0 166853.0 168949.0 64528.0 56939.0 203455.0 196926.0 96354.0 91865.0 126220.0 129658.0 51562.0 48706.0 29152.0 37319.0 310631.0 317484.0 251367.0 244467.0 96628.0 94033.0 77587.0 69901.0 136715.0 133892.0 119091.0 166617.0 119091.0 119091.0 119091.0 119091.0 166617.0 166617.0 166617.0 166617.0
176403.0 173960.0 150922.0 152119.0 158627.0 154410.0 97987.0 101167.0 88864.0 89719.0 167483.0 165777.0 74147.0 81382.0 0.0 8574.0 21407.0 14012.0 119565.0 111497.0 20287.0 11854.0 44732.0 52341.0 37761.0 46114.0 45831.0 42557.0 164297.0 165228.0 8902.0 14049.0 83191.0 90927.0 71871.0 66766.0 157049.0 157785.0 69617.0 64904.0 75984.0 73495.0 111870.0 118576.0 53825.0 61390.0 89304.0 91614.0 250290.0 242327.0 246127.0 245868.0 86820.0 94954.0 124862.0 125398.0 88356.0 89222.0 42227.0 46076.0 124555.0 117512.0 121112.0 122528.0 178879.0 178924.0 95595.0 87566.0 108275.0 116026.0 240689.0 247199.0 174790.0 167413.0 89347.0 93697.0 72422.0 71493.0 127135.0 120410.0 146755.0 108273.0 146755.0 146755.0 146755.0 146755.0 108273.0 108273.0 108273.0 108273.0
168773.0 166517.0 151584.0 152328.0 151488.0 147071.0 92875.0 95548.0 95921.0 97168.0 159444.0 157601.0 65593.0 72808.0 8574.0 0.0 28923.0 20999.0 112000.0 103874.0 11714.0 3298.0 42858.0 49893.0 36857.0 45389.0 38517.0 34560.0 157570.0 158263.0 12502.0 20344.0 74764.0 82533.0 64302.0 59621.0 151065.0 152125.0 74272.0 69676.0 79765.0 78030.0 104297.0 110851.0 45255.0 52842.0 93535.0 96452.0 258133.0 250184.0 253423.0 253017.0 79349.0 87428.0 117787.0 118671.0 96377.0 97475.0 37483.0 40153.0 132706.0 125741.0 116148.0 117087.0 172236.0 172543.0 88537.0 80576.0 99777.0 107557.0 247639.0 254242.0 182634.0 175321.0 86679.0 90408.0 68639.0 66869.0 125789.0 119384.0 141709.0 113029.0 141709.0 141709.0 141709.0 141709.0 113029.0 113029.0 113029.0 113029.0
187910.0 184689.0 163005.0 165074.0 168268.0 164865.0 118579.0 122098.0 67479.0 68347.0 180977.0 180037.0 93267.0 99951.0 21407.0 28923.0 0.0 8071.0 131294.0 123574.0 39960.0 32086.0 44011.0 52002.0 36012.0 42326.0 58884.0 58055.0 172375.0 174158.0 17827.0 9456.0 99717.0 107122.0 84563.0 78158.0 162681.0 162379.0 51276.0 46483.0 59143.0 55279.0 133145.0 139756.0 72345.0 79359.0 71321.0 72576.0 229214.0 221268.0 224730.0 224461.0 98744.0 106914.0 134627.0 133918.0 67587.0 69093.0 48887.0 55247.0 104047.0 97241.0 141517.0 143299.0 186538.0 185668.0 117001.0 108973.0 127786.0 135700.0 219305.0 225799.0 153717.0 146422.0 107522.0 112568.0 92030.0 91846.0 143031.0 135862.0 149818.0 89199.0 149818.0 149818.0 149818.0 149818.0 89199.0 89199.0 89199.0 89199.0
181431.0 178414.0 160598.0 162298.0 162274.0 158641.0 111913.0 115166.0 75032.0 76170.0 173992.0 172872.0 85226.0 91961.0 14012.0 20999.0 8071.0 0.0 124681.0 116858.0 31900.0 24108.0 40463.0 48504.0 32578.0 39909.0 51668.0 50388.0 166835.0 168373.0 9818.0 2204.0 92009.0 99483.0 77582.0 71450.0 157869.0 157896.0 56234.0 51474.0 63223.0 60173.0 125293.0 131846.0 64336.0 71414.0 76120.0 78042.0 237204.0 229263.0 232460.0 232106.0 91999.0 100185.0 128540.0 128179.0 75649.0 77147.0 43079.0 48880.0 112117.0 105308.0 134990.0 136501.0 181142.0 180547.0 109362.0 101361.0 119730.0 127637.0 226827.0 233380.0 161714.0 154441.0 102250.0 106941.0 85970.0 85332.0 138912.0 131936.0 145762.0 94711.0 145762.0 145762.0 145762.0 145762.0 94711.0 94711.0 94711.0 94711.0
56858.0 54618.0 234655.0 232118.0 41364.0 35664.0 138598.0 134088.0 178207.0 183519.0 51159.0 52363.0 67471.0 60561.0 119565.0 112000.0 131294.0 124681.0 0.0 8263.0 102058.0 109353.0 93348.0 87738.0 99786.0 98705.0 73758.0 77672.0 51295.0 49414.0 115973.0 122624.0 46847.0 40636.0 47708.0 53237.0 56080.0 61878.0 141342.0 139607.0 137358.0 142558.0 105322.0 104215.0 74714.0 67432.0 149369.0 156912.0 338149.0 330766.0 324284.0 322344.0 32781.0 24616.0 14198.0 22113.0 189828.0 194208.0 82928.0 76071.0 224896.0 219831.0 154779.0 149293.0 65863.0 69097.0 109888.0 108423.0 68309.0 72404.0 316072.0 322925.0 266243.0 260461.0 156949.0 154573.0 137417.0 129943.0 197275.0 194375.0 67138.0 168584.0 67138.0 67138.0 67138.0 67138.0 168584.0 168584.0 168584.0 168584.0
64910.0 62844.0 227007.0 224578.0 49518.0 43924.0 131649.0 127368.0 171816.0 176951.0 58012.0 58451.0 59898.0 53288.0 111497.0 103874.0 123574.0 116858.0 8263.0 0.0 93857.0 101200.0 86434.0 81148.0 92643.0 91959.0 65730.0 69490.0 58999.0 57448.0 108054.0 114819.0 39143.0 33387.0 39627.0 45425.0 62164.0 67413.0 135264.0 133352.0 131703.0 136636.0 99895.0 99285.0 66504.0 59278.0 144055.0 151463.0 332605.0 325165.0 319066.0 317126.0 24859.0 16672.0 19750.0 26378.0 182914.0 187135.0 75463.0 68432.0 218216.0 213016.0 148391.0 143139.0 73686.0 76587.0 103407.0 101577.0 63515.0 68311.0 310854.0 317707.0 260255.0 254353.0 149344.0 147142.0 129669.0 122261.0 189897.0 186858.0 69266.0 163413.0 69266.0 69266.0 69266.0 69266.0 163413.0 163413.0 163413.0 163413.0
158629.0 156671.0 153017.0 153143.0 142143.0 137419.0 86562.0 88433.0 106045.0 107720.0 148655.0 146588.0 53897.0 61095.0 20287.0 11714.0 39960.0 31900.0 102058.0 93857.0 0.0 8440.0 43259.0 49083.0 39015.0 47220.0 29823.0 24423.0 148853.0 149178.0 22441.0 30868.0 63375.0 71199.0 54593.0 50755.0 143507.0 145055.0 81847.0 77441.0 86251.0 85421.0 94098.0 100401.0 33563.0 41211.0 100412.0 104026.0 269013.0 261083.0 263636.0 263049.0 69702.0 77641.0 108631.0 110070.0 107547.0 108885.0 33800.0 34169.0 143987.0 137112.0 109869.0 110092.0 163620.0 164328.0 79218.0 71419.0 88155.0 95975.0 257429.0 264143.0 193542.0 186305.0 84070.0 86845.0 64720.0 61697.0 124636.0 118722.0 135648.0 120401.0 135648.0 135648.0 135648.0 135648.0 120401.0 120401.0 120401.0 120401.0
166075.0 163913.0 151565.0 152134.0 149035.0 144523.0 90724.0 93203.0 98892.0 100245.0 156537.0 154618.0 62300.0 69533.0 11854.0 3298.0 32086.0 24108.0 109353.0 101200.0 8440.0 0.0 42980.0 49718.0 37433.0 45938.0 36119.0 31765.0 155308.0 155891.0 15225.0 23336.0 71640.0 79430.0 61692.0 57244.0 149145.0 150348.0 76547.0 71997.0 81746.0 80259.0 101248.0 107752.0 41999.0 49619.0 95639.0 98749.0 261297.0 253353.0 256435.0 255985.0 76773.0 84816.0 115380.0 116430.0 99596.0 100741.0 36415.0 38485.0 135949.0 129001.0 114026.0 114788.0 170008.0 170436.0 85672.0 77741.0 96480.0 104262.0 250549.0 257179.0 185802.0 178505.0 85473.0 88956.0 67050.0 64957.0 125027.0 118751.0 140215.0 115283.0 140215.0 140215.0 140215.0 140215.0 115283.0 115283.0 115283.0 115283.0
148489.0 144436.0 194437.0 195101.0 127140.0 124583.0 128130.0 129010.0 86183.0 90828.0 144396.0 144750.0 76469.0 80159.0 44732.0 42858.0 44011.0 40463.0 93348.0 86434.0 43259.0 42980.0 0.0 8047.0 8000.0 6380.0 33509.0 39000.0 129970.0 132360.0 36455.0 38310.0 73578.0 79333.0 51634.0 43768.0 119100.0 118517.0 51785.0 48854.0 51688.0 54165.0 126726.0 131566.0 57312.0 60791.0 65968.0 71752.0 249474.0 241815.0 239150.0 237453.0 62851.0 70478.0 94182.0 92305.0 96495.0 100906.0 15698.0 23263.0 131870.0 126585.0 151224.0 150528.0 143778.0 142438.0 115593.0 108563.0 109203.0 117345.0 231189.0 238042.0 175587.0 169281.0 127327.0 130022.0 107881.0 104429.0 167670.0 161561.0 105814.0 86491.0 105814.0 105814.0 105814.0 105814.0 86491.0 86491.0 86491.0 86491.0
142167.0 137877.0 201279.0 201765.0 120347.0 118069.0 132299.0 132756.0 90712.0 95814.0 138891.0 139595.0 76820.0 79715.0 52341.0 49893.0 52002.0 48504.0 87738.0 81148.0 49083.0 49718.0 8047.0 0.0 16024.0 11266.0 34374.0 41004.0 122739.0 125335.0 44247.0 46347.0 71736.0 76900.0 48541.0 40544.0 111416.0 110686.0 54881.0 52510.0 53248.0 56792.0 128188.0 132633.0 58859.0 61344.0 67101.0 73501.0 252942.0 245355.0 241611.0 239754.0 58364.0 65647.0 87741.0 85457.0 102302.0 107065.0 17477.0 23398.0 137159.0 132151.0 155205.0 154120.0 136403.0 134887.0 118118.0 111372.0 108437.0 116512.0 233482.0 240335.0 179620.0 173516.0 132974.0 135327.0 113204.0 109347.0 173719.0 167774.0 97865.0 87390.0 97865.0 97865.0 97865.0 97865.0 87390.0 87390.0 87390.0 87390.0
155394.0 151527.0 188245.0 189128.0 134417.0 131657.0 125153.0 126496.0 81477.0 85629.0 150655.0 150721.0 77804.0 82222.0 37761.0 36857.0 36012.0 32578.0 99786.0 92643.0 39015.0 37433.0 8000.0 16024.0 0.0 8532.0 35361.0 39454.0 137556.0 139802.0 29199.0 30445.0 76990.0 83216.0 56387.0 48769.0 126975.0 126467.0 48980.0 45509.0 50495.0 51806.0 126627.0 131847.0 57729.0 62139.0 64946.0 70028.0 245467.0 237744.0 236133.0 234682.0 68571.0 76410.0 101243.0 99657.0 90444.0 94495.0 18521.0 26503.0 126243.0 120699.0 148388.0 148118.0 151455.0 150229.0 114442.0 107146.0 111374.0 119540.0 228424.0 235277.0 171111.0 164618.0 122662.0 125751.0 103660.0 100694.0 162460.0 156162.0 113808.0 85477.0 113808.0 113808.0 113808.0 113808.0 85477.0 85477.0 85477.0 85477.0
153383.0 149130.0 196744.0 197650.0 131612.0 129316.0 132960.0 134081.0 80218.0 85052.0 149829.0 150361.0 82729.0 86506.0 46114.0 45389.0 42326.0 39909.0 98705.0 91959.0 47220.0 45938.0 6380.0 11266.0 8532.0 0.0 39783.0 45020.0 133932.0 136580.0 37434.0 37861.0 79942.0 85651.0 57827.0 49919.0 122296.0 121341.0 45452.0 42604.0 45338.0 47794.0 132712.0 137650.0 63372.0 67041.0 59647.0 65379.0 243253.0 235607.0 232794.0 231082.0 68689.0 76194.0 98972.0 96722.0 91179.0 95848.0 21998.0 29636.0 126257.0 121125.0 156137.0 155658.0 147529.0 145893.0 121241.0 114106.0 115565.0 123709.0 224819.0 231672.0 169492.0 163244.0 131059.0 134046.0 111932.0 108801.0 170960.0 164680.0 108260.0 80183.0 108260.0 108260.0 108260.0 108260.0 80183.0 80183.0 80183.0 80183.0
130612.0 128132.0 179092.0 178480.0 112971.0 108610.0 100635.0 100249.0 116101.0 119655.0 122376.0 121207.0 42959.0 46904.0 45831.0 38517.0 58884.0 51668.0 73758.0 65730.0 29823.0 36119.0 33509.0 34374.0 35361.0 39783.0 0.0 8078.0 119218.0 119775.0 42504.0 49740.0 42290.0 49116.0 26131.0 21125.0 113718.0 115407.0 84300.0 80869.0 85079.0 87018.0 93817.0 98348.0 24539.0 27289.0 99423.0 104993.0 280407.0 272638.0 271483.0 270041.0 40995.0 49142.0 79278.0 80366.0 122852.0 125871.0 17813.0 11022.0 159270.0 153198.0 122986.0 121237.0 133943.0 134533.0 84131.0 77674.0 76046.0 84210.0 263782.0 270635.0 205704.0 199018.0 105787.0 106815.0 85210.0 80055.0 147605.0 142504.0 106667.0 119965.0 106667.0 106667.0 106667.0 106667.0 119965.0 119965.0 119965.0 119965.0
134331.0 132274.0 171316.0 170611.0 117740.0 112997.0 92751.0 92536.0 118472.0 121545.0 124932.0 123251.0 38494.0 43606.0 42557.0 34560.0 58055.0 50388.0 77672.0 69490.0 24423.0 31765.0 39000.0 41004.0 39454.0 45020.0 8078.0 0.0 124650.0 124832.0 40756.0 48654.0 41664.0 49095.0 30176.0 26855.0 120110.0 122112.0 88265.0 84564.0 89866.0 91210.0 87727.0 92636.0 18360.0 22983.0 104298.0 109482.0 282830.0 275010.0 274826.0 273594.0 45283.0 53221.0 84289.0 85984.0 123807.0 126336.0 23702.0 18274.0 160375.0 154043.0 115222.0 113647.0 139452.0 140387.0 77114.0 70427.0 72611.0 80760.0 267401.0 274229.0 207814.0 200962.0 97736.0 98737.0 77146.0 71978.0 139577.0 134523.0 113965.0 124850.0 113965.0 113965.0 113965.0 113965.0 124850.0 124850.0 124850.0 124850.0
34471.0 26360.0 285945.0 283407.0 14177.0 21991.0 189432.0 184606.0 207777.0 214246.0 50673.0 58212.0 118764.0 111801.0 164297.0 157570.0 172375.0 166835.0 51295.0 58999.0 148853.0 155308.0 129970.0 122739.0 137556.0 133932.0 119218.0 124650.0 0.0 7456.0 159223.0 164661.0 98096.0 91901.0 94745.0 98127.0 21521.0 29168.0 169980.0 169517.0 163392.0 170102.0 153502.0 151223.0 124715.0 117853.0 172590.0 180691.0 360918.0 353694.0 346729.0 344789.0 79916.0 72686.0 40743.0 38906.0 223032.0 228589.0 123757.0 118459.0 255644.0 251710.0 204655.0 198714.0 14862.0 18187.0 160114.0 159188.0 115911.0 118267.0 338517.0 345370.0 291188.0 286282.0 208244.0 205834.0 188658.0 181219.0 248499.0 245662.0 57108.0 191029.0 57108.0 57108.0 57108.0 57108.0 191029.0 191029.0 191029.0 191029.0
27135.0 19108.0 283741.0 281013.0 8764.0 16558.0 186373.0 181322.0 211614.0 217936.0 43380.0 51032.0 116638.0 109395.0 165228.0 158263.0 174158.0 168373.0 49414.0 57448.0 149178.0 155891.0 132360.0 125335.0 139802.0 136580.0 119775.0 124832.0 7456.0 0.0 160491.0 166216.0 96180.0 89627.0 94721.0 98652.0 28723.0 36493.0 173811.0 173169.0 167538.0 174081.0 149332.0 146748.0 123800.0 116698.0 177127.0 185194.0 365456.0 358232.0 351267.0 349327.0 79698.0 72127.0 40547.0 40243.0 226370.0 231752.0 125347.0 119699.0 259422.0 255313.0 200985.0 194855.0 17281.0 23060.0 156710.0 156126.0 111778.0 113718.0 343055.0 349908.0 295721.0 290784.0 206012.0 203340.0 186683.0 179138.0 245878.0 243256.0 63495.0 195567.0 63495.0 63495.0 63495.0 63495.0 195567.0 195567.0 195567.0 195567.0
172806.0 170002.0 159802.0 161019.0 154173.0 150300.0 105206.0 107997.0 83746.0 85289.0 164874.0 163588.0 75441.0 82145.0 8902.0 12502.0 17827.0 9818.0 115973.0 108054.0 22441.0 15225.0 36455.0 44247.0 29199.0 37434.0 42504.0 40756.0 159223.0 160491.0 0.0 8481.0 82310.0 89830.0 68579.0 62771.0 151086.0 151489.0 61952.0 57316.0 67811.0 65753.0 116348.0 122757.0 54526.0 61599.0 81388.0 84094.0 246581.0 238654.0 241323.0 240822.0 83211.0 91398.0 120389.0 120413.0 85276.0 86916.0 35857.0 40796.0 121795.0 115041.0 128444.0 129508.0 173668.0 173378.0 100897.0 92965.0 109970.0 117896.0 235343.0 241989.0 171118.0 163903.0 97786.0 101912.0 80395.0 79010.0 135919.0 129239.0 139943.0 100704.0 139943.0 139943.0 139943.0 139943.0 100704.0 100704.0 100704.0 100704.0
179356.0 176310.0 162051.0 163668.0 160136.0 156529.0 112027.0 115139.0 75578.0 76936.0 172017.0 170946.0 83878.0 90514.0 14049.0 20344.0 9456.0 2204.0 122624.0 114819.0 30868.0 23336.0 38310.0 46347.0 30445.0 37861.0 49740.0 48654.0 164661.0 166216.0 8481.0 0.0 90306.0 97740.0 75596.0 69402.0 155667.0 155692.0 55678.0 50943.0 62381.0 59585.0 124584.0 131064.0 62924.0 69907.0 75469.0 77611.0 238146.0 230215.0 233102.0 232675.0 89963.0 98148.0 126410.0 126016.0 76795.0 78480.0 40906.0 46767.0 113319.0 106581.0 135160.0 136537.0 178959.0 178353.0 108867.0 100892.0 118426.0 126362.0 227303.0 233899.0 162674.0 155444.0 102946.0 107505.0 86380.0 85541.0 139949.0 133030.0 143565.0 94275.0 143565.0 143565.0 143565.0 143565.0 94275.0 94275.0 94275.0 94275.0
99426.0 99059.0 187867.0 185447.0 87935.0 81589.0 93419.0 89741.0 158262.0 161931.0 86652.0 83818.0 20811.0 15231.0 83191.0 74764.0 99717.0 92009.0 46847.0 39143.0 63375.0 71640.0 73578.0 71736.0 76990.0 79942.0 42290.0 41664.0 98096.0 96180.0 82310.0 90306.0 0.0 7924.0 24671.0 32174.0 100295.0 104738.0 125339.0 122237.0 124851.0 127735.0 67596.0 69255.0 31013.0 23022.0 138827.0 145069.0 322443.0 314705.0 312725.0 311017.0 26677.0 29196.0 58454.0 63704.0 165022.0 167816.0 58556.0 50591.0 201498.0 195340.0 111567.0 107093.0 112709.0 115730.0 66793.0 63820.0 38148.0 45835.0 304759.0 311612.0 247903.0 241264.0 110202.0 108089.0 90572.0 83126.0 150875.0 147738.0 103862.0 159119.0 103862.0 103862.0 103862.0 103862.0 159119.0 159119.0 159119.0 159119.0
91878.0 91746.0 194133.0 191512.0 81246.0 74670.0 98283.0 94134.0 164659.0 168526.0 78776.0 75895.0 27039.0 19933.0 90927.0 82533.0 107122.0 99483.0 40636.0 33387.0 71199.0 79430.0 79333.0 76900.0 83216.0 85651.0 49116.0 49095.0 91901.0 89627.0 89830.0 97740.0 7924.0 0.0 28608.0 36540.0 95339.0 100194.0 131102.0 128157.0 130146.0 133359.0 69126.0 69891.0 38933.0 30938.0 143944.0 150397.0 328637.0 320933.0 318372.0 316525.0 26221.0 26432.0 53065.0 58961.0 171967.0 174924.0 64702.0 56715.0 208372.0 202313.0 115469.0 110553.0 106368.0 109731.0 70476.0 68277.0 36383.0 43420.0 310307.0 317159.0 254310.0 247756.0 116406.0 113940.0 97097.0 89516.0 156641.0 153763.0 100912.0 164086.0 100912.0 100912.0 100912.0 100912.0 164086.0 164086.0 164086.0 164086.0
104532.0 102223.0 196260.0 194787.0 87568.0 82855.0 108511.0 106234.0 137681.0 142008.0 96426.0 95562.0 37861.0 36756.0 71871.0 64302.0 84563.0 77582.0 47708.0 39627.0 54593.0 61692.0 51634.0 48541.0 56387.0 57827.0 26131.0 30176.0 94745.0 94721.0 68579.0 75596.0 24671.0 28608.0 0.0 7999.0 91591.0 94375.0 103153.0 100430.0 101758.0 105246.0 89824.0 92414.0 32274.0 27674.0 115445.0 122010.0 301080.0 293433.0 290151.0 288294.0 15109.0 23127.0 54205.0 56388.0 146517.0 150102.0 38070.0 30333.0 182552.0 176853.0 128868.0 125469.0 109586.0 110871.0 85590.0 80985.0 62794.0 70506.0 282022.0 288875.0 227193.0 220828.0 120008.0 119440.0 99417.0 92910.0 161836.0 157664.0 88814.0 135524.0 88814.0 88814.0 88814.0 88814.0 135524.0 135524.0 135524.0 135524.0
110040.0 107290.0 196426.0 195279.0 91891.0 87668.0 111472.0 109708.0 129897.0 134324.0 102971.0 102465.0 43069.0 43113.0 66766.0 59621.0 78158.0 71450.0 53237.0 45425.0 50755.0 57244.0 43768.0 40544.0 48769.0 49919.0 21125.0 26855.0 98127.0 98652.0 62771.0 69402.0 32174.0 36540.0 7999.0 0.0 93274.0 95418.0 95194.0 92510.0 93759.0 97264.0 95615.0 98622.0 33564.0 30720.0 107457.0 114011.0 293158.0 285522.0 282155.0 280295.0 20587.0 28758.0 58167.0 59316.0 139090.0 142832.0 30666.0 23194.0 175007.0 169397.0 132483.0 129508.0 112875.0 113615.0 90087.0 84969.0 70108.0 77931.0 274024.0 280876.0 219354.0 213027.0 121058.0 121017.0 100364.0 94257.0 163013.0 158507.0 88170.0 127556.0 88170.0 88170.0 88170.0 88170.0 127556.0 127556.0 127556.0 127556.0
55855.0 47817.0 286951.0 284999.0 32612.0 38864.0 193562.0 189463.0 192467.0 199278.0 70345.0 77313.0 121040.0 115052.0 157049.0 151065.0 162681.0 157869.0 56080.0 62164.0 143507.0 149145.0 119100.0 111416.0 126975.0 122296.0 113718.0 120110.0 21521.0 28723.0 151086.0 155667.0 100295.0 95339.0 91591.0 93274.0 0.0 7995.0 154874.0 154871.0 147536.0 154622.0 161384.0 160085.0 123340.0 117317.0 156255.0 164355.0 344580.0 337356.0 330391.0 328451.0 77938.0 72083.0 42429.0 36608.0 208913.0 214895.0 115228.0 111025.0 240324.0 236833.0 210553.0 205243.0 28514.0 24303.0 165570.0 163616.0 124204.0 127786.0 322179.0 329032.0 274850.0 269940.0 209734.0 208127.0 189539.0 182480.0 250925.0 247450.0 36893.0 174691.0 36893.0 36893.0 36893.0 36893.0 174691.0 174691.0 174691.0 174691.0
63619.0 55527.0 290382.0 288626.0 40607.0 46807.0 198152.0 194280.0 189826.0 196684.0 78341.0 85293.0 125348.0 119695.0 157785.0 152125.0 162379.0 157896.0 61878.0 67413.0 145055.0 150348.0 118517.0 110686.0 126467.0 121341.0 115407.0 122112.0 29168.0 36493.0 151489.0 155692.0 104738.0 100194.0 94375.0 95418.0 7995.0 0.0 152289.0 152402.0 144895.0 151979.0 167127.0 166089.0 126448.0 120751.0 153604.0 161704.0 341929.0 334705.0 327740.0 325800.0 81327.0 76025.0 47880.0 41240.0 206530.0 212656.0 115692.0 111976.0 237672.0 234236.0 215632.0 210514.0 34156.0 28492.0 170628.0 168379.0 130183.0 134054.0 319528.0 326381.0 272199.0 267289.0 213455.0 212110.0 193110.0 186197.0 254870.0 251195.0 31861.0 172040.0 31861.0 31861.0 31861.0 31861.0 172040.0 172040.0 172040.0 172040.0
193531.0 188405.0 212817.0 215347.0 170102.0 169011.0 167138.0 169750.0 37806.0 44405.0 192356.0 193611.0 126722.0 131192.0 69617.0 74272.0 51276.0 56234.0 141342.0 135264.0 81847.0 76547.0 51785.0 54881.0 48980.0 45452.0 84300.0 88265.0 169980.0 173811.0 61952.0 55678.0 125339.0 131102.0 103153.0 95194.0 154874.0 152289.0 0.0 4794.0 10588.0 4016.0 174381.0 179984.0 106364.0 111085.0 20052.0 22208.0 198061.0 190475.0 187394.0 185796.0 113173.0 120267.0 139408.0 135674.0 54855.0 61685.0 66937.0 74824.0 85665.0 81959.0 190391.0 191329.0 182271.0 179165.0 160789.0 153116.0 160341.0 168507.0 179525.0 186377.0 124996.0 119121.0 158459.0 163163.0 142036.0 140941.0 194276.0 187055.0 138719.0 38758.0 138719.0 138719.0 138719.0 138719.0 38758.0 38758.0 38758.0 38758.0
192403.0 187436.0 208137.0 210632.0 169242.0 167935.0 162519.0 165193.0 38742.0 44768.0 190707.0 191773.0 123054.0 127701.0 64904.0 69676.0 46483.0 51474.0 139607.0 133352.0 77441.0 71997.0 48854.0 52510.0 45509.0 42604.0 80869.0 84564.0 169517.0 173169.0 57316.0 50943.0 122237.0 128157.0 100430.0 92510.0 154871.0 152402.0 4794.0 0.0 14329.0 8801.0 170278.0 175962.0 102557.0 107460.0 24843.0 26780.0 200651.0 193013.0 190634.0 189179.0 110874.0 118114.0 138133.0 134655.0 54180.0 60636.0 63712.0 71653.0 86298.0 82194.0 185759.0 186756.0 182031.0 179130.0 156488.0 148781.0 156852.0 165019.0 182930.0 189783.0 127110.0 121045.0 153685.0 158411.0 137316.0 136275.0 189485.0 182269.0 138832.0 43398.0 138832.0 138832.0 138832.0 138832.0 43398.0 43398.0 43398.0 43398.0
188147.0 182720.0 221688.0 224008.0 164241.0 163574.0 172441.0 174643.0 45165.0 52424.0 188051.0 189721.0 127969.0 131844.0 75984.0 79765.0 59143.0 63223.0 137358.0 131703.0 86251.0 81746.0 51688.0 53248.0 50495.0 45338.0 85079.0 89866.0 163392.0 167538.0 67811.0 62381.0 124851.0 130146.0 101758.0 93759.0 147536.0 144895.0 10588.0 14329.0 0.0 8000.0 177072.0 182341.0 108191.0 112272.0 14452.0 20253.0 200905.0 193464.0 188473.0 186570.0 110632.0 117336.0 134453.0 130218.0 63979.0 71136.0 67330.0 74940.0 92857.0 89770.0 195754.0 196291.0 175277.0 171836.0 164360.0 156862.0 160889.0 169027.0 180298.0 187151.0 129176.0 123744.0 165291.0 169662.0 148205.0 146632.0 202012.0 194925.0 131325.0 34986.0 131325.0 131325.0 131325.0 131325.0 34986.0 34986.0 34986.0 34986.0
194202.0 188944.0 216803.0 219348.0 170558.0 169652.0 170905.0 173452.0 37848.0 44864.0 193469.0 194885.0 129610.0 133922.0 73495.0 78030.0 55279.0 60173.0 142558.0 136636.0 85421.0 80259.0 54165.0 56792.0 51806.0 47794.0 87018.0 91210.0 170102.0 174081.0 65753.0 59585.0 127735.0 133359.0 105246.0 97264.0 154622.0 151979.0 4016.0 8801.0 8000.0 0.0 177646.0 183173.0 109386.0 113945.0 16043.0 18629.0 196280.0 188744.0 185021.0 183289.0 114893.0 121857.0 140237.0 136291.0 56086.0 63179.0 69511.0 77336.0 85709.0 82347.0 194171.0 195046.0 182199.0 178924.0 164241.0 156601.0 163058.0 171219.0 177025.0 183878.0 123686.0 117987.0 162412.0 167085.0 145917.0 144759.0 198286.0 191069.0 138409.0 35028.0 138409.0 138409.0 138409.0 138409.0 35028.0 35028.0 35028.0 35028.0
141802.0 144903.0 146606.0 141868.0 140571.0 132867.0 46449.0 38942.0 200091.0 201462.0 122033.0 115360.0 52674.0 53247.0 111870.0 104297.0 133145.0 125293.0 105322.0 99895.0 94098.0 101248.0 126726.0 128188.0 126627.0 132712.0 93817.0 87727.0 153502.0 149332.0 116348.0 124584.0 67596.0 69126.0 89824.0 95615.0 161384.0 167127.0 174381.0 170278.0 177072.0 177646.0 0.0 7940.0 69451.0 67213.0 191522.0 196195.0 362073.0 354097.0 357670.0 357141.0 94227.0 95548.0 119249.0 126273.0 200016.0 200265.0 111299.0 104798.0 235817.0 228502.0 53230.0 46166.0 166606.0 171670.0 19735.0 26995.0 37591.0 36393.0 351507.0 358239.0 286592.0 279149.0 75592.0 69217.0 65542.0 58631.0 105919.0 106032.0 169876.0 212006.0 169876.0 169876.0 169876.0 169876.0 212006.0 212006.0 212006.0 212006.0
137915.0 141388.0 153058.0 148110.0 138008.0 130212.0 53625.0 45947.0 206445.0 207995.0 117684.0 110749.0 56222.0 55659.0 118576.0 110851.0 139756.0 131846.0 104215.0 99285.0 100401.0 107752.0 131566.0 132633.0 131847.0 137650.0 98348.0 92636.0 151223.0 146748.0 122757.0 131064.0 69255.0 69891.0 92414.0 98622.0 160085.0 166089.0 179984.0 175962.0 182341.0 183173.0 7940.0 0.0 74279.0 71337.0 196792.0 201662.0 368861.0 360895.0 364036.0 363401.0 95608.0 96258.0 118301.0 125602.0 206855.0 207258.0 116008.0 109245.0 242785.0 235523.0 58324.0 50757.0 163979.0 169332.0 27671.0 34826.0 35906.0 33041.0 357631.0 364424.0 293363.0 285965.0 83128.0 76581.0 73460.0 66570.0 112287.0 112731.0 169977.0 217317.0 169977.0 169977.0 169977.0 169977.0 217317.0 217317.0 217317.0 217317.0
129614.0 128655.0 164017.0 162513.0 116010.0 110317.0 78323.0 77117.0 135518.0 138162.0 117604.0 114827.0 21103.0 27654.0 53825.0 45255.0 72345.0 64336.0 74714.0 66504.0 33563.0 41999.0 57312.0 58859.0 57729.0 63372.0 24539.0 18360.0 124715.0 123800.0 54526.0 62924.0 31013.0 38933.0 32274.0 33564.0 123340.0 126448.0 106364.0 102557.0 108191.0 109386.0 69451.0 74279.0 0.0 8006.0 122630.0 127731.0 299684.0 291821.0 292421.0 291329.0 45453.0 52090.0 84009.0 87410.0 139456.0 141396.0 41849.0 35560.0 176049.0 169437.0 99949.0 97635.0 139559.0 141561.0 59738.0 53548.0 55716.0 63764.0 285205.0 292054.0 224445.0 217440.0 87809.0 87511.0 67177.0 60820.0 129699.0 125422.0 120994.0 143177.0 120994.0 120994.0 120994.0 120994.0 143177.0 143177.0 143177.0 143177.0
121883.0 121077.0 169665.0 167883.0 108788.0 102933.0 80972.0 79010.0 141379.0 144309.0 109647.0 106828.0 15697.0 20785.0 61390.0 52842.0 79359.0 71414.0 67432.0 59278.0 41211.0 49619.0 60791.0 61344.0 62139.0 67041.0 27289.0 22983.0 117853.0 116698.0 61599.0 69907.0 23022.0 30938.0 27674.0 30720.0 117317.0 120751.0 111085.0 107460.0 112272.0 113945.0 67213.0 71337.0 8006.0 0.0 126648.0 132083.0 305705.0 297871.0 297804.0 296552.0 39434.0 45512.0 77257.0 81078.0 146094.0 148268.0 45100.0 38004.0 182695.0 176198.0 101770.0 98823.0 132665.0 134916.0 59701.0 54305.0 49642.0 57785.0 290344.0 297161.0 230605.0 223691.0 92802.0 91927.0 72369.0 65586.0 134474.0 130531.0 116316.0 147199.0 116316.0 116316.0 116316.0 116316.0 147199.0 147199.0 147199.0 147199.0
198704.0 192961.0 232582.0 235216.0 174340.0 174146.0 186362.0 188715.0 41056.0 49018.0 199654.0 201670.0 142344.0 146116.0 89304.0 93535.0 71321.0 76120.0 149369.0 144055.0 100412.0 95639.0 65968.0 67101.0 64946.0 59647.0 99423.0 104298.0 172590.0 177127.0 81388.0 75469.0 138827.0 143944.0 115445.0 107457.0 156255.0 153604.0 20052.0 24843.0 14452.0 16043.0 191522.0 196792.0 122630.0 126648.0 0.0 8150.0 188862.0 181555.0 175242.0 173303.0 123724.0 130169.0 145624.0 140905.0 62433.0 70226.0 81644.0 89182.0 86680.0 84739.0 209658.0 210346.0 184055.0 180558.0 178737.0 171211.0 175118.0 183245.0 167031.0 173884.0 118612.0 113692.0 178369.0 182967.0 161700.0 160373.0 214328.0 207104.0 140034.0 20556.0 140034.0 140034.0 140034.0 140034.0 20556.0 20556.0 20556.0 20556.0
206640.0 200948.0 232018.0 234917.0 182344.0 182074.0 189299.0 191951.0 34066.0 42107.0 207344.0 209249.0 147772.0 151845.0 91614.0 96452.0 72576.0 78042.0 156912.0 151463.0 104026.0 98749.0 71752.0 73501.0 70028.0 65379.0 104993.0 109482.0 180691.0 185194.0 84094.0 77611.0 145069.0 150397.0 122010.0 114011.0 164355.0 161704.0 22208.0 26780.0 20253.0 18629.0 196195.0 201662.0 127731.0 132083.0 8150.0 0.0 181240.0 173883.0 168264.0 166344.0 130745.0 137342.0 153415.0 148801.0 55986.0 63925.0 87321.0 95015.0 78792.0 77083.0 212536.0 213524.0 192155.0 188658.0 182868.0 175230.0 180933.0 189081.0 160072.0 166925.0 110587.0 105600.0 180069.0 184950.0 163985.0 163036.0 215108.0 207755.0 148135.0 16669.0 148135.0 148135.0 148135.0 148135.0 16669.0 16669.0 16669.0 16669.0
387180.0 381365.0 336153.0 342466.0 362724.0 362640.0 340431.0 345694.0 164374.0 161549.0 388511.0 390489.0 320763.0 326430.0 250290.0 258133.0 229214.0 237204.0 338149.0 332605.0 269013.0 261297.0 249474.0 252942.0 245467.0 243253.0 280407.0 282830.0 360918.0 365456.0 246581.0 238146.0 322443.0 328637.0 301080.0 293158.0 344580.0 341929.0 198061.0 200651.0 200905.0 196280.0 362073.0 368861.0 299684.0 305705.0 188862.0 181240.0 0.0 8018.0 34804.0 42765.0 311171.0 318108.0 334388.0 329390.0 162071.0 162331.0 263955.0 271941.0 126882.0 134580.0 361213.0 365137.0 372379.0 368883.0 345053.0 336963.0 355295.0 363398.0 53086.0 48255.0 75502.0 82941.0 319759.0 327017.0 311493.0 314142.0 339782.0 331782.0 328359.0 171494.0 328359.0 328359.0 328359.0 328359.0 171494.0 171494.0 171494.0 171494.0
379956.0 374141.0 328539.0 334815.0 355500.0 355281.0 332413.0 337675.0 156574.0 153670.0 381206.0 383117.0 312905.0 318604.0 242327.0 250184.0 221268.0 229263.0 330766.0 325165.0 261083.0 253353.0 241815.0 245355.0 237744.0 235607.0 272638.0 275010.0 353694.0 358232.0 238654.0 230215.0 314705.0 320933.0 293433.0 285522.0 337356.0 334705.0 190475.0 193013.0 193464.0 188744.0 354097.0 360895.0 291821.0 297871.0 181555.0 173883.0 8018.0 0.0 35142.0 42934.0 303619.0 310594.0 327140.0 322214.0 154088.0 154320.0 256240.0 264228.0 118866.0 126561.0 353203.0 357121.0 365156.0 361659.0 337057.0 328967.0 347448.0 355546.0 52321.0 48564.0 67550.0 74954.0 311768.0 319020.0 303477.0 306124.0 331919.0 323915.0 321135.0 164411.0 321135.0 321135.0 321135.0 321135.0 164411.0 164411.0 164411.0 164411.0
372991.0 367176.0 346150.0 351943.0 348535.0 348451.0 340209.0 344845.0 157592.0 156439.0 374359.0 376523.0 313257.0 318234.0 246127.0 253423.0 224730.0 232460.0 324284.0 319066.0 263636.0 256435.0 239150.0 241611.0 236133.0 232794.0 271483.0 274826.0 346729.0 351267.0 241323.0 233102.0 312725.0 318372.0 290151.0 282155.0 330391.0 327740.0 187394.0 190634.0 188473.0 185021.0 357670.0 364036.0 292421.0 297804.0 175242.0 168264.0 34804.0 35142.0 0.0 7961.0 298954.0 305394.0 320192.0 315280.0 160087.0 162068.0 254306.0 262212.0 128362.0 136374.0 361937.0 365130.0 358191.0 354694.0 341714.0 333670.0 347363.0 355526.0 18761.0 13501.0 76763.0 84784.0 321983.0 328830.0 311682.0 313479.0 345738.0 337709.0 314170.0 157477.0 314170.0 314170.0 314170.0 314170.0 157477.0 157477.0 157477.0 157477.0
371051.0 365236.0 348893.0 354564.0 346595.0 346511.0 340668.0 345154.0 157097.0 156348.0 372419.0 374583.0 312071.0 316877.0 245868.0 253017.0 224461.0 232106.0 322344.0 317126.0 263049.0 255985.0 237453.0 239754.0 234682.0 231082.0 270041.0 273594.0 344789.0 349327.0 240822.0 232675.0 311017.0 316525.0 288294.0 280295.0 328451.0 325800.0 185796.0 189179.0 186570.0 183289.0 357141.0 363401.0 291329.0 296552.0 173303.0 166344.0 42765.0 42934.0 7961.0 0.0 297014.0 303461.0 318251.0 313339.0 160702.0 163065.0 252731.0 260599.0 130024.0 138030.0 362582.0 365604.0 356250.0 352754.0 341454.0 333433.0 346025.0 354192.0 11333.0 5638.0 79236.0 87184.0 323027.0 329770.0 312281.0 313880.0 347586.0 339561.0 312230.0 155537.0 312230.0 312230.0 312230.0 312230.0 155537.0 155537.0 155537.0 155537.0
89639.0 87171.0 209095.0 207299.0 72475.0 67755.0 118271.0 115205.0 148900.0 153676.0 82453.0 82180.0 45489.0 41647.0 86820.0 79349.0 98744.0 91999.0 32781.0 24859.0 69702.0 76773.0 62851.0 58364.0 68571.0 68689.0 40995.0 45283.0 79916.0 79698.0 83211.0 89963.0 26677.0 26221.0 15109.0 20587.0 77938.0 81327.0 113173.0 110874.0 110632.0 114893.0 94227.0 95608.0 45453.0 39434.0 123724.0 130745.0 311171.0 303619.0 298954.0 297014.0 0.0 8189.0 39247.0 41999.0 159014.0 162978.0 50932.0 43700.0 194670.0 189245.0 137419.0 133291.0 94774.0 96343.0 92990.0 89415.0 62600.0 69503.0 290742.0 297595.0 237982.0 231847.0 132150.0 130985.0 111784.0 104900.0 173676.0 169890.0 78028.0 143376.0 78028.0 78028.0 78028.0 78028.0 143376.0 143376.0 143376.0 143376.0
81473.0 79097.0 214935.0 212921.0 64713.0 59779.0 122395.0 118892.0 156329.0 161242.0 74395.0 74320.0 49436.0 44415.0 94954.0 87428.0 106914.0 100185.0 24616.0 16672.0 77641.0 84816.0 70478.0 65647.0 76410.0 76194.0 49142.0 53221.0 72686.0 72127.0 91398.0 98148.0 29196.0 26432.0 23127.0 28758.0 72083.0 76025.0 120267.0 118114.0 117336.0 121857.0 95548.0 96258.0 52090.0 45512.0 130169.0 137342.0 318108.0 310594.0 305394.0 303461.0 8189.0 0.0 31946.0 35624.0 166818.0 170880.0 58959.0 51818.0 202347.0 197005.0 140763.0 136235.0 87544.0 89479.0 95958.0 92981.0 61940.0 68249.0 297189.0 304042.0 245203.0 239151.0 137652.0 136119.0 117489.0 110398.0 178901.0 175369.0 74759.0 149722.0 74759.0 74759.0 74759.0 74759.0 149722.0 149722.0 149722.0 149722.0
54450.0 50285.0 246096.0 243824.0 33789.0 30415.0 151347.0 147112.0 176875.0 182645.0 54425.0 57625.0 79265.0 72906.0 124862.0 117787.0 134627.0 128540.0 14198.0 19750.0 108631.0 115380.0 94182.0 87741.0 101243.0 98972.0 79278.0 84289.0 40743.0 40547.0 120389.0 126410.0 58454.0 53065.0 54205.0 58167.0 42429.0 47880.0 139408.0 138133.0 134453.0 140237.0 119249.0 118301.0 84009.0 77257.0 145624.0 153415.0 334388.0 327140.0 320192.0 318251.0 39247.0 31946.0 0.0 8344.0 189936.0 194806.0 85746.0 79686.0 224202.0 219543.0 168127.0 162828.0 55603.0 57676.0 123150.0 121307.0 82406.0 86596.0 311980.0 318832.0 263627.0 258150.0 168539.0 166542.0 148656.0 141367.0 209329.0 206145.0 53939.0 164492.0 53939.0 53939.0 53939.0 53939.0 164492.0 164492.0 164492.0 164492.0
57930.0 52789.0 250555.0 248503.0 34896.0 33364.0 157044.0 153074.0 173342.0 179346.0 60509.0 64378.0 84435.0 78541.0 125398.0 118671.0 133918.0 128179.0 22113.0 26378.0 110070.0 116430.0 92305.0 85457.0 99657.0 96722.0 80366.0 85984.0 38906.0 40243.0 120413.0 126016.0 63704.0 58961.0 56388.0 59316.0 36608.0 41240.0 135674.0 134655.0 130218.0 136291.0 126273.0 125602.0 87410.0 81078.0 140905.0 148801.0 329390.0 322214.0 315280.0 313339.0 41999.0 35624.0 8344.0 0.0 187163.0 192296.0 85127.0 79624.0 220916.0 216488.0 174392.0 169304.0 53580.0 54486.0 129388.0 127187.0 89768.0 94244.0 307068.0 313920.0 259265.0 253953.0 173218.0 171534.0 153103.0 145976.0 214335.0 210915.0 45598.0 159580.0 45598.0 45598.0 45598.0 45598.0 159580.0 159580.0 159580.0 159580.0
244386.0 239870.0 197982.0 202382.0 221997.0 220150.0 180128.0 184854.0 22372.0 14598.0 240891.0 241138.0 160515.0 166853.0 88356.0 96377.0 67587.0 75649.0 189828.0 182914.0 107547.0 99596.0 96495.0 102302.0 90444.0 91179.0 122852.0 123807.0 223032.0 226370.0 85276.0 76795.0 165022.0 171967.0 146517.0 139090.0 208913.0 206530.0 54855.0 54180.0 63979.0 56086.0 200016.0 206855.0 139456.0 146094.0 62433.0 55986.0 162071.0 154088.0 160087.0 160702.0 159014.0 166818.0 189936.0 187163.0 0.0 8078.0 108461.0 116207.0 36602.0 30363.0 201894.0 205045.0 235834.0 233136.0 183033.0 174945.0 195117.0 203095.0 156887.0 162699.0 86635.0 79135.0 162602.0 169192.0 151612.0 153429.0 189920.0 181994.0 192960.0 64459.0 192960.0 192960.0 192960.0 192960.0 64459.0 64459.0 64459.0 64459.0
249229.0 244893.0 192604.0 197213.0 227176.0 225113.0 178611.0 183610.0 30444.0 22661.0 245146.0 245159.0 162355.0 168949.0 89222.0 97475.0 69093.0 77147.0 194208.0 187135.0 108885.0 100741.0 100906.0 107065.0 94495.0 95848.0 125871.0 126336.0 228589.0 231752.0 86916.0 78480.0 167816.0 174924.0 150102.0 142832.0 214895.0 212656.0 61685.0 60636.0 71136.0 63179.0 200265.0 207258.0 141396.0 148268.0 70226.0 63925.0 162331.0 154320.0 162068.0 163065.0 162978.0 170880.0 194806.0 192296.0 8078.0 0.0 112166.0 119773.0 35570.0 28300.0 200010.0 203463.0 241575.0 239063.0 182873.0 174785.0 196878.0 204780.0 159764.0 165308.0 87282.0 79539.0 159968.0 166766.0 149867.0 152087.0 185915.0 177946.0 199086.0 72531.0 199086.0 199086.0 199086.0 199086.0 72531.0 72531.0 72531.0 72531.0
139248.0 135861.0 186817.0 186907.0 119385.0 116018.0 114955.0 115309.0 99995.0 104074.0 133354.0 133065.0 60772.0 64528.0 42227.0 37483.0 48887.0 43079.0 82928.0 75463.0 33800.0 36415.0 15698.0 17477.0 18521.0 21998.0 17813.0 23702.0 123757.0 125347.0 35857.0 40906.0 58556.0 64702.0 38070.0 30666.0 115228.0 115692.0 66937.0 63712.0 67330.0 69511.0 111299.0 116008.0 41849.0 45100.0 81644.0 87321.0 263955.0 256240.0 254306.0 252731.0 50932.0 58959.0 85746.0 85127.0 108461.0 112166.0 0.0 7988.0 144488.0 138789.0 137798.0 136652.0 138079.0 137607.0 100751.0 93938.0 93615.0 101767.0 246459.0 253312.0 189632.0 183131.0 116671.0 118667.0 96609.0 92422.0 157846.0 152160.0 104539.0 102177.0 104539.0 104539.0 104539.0 104539.0 102177.0 102177.0 102177.0 102177.0
132667.0 129544.0 186426.0 186171.0 113448.0 109762.0 110921.0 110802.0 107971.0 112004.0 126142.0 125650.0 53569.0 56939.0 46076.0 40153.0 55247.0 48880.0 76071.0 68432.0 34169.0 38485.0 23263.0 23398.0 26503.0 29636.0 11022.0 18274.0 118459.0 119699.0 40796.0 46767.0 50591.0 56715.0 30333.0 23194.0 111025.0 111976.0 74824.0 71653.0 74940.0 77336.0 104798.0 109245.0 35560.0 38004.0 89182.0 95015.0 271941.0 264228.0 262212.0 260599.0 43700.0 51818.0 79686.0 79624.0 116207.0 119773.0 7988.0 0.0 152318.0 146553.0 133471.0 131920.0 132953.0 132864.0 95100.0 88567.0 85949.0 94087.0 254328.0 261181.0 197612.0 191100.0 114583.0 116065.0 94201.0 89480.0 156158.0 150767.0 101763.0 109679.0 101763.0 101763.0 101763.0 101763.0 109679.0 109679.0 109679.0 109679.0
278572.0 273705.0 220411.0 225686.0 255539.0 254152.0 213687.0 218851.0 47890.0 41572.0 276048.0 276603.0 197100.0 203455.0 124555.0 132706.0 104047.0 112117.0 224896.0 218216.0 143987.0 135949.0 131870.0 137159.0 126243.0 126257.0 159270.0 160375.0 255644.0 259422.0 121795.0 113319.0 201498.0 208372.0 182552.0 175007.0 240324.0 237672.0 85665.0 86298.0 92857.0 85709.0 235817.0 242785.0 176049.0 182695.0 86680.0 78792.0 126882.0 118866.0 128362.0 130024.0 194670.0 202347.0 224202.0 220916.0 36602.0 35570.0 144488.0 152318.0 0.0 8013.0 234771.0 238467.0 267886.0 264627.0 218440.0 210353.0 231695.0 239661.0 127821.0 132740.0 52316.0 44405.0 194015.0 201040.0 184819.0 187303.0 217565.0 209541.0 224102.0 80125.0 224102.0 224102.0 224102.0 224102.0 80125.0 80125.0 80125.0 80125.0
273972.0 269265.0 212631.0 217856.0 251221.0 249629.0 205896.0 211115.0 44614.0 37555.0 270945.0 271316.0 190446.0 196926.0 117512.0 125741.0 97241.0 105308.0 219831.0 213016.0 137112.0 129001.0 126585.0 132151.0 120699.0 121125.0 153198.0 154043.0 251710.0 255313.0 115041.0 106581.0 195340.0 202313.0 176853.0 169397.0 236833.0 234236.0 81959.0 82194.0 89770.0 82347.0 228502.0 235523.0 169437.0 176198.0 84739.0 77083.0 134580.0 126561.0 136374.0 138030.0 189245.0 197005.0 219543.0 216488.0 30363.0 28300.0 138789.0 146553.0 8013.0 0.0 226903.0 230651.0 264177.0 261125.0 210996.0 202913.0 225007.0 232937.0 135771.0 140729.0 60256.0 52316.0 186060.0 193106.0 177001.0 179564.0 209562.0 201539.0 220667.0 80081.0 220667.0 220667.0 220667.0 220667.0 80081.0 80081.0 80081.0 80081.0
194821.0 197650.0 96856.0 91183.0 192234.0 184699.0 23321.0 22833.0 207776.0 207065.0 175242.0 168588.0 91965.0 96354.0 121112.0 116148.0 141517.0 134990.0 154779.0 148391.0 109869.0 114026.0 151224.0 155205.0 148388.0 156137.0 122986.0 115222.0 204655.0 200985.0 128444.0 135160.0 111567.0 115469.0 128868.0 132483.0 210553.0 215632.0 190391.0 185759.0 195754.0 194171.0 53230.0 58324.0 99949.0 101770.0 209658.0 212536.0 361213.0 353203.0 361937.0 362582.0 137419.0 140763.0 168127.0 174392.0 201894.0 200010.0 137798.0 133471.0 234771.0 226903.0 0.0 8425.0 218249.0 222831.0 45004.0 48038.0 89679.0 89506.0 358460.0 364478.0 287049.0 279173.0 43323.0 35375.0 50320.0 49677.0 56380.0 58724.0 215326.0 229147.0 215326.0 215326.0 215326.0 215326.0 229147.0 229147.0 229147.0 229147.0
187966.0 190995.0 105255.0 99530.0 186094.0 178486.0 24940.0 21661.0 210089.0 209687.0 168141.0 161362.0 88059.0 91865.0 122528.0 117087.0 143299.0 136501.0 149293.0 143139.0 110092.0 114788.0 150528.0 154120.0 148118.0 155658.0 121237.0 113647.0 198714.0 194855.0 129508.0 136537.0 107093.0 110553.0 125469.0 129508.0 205243.0 210514.0 191329.0 186756.0 196291.0 195046.0 46166.0 50757.0 97635.0 98823.0 210346.0 213524.0 365137.0 357121.0 365130.0 365604.0 133291.0 136235.0 162828.0 169304.0 205045.0 203463.0 136652.0 131920.0 238467.0 230651.0 8425.0 0.0 212133.0 216901.0 40314.0 44545.0 83211.0 82558.0 361253.0 367384.0 290665.0 282833.0 49458.0 41420.0 53651.0 51785.0 64804.0 67094.0 210954.0 230070.0 210954.0 210954.0 210954.0 210954.0 230070.0 230070.0 230070.0 230070.0
36719.0 28955.0 300489.0 297866.0 26044.0 33769.0 203500.0 198513.0 219997.0 226645.0 56786.0 64892.0 133309.0 126220.0 178879.0 172236.0 186538.0 181142.0 65863.0 73686.0 163620.0 170008.0 143778.0 136403.0 151455.0 147529.0 133943.0 139452.0 14862.0 17281.0 173668.0 178959.0 112709.0 106368.0 109586.0 112875.0 28514.0 34156.0 182271.0 182031.0 175277.0 182199.0 166606.0 163979.0 139559.0 132665.0 184055.0 192155.0 372379.0 365156.0 358191.0 356250.0 94774.0 87544.0 55603.0 53580.0 235834.0 241575.0 138079.0 132953.0 267886.0 264177.0 218249.0 212133.0 0.0 8285.0 173926.0 173249.0 129057.0 130943.0 349978.0 356831.0 302650.0 297740.0 222768.0 220236.0 203280.0 195800.0 262840.0 260112.0 65346.0 202490.0 65346.0 65346.0 65346.0 65346.0 202490.0 202490.0 202490.0 202490.0
44884.0 37008.0 303585.0 301157.0 31558.0 39479.0 207489.0 202724.0 216769.0 223570.0 64557.0 72585.0 136473.0 129658.0 178924.0 172543.0 185668.0 180547.0 69097.0 76587.0 164328.0 170436.0 142438.0 134887.0 150229.0 145893.0 134533.0 140387.0 18187.0 23060.0 173378.0 178353.0 115730.0 109731.0 110871.0 113615.0 24303.0 28492.0 179165.0 179130.0 171836.0 178924.0 171670.0 169332.0 141561.0 134916.0 180558.0 188658.0 368883.0 361659.0 354694.0 352754.0 96343.0 89479.0 57676.0 54486.0 233136.0 239063.0 137607.0 132864.0 264627.0 261125.0 222831.0 216901.0 8285.0 0.0 178260.0 177255.0 134079.0 136349.0 346482.0 353335.0 299153.0 294243.0 225931.0 223661.0 206204.0 198835.0 266372.0 263429.0 60282.0 198994.0 60282.0 60282.0 60282.0 60282.0 198994.0 198994.0 198994.0 198994.0
152283.0 154495.0 131737.0 127660.0 147992.0 140595.0 30798.0 24747.0 184394.0 185283.0 133764.0 127748.0 47905.0 51562.0 95595.0 88537.0 117001.0 109362.0 109888.0 103407.0 79218.0 85672.0 115593.0 118118.0 114442.0 121241.0 84131.0 77114.0 160114.0 156710.0 100897.0 108867.0 66793.0 70476.0 85590.0 90087.0 165570.0 170628.0 160789.0 156488.0 164360.0 164241.0 19735.0 27671.0 59738.0 59701.0 178737.0 182868.0 345053.0 337057.0 341714.0 341454.0 92990.0 95958.0 123150.0 129388.0 183033.0 182873.0 100751.0 95100.0 218440.0 210996.0 45004.0 40314.0 173926.0 178260.0 0.0 8090.0 47101.0 49054.0 336169.0 342742.0 269666.0 262118.0 57642.0 52028.0 45986.0 38931.0 91657.0 90705.0 170653.0 199028.0 170653.0 170653.0 170653.0 170653.0 199028.0 199028.0 199028.0 199028.0
153107.0 154901.0 129852.0 126211.0 147468.0 140243.0 30251.0 25923.0 176390.0 177235.0 135265.0 129599.0 43938.0 48706.0 87566.0 80576.0 108973.0 101361.0 108423.0 101577.0 71419.0 77741.0 108563.0 111372.0 107146.0 114106.0 77674.0 70427.0 159188.0 156126.0 92965.0 100892.0 63820.0 68277.0 80985.0 84969.0 163616.0 168379.0 153116.0 148781.0 156862.0 156601.0 26995.0 34826.0 53548.0 54305.0 171211.0 175230.0 336963.0 328967.0 333670.0 333433.0 89415.0 92981.0 121307.0 127187.0 174945.0 174785.0 93938.0 88567.0 210353.0 202913.0 48038.0 44545.0 173249.0 177255.0 8090.0 0.0 49028.0 52189.0 328183.0 334739.0 261577.0 254028.0 53964.0 49204.0 40146.0 32651.0 90432.0 88785.0 167380.0 191448.0 167380.0 167380.0 167380.0 167380.0 191448.0 191448.0 191448.0 191448.0
105413.0 107998.0 178638.0 174711.0 103015.0 95343.0 77883.0 71682.0 191004.0 193823.0 86663.0 80714.0 34617.0 29152.0 108275.0 99777.0 127786.0 119730.0 68309.0 63515.0 88155.0 96480.0 109203.0 108437.0 111374.0 115565.0 76046.0 72611.0 115911.0 111778.0 109970.0 118426.0 38148.0 36383.0 62794.0 70108.0 124204.0 130183.0 160341.0 156852.0 160889.0 163058.0 37591.0 35906.0 55716.0 49642.0 175118.0 180933.0 355295.0 347448.0 347363.0 346025.0 62600.0 61940.0 82406.0 89768.0 195117.0 196878.0 93615.0 85949.0 231695.0 225007.0 89679.0 83211.0 129057.0 134079.0 47101.0 49028.0 0.0 8167.0 339782.0 346555.0 280120.0 273142.0 102900.0 98211.0 87257.0 79316.0 138735.0 137562.0 134550.0 195588.0 134550.0 134550.0 134550.0 134550.0 195588.0 195588.0 195588.0 195588.0
105410.0 108581.0 180731.0 176493.0 104983.0 97178.0 79708.0 73022.0 199127.0 201908.0 85767.0 79292.0 42661.0 37319.0 116026.0 107557.0 135700.0 127637.0 72404.0 68311.0 95975.0 104262.0 117345.0 116512.0 119540.0 123709.0 84210.0 80760.0 118267.0 113718.0 117896.0 126362.0 45835.0 43420.0 70506.0 77931.0 127786.0 134054.0 168507.0 165019.0 169027.0 171219.0 36393.0 33041.0 63764.0 57785.0 183245.0 189081.0 363398.0 355546.0 355526.0 354192.0 69503.0 68249.0 86596.0 94244.0 203095.0 204780.0 101767.0 94087.0 239661.0 232937.0 89506.0 82558.0 130943.0 136349.0 49054.0 52189.0 8167.0 0.0 347949.0 354722.0 288200.0 281204.0 106099.0 100936.0 91519.0 83659.0 140452.0 139734.0 139846.0 203707.0 139846.0 139846.0 139846.0 139846.0 203707.0 203707.0 203707.0 203707.0
364779.0 358964.0 347760.0 353243.0 340323.0 340239.0 336316.0 340601.0 151827.0 151608.0 366147.0 368311.0 305889.0 310631.0 240689.0 247639.0 219305.0 226827.0 316072.0 310854.0 257429.0 250549.0 231189.0 233482.0 228424.0 224819.0 263782.0 267401.0 338517.0 343055.0 235343.0 227303.0 304759.0 310307.0 282022.0 274024.0 322179.0 319528.0 179525.0 182930.0 180298.0 177025.0 351507.0 357631.0 285205.0 290344.0 167031.0 160072.0 53086.0 52321.0 18761.0 11333.0 290742.0 297189.0 311980.0 307068.0 156887.0 159764.0 246459.0 254328.0 127821.0 135771.0 358460.0 361253.0 349978.0 346482.0 336169.0 328183.0 339782.0 347949.0 0.0 8022.0 78747.0 86463.0 319479.0 326073.0 308141.0 309475.0 345139.0 337129.0 305958.0 149265.0 305958.0 305958.0 305958.0 305958.0 149265.0 149265.0 149265.0 149265.0
371632.0 365816.0 352135.0 357730.0 347176.0 347092.0 342445.0 346829.0 158349.0 157880.0 373000.0 375164.0 312721.0 317484.0 247199.0 254242.0 225799.0 233380.0 322925.0 317707.0 264143.0 257179.0 238042.0 240335.0 235277.0 231672.0 270635.0 274229.0 345370.0 349908.0 241989.0 233899.0 311612.0 317159.0 288875.0 280876.0 329032.0 326381.0 186377.0 189783.0 187151.0 183878.0 358239.0 364424.0 292054.0 297161.0 173884.0 166925.0 48255.0 48564.0 13501.0 5638.0 297595.0 304042.0 318832.0 313920.0 162699.0 165308.0 253312.0 261181.0 132740.0 140729.0 364478.0 367384.0 356831.0 353335.0 342742.0 334739.0 346555.0 354722.0 8022.0 0.0 82585.0 90459.0 325198.0 331870.0 314161.0 315627.0 350269.0 342249.0 312811.0 156118.0 312811.0 312811.0 312811.0 312811.0 156118.0 156118.0 156118.0 156118.0
317158.0 311527.0 269657.0 275344.0 292930.0 292584.0 265845.0 270891.0 89653.0 86300.0 317129.0 318562.0 245542.0 251367.0 174790.0 182634.0 153717.0 161714.0 266243.0 260255.0 193542.0 185802.0 175587.0 179620.0 171111.0 169492.0 205704.0 207814.0 291188.0 295721.0 171118.0 162674.0 247903.0 254310.0 227193.0 219354.0 274850.0 272199.0 124996.0 127110.0 129176.0 123686.0 286592.0 293363.0 224445.0 230605.0 118612.0 110587.0 75502.0 67550.0 76763.0 79236.0 237982.0 245203.0 263627.0 259265.0 86635.0 87282.0 189632.0 197612.0 52316.0 60256.0 287049.0 290665.0 302650.0 299153.0 269666.0 261577.0 280120.0 288200.0 78747.0 82585.0 0.0 8032.0 246316.0 253354.0 237032.0 239363.0 269071.0 261040.0 258629.0 104040.0 258629.0 258629.0 258629.0 258629.0 104040.0 104040.0 104040.0 104040.0
311877.0 306364.0 261718.0 267381.0 287816.0 287302.0 258030.0 263121.0 83154.0 79422.0 311440.0 312728.0 238543.0 244467.0 167413.0 175321.0 146422.0 154441.0 260461.0 254353.0 186305.0 178505.0 169281.0 173516.0 164618.0 163244.0 199018.0 200962.0 286282.0 290784.0 163903.0 155444.0 241264.0 247756.0 220828.0 213027.0 269940.0 267289.0 119121.0 121045.0 123744.0 117987.0 279149.0 285965.0 217440.0 223691.0 113692.0 105600.0 82941.0 74954.0 84784.0 87184.0 231847.0 239151.0 258150.0 253953.0 79135.0 79539.0 183131.0 191100.0 44405.0 52316.0 279173.0 282833.0 297740.0 294243.0 262118.0 254028.0 273142.0 281204.0 86463.0 90459.0 8032.0 0.0 238364.0 245421.0 229192.0 231584.0 261039.0 253008.0 253719.0 100037.0 253719.0 253719.0 253719.0 253719.0 100037.0 100037.0 100037.0 100037.0
205534.0 206696.0 77729.0 75296.0 197570.0 190773.0 30315.0 38215.0 170836.0 169198.0 188533.0 183164.0 89480.0 96628.0 89347.0 86679.0 107522.0 102250.0 156949.0 149344.0 84070.0 85473.0 127327.0 132974.0 122662.0 131059.0 105787.0 97736.0 208244.0 206012.0 97786.0 102946.0 110202.0 116406.0 120008.0 121058.0 209734.0 213455.0 158459.0 153685.0 165291.0 162412.0 75592.0 83128.0 87809.0 92802.0 178369.0 180069.0 319759.0 311768.0 321983.0 323027.0 132150.0 137652.0 168539.0 173218.0 162602.0 159968.0 116671.0 114583.0 194015.0 186060.0 43323.0 49458.0 222768.0 225931.0 57642.0 53964.0 102900.0 106099.0 319479.0 325198.0 246316.0 238364.0 0.0 8039.0 20705.0 27261.0 41968.0 37740.0 208797.0 196710.0 208797.0 208797.0 208797.0 208797.0 196710.0 196710.0 196710.0 196710.0
201880.0 203329.0 80873.0 77705.0 194815.0 187864.0 23144.0 31042.0 176810.0 175412.0 184395.0 178797.0 87280.0 94033.0 93697.0 90408.0 112568.0 106941.0 154573.0 147142.0 86845.0 88956.0 130022.0 135327.0 125751.0 134046.0 106815.0 98737.0 205834.0 203340.0 101912.0 107505.0 108089.0 113940.0 119440.0 121017.0 208127.0 212110.0 163163.0 158411.0 169662.0 167085.0 69217.0 76581.0 87511.0 91927.0 182967.0 184950.0 327017.0 319020.0 328830.0 329770.0 130985.0 136119.0 166542.0 171534.0 169192.0 166766.0 118667.0 116065.0 201040.0 193106.0 35375.0 41420.0 220236.0 223661.0 52028.0 49204.0 98211.0 100936.0 326073.0 331870.0 253354.0 245421.0 8039.0 0.0 22142.0 26843.0 42802.0 39976.0 208225.0 201614.0 208225.0 208225.0 208225.0 208225.0 201614.0 201614.0 201614.0 201614.0
187414.0 188177.0 97463.0 95516.0 178340.0 171725.0 29028.0 35117.0 157629.0 156782.0 171224.0 166278.0 70060.0 77587.0 72422.0 68639.0 92030.0 85970.0 137417.0 129669.0 64720.0 67050.0 107881.0 113204.0 103660.0 111932.0 85210.0 77146.0 188658.0 186683.0 80395.0 86380.0 90572.0 97097.0 99417.0 100364.0 189539.0 193110.0 142036.0 137316.0 148205.0 145917.0 65542.0 73460.0 67177.0 72369.0 161700.0 163985.0 311493.0 303477.0 311682.0 312281.0 111784.0 117489.0 148656.0 153103.0 151612.0 149867.0 96609.0 94201.0 184819.0 177001.0 50320.0 53651.0 203280.0 206204.0 45986.0 40146.0 87257.0 91519.0 308141.0 314161.0 237032.0 229192.0 20705.0 22142.0 0.0 7971.0 62672.0 58248.0 188170.0 180652.0 188170.0 188170.0 188170.0 188170.0 180652.0 180652.0 180652.0 180652.0
179572.0 180406.0 104749.0 102528.0 170758.0 164083.0 26868.0 31551.0 158346.0 157902.0 163290.0 158320.0 62503.0 69901.0 71493.0 66869.0 91846.0 85332.0 129943.0 122261.0 61697.0 64957.0 104429.0 109347.0 100694.0 108801.0 80055.0 71978.0 181219.0 179138.0 79010.0 85541.0 83126.0 89516.0 92910.0 94257.0 182480.0 186197.0 140941.0 136275.0 146632.0 144759.0 58631.0 66570.0 60820.0 65586.0 160373.0 163036.0 314142.0 306124.0 313479.0 313880.0 104900.0 110398.0 141367.0 145976.0 153429.0 152087.0 92422.0 89480.0 187303.0 179564.0 49677.0 51785.0 195800.0 198835.0 38931.0 32651.0 79316.0 83659.0 309475.0 315627.0 239363.0 231584.0 27261.0 26843.0 7971.0 0.0 68927.0 64998.0 181724.0 179673.0 181724.0 181724.0 181724.0 181724.0 179673.0 179673.0 179673.0 179673.0
243527.0 245305.0 40799.0 36042.0 237309.0 230262.0 60859.0 67461.0 201516.0 198652.0 225380.0 219405.0 130064.0 136715.0 127135.0 125789.0 143031.0 138912.0 197275.0 189897.0 124636.0 125027.0 167670.0 173719.0 162460.0 170960.0 147605.0 139577.0 248499.0 245878.0 135919.0 139949.0 150875.0 156641.0 161836.0 163013.0 250925.0 254870.0 194276.0 189485.0 202012.0 198286.0 105919.0 112287.0 129699.0 134474.0 214328.0 215108.0 339782.0 331919.0 345738.0 347586.0 173676.0 178901.0 209329.0 214335.0 189920.0 185915.0 157846.0 156158.0 217565.0 209562.0 56380.0 64804.0 262840.0 266372.0 91657.0 90432.0 138735.0 140452.0 345139.0 350269.0 269071.0 261039.0 41968.0 42802.0 62672.0 68927.0 0.0 8030.0 250648.0 231534.0 250648.0 250648.0 250648.0 250648.0 231534.0 231534.0 231534.0 231534.0
241764.0 243285.0 41079.0 37756.0 234750.0 227826.0 60069.0 67166.0 193757.0 190820.0 224039.0 218270.0 126961.0 133892.0 120410.0 119384.0 135862.0 131936.0 194375.0 186858.0 118722.0 118751.0 161561.0 167774.0 156162.0 164680.0 142504.0 134523.0 245662.0 243256.0 129239.0 133030.0 147738.0 153763.0 157664.0 158507.0 247450.0 251195.0 187055.0 182269.0 194925.0 191069.0 106032.0 112731.0 125422.0 130531.0 207104.0 207755.0 331782.0 323915.0 337709.0 339561.0 169890.0 175369.0 206145.0 210915.0 181994.0 177946.0 152160.0 150767.0 209541.0 201539.0 58724.0 67094.0 260112.0 263429.0 90705.0 88785.0 137562.0 139734.0 337129.0 342249.0 261040.0 253008.0 37740.0 39976.0 58248.0 64998.0 8030.0 0.0 246410.0 224138.0 246410.0 246410.0 246410.0 246410.0 224138.0 224138.0 224138.0 224138.0
89757.0 82210.0 284593.0 283373.0 64505.0 68264.0 196277.0 193212.0 176257.0 183114.0 100102.0 105724.0 123494.0 119091.0 146755.0 141709.0 149818.0 145762.0 67138.0 69266.0 135648.0 140215.0 105814.0 97865.0 113808.0 108260.0 106667.0 113965.0 57108.0 63495.0 139943.0 143565.0 103862.0 100912.0 88814.0 88170.0 36893.0 31861.0 138719.0 138832.0 131325.0 138409.0 169876.0 169977.0 120994.0 116316.0 140034.0 148135.0 328359.0 321135.0 314170.0 312230.0 78028.0 74759.0 53939.0 45598.0 192960.0 199086.0 104539.0 101763.0 224102.0 220667.0 215326.0 210954.0 65346.0 60282.0 170653.0 167380.0 134550.0 139846.0 305958.0 312811.0 258629.0 253719.0 208797.0 208225.0 188170.0 181724.0 250648.0 246410.0 0.0 158470.0 0.0 0.0 0.0 0.0 158470.0 158470.0 158470.0 158470.0
217291.0 211476.0 247775.0 250835.0 192835.0 192751.0 205896.0 208479.0 42206.0 49871.0 218659.0 220823.0 162894.0 166617.0 108273.0 113029.0 89199.0 94711.0 168584.0 163413.0 120401.0 115283.0 86491.0 87390.0 85477.0 80183.0 119965.0 124850.0 191029.0 195567.0 100704.0 94275.0 159119.0 164086.0 135524.0 127556.0 174691.0 172040.0 38758.0 43398.0 34986.0 35028.0 212006.0 217317.0 143177.0 147199.0 20556.0 16669.0 171494.0 164411.0 157477.0 155537.0 143376.0 149722.0 164492.0 159580.0 64459.0 72531.0 102177.0 109679.0 80125.0 80081.0 229147.0 230070.0 202490.0 198994.0 199028.0 191448.0 195588.0 203707.0 149265.0 156118.0 104040.0 100037.0 196710.0 201614.0 180652.0 179673.0 231534.0 224138.0 158470.0 0.0 158470.0 158470.0 158470.0 158470.0 0.0 0.0 0.0 0.0
89757.0 82210.0 284593.0 283373.0 64505.0 68264.0 196277.0 193212.0 176257.0 183114.0 100102.0 105724.0 123494.0 119091.0 146755.0 141709.0 149818.0 145762.0 67138.0 69266.0 135648.0 140215.0 105814.0 97865.0 113808.0 108260.0 106667.0 113965.0 57108.0 63495.0 139943.0 143565.0 103862.0 100912.0 88814.0 88170.0 36893.0 31861.0 138719.0 138832.0 131325.0 138409.0 169876.0 169977.0 120994.0 116316.0 140034.0 148135.0 328359.0 321135.0 314170.0 312230.0 78028.0 74759.0 53939.0 45598.0 192960.0 199086.0 104539.0 101763.0 224102.0 220667.0 215326.0 210954.0 65346.0 60282.0 170653.0 167380.0 134550.0 139846.0 305958.0 312811.0 258629.0 253719.0 208797.0 208225.0 188170.0 181724.0 250648.0 246410.0 0.0 158470.0 0.0 0.0 0.0 0.0 158470.0 158470.0 158470.0 158470.0
89757.0 82210.0 284593.0 283373.0 64505.0 68264.0 196277.0 193212.0 176257.0 183114.0 100102.0 105724.0 123494.0 119091.0 146755.0 141709.0 149818.0 145762.0 67138.0 69266.0 135648.0 140215.0 105814.0 97865.0 113808.0 108260.0 106667.0 113965.0 57108.0 63495.0 139943.0 143565.0 103862.0 100912.0 88814.0 88170.0 36893.0 31861.0 138719.0 138832.0 131325.0 138409.0 169876.0 169977.0 120994.0 116316.0 140034.0 148135.0 328359.0 321135.0 314170.0 312230.0 78028.0 74759.0 53939.0 45598.0 192960.0 199086.0 104539.0 101763.0 224102.0 220667.0 215326.0 210954.0 65346.0 60282.0 170653.0 167380.0 134550.0 139846.0 305958.0 312811.0 258629.0 253719.0 208797.0 208225.0 188170.0 181724.0 250648.0 246410.0 0.0 158470.0 0.0 0.0 0.0 0.0 158470.0 158470.0 158470.0 158470.0
89757.0 82210.0 284593.0 283373.0 64505.0 68264.0 196277.0 193212.0 176257.0 183114.0 100102.0 105724.0 123494.0 119091.0 146755.0 141709.0 149818.0 145762.0 67138.0 69266.0 135648.0 140215.0 105814.0 97865.0 113808.0 108260.0 106667.0 113965.0 57108.0 63495.0 139943.0 143565.0 103862.0 100912.0 88814.0 88170.0 36893.0 31861.0 138719.0 138832.0 131325.0 138409.0 169876.0 169977.0 120994.0 116316.0 140034.0 148135.0 328359.0 321135.0 314170.0 312230.0 78028.0 74759.0 53939.0 45598.0 192960.0 199086.0 104539.0 101763.0 224102.0 220667.0 215326.0 210954.0 65346.0 60282.0 170653.0 167380.0 134550.0 139846.0 305958.0 312811.0 258629.0 253719.0 208797.0 208225.0 188170.0 181724.0 250648.0 246410.0 0.0 158470.0 0.0 0.0 0.0 0.0 158470.0 158470.0 158470.0 158470.0
89757.0 82210.0 284593.0 283373.0 64505.0 68264.0 196277.0 193212.0 176257.0 183114.0 100102.0 105724.0 123494.0 119091.0 146755.0 141709.0 149818.0 145762.0 67138.0 69266.0 135648.0 140215.0 105814.0 97865.0 113808.0 108260.0 106667.0 113965.0 57108.0 63495.0 139943.0 143565.0 103862.0 100912.0 88814.0 88170.0 36893.0 31861.0 138719.0 138832.0 131325.0 138409.0 169876.0 169977.0 120994.0 116316.0 140034.0 148135.0 328359.0 321135.0 314170.0 312230.0 78028.0 74759.0 53939.0 45598.0 192960.0 199086.0 104539.0 101763.0 224102.0 220667.0 215326.0 210954.0 65346.0 60282.0 170653.0 167380.0 134550.0 139846.0 305958.0 312811.0 258629.0 253719.0 208797.0 208225.0 188170.0 181724.0 250648.0 246410.0 0.0 158470.0 0.0 0.0 0.0 0.0 158470.0 158470.0 158470.0 158470.0
217291.0 211476.0 247775.0 250835.0 192835.0 192751.0 205896.0 208479.0 42206.0 49871.0 218659.0 220823.0 162894.0 166617.0 108273.0 113029.0 89199.0 94711.0 168584.0 163413.0 120401.0 115283.0 86491.0 87390.0 85477.0 80183.0 119965.0 124850.0 191029.0 195567.0 100704.0 94275.0 159119.0 164086.0 135524.0 127556.0 174691.0 172040.0 38758.0 43398.0 34986.0 35028.0 212006.0 217317.0 143177.0 147199.0 20556.0 16669.0 171494.0 164411.0 157477.0 155537.0 143376.0 149722.0 164492.0 159580.0 64459.0 72531.0 102177.0 109679.0 80125.0 80081.0 229147.0 230070.0 202490.0 198994.0 199028.0 191448.0 195588.0 203707.0 149265.0 156118.0 104040.0 100037.0 196710.0 201614.0 180652.0 179673.0 231534.0 224138.0 158470.0 0.0 158470.0 158470.0 158470.0 158470.0 0.0 0.0 0.0 0.0
217291.0 211476.0 247775.0 250835.0 192835.0 192751.0 205896.0 208479.0 42206.0 49871.0 218659.0 220823.0 162894.0 166617.0 108273.0 113029.0 89199.0 94711.0 168584.0 163413.0 120401.0 115283.0 86491.0 87390.0 85477.0 80183.0 119965.0 124850.0 191029.0 195567.0 100704.0 94275.0 159119.0 164086.0 135524.0 127556.0 174691.0 172040.0 38758.0 43398.0 34986.0 35028.0 212006.0 217317.0 143177.0 147199.0 20556.0 16669.0 171494.0 164411.0 157477.0 155537.0 143376.0 149722.0 164492.0 159580.0 64459.0 72531.0 102177.0 109679.0 80125.0 80081.0 229147.0 230070.0 202490.0 198994.0 199028.0 191448.0 195588.0 203707.0 149265.0 156118.0 104040.0 100037.0 196710.0 201614.0 180652.0 179673.0 231534.0 224138.0 158470.0 0.0 158470.0 158470.0 158470.0 158470.0 0.0 0.0 0.0 0.0
217291.0 211476.0 247775.0 250835.0 192835.0 192751.0 205896.0 208479.0 42206.0 49871.0 218659.0 220823.0 162894.0 166617.0 108273.0 113029.0 89199.0 94711.0 168584.0 163413.0 120401.0 115283.0 86491.0 87390.0 85477.0 80183.0 119965.0 124850.0 191029.0 195567.0 100704.0 94275.0 159119.0 164086.0 135524.0 127556.0 174691.0 172040.0 38758.0 43398.0 34986.0 35028.0 212006.0 217317.0 143177.0 147199.0 20556.0 16669.0 171494.0 164411.0 157477.0 155537.0 143376.0 149722.0 164492.0 159580.0 64459.0 72531.0 102177.0 109679.0 80125.0 80081.0 229147.0 230070.0 202490.0 198994.0 199028.0 191448.0 195588.0 203707.0 149265.0 156118.0 104040.0 100037.0 196710.0 201614.0 180652.0 179673.0 231534.0 224138.0 158470.0 0.0 158470.0 158470.0 158470.0 158470.0 0.0 0.0 0.0 0.0
217291.0 211476.0 247775.0 250835.0 192835.0 192751.0 205896.0 208479.0 42206.0 49871.0 218659.0 220823.0 162894.0 166617.0 108273.0 113029.0 89199.0 94711.0 168584.0 163413.0 120401.0 115283.0 86491.0 87390.0 85477.0 80183.0 119965.0 124850.0 191029.0 195567.0 100704.0 94275.0 159119.0 164086.0 135524.0 127556.0 174691.0 172040.0 38758.0 43398.0 34986.0 35028.0 212006.0 217317.0 143177.0 147199.0 20556.0 16669.0 171494.0 164411.0 157477.0 155537.0 143376.0 149722.0 164492.0 159580.0 64459.0 72531.0 102177.0 109679.0 80125.0 80081.0 229147.0 230070.0 202490.0 198994.0 199028.0 191448.0 195588.0 203707.0 149265.0 156118.0 104040.0 100037.0 196710.0 201614.0 180652.0 179673.0 231534.0 224138.0 158470.0 0.0 158470.0 158470.0 158470.0 158470.0 0.0 0.0 0.0 0.0
FIXED_EDGES_SECTION
1 2
3 4
5 6
7 8
9 10
11 12
13 14
15 16
17 18
19 20
21 22
23 24
25 26
27 28
29 30
31 32
33 34
35 36
37 38
39 40
41 42
43 44
45 46
47 48
49 50
51 52
53 54
55 56
57 58
59 60
61 62
63 64
65 66
67 68
69 70
71 72
73 74
75 76
77 78
79 80
-1 
DEMAND_SECTION
1 216
2 216
3 120
4 120
5 247
6 247
7 72
8 72
9 313
10 313
11 500
12 500
13 349
14 349
15 271
16 271
17 158
18 158
19 155
20 155
21 279
22 279
23 373
24 373
25 358
26 358
27 114
28 114
29 219
30 219
31 421
32 421
33 353
34 353
35 277
36 277
37 97
38 97
39 399
40 399
41 100
42 100
43 224
44 224
45 541
46 541
47 235
48 235
49 229
50 229
51 71
52 71
53 394
54 394
55 100
56 100
57 84
58 84
59 432
60 432
61 336
62 336
63 76
64 76
65 369
66 369
67 479
68 479
69 247
70 247
71 280
72 280
73 341
74 341
75 157
76 157
77 180
78 180
79 258
80 258
81 0
82 0
83 0
84 0
85 0
86 0
87 0
88 0
89 0
90 0
DEPOT_SECTION
81 
-1 
CAPACITIES_SECTION
5000 
5500 
6000 
6500 
-1 
EOF