NAME: GFS_20_1
TYPE: GFSP
DIMENSION: 86
VEHICLES: 2
CAPACITY: 10000.0
TRIP_DIST_LIMIT: 750000.0
TOTAL_DIST_LIMIT: 2100000.0
EDGE_WEIGHT_TYPE: EXPLICIT
EDGE_WEIGHT_FORMAT: FULL_MATRIX
EDGE_WEIGHT_SECTION
0.0 8126.0 106609.0 110230.0 307561.0 299952.0 236615.0 239751.0 29522.0 22637.0 45521.0 48315.0 151262.0 155144.0 136713.0 144611.0 90261.0 88942.0 358991.0 350824.0 79391.0 74362.0 135891.0 128079.0 66979.0 62715.0 81060.0 74711.0 169728.0 172411.0 118678.0 111535.0 278095.0 271489.0 85526.0 77859.0 41087.0 44801.0 321701.0 327360.0 136157.0 143559.0 392011.0 390374.0 384108.0 390961.0 202322.0 208285.0 137945.0 131669.0 147215.0 155171.0 84717.0 88136.0 326026.0 319159.0 102970.0 110891.0 195789.0 190251.0 67325.0 61328.0 284526.0 284020.0 158631.0 156885.0 327508.0 334305.0 121595.0 119490.0 108846.0 101212.0 94648.0 97329.0 144860.0 147280.0 125317.0 117326.0 204234.0 207086.0 154576.0 238386.0 154576.0 154576.0 238386.0 238386.0
8126.0 0.0 111530.0 114681.0 301675.0 294041.0 231214.0 234161.0 29260.0 21351.0 44899.0 46348.0 145201.0 148833.0 128888.0 136748.0 86774.0 86136.0 354230.0 346063.0 75048.0 70618.0 129546.0 121788.0 58904.0 54590.0 75050.0 69137.0 162113.0 164674.0 120421.0 113547.0 272136.0 265440.0 89574.0 82113.0 40699.0 43047.0 316743.0 322515.0 138081.0 145302.0 387123.0 385617.0 379346.0 386199.0 194231.0 200215.0 129825.0 123543.0 142253.0 150182.0 88184.0 90968.0 320461.0 313518.0 99130.0 106956.0 187674.0 182153.0 59569.0 53393.0 278796.0 278139.0 152739.0 151301.0 321748.0 328620.0 122064.0 119445.0 100725.0 93098.0 99948.0 103071.0 139776.0 142534.0 121297.0 113311.0 199783.0 202386.0 154719.0 234156.0 154719.0 154719.0 234156.0 234156.0
106609.0 111530.0 0.0 8543.0 312053.0 305412.0 238352.0 244391.0 88382.0 95450.0 81132.0 87674.0 177015.0 184303.0 200528.0 208594.0 104256.0 96387.0 345925.0 337758.0 109464.0 101966.0 169725.0 162951.0 159129.0 151551.0 128449.0 120426.0 264570.0 265376.0 50293.0 44189.0 285960.0 281526.0 24949.0 30550.0 82151.0 87431.0 310449.0 314934.0 57298.0 64628.0 379254.0 377313.0 371042.0 377894.0 272191.0 276095.0 215791.0 212135.0 156919.0 163302.0 30421.0 34958.0 323647.0 318518.0 113835.0 119102.0 275041.0 271602.0 143634.0 142958.0 287766.0 290017.0 180095.0 173767.0 328548.0 333617.0 68525.0 74285.0 193099.0 187175.0 13306.0 16595.0 156982.0 153813.0 128667.0 123763.0 194906.0 201162.0 92852.0 223554.0 92852.0 92852.0 223554.0 223554.0
110230.0 114681.0 8543.0 0.0 305120.0 298546.0 231577.0 237733.0 90155.0 97558.0 81523.0 87559.0 172218.0 179638.0 198242.0 206230.0 100576.0 92594.0 338592.0 330425.0 106834.0 99559.0 165602.0 159022.0 160049.0 152267.0 126368.0 118533.0 264963.0 265508.0 42494.0 36896.0 279281.0 274976.0 25582.0 32605.0 82994.0 87670.0 303116.0 307602.0 48785.0 56088.0 371921.0 369981.0 363709.0 370562.0 269833.0 273532.0 214583.0 211214.0 151377.0 157560.0 29401.0 32042.0 316370.0 311330.0 109475.0 114350.0 273558.0 270352.0 143404.0 143204.0 280851.0 283229.0 174971.0 168431.0 321410.0 326390.0 61116.0 67236.0 192750.0 187067.0 20429.0 24950.0 151596.0 148120.0 123286.0 118735.0 187851.0 194231.0 84514.0 216221.0 84514.0 84514.0 216221.0 216221.0
307561.0 301675.0 312053.0 305120.0 0.0 7751.0 74095.0 69056.0 284592.0 287666.0 272813.0 265960.0 156546.0 153591.0 197394.0 193941.0 224272.0 229400.0 84170.0 76892.0 230539.0 237289.0 172781.0 180302.0 268473.0 264741.0 226626.0 232876.0 275705.0 268326.0 263359.0 268240.0 29752.0 37139.0 296350.0 298419.0 276597.0 269399.0 50080.0 57474.0 264666.0 262015.0 102077.0 104720.0 104152.0 108085.0 193009.0 186814.0 222378.0 229558.0 163092.0 155307.0 289324.0 281670.0 25501.0 17690.0 211027.0 203368.0 221755.0 228269.0 249298.0 257255.0 24302.0 23540.0 148945.0 150966.0 21170.0 29054.0 244231.0 237884.0 242833.0 248141.0 315110.0 322958.0 164689.0 164432.0 189928.0 197081.0 117369.0 110896.0 248445.0 97988.0 248445.0 248445.0 97988.0 97988.0
299952.0 294041.0 305412.0 298546.0 7751.0 0.0 67183.0 61855.0 277094.0 280117.0 265398.0 258511.0 148887.0 145883.0 189722.0 186319.0 216934.0 222134.0 89529.0 81997.0 223062.0 229849.0 165084.0 172617.0 260722.0 256993.0 218995.0 225280.0 268555.0 261215.0 256908.0 261685.0 22018.0 29395.0 289467.0 291445.0 269162.0 261940.0 53568.0 61277.0 258437.0 255786.0 108962.0 111336.0 110307.0 114526.0 186279.0 180186.0 214835.0 221987.0 155744.0 147988.0 282428.0 274807.0 32199.0 24186.0 203711.0 196082.0 214976.0 221406.0 241565.0 249521.0 17897.0 15995.0 141325.0 143437.0 28846.0 36644.0 237746.0 231315.0 235151.0 240436.0 308308.0 316162.0 157292.0 157158.0 182719.0 189819.0 110986.0 104336.0 242216.0 93095.0 242216.0 242216.0 93095.0 93095.0
236615.0 231214.0 238352.0 231577.0 74095.0 67183.0 0.0 8049.0 212347.0 215947.0 199919.0 193334.0 88318.0 87450.0 141696.0 140639.0 151011.0 155804.0 126830.0 118613.0 158262.0 164659.0 105488.0 112301.0 204109.0 199242.0 156547.0 162077.0 232639.0 226293.0 190186.0 194762.0 47890.0 44614.0 222290.0 224324.0 203838.0 196841.0 87478.0 94213.0 192467.0 189826.0 157592.0 157097.0 151827.0 158349.0 161878.0 157971.0 170836.0 176810.0 90120.0 82199.0 215255.0 207626.0 89653.0 83154.0 137681.0 129897.0 188052.0 192661.0 182475.0 190453.0 49849.0 51665.0 79869.0 80042.0 92263.0 98465.0 170972.0 164385.0 185209.0 189152.0 241131.0 248987.0 92079.0 91022.0 116188.0 123520.0 45165.0 37848.0 176257.0 42206.0 176257.0 176257.0 42206.0 42206.0
239751.0 234161.0 244391.0 237733.0 69056.0 61855.0 8049.0 0.0 216038.0 219392.0 203959.0 197216.0 90093.0 88513.0 140643.0 139125.0 155278.0 160346.0 126851.0 118584.0 161931.0 168526.0 107053.0 114136.0 205207.0 200620.0 159254.0 165075.0 229962.0 223452.0 196581.0 200987.0 41572.0 37555.0 227878.0 229712.0 207800.0 200687.0 86958.0 94047.0 199278.0 196684.0 156439.0 156348.0 151608.0 157880.0 157355.0 153169.0 169198.0 175412.0 94137.0 86309.0 220820.0 213265.0 86300.0 79422.0 142008.0 134324.0 183986.0 188847.0 184179.0 192169.0 45140.0 46017.0 81903.0 82873.0 88054.0 94622.0 177344.0 170627.0 184758.0 188992.0 246876.0 254740.0 95857.0 95386.0 120878.0 128027.0 52424.0 44864.0 183114.0 49871.0 183114.0 183114.0 49871.0 49871.0
29522.0 29260.0 88382.0 90155.0 284592.0 277094.0 212347.0 216038.0 0.0 8154.0 16000.0 19698.0 129846.0 134715.0 127118.0 135340.0 62847.0 60525.0 332903.0 324736.0 54109.0 47835.0 115916.0 108013.0 71391.0 64349.0 61408.0 53643.0 177340.0 178732.0 91554.0 84910.0 255468.0 249209.0 64576.0 57898.0 11595.0 16065.0 296064.0 301457.0 109301.0 116384.0 366126.0 364291.0 358019.0 364872.0 196765.0 201947.0 134949.0 129925.0 122274.0 130228.0 61910.0 63503.0 301996.0 295371.0 76012.0 84010.0 194468.0 189927.0 60473.0 57563.0 261108.0 261103.0 136481.0 133682.0 304081.0 310626.0 92809.0 90303.0 108745.0 101991.0 78344.0 83016.0 120275.0 121791.0 98446.0 90527.0 177769.0 181142.0 125530.0 211398.0 125530.0 125530.0 211398.0 211398.0
22637.0 21351.0 95450.0 97558.0 287666.0 280117.0 215947.0 219392.0 8154.0 0.0 23552.0 25682.0 132100.0 136581.0 125243.0 133406.0 67940.0 66353.0 337413.0 329246.0 57874.0 52298.0 117544.0 109647.0 65513.0 58936.0 62545.0 55300.0 171420.0 173073.0 99706.0 93060.0 258383.0 251976.0 72019.0 65112.0 19362.0 22189.0 300348.0 305874.0 117454.0 124532.0 370547.0 368768.0 362530.0 369383.0 193964.0 199369.0 131286.0 125924.0 126094.0 134062.0 69646.0 71489.0 305534.0 298801.0 80842.0 88809.0 190567.0 185773.0 57127.0 53303.0 264361.0 264142.0 139057.0 136710.0 307358.0 314014.0 100765.0 98094.0 104226.0 97218.0 84980.0 89267.0 123917.0 125885.0 103263.0 95289.0 182431.0 185530.0 133371.0 216364.0 133371.0 133371.0 216364.0 216364.0
45521.0 44899.0 81132.0 81523.0 272813.0 265398.0 199919.0 203959.0 16000.0 23552.0 0.0 8042.0 119857.0 125341.0 124766.0 133015.0 49142.0 45805.0 319148.0 310981.0 42906.0 35645.0 107130.0 99314.0 78635.0 70760.0 54803.0 46460.0 183517.0 184246.0 77480.0 71317.0 243967.0 237943.0 56327.0 50909.0 4510.0 6409.0 282600.0 287819.0 95298.0 102101.0 352443.0 350536.0 344264.0 351117.0 195764.0 200460.0 136206.0 131966.0 109847.0 117734.0 52250.0 52150.0 289527.0 283065.0 62498.0 70450.0 195823.0 191865.0 62735.0 61829.0 249097.0 249406.0 125908.0 122402.0 291983.0 298363.0 77378.0 74554.0 112189.0 106102.0 72858.0 78669.0 108129.0 108960.0 84738.0 76958.0 163971.0 167692.0 109849.0 197172.0 109849.0 109849.0 197172.0 197172.0
48315.0 46348.0 87674.0 87559.0 265960.0 258511.0 193334.0 197216.0 19698.0 25682.0 8042.0 0.0 112361.0 117709.0 116863.0 125108.0 43214.0 40876.0 313350.0 305182.0 35581.0 28690.0 99369.0 91530.0 73432.0 65308.0 46765.0 38431.0 177450.0 177949.0 80062.0 74442.0 237000.0 230889.0 62746.0 57806.0 10790.0 3633.0 276606.0 281940.0 97822.0 104281.0 346599.0 344738.0 338466.0 345319.0 187968.0 192604.0 128844.0 124785.0 103214.0 111141.0 58162.0 57200.0 282980.0 276441.0 56448.0 64445.0 188411.0 184577.0 55964.0 55705.0 242335.0 242516.0 118577.0 115298.0 285267.0 291721.0 78026.0 74427.0 105425.0 99560.0 79962.0 86004.0 101361.0 102536.0 78855.0 70967.0 158187.0 161669.0 109735.0 191730.0 109735.0 109735.0 191730.0 191730.0
151262.0 145201.0 177015.0 172218.0 156546.0 148887.0 88318.0 90093.0 129846.0 132100.0 119857.0 112361.0 0.0 8048.0 65278.0 68230.0 74984.0 82040.0 214598.0 206431.0 76975.0 84507.0 17275.0 24044.0 116077.0 110977.0 70206.0 76850.0 162909.0 158270.0 137396.0 138799.0 126951.0 120244.0 155856.0 155480.0 123151.0 115552.0 175696.0 182231.0 147117.0 147717.0 245908.0 245315.0 239712.0 246415.0 118291.0 118690.0 96248.0 100016.0 27270.0 27521.0 148871.0 142547.0 176068.0 168894.0 63545.0 57915.0 135372.0 136664.0 94173.0 102156.0 133986.0 133026.0 8792.0 14016.0 176805.0 183843.0 119791.0 111819.0 102242.0 104725.0 175819.0 183496.0 24762.0 32059.0 50272.0 53601.0 70263.0 68731.0 136518.0 103757.0 136518.0 136518.0 103757.0 103757.0
155144.0 148833.0 184303.0 179638.0 153591.0 145883.0 87450.0 88513.0 134715.0 136581.0 125341.0 117709.0 8048.0 0.0 60757.0 62930.0 81609.0 88866.0 214192.0 206001.0 82618.0 90299.0 19296.0 27064.0 116729.0 112122.0 74212.0 81295.0 158108.0 153204.0 145211.0 146494.0 123876.0 116915.0 162863.0 162280.0 128484.0 120805.0 174915.0 181650.0 155087.0 155735.0 244852.0 244518.0 239245.0 245799.0 110815.0 111028.0 91781.0 96046.0 35138.0 34695.0 155912.0 149717.0 173851.0 166522.0 70594.0 65288.0 128581.0 130149.0 95941.0 103926.0 131540.0 130157.0 12569.0 20247.0 174110.0 181308.0 127706.0 119727.0 99981.0 103028.0 182837.0 190475.0 32751.0 39907.0 58165.0 61219.0 73616.0 71265.0 144566.0 106109.0 144566.0 144566.0 106109.0 106109.0
136713.0 128888.0 200528.0 198242.0 197394.0 189722.0 141696.0 140643.0 127118.0 125243.0 124766.0 116863.0 65278.0 60757.0 0.0 8254.0 100148.0 108088.0 267337.0 259057.0 91479.0 98686.0 52992.0 53334.0 78079.0 77651.0 72110.0 80270.0 97637.0 93143.0 173569.0 172096.0 168325.0 160504.0 176120.0 172808.0 126033.0 118611.0 227204.0 234506.0 187618.0 190563.0 295270.0 295917.0 291860.0 297836.0 71667.0 75852.0 31032.0 35617.0 88154.0 91340.0 170124.0 166211.0 220544.0 212700.0 96188.0 95827.0 78244.0 77190.0 69414.0 75601.0 178520.0 175288.0 72976.0 79265.0 218559.0 226347.0 159889.0 152247.0 45476.0 51249.0 195082.0 201772.0 84642.0 92534.0 97799.0 95812.0 134308.0 131558.0 183973.0 166018.0 183973.0 183973.0 166018.0 166018.0
144611.0 136748.0 208594.0 206230.0 193941.0 186319.0 140639.0 139125.0 135340.0 133406.0 133015.0 125108.0 68230.0 62930.0 8254.0 0.0 107745.0 115722.0 265445.0 257163.0 99419.0 106695.0 57502.0 58774.0 84941.0 84957.0 80224.0 88418.0 95322.0 90280.0 181049.0 179725.0 165163.0 157270.0 184231.0 180974.0 134287.0 126864.0 225222.0 232632.0 194874.0 197661.0 292696.0 293555.0 289787.0 295616.0 63611.0 67661.0 30242.0 36314.0 92418.0 95019.0 178200.0 174211.0 217468.0 209568.0 103324.0 102607.0 71500.0 71011.0 77373.0 83392.0 175711.0 172187.0 75410.0 82234.0 215109.0 222962.0 167072.0 159371.0 49933.0 56372.0 203238.0 209953.0 88999.0 96933.0 103834.0 102268.0 135924.0 132722.0 190633.0 166783.0 190633.0 190633.0 166783.0 166783.0
90261.0 86774.0 104256.0 100576.0 224272.0 216934.0 151011.0 155278.0 62847.0 67940.0 49142.0 43214.0 74984.0 81609.0 100148.0 107745.0 0.0 8061.0 270155.0 261988.0 15059.0 16293.0 65720.0 58746.0 90265.0 81911.0 33796.0 29859.0 181075.0 179621.0 73521.0 71981.0 195711.0 189936.0 81689.0 80719.0 53260.0 46834.0 233495.0 238772.0 88331.0 92154.0 303420.0 301543.0 295271.0 302124.0 170883.0 174049.0 121408.0 119956.0 61192.0 68970.0 74879.0 69305.0 240544.0 234163.0 13366.0 21310.0 177789.0 175739.0 65017.0 69913.0 200405.0 200963.0 79726.0 75085.0 243198.0 249476.0 61349.0 54351.0 106707.0 103508.0 101638.0 109162.0 59795.0 59989.0 35658.0 27823.0 114982.0 118569.0 89706.0 148561.0 89706.0 89706.0 148561.0 148561.0
88942.0 86136.0 96387.0 92594.0 229400.0 222134.0 155804.0 160346.0 60525.0 66353.0 45805.0 40876.0 82040.0 88866.0 108088.0 115722.0 8061.0 0.0 273534.0 265366.0 20182.0 18113.0 73412.0 66564.0 94739.0 86274.0 40424.0 35411.0 187832.0 186563.0 65738.0 64010.0 201091.0 195486.0 74096.0 73442.0 50151.0 44493.0 237185.0 242277.0 80874.0 84967.0 306852.0 304922.0 298650.0 305503.0 178911.0 182100.0 128913.0 127259.0 66624.0 74218.0 67220.0 61461.0 245127.0 238882.0 18852.0 26090.0 185604.0 183459.0 70073.0 74359.0 205409.0 206195.0 86389.0 81334.0 248064.0 254209.0 54290.0 47611.0 113368.0 109855.0 94068.0 101654.0 65544.0 64976.0 39672.0 32319.0 118414.0 122428.0 83699.0 151405.0 83699.0 83699.0 151405.0 151405.0
358991.0 354230.0 345925.0 338592.0 84170.0 89529.0 126830.0 126851.0 332903.0 337413.0 319148.0 313350.0 214598.0 214192.0 267337.0 265445.0 270155.0 273534.0 0.0 8282.0 279643.0 285190.0 231858.0 238366.0 330633.0 325527.0 280773.0 285515.0 353423.0 346432.0 296335.0 301765.0 105318.0 113139.0 332594.0 335785.0 323362.0 316959.0 40278.0 32831.0 297062.0 294411.0 36574.0 32798.0 25228.0 32458.0 273976.0 268275.0 295263.0 301753.0 212021.0 204128.0 325797.0 317843.0 59713.0 66740.0 256905.0 248907.0 302363.0 308365.0 308411.0 316349.0 92764.0 98389.0 205963.0 205042.0 68957.0 62618.0 277477.0 271743.0 311609.0 315794.0 350300.0 358028.0 214629.0 211725.0 234499.0 242386.0 155182.0 151909.0 280842.0 124149.0 280842.0 280842.0 124149.0 124149.0
350824.0 346063.0 337758.0 330425.0 76892.0 81997.0 118613.0 118584.0 324736.0 329246.0 310981.0 305182.0 206431.0 206001.0 259057.0 257163.0 261988.0 265366.0 8282.0 0.0 271475.0 277023.0 223693.0 230197.0 322483.0 317366.0 272605.0 277347.0 345210.0 338233.0 288167.0 293598.0 97317.0 105102.0 324427.0 327618.0 315194.0 308792.0 32013.0 24552.0 288895.0 286244.0 42924.0 40042.0 33284.0 40238.0 265944.0 260285.0 286984.0 293472.0 203854.0 195961.0 317630.0 309676.0 52958.0 59666.0 248738.0 240740.0 294295.0 300263.0 300234.0 308170.0 84692.0 90427.0 197796.0 196848.0 62661.0 56794.0 269310.0 263576.0 303341.0 307539.0 342133.0 349861.0 206462.0 203558.0 226332.0 234219.0 147014.0 143742.0 272674.0 115982.0 272674.0 272674.0 115982.0 115982.0
79391.0 75048.0 109464.0 106834.0 230539.0 223062.0 158262.0 161931.0 54109.0 57874.0 42906.0 35581.0 76975.0 82618.0 91479.0 99419.0 15059.0 20182.0 279643.0 271475.0 0.0 7924.0 64825.0 57157.0 75234.0 66863.0 20811.0 15231.0 167906.0 166804.0 84458.0 81832.0 201498.0 195340.0 85546.0 83191.0 46342.0 38928.0 242490.0 248058.0 100295.0 104738.0 312725.0 311017.0 304759.0 311612.0 163009.0 166717.0 110202.0 108089.0 68259.0 76225.0 79211.0 74848.0 247903.0 241264.0 24671.0 32174.0 167896.0 165334.0 50134.0 54870.0 207010.0 207068.0 83023.0 79746.0 249977.0 256517.0 74242.0 67735.0 93419.0 89741.0 105084.0 112221.0 66183.0 68017.0 46338.0 38382.0 124851.0 127735.0 103862.0 159119.0 103862.0 103862.0 159119.0 159119.0
74362.0 70618.0 101966.0 99559.0 237289.0 229849.0 164659.0 168526.0 47835.0 52298.0 35645.0 28690.0 84507.0 90299.0 98686.0 106695.0 16293.0 18113.0 285190.0 277023.0 7924.0 0.0 72661.0 65026.0 76955.0 68450.0 27039.0 19933.0 172688.0 171880.0 78992.0 75855.0 208372.0 202313.0 77880.0 75370.0 39313.0 32182.0 248259.0 253699.0 95339.0 100194.0 318372.0 316525.0 310307.0 317159.0 170306.0 174133.0 116406.0 113940.0 74541.0 82478.0 71636.0 67525.0 254310.0 247756.0 28608.0 36540.0 174570.0 171804.0 52845.0 56622.0 213647.0 213855.0 90341.0 86758.0 256577.0 263034.0 70148.0 64141.0 98283.0 94134.0 97331.0 104419.0 72671.0 73961.0 50984.0 43001.0 130146.0 133359.0 100912.0 164086.0 100912.0 100912.0 164086.0 164086.0
135891.0 129546.0 169725.0 165602.0 172781.0 165084.0 105488.0 107053.0 115916.0 117544.0 107130.0 99369.0 17275.0 19296.0 52992.0 57502.0 65720.0 73412.0 231858.0 223693.0 64825.0 72661.0 0.0 7905.0 98805.0 93759.0 55060.0 62337.0 150017.0 145900.0 133634.0 134053.0 143087.0 136174.0 147409.0 146254.0 110100.0 102360.0 192911.0 199476.0 145088.0 146617.0 263076.0 262534.0 256973.0 263660.0 113816.0 115334.0 83234.0 86133.0 35170.0 38881.0 140591.0 134846.0 192779.0 185517.0 56199.0 52360.0 127715.0 128060.0 77126.0 85116.0 150555.0 149317.0 26005.0 29124.0 193228.0 200371.0 117227.0 109243.0 86259.0 88270.0 167353.0 174854.0 31650.0 39549.0 49038.0 49762.0 86374.0 85395.0 137159.0 120399.0 137159.0 137159.0 120399.0 120399.0
128079.0 121788.0 162951.0 159022.0 180302.0 172617.0 112301.0 114136.0 108013.0 109647.0 99314.0 91530.0 24044.0 27064.0 53334.0 58774.0 58746.0 66564.0 238366.0 230197.0 57157.0 65026.0 7905.0 0.0 92561.0 87179.0 47184.0 54432.0 149012.0 145273.0 128035.0 128123.0 150639.0 143789.0 140365.0 139024.0 102249.0 94501.0 199604.0 206069.0 140063.0 141932.0 269871.0 269206.0 263481.0 270242.0 117552.0 119518.0 82535.0 84724.0 36494.0 41544.0 133602.0 128021.0 200063.0 192855.0 49954.0 46857.0 129911.0 129766.0 70176.0 78152.0 157920.0 156812.0 32452.0 34127.0 200672.0 207764.0 112124.0 104180.0 82805.0 84187.0 160278.0 167728.0 32837.0 40378.0 45429.0 45020.0 90999.0 90579.0 133236.0 125451.0 133236.0 133236.0 125451.0 125451.0
66979.0 58904.0 159129.0 160049.0 268473.0 260722.0 204109.0 205207.0 71391.0 65513.0 78635.0 73432.0 116077.0 116729.0 78079.0 84941.0 90265.0 94739.0 330633.0 322483.0 75234.0 76955.0 98805.0 92561.0 0.0 8540.0 59633.0 60697.0 105967.0 107569.0 151913.0 147035.0 238776.0 231361.0 134645.0 128594.0 77077.0 72700.0 291585.0 298228.0 169321.0 175073.0 361582.0 361205.0 355759.0 362408.0 137236.0 143668.0 72280.0 65444.0 124268.0 131218.0 130869.0 130548.0 289883.0 282366.0 97095.0 102686.0 128959.0 123298.0 25962.0 20386.0 247436.0 245393.0 124766.0 126547.0 289382.0 296837.0 146169.0 140718.0 42334.0 34516.0 149628.0 154407.0 120894.0 126498.0 114101.0 107326.0 182408.0 182716.0 177758.0 217268.0 177758.0 177758.0 217268.0 217268.0
62715.0 54590.0 151551.0 152267.0 264741.0 256993.0 199242.0 200620.0 64349.0 58936.0 70760.0 65308.0 110977.0 112122.0 77651.0 84957.0 81911.0 86274.0 325527.0 317366.0 66863.0 68450.0 93759.0 87179.0 8540.0 0.0 51850.0 52477.0 113140.0 114388.0 143468.0 138654.0 235002.0 227692.0 126947.0 121055.0 69406.0 64724.0 286668.0 293203.0 160847.0 166568.0 356821.0 356289.0 350650.0 357385.0 139906.0 146072.0 75277.0 68958.0 117772.0 124892.0 123007.0 122490.0 285763.0 278324.0 89034.0 94804.0 133240.0 127928.0 18387.0 12006.0 243351.0 241532.0 119574.0 120909.0 285550.0 292922.0 137631.0 132179.0 46255.0 38799.0 142311.0 147279.0 114468.0 119811.0 106520.0 99598.0 176205.0 176780.0 169228.0 211139.0 169228.0 169228.0 211139.0 211139.0
81060.0 75050.0 128449.0 126368.0 226626.0 218995.0 156547.0 159254.0 61408.0 62545.0 54803.0 46765.0 70206.0 74212.0 72110.0 80224.0 33796.0 40424.0 280773.0 272605.0 20811.0 27039.0 55060.0 47184.0 59633.0 51850.0 0.0 8408.0 147417.0 146155.0 105269.0 102572.0 197100.0 190446.0 104011.0 100826.0 57022.0 49231.0 242808.0 248841.0 121040.0 125348.0 313257.0 312071.0 305889.0 312721.0 143775.0 147849.0 89480.0 87280.0 69263.0 76958.0 98033.0 94329.0 245542.0 238543.0 37861.0 43069.0 147533.0 144781.0 33672.0 40166.0 203777.0 203090.0 77691.0 76508.0 246713.0 253616.0 94713.0 87966.0 72976.0 69720.0 123054.0 129856.0 66367.0 70455.0 54749.0 47748.0 127969.0 129610.0 123494.0 162894.0 123494.0 123494.0 162894.0 162894.0
74711.0 69137.0 120426.0 118533.0 232876.0 225280.0 162077.0 165075.0 53643.0 55300.0 46460.0 38431.0 76850.0 81295.0 80270.0 88418.0 29859.0 35411.0 285515.0 277347.0 15231.0 19933.0 62337.0 54432.0 60697.0 52477.0 8408.0 0.0 152977.0 152046.0 98873.0 95787.0 203455.0 196926.0 95887.0 92564.0 48782.0 40979.0 247810.0 253697.0 115052.0 119695.0 318234.0 316877.0 310631.0 317484.0 151911.0 156070.0 96628.0 94033.0 73539.0 81396.0 90004.0 86520.0 251367.0 244467.0 36756.0 43113.0 155114.0 152164.0 35192.0 40485.0 209816.0 209336.0 83996.0 82202.0 252798.0 259602.0 89330.0 82921.0 78511.0 74626.0 114820.0 121571.0 70887.0 74248.0 56077.0 48547.0 131844.0 133922.0 119091.0 166617.0 119091.0 119091.0 166617.0 166617.0
169728.0 162113.0 264570.0 264963.0 275705.0 268555.0 232639.0 229962.0 177340.0 171420.0 183517.0 177450.0 162909.0 158108.0 97637.0 95322.0 181075.0 187832.0 353423.0 345210.0 167906.0 172688.0 150017.0 149012.0 105967.0 113140.0 147417.0 152977.0 0.0 8118.0 251585.0 247911.0 249232.0 241231.0 239841.0 234129.0 182437.0 177307.0 313261.0 321004.0 268011.0 272639.0 377384.0 379251.0 376808.0 381939.0 87051.0 94623.0 66812.0 64390.0 185057.0 188757.0 235586.0 234412.0 300701.0 292669.0 182143.0 184399.0 60045.0 51925.0 122106.0 121761.0 261140.0 256346.0 170481.0 176901.0 296366.0 304417.0 242108.0 235373.0 74488.0 78746.0 255451.0 260350.0 181461.0 189225.0 190141.0 186270.0 231239.0 227905.0 270462.0 261626.0 270462.0 270462.0 261626.0 261626.0
172411.0 164674.0 265376.0 265508.0 268326.0 261215.0 226293.0 223452.0 178732.0 173073.0 184246.0 177949.0 158270.0 153204.0 93143.0 90280.0 179621.0 186563.0 346432.0 338233.0 166804.0 171880.0 145900.0 145273.0 107569.0 114388.0 146155.0 152046.0 8118.0 0.0 250868.0 247428.0 242043.0 234050.0 240553.0 235033.0 183360.0 177971.0 306312.0 314080.0 267071.0 271502.0 370097.0 372040.0 369709.0 374777.0 79047.0 86590.0 62750.0 61216.0 181036.0 184467.0 236108.0 234659.0 293381.0 285350.0 180104.0 182029.0 51929.0 43817.0 122232.0 122418.0 254031.0 249151.0 165656.0 172283.0 288931.0 296984.0 240848.0 233972.0 73643.0 78584.0 256560.0 261649.0 177470.0 185292.0 187219.0 183636.0 226010.0 222481.0 268692.0 255959.0 268692.0 268692.0 255959.0 255959.0
118678.0 120421.0 50293.0 42494.0 263359.0 256908.0 190186.0 196581.0 91554.0 99706.0 77480.0 80062.0 137396.0 145211.0 173569.0 181049.0 73521.0 65738.0 296335.0 288167.0 84458.0 78992.0 133634.0 128035.0 151913.0 143468.0 105269.0 98873.0 251585.0 250868.0 0.0 8039.0 238027.0 234010.0 44634.0 51266.0 80908.0 81912.0 260858.0 265344.0 17818.0 24893.0 329663.0 327723.0 321451.0 328304.0 243773.0 246557.0 194501.0 192544.0 114054.0 119441.0 40193.0 33313.0 274116.0 269183.0 78475.0 81287.0 251309.0 249196.0 130370.0 132527.0 239138.0 241751.0 138860.0 131623.0 279326.0 284191.0 19247.0 26463.0 177253.0 172902.0 57273.0 64357.0 114847.0 110298.0 87178.0 84264.0 145992.0 152590.0 44275.0 173963.0 44275.0 44275.0 173963.0 173963.0
111535.0 113547.0 44189.0 36896.0 268240.0 261685.0 194762.0 200987.0 84910.0 93060.0 71317.0 74442.0 138799.0 146494.0 172096.0 179725.0 71981.0 64010.0 301765.0 293598.0 81832.0 75855.0 134053.0 128123.0 147035.0 138654.0 102572.0 95787.0 247911.0 247428.0 8039.0 0.0 242512.0 238301.0 36686.0 43236.0 74544.0 76061.0 266289.0 270775.0 24629.0 32199.0 335094.0 333154.0 326882.0 333735.0 242806.0 245826.0 192032.0 189769.0 116376.0 122131.0 32154.0 25339.0 279520.0 274450.0 78220.0 81770.0 249445.0 247084.0 126212.0 127964.0 243976.0 246401.0 140752.0 133775.0 284520.0 289522.0 24339.0 30377.0 173787.0 169166.0 50130.0 57431.0 116927.0 112829.0 88874.0 85291.0 150957.0 157358.0 52073.0 179394.0 52073.0 52073.0 179394.0 179394.0
278095.0 272136.0 285960.0 279281.0 29752.0 22018.0 47890.0 41572.0 255468.0 258383.0 243967.0 237000.0 126951.0 123876.0 168325.0 165163.0 195711.0 201091.0 105318.0 97317.0 201498.0 208372.0 143087.0 150639.0 238776.0 235002.0 197100.0 203455.0 249232.0 242043.0 238027.0 242512.0 0.0 8013.0 269377.0 271114.0 247682.0 240406.0 66258.0 74243.0 240324.0 237672.0 128362.0 130024.0 127821.0 132740.0 168664.0 162968.0 194015.0 201040.0 134544.0 126875.0 262311.0 254784.0 52316.0 44405.0 182552.0 175007.0 197100.0 203205.0 219548.0 227504.0 13028.0 7123.0 119468.0 121787.0 50621.0 58200.0 218801.0 212144.0 213687.0 218851.0 288422.0 296288.0 135961.0 136155.0 161861.0 168813.0 92857.0 85709.0 224102.0 80125.0 224102.0 224102.0 80125.0 80125.0
271489.0 265440.0 281526.0 274976.0 37139.0 29395.0 44614.0 37555.0 249209.0 251976.0 237943.0 230889.0 120244.0 116915.0 160504.0 157270.0 189936.0 195486.0 113139.0 105102.0 195340.0 202313.0 136174.0 143789.0 231361.0 227692.0 190446.0 196926.0 241231.0 234050.0 234010.0 238301.0 8013.0 0.0 264506.0 266059.0 241601.0 234267.0 73847.0 81822.0 236833.0 234236.0 136374.0 138030.0 135771.0 140729.0 160843.0 155209.0 186060.0 193106.0 128867.0 121302.0 257425.0 249973.0 60256.0 52316.0 176853.0 169397.0 189233.0 195299.0 212392.0 220336.0 20470.0 15136.0 112940.0 115594.0 58200.0 65887.0 214766.0 207969.0 205896.0 211115.0 283685.0 291555.0 130141.0 130673.0 156471.0 163276.0 89770.0 82347.0 220667.0 80081.0 220667.0 220667.0 80081.0 80081.0
85526.0 89574.0 24949.0 25582.0 296350.0 289467.0 222290.0 227878.0 64576.0 72019.0 56327.0 62746.0 155856.0 162863.0 176120.0 184231.0 81689.0 74096.0 332594.0 324427.0 85546.0 77880.0 147409.0 140365.0 134645.0 126947.0 104011.0 95887.0 239841.0 240553.0 44634.0 36686.0 269377.0 264506.0 0.0 7962.0 57569.0 62581.0 297118.0 301604.0 58400.0 66395.0 365923.0 363983.0 357711.0 364564.0 247781.0 251825.0 190903.0 187201.0 137558.0 144412.0 7103.0 14764.0 309380.0 303861.0 92313.0 98292.0 250212.0 246714.0 118709.0 118146.0 272060.0 273819.0 159600.0 153785.0 313649.0 319098.0 58555.0 62117.0 168166.0 162280.0 19976.0 27654.0 137235.0 134872.0 109179.0 103497.0 180204.0 185903.0 88720.0 210223.0 88720.0 88720.0 210223.0 210223.0
77859.0 82113.0 30550.0 32605.0 298419.0 291445.0 224324.0 229712.0 57898.0 65112.0 50909.0 57806.0 155480.0 162280.0 172808.0 180974.0 80719.0 73442.0 335785.0 327618.0 83191.0 75370.0 146254.0 139024.0 128594.0 121055.0 100826.0 92564.0 234129.0 235033.0 51266.0 43236.0 271114.0 266059.0 7962.0 0.0 51695.0 57275.0 300260.0 304794.0 65773.0 73761.0 369114.0 367174.0 360902.0 367755.0 244394.0 248631.0 186532.0 182581.0 138306.0 145377.0 11212.0 19049.0 311993.0 306333.0 92042.0 98443.0 246009.0 242310.0 113615.0 112643.0 274158.0 275712.0 159620.0 154124.0 316017.0 321607.0 63839.0 66670.0 163084.0 157005.0 22318.0 29070.0 137774.0 135854.0 110026.0 103942.0 182887.0 188352.0 94953.0 213414.0 94953.0 94953.0 213414.0 213414.0
41087.0 40699.0 82151.0 82994.0 276597.0 269162.0 203838.0 207800.0 11595.0 19362.0 4510.0 10790.0 123151.0 128484.0 126033.0 134287.0 53260.0 50151.0 323362.0 315194.0 46342.0 39313.0 110100.0 102249.0 77077.0 69406.0 57022.0 48782.0 182437.0 183360.0 80908.0 74544.0 247682.0 241601.0 57569.0 51695.0 0.0 7807.0 286755.0 292010.0 98712.0 105632.0 356646.0 354750.0 348478.0 355331.0 196732.0 201564.0 136487.0 132020.0 113732.0 121640.0 53955.0 54467.0 293468.0 286969.0 66593.0 74566.0 196134.0 192009.0 62507.0 61030.0 252930.0 253167.0 129354.0 126020.0 295842.0 302259.0 81411.0 78762.0 111810.0 105521.0 73291.0 78777.0 111946.0 112939.0 88900.0 81082.0 168180.0 171829.0 114021.0 201470.0 114021.0 114021.0 201470.0 201470.0
44801.0 43047.0 87431.0 87670.0 269399.0 261940.0 196841.0 200687.0 16065.0 22189.0 6409.0 3633.0 115552.0 120805.0 118611.0 126864.0 46834.0 44493.0 316959.0 308792.0 38928.0 32182.0 102360.0 94501.0 72700.0 64724.0 49231.0 40979.0 177307.0 177971.0 81912.0 76061.0 240406.0 234267.0 62581.0 57275.0 7807.0 0.0 280199.0 285543.0 99711.0 106309.0 350204.0 348348.0 342076.0 348929.0 189505.0 194247.0 129807.0 125557.0 106723.0 114656.0 58332.0 57872.0 286491.0 279936.0 60055.0 68052.0 189428.0 185458.0 56347.0 55571.0 245799.0 245945.0 121855.0 118672.0 288740.0 295212.0 80565.0 77197.0 105811.0 99762.0 79258.0 85078.0 104840.0 106084.0 82469.0 74574.0 161801.0 165262.0 112529.0 195359.0 112529.0 112529.0 195359.0 195359.0
321701.0 316743.0 310449.0 303116.0 50080.0 53568.0 87478.0 86958.0 296064.0 300348.0 282600.0 276606.0 175696.0 174915.0 227204.0 225222.0 233495.0 237185.0 40278.0 32013.0 242490.0 248259.0 192911.0 199604.0 291585.0 286668.0 242808.0 247810.0 313261.0 306312.0 260858.0 266289.0 66258.0 73847.0 297118.0 300260.0 286755.0 280199.0 0.0 7987.0 261586.0 258935.0 70449.0 69625.0 64683.0 70942.0 234512.0 228995.0 255006.0 261524.0 174508.0 166567.0 290320.0 282366.0 31804.0 35399.0 220181.0 212196.0 262741.0 268605.0 269759.0 277722.0 53379.0 59599.0 167153.0 166667.0 42740.0 40514.0 242000.0 236266.0 271633.0 275941.0 314823.0 322552.0 176975.0 174474.0 197863.0 205676.0 118816.0 114938.0 245365.0 88159.0 245365.0 245365.0 88159.0 88159.0
327360.0 322515.0 314934.0 307602.0 57474.0 61277.0 94213.0 94047.0 301457.0 305874.0 287819.0 281940.0 182231.0 181650.0 234506.0 232632.0 238772.0 242277.0 32831.0 24552.0 248058.0 253699.0 199476.0 206069.0 298228.0 293203.0 248841.0 253697.0 321004.0 314080.0 265344.0 270775.0 74243.0 81822.0 301604.0 304794.0 292010.0 285543.0 7987.0 0.0 266072.0 263421.0 64675.0 63242.0 57626.0 64184.0 242448.0 236950.0 262476.0 268943.0 180267.0 172350.0 294806.0 286852.0 37473.0 42028.0 225493.0 217498.0 270654.0 276493.0 276176.0 284127.0 61356.0 67585.0 173636.0 172911.0 48387.0 45112.0 246486.0 240752.0 278801.0 283022.0 319309.0 327037.0 182815.0 180081.0 203116.0 210976.0 123867.0 120347.0 249851.0 92214.0 249851.0 249851.0 92214.0 92214.0
136157.0 138081.0 57298.0 48785.0 264666.0 258437.0 192467.0 199278.0 109301.0 117454.0 95298.0 97822.0 147117.0 155087.0 187618.0 194874.0 88331.0 80874.0 297062.0 288895.0 100295.0 95339.0 145088.0 140063.0 169321.0 160847.0 121040.0 115052.0 268011.0 267071.0 17818.0 24629.0 240324.0 236833.0 58400.0 65773.0 98712.0 99711.0 261586.0 266072.0 0.0 7995.0 330391.0 328451.0 322179.0 329032.0 256941.0 259367.0 209734.0 208127.0 122268.0 126829.0 55234.0 49326.0 274850.0 269940.0 91591.0 93274.0 265703.0 263910.0 147339.0 149768.0 240577.0 243592.0 147649.0 139970.0 280150.0 284922.0 27956.0 35883.0 193562.0 189463.0 67073.0 73172.0 123525.0 118140.0 97024.0 95326.0 147536.0 154622.0 36893.0 174691.0 36893.0 36893.0 174691.0 174691.0
143559.0 145302.0 64628.0 56088.0 262015.0 255786.0 189826.0 196684.0 116384.0 124532.0 102101.0 104281.0 147717.0 155735.0 190563.0 197661.0 92154.0 84967.0 294411.0 286244.0 104738.0 100194.0 146617.0 141932.0 175073.0 166568.0 125348.0 119695.0 272639.0 271502.0 24893.0 32199.0 237672.0 234236.0 66395.0 73761.0 105632.0 106309.0 258935.0 263421.0 7995.0 0.0 327740.0 325800.0 319528.0 326381.0 259223.0 261427.0 213455.0 212110.0 122243.0 126376.0 63189.0 57165.0 272199.0 267289.0 94375.0 95418.0 268770.0 267199.0 152607.0 155331.0 237927.0 240959.0 147773.0 139910.0 277499.0 282271.0 30848.0 38321.0 198152.0 194280.0 74765.0 80696.0 123722.0 117962.0 98015.0 96958.0 144895.0 151979.0 31861.0 172040.0 31861.0 31861.0 172040.0 172040.0
392011.0 387123.0 379254.0 371921.0 102077.0 108962.0 157592.0 156439.0 366126.0 370547.0 352443.0 346599.0 245908.0 244852.0 295270.0 292696.0 303420.0 306852.0 36574.0 42924.0 312725.0 318372.0 263076.0 269871.0 361582.0 356821.0 313257.0 318234.0 377384.0 370097.0 329663.0 335094.0 128362.0 136374.0 365923.0 369114.0 356646.0 350204.0 70449.0 64675.0 330391.0 327740.0 0.0 7961.0 18761.0 13501.0 295078.0 288839.0 321983.0 328830.0 244871.0 236942.0 359125.0 351171.0 76763.0 84784.0 290151.0 282155.0 323832.0 330333.0 340046.0 348018.0 117085.0 121241.0 237423.0 237087.0 82346.0 74423.0 310805.0 305071.0 340209.0 344845.0 383628.0 391357.0 247377.0 244737.0 267763.0 275633.0 188473.0 185021.0 314170.0 157477.0 314170.0 314170.0 157477.0 157477.0
390374.0 385617.0 377313.0 369981.0 104720.0 111336.0 157097.0 156348.0 364291.0 368768.0 350536.0 344738.0 245315.0 244518.0 295917.0 293555.0 301543.0 304922.0 32798.0 40042.0 311017.0 316525.0 262534.0 269206.0 361205.0 356289.0 312071.0 316877.0 379251.0 372040.0 327723.0 333154.0 130024.0 138030.0 363983.0 367174.0 354750.0 348348.0 69625.0 63242.0 328451.0 325800.0 7961.0 0.0 11333.0 5638.0 297614.0 291498.0 323027.0 329770.0 243400.0 235500.0 357185.0 349231.0 79236.0 87184.0 288294.0 280295.0 326304.0 332687.0 339346.0 347304.0 118355.0 122907.0 236758.0 236140.0 85659.0 77899.0 308865.0 303131.0 340668.0 345154.0 381688.0 389416.0 245990.0 243113.0 265887.0 273774.0 186570.0 183289.0 312230.0 155537.0 312230.0 312230.0 155537.0 155537.0
384108.0 379346.0 371042.0 363709.0 104152.0 110307.0 151827.0 151608.0 358019.0 362530.0 344264.0 338466.0 239712.0 239245.0 291860.0 289787.0 295271.0 298650.0 25228.0 33284.0 304759.0 310307.0 256973.0 263481.0 355759.0 350650.0 305889.0 310631.0 376808.0 369709.0 321451.0 326882.0 127821.0 135771.0 357711.0 360902.0 348478.0 342076.0 64683.0 57626.0 322179.0 319528.0 18761.0 11333.0 0.0 8022.0 296224.0 290298.0 319479.0 326073.0 237138.0 229245.0 350913.0 342959.0 78747.0 86463.0 282022.0 274024.0 324789.0 330990.0 333512.0 341446.0 115679.0 120759.0 231080.0 230159.0 86327.0 78936.0 302593.0 296859.0 336316.0 340601.0 375416.0 383144.0 239746.0 236842.0 259615.0 267503.0 180298.0 177025.0 305958.0 149265.0 305958.0 305958.0 149265.0 149265.0
390961.0 386199.0 377894.0 370562.0 108085.0 114526.0 158349.0 157880.0 364872.0 369383.0 351117.0 345319.0 246415.0 245799.0 297836.0 295616.0 302124.0 305503.0 32458.0 40238.0 311612.0 317159.0 263660.0 270242.0 362408.0 357385.0 312721.0 317484.0 381939.0 374777.0 328304.0 333735.0 132740.0 140729.0 364564.0 367755.0 355331.0 348929.0 70942.0 64184.0 329032.0 326381.0 13501.0 5638.0 8022.0 0.0 300743.0 294704.0 325198.0 331870.0 243990.0 236097.0 357766.0 349812.0 82585.0 90459.0 288875.0 280876.0 329386.0 335693.0 340330.0 348276.0 120850.0 125641.0 237814.0 236999.0 89458.0 81813.0 309446.0 303712.0 342445.0 346829.0 382269.0 389997.0 246598.0 243695.0 266468.0 274355.0 187151.0 183878.0 312811.0 156118.0 312811.0 312811.0 156118.0 156118.0
202322.0 194231.0 272191.0 269833.0 193009.0 186279.0 161878.0 157355.0 196765.0 193964.0 195764.0 187968.0 118291.0 110815.0 71667.0 63611.0 170883.0 178911.0 273976.0 265944.0 163009.0 170306.0 113816.0 117552.0 137236.0 139906.0 143775.0 151911.0 87051.0 79047.0 243773.0 242806.0 168664.0 160843.0 247781.0 244394.0 196732.0 189505.0 234512.0 242448.0 256941.0 259223.0 295078.0 297614.0 296224.0 300743.0 0.0 7817.0 64975.0 72160.0 145388.0 145503.0 241790.0 237819.0 218418.0 210441.0 165466.0 163810.0 28841.0 35963.0 136867.0 141537.0 181263.0 175634.0 122591.0 130857.0 213045.0 221082.0 229004.0 221158.0 95211.0 103125.0 266686.0 273310.0 142523.0 150178.0 162729.0 162526.0 173765.0 168274.0 250760.0 197841.0 250760.0 250760.0 197841.0 197841.0
208285.0 200215.0 276095.0 273532.0 186814.0 180186.0 157971.0 153169.0 201947.0 199369.0 200460.0 192604.0 118690.0 111028.0 75852.0 67661.0 174049.0 182100.0 268275.0 260285.0 166717.0 174133.0 115334.0 119518.0 143668.0 146072.0 147849.0 156070.0 94623.0 86590.0 246557.0 245826.0 162968.0 155209.0 251825.0 248631.0 201564.0 194247.0 228995.0 236950.0 259367.0 261427.0 288839.0 291498.0 290298.0 294704.0 7817.0 0.0 71548.0 78927.0 145921.0 145608.0 245732.0 241565.0 212268.0 204314.0 168115.0 166110.0 35717.0 43197.0 142369.0 147283.0 175665.0 169888.0 122483.0 130841.0 206686.0 214709.0 231411.0 223518.0 101857.0 109762.0 270889.0 277613.0 143183.0 150716.0 164367.0 164535.0 171739.0 165996.0 252484.0 194778.0 252484.0 252484.0 194778.0 194778.0
137945.0 129825.0 215791.0 214583.0 222378.0 214835.0 170836.0 169198.0 134949.0 131286.0 136206.0 128844.0 96248.0 91781.0 31032.0 30242.0 121408.0 128913.0 295263.0 286984.0 110202.0 116406.0 83234.0 82535.0 72280.0 75277.0 89480.0 96628.0 66812.0 62750.0 194501.0 192032.0 194015.0 186060.0 190903.0 186532.0 136487.0 129807.0 255006.0 262476.0 209734.0 213455.0 321983.0 323027.0 319479.0 325198.0 64975.0 71548.0 0.0 8039.0 118329.0 121945.0 185544.0 182741.0 246316.0 238364.0 120008.0 121058.0 59648.0 55811.0 74480.0 78084.0 204904.0 201089.0 104006.0 110206.0 243507.0 251432.0 182608.0 175321.0 30315.0 38215.0 208771.0 214834.0 114751.0 122557.0 125153.0 122085.0 165291.0 162412.0 208797.0 196710.0 208797.0 208797.0 196710.0 196710.0
131669.0 123543.0 212135.0 211214.0 229558.0 221987.0 176810.0 175412.0 129925.0 125924.0 131966.0 124785.0 100016.0 96046.0 35617.0 36314.0 119956.0 127259.0 301753.0 293472.0 108089.0 113940.0 86133.0 84724.0 65444.0 68958.0 87280.0 94033.0 64390.0 61216.0 192544.0 189769.0 201040.0 193106.0 187201.0 182581.0 132020.0 125557.0 261524.0 268943.0 208127.0 212110.0 328830.0 329770.0 326073.0 331870.0 72160.0 78927.0 8039.0 0.0 120958.0 125006.0 182026.0 179527.0 253354.0 245421.0 119440.0 121017.0 64648.0 60035.0 69625.0 72621.0 211784.0 208095.0 108040.0 113856.0 250704.0 258608.0 181297.0 174164.0 23144.0 31042.0 204739.0 210633.0 117337.0 125036.0 126005.0 122467.0 169662.0 167085.0 208225.0 201614.0 208225.0 208225.0 201614.0 201614.0
147215.0 142253.0 156919.0 151377.0 163092.0 155744.0 90120.0 94137.0 122274.0 126094.0 109847.0 103214.0 27270.0 35138.0 88154.0 92418.0 61192.0 66624.0 212021.0 203854.0 68259.0 74541.0 35170.0 36494.0 124268.0 117772.0 69263.0 73539.0 185057.0 181036.0 114054.0 116376.0 134544.0 128867.0 137558.0 138306.0 113732.0 106723.0 174508.0 180267.0 122268.0 122243.0 244871.0 243400.0 237138.0 243990.0 145388.0 145921.0 118329.0 120958.0 0.0 7968.0 130461.0 123475.0 179769.0 173238.0 48009.0 40542.0 161564.0 162398.0 99634.0 107245.0 139277.0 139772.0 25589.0 17702.0 182138.0 188527.0 95667.0 87842.0 119073.0 120026.0 157259.0 165087.0 3661.0 4795.0 28385.0 34536.0 58783.0 60409.0 110237.0 93760.0 110237.0 110237.0 93760.0 93760.0
155171.0 150182.0 163302.0 157560.0 155307.0 147988.0 82199.0 86309.0 130228.0 134062.0 117734.0 111141.0 27521.0 34695.0 91340.0 95019.0 68970.0 74218.0 204128.0 195961.0 76225.0 82478.0 38881.0 41544.0 131218.0 124892.0 76958.0 81396.0 188757.0 184467.0 119441.0 122131.0 126875.0 121302.0 144412.0 145377.0 121640.0 114656.0 166567.0 172350.0 126829.0 126376.0 236942.0 235500.0 229245.0 236097.0 145503.0 145608.0 121945.0 125006.0 7968.0 0.0 137310.0 130198.0 171840.0 165333.0 55724.0 48132.0 162890.0 164117.0 106856.0 114539.0 131442.0 132028.0 23314.0 14868.0 174272.0 180629.0 100765.0 93063.0 124340.0 125665.0 164015.0 171862.0 10596.0 9541.0 35359.0 41974.0 51361.0 52652.0 113779.0 86341.0 113779.0 113779.0 86341.0 86341.0
84717.0 88184.0 30421.0 29401.0 289324.0 282428.0 215255.0 220820.0 61910.0 69646.0 52250.0 58162.0 148871.0 155912.0 170124.0 178200.0 74879.0 67220.0 325797.0 317630.0 79211.0 71636.0 140591.0 133602.0 130869.0 123007.0 98033.0 90004.0 235586.0 236108.0 40193.0 32154.0 262311.0 257425.0 7103.0 11212.0 53955.0 58332.0 290320.0 294806.0 55234.0 63189.0 359125.0 357185.0 350913.0 357766.0 241790.0 245732.0 185544.0 182026.0 130461.0 137310.0 0.0 8072.0 302448.0 296901.0 85338.0 91250.0 244705.0 241347.0 114012.0 113825.0 265036.0 266770.0 152558.0 146712.0 306670.0 312146.0 52718.0 55813.0 163380.0 157670.0 26955.0 34698.0 130149.0 127769.0 102081.0 96424.0 173276.0 178929.0 83749.0 203425.0 83749.0 83749.0 203425.0 203425.0
88136.0 90968.0 34958.0 32042.0 281670.0 274807.0 207626.0 213265.0 63503.0 71489.0 52150.0 57200.0 142547.0 149717.0 166211.0 174211.0 69305.0 61461.0 317843.0 309676.0 74848.0 67525.0 134846.0 128021.0 130548.0 122490.0 94329.0 86520.0 234412.0 234659.0 33313.0 25339.0 254784.0 249973.0 14764.0 19049.0 54467.0 57872.0 282366.0 286852.0 49326.0 57165.0 351171.0 349231.0 342959.0 349812.0 237819.0 241565.0 182741.0 179527.0 123475.0 130198.0 8072.0 0.0 294623.0 289116.0 79141.0 84728.0 241595.0 238471.0 112427.0 112803.0 257375.0 259182.0 145969.0 139937.0 298916.0 304349.0 44794.0 47749.0 161523.0 156090.0 33823.0 41680.0 123282.0 120660.0 95094.0 89693.0 165447.0 171169.0 76242.0 195471.0 76242.0 76242.0 195471.0 195471.0
326026.0 320461.0 323647.0 316370.0 25501.0 32199.0 89653.0 86300.0 301996.0 305534.0 289527.0 282980.0 176068.0 173851.0 220544.0 217468.0 240544.0 245127.0 59713.0 52958.0 247903.0 254310.0 192779.0 200063.0 289883.0 285763.0 245542.0 251367.0 300701.0 293381.0 274116.0 279520.0 52316.0 60256.0 309380.0 311993.0 293468.0 286491.0 31804.0 37473.0 274850.0 272199.0 76763.0 79236.0 78747.0 82585.0 218418.0 212268.0 246316.0 253354.0 179769.0 171840.0 302448.0 294623.0 0.0 8032.0 227193.0 219354.0 247138.0 253594.0 269791.0 277777.0 42452.0 45282.0 168054.0 169167.0 10953.0 10620.0 255254.0 249386.0 265845.0 270891.0 327607.0 335395.0 181722.0 180579.0 205457.0 212930.0 129176.0 123686.0 258629.0 104040.0 258629.0 258629.0 104040.0 104040.0
319159.0 313518.0 318518.0 311330.0 17690.0 24186.0 83154.0 79422.0 295371.0 298801.0 283065.0 276441.0 168894.0 166522.0 212700.0 209568.0 234163.0 238882.0 66740.0 59666.0 241264.0 247756.0 185517.0 192855.0 282366.0 278324.0 238543.0 244467.0 292669.0 285350.0 269183.0 274450.0 44405.0 52316.0 303861.0 306333.0 286969.0 279936.0 35399.0 42028.0 269940.0 267289.0 84784.0 87184.0 86463.0 90459.0 210441.0 204314.0 238364.0 245421.0 173238.0 165333.0 296901.0 289116.0 8032.0 0.0 220828.0 213027.0 239151.0 245590.0 262457.0 270439.0 34985.0 37412.0 160961.0 162274.0 10620.0 15330.0 250235.0 244233.0 258030.0 263121.0 322238.0 330045.0 175110.0 174174.0 199229.0 206630.0 123744.0 117987.0 253719.0 100037.0 253719.0 253719.0 100037.0 100037.0
102970.0 99130.0 113835.0 109475.0 211027.0 203711.0 137681.0 142008.0 76012.0 80842.0 62498.0 56448.0 63545.0 70594.0 96188.0 103324.0 13366.0 18852.0 256905.0 248738.0 24671.0 28608.0 56199.0 49954.0 97095.0 89034.0 37861.0 36756.0 182143.0 180104.0 78475.0 78220.0 182552.0 176853.0 92313.0 92042.0 66593.0 60055.0 220181.0 225493.0 91591.0 94375.0 290151.0 288294.0 282022.0 288875.0 165466.0 168115.0 120008.0 119440.0 48009.0 55724.0 85338.0 79141.0 227193.0 220828.0 0.0 7999.0 174405.0 172953.0 71235.0 77095.0 187124.0 187750.0 67615.0 62483.0 229889.0 236144.0 63749.0 56062.0 108511.0 106234.0 112279.0 119951.0 46780.0 46665.0 22444.0 14519.0 101758.0 105246.0 88814.0 135524.0 88814.0 88814.0 135524.0 135524.0
110891.0 106956.0 119102.0 114350.0 203368.0 196082.0 129897.0 134324.0 84010.0 88809.0 70450.0 64445.0 57915.0 65288.0 95827.0 102607.0 21310.0 26090.0 248907.0 240740.0 32174.0 36540.0 52360.0 46857.0 102686.0 94804.0 43069.0 43113.0 184399.0 182029.0 81287.0 81770.0 175007.0 169397.0 98292.0 98443.0 74566.0 68052.0 212196.0 217498.0 93274.0 95418.0 282155.0 280295.0 274024.0 280876.0 163810.0 166110.0 121058.0 121017.0 40542.0 48132.0 91250.0 84728.0 219354.0 213027.0 7999.0 0.0 174023.0 172946.0 76730.0 82972.0 179416.0 180135.0 61308.0 55692.0 222134.0 228348.0 65320.0 57410.0 111472.0 109708.0 118199.0 125942.0 39567.0 38938.0 14457.0 6522.0 93759.0 97264.0 88170.0 127556.0 88170.0 88170.0 127556.0 127556.0
195789.0 187674.0 275041.0 273558.0 221755.0 214976.0 188052.0 183986.0 194468.0 190567.0 195823.0 188411.0 135372.0 128581.0 78244.0 71500.0 177789.0 185604.0 302363.0 294295.0 167896.0 174570.0 127715.0 129911.0 128959.0 133240.0 147533.0 155114.0 60045.0 51929.0 251309.0 249445.0 197100.0 189233.0 250212.0 246009.0 196134.0 189428.0 262741.0 270654.0 265703.0 268770.0 323832.0 326304.0 324789.0 329386.0 28841.0 35717.0 59648.0 64648.0 161564.0 162890.0 244705.0 241595.0 247138.0 239151.0 174405.0 174023.0 0.0 8242.0 134040.0 137266.0 209604.0 204104.0 140952.0 148817.0 241850.0 249890.0 238053.0 230449.0 86988.0 94577.0 268280.0 274414.0 158375.0 166263.0 175212.0 173768.0 196200.0 191302.0 262112.0 222342.0 262112.0 262112.0 222342.0 222342.0
190251.0 182153.0 271602.0 270352.0 228269.0 221406.0 192661.0 188847.0 189927.0 185773.0 191865.0 184577.0 136664.0 130149.0 77190.0 71011.0 175739.0 183459.0 308365.0 300263.0 165334.0 171804.0 128060.0 129766.0 123298.0 127928.0 144781.0 152164.0 51925.0 43817.0 249196.0 247084.0 203205.0 195299.0 246714.0 242310.0 192009.0 185458.0 268605.0 276493.0 263910.0 267199.0 330333.0 332687.0 330990.0 335693.0 35963.0 43197.0 55811.0 60035.0 162398.0 164117.0 241347.0 238471.0 253594.0 245590.0 172953.0 172946.0 8242.0 0.0 129659.0 132504.0 215606.0 210243.0 142631.0 150312.0 248500.0 256548.0 236407.0 228894.0 81732.0 89142.0 264529.0 270528.0 159122.0 167044.0 174812.0 172999.0 199128.0 194482.0 261115.0 226086.0 261115.0 261115.0 226086.0 226086.0
67325.0 59569.0 143634.0 143404.0 249298.0 241565.0 182475.0 184179.0 60473.0 57127.0 62735.0 55964.0 94173.0 95941.0 69414.0 77373.0 65017.0 70073.0 308411.0 300234.0 50134.0 52845.0 77126.0 70176.0 25962.0 18387.0 33672.0 35192.0 122106.0 122232.0 130370.0 126212.0 219548.0 212392.0 118709.0 113615.0 62507.0 56347.0 269759.0 276176.0 147339.0 152607.0 340046.0 339346.0 333512.0 340330.0 136867.0 142369.0 74480.0 69625.0 99634.0 106856.0 114012.0 112427.0 269791.0 262457.0 71235.0 76730.0 134040.0 129659.0 0.0 7991.0 227473.0 225949.0 102623.0 103470.0 269950.0 277206.0 122910.0 116986.0 49476.0 43680.0 135585.0 141259.0 96378.0 101567.0 88207.0 81375.0 158210.0 158985.0 153652.0 193176.0 153652.0 153652.0 193176.0 193176.0
61328.0 53393.0 142958.0 143204.0 257255.0 249521.0 190453.0 192169.0 57563.0 53303.0 61829.0 55705.0 102156.0 103926.0 75601.0 83392.0 69913.0 74359.0 316349.0 308170.0 54870.0 56622.0 85116.0 78152.0 20386.0 12006.0 40166.0 40485.0 121761.0 122418.0 132527.0 127964.0 227504.0 220336.0 118146.0 112643.0 61030.0 55571.0 277722.0 284127.0 149768.0 155331.0 348018.0 347304.0 341446.0 348276.0 141537.0 147283.0 78084.0 72621.0 107245.0 114539.0 113825.0 112803.0 277777.0 270439.0 77095.0 82972.0 137266.0 132504.0 7991.0 0.0 235455.0 233915.0 110596.0 111377.0 277918.0 285182.0 126122.0 120529.0 51186.0 44572.0 134318.0 139671.0 104030.0 109069.0 94912.0 87877.0 165900.0 166772.0 157491.0 200878.0 157491.0 157491.0 200878.0 200878.0
284526.0 278796.0 287766.0 280851.0 24302.0 17897.0 49849.0 45140.0 261108.0 264361.0 249097.0 242335.0 133986.0 131540.0 178520.0 175711.0 200405.0 205409.0 92764.0 84692.0 207010.0 213647.0 150555.0 157920.0 247436.0 243351.0 203777.0 209816.0 261140.0 254031.0 239138.0 243976.0 13028.0 20470.0 272060.0 274158.0 252930.0 245799.0 53379.0 61356.0 240577.0 237927.0 117085.0 118355.0 115679.0 120850.0 181263.0 175665.0 204904.0 211784.0 139277.0 131442.0 265036.0 257375.0 42452.0 34985.0 187124.0 179416.0 209604.0 215606.0 227473.0 235455.0 0.0 7469.0 126127.0 127688.0 42998.0 49860.0 219994.0 213615.0 223705.0 228636.0 290809.0 298656.0 140984.0 140481.0 165870.0 173094.0 93172.0 86621.0 224357.0 75676.0 224357.0 224357.0 75676.0 75676.0
284020.0 278139.0 290017.0 283229.0 23540.0 15995.0 51665.0 46017.0 261103.0 264142.0 249406.0 242516.0 133026.0 130157.0 175288.0 172187.0 200963.0 206195.0 98389.0 90427.0 207068.0 213855.0 149317.0 156812.0 245393.0 241532.0 203090.0 209336.0 256346.0 249151.0 241751.0 246401.0 7123.0 15136.0 273819.0 275712.0 253167.0 245945.0 59599.0 67585.0 243592.0 240959.0 121241.0 122907.0 120759.0 125641.0 175634.0 169888.0 201089.0 208095.0 139772.0 132028.0 266770.0 259182.0 45282.0 37412.0 187750.0 180135.0 204104.0 210243.0 225949.0 233915.0 7469.0 0.0 125406.0 127453.0 44020.0 51456.0 222555.0 216023.0 220623.0 225739.0 292739.0 300598.0 141305.0 141220.0 166817.0 173885.0 96065.0 89183.0 227389.0 80817.0 227389.0 227389.0 80817.0 80817.0
158631.0 152739.0 180095.0 174971.0 148945.0 141325.0 79869.0 81903.0 136481.0 139057.0 125908.0 118577.0 8792.0 12569.0 72976.0 75410.0 79726.0 86389.0 205963.0 197796.0 83023.0 90341.0 26005.0 32452.0 124766.0 119574.0 77691.0 83996.0 170481.0 165656.0 138860.0 140752.0 119468.0 112940.0 159600.0 159620.0 129354.0 121855.0 167153.0 173636.0 147649.0 147773.0 237423.0 236758.0 231080.0 237814.0 122591.0 122483.0 104006.0 108040.0 25589.0 23314.0 152558.0 145969.0 168054.0 160961.0 67615.0 61308.0 140952.0 142631.0 102623.0 110596.0 126127.0 125406.0 0.0 8448.0 169036.0 175983.0 120770.0 112872.0 110856.0 113441.0 179505.0 187251.0 24129.0 30089.0 51886.0 56337.0 61822.0 60056.0 135822.0 95068.0 135822.0 135822.0 95068.0 95068.0
156885.0 151301.0 173767.0 168431.0 150966.0 143437.0 80042.0 82873.0 133682.0 136710.0 122402.0 115298.0 14016.0 20247.0 79265.0 82234.0 75085.0 81334.0 205042.0 196848.0 79746.0 86758.0 29124.0 34127.0 126547.0 120909.0 76508.0 82202.0 176901.0 172283.0 131623.0 133775.0 121787.0 115594.0 153785.0 154124.0 126020.0 118672.0 166667.0 172911.0 139970.0 139910.0 237087.0 236140.0 230159.0 236999.0 130857.0 130841.0 110206.0 113856.0 17702.0 14868.0 146712.0 139937.0 169167.0 162274.0 62483.0 55692.0 148817.0 150312.0 103470.0 111377.0 127688.0 127453.0 8448.0 0.0 170685.0 177428.0 113325.0 105477.0 115294.0 117394.0 173615.0 181404.0 16859.0 21982.0 45145.0 50288.0 57251.0 56477.0 127741.0 91411.0 127741.0 127741.0 91411.0 91411.0
327508.0 321748.0 328548.0 321410.0 21170.0 28846.0 92263.0 88054.0 304081.0 307358.0 291983.0 285267.0 176805.0 174110.0 218559.0 215109.0 243198.0 248064.0 68957.0 62661.0 249977.0 256577.0 193228.0 200672.0 289382.0 285550.0 246713.0 252798.0 296366.0 288931.0 279326.0 284520.0 50621.0 58200.0 313649.0 316017.0 295842.0 288740.0 42740.0 48387.0 280150.0 277499.0 82346.0 85659.0 86327.0 89458.0 213045.0 206686.0 243507.0 250704.0 182138.0 174272.0 306670.0 298916.0 10953.0 10620.0 229889.0 222134.0 241850.0 248500.0 269950.0 277918.0 42998.0 44020.0 169036.0 170685.0 0.0 8055.0 260338.0 254265.0 263993.0 269281.0 332124.0 339942.0 183906.0 183224.0 208450.0 215772.0 133677.0 127748.0 263929.0 110557.0 263929.0 263929.0 110557.0 110557.0
334305.0 328620.0 333617.0 326390.0 29054.0 36644.0 98465.0 94622.0 310626.0 314014.0 298363.0 291721.0 183843.0 181308.0 226347.0 222962.0 249476.0 254209.0 62618.0 56794.0 256517.0 263034.0 200371.0 207764.0 296837.0 292922.0 253616.0 259602.0 304417.0 296984.0 284191.0 289522.0 58200.0 65887.0 319098.0 321607.0 302259.0 295212.0 40514.0 45112.0 284922.0 282271.0 74423.0 77899.0 78936.0 81813.0 221082.0 214709.0 251432.0 258608.0 188527.0 180629.0 312146.0 304349.0 10620.0 15330.0 236144.0 228348.0 249890.0 256548.0 277206.0 285182.0 49860.0 51456.0 175983.0 177428.0 8055.0 0.0 265282.0 259338.0 271762.0 277002.0 337429.0 345230.0 190378.0 189487.0 214557.0 221954.0 138937.0 133255.0 268701.0 114448.0 268701.0 268701.0 114448.0 114448.0
121595.0 122064.0 68525.0 61116.0 244231.0 237746.0 170972.0 177344.0 92809.0 100765.0 77378.0 78026.0 119791.0 127706.0 159889.0 167072.0 61349.0 54290.0 277477.0 269310.0 74242.0 70148.0 117227.0 112124.0 146169.0 137631.0 94713.0 89330.0 242108.0 240848.0 19247.0 24339.0 218801.0 214766.0 58555.0 63839.0 81411.0 80565.0 242000.0 246486.0 27956.0 30848.0 310805.0 308865.0 302593.0 309446.0 229004.0 231411.0 182608.0 181297.0 95667.0 100765.0 52718.0 44794.0 255254.0 250235.0 63749.0 65320.0 238053.0 236407.0 122910.0 126122.0 219994.0 222555.0 120770.0 113325.0 260338.0 265282.0 0.0 8000.0 167631.0 163954.0 74009.0 81486.0 96663.0 91759.0 69544.0 67481.0 126882.0 133415.0 33292.0 155105.0 33292.0 33292.0 155105.0 155105.0
119490.0 119445.0 74285.0 67236.0 237884.0 231315.0 164385.0 170627.0 90303.0 98094.0 74554.0 74427.0 111819.0 119727.0 152247.0 159371.0 54351.0 47611.0 271743.0 263576.0 67735.0 64141.0 109243.0 104180.0 140718.0 132179.0 87966.0 82921.0 235373.0 233972.0 26463.0 30377.0 212144.0 207969.0 62117.0 66670.0 78762.0 77197.0 236266.0 240752.0 35883.0 38321.0 305071.0 303131.0 296859.0 303712.0 221158.0 223518.0 175321.0 174164.0 87842.0 93063.0 55813.0 47749.0 249386.0 244233.0 56062.0 57410.0 230449.0 228894.0 116986.0 120529.0 213615.0 216023.0 112872.0 105477.0 254265.0 259338.0 8000.0 0.0 160941.0 157461.0 78764.0 86413.0 88779.0 83989.0 61562.0 59491.0 120644.0 126994.0 35337.0 149371.0 35337.0 35337.0 149371.0 149371.0
108846.0 100725.0 193099.0 192750.0 242833.0 235151.0 185209.0 184758.0 108745.0 104226.0 112189.0 105425.0 102242.0 99981.0 45476.0 49933.0 106707.0 113368.0 311609.0 303341.0 93419.0 98283.0 86259.0 82805.0 42334.0 46255.0 72976.0 78511.0 74488.0 73643.0 177253.0 173787.0 213687.0 205896.0 168166.0 163084.0 111810.0 105811.0 271633.0 278801.0 193562.0 198152.0 340209.0 340668.0 336316.0 342445.0 95211.0 101857.0 30315.0 23144.0 119073.0 124340.0 163380.0 161523.0 265845.0 258030.0 108511.0 111472.0 86988.0 81732.0 49476.0 51186.0 223705.0 220623.0 110856.0 115294.0 263993.0 271762.0 167631.0 160941.0 0.0 7913.0 185014.0 190585.0 115415.0 122603.0 118824.0 114051.0 172441.0 170905.0 196277.0 205896.0 196277.0 196277.0 205896.0 205896.0
101212.0 93098.0 187175.0 187067.0 248141.0 240436.0 189152.0 188992.0 101991.0 97218.0 106102.0 99560.0 104725.0 103028.0 51249.0 56372.0 103508.0 109855.0 315794.0 307539.0 89741.0 94134.0 88270.0 84187.0 34516.0 38799.0 69720.0 74626.0 78746.0 78584.0 172902.0 169166.0 218851.0 211115.0 162280.0 157005.0 105521.0 99762.0 275941.0 283022.0 189463.0 194280.0 344845.0 345154.0 340601.0 346829.0 103125.0 109762.0 38215.0 31042.0 120026.0 125665.0 157670.0 156090.0 270891.0 263121.0 106234.0 109708.0 94577.0 89142.0 43680.0 44572.0 228636.0 225739.0 113441.0 117394.0 269281.0 277002.0 163954.0 157461.0 7913.0 0.0 178804.0 184229.0 116389.0 123339.0 117891.0 112696.0 174643.0 173452.0 193212.0 208479.0 193212.0 193212.0 208479.0 208479.0
94648.0 99948.0 13306.0 20429.0 315110.0 308308.0 241131.0 246876.0 78344.0 84980.0 72858.0 79962.0 175819.0 182837.0 195082.0 203238.0 101638.0 94068.0 350300.0 342133.0 105084.0 97331.0 167353.0 160278.0 149628.0 142311.0 123054.0 114820.0 255451.0 256560.0 57273.0 50130.0 288422.0 283685.0 19976.0 22318.0 73291.0 79258.0 314823.0 319309.0 67073.0 74765.0 383628.0 381688.0 375416.0 382269.0 266686.0 270889.0 208771.0 204739.0 157259.0 164015.0 26955.0 33823.0 327607.0 322238.0 112279.0 118199.0 268280.0 264529.0 135585.0 134318.0 290809.0 292739.0 179505.0 173615.0 332124.0 337429.0 74009.0 78764.0 185014.0 178804.0 0.0 7871.0 157012.0 154477.0 128874.0 123333.0 198496.0 204418.0 101167.0 227928.0 101167.0 101167.0 227928.0 227928.0
97329.0 103071.0 16595.0 24950.0 322958.0 316162.0 248987.0 254740.0 83016.0 89267.0 78669.0 86004.0 183496.0 190475.0 201772.0 209953.0 109162.0 101654.0 358028.0 349861.0 112221.0 104419.0 174854.0 167728.0 154407.0 147279.0 129856.0 121571.0 260350.0 261649.0 64357.0 57431.0 296288.0 291555.0 27654.0 29070.0 78777.0 85078.0 322552.0 327037.0 73172.0 80696.0 391357.0 389416.0 383144.0 389997.0 273310.0 277613.0 214834.0 210633.0 165087.0 171862.0 34698.0 41680.0 335395.0 330045.0 119951.0 125942.0 274414.0 270528.0 141259.0 139671.0 298656.0 300598.0 187251.0 181404.0 339942.0 345230.0 81486.0 86413.0 190585.0 184229.0 7871.0 0.0 164820.0 162323.0 136702.0 131117.0 206302.0 212247.0 107939.0 235656.0 107939.0 107939.0 235656.0 235656.0
144860.0 139776.0 156982.0 151596.0 164689.0 157292.0 92079.0 95857.0 120275.0 123917.0 108129.0 101361.0 24762.0 32751.0 84642.0 88999.0 59795.0 65544.0 214629.0 206462.0 66183.0 72671.0 31650.0 32837.0 120894.0 114468.0 66367.0 70887.0 181461.0 177470.0 114847.0 116927.0 135961.0 130141.0 137235.0 137774.0 111946.0 104840.0 176975.0 182815.0 123525.0 123722.0 247377.0 245990.0 239746.0 246598.0 142523.0 143183.0 114751.0 117337.0 3661.0 10596.0 130149.0 123282.0 181722.0 175110.0 46780.0 39567.0 158375.0 159122.0 96378.0 104030.0 140984.0 141305.0 24129.0 16859.0 183906.0 190378.0 96663.0 88779.0 115415.0 116389.0 157012.0 164820.0 0.0 7938.0 28320.0 33833.0 61892.0 63244.0 112043.0 96878.0 112043.0 112043.0 96878.0 96878.0
147280.0 142534.0 153813.0 148120.0 164432.0 157158.0 91022.0 95386.0 121791.0 125885.0 108960.0 102536.0 32059.0 39907.0 92534.0 96933.0 59989.0 64976.0 211725.0 203558.0 68017.0 73961.0 39549.0 40378.0 126498.0 119811.0 70455.0 74248.0 189225.0 185292.0 110298.0 112829.0 136155.0 130673.0 134872.0 135854.0 112939.0 106084.0 174474.0 180081.0 118140.0 117962.0 244737.0 243113.0 236842.0 243695.0 150178.0 150716.0 122557.0 125036.0 4795.0 9541.0 127769.0 120660.0 180579.0 174174.0 46665.0 38938.0 166263.0 167044.0 101567.0 109069.0 140481.0 141220.0 30089.0 21982.0 183224.0 189487.0 91759.0 83989.0 122603.0 123339.0 154477.0 162323.0 7938.0 0.0 25859.0 32666.0 57607.0 59852.0 105770.0 92464.0 105770.0 105770.0 92464.0 92464.0
125317.0 121297.0 128667.0 123286.0 189928.0 182719.0 116188.0 120878.0 98446.0 103263.0 84738.0 78855.0 50272.0 58165.0 97799.0 103834.0 35658.0 39672.0 234499.0 226332.0 46338.0 50984.0 49038.0 45429.0 114101.0 106520.0 54749.0 56077.0 190141.0 187219.0 87178.0 88874.0 161861.0 156471.0 109179.0 110026.0 88900.0 82469.0 197863.0 203116.0 97024.0 98015.0 267763.0 265887.0 259615.0 266468.0 162729.0 164367.0 125153.0 126005.0 28385.0 35359.0 102081.0 95094.0 205457.0 199229.0 22444.0 14457.0 175212.0 174812.0 88207.0 94912.0 165870.0 166817.0 51886.0 45145.0 208450.0 214557.0 69544.0 61562.0 118824.0 117891.0 128874.0 136702.0 28320.0 25859.0 0.0 7992.0 79332.0 82960.0 88120.0 113104.0 88120.0 88120.0 113104.0 113104.0
117326.0 113311.0 123763.0 118735.0 197081.0 189819.0 123520.0 128027.0 90527.0 95289.0 76958.0 70967.0 53601.0 61219.0 95812.0 102268.0 27823.0 32319.0 242386.0 234219.0 38382.0 43001.0 49762.0 45020.0 107326.0 99598.0 47748.0 48547.0 186270.0 183636.0 84264.0 85291.0 168813.0 163276.0 103497.0 103942.0 81082.0 74574.0 205676.0 210976.0 95326.0 96958.0 275633.0 273774.0 267503.0 274355.0 162526.0 164535.0 122085.0 122467.0 34536.0 41974.0 96424.0 89693.0 212930.0 206630.0 14519.0 6522.0 173768.0 172999.0 81375.0 87877.0 173094.0 173885.0 56337.0 50288.0 215772.0 221954.0 67481.0 59491.0 114051.0 112696.0 123333.0 131117.0 33833.0 32666.0 7992.0 0.0 87243.0 90747.0 88461.0 121085.0 88461.0 88461.0 121085.0 121085.0
204234.0 199783.0 194906.0 187851.0 117369.0 110986.0 45165.0 52424.0 177769.0 182431.0 163971.0 158187.0 70263.0 73616.0 134308.0 135924.0 114982.0 118414.0 155182.0 147014.0 124851.0 130146.0 86374.0 90999.0 182408.0 176205.0 127969.0 131844.0 231239.0 226010.0 145992.0 150957.0 92857.0 89770.0 180204.0 182887.0 168180.0 161801.0 118816.0 123867.0 147536.0 144895.0 188473.0 186570.0 180298.0 187151.0 173765.0 171739.0 165291.0 169662.0 58783.0 51361.0 173276.0 165447.0 129176.0 123744.0 101758.0 93759.0 196200.0 199128.0 158210.0 165900.0 93172.0 96065.0 61822.0 57251.0 133677.0 138937.0 126882.0 120644.0 172441.0 174643.0 198496.0 206302.0 61892.0 57607.0 79332.0 87243.0 0.0 8000.0 131325.0 34986.0 131325.0 131325.0 34986.0 34986.0
207086.0 202386.0 201162.0 194231.0 110896.0 104336.0 37848.0 44864.0 181142.0 185530.0 167692.0 161669.0 68731.0 71265.0 131558.0 132722.0 118569.0 122428.0 151909.0 143742.0 127735.0 133359.0 85395.0 90579.0 182716.0 176780.0 129610.0 133922.0 227905.0 222481.0 152590.0 157358.0 85709.0 82347.0 185903.0 188352.0 171829.0 165262.0 114938.0 120347.0 154622.0 151979.0 185021.0 183289.0 177025.0 183878.0 168274.0 165996.0 162412.0 167085.0 60409.0 52652.0 178929.0 171169.0 123686.0 117987.0 105246.0 97264.0 191302.0 194482.0 158985.0 166772.0 86621.0 89183.0 60056.0 56477.0 127748.0 133255.0 133415.0 126994.0 170905.0 173452.0 204418.0 212247.0 63244.0 59852.0 82960.0 90747.0 8000.0 0.0 138409.0 35028.0 138409.0 138409.0 35028.0 35028.0
154576.0 154719.0 92852.0 84514.0 248445.0 242216.0 176257.0 183114.0 125530.0 133371.0 109849.0 109735.0 136518.0 144566.0 183973.0 190633.0 89706.0 83699.0 280842.0 272674.0 103862.0 100912.0 137159.0 133236.0 177758.0 169228.0 123494.0 119091.0 270462.0 268692.0 44275.0 52073.0 224102.0 220667.0 88720.0 94953.0 114021.0 112529.0 245365.0 249851.0 36893.0 31861.0 314170.0 312230.0 305958.0 312811.0 250760.0 252484.0 208797.0 208225.0 110237.0 113779.0 83749.0 76242.0 258629.0 253719.0 88814.0 88170.0 262112.0 261115.0 153652.0 157491.0 224357.0 227389.0 135822.0 127741.0 263929.0 268701.0 33292.0 35337.0 196277.0 193212.0 101167.0 107939.0 112043.0 105770.0 88120.0 88461.0 131325.0 138409.0 0.0 158470.0 0.0 0.0 158470.0 158470.0
238386.0 234156.0 223554.0 216221.0 97988.0 93095.0 42206.0 49871.0 211398.0 216364.0 197172.0 191730.0 103757.0 106109.0 166018.0 166783.0 148561.0 151405.0 124149.0 115982.0 159119.0 164086.0 120399.0 125451.0 217268.0 211139.0 162894.0 166617.0 261626.0 255959.0 173963.0 179394.0 80125.0 80081.0 210223.0 213414.0 201470.0 195359.0 88159.0 92214.0 174691.0 172040.0 157477.0 155537.0 149265.0 156118.0 197841.0 194778.0 196710.0 201614.0 93760.0 86341.0 203425.0 195471.0 104040.0 100037.0 135524.0 127556.0 222342.0 226086.0 193176.0 200878.0 75676.0 80817.0 95068.0 91411.0 110557.0 114448.0 155105.0 149371.0 205896.0 208479.0 227928.0 235656.0 96878.0 92464.0 113104.0 121085.0 34986.0 35028.0 158470.0 0.0 158470.0 158470.0 0.0 0.0
154576.0 154719.0 92852.0 84514.0 248445.0 242216.0 176257.0 183114.0 125530.0 133371.0 109849.0 109735.0 136518.0 144566.0 183973.0 190633.0 89706.0 83699.0 280842.0 272674.0 103862.0 100912.0 137159.0 133236.0 177758.0 169228.0 123494.0 119091.0 270462.0 268692.0 44275.0 52073.0 224102.0 220667.0 88720.0 94953.0 114021.0 112529.0 245365.0 249851.0 36893.0 31861.0 314170.0 312230.0 305958.0 312811.0 250760.0 252484.0 208797.0 208225.0 110237.0 113779.0 83749.0 76242.0 258629.0 253719.0 88814.0 88170.0 262112.0 261115.0 153652.0 157491.0 224357.0 227389.0 135822.0 127741.0 263929.0 268701.0 33292.0 35337.0 196277.0 193212.0 101167.0 107939.0 112043.0 105770.0 88120.0 88461.0 131325.0 138409.0 0.0 158470.0 0.0 0.0 158470.0 158470.0
154576.0 154719.0 92852.0 84514.0 248445.0 242216.0 176257.0 183114.0 125530.0 133371.0 109849.0 109735.0 136518.0 144566.0 183973.0 190633.0 89706.0 83699.0 280842.0 272674.0 103862.0 100912.0 137159.0 133236.0 177758.0 169228.0 123494.0 119091.0 270462.0 268692.0 44275.0 52073.0 224102.0 220667.0 88720.0 94953.0 114021.0 112529.0 245365.0 249851.0 36893.0 31861.0 314170.0 312230.0 305958.0 312811.0 250760.0 252484.0 208797.0 208225.0 110237.0 113779.0 83749.0 76242.0 258629.0 253719.0 88814.0 88170.0 262112.0 261115.0 153652.0 157491.0 224357.0 227389.0 135822.0 127741.0 263929.0 268701.0 33292.0 35337.0 196277.0 193212.0 101167.0 107939.0 112043.0 105770.0 88120.0 88461.0 131325.0 138409.0 0.0 158470.0 0.0 0.0 158470.0 158470.0
238386.0 234156.0 223554.0 216221.0 97988.0 93095.0 42206.0 49871.0 211398.0 216364.0 197172.0 191730.0 103757.0 106109.0 166018.0 166783.0 148561.0 151405.0 124149.0 115982.0 159119.0 164086.0 120399.0 125451.0 217268.0 211139.0 162894.0 166617.0 261626.0 255959.0 173963.0 179394.0 80125.0 80081.0 210223.0 213414.0 201470.0 195359.0 88159.0 92214.0 174691.0 172040.0 157477.0 155537.0 149265.0 156118.0 197841.0 194778.0 196710.0 201614.0 93760.0 86341.0 203425.0 195471.0 104040.0 100037.0 135524.0 127556.0 222342.0 226086.0 193176.0 200878.0 75676.0 80817.0 95068.0 91411.0 110557.0 114448.0 155105.0 149371.0 205896.0 208479.0 227928.0 235656.0 96878.0 92464.0 113104.0 121085.0 34986.0 35028.0 158470.0 0.0 158470.0 158470.0 0.0 0.0
238386.0 234156.0 223554.0 216221.0 97988.0 93095.0 42206.0 49871.0 211398.0 216364.0 197172.0 191730.0 103757.0 106109.0 166018.0 166783.0 148561.0 151405.0 124149.0 115982.0 159119.0 164086.0 120399.0 125451.0 217268.0 211139.0 162894.0 166617.0 261626.0 255959.0 173963.0 179394.0 80125.0 80081.0 210223.0 213414.0 201470.0 195359.0 88159.0 92214.0 174691.0 172040.0 157477.0 155537.0 149265.0 156118.0 197841.0 194778.0 196710.0 201614.0 93760.0 86341.0 203425.0 195471.0 104040.0 100037.0 135524.0 127556.0 222342.0 226086.0 193176.0 200878.0 75676.0 80817.0 95068.0 91411.0 110557.0 114448.0 155105.0 149371.0 205896.0 208479.0 227928.0 235656.0 96878.0 92464.0 113104.0 121085.0 34986.0 35028.0 158470.0 0.0 158470.0 158470.0 0.0 0.0
FIXED_EDGES_SECTION
1 2
3 4
5 6
7 8
9 10
11 12
13 14
15 16
17 18
19 20
21 22
23 24
25 26
27 28
29 30
31 32
33 34
35 36
37 38
39 40
41 42
43 44
45 46
47 48
49 50
51 52
53 54
55 56
57 58
59 60
61 62
63 64
65 66
67 68
69 70
71 72
73 74
75 76
77 78
79 80
-1 
DEMAND_SECTION
1 497
2 497
3 251
4 251
5 244
6 244
7 313
8 313
9 55
10 55
11 461
12 461
13 177
14 177
15 112
16 112
17 207
18 207
19 224
20 224
21 353
22 353
23 90
24 90
25 217
26 217
27 349
28 349
29 542
30 542
31 104
32 104
33 336
34 336
35 274
36 274
37 497
38 497
39 184
40 184
41 97
42 97
43 71
44 71
45 280
46 280
47 321
48 321
49 157
50 157
51 80
52 80
53 379
54 379
55 341
56 341
57 277
58 277
59 234
60 234
61 90
62 90
63 620
64 620
65 119
66 119
67 350
68 350
69 485
70 485
71 72
72 72
73 316
74 316
75 214
76 214
77 56
78 56
79 100
80 100
81 0
82 0
83 0
84 0
85 0
86 0
DEPOT_SECTION
81 
-1 
CAPACITIES_SECTION
10000 
11000 
-1 
EOF