NAME: GFS_20_1
TYPE: GFSP
DIMENSION: 86
VEHICLES: 2
CAPACITY: 10000.0
TRIP_DIST_LIMIT: 750000.0
TOTAL_DIST_LIMIT: 2100000.0
EDGE_WEIGHT_TYPE: EXPLICIT
EDGE_WEIGHT_FORMAT: FULL_MATRIX
EDGE_WEIGHT_SECTION
0.0 8543.0 168132.0 175481.0 62876.0 70430.0 148881.0 156104.0 153911.0 146933.0 113835.0 119102.0 159129.0 151551.0 151494.0 144607.0 252128.0 257140.0 354891.0 362776.0 250392.0 243199.0 274420.0 280276.0 347127.0 342964.0 160679.0 168565.0 293006.0 289548.0 156809.0 162311.0 323647.0 318518.0 253761.0 252015.0 310449.0 314934.0 30719.0 32058.0 200528.0 208594.0 272191.0 276095.0 47583.0 54146.0 156640.0 150112.0 264570.0 265376.0 121859.0 126049.0 200641.0 199687.0 284377.0 286559.0 161167.0 160615.0 275041.0 271602.0 30724.0 38616.0 238352.0 244391.0 183241.0 178191.0 183884.0 192100.0 10258.0 12261.0 82151.0 87431.0 184223.0 176785.0 156919.0 163302.0 147910.0 141507.0 209293.0 202626.0 92852.0 223554.0 92852.0 92852.0 223554.0 223554.0
8543.0 0.0 164000.0 171161.0 61806.0 68855.0 149494.0 156490.0 150177.0 143436.0 109475.0 114350.0 160049.0 152267.0 150560.0 143938.0 245746.0 250902.0 347559.0 355443.0 248924.0 241844.0 267087.0 272943.0 339794.0 335632.0 156095.0 164045.0 292056.0 288812.0 150430.0 155763.0 316370.0 311330.0 253178.0 251169.0 303116.0 307602.0 23756.0 26682.0 198242.0 206230.0 269833.0 273532.0 39551.0 45892.0 150724.0 144011.0 264963.0 265508.0 116988.0 121610.0 193812.0 192983.0 277045.0 279244.0 160021.0 159058.0 273558.0 270352.0 34118.0 42335.0 231577.0 237733.0 184793.0 180044.0 183013.0 191182.0 12311.0 7888.0 82994.0 87670.0 184086.0 176516.0 151377.0 157560.0 142562.0 136393.0 203906.0 197389.0 84514.0 216221.0 84514.0 84514.0 216221.0 216221.0
168132.0 164000.0 0.0 8440.0 110663.0 102370.0 91078.0 88043.0 16317.0 24553.0 54593.0 50755.0 98401.0 93245.0 63985.0 69039.0 107547.0 108885.0 236648.0 243735.0 107323.0 102992.0 166334.0 170064.0 227392.0 221205.0 12599.0 8775.0 153017.0 153143.0 55182.0 59959.0 193542.0 186305.0 124636.0 118722.0 193431.0 199960.0 142143.0 137419.0 53972.0 58631.0 115278.0 116838.0 136335.0 136256.0 43259.0 49083.0 150824.0 146771.0 48812.0 42669.0 81847.0 77441.0 164071.0 161915.0 60362.0 52521.0 129005.0 129285.0 148655.0 146588.0 106045.0 107720.0 119189.0 122763.0 71940.0 74873.0 158629.0 156671.0 108741.0 101010.0 86533.0 81009.0 34265.0 38246.0 33800.0 34169.0 52157.0 44158.0 135648.0 120401.0 135648.0 135648.0 120401.0 120401.0
175481.0 171161.0 8440.0 0.0 118656.0 110379.0 98351.0 94946.0 24753.0 32989.0 61692.0 57244.0 105230.0 100403.0 71145.0 76570.0 99596.0 100741.0 229338.0 236357.0 106292.0 102502.0 160182.0 163664.0 220021.0 213743.0 16095.0 8418.0 151565.0 152134.0 54517.0 58454.0 185802.0 178505.0 125027.0 118751.0 186362.0 193001.0 149035.0 144523.0 54674.0 58263.0 111712.0 112764.0 142568.0 142169.0 42980.0 49718.0 152252.0 147813.0 55025.0 49564.0 76547.0 71997.0 156991.0 154613.0 66797.0 59008.0 127087.0 127898.0 156537.0 154618.0 98892.0 100245.0 125095.0 129011.0 76423.0 78587.0 166075.0 163913.0 117139.0 109416.0 91490.0 86429.0 34505.0 36770.0 36415.0 38485.0 43970.0 35983.0 140215.0 115283.0 140215.0 140215.0 115283.0 115283.0
62876.0 61806.0 110663.0 118656.0 0.0 8311.0 88983.0 95539.0 95202.0 87539.0 59926.0 67110.0 100071.0 91934.0 88784.0 82135.0 206168.0 209938.0 320441.0 328262.0 187516.0 180335.0 240124.0 245980.0 312399.0 307747.0 105483.0 112825.0 230311.0 227014.0 114292.0 121035.0 285172.0 279102.0 191373.0 189388.0 275867.0 280610.0 48315.0 40552.0 138092.0 146229.0 209735.0 213864.0 57462.0 63468.0 110178.0 105586.0 203729.0 204019.0 70389.0 71658.0 160239.0 158075.0 248452.0 249163.0 98345.0 97753.0 212165.0 208765.0 38285.0 35992.0 196215.0 201006.0 126134.0 122346.0 121229.0 129412.0 52628.0 53932.0 25859.0 27681.0 122472.0 114829.0 107643.0 115147.0 97776.0 90196.0 157230.0 149832.0 89809.0 189257.0 89809.0 89809.0 189257.0 189257.0
70430.0 68855.0 102370.0 110379.0 8311.0 0.0 83797.0 89990.0 86892.0 79230.0 52079.0 59430.0 95147.0 86847.0 81825.0 75463.0 198516.0 202177.0 313887.0 321678.0 180115.0 173004.0 233752.0 239580.0 305754.0 300998.0 97303.0 104601.0 223236.0 220086.0 107335.0 114174.0 278075.0 271925.0 184577.0 182400.0 269289.0 274151.0 53560.0 46082.0 130214.0 138323.0 201877.0 205924.0 60482.0 65845.0 102791.0 98459.0 197721.0 197784.0 62739.0 63659.0 153252.0 150968.0 241676.0 242229.0 91183.0 90267.0 204757.0 201500.0 46574.0 44242.0 188932.0 193594.0 121726.0 118369.0 114274.0 122410.0 60223.0 60967.0 25081.0 24465.0 116183.0 108437.0 99965.0 107548.0 90063.0 82403.0 149175.0 141738.0 88942.0 182886.0 88942.0 88942.0 182886.0 182886.0
148881.0 149494.0 91078.0 98351.0 88983.0 83797.0 0.0 8186.0 78085.0 71995.0 85842.0 91665.0 11804.0 3281.0 27238.0 22548.0 197361.0 197734.0 327672.0 334708.0 110975.0 103143.0 256445.0 260573.0 318370.0 312088.0 96878.0 98996.0 148385.0 143808.0 133780.0 140560.0 283889.0 276479.0 107800.0 107642.0 284505.0 291001.0 137163.0 129490.0 77336.0 84790.0 140674.0 146731.0 143586.0 148153.0 123118.0 124477.0 115720.0 116820.0 93687.0 86487.0 171041.0 166971.0 255149.0 252939.0 33864.0 40703.0 134643.0 129473.0 119269.0 112720.0 197116.0 198595.0 39388.0 38364.0 44722.0 52174.0 138833.0 141793.0 66731.0 61882.0 37885.0 32177.0 115093.0 122270.0 107650.0 101081.0 141435.0 133633.0 165956.0 208560.0 165956.0 165956.0 208560.0 208560.0
156104.0 156490.0 88043.0 94946.0 95539.0 89990.0 8186.0 0.0 76030.0 70574.0 87857.0 93168.0 10427.0 7406.0 24330.0 22106.0 193247.0 193330.0 324185.0 331131.0 102797.0 94963.0 254109.0 258024.0 314810.0 308415.0 94760.0 96244.0 140314.0 135811.0 133180.0 139804.0 279865.0 272378.0 99785.0 99522.0 281308.0 287925.0 143512.0 135919.0 70333.0 77591.0 132650.0 138768.0 149247.0 153563.0 122191.0 124071.0 108494.0 109337.0 94952.0 87367.0 168947.0 164762.0 251937.0 249492.0 28771.0 36217.0 126457.0 121302.0 126720.0 120308.0 193838.0 195016.0 36216.0 36891.0 36865.0 44151.0 146005.0 148744.0 74027.0 68822.0 29741.0 24017.0 113891.0 120814.0 106953.0 100760.0 137393.0 129695.0 170149.0 206844.0 170149.0 170149.0 206844.0 206844.0
153911.0 150177.0 16317.0 24753.0 95202.0 86892.0 78085.0 76030.0 0.0 8237.0 41838.0 39790.0 86456.0 80525.0 51701.0 55609.0 122918.0 124596.0 250684.0 257893.0 111710.0 106457.0 178360.0 182528.0 241550.0 235539.0 18794.0 21986.0 157666.0 156971.0 59348.0 65353.0 208423.0 201306.0 126112.0 120967.0 207066.0 213382.0 128946.0 123789.0 56892.0 63223.0 124033.0 126439.0 124564.0 125163.0 47626.0 51291.0 150003.0 146746.0 38685.0 31033.0 92994.0 88891.0 177782.0 176030.0 50175.0 42529.0 134722.0 134036.0 133369.0 131003.0 120057.0 122273.0 109230.0 111985.0 66125.0 70670.0 144226.0 142697.0 92465.0 84722.0 79226.0 72753.0 38777.0 45110.0 33917.0 30448.0 68044.0 60060.0 127471.0 130820.0 127471.0 127471.0 130820.0 130820.0
146933.0 143436.0 24553.0 32989.0 87539.0 79230.0 71995.0 70574.0 8237.0 0.0 36545.0 35896.0 80958.0 74591.0 46401.0 49448.0 130783.0 132597.0 257902.0 265164.0 114686.0 109035.0 184722.0 189081.0 248827.0 242898.0 25598.0 29863.0 160533.0 159443.0 63026.0 69440.0 216038.0 208977.0 127582.0 122848.0 214125.0 220341.0 122612.0 117209.0 59962.0 66890.0 128962.0 131740.0 119078.0 120068.0 51734.0 54325.0 150197.0 147356.0 35438.0 27121.0 99208.0 95251.0 184895.0 183323.0 46323.0 39074.0 138194.0 137051.0 125777.0 123229.0 127368.0 129804.0 104755.0 107026.0 64507.0 69848.0 137152.0 135878.0 84260.0 76510.0 76538.0 69614.0 43320.0 50306.0 36889.0 31809.0 76144.0 68172.0 124066.0 136565.0 124066.0 124066.0 136565.0 136565.0
113835.0 109475.0 54593.0 61692.0 59926.0 52079.0 85842.0 87857.0 41838.0 36545.0 0.0 7999.0 97095.0 89034.0 67580.0 66141.0 146517.0 150102.0 264751.0 272412.0 150615.0 144657.0 186149.0 191747.0 256302.0 251191.0 46928.0 54752.0 196260.0 194787.0 58050.0 65205.0 227193.0 220828.0 161836.0 157664.0 220181.0 225493.0 87568.0 82855.0 96188.0 103324.0 165466.0 168115.0 82742.0 83541.0 51634.0 48541.0 182143.0 180104.0 11298.0 12245.0 103153.0 100430.0 191924.0 191921.0 72405.0 67199.0 174405.0 172953.0 96426.0 95562.0 137681.0 142008.0 124073.0 124112.0 94591.0 101294.0 104532.0 102223.0 66593.0 60055.0 103379.0 95581.0 48009.0 55724.0 38070.0 30333.0 97539.0 90305.0 88814.0 135524.0 88814.0 88814.0 135524.0 135524.0
119102.0 114350.0 50755.0 57244.0 67110.0 59430.0 91665.0 93168.0 39790.0 35896.0 7999.0 0.0 102686.0 94804.0 71876.0 71198.0 139090.0 142832.0 256770.0 264437.0 150581.0 144910.0 178163.0 183750.0 248333.0 243242.0 41797.0 49798.0 196426.0 195279.0 50053.0 57210.0 219354.0 213027.0 163013.0 158507.0 212196.0 217498.0 91891.0 87668.0 95827.0 102607.0 163810.0 166110.0 85590.0 85706.0 43768.0 40544.0 184399.0 182029.0 3353.0 8819.0 95194.0 92510.0 183964.0 184004.0 75787.0 70002.0 174023.0 172946.0 102971.0 102465.0 129897.0 134324.0 129324.0 129740.0 97198.0 103510.0 110040.0 107290.0 74566.0 68052.0 106929.0 99278.0 40542.0 48132.0 30666.0 23194.0 91032.0 83989.0 88170.0 127556.0 88170.0 88170.0 127556.0 127556.0
159129.0 160049.0 98401.0 105230.0 100071.0 95147.0 11804.0 10427.0 86456.0 80958.0 97095.0 102686.0 0.0 8540.0 34757.0 32111.0 203250.0 203206.0 334382.0 341301.0 105988.0 98117.0 264519.0 268413.0 324986.0 318556.0 105187.0 106635.0 141133.0 136137.0 143464.0 150120.0 289883.0 282366.0 100349.0 100918.0 291585.0 298228.0 148345.0 140620.0 78079.0 84941.0 137236.0 143668.0 155142.0 159796.0 132531.0 134310.0 105967.0 107569.0 104587.0 97164.0 179372.0 175184.0 262214.0 259709.0 38733.0 46344.0 128959.0 123298.0 129183.0 122370.0 204109.0 205207.0 27594.0 27054.0 43080.0 49438.0 149169.0 152413.0 77077.0 72700.0 32474.0 28944.0 124268.0 131218.0 117246.0 110967.0 147454.0 139799.0 177758.0 217268.0 177758.0 177758.0 217268.0 217268.0
151551.0 152267.0 93245.0 100403.0 91934.0 86847.0 3281.0 7406.0 80525.0 74591.0 89034.0 94804.0 8540.0 0.0 29270.0 25187.0 199192.0 199452.0 329741.0 336746.0 109749.0 101898.0 258865.0 262932.0 320413.0 314091.0 99317.0 101255.0 146543.0 141844.0 136597.0 143346.0 285763.0 278324.0 105878.0 105925.0 286668.0 293203.0 140155.0 132462.0 77651.0 84957.0 139906.0 146072.0 146722.0 151327.0 125862.0 127329.0 113140.0 114388.0 96798.0 89542.0 173515.0 169413.0 257304.0 255016.0 35153.0 42271.0 133240.0 127928.0 121821.0 115182.0 199242.0 200620.0 36112.0 35126.0 44241.0 51437.0 141531.0 144588.0 69406.0 64724.0 36330.0 31137.0 117772.0 124892.0 110437.0 103940.0 143281.0 135515.0 169228.0 211139.0 169228.0 169228.0 211139.0 211139.0
151494.0 150560.0 63985.0 71145.0 88784.0 81825.0 27238.0 24330.0 51701.0 46401.0 67580.0 71876.0 34757.0 29270.0 0.0 8174.0 170144.0 170590.0 300482.0 307500.0 99416.0 92011.0 229835.0 233807.0 291165.0 284864.0 70432.0 72056.0 141534.0 138268.0 109263.0 115789.0 256657.0 249254.0 102784.0 100609.0 257399.0 263944.0 134599.0 127494.0 55882.0 63977.0 124837.0 130019.0 137482.0 140848.0 98115.0 100302.0 117930.0 117141.0 73253.0 65211.0 144626.0 140455.0 228035.0 225754.0 10336.0 14459.0 124006.0 120214.0 124099.0 118833.0 169972.0 171379.0 58698.0 60637.0 32456.0 40628.0 141237.0 142676.0 72331.0 65457.0 36620.0 28627.0 89709.0 96547.0 83036.0 77139.0 114216.0 106403.0 153675.0 182518.0 153675.0 153675.0 182518.0 182518.0
144607.0 143938.0 69039.0 76570.0 82135.0 75463.0 22548.0 22106.0 55609.0 49448.0 66141.0 71198.0 32111.0 25187.0 8174.0 0.0 176003.0 176708.0 305677.0 312774.0 106923.0 99433.0 233953.0 238135.0 296430.0 290235.0 74394.0 76754.0 148447.0 144948.0 111472.0 118192.0 262358.0 255028.0 109242.0 107421.0 262342.0 268770.0 128646.0 121396.0 64053.0 72151.0 132849.0 138096.0 132363.0 136049.0 100683.0 102257.0 122945.0 122580.0 72910.0 65269.0 148520.0 144470.0 233004.0 230947.0 18434.0 22276.0 131454.0 127455.0 116803.0 111351.0 175045.0 176739.0 58137.0 58974.0 39380.0 47635.0 134359.0 136067.0 64694.0 58008.0 41168.0 33244.0 92587.0 99731.0 85287.0 78891.0 120115.0 112226.0 150345.0 186013.0 150345.0 150345.0 186013.0 186013.0
252128.0 245746.0 107547.0 99596.0 206168.0 198516.0 197361.0 193247.0 122918.0 130783.0 146517.0 139090.0 203250.0 199192.0 170144.0 176003.0 0.0 8078.0 132449.0 138933.0 164080.0 164968.0 79946.0 79499.0 122787.0 115945.0 105876.0 100949.0 197982.0 202382.0 95327.0 90104.0 86635.0 79135.0 189920.0 181994.0 92430.0 99974.0 221997.0 220150.0 135224.0 132921.0 146184.0 141601.0 209128.0 205509.0 96495.0 102302.0 221448.0 214690.0 135791.0 135495.0 54855.0 54180.0 64393.0 59505.0 164528.0 157038.0 173423.0 178654.0 240891.0 241138.0 22372.0 14598.0 219924.0 224994.0 168106.0 167221.0 244386.0 239870.0 211263.0 203945.0 183936.0 180729.0 98550.0 91033.0 108461.0 116207.0 55928.0 63779.0 192960.0 64459.0 192960.0 192960.0 64459.0 64459.0
257140.0 250902.0 108885.0 100741.0 209938.0 202177.0 197734.0 193330.0 124596.0 132597.0 150102.0 142832.0 203206.0 199452.0 170590.0 176708.0 8078.0 0.0 134339.0 140539.0 159855.0 161079.0 86136.0 85153.0 124575.0 117480.0 108132.0 102743.0 192604.0 197213.0 100528.0 95629.0 87282.0 79539.0 185915.0 177946.0 95757.0 103476.0 227176.0 225113.0 133399.0 130635.0 140702.0 135863.0 214690.0 211256.0 100906.0 107065.0 217529.0 210628.0 139568.0 138822.0 61685.0 60636.0 68623.0 63021.0 164562.0 157199.0 168290.0 173749.0 245146.0 245159.0 30444.0 22661.0 219028.0 224326.0 167007.0 165732.0 249229.0 244893.0 214143.0 206731.0 182819.0 179939.0 102338.0 95033.0 112166.0 119773.0 56773.0 64758.0 199086.0 72531.0 199086.0 199086.0 72531.0 72531.0
354891.0 347559.0 236648.0 229338.0 320441.0 313887.0 327672.0 324185.0 250684.0 257902.0 264751.0 256770.0 334382.0 329741.0 300482.0 305677.0 132449.0 134339.0 0.0 8039.0 291665.0 293727.0 82938.0 75664.0 9862.0 17613.0 232304.0 229016.0 319055.0 324751.0 206958.0 199940.0 49406.0 57380.0 318115.0 310087.0 44610.0 40158.0 324172.0 324089.0 267588.0 264972.0 267820.0 261673.0 308729.0 303872.0 213450.0 216275.0 349770.0 342511.0 253453.0 255812.0 161674.0 164705.0 73165.0 74735.0 295703.0 288039.0 296530.0 302954.0 349997.0 352128.0 130657.0 129175.0 352126.0 356975.0 300475.0 299670.0 348629.0 342813.0 331334.0 324750.0 316303.0 312893.0 218854.0 210898.0 228411.0 236358.0 187248.0 194715.0 289808.0 132322.0 289808.0 289808.0 132322.0 132322.0
362776.0 355443.0 243735.0 236357.0 328262.0 321678.0 334708.0 331131.0 257893.0 265164.0 272412.0 264437.0 341301.0 336746.0 307500.0 312774.0 138933.0 140539.0 8039.0 0.0 297019.0 299233.0 90970.0 83676.0 16346.0 23063.0 239572.0 236173.0 323646.0 329457.0 214676.0 207676.0 54438.0 62470.0 323506.0 315476.0 52395.0 48151.0 332057.0 331973.0 273908.0 271145.0 272612.0 266350.0 316614.0 311757.0 221053.0 223963.0 355138.0 347818.0 261115.0 263393.0 169296.0 172267.0 80647.0 81865.0 302599.0 294959.0 301377.0 307909.0 357749.0 360033.0 137837.0 136128.0 358782.0 363711.0 307034.0 306101.0 356514.0 350698.0 339003.0 332388.0 322865.0 319559.0 226365.0 218405.0 235956.0 243912.0 194026.0 201554.0 297692.0 140267.0 297692.0 297692.0 140267.0 140267.0
250392.0 248924.0 107323.0 106292.0 187516.0 180115.0 110975.0 102797.0 111710.0 114686.0 150615.0 150581.0 105988.0 109749.0 99416.0 106923.0 164080.0 159855.0 291665.0 297019.0 0.0 7871.0 242074.0 242821.0 281803.0 274212.0 119918.0 114115.0 45960.0 45856.0 160679.0 164054.0 242582.0 234550.0 26537.0 18525.0 255483.0 263268.0 231251.0 224655.0 54841.0 48827.0 35042.0 42716.0 231141.0 233112.0 149268.0 155909.0 58119.0 50887.0 149981.0 141792.0 171445.0 166682.0 228349.0 222868.0 89411.0 89866.0 24648.0 22365.0 223491.0 218235.0 176440.0 173250.0 100271.0 108358.0 67926.0 59746.0 240141.0 241043.0 171617.0 164861.0 73616.0 78812.0 140737.0 142768.0 141106.0 140536.0 122273.0 118663.0 238750.0 207941.0 238750.0 238750.0 207941.0 207941.0
243199.0 241844.0 102992.0 102502.0 180335.0 173004.0 103143.0 94963.0 106457.0 109035.0 144657.0 144910.0 98117.0 101898.0 92011.0 99433.0 164968.0 161079.0 293727.0 299233.0 7871.0 0.0 242211.0 243219.0 283866.0 276343.0 115583.0 110113.0 51607.0 50515.0 157013.0 160663.0 244823.0 236794.0 25062.0 17383.0 256827.0 264555.0 224421.0 217750.0 49634.0 44380.0 41985.0 49488.0 224656.0 226773.0 145448.0 151877.0 56481.0 49855.0 144434.0 136155.0 169775.0 164992.0 229346.0 224082.0 82091.0 82839.0 32023.0 28638.0 216111.0 210779.0 176455.0 173600.0 92695.0 100758.0 60302.0 52090.0 232944.0 233960.0 164111.0 157415.0 65748.0 70991.0 136775.0 139184.0 136667.0 135731.0 121160.0 117096.0 233058.0 206777.0 233058.0 233058.0 206777.0 206777.0
274420.0 267087.0 166334.0 160182.0 240124.0 233752.0 256445.0 254109.0 178360.0 184722.0 186149.0 178163.0 264519.0 258865.0 229835.0 233953.0 79946.0 86136.0 82938.0 90970.0 242074.0 242211.0 0.0 8101.0 76416.0 73948.0 159567.0 157931.0 277659.0 281835.0 128155.0 120973.0 65726.0 65027.0 267273.0 259495.0 40827.0 42998.0 243701.0 243617.0 206671.0 206034.0 225985.0 221523.0 228258.0 223401.0 136246.0 137782.0 298423.0 292058.0 174932.0 178362.0 85536.0 89488.0 28991.0 37007.0 226693.0 218853.0 252875.0 257797.0 269526.0 271689.0 65785.0 68955.0 285277.0 289077.0 235658.0 236491.0 268157.0 262342.0 252268.0 246087.0 251154.0 246497.0 142895.0 135177.0 151806.0 159509.0 123513.0 129608.0 209336.0 50865.0 209336.0 209336.0 50865.0 50865.0
280276.0 272943.0 170064.0 163664.0 245980.0 239580.0 260573.0 258024.0 182528.0 189081.0 191747.0 183750.0 268413.0 262932.0 233807.0 238135.0 79499.0 85153.0 75664.0 83676.0 242821.0 243219.0 8101.0 0.0 68834.0 66108.0 163759.0 161780.0 277480.0 281856.0 133698.0 126545.0 57816.0 57412.0 268271.0 260436.0 32890.0 35545.0 249557.0 249474.0 208925.0 207978.0 225664.0 220973.0 234114.0 229257.0 141382.0 143263.0 299570.0 293070.0 180492.0 183657.0 90144.0 93881.0 22901.0 31176.0 230361.0 222534.0 252893.0 258021.0 275382.0 277545.0 67343.0 69619.0 288688.0 292670.0 238631.0 239201.0 274014.0 268198.0 258051.0 251763.0 254219.0 249758.0 147745.0 139944.0 156837.0 164619.0 125754.0 132151.0 215192.0 57106.0 215192.0 215192.0 57106.0 57106.0
347127.0 339794.0 227392.0 220021.0 312399.0 305754.0 318370.0 314810.0 241550.0 248827.0 256302.0 248333.0 324986.0 320413.0 291165.0 296430.0 122787.0 124575.0 9862.0 16346.0 281803.0 283866.0 76416.0 68834.0 0.0 7962.0 223236.0 219827.0 309277.0 314951.0 198647.0 191675.0 39621.0 47570.0 308253.0 300225.0 36701.0 33444.0 316408.0 316324.0 257872.0 255209.0 258008.0 251882.0 300965.0 296108.0 204887.0 207892.0 339908.0 332650.0 245007.0 247203.0 153158.0 156073.0 64430.0 65521.0 286290.0 278643.0 286709.0 293119.0 342213.0 344385.0 121493.0 119799.0 342561.0 347456.0 290859.0 289997.0 340864.0 335049.0 322895.0 316247.0 306689.0 303333.0 210126.0 202163.0 219740.0 227701.0 177750.0 185258.0 282043.0 124850.0 282043.0 282043.0 124850.0 124850.0
342964.0 335632.0 221205.0 213743.0 307747.0 300998.0 312088.0 308415.0 235539.0 242898.0 251191.0 243242.0 318556.0 314091.0 284864.0 290235.0 115945.0 117480.0 17613.0 23063.0 274212.0 276343.0 73948.0 66108.0 7962.0 0.0 217327.0 213744.0 301443.0 307144.0 193746.0 186836.0 31803.0 39792.0 300679.0 292649.0 33285.0 31726.0 312246.0 312162.0 250857.0 248082.0 250221.0 244064.0 296803.0 291945.0 199668.0 202895.0 332325.0 325041.0 239906.0 241897.0 148054.0 150815.0 59330.0 59655.0 279838.0 272221.0 278939.0 285382.0 338045.0 340060.0 115534.0 113502.0 335840.0 340818.0 284050.0 283073.0 336702.0 330886.0 317770.0 311045.0 299881.0 296627.0 204689.0 196721.0 214370.0 222346.0 171192.0 178768.0 277881.0 121060.0 277881.0 277881.0 121060.0 121060.0
160679.0 156095.0 12599.0 16095.0 105483.0 97303.0 96878.0 94760.0 18794.0 25598.0 46928.0 41797.0 105187.0 99317.0 70432.0 74394.0 105876.0 108132.0 232304.0 239572.0 119918.0 115583.0 159567.0 163759.0 223236.0 217327.0 0.0 8048.0 165592.0 165741.0 43273.0 48522.0 190640.0 183646.0 137106.0 131258.0 188541.0 194785.0 133683.0 129418.0 66467.0 71228.0 127253.0 128543.0 126727.0 126192.0 31289.0 36668.0 162970.0 159057.0 39368.0 34683.0 74212.0 70097.0 159302.0 157737.0 68368.0 60594.0 141516.0 141863.0 142893.0 141458.0 101793.0 104357.0 127520.0 130514.0 82336.0 85907.0 151444.0 148965.0 106444.0 98898.0 96319.0 90279.0 22194.0 27253.0 21239.0 22424.0 52570.0 44831.0 124185.0 112154.0 124185.0 124185.0 112154.0 112154.0
168565.0 164045.0 8775.0 8418.0 112825.0 104601.0 98996.0 96244.0 21986.0 29863.0 54752.0 49798.0 106635.0 101255.0 72056.0 76754.0 100949.0 102743.0 229016.0 236173.0 114115.0 110113.0 157931.0 161780.0 219827.0 213744.0 8048.0 0.0 159551.0 159971.0 47201.0 51644.0 186468.0 179333.0 132252.0 126146.0 185589.0 192025.0 141689.0 137374.0 61647.0 65758.0 120108.0 121182.0 134771.0 134210.0 35423.0 41798.0 158920.0 154704.0 47404.0 42520.0 73214.0 68851.0 156257.0 154311.0 68851.0 61008.0 135200.0 135854.0 150421.0 148816.0 98359.0 100378.0 127800.0 131260.0 80709.0 83567.0 159283.0 156886.0 112806.0 105174.0 95302.0 89738.0 26663.0 29863.0 28011.0 30201.0 46443.0 38526.0 131866.0 111706.0 131866.0 131866.0 111706.0 111706.0
293006.0 292056.0 153017.0 151565.0 230311.0 223236.0 148385.0 140314.0 157666.0 160533.0 196260.0 196426.0 141133.0 146543.0 141534.0 148447.0 197982.0 192604.0 319055.0 323646.0 45960.0 51607.0 277659.0 277480.0 309277.0 301443.0 165592.0 159551.0 0.0 8088.0 205647.0 208660.0 269657.0 261718.0 40799.0 41079.0 286371.0 294316.0 275293.0 268468.0 100784.0 94723.0 51939.0 57469.0 276038.0 278273.0 194437.0 201279.0 51844.0 44542.0 195880.0 187652.0 212817.0 208137.0 260916.0 254638.0 132057.0 133623.0 25501.0 23734.0 265113.0 259348.0 213113.0 208869.0 128083.0 136112.0 109123.0 100910.0 282752.0 284169.0 212555.0 206264.0 110635.0 117320.0 186069.0 187688.0 186817.0 186426.0 162896.0 160366.0 284593.0 247775.0 284593.0 284593.0 247775.0 247775.0
289548.0 288812.0 153143.0 152134.0 227014.0 220086.0 143808.0 135811.0 156971.0 159443.0 194787.0 195279.0 136137.0 141844.0 138268.0 144948.0 202382.0 197213.0 324751.0 329457.0 45856.0 50515.0 281835.0 281856.0 314951.0 307144.0 165741.0 159971.0 8088.0 0.0 206472.0 209736.0 275344.0 267381.0 36042.0 37756.0 291473.0 299400.0 272504.0 265569.0 100135.0 94558.0 57028.0 63110.0 273774.0 276214.0 195101.0 201765.0 43951.0 36825.0 194869.0 186550.0 215347.0 210632.0 265685.0 259545.0 129033.0 131040.0 28965.0 24880.0 261327.0 255404.0 216952.0 212937.0 122015.0 129977.0 105813.0 97687.0 279304.0 280931.0 208647.0 202519.0 106284.0 113228.0 186590.0 188543.0 186907.0 186171.0 165581.0 162695.0 283373.0 250835.0 283373.0 283373.0 250835.0 250835.0
156809.0 150430.0 55182.0 54517.0 114292.0 107335.0 133780.0 133180.0 59348.0 63026.0 58050.0 50053.0 143464.0 136597.0 109263.0 111472.0 95327.0 100528.0 206958.0 214676.0 160679.0 157013.0 128155.0 133698.0 198647.0 193746.0 43273.0 47201.0 205647.0 206472.0 0.0 7195.0 170915.0 164947.0 179428.0 173243.0 162355.0 167535.0 126688.0 124857.0 108848.0 112770.0 163251.0 163193.0 114334.0 111259.0 11984.0 9706.0 206003.0 201881.0 46797.0 50493.0 45947.0 43938.0 134416.0 134898.0 109179.0 101695.0 180850.0 182069.0 146824.0 147834.0 82518.0 87993.0 167773.0 169878.0 125155.0 129063.0 149171.0 144550.0 124479.0 118086.0 138567.0 132072.0 21083.0 17962.0 26233.0 32820.0 60221.0 56387.0 100929.0 77703.0 100929.0 100929.0 77703.0 77703.0
162311.0 155763.0 59959.0 58454.0 121035.0 114174.0 140560.0 139804.0 65353.0 69440.0 65205.0 57210.0 150120.0 143346.0 115789.0 118192.0 90104.0 95629.0 199940.0 207676.0 164054.0 160663.0 120973.0 126545.0 191675.0 186836.0 48522.0 51644.0 208660.0 209736.0 7195.0 0.0 164308.0 158438.0 183465.0 177111.0 155332.0 160458.0 132007.0 130458.0 113090.0 116624.0 165194.0 164805.0 119072.0 115665.0 17751.0 16891.0 210540.0 206228.0 53965.0 57675.0 39322.0 37650.0 127508.0 128131.0 115399.0 107839.0 183676.0 185186.0 153098.0 154291.0 76377.0 82130.0 174177.0 176425.0 130780.0 134425.0 154874.0 150051.0 131578.0 125223.0 144455.0 138099.0 26627.0 21785.0 32911.0 39792.0 58814.0 55874.0 104309.0 70508.0 104309.0 104309.0 70508.0 70508.0
323647.0 316370.0 193542.0 185802.0 285172.0 278075.0 283889.0 279865.0 208423.0 216038.0 227193.0 219354.0 289883.0 285763.0 256657.0 262358.0 86635.0 87282.0 49406.0 54438.0 242582.0 244823.0 65726.0 57816.0 39621.0 31803.0 190640.0 186468.0 269657.0 275344.0 170915.0 164308.0 0.0 8032.0 269071.0 261040.0 31804.0 37473.0 292930.0 292584.0 220544.0 217468.0 218418.0 212268.0 277514.0 272694.0 175587.0 179620.0 300701.0 293381.0 216001.0 217237.0 124996.0 127110.0 40965.0 37198.0 251158.0 243651.0 247138.0 253594.0 317129.0 318562.0 89653.0 86300.0 306275.0 311489.0 254283.0 252978.0 317158.0 311527.0 293468.0 286491.0 270098.0 267145.0 179769.0 171840.0 189632.0 197612.0 142487.0 150257.0 258629.0 104040.0 258629.0 258629.0 104040.0 104040.0
318518.0 311330.0 186305.0 178505.0 279102.0 271925.0 276479.0 272378.0 201306.0 208977.0 220828.0 213027.0 282366.0 278324.0 249254.0 255028.0 79135.0 79539.0 57380.0 62470.0 234550.0 236794.0 65027.0 57412.0 47570.0 39792.0 183646.0 179333.0 261718.0 267381.0 164947.0 158438.0 8032.0 0.0 261039.0 253008.0 35399.0 42028.0 287816.0 287302.0 212700.0 209568.0 210441.0 204314.0 272641.0 267744.0 169281.0 173516.0 292669.0 285350.0 209674.0 210718.0 119121.0 121045.0 38242.0 33112.0 243651.0 236173.0 239151.0 245590.0 311440.0 312728.0 83154.0 79422.0 298565.0 303827.0 246542.0 245171.0 311877.0 306364.0 286969.0 279936.0 262351.0 259460.0 173238.0 165333.0 183131.0 191100.0 135047.0 142856.0 253719.0 100037.0 253719.0 253719.0 100037.0 100037.0
253761.0 253178.0 124636.0 125027.0 191373.0 184577.0 107800.0 99785.0 126112.0 127582.0 161836.0 163013.0 100349.0 105878.0 102784.0 109242.0 189920.0 185915.0 318115.0 323506.0 26537.0 25062.0 267273.0 268271.0 308253.0 300679.0 137106.0 132252.0 40799.0 36042.0 179428.0 183465.0 269071.0 261039.0 0.0 8030.0 281630.0 289383.0 237309.0 230262.0 70666.0 66908.0 57995.0 65788.0 239243.0 241984.0 167670.0 173719.0 31671.0 24800.0 162910.0 154439.0 194276.0 189485.0 254276.0 248935.0 93853.0 96468.0 34883.0 27010.0 225380.0 219405.0 201516.0 198652.0 88027.0 96140.0 70413.0 62447.0 243527.0 245305.0 172667.0 166607.0 70242.0 77229.0 158810.0 161793.0 157846.0 156158.0 146002.0 141731.0 250648.0 231534.0 250648.0 250648.0 231534.0 231534.0
252015.0 251169.0 118722.0 118751.0 189388.0 182400.0 107642.0 99522.0 120967.0 122848.0 157664.0 158507.0 100918.0 105925.0 100609.0 107421.0 181994.0 177946.0 310087.0 315476.0 18525.0 17383.0 259495.0 260436.0 300225.0 292649.0 131258.0 126146.0 41079.0 37756.0 173243.0 177111.0 261040.0 253008.0 8030.0 0.0 273648.0 281407.0 234750.0 227826.0 64820.0 60494.0 50890.0 58706.0 236091.0 238613.0 161561.0 167774.0 39691.0 32697.0 158267.0 149854.0 187055.0 182269.0 246337.0 240967.0 91295.0 93311.0 30104.0 23025.0 224039.0 218270.0 193757.0 190820.0 90684.0 98842.0 68160.0 59992.0 241764.0 243285.0 171476.0 165192.0 69786.0 76306.0 152773.0 155512.0 152160.0 150767.0 138535.0 134416.0 246410.0 224138.0 246410.0 246410.0 224138.0 224138.0
310449.0 303116.0 193431.0 186362.0 275867.0 269289.0 284505.0 281308.0 207066.0 214125.0 220181.0 212196.0 291585.0 286668.0 257399.0 262342.0 92430.0 95757.0 44610.0 52395.0 255483.0 256827.0 40827.0 32890.0 36701.0 33285.0 188541.0 185589.0 286371.0 291473.0 162355.0 155332.0 31804.0 35399.0 281630.0 273648.0 0.0 7987.0 279730.0 279646.0 227204.0 225222.0 234512.0 228995.0 264287.0 259430.0 168953.0 171687.0 313261.0 306312.0 208883.0 211338.0 117168.0 120294.0 29371.0 32927.0 253034.0 245298.0 262741.0 268605.0 305518.0 307717.0 87478.0 86958.0 310231.0 314781.0 259030.0 258732.0 304186.0 298371.0 286755.0 280199.0 274817.0 271019.0 174508.0 166567.0 184000.0 191929.0 145324.0 152509.0 245365.0 88159.0 245365.0 245365.0 88159.0 88159.0
314934.0 307602.0 199960.0 193001.0 280610.0 274151.0 291001.0 287925.0 213382.0 220341.0 225493.0 217498.0 298228.0 293203.0 263944.0 268770.0 99974.0 103476.0 40158.0 48151.0 263268.0 264555.0 42998.0 35545.0 33444.0 31726.0 194785.0 192025.0 294316.0 299400.0 167535.0 160458.0 37473.0 42028.0 289383.0 281407.0 7987.0 0.0 284216.0 284132.0 234506.0 232632.0 242448.0 236950.0 268773.0 263915.0 174481.0 176956.0 321004.0 314080.0 214200.0 216880.0 122737.0 126028.0 36247.0 40505.0 259741.0 251984.0 270654.0 276493.0 310040.0 312204.0 94213.0 94047.0 317154.0 321616.0 266091.0 265907.0 308672.0 302856.0 292010.0 285543.0 281860.0 277964.0 180267.0 172350.0 189663.0 197560.0 152361.0 159455.0 249851.0 92214.0 249851.0 249851.0 92214.0 92214.0
30719.0 23756.0 142143.0 149035.0 48315.0 53560.0 137163.0 143512.0 128946.0 122612.0 87568.0 91891.0 148345.0 140155.0 134599.0 128646.0 221997.0 227176.0 324172.0 332057.0 231251.0 224421.0 243701.0 249557.0 316408.0 312246.0 133683.0 141689.0 275293.0 272504.0 126688.0 132007.0 292930.0 287816.0 237309.0 234750.0 279730.0 284216.0 0.0 7927.0 179213.0 187027.0 250454.0 253793.0 18777.0 26267.0 127140.0 120347.0 251231.0 251173.0 94372.0 99517.0 170102.0 169242.0 253659.0 255840.0 143503.0 141689.0 255783.0 253047.0 37740.0 44860.0 207853.0 213987.0 174433.0 170525.0 166896.0 174906.0 25501.0 18722.0 73074.0 75943.0 169593.0 161787.0 128029.0 134069.0 119385.0 113448.0 180629.0 174238.0 64505.0 192835.0 64505.0 64505.0 192835.0 192835.0
32058.0 26682.0 137419.0 144523.0 40552.0 46082.0 129490.0 135919.0 123789.0 117209.0 82855.0 87668.0 140620.0 132462.0 127494.0 121396.0 220150.0 225113.0 324089.0 331973.0 224655.0 217750.0 243617.0 249474.0 316324.0 312162.0 129418.0 137374.0 268468.0 265569.0 124857.0 130458.0 292584.0 287302.0 230262.0 227826.0 279646.0 284132.0 7927.0 0.0 173036.0 180921.0 244446.0 247933.0 23799.0 31391.0 124583.0 118069.0 243803.0 243840.0 90310.0 94962.0 169011.0 167935.0 253575.0 255592.0 136537.0 134941.0 249227.0 246356.0 32115.0 38598.0 206645.0 212580.0 166617.0 162660.0 159860.0 167913.0 24576.0 19874.0 65163.0 68126.0 162243.0 154470.0 124940.0 131265.0 116018.0 109762.0 177391.0 170809.0 68264.0 192751.0 68264.0 68264.0 192751.0 192751.0
200528.0 198242.0 53972.0 54674.0 138092.0 130214.0 77336.0 70333.0 56892.0 59962.0 96188.0 95827.0 78079.0 77651.0 55882.0 64053.0 135224.0 133399.0 267588.0 273908.0 54841.0 49634.0 206671.0 208925.0 257872.0 250857.0 66467.0 61647.0 100784.0 100135.0 108848.0 113090.0 220544.0 212700.0 70666.0 64820.0 227204.0 234506.0 179213.0 173036.0 0.0 8254.0 71667.0 75852.0 177728.0 179282.0 97042.0 103055.0 97637.0 93143.0 95163.0 87022.0 127622.0 122860.0 198347.0 194364.0 45826.0 42537.0 78244.0 77190.0 175553.0 171238.0 141696.0 140643.0 87509.0 93815.0 35972.0 32794.0 190374.0 190431.0 126033.0 118611.0 51035.0 50272.0 88154.0 91340.0 87342.0 86134.0 83189.0 77185.0 183973.0 166018.0 183973.0 183973.0 166018.0 166018.0
208594.0 206230.0 58631.0 58263.0 146229.0 138323.0 84790.0 77591.0 63223.0 66890.0 103324.0 102607.0 84941.0 84957.0 63977.0 72151.0 132921.0 130635.0 264972.0 271145.0 48827.0 44380.0 206034.0 207978.0 255209.0 248082.0 71228.0 65758.0 94723.0 94558.0 112770.0 116624.0 217468.0 209568.0 66908.0 60494.0 225222.0 232632.0 187027.0 180921.0 8254.0 0.0 63611.0 67661.0 185229.0 186635.0 101134.0 107502.0 95322.0 90280.0 101784.0 93789.0 128744.0 123956.0 196593.0 192314.0 53849.0 50760.0 71500.0 71011.0 183747.0 179465.0 140639.0 139125.0 92662.0 99303.0 42191.0 37821.0 198452.0 198431.0 134287.0 126864.0 56516.0 56611.0 92418.0 95019.0 92359.0 91713.0 82620.0 77192.0 190633.0 166783.0 190633.0 190633.0 166783.0 166783.0
272191.0 269833.0 115278.0 111712.0 209735.0 201877.0 140674.0 132650.0 124033.0 128962.0 165466.0 163810.0 137236.0 139906.0 124837.0 132849.0 146184.0 140702.0 267820.0 272612.0 35042.0 41985.0 225985.0 225664.0 258008.0 250221.0 127253.0 120108.0 51939.0 57028.0 163251.0 165194.0 218418.0 210441.0 57995.0 50890.0 234512.0 242448.0 250454.0 244446.0 71667.0 63611.0 0.0 7817.0 247999.0 249007.0 152935.0 160425.0 87051.0 79047.0 162541.0 155065.0 164356.0 159806.0 208977.0 202710.0 114505.0 112989.0 28841.0 35963.0 247045.0 242520.0 161878.0 157355.0 134319.0 142309.0 96087.0 88504.0 262040.0 262039.0 196732.0 189505.0 104854.0 108815.0 145388.0 145503.0 148119.0 149430.0 114453.0 113073.0 250760.0 197841.0 250760.0 250760.0 197841.0 197841.0
276095.0 273532.0 116838.0 112764.0 213864.0 205924.0 146731.0 138768.0 126439.0 131740.0 168115.0 166110.0 143668.0 146072.0 130019.0 138096.0 141601.0 135863.0 261673.0 266350.0 42716.0 49488.0 221523.0 220973.0 251882.0 244064.0 128543.0 121182.0 57469.0 63110.0 163193.0 164805.0 212268.0 204314.0 65788.0 58706.0 228995.0 236950.0 253793.0 247933.0 75852.0 67661.0 7817.0 0.0 250805.0 251591.0 153192.0 160819.0 94623.0 86590.0 164701.0 157428.0 162122.0 157647.0 203848.0 197427.0 119687.0 117775.0 35717.0 43197.0 251404.0 247060.0 157971.0 153169.0 141498.0 149449.0 102037.0 94635.0 265984.0 265771.0 201564.0 194247.0 111392.0 115066.0 145921.0 145608.0 149153.0 150869.0 112465.0 111621.0 252484.0 194778.0 252484.0 252484.0 194778.0 194778.0
47583.0 39551.0 136335.0 142568.0 57462.0 60482.0 143586.0 149247.0 124564.0 119078.0 82742.0 85590.0 155142.0 146722.0 137482.0 132363.0 209128.0 214690.0 308729.0 316614.0 231141.0 224656.0 228258.0 234114.0 300965.0 296803.0 126727.0 134771.0 276038.0 273774.0 114334.0 119072.0 277514.0 272641.0 239243.0 236091.0 264287.0 268773.0 18777.0 23799.0 177728.0 185229.0 247999.0 250805.0 0.0 7611.0 116238.0 108950.0 255271.0 254623.0 87583.0 93923.0 156116.0 155629.0 238216.0 240415.0 145614.0 142821.0 255415.0 253260.0 55819.0 62391.0 193918.0 200365.0 182031.0 178831.0 169143.0 176886.0 43917.0 36469.0 83300.0 84627.0 173523.0 165570.0 118279.0 123619.0 110388.0 105312.0 170763.0 164849.0 45843.0 177392.0 45843.0 45843.0 177392.0 177392.0
54146.0 45892.0 136256.0 142169.0 63468.0 65845.0 148153.0 153563.0 125163.0 120068.0 83541.0 85706.0 159796.0 151327.0 140848.0 136049.0 205509.0 211256.0 303872.0 311757.0 233112.0 226773.0 223401.0 229257.0 296108.0 291945.0 126192.0 134210.0 278273.0 276214.0 111259.0 115665.0 272694.0 267744.0 241984.0 238613.0 259430.0 263915.0 26267.0 31391.0 179282.0 186635.0 249007.0 251591.0 7611.0 0.0 113898.0 106404.0 258768.0 257905.0 87455.0 94253.0 152016.0 151729.0 233358.0 235558.0 148662.0 145518.0 257246.0 255320.0 63430.0 69971.0 189769.0 196371.0 186885.0 183923.0 172156.0 179777.0 51110.0 43460.0 89320.0 90210.0 177136.0 169153.0 116494.0 121462.0 109017.0 104386.0 168701.0 163030.0 38771.0 172534.0 38771.0 38771.0 172534.0 172534.0
156640.0 150724.0 43259.0 42980.0 110178.0 102791.0 123118.0 122191.0 47626.0 51734.0 51634.0 43768.0 132531.0 125862.0 98115.0 100683.0 96495.0 100906.0 213450.0 221053.0 149268.0 145448.0 136246.0 141382.0 204887.0 199668.0 31289.0 35423.0 194437.0 195101.0 11984.0 17751.0 175587.0 169281.0 167670.0 161561.0 168953.0 174481.0 127140.0 124583.0 97042.0 101134.0 152935.0 153192.0 116238.0 113898.0 0.0 8047.0 194080.0 190009.0 40415.0 42399.0 51785.0 48854.0 140467.0 140314.0 97648.0 90093.0 169788.0 170805.0 144396.0 144750.0 86183.0 90828.0 156444.0 158750.0 113255.0 117099.0 148489.0 144436.0 118129.0 111379.0 126786.0 120380.0 9100.0 8047.0 15698.0 23263.0 54942.0 49858.0 105814.0 86491.0 105814.0 105814.0 86491.0 86491.0
150112.0 144011.0 49083.0 49718.0 105586.0 98459.0 124477.0 124071.0 51291.0 54325.0 48541.0 40544.0 134310.0 127329.0 100302.0 102257.0 102302.0 107065.0 216275.0 223963.0 155909.0 151877.0 137782.0 143263.0 207892.0 202895.0 36668.0 41798.0 201279.0 201765.0 9706.0 16891.0 179620.0 173516.0 173719.0 167774.0 171687.0 176956.0 120347.0 118069.0 103055.0 107502.0 160425.0 160819.0 108950.0 106404.0 8047.0 0.0 199583.0 195721.0 37256.0 40787.0 54881.0 52510.0 143579.0 143854.0 100629.0 93262.0 176781.0 177602.0 138891.0 139595.0 90712.0 95814.0 158925.0 160848.0 117387.0 121648.0 142167.0 137877.0 115072.0 108596.0 130421.0 123748.0 15218.0 16094.0 17477.0 23398.0 62728.0 57822.0 97865.0 87390.0 97865.0 97865.0 87390.0 87390.0
264570.0 264963.0 150824.0 152252.0 203729.0 197721.0 115720.0 108494.0 150003.0 150197.0 182143.0 184399.0 105967.0 113140.0 117930.0 122945.0 221448.0 217529.0 349770.0 355138.0 58119.0 56481.0 298423.0 299570.0 339908.0 332325.0 162970.0 158920.0 51844.0 43951.0 206003.0 210540.0 300701.0 292669.0 31671.0 39691.0 313261.0 321004.0 251231.0 243803.0 97637.0 95322.0 87051.0 94623.0 255271.0 258768.0 194080.0 199583.0 0.0 8118.0 184744.0 176189.0 223912.0 219119.0 285826.0 280542.0 110629.0 115021.0 60045.0 51925.0 234961.0 228282.0 232639.0 229962.0 86211.0 93535.0 87626.0 80904.0 254489.0 257199.0 182437.0 177307.0 81782.0 89709.0 185057.0 188757.0 183029.0 180439.0 176422.0 171755.0 270462.0 261626.0 270462.0 270462.0 261626.0 261626.0
265376.0 265508.0 146771.0 147813.0 204019.0 197784.0 116820.0 109337.0 146746.0 147356.0 180104.0 182029.0 107569.0 114388.0 117141.0 122580.0 214690.0 210628.0 342511.0 347818.0 50887.0 49855.0 292058.0 293070.0 332650.0 325041.0 159057.0 154704.0 44542.0 36825.0 201881.0 206228.0 293381.0 285350.0 24800.0 32697.0 306312.0 314080.0 251173.0 243840.0 93143.0 90280.0 79047.0 86590.0 254623.0 257905.0 190009.0 195721.0 8118.0 0.0 182233.0 173687.0 218478.0 213684.0 279033.0 273650.0 109341.0 113259.0 51929.0 43817.0 236046.0 229539.0 226293.0 223452.0 89417.0 97009.0 86009.0 78862.0 255241.0 257704.0 183360.0 177971.0 81600.0 89387.0 181036.0 184467.0 179392.0 177113.0 170544.0 166096.0 268692.0 255959.0 268692.0 268692.0 255959.0 255959.0
121859.0 116988.0 48812.0 55025.0 70389.0 62739.0 93687.0 94952.0 38685.0 35438.0 11298.0 3353.0 104587.0 96798.0 73253.0 72910.0 135791.0 139568.0 253453.0 261115.0 149981.0 144434.0 174932.0 180492.0 245007.0 239906.0 39368.0 47404.0 195880.0 194869.0 46797.0 53965.0 216001.0 209674.0 162910.0 158267.0 208883.0 214200.0 94372.0 90310.0 95163.0 101784.0 162541.0 164701.0 87583.0 87455.0 40415.0 37256.0 184744.0 182233.0 0.0 8555.0 91862.0 89164.0 180633.0 180658.0 76756.0 70743.0 173264.0 172342.0 106095.0 105676.0 126545.0 130981.0 131043.0 131635.0 97782.0 103915.0 112875.0 109992.0 77889.0 71344.0 107907.0 100332.0 37253.0 44811.0 27406.0 20049.0 88000.0 81023.0 88850.0 124359.0 88850.0 88850.0 124359.0 124359.0
126049.0 121610.0 42669.0 49564.0 71658.0 63659.0 86487.0 87367.0 31033.0 27121.0 12245.0 8819.0 97164.0 89542.0 65211.0 65269.0 135495.0 138822.0 255812.0 263393.0 141792.0 136155.0 178362.0 183657.0 247203.0 241897.0 34683.0 42520.0 187652.0 186550.0 50493.0 57675.0 217237.0 210718.0 154439.0 149854.0 211338.0 216880.0 99517.0 94962.0 87022.0 93789.0 155065.0 157428.0 93923.0 94253.0 42399.0 40787.0 176189.0 173687.0 8555.0 0.0 94175.0 91130.0 182774.0 182419.0 68389.0 62269.0 165209.0 164157.0 108521.0 107465.0 127594.0 131579.0 123328.0 124171.0 89254.0 95362.0 116770.0 114399.0 76251.0 69266.0 99527.0 92001.0 37481.0 45397.0 27609.0 19625.0 85589.0 78263.0 96959.0 128140.0 96959.0 96959.0 128140.0 128140.0
200641.0 193812.0 81847.0 76547.0 160239.0 153252.0 171041.0 168947.0 92994.0 99208.0 103153.0 95194.0 179372.0 173515.0 144626.0 148520.0 54855.0 61685.0 161674.0 169296.0 171445.0 169775.0 85536.0 90144.0 153158.0 148054.0 74212.0 73214.0 212817.0 215347.0 45947.0 39322.0 124996.0 119121.0 194276.0 187055.0 117168.0 122737.0 170102.0 169011.0 127622.0 128744.0 164356.0 162122.0 156116.0 152016.0 51785.0 54881.0 223912.0 218478.0 91862.0 94175.0 0.0 4794.0 88771.0 88986.0 142023.0 134184.0 187316.0 190480.0 192356.0 193611.0 37806.0 44405.0 201014.0 204407.0 152954.0 154796.0 193531.0 188405.0 169744.0 163094.0 168020.0 162779.0 57655.0 49813.0 66937.0 74824.0 49998.0 52784.0 138719.0 38758.0 138719.0 138719.0 38758.0 38758.0
199687.0 192983.0 77441.0 71997.0 158075.0 150968.0 166971.0 164762.0 88891.0 95251.0 100430.0 92510.0 175184.0 169413.0 140455.0 144470.0 54180.0 60636.0 164705.0 172267.0 166682.0 164992.0 89488.0 93881.0 156073.0 150815.0 70097.0 68851.0 208137.0 210632.0 43938.0 37650.0 127110.0 121045.0 189485.0 182269.0 120294.0 126028.0 169242.0 167935.0 122860.0 123956.0 159806.0 157647.0 155629.0 151729.0 48854.0 52510.0 219119.0 213684.0 89164.0 91130.0 4794.0 0.0 91644.0 91494.0 137695.0 129853.0 182637.0 185762.0 190707.0 191773.0 38742.0 44768.0 196629.0 200097.0 148375.0 150148.0 192403.0 187436.0 166975.0 160230.0 163486.0 158306.0 54240.0 46323.0 63712.0 71653.0 45388.0 48027.0 138832.0 43398.0 138832.0 138832.0 43398.0 43398.0
284377.0 277045.0 164071.0 156991.0 248452.0 241676.0 255149.0 251937.0 177782.0 184895.0 191924.0 183964.0 262214.0 257304.0 228035.0 233004.0 64393.0 68623.0 73165.0 80647.0 228349.0 229346.0 28991.0 22901.0 64430.0 59330.0 159302.0 156257.0 260916.0 265685.0 134416.0 127508.0 40965.0 38242.0 254276.0 246337.0 29371.0 36247.0 253659.0 253575.0 198347.0 196593.0 208977.0 203848.0 238216.0 233358.0 140467.0 143579.0 285826.0 279033.0 180633.0 182774.0 88771.0 91644.0 0.0 8300.0 223668.0 215930.0 236799.0 242346.0 279100.0 280959.0 58108.0 57807.0 280941.0 285449.0 229844.0 229674.0 278113.0 272243.0 258514.0 251837.0 245615.0 241742.0 145719.0 137759.0 155315.0 163274.0 116115.0 123228.0 219294.0 63526.0 219294.0 219294.0 63526.0 63526.0
286559.0 279244.0 161915.0 154613.0 249163.0 242229.0 252939.0 249492.0 176030.0 183323.0 191921.0 184004.0 259709.0 255016.0 225754.0 230947.0 59505.0 63021.0 74735.0 81865.0 222868.0 224082.0 37007.0 31176.0 65521.0 59655.0 157737.0 154311.0 254638.0 259545.0 134898.0 128131.0 37198.0 33112.0 248935.0 240967.0 32927.0 40505.0 255840.0 255592.0 194364.0 192314.0 202710.0 197427.0 240415.0 235558.0 140314.0 143854.0 280542.0 273650.0 180658.0 182419.0 88986.0 91494.0 8300.0 0.0 221059.0 213372.0 230715.0 236408.0 280512.0 282136.0 55972.0 54561.0 277842.0 282535.0 226452.0 226009.0 280160.0 274459.0 258441.0 251636.0 242258.0 238608.0 145126.0 137158.0 154852.0 162835.0 112860.0 120196.0 221494.0 67000.0 221494.0 221494.0 67000.0 67000.0
161167.0 160021.0 60362.0 66797.0 98345.0 91183.0 33864.0 28771.0 50175.0 46323.0 72405.0 75787.0 38733.0 35153.0 10336.0 18434.0 164528.0 164562.0 295703.0 302599.0 89411.0 82091.0 226693.0 230361.0 286290.0 279838.0 68368.0 68851.0 132057.0 129033.0 109179.0 115399.0 251158.0 243651.0 93853.0 91295.0 253034.0 259741.0 143503.0 136537.0 45826.0 53849.0 114505.0 119687.0 145614.0 148662.0 97648.0 100629.0 110629.0 109341.0 76756.0 68389.0 142023.0 137695.0 223668.0 221059.0 0.0 7844.0 114036.0 110436.0 134088.0 128943.0 165562.0 166532.0 59153.0 62411.0 23531.0 31411.0 150909.0 152133.0 82549.0 75586.0 31152.0 23651.0 88909.0 95251.0 83168.0 78010.0 108721.0 101074.0 159981.0 180349.0 159981.0 159981.0 180349.0 180349.0
160615.0 159058.0 52521.0 59008.0 97753.0 90267.0 40703.0 36217.0 42529.0 39074.0 67199.0 70002.0 46344.0 42271.0 14459.0 22276.0 157038.0 157199.0 288039.0 294959.0 89866.0 82839.0 218853.0 222534.0 278643.0 272221.0 60594.0 61008.0 133623.0 131040.0 101695.0 107839.0 243651.0 236173.0 96468.0 93311.0 245298.0 251984.0 141689.0 134941.0 42537.0 50760.0 112989.0 117775.0 142821.0 145518.0 90093.0 93262.0 115021.0 113259.0 70743.0 62269.0 134184.0 129853.0 215930.0 213372.0 7844.0 0.0 114500.0 111422.0 134350.0 129597.0 157821.0 158864.0 66945.0 70254.0 27405.0 34453.0 150375.0 151178.0 83791.0 76518.0 37594.0 30540.0 81300.0 87548.0 75786.0 70866.0 101176.0 93483.0 155476.0 172526.0 155476.0 155476.0 172526.0 172526.0
275041.0 273558.0 129005.0 127087.0 212165.0 204757.0 134643.0 126457.0 134722.0 138194.0 174405.0 174023.0 128959.0 133240.0 124006.0 131454.0 173423.0 168290.0 296530.0 301377.0 24648.0 32023.0 252875.0 252893.0 286709.0 278939.0 141516.0 135200.0 25501.0 28965.0 180850.0 183676.0 247138.0 239151.0 34883.0 30104.0 262741.0 270654.0 255783.0 249227.0 78244.0 71500.0 28841.0 35717.0 255415.0 257246.0 169788.0 176781.0 60045.0 51929.0 173264.0 165209.0 187316.0 182637.0 236799.0 230715.0 114036.0 114500.0 0.0 8242.0 248098.0 242796.0 188052.0 183986.0 120518.0 128678.0 92305.0 84076.0 264790.0 265678.0 196134.0 189428.0 96924.0 102607.0 161564.0 162890.0 162753.0 162774.0 137397.0 134884.0 262112.0 222342.0 262112.0 262112.0 222342.0 222342.0
271602.0 270352.0 129285.0 127898.0 208765.0 201500.0 129473.0 121302.0 134036.0 137051.0 172953.0 172946.0 123298.0 127928.0 120214.0 127455.0 178654.0 173749.0 302954.0 307909.0 22365.0 28638.0 257797.0 258021.0 293119.0 285382.0 141863.0 135854.0 23734.0 24880.0 182069.0 185186.0 253594.0 245590.0 27010.0 23025.0 268605.0 276493.0 253047.0 246356.0 77190.0 71011.0 35963.0 43197.0 253260.0 255320.0 170805.0 177602.0 51925.0 43817.0 172342.0 164157.0 190480.0 185762.0 242346.0 236408.0 110436.0 111422.0 8242.0 0.0 244250.0 238762.0 192661.0 188847.0 113709.0 121866.0 88110.0 79848.0 261344.0 262466.0 192009.0 185458.0 91613.0 97658.0 162398.0 164117.0 163086.0 162703.0 140746.0 137817.0 261115.0 226086.0 261115.0 261115.0 226086.0 226086.0
30724.0 34118.0 148655.0 156537.0 38285.0 46574.0 119269.0 126720.0 133369.0 125777.0 96426.0 102971.0 129183.0 121821.0 124099.0 116803.0 240891.0 245146.0 349997.0 357749.0 223491.0 216111.0 269526.0 275382.0 342213.0 338045.0 142893.0 150421.0 265113.0 261327.0 146824.0 153098.0 317129.0 311440.0 225380.0 224039.0 305518.0 310040.0 37740.0 32115.0 175553.0 183747.0 247045.0 251404.0 55819.0 63430.0 144396.0 138891.0 234961.0 236046.0 106095.0 108521.0 192356.0 190707.0 279100.0 280512.0 134088.0 134350.0 248098.0 244250.0 0.0 8242.0 229342.0 234678.0 152801.0 147613.0 156177.0 164436.0 21864.0 28184.0 52781.0 58850.0 155397.0 148170.0 142993.0 150127.0 133354.0 126142.0 193927.0 186731.0 100102.0 218659.0 100102.0 100102.0 218659.0 218659.0
38616.0 42335.0 146588.0 154618.0 35992.0 44242.0 112720.0 120308.0 131003.0 123229.0 95562.0 102465.0 122370.0 115182.0 118833.0 111351.0 241138.0 245159.0 352128.0 360033.0 218235.0 210779.0 271689.0 277545.0 344385.0 340060.0 141458.0 148816.0 259348.0 255404.0 147834.0 154291.0 318562.0 312728.0 219405.0 218270.0 307717.0 312204.0 44860.0 38598.0 171238.0 179465.0 242520.0 247060.0 62391.0 69971.0 144750.0 139595.0 228282.0 229539.0 105676.0 107465.0 193611.0 191773.0 280959.0 282136.0 128943.0 129597.0 242796.0 238762.0 8242.0 0.0 230266.0 235386.0 145532.0 140185.0 150652.0 158914.0 30056.0 36404.0 46796.0 53376.0 149271.0 142178.0 142834.0 150157.0 133065.0 125650.0 193050.0 185710.0 105724.0 220823.0 105724.0 105724.0 220823.0 220823.0
238352.0 231577.0 106045.0 98892.0 196215.0 188932.0 197116.0 193838.0 120057.0 127368.0 137681.0 129897.0 204109.0 199242.0 169972.0 175045.0 22372.0 30444.0 130657.0 137837.0 176440.0 176455.0 65785.0 67343.0 121493.0 115534.0 101793.0 98359.0 213113.0 216952.0 82518.0 76377.0 89653.0 83154.0 201516.0 193757.0 87478.0 94213.0 207853.0 206645.0 141696.0 140639.0 161878.0 157971.0 193918.0 189769.0 86183.0 90712.0 232639.0 226293.0 126545.0 127594.0 37806.0 38742.0 58108.0 55972.0 165562.0 157821.0 188052.0 192661.0 229342.0 230266.0 0.0 8049.0 222995.0 227406.0 172185.0 172365.0 231129.0 226107.0 203838.0 196841.0 187900.0 183837.0 90120.0 82199.0 99995.0 107971.0 58657.0 65432.0 176257.0 42206.0 176257.0 176257.0 42206.0 42206.0
244391.0 237733.0 107720.0 100245.0 201006.0 193594.0 198595.0 195016.0 122273.0 129804.0 142008.0 134324.0 205207.0 200620.0 171379.0 176739.0 14598.0 22661.0 129175.0 136128.0 173250.0 173600.0 68955.0 69619.0 119799.0 113502.0 104357.0 100378.0 208869.0 212937.0 87993.0 82130.0 86300.0 79422.0 198652.0 190820.0 86958.0 94047.0 213987.0 212580.0 140643.0 139125.0 157355.0 153169.0 200365.0 196371.0 90828.0 95814.0 229962.0 223452.0 130981.0 131579.0 44405.0 44768.0 57807.0 54561.0 166532.0 158864.0 183986.0 188847.0 234678.0 235386.0 8049.0 0.0 223325.0 227978.0 172075.0 171868.0 237004.0 232135.0 207800.0 200687.0 187859.0 184099.0 94137.0 86309.0 104074.0 112004.0 58370.0 65639.0 183114.0 49871.0 183114.0 183114.0 49871.0 49871.0
183241.0 184793.0 119189.0 125095.0 126134.0 121726.0 39388.0 36216.0 109230.0 104755.0 124073.0 129324.0 27594.0 36112.0 58698.0 58137.0 219924.0 219028.0 352126.0 358782.0 100271.0 92695.0 285277.0 288688.0 342561.0 335840.0 127520.0 127800.0 128083.0 122015.0 167773.0 174177.0 306275.0 298565.0 88027.0 90684.0 310231.0 317154.0 174433.0 166617.0 87509.0 92662.0 134319.0 141498.0 182031.0 186885.0 156444.0 158925.0 86211.0 89417.0 131043.0 123328.0 201014.0 196629.0 280941.0 277842.0 59153.0 66945.0 120518.0 113709.0 152801.0 145532.0 222995.0 223325.0 0.0 8160.0 52157.0 54881.0 173508.0 177318.0 102030.0 98492.0 36526.0 39237.0 147839.0 154339.0 141584.0 135826.0 164982.0 157722.0 205338.0 239442.0 205338.0 205338.0 239442.0 239442.0
178191.0 180044.0 122763.0 129011.0 122346.0 118369.0 38364.0 36891.0 111985.0 107026.0 124112.0 129740.0 27054.0 35126.0 60637.0 58974.0 224994.0 224326.0 356975.0 363711.0 108358.0 100758.0 289077.0 292670.0 347456.0 340818.0 130514.0 131260.0 136112.0 129977.0 169878.0 176425.0 311489.0 303827.0 96140.0 98842.0 314781.0 321616.0 170525.0 162660.0 93815.0 99303.0 142309.0 149449.0 178831.0 183923.0 158750.0 160848.0 93535.0 97009.0 131635.0 124171.0 204407.0 200097.0 285449.0 282535.0 62411.0 70254.0 128678.0 121866.0 147613.0 140185.0 227406.0 227978.0 8160.0 0.0 58057.0 61489.0 168584.0 172668.0 97696.0 94668.0 42823.0 44441.0 150308.0 157033.0 143646.0 137582.0 169730.0 162340.0 203519.0 242642.0 203519.0 203519.0 242642.0 242642.0
183884.0 183013.0 71940.0 76423.0 121229.0 114274.0 44722.0 36865.0 66125.0 64507.0 94591.0 97198.0 43080.0 44241.0 32456.0 39380.0 168106.0 167007.0 300475.0 307034.0 67926.0 60302.0 235658.0 238631.0 290859.0 284050.0 82336.0 80709.0 109123.0 105813.0 125155.0 130780.0 254283.0 246542.0 70413.0 68160.0 259030.0 266091.0 166896.0 159860.0 35972.0 42191.0 96087.0 102037.0 169143.0 172156.0 113255.0 117387.0 87626.0 86009.0 97782.0 89254.0 152954.0 148375.0 229844.0 226452.0 23531.0 27405.0 92305.0 88110.0 156177.0 150652.0 172185.0 172075.0 52157.0 58057.0 0.0 8262.0 173630.0 175130.0 103910.0 97358.0 15831.0 14420.0 104206.0 109554.0 100042.0 96044.0 113730.0 106753.0 182844.0 191700.0 182844.0 182844.0 191700.0 191700.0
192100.0 191182.0 74873.0 78587.0 129412.0 122410.0 52174.0 44151.0 70670.0 69848.0 101294.0 103510.0 49438.0 51437.0 40628.0 47635.0 167221.0 165732.0 299670.0 306101.0 59746.0 52090.0 236491.0 239201.0 289997.0 283073.0 85907.0 83567.0 100910.0 97687.0 129063.0 134425.0 252978.0 245171.0 62447.0 59992.0 258732.0 265907.0 174906.0 167913.0 32794.0 37821.0 88504.0 94635.0 176886.0 179777.0 117099.0 121648.0 80904.0 78862.0 103915.0 95362.0 154796.0 150148.0 229674.0 226009.0 31411.0 34453.0 84076.0 79848.0 164436.0 158914.0 172365.0 171868.0 54881.0 61489.0 8262.0 0.0 181845.0 183297.0 112168.0 105619.0 18776.0 20534.0 108006.0 112937.0 104473.0 100953.0 113724.0 107060.0 189830.0 193544.0 189830.0 189830.0 193544.0 193544.0
10258.0 12311.0 158629.0 166075.0 52628.0 60223.0 138833.0 146005.0 144226.0 137152.0 104532.0 110040.0 149169.0 141531.0 141237.0 134359.0 244386.0 249229.0 348629.0 356514.0 240141.0 232944.0 268157.0 274014.0 340864.0 336702.0 151444.0 159283.0 282752.0 279304.0 149171.0 154874.0 317158.0 311877.0 243527.0 241764.0 304186.0 308672.0 25501.0 24576.0 190374.0 198452.0 262040.0 265984.0 43917.0 51110.0 148489.0 142167.0 254489.0 255241.0 112875.0 116770.0 193531.0 192403.0 278113.0 280160.0 150909.0 150375.0 264790.0 261344.0 21864.0 30056.0 231129.0 237004.0 173508.0 168584.0 173630.0 181845.0 0.0 8198.0 72126.0 77273.0 174034.0 166578.0 148411.0 154968.0 139248.0 132667.0 200594.0 193813.0 89757.0 217291.0 89757.0 89757.0 217291.0 217291.0
12261.0 7888.0 156671.0 163913.0 53932.0 60967.0 141793.0 148744.0 142697.0 135878.0 102223.0 107290.0 152413.0 144588.0 142676.0 136067.0 239870.0 244893.0 342813.0 350698.0 241043.0 233960.0 262342.0 268198.0 335049.0 330886.0 148965.0 156886.0 284169.0 280931.0 144550.0 150051.0 311527.0 306364.0 245305.0 243285.0 298371.0 302856.0 18722.0 19874.0 190431.0 198431.0 262039.0 265771.0 36469.0 43460.0 144436.0 137877.0 257199.0 257704.0 109992.0 114399.0 188405.0 187436.0 272243.0 274459.0 152133.0 151178.0 265678.0 262466.0 28184.0 36404.0 226107.0 232135.0 177318.0 172668.0 175130.0 183297.0 8198.0 0.0 75404.0 79937.0 176257.0 168674.0 144808.0 151137.0 135861.0 129544.0 197240.0 190627.0 82210.0 211476.0 82210.0 82210.0 211476.0 211476.0
82151.0 82994.0 108741.0 117139.0 25859.0 25081.0 66731.0 74027.0 92465.0 84260.0 66593.0 74566.0 77077.0 69406.0 72331.0 64694.0 211263.0 214143.0 331334.0 339003.0 171617.0 164111.0 252268.0 258051.0 322895.0 317770.0 106444.0 112806.0 212555.0 208647.0 124479.0 131578.0 293468.0 286969.0 172667.0 171476.0 286755.0 292010.0 73074.0 65163.0 126033.0 134287.0 196732.0 201564.0 83300.0 89320.0 118129.0 115072.0 182437.0 183360.0 77889.0 76251.0 169744.0 166975.0 258514.0 258441.0 82549.0 83791.0 196134.0 192009.0 52781.0 46796.0 203838.0 207800.0 102030.0 97696.0 103910.0 112168.0 72126.0 75404.0 0.0 7807.0 102622.0 95439.0 113732.0 121640.0 103843.0 95869.0 159001.0 151199.0 114021.0 201470.0 114021.0 114021.0 201470.0 201470.0
87431.0 87670.0 101010.0 109416.0 27681.0 24465.0 61882.0 68822.0 84722.0 76510.0 60055.0 68052.0 72700.0 64724.0 65457.0 58008.0 203945.0 206731.0 324750.0 332388.0 164861.0 157415.0 246087.0 251763.0 316247.0 311045.0 98898.0 105174.0 206264.0 202519.0 118086.0 125223.0 286491.0 279936.0 166607.0 165192.0 280199.0 285543.0 75943.0 68126.0 118611.0 126864.0 189505.0 194247.0 84627.0 90210.0 111379.0 108596.0 177307.0 177971.0 71344.0 69266.0 163094.0 160230.0 251837.0 251636.0 75586.0 76518.0 189428.0 185458.0 58850.0 53376.0 196841.0 200687.0 98492.0 94668.0 97358.0 105619.0 77273.0 79937.0 7807.0 0.0 96821.0 89459.0 106723.0 114656.0 96875.0 88889.0 151430.0 143608.0 112529.0 195359.0 112529.0 112529.0 195359.0 195359.0
184223.0 184086.0 86533.0 91490.0 122472.0 116183.0 37885.0 29741.0 79226.0 76538.0 103379.0 106929.0 32474.0 36330.0 36620.0 41168.0 183936.0 182819.0 316303.0 322865.0 73616.0 65748.0 251154.0 254219.0 306689.0 299881.0 96319.0 95302.0 110635.0 106284.0 138567.0 144455.0 270098.0 262351.0 70242.0 69786.0 274817.0 281860.0 169593.0 162243.0 51035.0 56516.0 104854.0 111392.0 173523.0 177136.0 126786.0 130421.0 81782.0 81600.0 107907.0 99527.0 168020.0 163486.0 245615.0 242258.0 31152.0 37594.0 96924.0 91613.0 155397.0 149271.0 187900.0 187859.0 36526.0 42823.0 15831.0 18776.0 174034.0 176257.0 102622.0 96821.0 0.0 8004.0 117828.0 123565.0 112961.0 108345.0 129502.0 122472.0 190251.0 206726.0 190251.0 190251.0 206726.0 206726.0
176785.0 176516.0 81009.0 86429.0 114829.0 108437.0 32177.0 24017.0 72753.0 69614.0 95581.0 99278.0 28944.0 31137.0 28627.0 33244.0 180729.0 179939.0 312893.0 319559.0 78812.0 70991.0 246497.0 249758.0 303333.0 296627.0 90279.0 89738.0 117320.0 113228.0 132072.0 138099.0 267145.0 259460.0 77229.0 76306.0 271019.0 277964.0 161787.0 154470.0 50272.0 56611.0 108815.0 115066.0 165570.0 169153.0 120380.0 123748.0 89709.0 89387.0 100332.0 92001.0 162779.0 158306.0 241742.0 238608.0 23651.0 30540.0 102607.0 97658.0 148170.0 142178.0 183837.0 184099.0 39237.0 44441.0 14420.0 20534.0 166578.0 168674.0 95439.0 89459.0 8004.0 0.0 111494.0 117463.0 106271.0 101404.0 125749.0 118515.0 182282.0 201399.0 182282.0 182282.0 201399.0 201399.0
156919.0 151377.0 34265.0 34505.0 107643.0 99965.0 115093.0 113891.0 38777.0 43320.0 48009.0 40542.0 124268.0 117772.0 89709.0 92587.0 98550.0 102338.0 218854.0 226365.0 140737.0 136775.0 142895.0 147745.0 210126.0 204689.0 22194.0 26663.0 186069.0 186590.0 21083.0 26627.0 179769.0 173238.0 158810.0 152773.0 174508.0 180267.0 128029.0 124940.0 88154.0 92418.0 145388.0 145921.0 118279.0 116494.0 9100.0 15218.0 185057.0 181036.0 37253.0 37481.0 57655.0 54240.0 145719.0 145126.0 88909.0 81300.0 161564.0 162398.0 142993.0 142834.0 90120.0 94137.0 147839.0 150308.0 104206.0 108006.0 148411.0 144808.0 113732.0 106723.0 117828.0 111494.0 0.0 7968.0 9949.0 17871.0 52631.0 46574.0 110237.0 93760.0 110237.0 110237.0 93760.0 93760.0
163302.0 157560.0 38246.0 36770.0 115147.0 107548.0 122270.0 120814.0 45110.0 50306.0 55724.0 48132.0 131218.0 124892.0 96547.0 99731.0 91033.0 95033.0 210898.0 218405.0 142768.0 139184.0 135177.0 139944.0 202163.0 196721.0 27253.0 29863.0 187688.0 188543.0 17962.0 21785.0 171840.0 165333.0 161793.0 155512.0 166567.0 172350.0 134069.0 131265.0 91340.0 95019.0 145503.0 145608.0 123619.0 121462.0 8047.0 16094.0 188757.0 184467.0 44811.0 45397.0 49813.0 46323.0 137759.0 137158.0 95251.0 87548.0 162890.0 164117.0 150127.0 150157.0 82199.0 86309.0 154339.0 157033.0 109554.0 112937.0 154968.0 151137.0 121640.0 114656.0 123565.0 117463.0 7968.0 0.0 17798.0 25772.0 47244.0 41926.0 113779.0 86341.0 113779.0 113779.0 86341.0 86341.0
147910.0 142562.0 33800.0 36415.0 97776.0 90063.0 107650.0 106953.0 33917.0 36889.0 38070.0 30666.0 117246.0 110437.0 83036.0 85287.0 108461.0 112166.0 228411.0 235956.0 141106.0 136667.0 151806.0 156837.0 219740.0 214370.0 21239.0 28011.0 186817.0 186907.0 26233.0 32911.0 189632.0 183131.0 157846.0 152160.0 184000.0 189663.0 119385.0 116018.0 87342.0 92359.0 148119.0 149153.0 110388.0 109017.0 15698.0 17477.0 183029.0 179392.0 27406.0 27609.0 66937.0 63712.0 155315.0 154852.0 83168.0 75786.0 162753.0 163086.0 133354.0 133065.0 99995.0 104074.0 141584.0 143646.0 100042.0 104473.0 139248.0 135861.0 103843.0 96875.0 112961.0 106271.0 9949.0 17798.0 0.0 7988.0 61382.0 54854.0 104539.0 102177.0 104539.0 104539.0 102177.0 102177.0
141507.0 136393.0 34169.0 38485.0 90196.0 82403.0 101081.0 100760.0 30448.0 31809.0 30333.0 23194.0 110967.0 103940.0 77139.0 78891.0 116207.0 119773.0 236358.0 243912.0 140536.0 135731.0 159509.0 164619.0 227701.0 222346.0 22424.0 30201.0 186426.0 186171.0 32820.0 39792.0 197612.0 191100.0 156158.0 150767.0 191929.0 197560.0 113448.0 109762.0 86134.0 91713.0 149430.0 150869.0 105312.0 104386.0 23263.0 23398.0 180439.0 177113.0 20049.0 19625.0 74824.0 71653.0 163274.0 162835.0 78010.0 70866.0 162774.0 162703.0 126142.0 125650.0 107971.0 112004.0 135826.0 137582.0 96044.0 100953.0 132667.0 129544.0 95869.0 88889.0 108345.0 101404.0 17871.0 25772.0 7988.0 0.0 68009.0 61145.0 101763.0 109679.0 101763.0 101763.0 109679.0 109679.0
209293.0 203906.0 52157.0 43970.0 157230.0 149175.0 141435.0 137393.0 68044.0 76144.0 97539.0 91032.0 147454.0 143281.0 114216.0 120115.0 55928.0 56773.0 187248.0 194026.0 122273.0 121160.0 123513.0 125754.0 177750.0 171192.0 52570.0 46443.0 162896.0 165581.0 60221.0 58814.0 142487.0 135047.0 146002.0 138535.0 145324.0 152361.0 180629.0 177391.0 83189.0 82620.0 114453.0 112465.0 170763.0 168701.0 54942.0 62728.0 176422.0 170544.0 88000.0 85589.0 49998.0 45388.0 116115.0 112860.0 108721.0 101176.0 137397.0 140746.0 193927.0 193050.0 58657.0 58370.0 164982.0 169730.0 113730.0 113724.0 200594.0 197240.0 159001.0 151430.0 129502.0 125749.0 52631.0 47244.0 61382.0 68009.0 0.0 7999.0 160498.0 85675.0 160498.0 160498.0 85675.0 85675.0
202626.0 197389.0 44158.0 35983.0 149832.0 141738.0 133633.0 129695.0 60060.0 68172.0 90305.0 83989.0 139799.0 135515.0 106403.0 112226.0 63779.0 64758.0 194715.0 201554.0 118663.0 117096.0 129608.0 132151.0 185258.0 178768.0 44831.0 38526.0 160366.0 162695.0 56387.0 55874.0 150257.0 142856.0 141731.0 134416.0 152509.0 159455.0 174238.0 170809.0 77185.0 77192.0 113073.0 111621.0 164849.0 163030.0 49858.0 57822.0 171755.0 166096.0 81023.0 78263.0 52784.0 48027.0 123228.0 120196.0 101074.0 93483.0 134884.0 137817.0 186731.0 185710.0 65432.0 65639.0 157722.0 162340.0 106753.0 107060.0 193813.0 190627.0 151199.0 143608.0 122472.0 118515.0 46574.0 41926.0 54854.0 61145.0 7999.0 0.0 155671.0 89876.0 155671.0 155671.0 89876.0 89876.0
92852.0 84514.0 135648.0 140215.0 89809.0 88942.0 165956.0 170149.0 127471.0 124066.0 88814.0 88170.0 177758.0 169228.0 153675.0 150345.0 192960.0 199086.0 289808.0 297692.0 238750.0 233058.0 209336.0 215192.0 282043.0 277881.0 124185.0 131866.0 284593.0 283373.0 100929.0 104309.0 258629.0 253719.0 250648.0 246410.0 245365.0 249851.0 64505.0 68264.0 183973.0 190633.0 250760.0 252484.0 45843.0 38771.0 105814.0 97865.0 270462.0 268692.0 88850.0 96959.0 138719.0 138832.0 219294.0 221494.0 159981.0 155476.0 262112.0 261115.0 100102.0 105724.0 176257.0 183114.0 205338.0 203519.0 182844.0 189830.0 89757.0 82210.0 114021.0 112529.0 190251.0 182282.0 110237.0 113779.0 104539.0 101763.0 160498.0 155671.0 0.0 158470.0 0.0 0.0 158470.0 158470.0
223554.0 216221.0 120401.0 115283.0 189257.0 182886.0 208560.0 206844.0 130820.0 136565.0 135524.0 127556.0 217268.0 211139.0 182518.0 186013.0 64459.0 72531.0 132322.0 140267.0 207941.0 206777.0 50865.0 57106.0 124850.0 121060.0 112154.0 111706.0 247775.0 250835.0 77703.0 70508.0 104040.0 100037.0 231534.0 224138.0 88159.0 92214.0 192835.0 192751.0 166018.0 166783.0 197841.0 194778.0 177392.0 172534.0 86491.0 87390.0 261626.0 255959.0 124359.0 128140.0 38758.0 43398.0 63526.0 67000.0 180349.0 172526.0 222342.0 226086.0 218659.0 220823.0 42206.0 49871.0 239442.0 242642.0 191700.0 193544.0 217291.0 211476.0 201470.0 195359.0 206726.0 201399.0 93760.0 86341.0 102177.0 109679.0 85675.0 89876.0 158470.0 0.0 158470.0 158470.0 0.0 0.0
92852.0 84514.0 135648.0 140215.0 89809.0 88942.0 165956.0 170149.0 127471.0 124066.0 88814.0 88170.0 177758.0 169228.0 153675.0 150345.0 192960.0 199086.0 289808.0 297692.0 238750.0 233058.0 209336.0 215192.0 282043.0 277881.0 124185.0 131866.0 284593.0 283373.0 100929.0 104309.0 258629.0 253719.0 250648.0 246410.0 245365.0 249851.0 64505.0 68264.0 183973.0 190633.0 250760.0 252484.0 45843.0 38771.0 105814.0 97865.0 270462.0 268692.0 88850.0 96959.0 138719.0 138832.0 219294.0 221494.0 159981.0 155476.0 262112.0 261115.0 100102.0 105724.0 176257.0 183114.0 205338.0 203519.0 182844.0 189830.0 89757.0 82210.0 114021.0 112529.0 190251.0 182282.0 110237.0 113779.0 104539.0 101763.0 160498.0 155671.0 0.0 158470.0 0.0 0.0 158470.0 158470.0
92852.0 84514.0 135648.0 140215.0 89809.0 88942.0 165956.0 170149.0 127471.0 124066.0 88814.0 88170.0 177758.0 169228.0 153675.0 150345.0 192960.0 199086.0 289808.0 297692.0 238750.0 233058.0 209336.0 215192.0 282043.0 277881.0 124185.0 131866.0 284593.0 283373.0 100929.0 104309.0 258629.0 253719.0 250648.0 246410.0 245365.0 249851.0 64505.0 68264.0 183973.0 190633.0 250760.0 252484.0 45843.0 38771.0 105814.0 97865.0 270462.0 268692.0 88850.0 96959.0 138719.0 138832.0 219294.0 221494.0 159981.0 155476.0 262112.0 261115.0 100102.0 105724.0 176257.0 183114.0 205338.0 203519.0 182844.0 189830.0 89757.0 82210.0 114021.0 112529.0 190251.0 182282.0 110237.0 113779.0 104539.0 101763.0 160498.0 155671.0 0.0 158470.0 0.0 0.0 158470.0 158470.0
223554.0 216221.0 120401.0 115283.0 189257.0 182886.0 208560.0 206844.0 130820.0 136565.0 135524.0 127556.0 217268.0 211139.0 182518.0 186013.0 64459.0 72531.0 132322.0 140267.0 207941.0 206777.0 50865.0 57106.0 124850.0 121060.0 112154.0 111706.0 247775.0 250835.0 77703.0 70508.0 104040.0 100037.0 231534.0 224138.0 88159.0 92214.0 192835.0 192751.0 166018.0 166783.0 197841.0 194778.0 177392.0 172534.0 86491.0 87390.0 261626.0 255959.0 124359.0 128140.0 38758.0 43398.0 63526.0 67000.0 180349.0 172526.0 222342.0 226086.0 218659.0 220823.0 42206.0 49871.0 239442.0 242642.0 191700.0 193544.0 217291.0 211476.0 201470.0 195359.0 206726.0 201399.0 93760.0 86341.0 102177.0 109679.0 85675.0 89876.0 158470.0 0.0 158470.0 158470.0 0.0 0.0
223554.0 216221.0 120401.0 115283.0 189257.0 182886.0 208560.0 206844.0 130820.0 136565.0 135524.0 127556.0 217268.0 211139.0 182518.0 186013.0 64459.0 72531.0 132322.0 140267.0 207941.0 206777.0 50865.0 57106.0 124850.0 121060.0 112154.0 111706.0 247775.0 250835.0 77703.0 70508.0 104040.0 100037.0 231534.0 224138.0 88159.0 92214.0 192835.0 192751.0 166018.0 166783.0 197841.0 194778.0 177392.0 172534.0 86491.0 87390.0 261626.0 255959.0 124359.0 128140.0 38758.0 43398.0 63526.0 67000.0 180349.0 172526.0 222342.0 226086.0 218659.0 220823.0 42206.0 49871.0 239442.0 242642.0 191700.0 193544.0 217291.0 211476.0 201470.0 195359.0 206726.0 201399.0 93760.0 86341.0 102177.0 109679.0 85675.0 89876.0 158470.0 0.0 158470.0 158470.0 0.0 0.0
FIXED_EDGES_SECTION
1 2
3 4
5 6
7 8
9 10
11 12
13 14
15 16
17 18
19 20
21 22
23 24
25 26
27 28
29 30
31 32
33 34
35 36
37 38
39 40
41 42
43 44
45 46
47 48
49 50
51 52
53 54
55 56
57 58
59 60
61 62
63 64
65 66
67 68
69 70
71 72
73 74
75 76
77 78
79 80
-1 
DEMAND_SECTION
1 251
2 251
3 279
4 279
5 57
6 57
7 211
8 211
9 89
10 89
11 277
12 277
13 217
14 217
15 211
16 211
17 84
18 84
19 99
20 99
21 277
22 277
23 114
24 114
25 322
26 322
27 380
28 380
29 120
30 120
31 75
32 75
33 341
34 341
35 258
36 258
37 184
38 184
39 247
40 247
41 112
42 112
43 321
44 321
45 341
46 341
47 373
48 373
49 542
50 542
51 94
52 94
53 399
54 399
55 563
56 563
57 82
58 82
59 234
60 234
61 500
62 500
63 313
64 313
65 68
66 68
67 74
68 74
69 216
70 216
71 497
72 497
73 186
74 186
75 80
76 80
77 432
78 432
79 130
80 130
81 0
82 0
83 0
84 0
85 0
86 0
DEPOT_SECTION
81 
-1 
CAPACITIES_SECTION
10000 
11000 
-1 
EOF