NAME: GFS_20_1
TYPE: GFSP
DIMENSION: 88
VEHICLES: 2
CAPACITY: 10000.0
TRIP_DIST_LIMIT: 750000.0
TOTAL_DIST_LIMIT: 2100000.0
EDGE_WEIGHT_TYPE: EXPLICIT
EDGE_WEIGHT_FORMAT: FULL_MATRIX
EDGE_WEIGHT_SECTION
0.0 8186.0 123552.0 120693.0 173868.0 167962.0 198082.0 199173.0 26650.0 34357.0 67765.0 71604.0 202357.0 209972.0 97650.0 91389.0 32230.0 24302.0 200347.0 195945.0 42562.0 46622.0 114685.0 111805.0 47175.0 47286.0 135400.0 133264.0 142630.0 136142.0 120765.0 113792.0 73724.0 81083.0 87541.0 79521.0 133103.0 135846.0 154181.0 154812.0 65984.0 68525.0 199828.0 200952.0 167864.0 173926.0 153507.0 150165.0 154721.0 154417.0 44251.0 49655.0 62567.0 54647.0 69069.0 61353.0 129127.0 122428.0 177137.0 173522.0 11133.0 15313.0 108044.0 110956.0 230097.0 221923.0 152218.0 153454.0 120256.0 128404.0 125062.0 118851.0 103033.0 96381.0 117993.0 125585.0 38087.0 44517.0 57630.0 65623.0 110802.0 75595.0 110802.0 110802.0 110802.0 75595.0 75595.0 75595.0
8186.0 0.0 131630.0 128832.0 167484.0 161417.0 193388.0 194756.0 31064.0 39039.0 70323.0 74895.0 197377.0 204907.0 102373.0 95767.0 27523.0 20676.0 197558.0 192894.0 36584.0 41578.0 112606.0 110262.0 42722.0 44201.0 143283.0 141013.0 144201.0 138041.0 127999.0 121162.0 70516.0 77531.0 92983.0 85051.0 141257.0 143946.0 161382.0 161801.0 70797.0 74017.0 194879.0 196249.0 161482.0 167707.0 149296.0 146296.0 149010.0 148412.0 36158.0 41469.0 68438.0 60653.0 74634.0 67174.0 134736.0 127855.0 174288.0 170998.0 17067.0 22950.0 109466.0 112925.0 224380.0 216183.0 147664.0 148529.0 124165.0 132332.0 130763.0 124315.0 110289.0 103453.0 120110.0 127847.0 34649.0 40089.0 52341.0 60365.0 118974.0 73098.0 118974.0 118974.0 118974.0 73098.0 73098.0 73098.0
123552.0 131630.0 0.0 7611.0 288684.0 283984.0 276038.0 273774.0 110388.0 105312.0 113519.0 106976.0 308729.0 316614.0 91436.0 95650.0 143121.0 135862.0 255271.0 254623.0 154920.0 153698.0 178590.0 171315.0 151288.0 144741.0 18777.0 23799.0 155142.0 146722.0 40750.0 36449.0 177522.0 185513.0 80736.0 80848.0 13747.0 12542.0 55819.0 62391.0 92376.0 84412.0 306107.0 306316.0 282812.0 287619.0 231141.0 224656.0 247999.0 250805.0 167786.0 172779.0 82742.0 85590.0 83398.0 83827.0 83300.0 84627.0 236035.0 229173.0 116238.0 108950.0 137482.0 132363.0 339686.0 331751.0 257650.0 260365.0 109819.0 113028.0 80004.0 82904.0 42481.0 49403.0 133875.0 135881.0 141688.0 149507.0 173120.0 180059.0 45843.0 177392.0 45843.0 45843.0 45843.0 177392.0 177392.0 177392.0
120693.0 128832.0 7611.0 0.0 283822.0 279260.0 278273.0 276214.0 109017.0 104386.0 114977.0 108757.0 303872.0 311757.0 95213.0 98929.0 141648.0 134167.0 258768.0 257905.0 153548.0 152708.0 180821.0 173686.0 150462.0 144207.0 26267.0 31391.0 159796.0 151327.0 47041.0 41961.0 172664.0 180656.0 83793.0 83207.0 12650.0 15940.0 63430.0 69971.0 93722.0 85836.0 301250.0 301459.0 277978.0 282766.0 233112.0 226773.0 249007.0 251591.0 164933.0 170180.0 83541.0 85706.0 84849.0 84547.0 89320.0 90210.0 239176.0 232443.0 113898.0 106404.0 140848.0 136049.0 334828.0 326894.0 252792.0 255508.0 114661.0 118242.0 85856.0 88295.0 46580.0 52809.0 137914.0 140275.0 140676.0 148584.0 168842.0 175632.0 38771.0 172534.0 38771.0 38771.0 38771.0 172534.0 172534.0 172534.0
173868.0 167484.0 288684.0 283822.0 0.0 8065.0 267939.0 273914.0 198055.0 206003.0 231527.0 237945.0 53055.0 56317.0 268161.0 260896.0 174940.0 176634.0 300987.0 293510.0 169509.0 176671.0 240429.0 243186.0 180687.0 188753.0 303774.0 303189.0 295058.0 291276.0 293735.0 286341.0 112405.0 104859.0 260046.0 252244.0 295123.0 299761.0 327087.0 328269.0 237256.0 241234.0 52203.0 58849.0 6004.0 5370.0 242937.0 245607.0 217274.0 210824.0 137386.0 137604.0 235889.0 228136.0 241905.0 234611.0 301830.0 294724.0 280860.0 282204.0 184448.0 188882.0 262346.0 268324.0 61399.0 53428.0 52757.0 44441.0 287241.0 295263.0 297975.0 291253.0 276053.0 269855.0 275735.0 283700.0 182681.0 179928.0 117218.0 109630.0 269783.0 116178.0 269783.0 269783.0 269783.0 116178.0 116178.0 116178.0
167962.0 161417.0 283984.0 279260.0 8065.0 0.0 259915.0 265874.0 191814.0 199739.0 224716.0 231223.0 60579.0 64144.0 261618.0 254291.0 168109.0 170017.0 292930.0 285449.0 162421.0 169509.0 232672.0 235502.0 173532.0 181657.0 298825.0 298074.0 287645.0 283950.0 288164.0 280845.0 108441.0 101088.0 253728.0 245968.0 290535.0 295192.0 321552.0 322588.0 230852.0 234975.0 59589.0 66024.0 5370.0 12310.0 234884.0 237572.0 209220.0 202780.0 130673.0 130639.0 229740.0 222033.0 235664.0 228451.0 295489.0 288329.0 272824.0 274191.0 178430.0 183062.0 255079.0 261133.0 69235.0 61327.0 54678.0 46250.0 280412.0 288411.0 291674.0 284876.0 270457.0 264144.0 268533.0 276490.0 175749.0 172827.0 111794.0 104360.0 265195.0 112592.0 265195.0 265195.0 265195.0 112592.0 112592.0 112592.0
198082.0 193388.0 276038.0 278273.0 267939.0 259915.0 0.0 8088.0 186817.0 186426.0 164017.0 169665.0 319055.0 323646.0 187272.0 181523.0 166019.0 173782.0 51844.0 44542.0 157321.0 151810.0 97463.0 104749.0 150922.0 151584.0 275293.0 268468.0 141133.0 146543.0 244492.0 243829.0 241626.0 244402.0 195720.0 195201.0 289651.0 287165.0 265113.0 259348.0 185163.0 192826.0 317559.0 322836.0 263910.0 271915.0 45960.0 51607.0 51939.0 57469.0 181445.0 174232.0 196260.0 196426.0 193769.0 195498.0 212555.0 206264.0 51266.0 59230.0 194437.0 201279.0 141534.0 148447.0 326258.0 319152.0 286327.0 281700.0 178638.0 180731.0 212671.0 205587.0 234655.0 227007.0 150048.0 152209.0 160204.0 153580.0 216239.0 220506.0 284593.0 247775.0 284593.0 284593.0 284593.0 247775.0 247775.0 247775.0
199173.0 194756.0 273774.0 276214.0 273914.0 265874.0 8088.0 0.0 186907.0 186171.0 162513.0 167883.0 324751.0 329457.0 184315.0 178807.0 167285.0 174884.0 43951.0 36825.0 159005.0 153213.0 95516.0 102528.0 152119.0 152328.0 272504.0 265569.0 136137.0 141844.0 241479.0 241071.0 244800.0 247801.0 193227.0 193029.0 287435.0 284737.0 261327.0 255404.0 183533.0 191094.0 323215.0 328395.0 269794.0 277816.0 45856.0 50515.0 57028.0 63110.0 184239.0 177170.0 194787.0 195279.0 192019.0 194072.0 208647.0 202519.0 45137.0 53206.0 195101.0 201765.0 138268.0 144948.0 332561.0 325391.0 291243.0 286774.0 174711.0 176493.0 208916.0 201968.0 232118.0 224578.0 146192.0 147989.0 161155.0 154772.0 219370.0 223863.0 283373.0 250835.0 283373.0 283373.0 283373.0 250835.0 250835.0 250835.0
26650.0 31064.0 110388.0 109017.0 198055.0 191814.0 186817.0 186907.0 0.0 7988.0 41849.0 45100.0 228411.0 235956.0 71339.0 64866.0 32741.0 25870.0 183029.0 179392.0 44550.0 44011.0 96609.0 92422.0 42227.0 37483.0 119385.0 116018.0 117246.0 110437.0 100338.0 94173.0 100373.0 107708.0 62052.0 54196.0 121667.0 122929.0 133354.0 133065.0 39735.0 43179.0 225907.0 227205.0 192060.0 198427.0 141106.0 136667.0 148119.0 149153.0 62953.0 65920.0 38070.0 30666.0 43853.0 36752.0 103843.0 96875.0 160189.0 155722.0 15698.0 17477.0 83036.0 85287.0 255367.0 247163.0 178550.0 179545.0 93615.0 101767.0 99937.0 93353.0 82928.0 75463.0 92144.0 99582.0 32049.0 40087.0 83388.0 91414.0 104539.0 102177.0 104539.0 104539.0 104539.0 102177.0 102177.0 102177.0
34357.0 39039.0 105312.0 104386.0 206003.0 199739.0 186426.0 186171.0 7988.0 0.0 35560.0 38004.0 236358.0 243912.0 63412.0 57036.0 38593.0 32553.0 180439.0 177113.0 49980.0 48387.0 94201.0 89480.0 46076.0 40153.0 113448.0 109762.0 110967.0 103940.0 93312.0 87385.0 108040.0 115436.0 54076.0 46241.0 117013.0 117842.0 126142.0 125650.0 31778.0 35237.0 233850.0 235117.0 200009.0 206393.0 140536.0 135731.0 149430.0 150869.0 70567.0 73228.0 30333.0 23194.0 35930.0 28996.0 95869.0 88889.0 157826.0 153038.0 23263.0 23398.0 77139.0 78891.0 263355.0 255151.0 186440.0 187484.0 85949.0 94087.0 91977.0 85370.0 76071.0 68432.0 85580.0 92869.0 36377.0 44216.0 91348.0 99373.0 101763.0 109679.0 101763.0 101763.0 101763.0 109679.0 109679.0 109679.0
67765.0 70323.0 113519.0 114977.0 231527.0 224716.0 164017.0 162513.0 41849.0 35560.0 0.0 8006.0 265899.0 273214.0 39571.0 31524.0 56607.0 55480.0 150849.0 148471.0 63531.0 57709.0 67177.0 60820.0 53825.0 45255.0 116010.0 110317.0 75455.0 68588.0 88636.0 85410.0 140829.0 147839.0 38475.0 34349.0 126827.0 125316.0 117604.0 114827.0 21268.0 29148.0 263473.0 265305.0 225615.0 232513.0 118446.0 112410.0 134667.0 137815.0 94182.0 94223.0 32274.0 33564.0 30147.0 31576.0 75302.0 67541.0 129175.0 123490.0 57312.0 58859.0 41642.0 43443.0 290727.0 282493.0 217097.0 217363.0 55716.0 63764.0 72441.0 64608.0 74714.0 66504.0 50313.0 57831.0 49250.0 53668.0 121567.0 129478.0 120994.0 143177.0 120994.0 120994.0 120994.0 143177.0 143177.0 143177.0
71604.0 74895.0 106976.0 108757.0 237945.0 231223.0 169665.0 167883.0 45100.0 38004.0 8006.0 0.0 271457.0 278841.0 31833.0 23863.0 63258.0 61440.0 154470.0 152455.0 70779.0 65220.0 72369.0 65586.0 61390.0 52842.0 108788.0 102933.0 73746.0 66366.0 80949.0 77960.0 145173.0 152351.0 30566.0 26901.0 120412.0 118599.0 109647.0 106828.0 15938.0 23219.0 269008.0 270680.0 232012.0 238821.0 124360.0 118095.0 141687.0 145022.0 100563.0 100975.0 27674.0 30720.0 24136.0 27254.0 67532.0 59799.0 133245.0 127255.0 60791.0 61344.0 41425.0 41693.0 296825.0 288592.0 222296.0 222792.0 49642.0 57785.0 64586.0 56802.0 67432.0 59278.0 47983.0 55035.0 56277.0 61104.0 126737.0 134703.0 116316.0 147199.0 116316.0 116316.0 116316.0 147199.0 147199.0 147199.0
202357.0 197377.0 308729.0 303872.0 53055.0 60579.0 319055.0 324751.0 228411.0 236358.0 265899.0 271457.0 0.0 8039.0 299747.0 293102.0 210524.0 210465.0 349770.0 342511.0 207357.0 215021.0 284012.0 285871.0 218894.0 226294.0 324172.0 324089.0 334382.0 329741.0 317155.0 309287.0 131290.0 123327.0 289882.0 281845.0 315148.0 319797.0 349997.0 352128.0 268135.0 270870.0 2678.0 8434.0 55915.0 48270.0 291665.0 293727.0 267820.0 261673.0 173149.0 175301.0 264751.0 256770.0 271395.0 263577.0 331334.0 324750.0 328881.0 329614.0 213450.0 216275.0 300482.0 305677.0 37325.0 32114.0 51149.0 48906.0 321078.0 329233.0 327188.0 321162.0 299920.0 294708.0 313111.0 321093.0 218938.0 217675.0 145038.0 137016.0 289808.0 132322.0 289808.0 289808.0 289808.0 132322.0 132322.0 132322.0
209972.0 204907.0 316614.0 311757.0 56317.0 64144.0 323646.0 329457.0 235956.0 243912.0 273214.0 278841.0 8039.0 0.0 307280.0 300591.0 217674.0 217754.0 355138.0 347818.0 214296.0 221923.0 290356.0 292346.0 225816.0 233292.0 332057.0 331973.0 341301.0 336746.0 325061.0 317204.0 139160.0 131188.0 297510.0 289480.0 323032.0 327682.0 357749.0 360033.0 275688.0 278495.0 10717.0 14253.0 59828.0 51915.0 297019.0 299233.0 272612.0 266350.0 180208.0 182187.0 272412.0 264437.0 279029.0 271232.0 339003.0 332388.0 334431.0 335303.0 221053.0 223963.0 307500.0 312774.0 30334.0 26140.0 59099.0 56587.0 328474.0 336624.0 334870.0 328804.0 307806.0 302559.0 320211.0 328197.0 226043.0 224640.0 152569.0 144544.0 297692.0 140267.0 297692.0 297692.0 297692.0 140267.0 140267.0 140267.0
97650.0 102373.0 91436.0 95213.0 268161.0 261618.0 187272.0 184315.0 71339.0 63412.0 39571.0 31833.0 299747.0 307280.0 0.0 8087.0 94355.0 91633.0 163862.0 163374.0 102445.0 97035.0 91044.0 83255.0 93219.0 84674.0 88258.0 81254.0 66326.0 57798.0 57224.0 56937.0 171037.0 178568.0 14443.0 21121.0 105164.0 101434.0 81356.0 77448.0 31667.0 30499.0 297244.0 298528.0 262196.0 268820.0 143891.0 136820.0 165878.0 170101.0 131055.0 132021.0 37620.0 45250.0 30329.0 38448.0 35731.0 27974.0 144996.0 137963.0 86517.0 84833.0 46390.0 40928.0 326312.0 318092.0 249839.0 250884.0 25702.0 33062.0 32976.0 25063.0 48959.0 42441.0 42824.0 46078.0 87802.0 92894.0 154713.0 162738.0 111434.0 172222.0 111434.0 111434.0 111434.0 172222.0 172222.0 172222.0
91389.0 95767.0 95650.0 98929.0 260896.0 254291.0 181523.0 178807.0 64866.0 57036.0 31524.0 23863.0 293102.0 300591.0 8087.0 0.0 86724.0 84275.0 159847.0 159012.0 94594.0 89082.0 84728.0 77056.0 85246.0 76692.0 93772.0 87029.0 65678.0 57284.0 63368.0 62307.0 165006.0 172450.0 15306.0 19198.0 109395.0 106143.0 88826.0 85161.0 25727.0 26318.0 290614.0 292015.0 254941.0 261628.0 137655.0 130722.0 158809.0 162880.0 123651.0 124431.0 33572.0 40667.0 26406.0 34177.0 43794.0 36022.0 140385.0 133554.0 80276.0 79113.0 41919.0 37567.0 319298.0 311072.0 243398.0 244282.0 29516.0 37479.0 41062.0 33147.0 53444.0 46257.0 40777.0 45301.0 80010.0 84965.0 148076.0 156093.0 112936.0 166420.0 112936.0 112936.0 112936.0 166420.0 166420.0 166420.0
32230.0 27523.0 143121.0 141648.0 174940.0 168109.0 166019.0 167285.0 32741.0 38593.0 56607.0 63258.0 210524.0 217674.0 94355.0 86724.0 0.0 8448.0 170481.0 165656.0 12021.0 14403.0 86430.0 84839.0 15200.0 17989.0 151947.0 148350.0 124766.0 119574.0 131558.0 125853.0 91131.0 97110.0 88426.0 81353.0 154296.0 155661.0 164039.0 163067.0 65233.0 70988.0 208159.0 210384.0 169036.0 175983.0 121781.0 118786.0 122591.0 122483.0 37719.0 37723.0 67615.0 61308.0 71872.0 66253.0 129354.0 121855.0 147193.0 144160.0 31199.0 39149.0 90327.0 95199.0 234376.0 226143.0 162842.0 162439.0 112307.0 120323.0 125908.0 118577.0 114509.0 106733.0 102623.0 110596.0 8792.0 12569.0 68563.0 76041.0 135822.0 95068.0 135822.0 135822.0 135822.0 95068.0 95068.0 95068.0
24302.0 20676.0 135862.0 134167.0 176634.0 170017.0 173782.0 174884.0 25870.0 32553.0 55480.0 61440.0 210465.0 217754.0 91633.0 84275.0 8448.0 0.0 176901.0 172283.0 20213.0 22673.0 91985.0 89815.0 22901.0 23529.0 145227.0 141887.0 126547.0 120909.0 125864.0 119879.0 87993.0 94404.0 84585.0 77190.0 146805.0 148391.0 158662.0 158029.0 61401.0 66504.0 208051.0 209986.0 170685.0 177428.0 129247.0 126009.0 130857.0 130841.0 39431.0 41062.0 62483.0 55692.0 67326.0 61124.0 126020.0 118672.0 153637.0 150323.0 22764.0 30739.0 91848.0 96113.0 235389.0 227155.0 161988.0 162022.0 111007.0 119115.0 122402.0 115298.0 108588.0 100983.0 103470.0 111377.0 14016.0 20247.0 66765.0 74530.0 127741.0 91411.0 127741.0 127741.0 127741.0 91411.0 91411.0 91411.0
200347.0 197558.0 255271.0 258768.0 300987.0 292930.0 51844.0 43951.0 183029.0 180439.0 150849.0 154470.0 349770.0 355138.0 163862.0 159847.0 170481.0 176901.0 0.0 8118.0 164775.0 157743.0 86422.0 91022.0 155605.0 153377.0 251231.0 243803.0 105967.0 113140.0 219463.0 220426.0 256317.0 260513.0 175051.0 176618.0 269010.0 265222.0 234961.0 228282.0 170380.0 177146.0 348007.0 352576.0 296366.0 304417.0 58119.0 56481.0 87051.0 94623.0 195047.0 188966.0 182143.0 184399.0 177939.0 181704.0 182437.0 177307.0 23290.0 27441.0 194080.0 199583.0 117930.0 122945.0 361249.0 353718.0 311953.0 308438.0 149204.0 149223.0 183517.0 177450.0 212813.0 206009.0 122106.0 121761.0 162909.0 158108.0 231124.0 236767.0 270462.0 261626.0 270462.0 270462.0 270462.0 261626.0 261626.0 261626.0
195945.0 192894.0 254623.0 257905.0 293510.0 285449.0 44542.0 36825.0 179392.0 177113.0 148471.0 152455.0 342511.0 347818.0 163374.0 159012.0 165656.0 172283.0 8118.0 0.0 159545.0 152660.0 82912.0 88050.0 150666.0 148798.0 251173.0 243840.0 107569.0 114388.0 219503.0 220164.0 250543.0 254588.0 174113.0 175315.0 268370.0 264808.0 236046.0 229539.0 168391.0 175344.0 340770.0 345403.0 288931.0 296984.0 50887.0 49855.0 79047.0 86590.0 189233.0 183005.0 180104.0 182029.0 176167.0 179609.0 183360.0 177971.0 19338.0 25463.0 190009.0 195721.0 117141.0 122580.0 353661.0 346158.0 305120.0 301498.0 149831.0 150290.0 184246.0 177949.0 212241.0 205260.0 122232.0 122418.0 158270.0 153204.0 225273.0 230777.0 268692.0 255959.0 268692.0 268692.0 268692.0 255959.0 255959.0 255959.0
42562.0 36584.0 154920.0 153548.0 169509.0 162421.0 157321.0 159005.0 44550.0 49980.0 63531.0 70779.0 207357.0 214296.0 102445.0 94594.0 12021.0 20213.0 164775.0 159545.0 0.0 7886.0 82959.0 82463.0 11562.0 19246.0 163427.0 159658.0 127025.0 122500.0 142298.0 136825.0 93134.0 98401.0 97681.0 90957.0 166198.0 167462.0 174461.0 173187.0 74692.0 80957.0 205066.0 207687.0 163687.0 170879.0 113959.0 111560.0 112428.0 111915.0 34643.0 32180.0 78139.0 72234.0 81887.0 76784.0 137888.0 130263.0 141519.0 139058.0 42895.0 50909.0 93302.0 98939.0 229697.0 221480.0 160954.0 159937.0 118672.0 126524.0 134634.0 127100.0 125461.0 117570.0 106369.0 114354.0 14850.0 10431.0 69059.0 75951.0 147836.0 97785.0 147836.0 147836.0 147836.0 97785.0 97785.0 97785.0
46622.0 41578.0 153698.0 152708.0 176671.0 169509.0 151810.0 153213.0 44011.0 48387.0 57709.0 65220.0 215021.0 221923.0 97035.0 89082.0 14403.0 22673.0 157743.0 152660.0 7886.0 0.0 75283.0 74644.0 4035.0 12518.0 161379.0 157285.0 119379.0 114984.0 139103.0 133962.0 100833.0 106188.0 93134.0 86745.0 165346.0 166225.0 170819.0 169218.0 70472.0 77156.0 212741.0 215419.0 170879.0 178137.0 107864.0 105139.0 108204.0 108174.0 42499.0 39737.0 74956.0 69617.0 78123.0 73622.0 132661.0 124968.0 134464.0 131816.0 45143.0 52941.0 85844.0 91657.0 237039.0 228830.0 168782.0 167706.0 112277.0 120038.0 129549.0 121892.0 122599.0 114573.0 99073.0 107046.0 12032.0 4367.0 76891.0 83821.0 148365.0 105378.0 148365.0 148365.0 148365.0 105378.0 105378.0 105378.0
114685.0 112606.0 178590.0 180821.0 240429.0 232672.0 97463.0 95516.0 96609.0 94201.0 67177.0 72369.0 284012.0 290356.0 91044.0 84728.0 86430.0 91985.0 86422.0 82912.0 82959.0 75283.0 0.0 7971.0 72422.0 68639.0 178340.0 171725.0 64274.0 65032.0 148069.0 146885.0 176092.0 181291.0 98495.0 97745.0 192192.0 189791.0 171224.0 166278.0 88060.0 95582.0 281920.0 285391.0 235054.0 242843.0 52931.0 46124.0 77090.0 82506.0 116370.0 111747.0 99417.0 100364.0 96505.0 98749.0 120032.0 112985.0 63636.0 59170.0 107881.0 113204.0 47826.0 55781.0 301820.0 293792.0 240665.0 238605.0 87257.0 91519.0 119321.0 111684.0 137417.0 129669.0 59863.0 64956.0 78242.0 74677.0 151847.0 158450.0 188170.0 180652.0 188170.0 188170.0 188170.0 180652.0 180652.0 180652.0
111805.0 110262.0 171315.0 173686.0 243186.0 235502.0 104749.0 102528.0 92422.0 89480.0 60820.0 65586.0 285871.0 292346.0 83255.0 77056.0 84839.0 89815.0 91022.0 88050.0 82463.0 74644.0 7971.0 0.0 71493.0 66869.0 170758.0 164083.0 57928.0 58077.0 140351.0 139291.0 175363.0 180827.0 91005.0 90515.0 184951.0 182416.0 163290.0 158320.0 81409.0 88793.0 283734.0 287023.0 237730.0 245451.0 60640.0 53669.0 85004.0 90338.0 116507.0 112342.0 92910.0 94257.0 89692.0 92301.0 112062.0 105019.0 68712.0 63592.0 104429.0 109347.0 39868.0 47847.0 304526.0 296454.0 241732.0 239941.0 79316.0 83659.0 111358.0 103730.0 129943.0 122261.0 52068.0 57375.0 76383.0 73582.0 151523.0 158352.0 181724.0 179673.0 181724.0 181724.0 181724.0 179673.0 179673.0 179673.0
47175.0 42722.0 151288.0 150462.0 180687.0 173532.0 150922.0 152119.0 42227.0 46076.0 53825.0 61390.0 218894.0 225816.0 93219.0 85246.0 15200.0 22901.0 155605.0 150666.0 11562.0 4035.0 72422.0 71493.0 0.0 8574.0 158627.0 154410.0 115490.0 111035.0 135936.0 130918.0 103874.0 109372.0 89555.0 83278.0 163085.0 163800.0 167483.0 165777.0 67028.0 73842.0 216607.0 219245.0 174891.0 182139.0 106586.0 103599.0 108221.0 108482.0 46180.0 43648.0 71871.0 66766.0 74821.0 70548.0 128875.0 121168.0 132315.0 129474.0 44732.0 52341.0 81874.0 87648.0 241027.0 232817.0 172503.0 171499.0 108275.0 116026.0 125800.0 118114.0 119565.0 111497.0 95067.0 103043.0 10339.0 2658.0 80181.0 87220.0 146755.0 108273.0 146755.0 146755.0 146755.0 108273.0 108273.0 108273.0
47286.0 44201.0 144741.0 144207.0 188753.0 181657.0 151584.0 152328.0 37483.0 40153.0 45255.0 52842.0 226294.0 233292.0 84674.0 76692.0 17989.0 23529.0 153377.0 148798.0 19246.0 12518.0 68639.0 66869.0 8574.0 0.0 151488.0 147071.0 108189.0 103454.0 128153.0 123327.0 109003.0 114849.0 81236.0 75106.0 156791.0 157215.0 159444.0 157601.0 58906.0 65902.0 223980.0 226476.0 182932.0 190121.0 106532.0 102960.0 110904.0 111736.0 53207.0 51358.0 64302.0 59621.0 66896.0 63001.0 120347.0 112632.0 130117.0 126801.0 42858.0 49893.0 74211.0 79725.0 248920.0 240702.0 179403.0 178634.0 99777.0 107557.0 117299.0 109593.0 112000.0 103874.0 87159.0 95147.0 9609.0 8830.0 86018.0 93314.0 141709.0 113029.0 141709.0 141709.0 141709.0 113029.0 113029.0 113029.0
135400.0 143283.0 18777.0 26267.0 303774.0 298825.0 275293.0 272504.0 119385.0 113448.0 116010.0 108788.0 324172.0 332057.0 88258.0 93772.0 151947.0 145227.0 251231.0 251173.0 163427.0 161379.0 178340.0 170758.0 158627.0 151488.0 0.0 7927.0 148345.0 140155.0 31851.0 31470.0 192965.0 200956.0 79936.0 81908.0 25547.0 17873.0 37740.0 44860.0 95612.0 87696.0 321550.0 321759.0 297859.0 302907.0 231251.0 224421.0 250454.0 253793.0 179301.0 183752.0 87568.0 91891.0 86653.0 88803.0 73074.0 75943.0 233044.0 225861.0 127140.0 120347.0 134599.0 128646.0 355129.0 347194.0 273093.0 275808.0 103015.0 104983.0 70489.0 74932.0 41364.0 49518.0 129129.0 130065.0 149529.0 157078.0 187364.0 194553.0 64505.0 192835.0 64505.0 64505.0 64505.0 192835.0 192835.0 192835.0
133264.0 141013.0 23799.0 31391.0 303189.0 298074.0 268468.0 265569.0 116018.0 109762.0 110317.0 102933.0 324089.0 331973.0 81254.0 87029.0 148350.0 141887.0 243803.0 243840.0 159658.0 157285.0 171725.0 164083.0 154410.0 147071.0 7927.0 0.0 140620.0 132462.0 24343.0 25025.0 192881.0 200872.0 73562.0 76036.0 32767.0 25480.0 32115.0 38598.0 90286.0 82457.0 321467.0 321676.0 297249.0 302461.0 224655.0 217750.0 244446.0 247933.0 176840.0 181015.0 82855.0 87668.0 81414.0 84128.0 65163.0 68126.0 225801.0 218566.0 124583.0 118069.0 127494.0 121396.0 354969.0 347070.0 273009.0 275725.0 95343.0 97178.0 62618.0 67189.0 35664.0 43924.0 121702.0 122477.0 145540.0 152956.0 186388.0 193718.0 68264.0 192751.0 68264.0 68264.0 68264.0 192751.0 192751.0 192751.0
142630.0 144201.0 155142.0 159796.0 295058.0 287645.0 141133.0 136137.0 117246.0 110967.0 75455.0 73746.0 334382.0 341301.0 66326.0 65678.0 124766.0 126547.0 105967.0 107569.0 127025.0 119379.0 64274.0 57928.0 115490.0 108189.0 148345.0 140620.0 0.0 8540.0 116577.0 118938.0 214325.0 220911.0 80194.0 84851.0 168610.0 163747.0 129183.0 122370.0 86403.0 90228.0 332090.0 334657.0 289382.0 296837.0 105988.0 98117.0 137236.0 143668.0 161395.0 159115.0 97095.0 102686.0 90617.0 97305.0 77077.0 72700.0 91867.0 83885.0 132531.0 134310.0 34757.0 32111.0 355918.0 347740.0 287512.0 286823.0 45435.0 43832.0 78635.0 73432.0 113264.0 107839.0 25962.0 20386.0 116077.0 116729.0 193127.0 200735.0 177758.0 217268.0 177758.0 177758.0 177758.0 217268.0 217268.0 217268.0
136142.0 138041.0 146722.0 151327.0 291276.0 283950.0 146543.0 141844.0 110437.0 103940.0 68588.0 66366.0 329741.0 336746.0 57798.0 57284.0 119574.0 120909.0 113140.0 114388.0 122500.0 114984.0 65032.0 58077.0 111035.0 103454.0 140155.0 132462.0 8540.0 0.0 108350.0 110571.0 208381.0 215095.0 71708.0 76475.0 160216.0 155425.0 121821.0 115182.0 78522.0 82098.0 327419.0 329835.0 285550.0 292922.0 109749.0 101898.0 139906.0 146072.0 156604.0 154672.0 89034.0 94804.0 82458.0 89286.0 69406.0 64724.0 98104.0 90223.0 125862.0 127329.0 29270.0 25187.0 351927.0 343730.0 282415.0 281931.0 37153.0 36129.0 70760.0 65308.0 104779.0 99312.0 18387.0 12006.0 110977.0 112122.0 187639.0 195329.0 169228.0 211139.0 169228.0 169228.0 169228.0 211139.0 211139.0 211139.0
120765.0 127999.0 40750.0 47041.0 293735.0 288164.0 244492.0 241479.0 100338.0 93312.0 88636.0 80949.0 317155.0 325061.0 57224.0 63368.0 131558.0 125864.0 219463.0 219503.0 142298.0 139103.0 148069.0 140351.0 135936.0 128153.0 31851.0 24343.0 116577.0 108350.0 0.0 8219.0 185951.0 193940.0 50743.0 54388.0 53254.0 47503.0 33423.0 34976.0 69765.0 62338.0 314523.0 314782.0 287746.0 293411.0 200982.0 193981.0 221697.0 225450.0 162851.0 166231.0 64192.0 70265.0 61324.0 65539.0 42605.0 44525.0 201492.0 194239.0 111038.0 105472.0 103295.0 97098.0 347715.0 339678.0 266115.0 268802.0 71199.0 73436.0 39487.0 43257.0 17736.0 24884.0 97360.0 98214.0 127737.0 134737.0 176525.0 184195.0 76270.0 185857.0 76270.0 76270.0 76270.0 185857.0 185857.0 185857.0
113792.0 121162.0 36449.0 41961.0 286341.0 280845.0 243829.0 241071.0 94173.0 87385.0 85410.0 77960.0 309287.0 317204.0 56937.0 62307.0 125853.0 119879.0 220426.0 220164.0 136825.0 133962.0 146885.0 139291.0 130918.0 123327.0 31470.0 25025.0 118938.0 110571.0 8219.0 0.0 178139.0 186131.0 48568.0 51082.0 49712.0 44958.0 40779.0 42940.0 65686.0 57981.0 306749.0 306958.0 280357.0 285951.0 199803.0 192956.0 219422.0 222931.0 156320.0 159926.0 59052.0 64597.0 56945.0 60371.0 47523.0 48268.0 201893.0 194794.0 104291.0 98479.0 103325.0 97585.0 340018.0 331996.0 258291.0 260999.0 73531.0 76581.0 43936.0 46462.0 11368.0 19464.0 98469.0 99972.0 122417.0 129605.0 169124.0 176746.0 68795.0 178033.0 68795.0 68795.0 68795.0 178033.0 178033.0 178033.0
73724.0 70516.0 177522.0 172664.0 112405.0 108441.0 241626.0 244800.0 100373.0 108040.0 140829.0 145173.0 131290.0 139160.0 171037.0 165006.0 91131.0 87993.0 256317.0 250543.0 93134.0 100833.0 176092.0 175363.0 103874.0 109003.0 192965.0 192881.0 214325.0 208381.0 185951.0 178139.0 0.0 7995.0 160129.0 152054.0 183940.0 188589.0 218777.0 220912.0 139437.0 141249.0 128674.0 128981.0 106678.0 110953.0 202205.0 201207.0 191472.0 188292.0 61315.0 67839.0 134764.0 126769.0 141677.0 133664.0 201049.0 194766.0 233256.0 231403.0 84777.0 86323.0 179571.0 183328.0 162168.0 154244.0 80254.0 82861.0 193976.0 202120.0 196802.0 191146.0 168653.0 163424.0 190558.0 198328.0 99886.0 101796.0 25448.0 21799.0 158600.0 7151.0 158600.0 158600.0 158600.0 7151.0 7151.0 7151.0
81083.0 77531.0 185513.0 180656.0 104859.0 101088.0 244402.0 247801.0 107708.0 115436.0 147839.0 152351.0 123327.0 131188.0 178568.0 172450.0 97110.0 94404.0 260513.0 254588.0 98401.0 106188.0 181291.0 180827.0 109372.0 114849.0 200956.0 200872.0 220911.0 215095.0 193940.0 186131.0 7995.0 0.0 167800.0 159725.0 191931.0 196581.0 226771.0 228899.0 146937.0 148888.0 120714.0 121080.0 99180.0 103290.0 205781.0 205055.0 193807.0 190342.0 65563.0 71586.0 142455.0 134458.0 149331.0 141343.0 208813.0 202485.0 237550.0 235922.0 92178.0 93961.0 186176.0 190104.0 154187.0 146271.0 72322.0 74868.0 201322.0 209475.0 204580.0 198868.0 176633.0 171381.0 197371.0 205178.0 105896.0 107389.0 29526.0 23958.0 166591.0 11757.0 166591.0 166591.0 166591.0 11757.0 11757.0 11757.0
87541.0 92983.0 80736.0 83793.0 260046.0 253728.0 195720.0 193227.0 62052.0 54076.0 38475.0 30566.0 289882.0 297510.0 14443.0 15306.0 88426.0 84585.0 175051.0 174113.0 97681.0 93134.0 98495.0 91005.0 89555.0 81236.0 79936.0 73562.0 80194.0 71708.0 50743.0 48568.0 160129.0 167800.0 0.0 8076.0 94463.0 91512.0 79159.0 76635.0 23219.0 19016.0 287347.0 288368.0 254056.0 260465.0 151364.0 144613.0 171032.0 174718.0 123829.0 125569.0 25396.0 33373.0 18495.0 26468.0 41794.0 34895.0 155398.0 148650.0 76485.0 73845.0 57130.0 52863.0 317363.0 309166.0 239579.0 240976.0 39985.0 47032.0 37951.0 31337.0 38938.0 31374.0 55825.0 59831.0 82834.0 88832.0 145097.0 153110.0 97835.0 160920.0 97835.0 97835.0 97835.0 160920.0 160920.0 160920.0
79521.0 85051.0 80848.0 83207.0 252244.0 245968.0 195201.0 193029.0 54196.0 46241.0 34349.0 26901.0 281845.0 289480.0 21121.0 19198.0 81353.0 77190.0 176618.0 175315.0 90957.0 86745.0 97745.0 90515.0 83278.0 75106.0 81908.0 76036.0 84851.0 76475.0 54388.0 51082.0 152054.0 159725.0 8076.0 0.0 94450.0 92178.0 84452.0 82503.0 16283.0 11034.0 279308.0 280312.0 246250.0 252621.0 150330.0 143809.0 168547.0 171922.0 116296.0 118236.0 17331.0 25299.0 10452.0 18392.0 49685.0 42908.0 156386.0 149882.0 68484.0 65773.0 59170.0 55891.0 309421.0 301228.0 231519.0 232939.0 46790.0 54169.0 45742.0 39330.0 40545.0 32430.0 59714.0 64484.0 76114.0 82408.0 137103.0 145113.0 94554.0 152851.0 94554.0 94554.0 94554.0 152851.0 152851.0 152851.0
133103.0 141257.0 13747.0 12650.0 295123.0 290535.0 289651.0 287435.0 121667.0 117013.0 126827.0 120412.0 315148.0 323032.0 105164.0 109395.0 154296.0 146805.0 269010.0 268370.0 166198.0 165346.0 192192.0 184951.0 163085.0 156791.0 25547.0 32767.0 168610.0 160216.0 53254.0 49712.0 183940.0 191931.0 94463.0 94450.0 0.0 8263.0 62922.0 70293.0 105620.0 97684.0 312526.0 312734.0 289269.0 294041.0 244673.0 238232.0 261123.0 263806.0 177320.0 182646.0 95694.0 98112.0 96681.0 96734.0 95830.0 97592.0 249780.0 242920.0 126453.0 118916.0 151229.0 146093.0 346104.0 338169.0 264068.0 266783.0 123230.0 126218.0 92730.0 96025.0 56205.0 63145.0 147551.0 149460.0 153315.0 161216.0 180431.0 187092.0 46895.0 183810.0 46895.0 46895.0 46895.0 183810.0 183810.0 183810.0
135846.0 143946.0 12542.0 15940.0 299761.0 295192.0 287165.0 284737.0 122929.0 117842.0 125316.0 118599.0 319797.0 327682.0 101434.0 106143.0 155661.0 148391.0 265222.0 264808.0 167462.0 166225.0 189791.0 182416.0 163800.0 157215.0 17873.0 25480.0 163747.0 155425.0 47503.0 44958.0 188589.0 196581.0 91512.0 92178.0 8263.0 0.0 54819.0 62296.0 104275.0 96293.0 317175.0 317384.0 293916.0 298691.0 242490.0 235903.0 259925.0 262837.0 180094.0 185163.0 94904.0 97963.0 95269.0 96016.0 89793.0 92028.0 246381.0 239393.0 128671.0 121331.0 147744.0 142293.0 350754.0 342819.0 268718.0 271433.0 118312.0 120893.0 86906.0 90681.0 52699.0 60166.0 143385.0 144919.0 154218.0 162030.0 184689.0 191515.0 53539.0 188460.0 53539.0 53539.0 53539.0 188460.0 188460.0 188460.0
154181.0 161382.0 55819.0 63430.0 327087.0 321552.0 265113.0 261327.0 133354.0 126142.0 117604.0 109647.0 349997.0 357749.0 81356.0 88826.0 164039.0 158662.0 234961.0 236046.0 174461.0 170819.0 171224.0 163290.0 167483.0 159444.0 37740.0 32115.0 129183.0 121821.0 33423.0 40779.0 218777.0 226771.0 79159.0 84452.0 62922.0 54819.0 0.0 8242.0 100549.0 93662.0 347375.0 347584.0 321101.0 326720.0 223491.0 216111.0 247045.0 251404.0 196067.0 199273.0 96426.0 102971.0 92698.0 97788.0 52781.0 58850.0 219114.0 211435.0 144396.0 138891.0 124099.0 116803.0 380746.0 372734.0 298917.0 301633.0 86663.0 85767.0 52442.0 59691.0 51159.0 58012.0 115135.0 113803.0 159747.0 166457.0 209869.0 217509.0 100102.0 218659.0 100102.0 100102.0 100102.0 218659.0 218659.0 218659.0
154812.0 161801.0 62391.0 69971.0 328269.0 322588.0 259348.0 255404.0 133065.0 125650.0 114827.0 106828.0 352128.0 360033.0 77448.0 85161.0 163067.0 158029.0 228282.0 229539.0 173187.0 169218.0 166278.0 158320.0 165777.0 157601.0 44860.0 38598.0 122370.0 115182.0 34976.0 42940.0 220912.0 228899.0 76635.0 82503.0 70293.0 62296.0 8242.0 0.0 98753.0 92230.0 349497.0 349747.0 322273.0 328035.0 218235.0 210779.0 242520.0 247060.0 195976.0 198878.0 95562.0 102465.0 91304.0 96924.0 46796.0 53376.0 212827.0 205087.0 144750.0 139595.0 118833.0 111351.0 382597.0 374547.0 301081.0 303757.0 80714.0 79292.0 46995.0 54607.0 52363.0 58451.0 109301.0 107574.0 158392.0 164872.0 211117.0 218844.0 105724.0 220823.0 105724.0 105724.0 105724.0 220823.0 220823.0 220823.0
65984.0 70797.0 92376.0 93722.0 237256.0 230852.0 185163.0 183533.0 39735.0 31778.0 21268.0 15938.0 268135.0 275688.0 31667.0 25727.0 65233.0 61401.0 170380.0 168391.0 74692.0 70472.0 88060.0 81409.0 67028.0 58906.0 95612.0 90286.0 86403.0 78522.0 69765.0 65686.0 139437.0 146937.0 23219.0 16283.0 105620.0 104275.0 100549.0 98753.0 0.0 7986.0 265627.0 266875.0 231274.0 237776.0 139668.0 133561.0 155653.0 158606.0 100711.0 102358.0 11794.0 16286.0 9017.0 11518.0 64694.0 57477.0 149182.0 143183.0 54851.0 53399.0 56022.0 54996.0 294987.0 286776.0 218176.0 219260.0 55164.0 63185.0 61013.0 54032.0 54637.0 46374.0 60450.0 66703.0 59845.0 66132.0 123122.0 131147.0 100394.0 140747.0 100394.0 100394.0 100394.0 140747.0 140747.0 140747.0
68525.0 74017.0 84412.0 85836.0 241234.0 234975.0 192826.0 191094.0 43179.0 35237.0 29148.0 23219.0 270870.0 278495.0 30499.0 26318.0 70988.0 66504.0 177146.0 175344.0 80957.0 77156.0 95582.0 88793.0 73842.0 65902.0 87696.0 82457.0 90228.0 82098.0 62338.0 57981.0 141249.0 148888.0 19016.0 11034.0 97684.0 96293.0 93662.0 92230.0 7986.0 0.0 268336.0 269376.0 235239.0 241598.0 147417.0 141237.0 163633.0 166591.0 105458.0 107566.0 7257.0 14765.0 1044.0 7961.0 60719.0 53908.0 156194.0 150053.0 57471.0 54930.0 61485.0 59600.0 298389.0 290195.0 220594.0 221965.0 55556.0 63296.0 56768.0 50341.0 46846.0 38590.0 64452.0 70131.0 66171.0 72795.0 126086.0 134099.0 93350.0 142168.0 93350.0 93350.0 93350.0 142168.0 142168.0 142168.0
199828.0 194879.0 306107.0 301250.0 52203.0 59589.0 317559.0 323215.0 225907.0 233850.0 263473.0 269008.0 2678.0 10717.0 297244.0 290614.0 208159.0 208051.0 348007.0 340770.0 205066.0 212741.0 281920.0 283734.0 216607.0 223980.0 321550.0 321467.0 332090.0 327419.0 314523.0 306749.0 128674.0 120714.0 287347.0 279308.0 312526.0 317175.0 347375.0 349497.0 265627.0 268336.0 0.0 7469.0 54816.0 47301.0 289912.0 291922.0 266261.0 260155.0 170819.0 173031.0 262205.0 254222.0 268858.0 261033.0 328784.0 322211.0 327059.0 327744.0 210925.0 213720.0 298157.0 303326.0 39744.0 34295.0 48507.0 46375.0 318623.0 326778.0 324634.0 318621.0 297295.0 292095.0 310758.0 318738.0 216588.0 215373.0 142544.0 134523.0 287186.0 129679.0 287186.0 287186.0 287186.0 129679.0 129679.0 129679.0
200952.0 196249.0 306316.0 301459.0 58849.0 66024.0 322836.0 328395.0 227205.0 235117.0 265305.0 270680.0 8434.0 14253.0 298528.0 292015.0 210384.0 209986.0 352576.0 345403.0 207687.0 215419.0 285391.0 287023.0 219245.0 226476.0 321759.0 321676.0 334657.0 329835.0 314782.0 306958.0 128981.0 121080.0 288368.0 280312.0 312734.0 317384.0 347584.0 349747.0 266875.0 269376.0 7469.0 0.0 61101.0 53812.0 294522.0 296377.0 271398.0 265391.0 173270.0 175787.0 263139.0 255145.0 269873.0 261987.0 329662.0 323187.0 331452.0 331987.0 212074.0 214605.0 300565.0 305582.0 44580.0 40002.0 48819.0 47969.0 320239.0 328402.0 325473.0 319585.0 297509.0 292319.0 313005.0 320974.0 218892.0 217936.0 143995.0 136001.0 287395.0 129575.0 287395.0 287395.0 287395.0 129575.0 129575.0 129575.0
167864.0 161482.0 282812.0 277978.0 6004.0 5370.0 263910.0 269794.0 192060.0 200009.0 225615.0 232012.0 55915.0 59828.0 262196.0 254941.0 169036.0 170685.0 296366.0 288931.0 163687.0 170879.0 235054.0 237730.0 174891.0 182932.0 297859.0 297249.0 289382.0 285550.0 287746.0 280357.0 106678.0 99180.0 254056.0 246250.0 289269.0 293916.0 321101.0 322273.0 231274.0 235239.0 54816.0 61101.0 0.0 8055.0 238281.0 240837.0 213045.0 206686.0 131460.0 131744.0 229889.0 222134.0 235910.0 228611.0 295842.0 288740.0 276089.0 277330.0 178444.0 182879.0 256592.0 262536.0 66796.0 58739.0 49819.0 41402.0 281330.0 289358.0 291983.0 285267.0 270062.0 263856.0 269950.0 277918.0 176805.0 174110.0 111234.0 103659.0 263929.0 110557.0 263929.0 263929.0 263929.0 110557.0 110557.0 110557.0
173926.0 167707.0 287619.0 282766.0 5370.0 12310.0 271915.0 277816.0 198427.0 206393.0 232513.0 238821.0 48270.0 51915.0 268820.0 261628.0 175983.0 177428.0 304417.0 296984.0 170879.0 178137.0 242843.0 245451.0 182139.0 190121.0 302907.0 302461.0 296837.0 292922.0 293411.0 285951.0 110953.0 103290.0 260465.0 252621.0 294041.0 298691.0 326720.0 328035.0 237776.0 241598.0 47301.0 53812.0 8055.0 0.0 246331.0 248874.0 221082.0 214709.0 138331.0 138850.0 236144.0 228348.0 242252.0 234877.0 302259.0 295212.0 284124.0 285347.0 184605.0 188844.0 263915.0 269785.0 59138.0 51018.0 48298.0 40091.0 288225.0 296274.0 298363.0 291721.0 275757.0 269668.0 277206.0 285182.0 183843.0 181308.0 116919.0 109215.0 268701.0 114448.0 268701.0 268701.0 268701.0 114448.0 114448.0 114448.0
153507.0 149296.0 231141.0 233112.0 242937.0 234884.0 45960.0 45856.0 141106.0 140536.0 118446.0 124360.0 291665.0 297019.0 143891.0 137655.0 121781.0 129247.0 58119.0 50887.0 113959.0 107864.0 52931.0 60640.0 106586.0 106532.0 231251.0 224655.0 105988.0 109749.0 200982.0 199803.0 202205.0 205781.0 151364.0 150330.0 244673.0 242490.0 223491.0 218235.0 139668.0 147417.0 289912.0 294522.0 238281.0 246331.0 0.0 7871.0 35042.0 42716.0 141046.0 134371.0 150615.0 150581.0 148379.0 149819.0 171617.0 164861.0 38714.0 42115.0 149268.0 155909.0 99416.0 106923.0 303349.0 295771.0 254388.0 250676.0 138094.0 141291.0 171251.0 163809.0 190255.0 182444.0 109690.0 113183.0 115443.0 109230.0 176782.0 181847.0 238750.0 207941.0 238750.0 238750.0 238750.0 207941.0 207941.0 207941.0
150165.0 146296.0 224656.0 226773.0 245607.0 237572.0 51607.0 50515.0 136667.0 135731.0 112410.0 118095.0 293727.0 299233.0 136820.0 130722.0 118786.0 126009.0 56481.0 49855.0 111560.0 105139.0 46124.0 53669.0 103599.0 102960.0 224421.0 217750.0 98117.0 101898.0 193981.0 192956.0 201207.0 205055.0 144613.0 143809.0 238232.0 235903.0 216111.0 210779.0 133561.0 141237.0 291922.0 296377.0 240837.0 248874.0 7871.0 0.0 41985.0 49488.0 139911.0 133489.0 144657.0 144910.0 142185.0 143900.0 164111.0 157415.0 35253.0 37323.0 145448.0 151877.0 92011.0 99433.0 306293.0 298639.0 255475.0 251998.0 130514.0 133604.0 163812.0 156420.0 183539.0 175792.0 102056.0 105437.0 112086.0 106218.0 175853.0 181185.0 233058.0 206777.0 233058.0 233058.0 233058.0 206777.0 206777.0 206777.0
154721.0 149010.0 247999.0 249007.0 217274.0 209220.0 51939.0 57028.0 148119.0 149430.0 134667.0 141687.0 267820.0 272612.0 165878.0 158809.0 122591.0 130857.0 87051.0 79047.0 112428.0 108204.0 77090.0 85004.0 108221.0 110904.0 250454.0 244446.0 137236.0 139906.0 221697.0 219422.0 191472.0 193807.0 171032.0 168547.0 261123.0 259925.0 247045.0 242520.0 155653.0 163633.0 266261.0 271398.0 213045.0 221082.0 35042.0 41985.0 0.0 7817.0 132499.0 124969.0 165466.0 163810.0 164656.0 164464.0 196732.0 189505.0 71642.0 76306.0 152935.0 160425.0 124837.0 132849.0 276458.0 269158.0 234402.0 229827.0 164309.0 168583.0 195764.0 187968.0 209090.0 200961.0 136867.0 141537.0 118291.0 110815.0 166267.0 170054.0 250760.0 197841.0 250760.0 250760.0 250760.0 197841.0 197841.0 197841.0
154417.0 148412.0 250805.0 251591.0 210824.0 202780.0 57469.0 63110.0 149153.0 150869.0 137815.0 145022.0 261673.0 266350.0 170101.0 162880.0 122483.0 130841.0 94623.0 86590.0 111915.0 108174.0 82506.0 90338.0 108482.0 111736.0 253793.0 247933.0 143668.0 146072.0 225450.0 222931.0 188292.0 190342.0 174718.0 171922.0 263806.0 262837.0 251404.0 247060.0 158606.0 166591.0 260155.0 265391.0 206686.0 214709.0 42716.0 49488.0 7817.0 0.0 130159.0 122501.0 168115.0 166110.0 167623.0 167073.0 201564.0 194247.0 79453.0 84115.0 153192.0 160819.0 130019.0 138096.0 269716.0 262473.0 229091.0 224343.0 169489.0 173997.0 200460.0 192604.0 212449.0 204275.0 142369.0 147283.0 118690.0 111028.0 163249.0 166729.0 252484.0 194778.0 252484.0 252484.0 252484.0 194778.0 194778.0 194778.0
44251.0 36158.0 167786.0 164933.0 137386.0 130673.0 181445.0 184239.0 62953.0 70567.0 94182.0 100563.0 173149.0 180208.0 131055.0 123651.0 37719.0 39431.0 195047.0 189233.0 34643.0 42499.0 116370.0 116507.0 46180.0 53207.0 179301.0 176840.0 161395.0 156604.0 162851.0 156320.0 61315.0 65563.0 123829.0 116296.0 177320.0 180094.0 196067.0 195976.0 100711.0 105458.0 170819.0 173270.0 131460.0 138331.0 141046.0 139911.0 132499.0 130159.0 0.0 7909.0 100899.0 93617.0 106231.0 99560.0 165388.0 158075.0 172032.0 170360.0 52260.0 58988.0 127340.0 132573.0 196658.0 188425.0 126328.0 125432.0 149895.0 157943.0 161721.0 154685.0 145249.0 138064.0 140011.0 147999.0 45879.0 44723.0 36088.0 42171.0 154464.0 66901.0 154464.0 154464.0 154464.0 66901.0 66901.0 66901.0
49655.0 41469.0 172779.0 170180.0 137604.0 130639.0 174232.0 177170.0 65920.0 73228.0 94223.0 100975.0 175301.0 182187.0 132021.0 124431.0 37723.0 41062.0 188966.0 183005.0 32180.0 39737.0 111747.0 112342.0 43648.0 51358.0 183752.0 181015.0 159115.0 154672.0 166231.0 159926.0 67839.0 71586.0 125569.0 118236.0 182646.0 185163.0 199273.0 198878.0 102358.0 107566.0 173031.0 175787.0 131744.0 138850.0 134371.0 133489.0 124969.0 122501.0 7909.0 0.0 103427.0 96417.0 108386.0 102074.0 166829.0 159394.0 166062.0 164641.0 56657.0 63833.0 125482.0 131082.0 197576.0 189355.0 129562.0 128187.0 149848.0 157815.0 163291.0 156072.0 148747.0 141368.0 138517.0 146504.0 45114.0 42591.0 42411.0 47804.0 160365.0 73696.0 160365.0 160365.0 160365.0 73696.0 73696.0 73696.0
62567.0 68438.0 82742.0 83541.0 235889.0 229740.0 196260.0 194787.0 38070.0 30333.0 32274.0 27674.0 264751.0 272412.0 37620.0 33572.0 67615.0 62483.0 182143.0 180104.0 78139.0 74956.0 99417.0 92910.0 71871.0 64302.0 87568.0 82855.0 97095.0 89034.0 64192.0 59052.0 134764.0 142455.0 25396.0 17331.0 95694.0 94904.0 96426.0 95562.0 11794.0 7257.0 262205.0 263139.0 229889.0 236144.0 150615.0 144657.0 165466.0 168115.0 100899.0 103427.0 0.0 7999.0 7295.0 1363.0 66593.0 60055.0 160875.0 154924.0 51634.0 48541.0 67580.0 66141.0 292640.0 284460.0 214333.0 215848.0 62794.0 70506.0 62498.0 56448.0 47708.0 39627.0 71235.0 77095.0 63545.0 70594.0 120197.0 128189.0 88814.0 135524.0 88814.0 88814.0 88814.0 135524.0 135524.0 135524.0
54647.0 60653.0 85590.0 85706.0 228136.0 222033.0 196426.0 195279.0 30666.0 23194.0 33564.0 30720.0 256770.0 264437.0 45250.0 40667.0 61308.0 55692.0 184399.0 182029.0 72234.0 69617.0 100364.0 94257.0 66766.0 59621.0 91891.0 87668.0 102686.0 94804.0 70265.0 64597.0 126769.0 134458.0 33373.0 25299.0 98112.0 97963.0 102971.0 102465.0 16286.0 14765.0 254222.0 255145.0 222134.0 228348.0 150581.0 144910.0 163810.0 166110.0 93617.0 96417.0 7999.0 0.0 15040.0 6914.0 74566.0 68052.0 162727.0 157050.0 43768.0 40544.0 71876.0 71198.0 284740.0 276564.0 206338.0 207869.0 70108.0 77931.0 70450.0 64445.0 53237.0 45425.0 76730.0 82972.0 57915.0 65288.0 112272.0 120258.0 88170.0 127556.0 88170.0 88170.0 88170.0 127556.0 127556.0 127556.0
69069.0 74634.0 83398.0 84849.0 241905.0 235664.0 193769.0 192019.0 43853.0 35930.0 30147.0 24136.0 271395.0 279029.0 30329.0 26406.0 71872.0 67326.0 177939.0 176167.0 81887.0 78123.0 96505.0 89692.0 74821.0 66896.0 86653.0 81414.0 90617.0 82458.0 61324.0 56945.0 141677.0 149331.0 18495.0 10452.0 96681.0 95269.0 92698.0 91304.0 9017.0 1044.0 268858.0 269873.0 235910.0 242252.0 148379.0 142185.0 164656.0 167623.0 106231.0 108386.0 7295.0 15040.0 0.0 8151.0 60113.0 53360.0 157027.0 150864.0 58035.0 55370.0 62114.0 60115.0 298991.0 290800.0 221084.0 222489.0 55523.0 63216.0 56131.0 49782.0 45806.0 37551.0 64882.0 70479.0 67109.0 73761.0 126654.0 134663.0 92538.0 142547.0 92538.0 92538.0 92538.0 142547.0 142547.0 142547.0
61353.0 67174.0 83827.0 84547.0 234611.0 228451.0 195498.0 194072.0 36752.0 28996.0 31576.0 27254.0 263577.0 271232.0 38448.0 34177.0 66253.0 61124.0 181704.0 179609.0 76784.0 73622.0 98749.0 92301.0 70548.0 63001.0 88803.0 84128.0 97305.0 89286.0 65539.0 60371.0 133664.0 141343.0 26468.0 18392.0 96734.0 96016.0 97788.0 96924.0 11518.0 7961.0 261033.0 261987.0 228611.0 234877.0 149819.0 143900.0 164464.0 167073.0 99560.0 102074.0 1363.0 6914.0 8151.0 0.0 67785.0 61200.0 160366.0 154459.0 50398.0 47405.0 67486.0 66212.0 291409.0 283227.0 213185.0 214673.0 63496.0 71253.0 63709.0 57599.0 49023.0 40954.0 71412.0 77369.0 62198.0 69261.0 118980.0 126976.0 89435.0 134468.0 89435.0 89435.0 89435.0 134468.0 134468.0 134468.0
129127.0 134736.0 83300.0 89320.0 301830.0 295489.0 212555.0 208647.0 103843.0 95869.0 75302.0 67532.0 331334.0 339003.0 35731.0 43794.0 129354.0 126020.0 182437.0 183360.0 137888.0 132661.0 120032.0 112062.0 128875.0 120347.0 73074.0 65163.0 77077.0 69406.0 42605.0 47523.0 201049.0 208813.0 41794.0 49685.0 95830.0 89793.0 52781.0 46796.0 64694.0 60719.0 328784.0 329662.0 295842.0 302259.0 171617.0 164111.0 196732.0 201564.0 165388.0 166829.0 66593.0 74566.0 60113.0 67785.0 0.0 7807.0 166338.0 158673.0 118129.0 115072.0 72331.0 64694.0 359104.0 350911.0 280847.0 282434.0 33936.0 33284.0 4510.0 10790.0 46883.0 45962.0 62507.0 61030.0 123151.0 128484.0 186743.0 194746.0 114021.0 201470.0 114021.0 114021.0 114021.0 201470.0 201470.0 201470.0
122428.0 127855.0 84627.0 90210.0 294724.0 288329.0 206264.0 202519.0 96875.0 88889.0 67541.0 59799.0 324750.0 332388.0 27974.0 36022.0 121855.0 118672.0 177307.0 177971.0 130263.0 124968.0 112985.0 105019.0 121168.0 112632.0 75943.0 68126.0 72700.0 64724.0 44525.0 48268.0 194766.0 202485.0 34895.0 42908.0 97592.0 92028.0 58850.0 53376.0 57477.0 53908.0 322211.0 323187.0 288740.0 295212.0 164861.0 157415.0 189505.0 194247.0 158075.0 159394.0 60055.0 68052.0 53360.0 61200.0 7807.0 0.0 160664.0 153092.0 111379.0 108596.0 65457.0 58008.0 352230.0 344029.0 274385.0 275845.0 28141.0 29056.0 6409.0 3633.0 45763.0 43489.0 56347.0 55571.0 115552.0 120805.0 179991.0 188005.0 112529.0 195359.0 112529.0 112529.0 112529.0 195359.0 195359.0 195359.0
177137.0 174288.0 236035.0 239176.0 280860.0 272824.0 51266.0 45137.0 160189.0 157826.0 129175.0 133245.0 328881.0 334431.0 144996.0 140385.0 147193.0 153637.0 23290.0 19338.0 141519.0 134464.0 63636.0 68712.0 132315.0 130117.0 233044.0 225801.0 91867.0 98104.0 201492.0 201893.0 233256.0 237550.0 155398.0 156386.0 249780.0 246381.0 219114.0 212827.0 149182.0 156194.0 327059.0 331452.0 276089.0 284124.0 38714.0 35253.0 71642.0 79453.0 172032.0 166062.0 160875.0 162727.0 157027.0 160366.0 166338.0 160664.0 0.0 8092.0 170996.0 176608.0 98638.0 104407.0 341524.0 333880.0 290090.0 286789.0 132565.0 133554.0 166997.0 160460.0 193737.0 186639.0 104532.0 105311.0 139640.0 134817.0 208119.0 213862.0 249526.0 238506.0 249526.0 249526.0 249526.0 238506.0 238506.0 238506.0
173522.0 170998.0 229173.0 232443.0 282204.0 274191.0 59230.0 53206.0 155722.0 153038.0 123490.0 127255.0 329614.0 335303.0 137963.0 133554.0 144160.0 150323.0 27441.0 25463.0 139058.0 131816.0 59170.0 63592.0 129474.0 126801.0 225861.0 218566.0 83885.0 90223.0 194239.0 194794.0 231403.0 235922.0 148650.0 149882.0 242920.0 239393.0 211435.0 205087.0 143183.0 150053.0 327744.0 331987.0 277330.0 285347.0 42115.0 37323.0 76306.0 84115.0 170360.0 164641.0 154924.0 157050.0 150864.0 154459.0 158673.0 153092.0 8092.0 0.0 167001.0 172374.0 91694.0 97225.0 343091.0 335377.0 289963.0 286881.0 124968.0 125797.0 159406.0 152957.0 186804.0 179804.0 97095.0 97646.0 136381.0 131921.0 206425.0 212376.0 243402.0 236487.0 243402.0 243402.0 243402.0 236487.0 236487.0 236487.0
11133.0 17067.0 116238.0 113898.0 184448.0 178430.0 194437.0 195101.0 15698.0 23263.0 57312.0 60791.0 213450.0 221053.0 86517.0 80276.0 31199.0 22764.0 194080.0 190009.0 42895.0 45143.0 107881.0 104429.0 44732.0 42858.0 127140.0 124583.0 132531.0 125862.0 111038.0 104291.0 84777.0 92178.0 76485.0 68484.0 126453.0 128671.0 144396.0 144750.0 54851.0 57471.0 210925.0 212074.0 178444.0 184605.0 149268.0 145448.0 152935.0 153192.0 52260.0 56657.0 51634.0 43768.0 58035.0 50398.0 118129.0 111379.0 170996.0 167001.0 0.0 8047.0 98115.0 100683.0 241011.0 232829.0 163346.0 164550.0 109203.0 117345.0 114093.0 107810.0 93348.0 86434.0 107622.0 115126.0 34674.0 42167.0 68620.0 76629.0 105814.0 86491.0 105814.0 105814.0 105814.0 86491.0 86491.0 86491.0
15313.0 22950.0 108950.0 106404.0 188882.0 183062.0 201279.0 201765.0 17477.0 23398.0 58859.0 61344.0 216275.0 223963.0 84833.0 79113.0 39149.0 30739.0 199583.0 195721.0 50909.0 52941.0 113204.0 109347.0 52341.0 49893.0 120347.0 118069.0 134310.0 127329.0 105472.0 98479.0 86323.0 93961.0 73845.0 65773.0 118916.0 121331.0 138891.0 139595.0 53399.0 54930.0 213720.0 214605.0 182879.0 188844.0 155909.0 151877.0 160425.0 160819.0 58988.0 63833.0 48541.0 40544.0 55370.0 47405.0 115072.0 108596.0 176608.0 172374.0 8047.0 0.0 100302.0 102257.0 244634.0 236483.0 165796.0 167382.0 108437.0 116512.0 110914.0 104988.0 87738.0 81148.0 108974.0 116264.0 42148.0 49818.0 72173.0 80095.0 97865.0 87390.0 97865.0 97865.0 97865.0 87390.0 87390.0 87390.0
108044.0 109466.0 137482.0 140848.0 262346.0 255079.0 141534.0 138268.0 83036.0 77139.0 41642.0 41425.0 300482.0 307500.0 46390.0 41919.0 90327.0 91848.0 117930.0 117141.0 93302.0 85844.0 47826.0 39868.0 81874.0 74211.0 134599.0 127494.0 34757.0 29270.0 103295.0 103325.0 179571.0 186176.0 57130.0 59170.0 151229.0 147744.0 124099.0 118833.0 56022.0 61485.0 298157.0 300565.0 256592.0 263915.0 99416.0 92011.0 124837.0 130019.0 127340.0 125482.0 67580.0 71876.0 62114.0 67486.0 72331.0 65457.0 98638.0 91694.0 98115.0 100302.0 0.0 8174.0 322868.0 314663.0 253167.0 252662.0 39479.0 44272.0 71841.0 64409.0 95117.0 88133.0 14291.0 21812.0 81714.0 82906.0 158509.0 166164.0 153675.0 182518.0 153675.0 153675.0 153675.0 182518.0 182518.0 182518.0
110956.0 112925.0 132363.0 136049.0 268324.0 261133.0 148447.0 144948.0 85287.0 78891.0 43443.0 41693.0 305677.0 312774.0 40928.0 37567.0 95199.0 96113.0 122945.0 122580.0 98939.0 91657.0 55781.0 47847.0 87648.0 79725.0 128646.0 121396.0 32111.0 25187.0 97098.0 97585.0 183328.0 190104.0 52863.0 55891.0 146093.0 142293.0 116803.0 111351.0 54996.0 59600.0 303326.0 305582.0 262536.0 269785.0 106923.0 99433.0 132849.0 138096.0 132573.0 131082.0 66141.0 71198.0 60115.0 66212.0 64694.0 58008.0 104407.0 97225.0 100683.0 102257.0 8174.0 0.0 328635.0 320419.0 257923.0 257634.0 31479.0 36102.0 64413.0 57164.0 89888.0 83240.0 7440.0 15430.0 86739.0 88509.0 162879.0 170627.0 150345.0 186013.0 150345.0 150345.0 150345.0 186013.0 186013.0 186013.0
230097.0 224380.0 339686.0 334828.0 61399.0 69235.0 326258.0 332561.0 255367.0 263355.0 290727.0 296825.0 37325.0 30334.0 326312.0 319298.0 234376.0 235389.0 361249.0 353661.0 229697.0 237039.0 301820.0 304526.0 241027.0 248920.0 355129.0 354969.0 355918.0 351927.0 347715.0 340018.0 162168.0 154187.0 317363.0 309421.0 346104.0 350754.0 380746.0 382597.0 294987.0 298389.0 39744.0 44580.0 66796.0 59138.0 303349.0 306293.0 276458.0 269716.0 196658.0 197576.0 292640.0 284740.0 298991.0 291409.0 359104.0 352230.0 341524.0 343091.0 241011.0 244634.0 322868.0 328635.0 0.0 8235.0 84356.0 79828.0 346379.0 354469.0 355098.0 348694.0 330239.0 324586.0 336065.0 344049.0 242397.0 240126.0 172497.0 164545.0 320764.0 164164.0 320764.0 320764.0 320764.0 164164.0 164164.0 164164.0
221923.0 216183.0 331751.0 326894.0 53428.0 61327.0 319152.0 325391.0 247163.0 255151.0 282493.0 288592.0 32114.0 26140.0 318092.0 311072.0 226143.0 227155.0 353718.0 346158.0 221480.0 228830.0 293792.0 296454.0 232817.0 240702.0 347194.0 347070.0 347740.0 343730.0 339678.0 331996.0 154244.0 146271.0 309166.0 301228.0 338169.0 342819.0 372734.0 374547.0 286776.0 290195.0 34295.0 40002.0 58739.0 51018.0 295771.0 298639.0 269158.0 262473.0 188425.0 189355.0 284460.0 276564.0 290800.0 283227.0 350911.0 344029.0 333880.0 335377.0 232829.0 236483.0 314663.0 320419.0 8235.0 0.0 76973.0 72147.0 338145.0 346235.0 346911.0 340495.0 322186.0 316503.0 327850.0 335833.0 234167.0 231910.0 164334.0 156390.0 312829.0 156343.0 312829.0 312829.0 312829.0 156343.0 156343.0 156343.0
152218.0 147664.0 257650.0 252792.0 52757.0 54678.0 286327.0 291243.0 178550.0 186440.0 217097.0 222296.0 51149.0 59099.0 249839.0 243398.0 162842.0 161988.0 311953.0 305120.0 160954.0 168782.0 240665.0 241732.0 172503.0 179403.0 273093.0 273009.0 287512.0 282415.0 266115.0 258291.0 80254.0 72322.0 239579.0 231519.0 264068.0 268718.0 298917.0 301081.0 218176.0 220594.0 48507.0 48819.0 49819.0 48298.0 254388.0 255475.0 234402.0 229091.0 126328.0 129562.0 214333.0 206338.0 221084.0 213185.0 280847.0 274385.0 290090.0 289963.0 163346.0 165796.0 253167.0 257923.0 84356.0 76973.0 0.0 8428.0 271776.0 279942.0 276656.0 270781.0 248815.0 243667.0 265321.0 273265.0 171467.0 171032.0 95564.0 87623.0 238728.0 81174.0 238728.0 238728.0 238728.0 81174.0 81174.0 81174.0
153454.0 148529.0 260365.0 255508.0 44441.0 46250.0 281700.0 286774.0 179545.0 187484.0 217363.0 222792.0 48906.0 56587.0 250884.0 244282.0 162439.0 162022.0 308438.0 301498.0 159937.0 167706.0 238605.0 239941.0 171499.0 178634.0 275808.0 275725.0 286823.0 281931.0 268802.0 260999.0 82861.0 74868.0 240976.0 232939.0 266783.0 271433.0 301633.0 303757.0 219260.0 221965.0 46375.0 47969.0 41402.0 40091.0 250676.0 251998.0 229827.0 224343.0 125432.0 128187.0 215848.0 207869.0 222489.0 214673.0 282434.0 275845.0 286789.0 286881.0 164550.0 167382.0 252662.0 257634.0 79828.0 72147.0 8428.0 0.0 272380.0 280540.0 278294.0 272256.0 251469.0 246115.0 265054.0 273021.0 170967.0 170138.0 96206.0 88192.0 241444.0 84457.0 241444.0 241444.0 241444.0 84457.0 84457.0 84457.0
120256.0 124165.0 109819.0 114661.0 287241.0 280412.0 178638.0 174711.0 93615.0 85949.0 55716.0 49642.0 321078.0 328474.0 25702.0 29516.0 112307.0 111007.0 149204.0 149831.0 118672.0 112277.0 87257.0 79316.0 108275.0 99777.0 103015.0 95343.0 45435.0 37153.0 71199.0 73531.0 193976.0 201322.0 39985.0 46790.0 123230.0 118312.0 86663.0 80714.0 55164.0 55556.0 318623.0 320239.0 281330.0 288225.0 138094.0 130514.0 164309.0 169489.0 149895.0 149848.0 62794.0 70108.0 55523.0 63496.0 33936.0 28141.0 132565.0 124968.0 109203.0 108437.0 39479.0 31479.0 346379.0 338145.0 271776.0 272380.0 0.0 8167.0 34438.0 28309.0 68309.0 63515.0 28607.0 27444.0 104764.0 108496.0 176254.0 184240.0 134550.0 195588.0 134550.0 134550.0 134550.0 195588.0 195588.0 195588.0
128404.0 132332.0 113028.0 118242.0 295263.0 288411.0 180731.0 176493.0 101767.0 94087.0 63764.0 57785.0 329233.0 336624.0 33062.0 37479.0 120323.0 119115.0 149223.0 150290.0 126524.0 120038.0 91519.0 83659.0 116026.0 107557.0 104983.0 97178.0 43832.0 36129.0 73436.0 76581.0 202120.0 209475.0 47032.0 54169.0 126218.0 120893.0 85767.0 79292.0 63185.0 63296.0 326778.0 328402.0 289358.0 296274.0 141291.0 133604.0 168583.0 173997.0 157943.0 157815.0 70506.0 77931.0 63216.0 71253.0 33284.0 29056.0 133554.0 125797.0 117345.0 116512.0 44272.0 36102.0 354469.0 346235.0 279942.0 280540.0 8167.0 0.0 34837.0 30217.0 72404.0 68311.0 31768.0 28523.0 112712.0 116305.0 184419.0 192404.0 139846.0 203707.0 139846.0 139846.0 139846.0 203707.0 203707.0 203707.0
125062.0 130763.0 80004.0 85856.0 297975.0 291674.0 212671.0 208916.0 99937.0 91977.0 72441.0 64586.0 327188.0 334870.0 32976.0 41062.0 125908.0 122402.0 183517.0 184246.0 134634.0 129549.0 119321.0 111358.0 125800.0 117299.0 70489.0 62618.0 78635.0 70760.0 39487.0 43936.0 196802.0 204580.0 37951.0 45742.0 92730.0 86906.0 52442.0 46995.0 61013.0 56768.0 324634.0 325473.0 291983.0 298363.0 171251.0 163812.0 195764.0 200460.0 161721.0 163291.0 62498.0 70450.0 56131.0 63709.0 4510.0 6409.0 166997.0 159406.0 114093.0 110914.0 71841.0 64413.0 355098.0 346911.0 276656.0 278294.0 34438.0 34837.0 0.0 8042.0 42730.0 41556.0 62735.0 61829.0 119857.0 125341.0 182689.0 190685.0 109849.0 197172.0 109849.0 109849.0 109849.0 197172.0 197172.0 197172.0
118851.0 124315.0 82904.0 88295.0 291253.0 284876.0 205587.0 201968.0 93353.0 85370.0 64608.0 56802.0 321162.0 328804.0 25063.0 33147.0 118577.0 115298.0 177450.0 177949.0 127100.0 121892.0 111684.0 103730.0 118114.0 109593.0 74932.0 67189.0 73432.0 65308.0 43257.0 46462.0 191146.0 198868.0 31337.0 39330.0 96025.0 90681.0 59691.0 54607.0 54032.0 50341.0 318621.0 319585.0 285267.0 291721.0 163809.0 156420.0 187968.0 192604.0 154685.0 156072.0 56448.0 64445.0 49782.0 57599.0 10790.0 3633.0 160460.0 152957.0 107810.0 104988.0 64409.0 57164.0 348694.0 340495.0 270781.0 272256.0 28309.0 30217.0 8042.0 0.0 43259.0 40549.0 55964.0 55705.0 112361.0 117709.0 176427.0 184439.0 109735.0 191730.0 109735.0 109735.0 109735.0 191730.0 191730.0 191730.0
103033.0 110289.0 42481.0 46580.0 276053.0 270457.0 234655.0 232118.0 82928.0 76071.0 74714.0 67432.0 299920.0 307806.0 48959.0 53444.0 114509.0 108588.0 212813.0 212241.0 125461.0 122599.0 137417.0 129943.0 119565.0 112000.0 41364.0 35664.0 113264.0 104779.0 17736.0 11368.0 168653.0 176633.0 38938.0 40545.0 56205.0 52699.0 51159.0 52363.0 54637.0 46846.0 297295.0 297509.0 270062.0 275757.0 190255.0 183539.0 209090.0 212449.0 145249.0 148747.0 47708.0 53237.0 45806.0 49023.0 46883.0 45763.0 193737.0 186804.0 93348.0 87738.0 95117.0 89888.0 330239.0 322186.0 248815.0 251469.0 68309.0 72404.0 42730.0 43259.0 0.0 8263.0 91445.0 93695.0 111049.0 118243.0 158854.0 166547.0 67138.0 168584.0 67138.0 67138.0 67138.0 168584.0 168584.0 168584.0
96381.0 103453.0 49403.0 52809.0 269855.0 264144.0 227007.0 224578.0 75463.0 68432.0 66504.0 59278.0 294708.0 302559.0 42441.0 46257.0 106733.0 100983.0 206009.0 205260.0 117570.0 114573.0 129669.0 122261.0 111497.0 103874.0 49518.0 43924.0 107839.0 99312.0 24884.0 19464.0 163424.0 171381.0 31374.0 32430.0 63145.0 60166.0 58012.0 58451.0 46374.0 38590.0 292095.0 292319.0 263856.0 269668.0 182444.0 175792.0 200961.0 204275.0 138064.0 141368.0 39627.0 45425.0 37551.0 40954.0 45962.0 43489.0 186639.0 179804.0 86434.0 81148.0 88133.0 83240.0 324586.0 316503.0 243667.0 246115.0 63515.0 68311.0 41556.0 40549.0 8263.0 0.0 85226.0 87959.0 103088.0 110213.0 152756.0 160524.0 69266.0 163413.0 69266.0 69266.0 69266.0 163413.0 163413.0 163413.0
117993.0 120110.0 133875.0 137914.0 275735.0 268533.0 150048.0 146192.0 92144.0 85580.0 50313.0 47983.0 313111.0 320211.0 42824.0 40777.0 102623.0 103470.0 122106.0 122232.0 106369.0 99073.0 59863.0 52068.0 95067.0 87159.0 129129.0 121702.0 25962.0 18387.0 97360.0 98469.0 190558.0 197371.0 55825.0 59714.0 147551.0 143385.0 115135.0 109301.0 60450.0 64452.0 310758.0 313005.0 269950.0 277206.0 109690.0 102056.0 136867.0 142369.0 140011.0 138517.0 71235.0 76730.0 64882.0 71412.0 62507.0 56347.0 104532.0 97095.0 107622.0 108974.0 14291.0 7440.0 336065.0 327850.0 265321.0 265054.0 28607.0 31768.0 62735.0 55964.0 91445.0 85226.0 0.0 7991.0 94173.0 95941.0 170233.0 177994.0 153652.0 193176.0 153652.0 153652.0 153652.0 193176.0 193176.0 193176.0
125585.0 127847.0 135881.0 140275.0 283700.0 276490.0 152209.0 147989.0 99582.0 92869.0 57831.0 55035.0 321093.0 328197.0 46078.0 45301.0 110596.0 111377.0 121761.0 122418.0 114354.0 107046.0 64956.0 57375.0 103043.0 95147.0 130065.0 122477.0 20386.0 12006.0 98214.0 99972.0 198328.0 205178.0 59831.0 64484.0 149460.0 144919.0 113803.0 107574.0 66703.0 70131.0 318738.0 320974.0 277918.0 285182.0 113183.0 105437.0 141537.0 147283.0 147999.0 146504.0 77095.0 82972.0 70479.0 77369.0 61030.0 55571.0 105311.0 97646.0 115126.0 116264.0 21812.0 15430.0 344049.0 335833.0 273265.0 273021.0 27444.0 28523.0 61829.0 55705.0 93695.0 87959.0 7991.0 0.0 102156.0 103926.0 178131.0 185906.0 157491.0 200878.0 157491.0 157491.0 157491.0 200878.0 200878.0 200878.0
38087.0 34649.0 141688.0 140676.0 182681.0 175749.0 160204.0 161155.0 32049.0 36377.0 49250.0 56277.0 218938.0 226043.0 87802.0 80010.0 8792.0 14016.0 162909.0 158270.0 14850.0 12032.0 78242.0 76383.0 10339.0 9609.0 149529.0 145540.0 116077.0 110977.0 127737.0 122417.0 99886.0 105896.0 82834.0 76114.0 153315.0 154218.0 159747.0 158392.0 59845.0 66171.0 216588.0 218892.0 176805.0 183843.0 115443.0 112086.0 118291.0 118690.0 45879.0 45114.0 63545.0 57915.0 67109.0 62198.0 123151.0 115552.0 139640.0 136381.0 34674.0 42148.0 81714.0 86739.0 242397.0 234167.0 171467.0 170967.0 104764.0 112712.0 119857.0 112361.0 111049.0 103088.0 94173.0 102156.0 0.0 8048.0 77345.0 84799.0 136518.0 103757.0 136518.0 136518.0 136518.0 103757.0 103757.0 103757.0
44517.0 40089.0 149507.0 148584.0 179928.0 172827.0 153580.0 154772.0 40087.0 44216.0 53668.0 61104.0 217675.0 224640.0 92894.0 84965.0 12569.0 20247.0 158108.0 153204.0 10431.0 4367.0 74677.0 73582.0 2658.0 8830.0 157078.0 152956.0 116729.0 112122.0 134737.0 129605.0 101796.0 107389.0 88832.0 82408.0 161216.0 162030.0 166457.0 164872.0 66132.0 72795.0 215373.0 217936.0 174110.0 181308.0 109230.0 106218.0 110815.0 111028.0 44723.0 42591.0 70594.0 65288.0 73761.0 69261.0 128484.0 120805.0 134817.0 131921.0 42167.0 49818.0 82906.0 88509.0 240126.0 231910.0 171032.0 170138.0 108496.0 116305.0 125341.0 117709.0 118243.0 110213.0 95941.0 103926.0 8048.0 0.0 78290.0 85416.0 144566.0 106109.0 144566.0 144566.0 144566.0 106109.0 106109.0 106109.0
57630.0 52341.0 173120.0 168842.0 117218.0 111794.0 216239.0 219370.0 83388.0 91348.0 121567.0 126737.0 145038.0 152569.0 154713.0 148076.0 68563.0 66765.0 231124.0 225273.0 69059.0 76891.0 151847.0 151523.0 80181.0 86018.0 187364.0 186388.0 193127.0 187639.0 176525.0 169124.0 25448.0 29526.0 145097.0 137103.0 180431.0 184689.0 209869.0 211117.0 123122.0 126086.0 142544.0 143995.0 111234.0 116919.0 176782.0 175853.0 166267.0 163249.0 36088.0 42411.0 120197.0 112272.0 126654.0 118980.0 186743.0 179991.0 208119.0 206425.0 68620.0 72173.0 158509.0 162879.0 172497.0 164334.0 95564.0 96206.0 176254.0 184419.0 182689.0 176427.0 158854.0 152756.0 170233.0 178131.0 77345.0 78290.0 0.0 8025.0 155178.0 31579.0 155178.0 155178.0 155178.0 31579.0 31579.0 31579.0
65623.0 60365.0 180059.0 175632.0 109630.0 104360.0 220506.0 223863.0 91414.0 99373.0 129478.0 134703.0 137016.0 144544.0 162738.0 156093.0 76041.0 74530.0 236767.0 230777.0 75951.0 83821.0 158450.0 158352.0 87220.0 93314.0 194553.0 193718.0 200735.0 195329.0 184195.0 176746.0 21799.0 23958.0 153110.0 145113.0 187092.0 191515.0 217509.0 218844.0 131147.0 134099.0 134523.0 136001.0 103659.0 109215.0 181847.0 181185.0 170054.0 166729.0 42171.0 47804.0 128189.0 120258.0 134663.0 126976.0 194746.0 188005.0 213862.0 212376.0 76629.0 80095.0 166164.0 170627.0 164545.0 156390.0 87623.0 88192.0 184240.0 192404.0 190685.0 184439.0 166547.0 160524.0 177994.0 185906.0 84799.0 85416.0 8025.0 0.0 161762.0 28701.0 161762.0 161762.0 161762.0 28701.0 28701.0 28701.0
110802.0 118974.0 45843.0 38771.0 269783.0 265195.0 284593.0 283373.0 104539.0 101763.0 120994.0 116316.0 289808.0 297692.0 111434.0 112936.0 135822.0 127741.0 270462.0 268692.0 147836.0 148365.0 188170.0 181724.0 146755.0 141709.0 64505.0 68264.0 177758.0 169228.0 76270.0 68795.0 158600.0 166591.0 97835.0 94554.0 46895.0 53539.0 100102.0 105724.0 100394.0 93350.0 287186.0 287395.0 263929.0 268701.0 238750.0 233058.0 250760.0 252484.0 154464.0 160365.0 88814.0 88170.0 92538.0 89435.0 114021.0 112529.0 249526.0 243402.0 105814.0 97865.0 153675.0 150345.0 320764.0 312829.0 238728.0 241444.0 134550.0 139846.0 109849.0 109735.0 67138.0 69266.0 153652.0 157491.0 136518.0 144566.0 155178.0 161762.0 0.0 158470.0 0.0 0.0 0.0 158470.0 158470.0 158470.0
75595.0 73098.0 177392.0 172534.0 116178.0 112592.0 247775.0 250835.0 102177.0 109679.0 143177.0 147199.0 132322.0 140267.0 172222.0 166420.0 95068.0 91411.0 261626.0 255959.0 97785.0 105378.0 180652.0 179673.0 108273.0 113029.0 192835.0 192751.0 217268.0 211139.0 185857.0 178033.0 7151.0 11757.0 160920.0 152851.0 183810.0 188460.0 218659.0 220823.0 140747.0 142168.0 129679.0 129575.0 110557.0 114448.0 207941.0 206777.0 197841.0 194778.0 66901.0 73696.0 135524.0 127556.0 142547.0 134468.0 201470.0 195359.0 238506.0 236487.0 86491.0 87390.0 182518.0 186013.0 164164.0 156343.0 81174.0 84457.0 195588.0 203707.0 197172.0 191730.0 168584.0 163413.0 193176.0 200878.0 103757.0 106109.0 31579.0 28701.0 158470.0 0.0 158470.0 158470.0 158470.0 0.0 0.0 0.0
110802.0 118974.0 45843.0 38771.0 269783.0 265195.0 284593.0 283373.0 104539.0 101763.0 120994.0 116316.0 289808.0 297692.0 111434.0 112936.0 135822.0 127741.0 270462.0 268692.0 147836.0 148365.0 188170.0 181724.0 146755.0 141709.0 64505.0 68264.0 177758.0 169228.0 76270.0 68795.0 158600.0 166591.0 97835.0 94554.0 46895.0 53539.0 100102.0 105724.0 100394.0 93350.0 287186.0 287395.0 263929.0 268701.0 238750.0 233058.0 250760.0 252484.0 154464.0 160365.0 88814.0 88170.0 92538.0 89435.0 114021.0 112529.0 249526.0 243402.0 105814.0 97865.0 153675.0 150345.0 320764.0 312829.0 238728.0 241444.0 134550.0 139846.0 109849.0 109735.0 67138.0 69266.0 153652.0 157491.0 136518.0 144566.0 155178.0 161762.0 0.0 158470.0 0.0 0.0 0.0 158470.0 158470.0 158470.0
110802.0 118974.0 45843.0 38771.0 269783.0 265195.0 284593.0 283373.0 104539.0 101763.0 120994.0 116316.0 289808.0 297692.0 111434.0 112936.0 135822.0 127741.0 270462.0 268692.0 147836.0 148365.0 188170.0 181724.0 146755.0 141709.0 64505.0 68264.0 177758.0 169228.0 76270.0 68795.0 158600.0 166591.0 97835.0 94554.0 46895.0 53539.0 100102.0 105724.0 100394.0 93350.0 287186.0 287395.0 263929.0 268701.0 238750.0 233058.0 250760.0 252484.0 154464.0 160365.0 88814.0 88170.0 92538.0 89435.0 114021.0 112529.0 249526.0 243402.0 105814.0 97865.0 153675.0 150345.0 320764.0 312829.0 238728.0 241444.0 134550.0 139846.0 109849.0 109735.0 67138.0 69266.0 153652.0 157491.0 136518.0 144566.0 155178.0 161762.0 0.0 158470.0 0.0 0.0 0.0 158470.0 158470.0 158470.0
110802.0 118974.0 45843.0 38771.0 269783.0 265195.0 284593.0 283373.0 104539.0 101763.0 120994.0 116316.0 289808.0 297692.0 111434.0 112936.0 135822.0 127741.0 270462.0 268692.0 147836.0 148365.0 188170.0 181724.0 146755.0 141709.0 64505.0 68264.0 177758.0 169228.0 76270.0 68795.0 158600.0 166591.0 97835.0 94554.0 46895.0 53539.0 100102.0 105724.0 100394.0 93350.0 287186.0 287395.0 263929.0 268701.0 238750.0 233058.0 250760.0 252484.0 154464.0 160365.0 88814.0 88170.0 92538.0 89435.0 114021.0 112529.0 249526.0 243402.0 105814.0 97865.0 153675.0 150345.0 320764.0 312829.0 238728.0 241444.0 134550.0 139846.0 109849.0 109735.0 67138.0 69266.0 153652.0 157491.0 136518.0 144566.0 155178.0 161762.0 0.0 158470.0 0.0 0.0 0.0 158470.0 158470.0 158470.0
75595.0 73098.0 177392.0 172534.0 116178.0 112592.0 247775.0 250835.0 102177.0 109679.0 143177.0 147199.0 132322.0 140267.0 172222.0 166420.0 95068.0 91411.0 261626.0 255959.0 97785.0 105378.0 180652.0 179673.0 108273.0 113029.0 192835.0 192751.0 217268.0 211139.0 185857.0 178033.0 7151.0 11757.0 160920.0 152851.0 183810.0 188460.0 218659.0 220823.0 140747.0 142168.0 129679.0 129575.0 110557.0 114448.0 207941.0 206777.0 197841.0 194778.0 66901.0 73696.0 135524.0 127556.0 142547.0 134468.0 201470.0 195359.0 238506.0 236487.0 86491.0 87390.0 182518.0 186013.0 164164.0 156343.0 81174.0 84457.0 195588.0 203707.0 197172.0 191730.0 168584.0 163413.0 193176.0 200878.0 103757.0 106109.0 31579.0 28701.0 158470.0 0.0 158470.0 158470.0 158470.0 0.0 0.0 0.0
75595.0 73098.0 177392.0 172534.0 116178.0 112592.0 247775.0 250835.0 102177.0 109679.0 143177.0 147199.0 132322.0 140267.0 172222.0 166420.0 95068.0 91411.0 261626.0 255959.0 97785.0 105378.0 180652.0 179673.0 108273.0 113029.0 192835.0 192751.0 217268.0 211139.0 185857.0 178033.0 7151.0 11757.0 160920.0 152851.0 183810.0 188460.0 218659.0 220823.0 140747.0 142168.0 129679.0 129575.0 110557.0 114448.0 207941.0 206777.0 197841.0 194778.0 66901.0 73696.0 135524.0 127556.0 142547.0 134468.0 201470.0 195359.0 238506.0 236487.0 86491.0 87390.0 182518.0 186013.0 164164.0 156343.0 81174.0 84457.0 195588.0 203707.0 197172.0 191730.0 168584.0 163413.0 193176.0 200878.0 103757.0 106109.0 31579.0 28701.0 158470.0 0.0 158470.0 158470.0 158470.0 0.0 0.0 0.0
75595.0 73098.0 177392.0 172534.0 116178.0 112592.0 247775.0 250835.0 102177.0 109679.0 143177.0 147199.0 132322.0 140267.0 172222.0 166420.0 95068.0 91411.0 261626.0 255959.0 97785.0 105378.0 180652.0 179673.0 108273.0 113029.0 192835.0 192751.0 217268.0 211139.0 185857.0 178033.0 7151.0 11757.0 160920.0 152851.0 183810.0 188460.0 218659.0 220823.0 140747.0 142168.0 129679.0 129575.0 110557.0 114448.0 207941.0 206777.0 197841.0 194778.0 66901.0 73696.0 135524.0 127556.0 142547.0 134468.0 201470.0 195359.0 238506.0 236487.0 86491.0 87390.0 182518.0 186013.0 164164.0 156343.0 81174.0 84457.0 195588.0 203707.0 197172.0 191730.0 168584.0 163413.0 193176.0 200878.0 103757.0 106109.0 31579.0 28701.0 158470.0 0.0 158470.0 158470.0 158470.0 0.0 0.0 0.0
FIXED_EDGES_SECTION
1 2
3 4
5 6
7 8
9 10
11 12
13 14
15 16
17 18
19 20
21 22
23 24
25 26
27 28
29 30
31 32
33 34
35 36
37 38
39 40
41 42
43 44
45 46
47 48
49 50
51 52
53 54
55 56
57 58
59 60
61 62
63 64
65 66
67 68
69 70
71 72
73 74
75 76
77 78
79 80
-1 
DEMAND_SECTION
1 324
2 324
3 341
4 341
5 268
6 268
7 120
8 120
9 432
10 432
11 541
12 541
13 99
14 99
15 583
16 583
17 119
18 119
19 542
20 542
21 291
22 291
23 180
24 180
25 271
26 271
27 247
28 247
29 217
30 217
31 493
32 493
33 37
34 37
35 293
36 293
37 292
38 292
39 500
40 500
41 119
42 119
43 60
44 60
45 350
46 350
47 277
48 277
49 321
50 321
51 342
52 342
53 277
54 277
55 171
56 171
57 497
58 497
59 380
60 380
61 373
62 373
63 211
64 211
65 421
66 421
67 534
68 534
69 247
70 247
71 461
72 461
73 155
74 155
75 90
76 90
77 177
78 177
79 371
80 371
81 0
82 0
83 0
84 0
85 0
86 0
87 0
88 0
DEPOT_SECTION
81 
-1 
CAPACITIES_SECTION
10000 
11000 
-1 
EOF