NAME: GFS_20_1
TYPE: GFSP
DIMENSION: 86
VEHICLES: 2
CAPACITY: 10000.0
TRIP_DIST_LIMIT: 750000.0
TOTAL_DIST_LIMIT: 2100000.0
EDGE_WEIGHT_TYPE: EXPLICIT
EDGE_WEIGHT_FORMAT: FULL_MATRIX
EDGE_WEIGHT_SECTION
0.0 8071.0 172375.0 174158.0 39914.0 44550.0 174327.0 168210.0 82116.0 87952.0 111451.0 110225.0 99717.0 107122.0 134627.0 133918.0 155548.0 159928.0 148422.0 142621.0 9847.0 17644.0 21407.0 28923.0 143031.0 135862.0 72345.0 79359.0 196315.0 204077.0 96695.0 103351.0 117001.0 108973.0 195225.0 197840.0 48887.0 55247.0 46183.0 38332.0 84281.0 89278.0 130323.0 126669.0 110790.0 103046.0 104047.0 97241.0 13067.0 5989.0 157985.0 149802.0 136244.0 128428.0 55504.0 63512.0 197519.0 204468.0 194300.0 186089.0 88839.0 83200.0 39115.0 46594.0 133708.0 126023.0 50910.0 50772.0 39960.0 32086.0 158861.0 157053.0 172627.0 176813.0 105279.0 98275.0 196699.0 191436.0 130631.0 133515.0 149818.0 89199.0 149818.0 149818.0 89199.0 89199.0
8071.0 0.0 166835.0 168373.0 34401.0 40002.0 166285.0 160150.0 74625.0 80675.0 119478.0 118289.0 92009.0 99483.0 128540.0 128179.0 148208.0 152445.0 141647.0 136035.0 3303.0 10701.0 14012.0 20999.0 138912.0 131936.0 64336.0 71414.0 189642.0 197372.0 89457.0 96284.0 109362.0 101361.0 202998.0 205533.0 43079.0 48880.0 54178.0 46240.0 90135.0 95495.0 122432.0 118892.0 102932.0 95150.0 112117.0 105308.0 20788.0 12978.0 151765.0 143602.0 131063.0 123175.0 47449.0 55479.0 205307.0 212296.0 201777.0 193584.0 81584.0 76223.0 31077.0 38526.0 141776.0 134092.0 48880.0 49879.0 31900.0 24108.0 153449.0 151934.0 168717.0 172619.0 97723.0 90846.0 190354.0 185272.0 137464.0 140576.0 145762.0 94711.0 145762.0 145762.0 94711.0 94711.0
172375.0 166835.0 0.0 7456.0 132540.0 128113.0 121220.0 124098.0 103803.0 95817.0 256564.0 259284.0 98096.0 91901.0 40743.0 38906.0 187695.0 183978.0 44834.0 42906.0 168235.0 166803.0 164297.0 157570.0 248499.0 245662.0 124715.0 117853.0 45599.0 51655.0 88534.0 80545.0 160114.0 159188.0 319745.0 319954.0 123757.0 118459.0 211028.0 205594.0 191159.0 199150.0 150012.0 156135.0 99703.0 104659.0 255644.0 251710.0 184372.0 178364.0 24808.0 29663.0 37057.0 44365.0 136552.0 130723.0 322367.0 330251.0 313401.0 305233.0 94786.0 95891.0 150461.0 144609.0 280750.0 274365.0 128212.0 132974.0 148853.0 155308.0 13903.0 18831.0 274649.0 273738.0 90224.0 91250.0 35920.0 27475.0 241895.0 247751.0 57108.0 191029.0 57108.0 57108.0 191029.0 191029.0
174158.0 168373.0 7456.0 0.0 134249.0 130191.0 114982.0 118130.0 103185.0 95228.0 260661.0 263212.0 96180.0 89627.0 40547.0 40243.0 183164.0 179218.0 40611.0 39944.0 169642.0 167873.0 165228.0 158263.0 245878.0 243256.0 123800.0 116698.0 38363.0 44657.0 87567.0 79515.0 156710.0 156126.0 324283.0 324492.0 125347.0 119699.0 213721.0 208075.0 195697.0 203689.0 145926.0 152272.0 96841.0 102227.0 259422.0 255313.0 186354.0 180142.0 20997.0 27424.0 40667.0 47369.0 136333.0 130188.0 326905.0 334790.0 317939.0 309772.0 94188.0 95921.0 150787.0 144675.0 284895.0 278414.0 131236.0 136267.0 149178.0 155891.0 18404.0 24764.0 271624.0 270513.0 88209.0 89878.0 29382.0 21190.0 246434.0 252290.0 63495.0 195567.0 63495.0 63495.0 195567.0 195567.0
39914.0 34401.0 132540.0 134249.0 0.0 7938.0 144860.0 139776.0 47404.0 51514.0 140984.0 141305.0 66183.0 72671.0 94773.0 94011.0 144332.0 146860.0 109413.0 103268.0 36096.0 36379.0 35100.0 31671.0 155306.0 149308.0 46303.0 50713.0 157012.0 164820.0 59795.0 65544.0 103513.0 96341.0 218769.0 220256.0 9096.0 16448.0 82350.0 75611.0 94573.0 101673.0 111816.0 110506.0 78704.0 71872.0 135961.0 130141.0 52319.0 45894.0 118193.0 110003.0 96663.0 88779.0 35202.0 39936.0 221249.0 228724.0 214629.0 206462.0 52246.0 45442.0 31650.0 32837.0 164689.0 157292.0 24737.0 30262.0 30708.0 31289.0 119095.0 117533.0 185326.0 187962.0 70180.0 62459.0 156982.0 151596.0 145771.0 150517.0 112043.0 96878.0 112043.0 112043.0 96878.0 96878.0
44550.0 40002.0 128113.0 130191.0 7938.0 0.0 147280.0 142534.0 49230.0 52221.0 140481.0 141220.0 68017.0 73961.0 91378.0 89989.0 150492.0 152749.0 107363.0 100840.0 42083.0 43282.0 42357.0 39449.0 163200.0 157226.0 51257.0 54771.0 154477.0 162323.0 59989.0 64976.0 109639.0 102655.0 216412.0 217646.0 9723.0 17487.0 84484.0 78254.0 90654.0 98001.0 117064.0 116164.0 80884.0 74513.0 136155.0 130673.0 56264.0 50515.0 114928.0 106740.0 91759.0 83989.0 41863.0 45753.0 218925.0 226497.0 211725.0 203558.0 52832.0 45391.0 39549.0 40378.0 164432.0 157158.0 17487.0 23688.0 38573.0 39180.0 114500.0 112534.0 193211.0 195804.0 71201.0 63254.0 153813.0 148120.0 142094.0 147153.0 105770.0 92464.0 105770.0 105770.0 92464.0 92464.0
174327.0 166285.0 121220.0 114982.0 144860.0 147280.0 0.0 8126.0 98071.0 96223.0 284526.0 284020.0 79391.0 74362.0 100692.0 109030.0 83725.0 77010.0 80265.0 86600.0 165288.0 158942.0 154942.0 146438.0 167153.0 167893.0 102055.0 95496.0 94648.0 97329.0 90261.0 88942.0 80701.0 86073.0 363575.0 364912.0 137708.0 129800.0 220431.0 212357.0 237358.0 244926.0 61690.0 69797.0 66405.0 72989.0 278095.0 271489.0 186878.0 178887.0 98148.0 97782.0 121595.0 119490.0 118847.0 110818.0 366068.0 373571.0 358991.0 350824.0 95864.0 103979.0 135891.0 128079.0 307561.0 299952.0 160716.0 167908.0 134802.0 143141.0 120426.0 127123.0 185364.0 181668.0 77634.0 85657.0 106609.0 110230.0 288839.0 294210.0 154576.0 238386.0 154576.0 154576.0 238386.0 238386.0
168210.0 160150.0 124098.0 118130.0 139776.0 142534.0 8126.0 0.0 93486.0 92205.0 278796.0 278139.0 75048.0 70618.0 101108.0 109398.0 76301.0 69807.0 81840.0 87647.0 159051.0 152558.0 148543.0 140082.0 159137.0 159822.0 96137.0 89864.0 99948.0 103071.0 86774.0 86136.0 72622.0 78084.0 358541.0 360008.0 132892.0 125051.0 214223.0 206091.0 232923.0 240415.0 53581.0 61679.0 61935.0 68026.0 272136.0 265440.0 180648.0 172650.0 100446.0 99429.0 122064.0 119445.0 112708.0 104777.0 361016.0 368468.0 354230.0 346063.0 91922.0 100071.0 129546.0 121788.0 301675.0 294041.0 156455.0 163650.0 128504.0 136788.0 122424.0 128879.0 177608.0 174016.0 74024.0 81929.0 111530.0 114681.0 284421.0 289649.0 154719.0 234156.0 154719.0 154719.0 234156.0 234156.0
82116.0 74625.0 103803.0 103185.0 47404.0 49230.0 98071.0 93486.0 0.0 7986.0 188325.0 188485.0 18826.0 25384.0 63060.0 66194.0 113096.0 113457.0 69765.0 65686.0 74692.0 70472.0 67028.0 58906.0 150327.0 146283.0 21268.0 15938.0 117641.0 125126.0 16095.0 24024.0 74135.0 69332.0 265627.0 266875.0 39735.0 31778.0 127620.0 120188.0 139437.0 146937.0 75387.0 76917.0 31667.0 25727.0 182988.0 176932.0 95182.0 87580.0 83708.0 76078.0 74447.0 66942.0 33574.0 27007.0 268135.0 275688.0 260920.0 252753.0 9017.0 11518.0 49731.0 42668.0 211928.0 204479.0 63105.0 70287.0 48172.0 55988.0 92376.0 93722.0 178685.0 179287.0 23219.0 16283.0 120350.0 116619.0 190936.0 196192.0 100394.0 140747.0 100394.0 100394.0 140747.0 140747.0
87952.0 80675.0 95817.0 95228.0 51514.0 52221.0 96223.0 92205.0 7986.0 0.0 192381.0 192806.0 17468.0 21973.0 55075.0 58263.0 117336.0 117208.0 62338.0 57981.0 80957.0 77156.0 73842.0 65902.0 157655.0 153749.0 29148.0 23219.0 110349.0 117900.0 8818.0 16358.0 79308.0 75032.0 268336.0 269376.0 43179.0 35237.0 132962.0 125722.0 141249.0 148888.0 78888.0 81132.0 30499.0 26318.0 187474.0 181610.0 101003.0 93556.0 75844.0 68167.0 66734.0 59327.0 41333.0 34962.0 270870.0 278495.0 263225.0 255057.0 1044.0 7961.0 57061.0 50216.0 216166.0 208789.0 64538.0 71722.0 55480.0 63084.0 84412.0 85836.0 185805.0 186240.0 19016.0 11034.0 112737.0 108861.0 192692.0 198190.0 93350.0 142168.0 93350.0 93350.0 142168.0 142168.0
111451.0 119478.0 256564.0 260661.0 140984.0 140481.0 284526.0 278796.0 188325.0 192381.0 0.0 7469.0 207010.0 213647.0 226561.0 222840.0 263911.0 269076.0 245775.0 238524.0 121110.0 128439.0 132428.0 140342.0 229470.0 221457.0 182675.0 189031.0 290809.0 298656.0 200405.0 205409.0 227214.0 219125.0 87382.0 91543.0 149212.0 157144.0 67821.0 76222.0 70330.0 63927.0 241499.0 237428.0 219204.0 211943.0 13028.0 20470.0 100071.0 107872.0 249639.0 241756.0 219994.0 213615.0 166435.0 174155.0 89340.0 95434.0 92764.0 84692.0 193065.0 185836.0 150555.0 157920.0 24302.0 17897.0 132361.0 126157.0 151355.0 143531.0 242769.0 238309.0 255067.0 261379.0 211156.0 203380.0 287766.0 280851.0 59167.0 54433.0 224357.0 75676.0 224357.0 224357.0 75676.0 75676.0
110225.0 118289.0 259284.0 263212.0 141305.0 141220.0 284020.0 278139.0 188485.0 192806.0 7469.0 0.0 207068.0 213855.0 228487.0 225005.0 261246.0 266575.0 247263.0 240132.0 119742.0 126887.0 130903.0 138984.0 224679.0 216655.0 182013.0 188560.0 292739.0 300598.0 200963.0 206195.0 225084.0 216995.0 91704.0 96258.0 149721.0 157598.0 65473.0 73906.0 75135.0 69134.0 239761.0 235477.0 219084.0 211704.0 7123.0 15136.0 98424.0 106330.0 251700.0 243754.0 222555.0 216023.0 165540.0 173378.0 93533.0 99264.0 98389.0 90427.0 193520.0 186445.0 149317.0 156812.0 23540.0 15995.0 133946.0 127956.0 150185.0 142212.0 245447.0 241166.0 249903.0 256321.0 211458.0 203764.0 290017.0 283229.0 66595.0 61902.0 227389.0 80817.0 227389.0 227389.0 80817.0 80817.0
99717.0 92009.0 98096.0 96180.0 66183.0 68017.0 79391.0 75048.0 18826.0 17468.0 207010.0 207068.0 0.0 7924.0 58454.0 63704.0 102715.0 101917.0 58734.0 56589.0 91774.0 86869.0 83191.0 74764.0 150875.0 147738.0 31013.0 23022.0 105084.0 112221.0 15059.0 20182.0 66793.0 63820.0 284428.0 285644.0 58556.0 50591.0 145588.0 137986.0 157982.0 165537.0 63595.0 66826.0 13130.0 9610.0 201498.0 195340.0 112741.0 104984.0 75556.0 68795.0 74242.0 67735.0 47409.0 39477.0 286940.0 294501.0 279643.0 271475.0 17385.0 25430.0 64825.0 57157.0 230539.0 223062.0 81416.0 88611.0 63375.0 71640.0 88378.0 91209.0 177900.0 177648.0 8031.0 9617.0 109464.0 106834.0 209472.0 214819.0 103862.0 159119.0 103862.0 103862.0 159119.0 159119.0
107122.0 99483.0 91901.0 89627.0 72671.0 73961.0 74362.0 70618.0 25384.0 21973.0 213647.0 213855.0 7924.0 0.0 53065.0 58961.0 104549.0 103140.0 51406.0 49787.0 99334.0 94571.0 90927.0 82533.0 156641.0 153763.0 38933.0 30938.0 97331.0 104419.0 16293.0 18113.0 70476.0 68277.0 290248.0 291323.0 64702.0 56715.0 152850.0 145328.0 163216.0 170860.0 65170.0 69249.0 10919.0 12870.0 208372.0 202313.0 120169.0 112460.0 68824.0 62373.0 70148.0 64141.0 55294.0 47391.0 292776.0 300385.0 285190.0 277023.0 21545.0 29626.0 72661.0 65026.0 237289.0 229849.0 86497.0 93676.0 71199.0 79430.0 82783.0 86080.0 183202.0 182680.0 3612.0 11317.0 101966.0 99559.0 214649.0 220162.0 100912.0 164086.0 100912.0 100912.0 164086.0 164086.0
134627.0 128540.0 40743.0 40547.0 94773.0 91378.0 100692.0 101108.0 63060.0 55075.0 226561.0 228487.0 58454.0 53065.0 0.0 8344.0 154465.0 151830.0 23743.0 15610.0 129659.0 127594.0 124862.0 117787.0 209329.0 206145.0 84009.0 77257.0 64256.0 72112.0 47900.0 39985.0 123150.0 121307.0 293207.0 293416.0 85746.0 79686.0 175701.0 169627.0 164620.0 172613.0 115485.0 120694.0 62171.0 65928.0 224202.0 219543.0 147082.0 140586.0 23574.0 15417.0 20956.0 19599.0 95919.0 89989.0 295829.0 303714.0 286863.0 278696.0 54043.0 55393.0 110241.0 104155.0 250862.0 244052.0 94742.0 100535.0 108631.0 115380.0 29951.0 33059.0 236205.0 235742.0 50880.0 50930.0 62465.0 56824.0 215358.0 221214.0 53939.0 164492.0 53939.0 53939.0 164492.0 164492.0
133918.0 128179.0 38906.0 40243.0 94011.0 89989.0 109030.0 109398.0 66194.0 58263.0 222840.0 225005.0 63704.0 58961.0 8344.0 0.0 161604.0 159174.0 31510.0 23577.0 129496.0 127929.0 125398.0 118671.0 214335.0 210915.0 87410.0 81078.0 68372.0 76137.0 51886.0 44309.0 129388.0 127187.0 288295.0 288504.0 85127.0 79624.0 173797.0 168007.0 159709.0 167701.0 122461.0 127418.0 68588.0 71725.0 220916.0 216488.0 146117.0 139902.0 26974.0 19598.0 12705.0 11791.0 98204.0 92778.0 290917.0 298802.0 281951.0 273784.0 57263.0 57467.0 111676.0 105990.0 247137.0 240444.0 91838.0 97267.0 110070.0 116430.0 26362.0 27718.0 241591.0 241341.0 56473.0 55526.0 65047.0 58606.0 210446.0 216302.0 45598.0 159580.0 45598.0 45598.0 159580.0 159580.0
155548.0 148208.0 187695.0 183164.0 144332.0 150492.0 83725.0 76301.0 113096.0 117336.0 263911.0 261246.0 102715.0 104549.0 154465.0 161604.0 0.0 8160.0 142862.0 145677.0 145758.0 137906.0 134240.0 127772.0 88027.0 90684.0 100339.0 99617.0 172984.0 177161.0 117715.0 122312.0 40853.0 48073.0 349924.0 352914.0 141584.0 135826.0 196092.0 187703.0 236025.0 242249.0 39388.0 36216.0 93910.0 93191.0 254417.0 246750.0 164982.0 157722.0 162887.0 159051.0 173638.0 168266.0 109230.0 104755.0 352126.0 358782.0 349823.0 341599.0 117772.0 124210.0 119325.0 113991.0 283841.0 276118.0 167773.0 174177.0 119189.0 125095.0 182031.0 186885.0 102427.0 98245.0 107781.0 112331.0 183241.0 184793.0 285277.0 288688.0 205338.0 239442.0 205338.0 205338.0 239442.0 239442.0
159928.0 152445.0 183978.0 179218.0 146860.0 152749.0 77010.0 69807.0 113457.0 117208.0 269076.0 266575.0 101917.0 103140.0 151830.0 159174.0 8160.0 0.0 139182.0 142394.0 150101.0 142293.0 138547.0 131791.0 96140.0 98842.0 102023.0 100666.0 167637.0 171577.0 116974.0 121112.0 43622.0 51345.0 354745.0 357605.0 143646.0 137582.0 201270.0 192857.0 239423.0 245798.0 38364.0 36891.0 92337.0 92319.0 259796.0 252187.0 169730.0 162340.0 159189.0 155692.0 171387.0 166296.0 111985.0 107026.0 356975.0 363711.0 354211.0 346009.0 117577.0 124338.0 122996.0 117309.0 289312.0 281576.0 169878.0 176425.0 122763.0 129011.0 178831.0 183923.0 110016.0 105619.0 106487.0 111517.0 178191.0 180044.0 289077.0 292670.0 203519.0 242642.0 203519.0 203519.0 242642.0 242642.0
148422.0 141647.0 44834.0 40611.0 109413.0 107363.0 80265.0 81840.0 69765.0 62338.0 245775.0 247263.0 58734.0 51406.0 23743.0 31510.0 142862.0 139182.0 0.0 8219.0 142298.0 139103.0 135936.0 128153.0 206078.0 203756.0 88636.0 80949.0 48100.0 55760.0 53694.0 46013.0 116252.0 115953.0 314523.0 314782.0 100338.0 93312.0 191646.0 185023.0 185951.0 193940.0 105341.0 111661.0 57224.0 63368.0 242630.0 237552.0 161285.0 154247.0 20025.0 17589.0 43029.0 43208.0 103248.0 96142.0 317155.0 325061.0 308229.0 300062.0 61324.0 65539.0 119393.0 112432.0 270021.0 263018.0 113414.0 119727.0 117815.0 125387.0 40750.0 47041.0 231373.0 230110.0 50743.0 54388.0 50867.0 48153.0 236724.0 242580.0 76270.0 185857.0 76270.0 76270.0 185857.0 185857.0
142621.0 136035.0 42906.0 39944.0 103268.0 100840.0 86600.0 87647.0 65686.0 57981.0 238524.0 240132.0 56589.0 49787.0 15610.0 23577.0 145677.0 142394.0 8219.0 0.0 136825.0 133962.0 130918.0 123327.0 205945.0 203316.0 85410.0 77960.0 53744.0 61555.0 49626.0 41667.0 117209.0 116342.0 306749.0 306958.0 94173.0 87385.0 185279.0 178808.0 178139.0 186131.0 107474.0 113397.0 56937.0 62307.0 235593.0 230629.0 155386.0 148496.0 19041.0 13428.0 35505.0 35168.0 99257.0 92480.0 309287.0 317204.0 300405.0 292238.0 56945.0 60371.0 114910.0 108191.0 262793.0 255840.0 106198.0 112390.0 113316.0 120662.0 36449.0 41961.0 231833.0 230855.0 48568.0 51082.0 54824.0 50956.0 228899.0 234756.0 68795.0 178033.0 68795.0 68795.0 178033.0 178033.0
9847.0 3303.0 168235.0 169642.0 36096.0 42083.0 165288.0 159051.0 74692.0 80957.0 121110.0 119742.0 91774.0 99334.0 129659.0 129496.0 145758.0 150101.0 142298.0 136825.0 0.0 7886.0 11562.0 19246.0 135629.0 128644.0 63531.0 70779.0 190346.0 198050.0 89763.0 96737.0 107154.0 99127.0 205066.0 207687.0 44550.0 49980.0 55172.0 47070.0 93134.0 98401.0 120539.0 116836.0 102445.0 94594.0 113480.0 106556.0 21597.0 13601.0 152789.0 144641.0 132661.0 124745.0 46469.0 54598.0 207357.0 214296.0 204117.0 195910.0 81887.0 76784.0 29618.0 37272.0 143187.0 135482.0 51677.0 52894.0 30572.0 22472.0 154920.0 153548.0 165425.0 169342.0 97681.0 90957.0 191281.0 186315.0 140161.0 143167.0 147836.0 97785.0 147836.0 147836.0 97785.0 97785.0
17644.0 10701.0 166803.0 167873.0 36379.0 43282.0 158942.0 152558.0 70472.0 77156.0 128439.0 126887.0 86869.0 94571.0 127594.0 127929.0 137906.0 142293.0 139103.0 133962.0 7886.0 0.0 4035.0 12518.0 128936.0 122087.0 57709.0 65220.0 187203.0 194842.0 85970.0 93232.0 99433.0 91391.0 212741.0 215419.0 44011.0 48387.0 61903.0 53643.0 100833.0 106188.0 113078.0 109229.0 97035.0 89082.0 120531.0 113480.0 28468.0 20573.0 150443.0 142350.0 131823.0 123851.0 40479.0 48705.0 215021.0 221923.0 211943.0 203731.0 78123.0 73622.0 23061.0 30926.0 150270.0 142548.0 55059.0 57166.0 24220.0 15813.0 153698.0 152708.0 158837.0 162571.0 93134.0 86745.0 188652.0 183967.0 148040.0 151053.0 148365.0 105378.0 148365.0 148365.0 105378.0 105378.0
21407.0 14012.0 164297.0 165228.0 35100.0 42357.0 154942.0 148543.0 67028.0 73842.0 132428.0 130903.0 83191.0 90927.0 124862.0 125398.0 134240.0 138547.0 135936.0 130918.0 11562.0 4035.0 0.0 8574.0 127135.0 120410.0 53825.0 61390.0 184032.0 191645.0 82644.0 89997.0 95595.0 87566.0 216607.0 219245.0 42227.0 46076.0 65938.0 57677.0 103874.0 109372.0 109111.0 105318.0 93219.0 85246.0 124555.0 117512.0 32491.0 24578.0 147582.0 139517.0 129597.0 121610.0 36583.0 44816.0 218894.0 225816.0 215666.0 207462.0 74821.0 70548.0 19087.0 26973.0 154293.0 146572.0 55161.0 57754.0 20287.0 11854.0 151288.0 150462.0 157106.0 160676.0 89555.0 83278.0 185665.0 181088.0 151470.0 154584.0 146755.0 108273.0 146755.0 146755.0 108273.0 108273.0
28923.0 20999.0 157570.0 158263.0 31671.0 39449.0 146438.0 140082.0 58906.0 65902.0 140342.0 138984.0 74764.0 82533.0 117787.0 118671.0 127772.0 131791.0 128153.0 123327.0 19246.0 12518.0 8574.0 0.0 125789.0 119384.0 45255.0 52842.0 176220.0 183794.0 74672.0 82153.0 88537.0 80576.0 223980.0 226476.0 37483.0 40153.0 74249.0 66043.0 109003.0 114849.0 101433.0 97931.0 84674.0 76692.0 132706.0 125741.0 40702.0 32721.0 140272.0 132257.0 123410.0 115410.0 28010.0 36245.0 226294.0 233292.0 222552.0 214377.0 66896.0 63001.0 10548.0 18410.0 162421.0 154713.0 54148.0 57730.0 11714.0 3298.0 144741.0 144207.0 155850.0 159027.0 81236.0 75106.0 178132.0 173727.0 157533.0 160928.0 141709.0 113029.0 141709.0 141709.0 113029.0 113029.0
143031.0 138912.0 248499.0 245878.0 155306.0 163200.0 167153.0 159137.0 150327.0 157655.0 229470.0 224679.0 150875.0 156641.0 209329.0 214335.0 88027.0 96140.0 206078.0 205945.0 135629.0 128936.0 127135.0 125789.0 0.0 8030.0 129699.0 134474.0 245843.0 251443.0 162720.0 170053.0 91657.0 90432.0 316347.0 320907.0 157846.0 156158.0 166961.0 159896.0 226040.0 229985.0 107800.0 99785.0 149052.0 143844.0 217565.0 209562.0 146002.0 141731.0 224904.0 218885.0 224045.0 216867.0 126112.0 127582.0 318115.0 323506.0 321777.0 313569.0 158540.0 161219.0 123656.0 123713.0 244111.0 236938.0 179428.0 183465.0 124636.0 125027.0 239243.0 241984.0 30066.0 33796.0 158525.0 158814.0 253761.0 253178.0 267273.0 268271.0 250648.0 231534.0 250648.0 250648.0 231534.0 231534.0
135862.0 131936.0 245662.0 243256.0 149308.0 157226.0 167893.0 159822.0 146283.0 153749.0 221457.0 216655.0 147738.0 153763.0 206145.0 210915.0 90684.0 98842.0 203756.0 203316.0 128644.0 122087.0 120410.0 119384.0 8030.0 0.0 125422.0 130531.0 244439.0 250213.0 159132.0 166606.0 90705.0 88785.0 308320.0 312886.0 152160.0 150767.0 159095.0 152081.0 218583.0 222439.0 107642.0 99522.0 146575.0 141052.0 209541.0 201539.0 138535.0 134416.0 222325.0 216119.0 220348.0 213059.0 120967.0 122848.0 310087.0 315476.0 313786.0 305581.0 154658.0 156996.0 117686.0 118108.0 236082.0 228908.0 173243.0 177111.0 118722.0 118751.0 236091.0 238613.0 36784.0 41251.0 155498.0 155408.0 252015.0 251169.0 259495.0 260436.0 246410.0 224138.0 246410.0 246410.0 224138.0 224138.0
72345.0 64336.0 124715.0 123800.0 46303.0 51257.0 102055.0 96137.0 21268.0 29148.0 182675.0 182013.0 31013.0 38933.0 84009.0 87410.0 100339.0 102023.0 88636.0 85410.0 63531.0 57709.0 53825.0 45255.0 129699.0 125422.0 0.0 8006.0 135761.0 143006.0 36237.0 44285.0 59738.0 53548.0 263473.0 265305.0 41849.0 35560.0 118514.0 110540.0 140829.0 147839.0 65814.0 65214.0 39571.0 31524.0 176049.0 169437.0 85046.0 77087.0 103900.0 96501.0 95688.0 88136.0 17247.0 9010.0 265899.0 273214.0 260088.0 251921.0 30147.0 31576.0 34867.0 26981.0 205551.0 197927.0 68031.0 74758.0 33563.0 41999.0 113519.0 114977.0 158416.0 159350.0 38475.0 34349.0 139500.0 136298.0 191889.0 196438.0 120994.0 143177.0 120994.0 120994.0 143177.0 143177.0
79359.0 71414.0 117853.0 116698.0 50713.0 54771.0 95496.0 89864.0 15938.0 23219.0 189031.0 188560.0 23022.0 30938.0 77257.0 81078.0 99617.0 100666.0 80949.0 77960.0 70779.0 65220.0 61390.0 52842.0 134474.0 130531.0 8006.0 0.0 127897.0 135109.0 29358.0 37308.0 59701.0 54305.0 269008.0 270680.0 45100.0 38004.0 125536.0 117654.0 145173.0 152351.0 63407.0 63793.0 31833.0 23863.0 182695.0 176198.0 92186.0 84268.0 96595.0 89325.0 89912.0 82542.0 24938.0 16766.0 271457.0 278841.0 265228.0 257060.0 24136.0 27254.0 42569.0 34731.0 212099.0 204508.0 70823.0 77777.0 41211.0 49619.0 106976.0 108757.0 162759.0 163350.0 30566.0 26901.0 131814.0 128758.0 196460.0 201228.0 116316.0 147199.0 116316.0 116316.0 147199.0 147199.0
196315.0 189642.0 45599.0 38363.0 157012.0 154477.0 94648.0 99948.0 117641.0 110349.0 290809.0 292739.0 105084.0 97331.0 64256.0 68372.0 172984.0 167637.0 48100.0 53744.0 190346.0 187203.0 184032.0 176220.0 245843.0 244439.0 135761.0 127897.0 0.0 7871.0 101638.0 94068.0 154249.0 155655.0 356644.0 356853.0 147917.0 141102.0 238953.0 232535.0 228058.0 236050.0 139774.0 147237.0 100812.0 108036.0 288422.0 283685.0 209110.0 202172.0 41398.0 49089.0 74009.0 78764.0 150957.0 143625.0 359266.0 367151.0 350300.0 342133.0 109345.0 113624.0 167353.0 160278.0 315110.0 308308.0 158922.0 164784.0 165784.0 173430.0 55327.0 62510.0 269001.0 266764.0 97337.0 101913.0 13306.0 20429.0 278794.0 284651.0 101167.0 227928.0 101167.0 101167.0 227928.0 227928.0
204077.0 197372.0 51655.0 44657.0 164820.0 162323.0 97329.0 103071.0 125126.0 117900.0 298656.0 300598.0 112221.0 104419.0 72112.0 76137.0 177161.0 171577.0 55760.0 61555.0 198050.0 194842.0 191645.0 183794.0 251443.0 250213.0 143006.0 135109.0 7871.0 0.0 109162.0 101654.0 159790.0 161470.0 364372.0 364581.0 155725.0 148879.0 246794.0 240359.0 235786.0 243778.0 144832.0 152426.0 107517.0 114871.0 296288.0 291555.0 216888.0 209926.0 49167.0 56916.0 81486.0 86413.0 158359.0 150959.0 366994.0 374879.0 358028.0 349861.0 116901.0 121299.0 174854.0 167728.0 322958.0 316162.0 166790.0 172644.0 173290.0 180983.0 62179.0 69185.0 274172.0 271762.0 104544.0 109306.0 16595.0 24950.0 286523.0 292379.0 107939.0 235656.0 107939.0 107939.0 235656.0 235656.0
96695.0 89457.0 88534.0 87567.0 59795.0 59989.0 90261.0 86774.0 16095.0 8818.0 200405.0 200963.0 15059.0 16293.0 47900.0 51886.0 117715.0 116974.0 53694.0 49626.0 89763.0 85970.0 82644.0 74672.0 162720.0 159132.0 36237.0 29358.0 101638.0 109162.0 0.0 8061.0 81185.0 77680.0 275524.0 276422.0 51243.0 43395.0 141558.0 134378.0 147932.0 155656.0 78646.0 81741.0 26525.0 24666.0 195711.0 189936.0 109738.0 102322.0 67807.0 60303.0 61349.0 54351.0 49660.0 42888.0 278073.0 285744.0 270155.0 261988.0 7877.0 14606.0 65720.0 58746.0 224272.0 216934.0 71267.0 78395.0 64148.0 71829.0 77639.0 79603.0 190395.0 190501.0 12777.0 5523.0 104256.0 100576.0 199262.0 204930.0 89706.0 148561.0 89706.0 89706.0 148561.0 148561.0
103351.0 96284.0 80545.0 79515.0 65544.0 64976.0 88942.0 86136.0 24024.0 16358.0 205409.0 206195.0 20182.0 18113.0 39985.0 44309.0 122312.0 121112.0 46013.0 41667.0 96737.0 93232.0 89997.0 82153.0 170053.0 166606.0 44285.0 37308.0 94068.0 101654.0 8061.0 0.0 86969.0 83945.0 279223.0 279928.0 56726.0 49103.0 147733.0 140717.0 151117.0 158931.0 82993.0 86683.0 29032.0 29297.0 201091.0 195486.0 116348.0 109062.0 59757.0 52243.0 54290.0 47611.0 57591.0 50919.0 281792.0 289521.0 273534.0 265366.0 15333.0 20211.0 73412.0 66564.0 229400.0 222134.0 74850.0 81853.0 71828.0 79375.0 69819.0 72012.0 197488.0 197428.0 14648.0 11261.0 96387.0 92594.0 202271.0 208096.0 83699.0 151405.0 83699.0 83699.0 151405.0 151405.0
117001.0 109362.0 160114.0 156710.0 103513.0 109639.0 80701.0 72622.0 74135.0 79308.0 227214.0 225084.0 66793.0 70476.0 123150.0 129388.0 40853.0 43622.0 116252.0 117209.0 107154.0 99433.0 95595.0 88537.0 91657.0 90705.0 59738.0 59701.0 154249.0 159790.0 81185.0 86969.0 0.0 8090.0 312168.0 314840.0 100751.0 95100.0 159614.0 151180.0 195803.0 202198.0 19246.0 11796.0 60990.0 57908.0 218440.0 210996.0 127331.0 119748.0 135761.0 130534.0 140598.0 134385.0 68479.0 63905.0 314439.0 321302.0 311089.0 302911.0 79887.0 85549.0 79498.0 73695.0 248119.0 240368.0 126928.0 133324.0 79218.0 85672.0 152365.0 156200.0 115341.0 113867.0 73200.0 76144.0 162478.0 162323.0 245552.0 249239.0 170653.0 199028.0 170653.0 170653.0 199028.0 199028.0
108973.0 101361.0 159188.0 156126.0 96341.0 102655.0 86073.0 78084.0 69332.0 75032.0 219125.0 216995.0 63820.0 68277.0 121307.0 127187.0 48073.0 51345.0 115953.0 116342.0 99127.0 91391.0 87566.0 80576.0 90432.0 88785.0 53548.0 54305.0 155655.0 161470.0 77680.0 83945.0 8090.0 0.0 304115.0 306807.0 93938.0 88567.0 151524.0 143090.0 188134.0 194468.0 25785.0 19244.0 59520.0 55464.0 210353.0 202913.0 119254.0 111682.0 135131.0 129530.0 138032.0 131546.0 61188.0 57050.0 306383.0 313237.0 303115.0 294931.0 75685.0 80836.0 71655.0 66023.0 240034.0 232283.0 120027.0 126313.0 71419.0 77741.0 150856.0 154347.0 115500.0 114591.0 70725.0 72878.0 163346.0 162768.0 237736.0 241364.0 167380.0 191448.0 167380.0 167380.0 191448.0 191448.0
195225.0 202998.0 319745.0 324283.0 218769.0 216412.0 363575.0 358541.0 265627.0 268336.0 87382.0 91704.0 284428.0 290248.0 293207.0 288295.0 349924.0 354745.0 314523.0 306749.0 205066.0 212741.0 216607.0 223980.0 316347.0 308320.0 263473.0 269008.0 356644.0 364372.0 275524.0 279223.0 312168.0 304115.0 0.0 7469.0 225907.0 233850.0 154361.0 162617.0 128674.0 120714.0 325340.0 321884.0 297244.0 290614.0 98826.0 106838.0 185014.0 192459.0 315255.0 307774.0 283821.0 278087.0 248295.0 255494.0 2678.0 10717.0 22567.0 22884.0 268858.0 261033.0 233713.0 240588.0 73415.0 79983.0 204393.0 197370.0 234303.0 227017.0 306107.0 301250.0 341256.0 347795.0 287347.0 279308.0 352269.0 344936.0 80262.0 72997.0 287186.0 129679.0 287186.0 287186.0 129679.0 129679.0
197840.0 205533.0 319954.0 324492.0 220256.0 217646.0 364912.0 360008.0 266875.0 269376.0 91543.0 96258.0 285644.0 291323.0 293416.0 288504.0 352914.0 357605.0 314782.0 306958.0 207687.0 215419.0 219245.0 226476.0 320907.0 312886.0 265305.0 270680.0 356853.0 364581.0 276422.0 279928.0 314840.0 306807.0 7469.0 0.0 227205.0 235117.0 157845.0 166022.0 128981.0 121080.0 327702.0 324407.0 298528.0 292015.0 103361.0 111353.0 187932.0 195266.0 315464.0 307983.0 284030.0 278296.0 250363.0 257445.0 8434.0 14253.0 16121.0 18508.0 269873.0 261987.0 236079.0 242835.0 78967.0 85255.0 205189.0 198112.0 236624.0 229471.0 306316.0 301459.0 346107.0 352566.0 288368.0 280312.0 352478.0 345145.0 79626.0 72546.0 287395.0 129575.0 287395.0 287395.0 129575.0 129575.0
48887.0 43079.0 123757.0 125347.0 9096.0 9723.0 137708.0 132892.0 39735.0 43179.0 149212.0 149721.0 58556.0 64702.0 85746.0 85127.0 141584.0 143646.0 100338.0 94173.0 44550.0 44011.0 42227.0 37483.0 157846.0 152160.0 41849.0 45100.0 147917.0 155725.0 51243.0 56726.0 100751.0 93938.0 225907.0 227205.0 0.0 7988.0 91370.0 84686.0 100373.0 107708.0 107650.0 106953.0 71339.0 64866.0 144488.0 138789.0 61382.0 54854.0 109139.0 100950.0 88127.0 80200.0 33917.0 36889.0 228411.0 235956.0 221342.0 213175.0 43853.0 36752.0 35046.0 34155.0 173038.0 165693.0 26233.0 32911.0 33800.0 36415.0 110388.0 109017.0 187741.0 190014.0 62052.0 54196.0 147910.0 142562.0 151806.0 156837.0 104539.0 102177.0 104539.0 104539.0 102177.0 102177.0
55247.0 48880.0 118459.0 119699.0 16448.0 17487.0 129800.0 125051.0 31778.0 35237.0 157144.0 157598.0 50591.0 56715.0 79686.0 79624.0 135826.0 137582.0 93312.0 87385.0 49980.0 48387.0 46076.0 40153.0 156158.0 150767.0 35560.0 38004.0 141102.0 148879.0 43395.0 49103.0 95100.0 88567.0 233850.0 235117.0 7988.0 0.0 98700.0 91831.0 108040.0 115436.0 101081.0 100760.0 63412.0 57036.0 152318.0 146553.0 68009.0 61145.0 102886.0 94722.0 83522.0 75534.0 30448.0 31809.0 236358.0 243912.0 229212.0 221044.0 35930.0 28996.0 35615.0 32939.0 180939.0 173576.0 32820.0 39792.0 34169.0 38485.0 105312.0 104386.0 185876.0 187827.0 54076.0 46241.0 141507.0 136393.0 159509.0 164619.0 101763.0 109679.0 101763.0 101763.0 109679.0 109679.0
46183.0 54178.0 211028.0 213721.0 82350.0 84484.0 220431.0 214223.0 127620.0 132962.0 67821.0 65473.0 145588.0 152850.0 175701.0 173797.0 196092.0 201270.0 191646.0 185279.0 55172.0 61903.0 65938.0 74249.0 166961.0 159095.0 118514.0 125536.0 238953.0 246794.0 141558.0 147733.0 159614.0 151524.0 154361.0 157845.0 91370.0 98700.0 0.0 8434.0 68158.0 69096.0 174385.0 170017.0 156885.0 149187.0 58889.0 51645.0 33578.0 41577.0 199274.0 191100.0 174069.0 166669.0 101585.0 109651.0 156469.0 162907.0 156563.0 148284.0 133792.0 127536.0 84738.0 92442.0 88629.0 80883.0 83051.0 79175.0 85735.0 77527.0 197191.0 194292.0 194461.0 200049.0 150839.0 143580.0 238166.0 232268.0 100857.0 101394.0 183483.0 75084.0 183483.0 183483.0 75084.0 75084.0
38332.0 46240.0 205594.0 208075.0 75611.0 78254.0 212357.0 206091.0 120188.0 125722.0 76222.0 73906.0 137986.0 145328.0 169627.0 168007.0 187703.0 192857.0 185023.0 178808.0 47070.0 53643.0 57677.0 66043.0 159896.0 152081.0 110540.0 117654.0 232535.0 240359.0 134378.0 140717.0 151180.0 143090.0 162617.0 166022.0 84686.0 91831.0 8434.0 0.0 71795.0 73559.0 165978.0 161589.0 149123.0 141372.0 67311.0 60027.0 25497.0 33475.0 193181.0 184994.0 168749.0 161237.0 93534.0 101640.0 164743.0 171224.0 164495.0 156213.0 126573.0 120506.0 76558.0 84305.0 97044.0 89297.0 78186.0 74870.0 77588.0 69330.0 191808.0 189150.0 187719.0 193154.0 143395.0 136240.0 232068.0 226329.0 107468.0 108390.0 179018.0 78498.0 179018.0 179018.0 78498.0 78498.0
84281.0 90135.0 191159.0 195697.0 94573.0 90654.0 237358.0 232923.0 139437.0 141249.0 70330.0 75135.0 157982.0 163216.0 164620.0 159709.0 236025.0 239423.0 185951.0 178139.0 93134.0 100833.0 103874.0 109003.0 226040.0 218583.0 140829.0 145173.0 228058.0 235786.0 147932.0 151117.0 195803.0 188134.0 128674.0 128981.0 100373.0 108040.0 68158.0 71795.0 0.0 7995.0 205868.0 203898.0 171037.0 165006.0 74070.0 73664.0 80048.0 84613.0 186669.0 179188.0 155235.0 149501.0 127897.0 133928.0 131290.0 139160.0 122474.0 114307.0 141677.0 133664.0 116760.0 122118.0 93181.0 87963.0 76725.0 69560.0 116845.0 111381.0 177522.0 172664.0 255101.0 259800.0 160129.0 152054.0 223683.0 216351.0 51499.0 57003.0 158600.0 7151.0 158600.0 158600.0 7151.0 7151.0
89278.0 95495.0 199150.0 203689.0 101673.0 98001.0 244926.0 240415.0 146937.0 148888.0 63927.0 69134.0 165537.0 170860.0 172613.0 167701.0 242249.0 245798.0 193940.0 186131.0 98401.0 106188.0 109372.0 114849.0 229985.0 222439.0 147839.0 152351.0 236050.0 243778.0 155656.0 158931.0 202198.0 194468.0 120714.0 121080.0 107708.0 115436.0 69096.0 73559.0 7995.0 0.0 212626.0 210488.0 178568.0 172450.0 68620.0 68904.0 84094.0 89168.0 194661.0 187173.0 163227.0 157493.0 134571.0 140777.0 123327.0 131188.0 114611.0 106444.0 149331.0 141343.0 122924.0 128512.0 86271.0 81340.0 84406.0 77262.0 123076.0 117334.0 185513.0 180656.0 258809.0 263687.0 167800.0 159725.0 231675.0 224342.0 44114.0 49302.0 166591.0 11757.0 166591.0 166591.0 11757.0 11757.0
130323.0 122432.0 150012.0 145926.0 111816.0 117064.0 61690.0 53581.0 75387.0 78888.0 241499.0 239761.0 63595.0 65170.0 115485.0 122461.0 39388.0 38364.0 105341.0 107474.0 120539.0 113078.0 109111.0 101433.0 107800.0 107642.0 65814.0 63407.0 139774.0 144832.0 78646.0 82993.0 19246.0 25785.0 325340.0 327702.0 107650.0 101081.0 174385.0 165978.0 205868.0 212626.0 0.0 8186.0 54524.0 54013.0 233266.0 225995.0 141435.0 133633.0 125277.0 120900.0 134385.0 128915.0 78085.0 71995.0 327672.0 334708.0 323299.0 315129.0 79240.0 86106.0 91633.0 84936.0 263012.0 255267.0 133780.0 140560.0 91078.0 98351.0 143586.0 148153.0 129351.0 126990.0 68426.0 73206.0 148881.0 149494.0 256445.0 260573.0 165956.0 208560.0 165956.0 165956.0 208560.0 208560.0
126669.0 118892.0 156135.0 152272.0 110506.0 116164.0 69797.0 61679.0 76917.0 81132.0 237428.0 235477.0 66826.0 69249.0 120694.0 127418.0 36216.0 36891.0 111661.0 113397.0 116836.0 109229.0 105318.0 97931.0 99785.0 99522.0 65214.0 63793.0 147237.0 152426.0 81741.0 86683.0 11796.0 19244.0 321884.0 324407.0 106953.0 100760.0 170017.0 161589.0 203898.0 210488.0 8186.0 0.0 58946.0 57409.0 228897.0 221528.0 137393.0 129695.0 131493.0 126818.0 139106.0 133347.0 76030.0 70574.0 324185.0 331131.0 320304.0 312160.0 81578.0 87998.0 88468.0 82166.0 258616.0 250865.0 133180.0 139804.0 88043.0 94946.0 149247.0 153563.0 121770.0 119617.0 72326.0 76420.0 156104.0 156490.0 254109.0 258024.0 170149.0 206844.0 170149.0 170149.0 206844.0 206844.0
110790.0 102932.0 99703.0 96841.0 78704.0 80884.0 66405.0 61935.0 31667.0 30499.0 219204.0 219084.0 13130.0 10919.0 62171.0 68588.0 93910.0 92337.0 57224.0 56937.0 102445.0 97035.0 93219.0 84674.0 149052.0 146575.0 39571.0 31833.0 100812.0 107517.0 26525.0 29032.0 60990.0 59520.0 297244.0 298528.0 71339.0 63412.0 156885.0 149123.0 171037.0 178568.0 54524.0 58946.0 0.0 8087.0 213401.0 207103.0 123720.0 115855.0 75857.0 70039.0 80163.0 74456.0 56749.0 48535.0 299747.0 307280.0 292587.0 284419.0 30329.0 38448.0 74387.0 66527.0 242591.0 235070.0 94520.0 101715.0 73040.0 81452.0 91436.0 95213.0 174946.0 174109.0 14443.0 21121.0 106664.0 105034.0 222533.0 227837.0 111434.0 172222.0 111434.0 111434.0 172222.0 172222.0
103046.0 95150.0 104659.0 102227.0 71872.0 74513.0 72989.0 68026.0 25727.0 26318.0 211943.0 211704.0 9610.0 12870.0 65928.0 71725.0 93191.0 92319.0 63368.0 62307.0 94594.0 89082.0 85246.0 76692.0 143844.0 141052.0 31524.0 23863.0 108036.0 114871.0 24666.0 29297.0 57908.0 55464.0 290614.0 292015.0 64866.0 57036.0 149187.0 141372.0 165006.0 172450.0 54013.0 57409.0 8087.0 0.0 205956.0 199585.0 115936.0 108045.0 81341.0 75074.0 82718.0 76485.0 48731.0 40507.0 293102.0 300591.0 286205.0 278038.0 26406.0 34177.0 66369.0 58497.0 235227.0 227680.0 88819.0 95995.0 65037.0 73459.0 95650.0 98929.0 170335.0 169815.0 15306.0 19198.0 113434.0 111445.0 216497.0 221653.0 112936.0 166420.0 112936.0 112936.0 166420.0 166420.0
104047.0 112117.0 255644.0 259422.0 135961.0 136155.0 278095.0 272136.0 182988.0 187474.0 13028.0 7123.0 201498.0 208372.0 224202.0 220916.0 254417.0 259796.0 242630.0 235593.0 113480.0 120531.0 124555.0 132706.0 217565.0 209541.0 176049.0 182695.0 288422.0 296288.0 195711.0 201091.0 218440.0 210353.0 98826.0 103361.0 144488.0 152318.0 58889.0 67311.0 74070.0 68620.0 233266.0 228897.0 213401.0 205956.0 0.0 8013.0 92064.0 100006.0 247507.0 239517.0 218801.0 212144.0 159467.0 167360.0 100656.0 106373.0 105318.0 97317.0 188207.0 181238.0 143087.0 150639.0 29752.0 22018.0 129510.0 123700.0 143987.0 135949.0 241777.0 237658.0 242830.0 249233.0 206034.0 198398.0 285960.0 279281.0 70507.0 66403.0 224102.0 80125.0 224102.0 224102.0 80125.0 80125.0
97241.0 105308.0 251710.0 255313.0 130141.0 130673.0 271489.0 265440.0 176932.0 181610.0 20470.0 15136.0 195340.0 202313.0 219543.0 216488.0 246750.0 252187.0 237552.0 230629.0 106556.0 113480.0 117512.0 125741.0 209562.0 201539.0 169437.0 176198.0 283685.0 291555.0 189936.0 195486.0 210996.0 202913.0 106838.0 111353.0 138789.0 146553.0 51645.0 60027.0 73664.0 68904.0 225995.0 221528.0 207103.0 199585.0 8013.0 0.0 85046.0 93021.0 242938.0 234902.0 214766.0 207969.0 152733.0 160688.0 108669.0 114373.0 113139.0 105102.0 182364.0 175528.0 136174.0 143789.0 37139.0 29395.0 124802.0 119224.0 137112.0 129001.0 237821.0 233892.0 234878.0 241263.0 200047.0 192485.0 281526.0 274976.0 75457.0 71962.0 220667.0 80081.0 220667.0 220667.0 80081.0 80081.0
13067.0 20788.0 184372.0 186354.0 52319.0 56264.0 186878.0 180648.0 95182.0 101003.0 100071.0 98424.0 112741.0 120169.0 147082.0 146117.0 164982.0 169730.0 161285.0 155386.0 21597.0 28468.0 32491.0 40702.0 146002.0 138535.0 85046.0 92186.0 209110.0 216888.0 109738.0 116348.0 127331.0 119254.0 185014.0 187932.0 61382.0 68009.0 33578.0 25497.0 80048.0 84094.0 141435.0 137393.0 123720.0 115936.0 92064.0 85046.0 0.0 7999.0 170512.0 162322.0 147979.0 140240.0 68044.0 76144.0 187248.0 194026.0 185129.0 176874.0 101887.0 96176.0 51169.0 58864.0 121802.0 114081.0 60221.0 58814.0 52157.0 43970.0 170763.0 168701.0 175075.0 179754.0 118341.0 111342.0 209293.0 203906.0 123513.0 125754.0 160498.0 85675.0 160498.0 160498.0 85675.0 85675.0
5989.0 12978.0 178364.0 180142.0 45894.0 50515.0 178887.0 172650.0 87580.0 93556.0 107872.0 106330.0 104984.0 112460.0 140586.0 139902.0 157722.0 162340.0 154247.0 148496.0 13601.0 20573.0 24578.0 32721.0 141731.0 134416.0 77087.0 84268.0 202172.0 209926.0 102322.0 109062.0 119748.0 111682.0 192459.0 195266.0 54854.0 61145.0 41577.0 33475.0 84613.0 89168.0 133633.0 129695.0 115855.0 108045.0 100006.0 93021.0 7999.0 0.0 163929.0 155748.0 142225.0 134413.0 60060.0 68172.0 194715.0 201554.0 192171.0 183932.0 94456.0 88943.0 43174.0 50865.0 129735.0 122019.0 56387.0 55874.0 44158.0 35983.0 164849.0 163030.0 171109.0 175526.0 110693.0 103786.0 202626.0 197389.0 129608.0 132151.0 155671.0 89876.0 155671.0 155671.0 89876.0 89876.0
157985.0 151765.0 24808.0 20997.0 118193.0 114928.0 98148.0 100446.0 83708.0 75844.0 249639.0 251700.0 75556.0 68824.0 23574.0 26974.0 162887.0 159189.0 20025.0 19041.0 152789.0 150443.0 147582.0 140272.0 224904.0 222325.0 103900.0 96595.0 41398.0 49167.0 67807.0 59757.0 135761.0 135131.0 315255.0 315464.0 109139.0 102886.0 199274.0 193181.0 186669.0 194661.0 125277.0 131493.0 75857.0 81341.0 247507.0 242938.0 170512.0 163929.0 0.0 8193.0 33760.0 37602.0 117164.0 110670.0 317877.0 325762.0 308911.0 300744.0 74800.0 77362.0 132283.0 125837.0 273941.0 267199.0 118147.0 123807.0 130678.0 137740.0 22537.0 29754.0 250630.0 249539.0 67548.0 69696.0 38893.0 33534.0 237406.0 243262.0 64593.0 186539.0 64593.0 64593.0 186539.0 186539.0
149802.0 143602.0 29663.0 27424.0 110003.0 106740.0 97782.0 99429.0 76078.0 68167.0 241756.0 243754.0 68795.0 62373.0 15417.0 19598.0 159051.0 155692.0 17589.0 13428.0 144641.0 142350.0 139517.0 132257.0 218885.0 216119.0 96501.0 89325.0 49089.0 56916.0 60303.0 52243.0 130534.0 129530.0 307774.0 307983.0 100950.0 94722.0 191100.0 184994.0 179188.0 187173.0 120900.0 126818.0 70039.0 75074.0 239517.0 234902.0 162322.0 155748.0 8193.0 0.0 28234.0 30861.0 109436.0 103077.0 310397.0 318281.0 301430.0 293263.0 67123.0 69421.0 124369.0 118007.0 266058.0 259285.0 110100.0 115825.0 122762.0 129753.0 23343.0 29454.0 244985.0 244091.0 60847.0 62476.0 47075.0 41674.0 229925.0 235781.0 60608.0 179059.0 60608.0 60608.0 179059.0 179059.0
136244.0 131063.0 37057.0 40667.0 96663.0 91759.0 121595.0 122064.0 74447.0 66734.0 219994.0 222555.0 74242.0 70148.0 20956.0 12705.0 173638.0 171387.0 43029.0 35505.0 132661.0 131823.0 129597.0 123410.0 224045.0 220348.0 95688.0 89912.0 74009.0 81486.0 61349.0 54290.0 140598.0 138032.0 283821.0 284030.0 88127.0 83522.0 174069.0 168749.0 155235.0 163227.0 134385.0 139106.0 80163.0 82718.0 218801.0 214766.0 147979.0 142225.0 33760.0 28234.0 0.0 8000.0 104997.0 100259.0 286443.0 294328.0 277477.0 269310.0 65791.0 64669.0 117227.0 112124.0 244231.0 237746.0 91176.0 95921.0 115640.0 121415.0 23163.0 20893.0 251718.0 251715.0 67413.0 65533.0 68525.0 61116.0 205971.0 211828.0 33292.0 155105.0 33292.0 33292.0 155105.0 155105.0
128428.0 123175.0 44365.0 47369.0 88779.0 83989.0 119490.0 119445.0 66942.0 59327.0 213615.0 216023.0 67735.0 64141.0 19599.0 11791.0 168266.0 166296.0 43208.0 35168.0 124745.0 123851.0 121610.0 115410.0 216867.0 213059.0 88136.0 82542.0 78764.0 86413.0 54351.0 47611.0 134385.0 131546.0 278087.0 278296.0 80200.0 75534.0 166669.0 161237.0 149501.0 157493.0 128915.0 133347.0 74456.0 76485.0 212144.0 207969.0 140240.0 134413.0 37602.0 30861.0 8000.0 0.0 97132.0 92514.0 280709.0 288594.0 271743.0 263576.0 58407.0 56945.0 109243.0 104180.0 237884.0 231315.0 83940.0 88899.0 107658.0 113416.0 30581.0 28857.0 244723.0 244851.0 61228.0 58771.0 74285.0 67236.0 200237.0 206094.0 35337.0 149371.0 35337.0 35337.0 149371.0 149371.0
55504.0 47449.0 136552.0 136333.0 35202.0 41863.0 118847.0 112708.0 33574.0 41333.0 166435.0 165540.0 47409.0 55294.0 95919.0 98204.0 109230.0 111985.0 103248.0 99257.0 46469.0 40479.0 36583.0 28010.0 126112.0 120967.0 17247.0 24938.0 150957.0 158359.0 49660.0 57591.0 68479.0 61188.0 248295.0 250363.0 33917.0 30448.0 101585.0 93534.0 127897.0 134571.0 78085.0 76030.0 56749.0 48731.0 159467.0 152733.0 68044.0 60060.0 117164.0 109436.0 104997.0 97132.0 0.0 8237.0 250684.0 257893.0 245552.0 237365.0 42375.0 40737.0 17639.0 9797.0 189062.0 181404.0 59348.0 65353.0 16317.0 24753.0 124564.0 125163.0 155687.0 157487.0 54368.0 49053.0 153911.0 150177.0 178360.0 182528.0 127471.0 130820.0 127471.0 127471.0 130820.0 130820.0
63512.0 55479.0 130723.0 130188.0 39936.0 45753.0 110818.0 104777.0 27007.0 34962.0 174155.0 173378.0 39477.0 47391.0 89989.0 92778.0 104755.0 107026.0 96142.0 92480.0 54598.0 48705.0 44816.0 36245.0 127582.0 122848.0 9010.0 16766.0 143625.0 150959.0 42888.0 50919.0 63905.0 57050.0 255494.0 257445.0 36889.0 31809.0 109651.0 101640.0 133928.0 140777.0 71995.0 70574.0 48535.0 40507.0 167360.0 160688.0 76144.0 68172.0 110670.0 103077.0 100259.0 92514.0 8237.0 0.0 257902.0 265164.0 252427.0 244215.0 36002.0 35592.0 25865.0 17992.0 196910.0 189269.0 63026.0 69440.0 24553.0 32989.0 119078.0 120068.0 156795.0 158181.0 46644.0 41770.0 146933.0 143436.0 184722.0 189081.0 124066.0 136565.0 124066.0 124066.0 136565.0 136565.0
197519.0 205307.0 322367.0 326905.0 221249.0 218925.0 366068.0 361016.0 268135.0 270870.0 89340.0 93533.0 286940.0 292776.0 295829.0 290917.0 352126.0 356975.0 317155.0 309287.0 207357.0 215021.0 218894.0 226294.0 318115.0 310087.0 265899.0 271457.0 359266.0 366994.0 278073.0 281792.0 314439.0 306383.0 2678.0 8434.0 228411.0 236358.0 156469.0 164743.0 131290.0 123327.0 327672.0 324185.0 299747.0 293102.0 100656.0 108669.0 187248.0 194715.0 317877.0 310397.0 286443.0 280709.0 250684.0 257902.0 0.0 8039.0 24271.0 25194.0 271395.0 263577.0 236050.0 242946.0 74872.0 81556.0 206958.0 199940.0 236648.0 229338.0 308729.0 303872.0 342918.0 349486.0 289882.0 281845.0 354891.0 347559.0 82938.0 75664.0 289808.0 132322.0 289808.0 289808.0 132322.0 132322.0
204468.0 212296.0 330251.0 334790.0 228724.0 226497.0 373571.0 368468.0 275688.0 278495.0 95434.0 99264.0 294501.0 300385.0 303714.0 298802.0 358782.0 363711.0 325061.0 317204.0 214296.0 221923.0 225816.0 233292.0 323506.0 315476.0 273214.0 278841.0 367151.0 374879.0 285744.0 289521.0 321302.0 313237.0 10717.0 14253.0 235956.0 243912.0 162907.0 171224.0 139160.0 131188.0 334708.0 331131.0 307280.0 300591.0 106373.0 114373.0 194026.0 201554.0 325762.0 318281.0 294328.0 288594.0 257893.0 265164.0 8039.0 0.0 30237.0 32462.0 279029.0 271232.0 243113.0 250069.0 79640.0 86612.0 214676.0 207676.0 243735.0 236357.0 316614.0 311757.0 347994.0 354645.0 297510.0 289480.0 362776.0 355443.0 90970.0 83676.0 297692.0 140267.0 297692.0 297692.0 140267.0 140267.0
194300.0 201777.0 313401.0 317939.0 214629.0 211725.0 358991.0 354230.0 260920.0 263225.0 92764.0 98389.0 279643.0 285190.0 286863.0 281951.0 349823.0 354211.0 308229.0 300405.0 204117.0 211943.0 215666.0 222552.0 321777.0 313786.0 260088.0 265228.0 350300.0 358028.0 270155.0 273534.0 311089.0 303115.0 22567.0 16121.0 221342.0 229212.0 156563.0 164495.0 122474.0 114611.0 323299.0 320304.0 292587.0 286205.0 105318.0 113139.0 185129.0 192171.0 308911.0 301430.0 277477.0 271743.0 245552.0 252427.0 24271.0 30237.0 0.0 8282.0 263700.0 255770.0 231858.0 238366.0 84170.0 89529.0 198891.0 191783.0 232314.0 225444.0 299763.0 294906.0 347738.0 353965.0 282191.0 274125.0 345925.0 338592.0 73021.0 65941.0 280842.0 124149.0 280842.0 280842.0 124149.0 124149.0
186089.0 193584.0 305233.0 309772.0 206462.0 203558.0 350824.0 346063.0 252753.0 255057.0 84692.0 90427.0 271475.0 277023.0 278696.0 273784.0 341599.0 346009.0 300062.0 292238.0 195910.0 203731.0 207462.0 214377.0 313569.0 305581.0 251921.0 257060.0 342133.0 349861.0 261988.0 265366.0 302911.0 294931.0 22884.0 18508.0 213175.0 221044.0 148284.0 156213.0 114307.0 106444.0 315129.0 312160.0 284419.0 278038.0 97317.0 105102.0 176874.0 183932.0 300744.0 293263.0 269310.0 263576.0 237365.0 244215.0 25194.0 32462.0 8282.0 0.0 255533.0 247602.0 223693.0 230197.0 76892.0 81997.0 190723.0 183616.0 224146.0 217279.0 291596.0 286739.0 339589.0 345794.0 274024.0 265957.0 337758.0 330425.0 64854.0 57773.0 272674.0 115982.0 272674.0 272674.0 115982.0 115982.0
88839.0 81584.0 94786.0 94188.0 52246.0 52832.0 95864.0 91922.0 9017.0 1044.0 193065.0 193520.0 17385.0 21545.0 54043.0 57263.0 117772.0 117577.0 61324.0 56945.0 81887.0 78123.0 74821.0 66896.0 158540.0 154658.0 30147.0 24136.0 109345.0 116901.0 7877.0 15333.0 79887.0 75685.0 268858.0 269873.0 43853.0 35930.0 133792.0 126573.0 141677.0 149331.0 79240.0 81578.0 30329.0 26406.0 188207.0 182364.0 101887.0 94456.0 74800.0 67123.0 65791.0 58407.0 42375.0 36002.0 271395.0 279029.0 263700.0 255533.0 0.0 8151.0 58081.0 51250.0 216869.0 209501.0 64955.0 72132.0 56498.0 64086.0 83398.0 84849.0 186654.0 187061.0 18495.0 10452.0 111706.0 107822.0 193105.0 198632.0 92538.0 142547.0 92538.0 92538.0 142547.0 142547.0
83200.0 76223.0 95891.0 95921.0 45442.0 45391.0 103979.0 100071.0 11518.0 7961.0 185836.0 186445.0 25430.0 29626.0 55393.0 57467.0 124210.0 124338.0 65539.0 60371.0 76784.0 73622.0 70548.0 63001.0 161219.0 156996.0 31576.0 27254.0 113624.0 121299.0 14606.0 20211.0 85549.0 80836.0 261033.0 261987.0 36752.0 28996.0 127536.0 120506.0 133664.0 141343.0 86106.0 87998.0 38448.0 34177.0 181238.0 175528.0 96176.0 88943.0 77362.0 69421.0 64669.0 56945.0 40737.0 35592.0 263577.0 271232.0 255770.0 247602.0 8151.0 0.0 54952.0 48763.0 209730.0 202409.0 56942.0 64106.0 53345.0 60404.0 83827.0 84547.0 189773.0 190501.0 26468.0 18392.0 115145.0 110757.0 185067.0 190639.0 89435.0 134468.0 89435.0 89435.0 134468.0 134468.0
39115.0 31077.0 150461.0 150787.0 31650.0 39549.0 135891.0 129546.0 49731.0 57061.0 150555.0 149317.0 64825.0 72661.0 110241.0 111676.0 119325.0 122996.0 119393.0 114910.0 29618.0 23061.0 19087.0 10548.0 123656.0 117686.0 34867.0 42569.0 167353.0 174854.0 65720.0 73412.0 79498.0 71655.0 233713.0 236079.0 35046.0 35615.0 84738.0 76558.0 116760.0 122924.0 91633.0 88468.0 74387.0 66369.0 143087.0 136174.0 51169.0 43174.0 132283.0 124369.0 117227.0 109243.0 17639.0 25865.0 236050.0 243113.0 231858.0 223693.0 58081.0 54952.0 0.0 7905.0 172781.0 165084.0 55995.0 60638.0 1610.0 7250.0 137939.0 137849.0 153677.0 156356.0 71538.0 65743.0 169725.0 165602.0 166082.0 169744.0 137159.0 120399.0 137159.0 137159.0 120399.0 120399.0
46594.0 38526.0 144609.0 144675.0 32837.0 40378.0 128079.0 121788.0 42668.0 50216.0 157920.0 156812.0 57157.0 65026.0 104155.0 105990.0 113991.0 117309.0 112432.0 108191.0 37272.0 30926.0 26973.0 18410.0 123713.0 118108.0 26981.0 34731.0 160278.0 167728.0 58746.0 66564.0 73695.0 66023.0 240588.0 242835.0 34155.0 32939.0 92442.0 84305.0 122118.0 128512.0 84936.0 82166.0 66527.0 58497.0 150639.0 143789.0 58864.0 50865.0 125837.0 118007.0 112124.0 104180.0 9797.0 17992.0 242946.0 250069.0 238366.0 230197.0 51250.0 48763.0 7905.0 0.0 180302.0 172617.0 57574.0 62889.0 6723.0 15120.0 132329.0 132562.0 153590.0 155875.0 64016.0 58466.0 162951.0 159022.0 171980.0 175858.0 133236.0 125451.0 133236.0 133236.0 125451.0 125451.0
133708.0 141776.0 280750.0 284895.0 164689.0 164432.0 307561.0 301675.0 211928.0 216166.0 24302.0 23540.0 230539.0 237289.0 250862.0 247137.0 283841.0 289312.0 270021.0 262793.0 143187.0 150270.0 154293.0 162421.0 244111.0 236082.0 205551.0 212099.0 315110.0 322958.0 224272.0 229400.0 248119.0 240034.0 73415.0 78967.0 173038.0 180939.0 88629.0 97044.0 93181.0 86271.0 263012.0 258616.0 242591.0 235227.0 29752.0 37139.0 121802.0 129735.0 273941.0 266058.0 244231.0 237884.0 189062.0 196910.0 74872.0 79640.0 84170.0 76892.0 216869.0 209730.0 172781.0 180302.0 0.0 7751.0 156612.0 150441.0 173664.0 165658.0 266971.0 262450.0 268367.0 275049.0 234863.0 227140.0 312053.0 305120.0 71600.0 64916.0 248445.0 97988.0 248445.0 248445.0 97988.0 97988.0
126023.0 134092.0 274365.0 278414.0 157292.0 157158.0 299952.0 294041.0 204479.0 208789.0 17897.0 15995.0 223062.0 229849.0 244052.0 240444.0 276118.0 281576.0 263018.0 255840.0 135482.0 142548.0 146572.0 154713.0 236938.0 228908.0 197927.0 204508.0 308308.0 316162.0 216934.0 222134.0 240368.0 232283.0 79983.0 85255.0 165693.0 173576.0 80883.0 89297.0 87963.0 81340.0 255267.0 250865.0 235070.0 227680.0 22018.0 29395.0 114081.0 122019.0 267199.0 259285.0 237746.0 231315.0 181404.0 189269.0 81556.0 86612.0 89529.0 81997.0 209501.0 202409.0 165084.0 172617.0 7751.0 0.0 149642.0 143558.0 165974.0 157953.0 260558.0 256141.0 261416.0 268040.0 227449.0 219751.0 305412.0 298546.0 70555.0 64434.0 242216.0 93095.0 242216.0 242216.0 93095.0 93095.0
50910.0 48880.0 128212.0 131236.0 24737.0 17487.0 160716.0 156455.0 63105.0 64538.0 132361.0 133946.0 81416.0 86497.0 94742.0 91838.0 167773.0 169878.0 113414.0 106198.0 51677.0 55059.0 55161.0 54148.0 179428.0 173243.0 68031.0 70823.0 158922.0 166790.0 71267.0 74850.0 126928.0 120027.0 204393.0 205189.0 26233.0 32820.0 83051.0 78186.0 76725.0 84406.0 133780.0 133180.0 94520.0 88819.0 129510.0 124802.0 60221.0 56387.0 118147.0 110100.0 91176.0 83940.0 59348.0 63026.0 206958.0 214676.0 198891.0 190723.0 64955.0 56942.0 55995.0 57574.0 156612.0 149642.0 0.0 7195.0 55182.0 54517.0 114334.0 111259.0 209484.0 212307.0 83405.0 75329.0 156809.0 150430.0 128155.0 133698.0 100929.0 77703.0 100929.0 100929.0 77703.0 77703.0
50772.0 49879.0 132974.0 136267.0 30262.0 23688.0 167908.0 163650.0 70287.0 71722.0 126157.0 127956.0 88611.0 93676.0 100535.0 97267.0 174177.0 176425.0 119727.0 112390.0 52894.0 57166.0 57754.0 57730.0 183465.0 177111.0 74758.0 77777.0 164784.0 172644.0 78395.0 81853.0 133324.0 126313.0 197370.0 198112.0 32911.0 39792.0 79175.0 74870.0 69560.0 77262.0 140560.0 139804.0 101715.0 95995.0 123700.0 119224.0 58814.0 55874.0 123807.0 115825.0 95921.0 88899.0 65353.0 69440.0 199940.0 207676.0 191783.0 183616.0 72132.0 64106.0 60638.0 62889.0 150441.0 143558.0 7195.0 0.0 59959.0 58454.0 119072.0 115665.0 213531.0 216563.0 90572.0 82496.0 162311.0 155763.0 120973.0 126545.0 104309.0 70508.0 104309.0 104309.0 70508.0 70508.0
39960.0 31900.0 148853.0 149178.0 30708.0 38573.0 134802.0 128504.0 48172.0 55480.0 151355.0 150185.0 63375.0 71199.0 108631.0 110070.0 119189.0 122763.0 117815.0 113316.0 30572.0 24220.0 20287.0 11714.0 124636.0 118722.0 33563.0 41211.0 165784.0 173290.0 64148.0 71828.0 79218.0 71419.0 234303.0 236624.0 33800.0 34169.0 85735.0 77588.0 116845.0 123076.0 91078.0 88043.0 73040.0 65037.0 143987.0 137112.0 52157.0 44158.0 130678.0 122762.0 115640.0 107658.0 16317.0 24553.0 236648.0 243735.0 232314.0 224146.0 56498.0 53345.0 1610.0 6723.0 173664.0 165974.0 55182.0 59959.0 0.0 8440.0 136335.0 136256.0 154640.0 157255.0 70046.0 64206.0 168132.0 164000.0 166334.0 170064.0 135648.0 120401.0 135648.0 135648.0 120401.0 120401.0
32086.0 24108.0 155308.0 155891.0 31289.0 39180.0 143141.0 136788.0 55988.0 63084.0 143531.0 142212.0 71640.0 79430.0 115380.0 116430.0 125095.0 129011.0 125387.0 120662.0 22472.0 15813.0 11854.0 3298.0 125027.0 118751.0 41999.0 49619.0 173430.0 180983.0 71829.0 79375.0 85672.0 77741.0 227017.0 229471.0 36415.0 38485.0 77527.0 69330.0 111381.0 117334.0 98351.0 94946.0 81452.0 73459.0 135949.0 129001.0 43970.0 35983.0 137740.0 129753.0 121415.0 113416.0 24753.0 32989.0 229338.0 236357.0 225444.0 217279.0 64086.0 60404.0 7250.0 15120.0 165658.0 157953.0 54517.0 58454.0 8440.0 0.0 142568.0 142169.0 155093.0 158117.0 78182.0 72146.0 175481.0 171161.0 160182.0 163664.0 140215.0 115283.0 140215.0 140215.0 115283.0 115283.0
158861.0 153449.0 13903.0 18404.0 119095.0 114500.0 120426.0 122424.0 92376.0 84412.0 242769.0 245447.0 88378.0 82783.0 29951.0 26362.0 182031.0 178831.0 40750.0 36449.0 154920.0 153698.0 151288.0 144741.0 239243.0 236091.0 113519.0 106976.0 55327.0 62179.0 77639.0 69819.0 152365.0 150856.0 306107.0 306316.0 110388.0 105312.0 197191.0 191808.0 177522.0 185513.0 143586.0 149247.0 91436.0 95650.0 241777.0 237821.0 170763.0 164849.0 22537.0 23343.0 23163.0 30581.0 124564.0 119078.0 308729.0 316614.0 299763.0 291596.0 83398.0 83827.0 137939.0 132329.0 266971.0 260558.0 114334.0 119072.0 136335.0 142568.0 0.0 7611.0 265985.0 265403.0 80736.0 80848.0 47583.0 39551.0 228258.0 234114.0 45843.0 177392.0 45843.0 45843.0 177392.0 177392.0
157053.0 151934.0 18831.0 24764.0 117533.0 112534.0 127123.0 128879.0 93722.0 85836.0 238309.0 241166.0 91209.0 86080.0 33059.0 27718.0 186885.0 183923.0 47041.0 41961.0 153548.0 152708.0 150462.0 144207.0 241984.0 238613.0 114977.0 108757.0 62510.0 69185.0 79603.0 72012.0 156200.0 154347.0 301250.0 301459.0 109017.0 104386.0 194292.0 189150.0 172664.0 180656.0 148153.0 153563.0 95213.0 98929.0 237658.0 233892.0 168701.0 163030.0 29754.0 29454.0 20893.0 28857.0 125163.0 120068.0 303872.0 311757.0 294906.0 286739.0 84849.0 84547.0 137849.0 132562.0 262450.0 256141.0 111259.0 115665.0 136256.0 142169.0 7611.0 0.0 269096.0 268723.0 83793.0 83207.0 54146.0 45892.0 223401.0 229257.0 38771.0 172534.0 38771.0 38771.0 172534.0 172534.0
172627.0 168717.0 274649.0 271624.0 185326.0 193211.0 185364.0 177608.0 178685.0 185805.0 255067.0 249903.0 177900.0 183202.0 236205.0 241591.0 102427.0 110016.0 231373.0 231833.0 165425.0 158837.0 157106.0 155850.0 30066.0 36784.0 158416.0 162759.0 269001.0 274172.0 190395.0 197488.0 115341.0 115500.0 341256.0 346107.0 187741.0 185876.0 194461.0 187719.0 255101.0 258809.0 129351.0 121770.0 174946.0 170335.0 242830.0 234878.0 175075.0 171109.0 250630.0 244985.0 251718.0 244723.0 155687.0 156795.0 342918.0 347994.0 347738.0 339589.0 186654.0 189773.0 153677.0 153590.0 268367.0 261416.0 209484.0 213531.0 154640.0 155093.0 265985.0 269096.0 0.0 8111.0 185330.0 186228.0 277664.0 277656.0 295181.0 295847.0 279075.0 260732.0 279075.0 279075.0 260732.0 260732.0
176813.0 172619.0 273738.0 270513.0 187962.0 195804.0 181668.0 174016.0 179287.0 186240.0 261379.0 256321.0 177648.0 182680.0 235742.0 241341.0 98245.0 105619.0 230110.0 230855.0 169342.0 162571.0 160676.0 159027.0 33796.0 41251.0 159350.0 163350.0 266764.0 271762.0 190501.0 197428.0 113867.0 114591.0 347795.0 352566.0 190014.0 187827.0 200049.0 193154.0 259800.0 263687.0 126990.0 119617.0 174109.0 169815.0 249233.0 241263.0 179754.0 175526.0 249539.0 244091.0 251715.0 244851.0 157487.0 158181.0 349486.0 354645.0 353965.0 345794.0 187061.0 190501.0 156356.0 155875.0 275049.0 268040.0 212307.0 216563.0 157255.0 158117.0 265403.0 268723.0 8111.0 0.0 184935.0 186182.0 275715.0 275950.0 300610.0 301436.0 279587.0 265317.0 279587.0 279587.0 265317.0 265317.0
105279.0 97723.0 90224.0 88209.0 70180.0 71201.0 77634.0 74024.0 23219.0 19016.0 211156.0 211458.0 8031.0 3612.0 50880.0 56473.0 107781.0 106487.0 50743.0 48568.0 97681.0 93134.0 89555.0 81236.0 158525.0 155498.0 38475.0 30566.0 97337.0 104544.0 12777.0 14648.0 73200.0 70725.0 287347.0 288368.0 62052.0 54076.0 150839.0 143395.0 160129.0 167800.0 68426.0 72326.0 14443.0 15306.0 206034.0 200047.0 118341.0 110693.0 67548.0 60847.0 67413.0 61228.0 54368.0 46644.0 289882.0 297510.0 282191.0 274024.0 18495.0 26468.0 71538.0 64016.0 234863.0 227449.0 83405.0 90572.0 70046.0 78182.0 80736.0 83793.0 185330.0 184935.0 0.0 8076.0 101517.0 98821.0 211534.0 217098.0 97835.0 160920.0 97835.0 97835.0 160920.0 160920.0
98275.0 90846.0 91250.0 89878.0 62459.0 63254.0 85657.0 81929.0 16283.0 11034.0 203380.0 203764.0 9617.0 11317.0 50930.0 55526.0 112331.0 111517.0 54388.0 51082.0 90957.0 86745.0 83278.0 75106.0 158814.0 155408.0 34349.0 26901.0 101913.0 109306.0 5523.0 11261.0 76144.0 72878.0 279308.0 280312.0 54196.0 46241.0 143580.0 136240.0 152054.0 159725.0 73206.0 76420.0 21121.0 19198.0 198398.0 192485.0 111342.0 103786.0 69696.0 62476.0 65533.0 58771.0 49053.0 41770.0 281845.0 289480.0 274125.0 265957.0 10452.0 18392.0 65743.0 58466.0 227140.0 219751.0 75329.0 82496.0 64206.0 72146.0 80848.0 83207.0 186228.0 186182.0 8076.0 0.0 105220.0 101949.0 203459.0 209023.0 94554.0 152851.0 94554.0 94554.0 152851.0 152851.0
196699.0 190354.0 35920.0 29382.0 156982.0 153813.0 106609.0 111530.0 120350.0 112737.0 287766.0 290017.0 109464.0 101966.0 62465.0 65047.0 183241.0 178191.0 50867.0 54824.0 191281.0 188652.0 185665.0 178132.0 253761.0 252015.0 139500.0 131814.0 13306.0 16595.0 104256.0 96387.0 162478.0 163346.0 352269.0 352478.0 147910.0 141507.0 238166.0 232068.0 223683.0 231675.0 148881.0 156104.0 106664.0 113434.0 285960.0 281526.0 209293.0 202626.0 38893.0 47075.0 68525.0 74285.0 153911.0 146933.0 354891.0 362776.0 345925.0 337758.0 111706.0 115145.0 169725.0 162951.0 312053.0 305412.0 156809.0 162311.0 168132.0 175481.0 47583.0 54146.0 277664.0 275715.0 101517.0 105220.0 0.0 8543.0 274420.0 280276.0 92852.0 223554.0 92852.0 92852.0 223554.0 223554.0
191436.0 185272.0 27475.0 21190.0 151596.0 148120.0 110230.0 114681.0 116619.0 108861.0 280851.0 283229.0 106834.0 99559.0 56824.0 58606.0 184793.0 180044.0 48153.0 50956.0 186315.0 183967.0 181088.0 173727.0 253178.0 251169.0 136298.0 128758.0 20429.0 24950.0 100576.0 92594.0 162323.0 162768.0 344936.0 345145.0 142562.0 136393.0 232268.0 226329.0 216351.0 224342.0 149494.0 156490.0 105034.0 111445.0 279281.0 274976.0 203906.0 197389.0 33534.0 41674.0 61116.0 67236.0 150177.0 143436.0 347559.0 355443.0 338592.0 330425.0 107822.0 110757.0 165602.0 159022.0 305120.0 298546.0 150430.0 155763.0 164000.0 171161.0 39551.0 45892.0 277656.0 275950.0 98821.0 101949.0 8543.0 0.0 267087.0 272943.0 84514.0 216221.0 84514.0 84514.0 216221.0 216221.0
130631.0 137464.0 241895.0 246434.0 145771.0 142094.0 288839.0 284421.0 190936.0 192692.0 59167.0 66595.0 209472.0 214649.0 215358.0 210446.0 285277.0 289077.0 236724.0 228899.0 140161.0 148040.0 151470.0 157533.0 267273.0 259495.0 191889.0 196460.0 278794.0 286523.0 199262.0 202271.0 245552.0 237736.0 80262.0 79626.0 151806.0 159509.0 100857.0 107468.0 51499.0 44114.0 256445.0 254109.0 222533.0 216497.0 70507.0 75457.0 123513.0 129608.0 237406.0 229925.0 205971.0 200237.0 178360.0 184722.0 82938.0 90970.0 73021.0 64854.0 193105.0 185067.0 166082.0 171980.0 71600.0 70555.0 128155.0 120973.0 166334.0 160182.0 228258.0 223401.0 295181.0 300610.0 211534.0 203459.0 274420.0 267087.0 0.0 8101.0 209336.0 50865.0 209336.0 209336.0 50865.0 50865.0
133515.0 140576.0 247751.0 252290.0 150517.0 147153.0 294210.0 289649.0 196192.0 198190.0 54433.0 61902.0 214819.0 220162.0 221214.0 216302.0 288688.0 292670.0 242580.0 234756.0 143167.0 151053.0 154584.0 160928.0 268271.0 260436.0 196438.0 201228.0 284651.0 292379.0 204930.0 208096.0 249239.0 241364.0 72997.0 72546.0 156837.0 164619.0 101394.0 108390.0 57003.0 49302.0 260573.0 258024.0 227837.0 221653.0 66403.0 71962.0 125754.0 132151.0 243262.0 235781.0 211828.0 206094.0 182528.0 189081.0 75664.0 83676.0 65941.0 57773.0 198632.0 190639.0 169744.0 175858.0 64916.0 64434.0 133698.0 126545.0 170064.0 163664.0 234114.0 229257.0 295847.0 301436.0 217098.0 209023.0 280276.0 272943.0 8101.0 0.0 215192.0 57106.0 215192.0 215192.0 57106.0 57106.0
149818.0 145762.0 57108.0 63495.0 112043.0 105770.0 154576.0 154719.0 100394.0 93350.0 224357.0 227389.0 103862.0 100912.0 53939.0 45598.0 205338.0 203519.0 76270.0 68795.0 147836.0 148365.0 146755.0 141709.0 250648.0 246410.0 120994.0 116316.0 101167.0 107939.0 89706.0 83699.0 170653.0 167380.0 287186.0 287395.0 104539.0 101763.0 183483.0 179018.0 158600.0 166591.0 165956.0 170149.0 111434.0 112936.0 224102.0 220667.0 160498.0 155671.0 64593.0 60608.0 33292.0 35337.0 127471.0 124066.0 289808.0 297692.0 280842.0 272674.0 92538.0 89435.0 137159.0 133236.0 248445.0 242216.0 100929.0 104309.0 135648.0 140215.0 45843.0 38771.0 279075.0 279587.0 97835.0 94554.0 92852.0 84514.0 209336.0 215192.0 0.0 158470.0 0.0 0.0 158470.0 158470.0
89199.0 94711.0 191029.0 195567.0 96878.0 92464.0 238386.0 234156.0 140747.0 142168.0 75676.0 80817.0 159119.0 164086.0 164492.0 159580.0 239442.0 242642.0 185857.0 178033.0 97785.0 105378.0 108273.0 113029.0 231534.0 224138.0 143177.0 147199.0 227928.0 235656.0 148561.0 151405.0 199028.0 191448.0 129679.0 129575.0 102177.0 109679.0 75084.0 78498.0 7151.0 11757.0 208560.0 206844.0 172222.0 166420.0 80125.0 80081.0 85675.0 89876.0 186539.0 179059.0 155105.0 149371.0 130820.0 136565.0 132322.0 140267.0 124149.0 115982.0 142547.0 134468.0 120399.0 125451.0 97988.0 93095.0 77703.0 70508.0 120401.0 115283.0 177392.0 172534.0 260732.0 265317.0 160920.0 152851.0 223554.0 216221.0 50865.0 57106.0 158470.0 0.0 158470.0 158470.0 0.0 0.0
149818.0 145762.0 57108.0 63495.0 112043.0 105770.0 154576.0 154719.0 100394.0 93350.0 224357.0 227389.0 103862.0 100912.0 53939.0 45598.0 205338.0 203519.0 76270.0 68795.0 147836.0 148365.0 146755.0 141709.0 250648.0 246410.0 120994.0 116316.0 101167.0 107939.0 89706.0 83699.0 170653.0 167380.0 287186.0 287395.0 104539.0 101763.0 183483.0 179018.0 158600.0 166591.0 165956.0 170149.0 111434.0 112936.0 224102.0 220667.0 160498.0 155671.0 64593.0 60608.0 33292.0 35337.0 127471.0 124066.0 289808.0 297692.0 280842.0 272674.0 92538.0 89435.0 137159.0 133236.0 248445.0 242216.0 100929.0 104309.0 135648.0 140215.0 45843.0 38771.0 279075.0 279587.0 97835.0 94554.0 92852.0 84514.0 209336.0 215192.0 0.0 158470.0 0.0 0.0 158470.0 158470.0
149818.0 145762.0 57108.0 63495.0 112043.0 105770.0 154576.0 154719.0 100394.0 93350.0 224357.0 227389.0 103862.0 100912.0 53939.0 45598.0 205338.0 203519.0 76270.0 68795.0 147836.0 148365.0 146755.0 141709.0 250648.0 246410.0 120994.0 116316.0 101167.0 107939.0 89706.0 83699.0 170653.0 167380.0 287186.0 287395.0 104539.0 101763.0 183483.0 179018.0 158600.0 166591.0 165956.0 170149.0 111434.0 112936.0 224102.0 220667.0 160498.0 155671.0 64593.0 60608.0 33292.0 35337.0 127471.0 124066.0 289808.0 297692.0 280842.0 272674.0 92538.0 89435.0 137159.0 133236.0 248445.0 242216.0 100929.0 104309.0 135648.0 140215.0 45843.0 38771.0 279075.0 279587.0 97835.0 94554.0 92852.0 84514.0 209336.0 215192.0 0.0 158470.0 0.0 0.0 158470.0 158470.0
89199.0 94711.0 191029.0 195567.0 96878.0 92464.0 238386.0 234156.0 140747.0 142168.0 75676.0 80817.0 159119.0 164086.0 164492.0 159580.0 239442.0 242642.0 185857.0 178033.0 97785.0 105378.0 108273.0 113029.0 231534.0 224138.0 143177.0 147199.0 227928.0 235656.0 148561.0 151405.0 199028.0 191448.0 129679.0 129575.0 102177.0 109679.0 75084.0 78498.0 7151.0 11757.0 208560.0 206844.0 172222.0 166420.0 80125.0 80081.0 85675.0 89876.0 186539.0 179059.0 155105.0 149371.0 130820.0 136565.0 132322.0 140267.0 124149.0 115982.0 142547.0 134468.0 120399.0 125451.0 97988.0 93095.0 77703.0 70508.0 120401.0 115283.0 177392.0 172534.0 260732.0 265317.0 160920.0 152851.0 223554.0 216221.0 50865.0 57106.0 158470.0 0.0 158470.0 158470.0 0.0 0.0
89199.0 94711.0 191029.0 195567.0 96878.0 92464.0 238386.0 234156.0 140747.0 142168.0 75676.0 80817.0 159119.0 164086.0 164492.0 159580.0 239442.0 242642.0 185857.0 178033.0 97785.0 105378.0 108273.0 113029.0 231534.0 224138.0 143177.0 147199.0 227928.0 235656.0 148561.0 151405.0 199028.0 191448.0 129679.0 129575.0 102177.0 109679.0 75084.0 78498.0 7151.0 11757.0 208560.0 206844.0 172222.0 166420.0 80125.0 80081.0 85675.0 89876.0 186539.0 179059.0 155105.0 149371.0 130820.0 136565.0 132322.0 140267.0 124149.0 115982.0 142547.0 134468.0 120399.0 125451.0 97988.0 93095.0 77703.0 70508.0 120401.0 115283.0 177392.0 172534.0 260732.0 265317.0 160920.0 152851.0 223554.0 216221.0 50865.0 57106.0 158470.0 0.0 158470.0 158470.0 0.0 0.0
FIXED_EDGES_SECTION
1 2
3 4
5 6
7 8
9 10
11 12
13 14
15 16
17 18
19 20
21 22
23 24
25 26
27 28
29 30
31 32
33 34
35 36
37 38
39 40
41 42
43 44
45 46
47 48
49 50
51 52
53 54
55 56
57 58
59 60
61 62
63 64
65 66
67 68
69 70
71 72
73 74
75 76
77 78
79 80
-1 
DEMAND_SECTION
1 158
2 158
3 219
4 219
5 214
6 214
7 497
8 497
9 119
10 119
11 620
12 620
13 353
14 353
15 100
16 100
17 68
18 68
19 493
20 493
21 291
22 291
23 271
24 271
25 258
26 258
27 541
28 541
29 316
30 316
31 207
32 207
33 479
34 479
35 60
36 60
37 432
38 432
39 68
40 68
41 37
42 37
43 211
44 211
45 583
46 583
47 336
48 336
49 130
50 130
51 396
52 396
53 485
54 485
55 89
56 89
57 99
58 99
59 224
60 224
61 171
62 171
63 90
64 90
65 244
66 244
67 75
68 75
69 279
70 279
71 341
72 341
73 138
74 138
75 293
76 293
77 251
78 251
79 114
80 114
81 0
82 0
83 0
84 0
85 0
86 0
DEPOT_SECTION
81 
-1 
CAPACITIES_SECTION
10000 
11000 
-1 
EOF