NAME: GFS_20_1
TYPE: GFSP
DIMENSION: 58
VEHICLES: 2
CAPACITY: 1250.0
TRIP_DIST_LIMIT: 600000.0
TOTAL_DIST_LIMIT: 2100000.0
EDGE_WEIGHT_TYPE: EXPLICIT
EDGE_WEIGHT_FORMAT: FULL_MATRIX
EDGE_WEIGHT_SECTION
0.0 8574.0 55161.0 57754.0 146936.0 144243.0 129597.0 121610.0 111870.0 118576.0 88864.0 89719.0 67028.0 73842.0 184032.0 191645.0 144989.0 137937.0 76242.0 75511.0 209498.0 203099.0 240689.0 247199.0 178879.0 178924.0 128875.0 121168.0 129788.0 121542.0 86820.0 94954.0 146988.0 148162.0 218894.0 225816.0 62874.0 70564.0 37576.0 37306.0 146755.0 108273.0 146755.0 146755.0 146755.0 146755.0 146755.0 146755.0 146755.0 146755.0 108273.0 108273.0 108273.0 108273.0 108273.0 108273.0 108273.0 108273.0
8574.0 0.0 54148.0 57730.0 154028.0 151579.0 123410.0 115410.0 104297.0 110851.0 95921.0 97168.0 58906.0 65902.0 176220.0 183794.0 136801.0 129673.0 67758.0 67217.0 216959.0 210655.0 247639.0 254242.0 172236.0 172543.0 120347.0 112632.0 121626.0 113359.0 79349.0 87428.0 140434.0 141312.0 226294.0 233292.0 54301.0 61993.0 34698.0 36245.0 141709.0 113029.0 141709.0 141709.0 141709.0 141709.0 141709.0 141709.0 141709.0 141709.0 113029.0 113029.0 113029.0 113029.0 113029.0 113029.0 113029.0 113029.0
55161.0 54148.0 0.0 7195.0 134416.0 134898.0 91176.0 83940.0 137457.0 142031.0 82518.0 87993.0 63105.0 64538.0 158922.0 166790.0 128672.0 123894.0 78140.0 72217.0 198647.0 193746.0 224007.0 230860.0 141490.0 139481.0 124479.0 118086.0 114292.0 107335.0 67283.0 74321.0 110330.0 114019.0 206958.0 214676.0 74663.0 81786.0 21083.0 17962.0 100929.0 77703.0 100929.0 100929.0 100929.0 100929.0 100929.0 100929.0 100929.0 100929.0 77703.0 77703.0 77703.0 77703.0 77703.0 77703.0 77703.0 77703.0
57754.0 57730.0 7195.0 0.0 127508.0 128131.0 95921.0 88899.0 144209.0 148888.0 76377.0 82130.0 70287.0 71722.0 164784.0 172644.0 135304.0 130664.0 85309.0 79411.0 191675.0 186836.0 216900.0 223753.0 145972.0 143640.0 131578.0 125223.0 121035.0 114174.0 74179.0 81086.0 115148.0 119156.0 199940.0 207676.0 81577.0 88782.0 26627.0 21785.0 104309.0 70508.0 104309.0 104309.0 104309.0 104309.0 104309.0 104309.0 104309.0 104309.0 70508.0 70508.0 70508.0 70508.0 70508.0 70508.0 70508.0 70508.0
146936.0 154028.0 134416.0 127508.0 0.0 8300.0 215929.0 210178.0 258155.0 264449.0 58108.0 57807.0 195049.0 197931.0 288745.0 296479.0 262508.0 258109.0 209276.0 204605.0 64430.0 59330.0 93851.0 100265.0 263314.0 259818.0 258514.0 251837.0 248452.0 241676.0 201682.0 208554.0 234787.0 240218.0 73165.0 80647.0 201359.0 209312.0 145719.0 137759.0 219294.0 63526.0 219294.0 219294.0 219294.0 219294.0 219294.0 219294.0 219294.0 219294.0 63526.0 63526.0 63526.0 63526.0 63526.0 63526.0 63526.0 63526.0
144243.0 151579.0 134898.0 128131.0 8300.0 0.0 218129.0 212325.0 255861.0 262301.0 55972.0 54561.0 194555.0 197750.0 290670.0 298441.0 263402.0 258782.0 208558.0 204149.0 65521.0 59655.0 97502.0 103529.0 265514.0 262017.0 258441.0 251636.0 249163.0 242229.0 202156.0 209203.0 236958.0 242412.0 74735.0 81865.0 200089.0 208078.0 145126.0 137158.0 221494.0 67000.0 221494.0 221494.0 221494.0 221494.0 221494.0 221494.0 221494.0 221494.0 67000.0 67000.0 67000.0 67000.0 67000.0 67000.0 67000.0 67000.0
129597.0 123410.0 91176.0 95921.0 215929.0 218129.0 0.0 8000.0 138236.0 137800.0 170972.0 177344.0 74447.0 66734.0 74009.0 81486.0 62932.0 64129.0 79678.0 72949.0 278678.0 274516.0 302593.0 309446.0 50500.0 49486.0 81411.0 80565.0 56691.0 56444.0 50482.0 45297.0 19247.0 24339.0 286443.0 294328.0 92829.0 92662.0 95667.0 100765.0 33292.0 155105.0 33292.0 33292.0 33292.0 33292.0 33292.0 33292.0 33292.0 33292.0 155105.0 155105.0 155105.0 155105.0 155105.0 155105.0 155105.0 155105.0
121610.0 115410.0 83940.0 88899.0 210178.0 212325.0 8000.0 0.0 132811.0 132729.0 164385.0 170627.0 66942.0 59327.0 78764.0 86413.0 63128.0 63278.0 72842.0 65892.0 272944.0 268782.0 296859.0 303712.0 58160.0 57409.0 78762.0 77197.0 55079.0 53685.0 43191.0 38573.0 26463.0 30377.0 280709.0 288594.0 85565.0 85729.0 87842.0 93063.0 35337.0 149371.0 35337.0 35337.0 35337.0 35337.0 35337.0 35337.0 35337.0 35337.0 149371.0 149371.0 149371.0 149371.0 149371.0 149371.0 149371.0 149371.0
111870.0 104297.0 137457.0 144209.0 258155.0 255861.0 138236.0 132811.0 0.0 7940.0 200091.0 201462.0 79333.0 82880.0 142516.0 147448.0 100378.0 92556.0 65687.0 73609.0 321256.0 314931.0 351507.0 358239.0 166606.0 171670.0 69676.0 65070.0 92330.0 87299.0 94227.0 95548.0 143987.0 139141.0 330586.0 337589.0 63177.0 57005.0 118638.0 125759.0 169876.0 212006.0 169876.0 169876.0 169876.0 169876.0 169876.0 169876.0 169876.0 169876.0 212006.0 212006.0 212006.0 212006.0 212006.0 212006.0 212006.0 212006.0
118576.0 110851.0 142031.0 148888.0 264449.0 262301.0 137800.0 132729.0 7940.0 0.0 206445.0 207995.0 82427.0 85314.0 138079.0 142727.0 96724.0 89138.0 68190.0 75989.0 327752.0 321495.0 357631.0 364424.0 163979.0 169332.0 65984.0 62096.0 89695.0 85248.0 95608.0 96258.0 142513.0 137320.0 337036.0 344092.0 67406.0 60705.0 123695.0 130981.0 169977.0 217317.0 169977.0 169977.0 169977.0 169977.0 169977.0 169977.0 169977.0 169977.0 217317.0 217317.0 217317.0 217317.0 217317.0 217317.0 217317.0 217317.0
88864.0 95921.0 82518.0 76377.0 58108.0 55972.0 170972.0 164385.0 200091.0 206445.0 0.0 8049.0 139474.0 143151.0 241131.0 248987.0 210852.0 205697.0 153157.0 149092.0 121493.0 115534.0 151827.0 158349.0 219997.0 216769.0 203838.0 196841.0 196215.0 188932.0 148900.0 156329.0 190186.0 194762.0 130657.0 137837.0 144239.0 152241.0 90120.0 82199.0 176257.0 42206.0 176257.0 176257.0 176257.0 176257.0 176257.0 176257.0 176257.0 176257.0 42206.0 42206.0 42206.0 42206.0 42206.0 42206.0 42206.0 42206.0
89719.0 97168.0 87993.0 82130.0 57807.0 54561.0 177344.0 170627.0 201462.0 207995.0 8049.0 0.0 143221.0 147241.0 246876.0 254740.0 215768.0 210416.0 156573.0 152835.0 119799.0 113502.0 151608.0 157880.0 226645.0 223570.0 207800.0 200687.0 201006.0 193594.0 153676.0 161242.0 196581.0 200987.0 129175.0 136128.0 147009.0 155029.0 94137.0 86309.0 183114.0 49871.0 183114.0 183114.0 183114.0 183114.0 183114.0 183114.0 183114.0 183114.0 49871.0 49871.0 49871.0 49871.0 49871.0 49871.0 49871.0 49871.0
67028.0 58906.0 63105.0 70287.0 195049.0 194555.0 74447.0 66942.0 79333.0 82427.0 139474.0 143221.0 0.0 7986.0 117641.0 125126.0 77971.0 71035.0 15137.0 9620.0 259475.0 254097.0 286037.0 292889.0 118662.0 120459.0 64694.0 57477.0 62762.0 54526.0 24205.0 31124.0 88170.0 87221.0 268135.0 275688.0 19520.0 22811.0 49436.0 57401.0 100394.0 140747.0 100394.0 100394.0 100394.0 100394.0 100394.0 100394.0 100394.0 100394.0 140747.0 140747.0 140747.0 140747.0 140747.0 140747.0 140747.0 140747.0
73842.0 65902.0 64538.0 71722.0 197931.0 197750.0 66734.0 59327.0 82880.0 85314.0 143151.0 147241.0 7986.0 0.0 110349.0 117900.0 71534.0 64933.0 17193.0 9326.0 262346.0 257138.0 288341.0 295194.0 110677.0 112486.0 60719.0 53908.0 56291.0 48182.0 16322.0 23142.0 80213.0 79235.0 270870.0 278495.0 26386.0 28049.0 53105.0 60973.0 93350.0 142168.0 93350.0 93350.0 93350.0 93350.0 93350.0 93350.0 93350.0 93350.0 142168.0 142168.0 142168.0 142168.0 142168.0 142168.0 142168.0 142168.0
184032.0 176220.0 158922.0 164784.0 288745.0 290670.0 74009.0 78764.0 142516.0 138079.0 241131.0 246876.0 117641.0 110349.0 0.0 7871.0 43887.0 52209.0 112688.0 110435.0 351501.0 347339.0 375416.0 382269.0 46195.0 54476.0 73291.0 79258.0 57056.0 65128.0 97645.0 89457.0 57273.0 50130.0 359266.0 367151.0 128651.0 123858.0 157259.0 164015.0 101167.0 227928.0 101167.0 101167.0 101167.0 101167.0 101167.0 101167.0 101167.0 101167.0 227928.0 227928.0 227928.0 227928.0 227928.0 227928.0 227928.0 227928.0
191645.0 183794.0 166790.0 172644.0 296479.0 298441.0 81486.0 86413.0 147448.0 142727.0 248987.0 254740.0 125126.0 117900.0 7871.0 0.0 50258.0 58542.0 119828.0 117779.0 359230.0 355067.0 383144.0 389997.0 50440.0 58687.0 78777.0 85078.0 63989.0 72160.0 105375.0 97190.0 64357.0 57431.0 366994.0 374879.0 135763.0 130796.0 165087.0 171862.0 107939.0 235656.0 107939.0 107939.0 107939.0 107939.0 107939.0 107939.0 107939.0 107939.0 235656.0 235656.0 235656.0 235656.0 235656.0 235656.0 235656.0 235656.0
144989.0 136801.0 128672.0 135304.0 262508.0 263402.0 62932.0 63128.0 100378.0 96724.0 210852.0 215768.0 77971.0 71534.0 43887.0 50258.0 0.0 8322.0 70662.0 69683.0 326272.0 321747.0 350298.0 357151.0 69149.0 75633.0 30752.0 35792.0 15243.0 23447.0 62156.0 54532.0 56489.0 49012.0 334199.0 342055.0 86395.0 80965.0 122672.0 130113.0 96105.0 202888.0 96105.0 96105.0 96105.0 96105.0 96105.0 96105.0 96105.0 96105.0 202888.0 202888.0 202888.0 202888.0 202888.0 202888.0 202888.0 202888.0
137937.0 129673.0 123894.0 130664.0 258109.0 258782.0 64129.0 63278.0 92556.0 89138.0 205697.0 210416.0 71035.0 64933.0 52209.0 58542.0 8322.0 0.0 62997.0 62458.0 322081.0 317411.0 346449.0 353302.0 75643.0 81739.0 23237.0 27689.0 9712.0 16888.0 56800.0 49580.0 60108.0 53097.0 330135.0 337953.0 78599.0 72978.0 116850.0 124421.0 97414.0 198964.0 97414.0 97414.0 97414.0 97414.0 97414.0 97414.0 97414.0 97414.0 198964.0 198964.0 198964.0 198964.0 198964.0 198964.0 198964.0 198964.0
76242.0 67758.0 78140.0 85309.0 209276.0 208558.0 79678.0 72842.0 65687.0 68190.0 153157.0 156573.0 15137.0 17193.0 112688.0 119828.0 70662.0 62997.0 0.0 7955.0 273670.0 268172.0 300591.0 307444.0 119603.0 122397.0 52756.0 45147.0 55965.0 47707.0 30323.0 34382.0 90823.0 88542.0 282419.0 289920.0 15984.0 13089.0 63567.0 71521.0 108311.0 155705.0 108311.0 108311.0 108311.0 108311.0 108311.0 108311.0 108311.0 108311.0 155705.0 155705.0 155705.0 155705.0 155705.0 155705.0 155705.0 155705.0
75511.0 67217.0 72217.0 79411.0 204605.0 204149.0 72949.0 65892.0 73609.0 75989.0 149092.0 152835.0 9620.0 9326.0 110435.0 117779.0 69683.0 62458.0 7955.0 0.0 269033.0 263677.0 295486.0 302339.0 114531.0 116929.0 55139.0 47877.0 54594.0 46290.0 22906.0 27860.0 85005.0 83232.0 277673.0 285238.0 20301.0 19940.0 59040.0 67002.0 100915.0 149917.0 100915.0 100915.0 100915.0 100915.0 100915.0 100915.0 100915.0 100915.0 149917.0 149917.0 149917.0 149917.0 149917.0 149917.0 149917.0 149917.0
209498.0 216959.0 198647.0 191675.0 64430.0 65521.0 278678.0 272944.0 321256.0 327752.0 121493.0 119799.0 259475.0 262346.0 351501.0 359230.0 326272.0 322081.0 273670.0 269033.0 0.0 7962.0 39872.0 43059.0 326064.0 322567.0 322895.0 316247.0 312399.0 305754.0 265843.0 272590.0 297536.0 302967.0 9862.0 16346.0 265516.0 273492.0 210126.0 202163.0 282043.0 124850.0 282043.0 282043.0 282043.0 282043.0 282043.0 282043.0 282043.0 282043.0 124850.0 124850.0 124850.0 124850.0 124850.0 124850.0 124850.0 124850.0
203099.0 210655.0 193746.0 186836.0 59330.0 59655.0 274516.0 268782.0 314931.0 321495.0 115534.0 113502.0 254097.0 257138.0 347339.0 355067.0 321747.0 317411.0 268172.0 263677.0 7962.0 0.0 47798.0 51003.0 321901.0 318405.0 317770.0 311045.0 307747.0 300998.0 261011.0 267867.0 293374.0 298805.0 17613.0 23063.0 259730.0 267722.0 204689.0 196721.0 277881.0 121060.0 277881.0 277881.0 277881.0 277881.0 277881.0 277881.0 277881.0 277881.0 121060.0 121060.0 121060.0 121060.0 121060.0 121060.0 121060.0 121060.0
240689.0 247639.0 224007.0 216900.0 93851.0 97502.0 302593.0 296859.0 351507.0 357631.0 151827.0 151608.0 286037.0 288341.0 375416.0 383144.0 350298.0 346449.0 300591.0 295486.0 39872.0 47798.0 0.0 8022.0 349978.0 346482.0 348478.0 342076.0 336741.0 330362.0 290742.0 297189.0 321451.0 326882.0 31096.0 30657.0 293553.0 301433.0 237138.0 229245.0 305958.0 149265.0 305958.0 305958.0 305958.0 305958.0 305958.0 305958.0 305958.0 305958.0 149265.0 149265.0 149265.0 149265.0 149265.0 149265.0 149265.0 149265.0
247199.0 254242.0 230860.0 223753.0 100265.0 103529.0 309446.0 303712.0 358239.0 364424.0 158349.0 157880.0 292889.0 295194.0 382269.0 389997.0 357151.0 353302.0 307444.0 302339.0 43059.0 51003.0 8022.0 0.0 356831.0 353335.0 355331.0 348929.0 343594.0 337215.0 297595.0 304042.0 328304.0 333735.0 33550.0 31136.0 300388.0 308258.0 243990.0 236097.0 312811.0 156118.0 312811.0 312811.0 312811.0 312811.0 312811.0 312811.0 312811.0 312811.0 156118.0 156118.0 156118.0 156118.0 156118.0 156118.0 156118.0 156118.0
178879.0 172236.0 141490.0 145972.0 263314.0 265514.0 50500.0 58160.0 166606.0 163979.0 219997.0 226645.0 118662.0 110677.0 46195.0 50440.0 69149.0 75643.0 119603.0 114531.0 326064.0 321901.0 349978.0 356831.0 0.0 8285.0 98742.0 101889.0 74315.0 79578.0 94774.0 87544.0 31958.0 31442.0 333828.0 341713.0 134772.0 132497.0 145953.0 151220.0 65346.0 202490.0 65346.0 65346.0 65346.0 65346.0 65346.0 65346.0 65346.0 65346.0 202490.0 202490.0 202490.0 202490.0 202490.0 202490.0 202490.0 202490.0
178924.0 172543.0 139481.0 143640.0 259818.0 262017.0 49486.0 57409.0 171670.0 169332.0 216769.0 223570.0 120459.0 112486.0 54476.0 58687.0 75633.0 81739.0 122397.0 116929.0 322567.0 318405.0 346482.0 353335.0 8285.0 0.0 104629.0 107353.0 79676.0 84393.0 96343.0 89479.0 32399.0 33902.0 330331.0 338216.0 137228.0 135404.0 145112.0 150039.0 60282.0 198994.0 60282.0 60282.0 60282.0 60282.0 60282.0 60282.0 60282.0 60282.0 198994.0 198994.0 198994.0 198994.0 198994.0 198994.0 198994.0 198994.0
128875.0 120347.0 124479.0 131578.0 258514.0 258441.0 81411.0 78762.0 69676.0 65984.0 203838.0 207800.0 64694.0 60719.0 73291.0 78777.0 30752.0 23237.0 52756.0 55139.0 322895.0 317770.0 348478.0 355331.0 98742.0 104629.0 0.0 7807.0 25859.0 25081.0 58543.0 53567.0 80908.0 74544.0 331334.0 339003.0 66499.0 59507.0 113732.0 121640.0 114021.0 201470.0 114021.0 114021.0 114021.0 114021.0 114021.0 114021.0 114021.0 114021.0 201470.0 201470.0 201470.0 201470.0 201470.0 201470.0 201470.0 201470.0
121168.0 112632.0 118086.0 125223.0 251837.0 251636.0 80565.0 77197.0 65070.0 62096.0 196841.0 200687.0 57477.0 53908.0 79258.0 85078.0 35792.0 27689.0 45147.0 47877.0 316247.0 311045.0 342076.0 348929.0 101889.0 107353.0 7807.0 0.0 27681.0 24465.0 53101.0 48876.0 81912.0 76061.0 324750.0 332388.0 58714.0 51701.0 106723.0 114656.0 112529.0 195359.0 112529.0 112529.0 112529.0 112529.0 112529.0 112529.0 112529.0 112529.0 195359.0 195359.0 195359.0 195359.0 195359.0 195359.0 195359.0 195359.0
129788.0 121626.0 114292.0 121035.0 248452.0 249163.0 56691.0 55079.0 92330.0 89695.0 196215.0 201006.0 62762.0 56291.0 57056.0 63989.0 15243.0 9712.0 55965.0 54594.0 312399.0 307747.0 336741.0 343594.0 74315.0 79676.0 25859.0 27681.0 0.0 8311.0 47332.0 39973.0 55050.0 48742.0 320441.0 328262.0 71841.0 66820.0 107643.0 115147.0 89809.0 189257.0 89809.0 89809.0 89809.0 89809.0 89809.0 89809.0 89809.0 89809.0 189257.0 189257.0 189257.0 189257.0 189257.0 189257.0 189257.0 189257.0
121542.0 113359.0 107335.0 114174.0 241676.0 242229.0 56444.0 53685.0 87299.0 85248.0 188932.0 193594.0 54526.0 48182.0 65128.0 72160.0 23447.0 16888.0 47707.0 46290.0 305754.0 300998.0 330362.0 337215.0 79578.0 84393.0 25081.0 24465.0 8311.0 0.0 40095.0 33181.0 57609.0 52092.0 313887.0 321678.0 63613.0 58744.0 99965.0 107548.0 88942.0 182886.0 88942.0 88942.0 88942.0 88942.0 88942.0 88942.0 88942.0 88942.0 182886.0 182886.0 182886.0 182886.0 182886.0 182886.0 182886.0 182886.0
86820.0 79349.0 67283.0 74179.0 201682.0 202156.0 50482.0 43191.0 94227.0 95608.0 148900.0 153676.0 24205.0 16322.0 97645.0 105375.0 62156.0 56800.0 30323.0 22906.0 265843.0 261011.0 290742.0 297595.0 94774.0 96343.0 58543.0 53101.0 47332.0 40095.0 0.0 8189.0 64009.0 63352.0 274057.0 281817.0 42378.0 42846.0 60659.0 67994.0 78028.0 143376.0 78028.0 78028.0 78028.0 78028.0 78028.0 78028.0 78028.0 78028.0 143376.0 143376.0 143376.0 143376.0 143376.0 143376.0 143376.0 143376.0
94954.0 87428.0 74321.0 81086.0 208554.0 209203.0 45297.0 38573.0 95548.0 96258.0 156329.0 161242.0 31124.0 23142.0 89457.0 97190.0 54532.0 49580.0 34382.0 27860.0 272590.0 267867.0 297189.0 304042.0 87544.0 89479.0 53567.0 48876.0 39973.0 33181.0 8189.0 0.0 57331.0 56105.0 280708.0 288503.0 48055.0 47388.0 68619.0 75854.0 74759.0 149722.0 74759.0 74759.0 74759.0 74759.0 74759.0 74759.0 74759.0 74759.0 149722.0 149722.0 149722.0 149722.0 149722.0 149722.0 149722.0 149722.0
146988.0 140434.0 110330.0 115148.0 234787.0 236958.0 19247.0 26463.0 143987.0 142513.0 190186.0 196581.0 88170.0 80213.0 57273.0 64357.0 56489.0 60108.0 90823.0 85005.0 297536.0 293374.0 321451.0 328304.0 31958.0 32399.0 80908.0 81912.0 55050.0 57609.0 64009.0 57331.0 0.0 8039.0 305301.0 313185.0 105294.0 103898.0 114054.0 119441.0 44275.0 173963.0 44275.0 44275.0 44275.0 44275.0 44275.0 44275.0 44275.0 44275.0 173963.0 173963.0 173963.0 173963.0 173963.0 173963.0 173963.0 173963.0
148162.0 141312.0 114019.0 119156.0 240218.0 242412.0 24339.0 30377.0 139141.0 137320.0 194762.0 200987.0 87221.0 79235.0 50130.0 57431.0 49012.0 53097.0 88542.0 83232.0 302967.0 298805.0 326882.0 333735.0 31442.0 33902.0 74544.0 76061.0 48742.0 52092.0 63352.0 56105.0 8039.0 0.0 310731.0 318616.0 103511.0 101527.0 116376.0 122131.0 52073.0 179394.0 52073.0 52073.0 52073.0 52073.0 52073.0 52073.0 52073.0 52073.0 179394.0 179394.0 179394.0 179394.0 179394.0 179394.0 179394.0 179394.0
218894.0 226294.0 206958.0 199940.0 73165.0 74735.0 286443.0 280709.0 330586.0 337036.0 130657.0 129175.0 268135.0 270870.0 359266.0 366994.0 334199.0 330135.0 282419.0 277673.0 9862.0 17613.0 31096.0 33550.0 333828.0 330331.0 331334.0 324750.0 320441.0 313887.0 274057.0 280708.0 305301.0 310731.0 0.0 8039.0 274483.0 282445.0 218854.0 210898.0 289808.0 132322.0 289808.0 289808.0 289808.0 289808.0 289808.0 289808.0 289808.0 289808.0 132322.0 132322.0 132322.0 132322.0 132322.0 132322.0 132322.0 132322.0
225816.0 233292.0 214676.0 207676.0 80647.0 81865.0 294328.0 288594.0 337589.0 344092.0 137837.0 136128.0 275688.0 278495.0 367151.0 374879.0 342055.0 337953.0 289920.0 285238.0 16346.0 23063.0 30657.0 31136.0 341713.0 338216.0 339003.0 332388.0 328262.0 321678.0 281817.0 288503.0 313185.0 318616.0 8039.0 0.0 281833.0 289807.0 226365.0 218405.0 297692.0 140267.0 297692.0 297692.0 297692.0 297692.0 297692.0 297692.0 297692.0 297692.0 140267.0 140267.0 140267.0 140267.0 140267.0 140267.0 140267.0 140267.0
62874.0 54301.0 74663.0 81577.0 201359.0 200089.0 92829.0 85565.0 63177.0 67406.0 144239.0 147009.0 19520.0 26386.0 128651.0 135763.0 86395.0 78599.0 15984.0 20301.0 265516.0 259730.0 293553.0 300388.0 134772.0 137228.0 66499.0 58714.0 71841.0 63613.0 42378.0 48055.0 105294.0 103511.0 274483.0 281833.0 0.0 8022.0 57068.0 64706.0 119700.0 150783.0 119700.0 119700.0 119700.0 119700.0 119700.0 119700.0 119700.0 119700.0 150783.0 150783.0 150783.0 150783.0 150783.0 150783.0 150783.0 150783.0
70564.0 61993.0 81786.0 88782.0 209312.0 208078.0 92662.0 85729.0 57005.0 60705.0 152241.0 155029.0 22811.0 28049.0 123858.0 130796.0 80965.0 72978.0 13089.0 19940.0 273492.0 267722.0 301433.0 308258.0 132497.0 135404.0 59507.0 51701.0 66820.0 58744.0 42846.0 47388.0 103898.0 101527.0 282445.0 289807.0 8022.0 0.0 64723.0 72437.0 120848.0 158330.0 120848.0 120848.0 120848.0 120848.0 120848.0 120848.0 120848.0 120848.0 158330.0 158330.0 158330.0 158330.0 158330.0 158330.0 158330.0 158330.0
37576.0 34698.0 21083.0 26627.0 145719.0 145126.0 95667.0 87842.0 118638.0 123695.0 90120.0 94137.0 49436.0 53105.0 157259.0 165087.0 122672.0 116850.0 63567.0 59040.0 210126.0 204689.0 237138.0 243990.0 145953.0 145112.0 113732.0 106723.0 107643.0 99965.0 60659.0 68619.0 114054.0 116376.0 218854.0 226365.0 57068.0 64723.0 0.0 7968.0 110237.0 93760.0 110237.0 110237.0 110237.0 110237.0 110237.0 110237.0 110237.0 110237.0 93760.0 93760.0 93760.0 93760.0 93760.0 93760.0 93760.0 93760.0
37306.0 36245.0 17962.0 21785.0 137759.0 137158.0 100765.0 93063.0 125759.0 130981.0 82199.0 86309.0 57401.0 60973.0 164015.0 171862.0 130113.0 124421.0 71521.0 67002.0 202163.0 196721.0 229245.0 236097.0 151220.0 150039.0 121640.0 114656.0 115147.0 107548.0 67994.0 75854.0 119441.0 122131.0 210898.0 218405.0 64706.0 72437.0 7968.0 0.0 113779.0 86341.0 113779.0 113779.0 113779.0 113779.0 113779.0 113779.0 113779.0 113779.0 86341.0 86341.0 86341.0 86341.0 86341.0 86341.0 86341.0 86341.0
146755.0 141709.0 100929.0 104309.0 219294.0 221494.0 33292.0 35337.0 169876.0 169977.0 176257.0 183114.0 100394.0 93350.0 101167.0 107939.0 96105.0 97414.0 108311.0 100915.0 282043.0 277881.0 305958.0 312811.0 65346.0 60282.0 114021.0 112529.0 89809.0 88942.0 78028.0 74759.0 44275.0 52073.0 289808.0 297692.0 119700.0 120848.0 110237.0 113779.0 0.0 158470.0 0.0 0.0 0.0 0.0 0.0 0.0 0.0 0.0 158470.0 158470.0 158470.0 158470.0 158470.0 158470.0 158470.0 158470.0
108273.0 113029.0 77703.0 70508.0 63526.0 67000.0 155105.0 149371.0 212006.0 217317.0 42206.0 49871.0 140747.0 142168.0 227928.0 235656.0 202888.0 198964.0 155705.0 149917.0 124850.0 121060.0 149265.0 156118.0 202490.0 198994.0 201470.0 195359.0 189257.0 182886.0 143376.0 149722.0 173963.0 179394.0 132322.0 140267.0 150783.0 158330.0 93760.0 86341.0 158470.0 0.0 158470.0 158470.0 158470.0 158470.0 158470.0 158470.0 158470.0 158470.0 0.0 0.0 0.0 0.0 0.0 0.0 0.0 0.0
146755.0 141709.0 100929.0 104309.0 219294.0 221494.0 33292.0 35337.0 169876.0 169977.0 176257.0 183114.0 100394.0 93350.0 101167.0 107939.0 96105.0 97414.0 108311.0 100915.0 282043.0 277881.0 305958.0 312811.0 65346.0 60282.0 114021.0 112529.0 89809.0 88942.0 78028.0 74759.0 44275.0 52073.0 289808.0 297692.0 119700.0 120848.0 110237.0 113779.0 0.0 158470.0 0.0 0.0 0.0 0.0 0.0 0.0 0.0 0.0 158470.0 158470.0 158470.0 158470.0 158470.0 158470.0 158470.0 158470.0
146755.0 141709.0 100929.0 104309.0 219294.0 221494.0 33292.0 35337.0 169876.0 169977.0 176257.0 183114.0 100394.0 93350.0 101167.0 107939.0 96105.0 97414.0 108311.0 100915.0 282043.0 277881.0 305958.0 312811.0 65346.0 60282.0 114021.0 112529.0 89809.0 88942.0 78028.0 74759.0 44275.0 52073.0 289808.0 297692.0 119700.0 120848.0 110237.0 113779.0 0.0 158470.0 0.0 0.0 0.0 0.0 0.0 0.0 0.0 0.0 158470.0 158470.0 158470.0 158470.0 158470.0 158470.0 158470.0 158470.0
146755.0 141709.0 100929.0 104309.0 219294.0 221494.0 33292.0 35337.0 169876.0 169977.0 176257.0 183114.0 100394.0 93350.0 101167.0 107939.0 96105.0 97414.0 108311.0 100915.0 282043.0 277881.0 305958.0 312811.0 65346.0 60282.0 114021.0 112529.0 89809.0 88942.0 78028.0 74759.0 44275.0 52073.0 289808.0 297692.0 119700.0 120848.0 110237.0 113779.0 0.0 158470.0 0.0 0.0 0.0 0.0 0.0 0.0 0.0 0.0 158470.0 158470.0 158470.0 158470.0 158470.0 158470.0 158470.0 158470.0
146755.0 141709.0 100929.0 104309.0 219294.0 221494.0 33292.0 35337.0 169876.0 169977.0 176257.0 183114.0 100394.0 93350.0 101167.0 107939.0 96105.0 97414.0 108311.0 100915.0 282043.0 277881.0 305958.0 312811.0 65346.0 60282.0 114021.0 112529.0 89809.0 88942.0 78028.0 74759.0 44275.0 52073.0 289808.0 297692.0 119700.0 120848.0 110237.0 113779.0 0.0 158470.0 0.0 0.0 0.0 0.0 0.0 0.0 0.0 0.0 158470.0 158470.0 158470.0 158470.0 158470.0 158470.0 158470.0 158470.0
146755.0 141709.0 100929.0 104309.0 219294.0 221494.0 33292.0 35337.0 169876.0 169977.0 176257.0 183114.0 100394.0 93350.0 101167.0 107939.0 96105.0 97414.0 108311.0 100915.0 282043.0 277881.0 305958.0 312811.0 65346.0 60282.0 114021.0 112529.0 89809.0 88942.0 78028.0 74759.0 44275.0 52073.0 289808.0 297692.0 119700.0 120848.0 110237.0 113779.0 0.0 158470.0 0.0 0.0 0.0 0.0 0.0 0.0 0.0 0.0 158470.0 158470.0 158470.0 158470.0 158470.0 158470.0 158470.0 158470.0
146755.0 141709.0 100929.0 104309.0 219294.0 221494.0 33292.0 35337.0 169876.0 169977.0 176257.0 183114.0 100394.0 93350.0 101167.0 107939.0 96105.0 97414.0 108311.0 100915.0 282043.0 277881.0 305958.0 312811.0 65346.0 60282.0 114021.0 112529.0 89809.0 88942.0 78028.0 74759.0 44275.0 52073.0 289808.0 297692.0 119700.0 120848.0 110237.0 113779.0 0.0 158470.0 0.0 0.0 0.0 0.0 0.0 0.0 0.0 0.0 158470.0 158470.0 158470.0 158470.0 158470.0 158470.0 158470.0 158470.0
146755.0 141709.0 100929.0 104309.0 219294.0 221494.0 33292.0 35337.0 169876.0 169977.0 176257.0 183114.0 100394.0 93350.0 101167.0 107939.0 96105.0 97414.0 108311.0 100915.0 282043.0 277881.0 305958.0 312811.0 65346.0 60282.0 114021.0 112529.0 89809.0 88942.0 78028.0 74759.0 44275.0 52073.0 289808.0 297692.0 119700.0 120848.0 110237.0 113779.0 0.0 158470.0 0.0 0.0 0.0 0.0 0.0 0.0 0.0 0.0 158470.0 158470.0 158470.0 158470.0 158470.0 158470.0 158470.0 158470.0
146755.0 141709.0 100929.0 104309.0 219294.0 221494.0 33292.0 35337.0 169876.0 169977.0 176257.0 183114.0 100394.0 93350.0 101167.0 107939.0 96105.0 97414.0 108311.0 100915.0 282043.0 277881.0 305958.0 312811.0 65346.0 60282.0 114021.0 112529.0 89809.0 88942.0 78028.0 74759.0 44275.0 52073.0 289808.0 297692.0 119700.0 120848.0 110237.0 113779.0 0.0 158470.0 0.0 0.0 0.0 0.0 0.0 0.0 0.0 0.0 158470.0 158470.0 158470.0 158470.0 158470.0 158470.0 158470.0 158470.0
108273.0 113029.0 77703.0 70508.0 63526.0 67000.0 155105.0 149371.0 212006.0 217317.0 42206.0 49871.0 140747.0 142168.0 227928.0 235656.0 202888.0 198964.0 155705.0 149917.0 124850.0 121060.0 149265.0 156118.0 202490.0 198994.0 201470.0 195359.0 189257.0 182886.0 143376.0 149722.0 173963.0 179394.0 132322.0 140267.0 150783.0 158330.0 93760.0 86341.0 158470.0 0.0 158470.0 158470.0 158470.0 158470.0 158470.0 158470.0 158470.0 158470.0 0.0 0.0 0.0 0.0 0.0 0.0 0.0 0.0
108273.0 113029.0 77703.0 70508.0 63526.0 67000.0 155105.0 149371.0 212006.0 217317.0 42206.0 49871.0 140747.0 142168.0 227928.0 235656.0 202888.0 198964.0 155705.0 149917.0 124850.0 121060.0 149265.0 156118.0 202490.0 198994.0 201470.0 195359.0 189257.0 182886.0 143376.0 149722.0 173963.0 179394.0 132322.0 140267.0 150783.0 158330.0 93760.0 86341.0 158470.0 0.0 158470.0 158470.0 158470.0 158470.0 158470.0 158470.0 158470.0 158470.0 0.0 0.0 0.0 0.0 0.0 0.0 0.0 0.0
108273.0 113029.0 77703.0 70508.0 63526.0 67000.0 155105.0 149371.0 212006.0 217317.0 42206.0 49871.0 140747.0 142168.0 227928.0 235656.0 202888.0 198964.0 155705.0 149917.0 124850.0 121060.0 149265.0 156118.0 202490.0 198994.0 201470.0 195359.0 189257.0 182886.0 143376.0 149722.0 173963.0 179394.0 132322.0 140267.0 150783.0 158330.0 93760.0 86341.0 158470.0 0.0 158470.0 158470.0 158470.0 158470.0 158470.0 158470.0 158470.0 158470.0 0.0 0.0 0.0 0.0 0.0 0.0 0.0 0.0
108273.0 113029.0 77703.0 70508.0 63526.0 67000.0 155105.0 149371.0 212006.0 217317.0 42206.0 49871.0 140747.0 142168.0 227928.0 235656.0 202888.0 198964.0 155705.0 149917.0 124850.0 121060.0 149265.0 156118.0 202490.0 198994.0 201470.0 195359.0 189257.0 182886.0 143376.0 149722.0 173963.0 179394.0 132322.0 140267.0 150783.0 158330.0 93760.0 86341.0 158470.0 0.0 158470.0 158470.0 158470.0 158470.0 158470.0 158470.0 158470.0 158470.0 0.0 0.0 0.0 0.0 0.0 0.0 0.0 0.0
108273.0 113029.0 77703.0 70508.0 63526.0 67000.0 155105.0 149371.0 212006.0 217317.0 42206.0 49871.0 140747.0 142168.0 227928.0 235656.0 202888.0 198964.0 155705.0 149917.0 124850.0 121060.0 149265.0 156118.0 202490.0 198994.0 201470.0 195359.0 189257.0 182886.0 143376.0 149722.0 173963.0 179394.0 132322.0 140267.0 150783.0 158330.0 93760.0 86341.0 158470.0 0.0 158470.0 158470.0 158470.0 158470.0 158470.0 158470.0 158470.0 158470.0 0.0 0.0 0.0 0.0 0.0 0.0 0.0 0.0
108273.0 113029.0 77703.0 70508.0 63526.0 67000.0 155105.0 149371.0 212006.0 217317.0 42206.0 49871.0 140747.0 142168.0 227928.0 235656.0 202888.0 198964.0 155705.0 149917.0 124850.0 121060.0 149265.0 156118.0 202490.0 198994.0 201470.0 195359.0 189257.0 182886.0 143376.0 149722.0 173963.0 179394.0 132322.0 140267.0 150783.0 158330.0 93760.0 86341.0 158470.0 0.0 158470.0 158470.0 158470.0 158470.0 158470.0 158470.0 158470.0 158470.0 0.0 0.0 0.0 0.0 0.0 0.0 0.0 0.0
108273.0 113029.0 77703.0 70508.0 63526.0 67000.0 155105.0 149371.0 212006.0 217317.0 42206.0 49871.0 140747.0 142168.0 227928.0 235656.0 202888.0 198964.0 155705.0 149917.0 124850.0 121060.0 149265.0 156118.0 202490.0 198994.0 201470.0 195359.0 189257.0 182886.0 143376.0 149722.0 173963.0 179394.0 132322.0 140267.0 150783.0 158330.0 93760.0 86341.0 158470.0 0.0 158470.0 158470.0 158470.0 158470.0 158470.0 158470.0 158470.0 158470.0 0.0 0.0 0.0 0.0 0.0 0.0 0.0 0.0
108273.0 113029.0 77703.0 70508.0 63526.0 67000.0 155105.0 149371.0 212006.0 217317.0 42206.0 49871.0 140747.0 142168.0 227928.0 235656.0 202888.0 198964.0 155705.0 149917.0 124850.0 121060.0 149265.0 156118.0 202490.0 198994.0 201470.0 195359.0 189257.0 182886.0 143376.0 149722.0 173963.0 179394.0 132322.0 140267.0 150783.0 158330.0 93760.0 86341.0 158470.0 0.0 158470.0 158470.0 158470.0 158470.0 158470.0 158470.0 158470.0 158470.0 0.0 0.0 0.0 0.0 0.0 0.0 0.0 0.0
FIXED_EDGES_SECTION
1 2
3 4
5 6
7 8
9 10
11 12
13 14
15 16
17 18
19 20
21 22
23 24
25 26
27 28
29 30
31 32
33 34
35 36
37 38
39 40
-1 
DEMAND_SECTION
1 271
2 271
3 75
4 75
5 563
6 563
7 485
8 485
9 224
10 224
11 313
12 313
13 119
14 119
15 316
16 316
17 375
18 375
19 341
20 341
21 322
22 322
23 280
24 280
25 369
26 369
27 497
28 497
29 57
30 57
31 394
32 394
33 104
34 104
35 99
36 99
37 96
38 96
39 80
40 80
41 0
42 0
43 0
44 0
45 0
46 0
47 0
48 0
49 0
50 0
51 0
52 0
53 0
54 0
55 0
56 0
57 0
58 0
DEPOT_SECTION
41 
-1 
CAPACITIES_SECTION
1250 
1375 
-1 
EOF