NAME: GFS_20_1
TYPE: GFSP
DIMENSION: 56
VEHICLES: 2
CAPACITY: 1250.0
TRIP_DIST_LIMIT: 600000.0
TOTAL_DIST_LIMIT: 2100000.0
EDGE_WEIGHT_TYPE: EXPLICIT
EDGE_WEIGHT_FORMAT: FULL_MATRIX
EDGE_WEIGHT_SECTION
0.0 7909.0 155956.0 159424.0 111581.0 104029.0 41133.0 32875.0 208898.0 202931.0 173149.0 180208.0 85705.0 78729.0 105975.0 108701.0 196056.0 190298.0 180401.0 184722.0 163717.0 166996.0 173112.0 176089.0 131460.0 138331.0 194528.0 201076.0 53143.0 45961.0 45879.0 44723.0 81307.0 87677.0 94182.0 100563.0 51250.0 50715.0 84300.0 92286.0 154464.0 66901.0 154464.0 154464.0 154464.0 154464.0 154464.0 154464.0 154464.0 66901.0 66901.0 66901.0 66901.0 66901.0 66901.0 66901.0
7909.0 0.0 148764.0 152400.0 111433.0 103773.0 40000.0 31520.0 213052.0 207284.0 175301.0 182187.0 86176.0 78903.0 110725.0 112995.0 196277.0 190289.0 177226.0 181823.0 168661.0 171663.0 174148.0 176780.0 131744.0 138850.0 197574.0 203947.0 56386.0 49750.0 45114.0 42591.0 84767.0 90711.0 94223.0 100975.0 58768.0 57786.0 84174.0 92178.0 160365.0 73696.0 160365.0 160365.0 160365.0 160365.0 160365.0 160365.0 160365.0 73696.0 73696.0 73696.0 73696.0 73696.0 73696.0 73696.0
155956.0 148764.0 0.0 8242.0 221755.0 214976.0 134776.0 136792.0 275041.0 273558.0 296530.0 301377.0 145371.0 141091.0 252875.0 252893.0 195789.0 187674.0 120518.0 128678.0 251309.0 249445.0 194468.0 190567.0 241850.0 249890.0 324789.0 329386.0 161564.0 162890.0 135372.0 128581.0 175212.0 173768.0 142375.0 148505.0 207083.0 206549.0 138742.0 140242.0 262112.0 222342.0 262112.0 262112.0 262112.0 262112.0 262112.0 262112.0 262112.0 222342.0 222342.0 222342.0 222342.0 222342.0 222342.0 222342.0
159424.0 152400.0 8242.0 0.0 228269.0 221406.0 136386.0 138882.0 271602.0 270352.0 302954.0 307909.0 144271.0 140370.0 257797.0 258021.0 190251.0 182153.0 113709.0 121866.0 249196.0 247084.0 189927.0 185773.0 248500.0 256548.0 330990.0 335693.0 162398.0 164117.0 136664.0 130149.0 174812.0 172999.0 140761.0 146594.0 210360.0 210119.0 137685.0 138722.0 261115.0 226086.0 261115.0 261115.0 261115.0 261115.0 261115.0 261115.0 261115.0 226086.0 226086.0 226086.0 226086.0 226086.0 226086.0 226086.0
111581.0 111433.0 221755.0 228269.0 0.0 7751.0 151420.0 142940.0 312053.0 305120.0 74872.0 79640.0 197246.0 190153.0 71600.0 64916.0 307561.0 301675.0 283841.0 289312.0 263359.0 268240.0 284592.0 287666.0 21170.0 29054.0 104152.0 108085.0 163092.0 155307.0 156546.0 153591.0 189928.0 197081.0 205551.0 212099.0 108925.0 100782.0 195552.0 203557.0 248445.0 97988.0 248445.0 248445.0 248445.0 248445.0 248445.0 248445.0 248445.0 97988.0 97988.0 97988.0 97988.0 97988.0 97988.0 97988.0
104029.0 103773.0 214976.0 221406.0 7751.0 0.0 143750.0 135270.0 305412.0 298546.0 81556.0 86612.0 189658.0 182541.0 70555.0 64434.0 299952.0 294041.0 276118.0 281576.0 256908.0 261685.0 277094.0 280117.0 28846.0 36644.0 110307.0 114526.0 155744.0 147988.0 148887.0 145883.0 182719.0 189819.0 197927.0 204508.0 103054.0 94937.0 187916.0 195921.0 242216.0 93095.0 242216.0 242216.0 242216.0 242216.0 242216.0 242216.0 242216.0 93095.0 93095.0 93095.0 93095.0 93095.0 93095.0 93095.0
41133.0 40000.0 134776.0 136386.0 151420.0 143750.0 0.0 8481.0 181859.0 176970.0 214280.0 221340.0 47028.0 39467.0 145035.0 148461.0 156501.0 150399.0 140257.0 144225.0 141716.0 143289.0 135182.0 137409.0 171739.0 178815.0 235343.0 241989.0 29941.0 28802.0 5344.0 6256.0 54539.0 58256.0 54526.0 61599.0 81388.0 84094.0 44401.0 52379.0 139943.0 100704.0 139943.0 139943.0 139943.0 139943.0 139943.0 139943.0 139943.0 100704.0 100704.0 100704.0 100704.0 100704.0 100704.0 100704.0
32875.0 31520.0 136792.0 138882.0 142940.0 135270.0 8481.0 0.0 188259.0 183154.0 206004.0 213032.0 55249.0 47769.0 137552.0 140782.0 164936.0 158859.0 147923.0 152058.0 147009.0 148933.0 143419.0 145746.0 163261.0 170344.0 227303.0 233899.0 33449.0 30279.0 13675.0 12123.0 60071.0 64496.0 62924.0 69907.0 75469.0 77611.0 52817.0 60806.0 143565.0 94275.0 143565.0 143565.0 143565.0 143565.0 143565.0 143565.0 143565.0 94275.0 94275.0 94275.0 94275.0 94275.0 94275.0 94275.0
208898.0 213052.0 275041.0 271602.0 312053.0 305412.0 181859.0 188259.0 0.0 8543.0 354891.0 362776.0 141313.0 148526.0 274420.0 280276.0 106609.0 111530.0 183241.0 178191.0 50293.0 44189.0 88382.0 95450.0 328548.0 333617.0 371042.0 377894.0 156919.0 163302.0 177015.0 184303.0 128667.0 123763.0 139500.0 131814.0 205059.0 213061.0 147221.0 142101.0 92852.0 223554.0 92852.0 92852.0 92852.0 92852.0 92852.0 92852.0 92852.0 223554.0 223554.0 223554.0 223554.0 223554.0 223554.0 223554.0
202931.0 207284.0 273558.0 270352.0 305120.0 298546.0 176970.0 183154.0 8543.0 0.0 347559.0 355443.0 137577.0 144624.0 267087.0 272943.0 110230.0 114681.0 184793.0 180044.0 42494.0 36896.0 90155.0 97558.0 321410.0 326390.0 363709.0 370562.0 151377.0 157560.0 172218.0 179638.0 123286.0 118735.0 136298.0 128758.0 197759.0 205793.0 143642.0 138867.0 84514.0 216221.0 84514.0 84514.0 84514.0 84514.0 84514.0 84514.0 84514.0 216221.0 216221.0 216221.0 216221.0 216221.0 216221.0 216221.0
173149.0 175301.0 296530.0 302954.0 74872.0 81556.0 214280.0 206004.0 354891.0 347559.0 0.0 8039.0 256812.0 250507.0 82938.0 75664.0 366068.0 361016.0 352126.0 356975.0 305301.0 310731.0 340596.0 344810.0 55915.0 48270.0 31096.0 33550.0 218854.0 210898.0 218938.0 217675.0 242450.0 250252.0 265899.0 271457.0 150656.0 143367.0 256420.0 264269.0 289808.0 132322.0 289808.0 289808.0 289808.0 289808.0 289808.0 289808.0 289808.0 132322.0 132322.0 132322.0 132322.0 132322.0 132322.0 132322.0
180208.0 182187.0 301377.0 307909.0 79640.0 86612.0 221340.0 213032.0 362776.0 355443.0 8039.0 0.0 264166.0 257804.0 90970.0 83676.0 373571.0 368468.0 358782.0 363711.0 313185.0 318616.0 348213.0 352375.0 59828.0 51915.0 30657.0 31136.0 226365.0 218405.0 226043.0 224640.0 250136.0 257921.0 273214.0 278841.0 158504.0 151171.0 263690.0 271558.0 297692.0 140267.0 297692.0 297692.0 297692.0 297692.0 297692.0 297692.0 297692.0 140267.0 140267.0 140267.0 140267.0 140267.0 140267.0 140267.0
85705.0 86176.0 145371.0 144271.0 197246.0 189658.0 47028.0 55249.0 141313.0 137577.0 256812.0 264166.0 0.0 7778.0 182407.0 187017.0 110354.0 104691.0 109553.0 111416.0 108113.0 107630.0 88171.0 90606.0 217154.0 223968.0 275913.0 282753.0 39850.0 47313.0 41687.0 46969.0 33122.0 29285.0 9609.0 14858.0 113043.0 118193.0 6654.0 9070.0 116844.0 133594.0 116844.0 116844.0 116844.0 116844.0 116844.0 116844.0 116844.0 133594.0 133594.0 133594.0 133594.0 133594.0 133594.0 133594.0
78729.0 78903.0 141091.0 140370.0 190153.0 182541.0 39467.0 47769.0 148526.0 144624.0 250507.0 257804.0 7778.0 0.0 176998.0 181405.0 117412.0 111571.0 112397.0 114762.0 114170.0 114024.0 95726.0 97979.0 210177.0 217059.0 269975.0 276828.0 35552.0 42500.0 34141.0 39224.0 34839.0 32677.0 15469.0 22139.0 108265.0 113073.0 6245.0 13770.0 121091.0 128765.0 121091.0 121091.0 121091.0 121091.0 121091.0 121091.0 121091.0 128765.0 128765.0 128765.0 128765.0 128765.0 128765.0 128765.0
105975.0 110725.0 252875.0 257797.0 71600.0 70555.0 145035.0 137552.0 274420.0 267087.0 82938.0 90970.0 182407.0 176998.0 0.0 8101.0 288839.0 284421.0 285277.0 289077.0 224829.0 230260.0 262108.0 266947.0 75191.0 76170.0 98138.0 104990.0 142895.0 135177.0 148891.0 149675.0 163707.0 171667.0 191889.0 196460.0 70707.0 64494.0 183176.0 190630.0 209336.0 50865.0 209336.0 209336.0 209336.0 209336.0 209336.0 209336.0 209336.0 50865.0 50865.0 50865.0 50865.0 50865.0 50865.0 50865.0
108701.0 112995.0 252893.0 258021.0 64916.0 64434.0 148461.0 140782.0 280276.0 272943.0 75664.0 83676.0 187017.0 181405.0 8101.0 0.0 294210.0 289649.0 288688.0 292670.0 230685.0 236116.0 267753.0 272446.0 67449.0 68209.0 91057.0 97910.0 147745.0 139944.0 152493.0 152887.0 169307.0 177238.0 196438.0 201228.0 76406.0 69769.0 187545.0 195099.0 215192.0 57106.0 215192.0 215192.0 215192.0 215192.0 215192.0 215192.0 215192.0 57106.0 57106.0 57106.0 57106.0 57106.0 57106.0 57106.0
196056.0 196277.0 195789.0 190251.0 307561.0 299952.0 156501.0 164936.0 106609.0 110230.0 366068.0 373571.0 110354.0 117412.0 288839.0 294210.0 0.0 8126.0 83725.0 77010.0 118678.0 111535.0 29522.0 22637.0 327508.0 334305.0 384108.0 390961.0 147215.0 155171.0 151262.0 155144.0 125317.0 117326.0 102055.0 95496.0 218164.0 224458.0 112125.0 104131.0 154576.0 238386.0 154576.0 154576.0 154576.0 154576.0 154576.0 154576.0 154576.0 238386.0 238386.0 238386.0 238386.0 238386.0 238386.0 238386.0
190298.0 190289.0 187674.0 182153.0 301675.0 294041.0 150399.0 158859.0 111530.0 114681.0 361016.0 368468.0 104691.0 111571.0 284421.0 289649.0 8126.0 0.0 76301.0 69807.0 120421.0 113547.0 29260.0 21351.0 321748.0 328620.0 379346.0 386199.0 142253.0 150182.0 145201.0 148833.0 121297.0 113311.0 96137.0 89864.0 213831.0 219960.0 106125.0 98119.0 154719.0 234156.0 154719.0 154719.0 154719.0 154719.0 154719.0 154719.0 154719.0 234156.0 234156.0 234156.0 234156.0 234156.0 234156.0 234156.0
180401.0 177226.0 120518.0 113709.0 283841.0 276118.0 140257.0 147923.0 183241.0 184793.0 352126.0 358782.0 109553.0 112397.0 285277.0 288688.0 83725.0 76301.0 0.0 8160.0 178907.0 173787.0 94859.0 88005.0 304948.0 312612.0 374779.0 381173.0 147839.0 154339.0 136421.0 135839.0 140110.0 133652.0 100339.0 99617.0 219247.0 223166.0 106281.0 100483.0 205338.0 239442.0 205338.0 205338.0 205338.0 205338.0 205338.0 205338.0 205338.0 239442.0 239442.0 239442.0 239442.0 239442.0 239442.0 239442.0
184722.0 181823.0 128678.0 121866.0 289312.0 281576.0 144225.0 152058.0 178191.0 180044.0 356975.0 363711.0 111416.0 114762.0 289077.0 292670.0 77010.0 69807.0 8160.0 0.0 175835.0 170453.0 89906.0 82753.0 310381.0 317995.0 379233.0 385713.0 150308.0 157033.0 140203.0 140037.0 141086.0 134361.0 102023.0 100666.0 222333.0 226490.0 108572.0 102374.0 203519.0 242642.0 203519.0 203519.0 203519.0 203519.0 203519.0 203519.0 203519.0 242642.0 242642.0 242642.0 242642.0 242642.0 242642.0 242642.0
163717.0 168661.0 251309.0 249196.0 263359.0 256908.0 141716.0 147009.0 50293.0 42494.0 305301.0 313185.0 108113.0 114170.0 224829.0 230685.0 118678.0 120421.0 178907.0 175835.0 0.0 8039.0 91554.0 99706.0 279326.0 284191.0 321451.0 328304.0 114054.0 119441.0 137396.0 145211.0 87178.0 84264.0 109335.0 102840.0 155523.0 163591.0 114664.0 111647.0 44275.0 173963.0 44275.0 44275.0 44275.0 44275.0 44275.0 44275.0 44275.0 173963.0 173963.0 173963.0 173963.0 173963.0 173963.0 173963.0
166996.0 171663.0 249445.0 247084.0 268240.0 261685.0 143289.0 148933.0 44189.0 36896.0 310731.0 318616.0 107630.0 114024.0 230260.0 236116.0 111535.0 113547.0 173787.0 170453.0 8039.0 0.0 84910.0 93060.0 284520.0 289522.0 326882.0 333735.0 116376.0 122131.0 138799.0 146494.0 88874.0 85291.0 108145.0 101316.0 160916.0 168935.0 114079.0 110544.0 52073.0 179394.0 52073.0 52073.0 52073.0 52073.0 52073.0 52073.0 52073.0 179394.0 179394.0 179394.0 179394.0 179394.0 179394.0 179394.0
173112.0 174148.0 194468.0 189927.0 284592.0 277094.0 135182.0 143419.0 88382.0 90155.0 340596.0 348213.0 88171.0 95726.0 262108.0 267753.0 29522.0 29260.0 94859.0 89906.0 91554.0 84910.0 0.0 8154.0 304081.0 310626.0 358019.0 364872.0 122274.0 130228.0 129846.0 134715.0 98446.0 90527.0 81084.0 73642.0 191420.0 198022.0 91195.0 83476.0 125530.0 211398.0 125530.0 125530.0 125530.0 125530.0 125530.0 125530.0 125530.0 211398.0 211398.0 211398.0 211398.0 211398.0 211398.0 211398.0
176089.0 176780.0 190567.0 185773.0 287666.0 280117.0 137409.0 145746.0 95450.0 97558.0 344810.0 352375.0 90606.0 97979.0 266947.0 272446.0 22637.0 21351.0 88005.0 82753.0 99706.0 93060.0 8154.0 0.0 307358.0 314014.0 362530.0 369383.0 126094.0 134062.0 132100.0 136581.0 103263.0 95289.0 82953.0 75846.0 196241.0 202678.0 93105.0 85227.0 133371.0 216364.0 133371.0 133371.0 133371.0 133371.0 133371.0 133371.0 133371.0 216364.0 216364.0 216364.0 216364.0 216364.0 216364.0 216364.0
131460.0 131744.0 241850.0 248500.0 21170.0 28846.0 171739.0 163261.0 328548.0 321410.0 55915.0 59828.0 217154.0 210177.0 75191.0 67449.0 327508.0 321748.0 304948.0 310381.0 279326.0 284520.0 304081.0 307358.0 0.0 8055.0 86327.0 89458.0 182138.0 174272.0 176805.0 174110.0 208450.0 215772.0 225615.0 232012.0 123909.0 115795.0 215676.0 223676.0 263929.0 110557.0 263929.0 263929.0 263929.0 263929.0 263929.0 263929.0 263929.0 110557.0 110557.0 110557.0 110557.0 110557.0 110557.0 110557.0
138331.0 138850.0 249890.0 256548.0 29054.0 36644.0 178815.0 170344.0 333617.0 326390.0 48270.0 51915.0 223968.0 217059.0 76170.0 68209.0 334305.0 328620.0 312612.0 317995.0 284191.0 289522.0 310626.0 314014.0 8055.0 0.0 78936.0 81813.0 188527.0 180629.0 183843.0 181308.0 214557.0 221954.0 232513.0 238821.0 128669.0 120606.0 222614.0 230607.0 268701.0 114448.0 268701.0 268701.0 268701.0 268701.0 268701.0 268701.0 268701.0 114448.0 114448.0 114448.0 114448.0 114448.0 114448.0 114448.0
194528.0 197574.0 324789.0 330990.0 104152.0 110307.0 235343.0 227303.0 371042.0 363709.0 31096.0 30657.0 275913.0 269975.0 98138.0 91057.0 384108.0 379346.0 374779.0 379233.0 321451.0 326882.0 358019.0 362530.0 86327.0 78936.0 0.0 8022.0 237138.0 229245.0 239712.0 239245.0 259615.0 267503.0 285205.0 290344.0 167031.0 160072.0 276028.0 283732.0 305958.0 149265.0 305958.0 305958.0 305958.0 305958.0 305958.0 305958.0 305958.0 149265.0 149265.0 149265.0 149265.0 149265.0 149265.0 149265.0
201076.0 203947.0 329386.0 335693.0 108085.0 114526.0 241989.0 233899.0 377894.0 370562.0 33550.0 31136.0 282753.0 276828.0 104990.0 97910.0 390961.0 386199.0 381173.0 385713.0 328304.0 333735.0 364872.0 369383.0 89458.0 81813.0 8022.0 0.0 243990.0 236097.0 246415.0 245799.0 266468.0 274355.0 292054.0 297161.0 173884.0 166925.0 282879.0 290585.0 312811.0 156118.0 312811.0 312811.0 312811.0 312811.0 312811.0 312811.0 312811.0 156118.0 156118.0 156118.0 156118.0 156118.0 156118.0 156118.0
53143.0 56386.0 161564.0 162398.0 163092.0 155744.0 29941.0 33449.0 156919.0 151377.0 218854.0 226365.0 39850.0 35552.0 142895.0 147745.0 147215.0 142253.0 147839.0 150308.0 114054.0 116376.0 122274.0 126094.0 182138.0 188527.0 237138.0 243990.0 0.0 7968.0 27270.0 35138.0 28385.0 34536.0 49449.0 53576.0 73205.0 78509.0 41766.0 48517.0 110237.0 93760.0 110237.0 110237.0 110237.0 110237.0 110237.0 110237.0 110237.0 93760.0 93760.0 93760.0 93760.0 93760.0 93760.0 93760.0
45961.0 49750.0 162890.0 164117.0 155307.0 147988.0 28802.0 30279.0 163302.0 157560.0 210898.0 218405.0 47313.0 42500.0 135177.0 139944.0 155171.0 150182.0 154339.0 157033.0 119441.0 122131.0 130228.0 134062.0 174272.0 180629.0 229245.0 236097.0 7968.0 0.0 27521.0 34695.0 35359.0 41974.0 56868.0 61296.0 65811.0 70884.0 48745.0 55794.0 113779.0 86341.0 113779.0 113779.0 113779.0 113779.0 113779.0 113779.0 113779.0 86341.0 86341.0 86341.0 86341.0 86341.0 86341.0 86341.0
45879.0 45114.0 135372.0 136664.0 156546.0 148887.0 5344.0 13675.0 177015.0 172218.0 218938.0 226043.0 41687.0 34141.0 148891.0 152493.0 151262.0 145201.0 136421.0 140203.0 137396.0 138799.0 129846.0 132100.0 176805.0 183843.0 239712.0 246415.0 27270.0 27521.0 0.0 8048.0 50272.0 53601.0 49250.0 56277.0 84120.0 87231.0 39141.0 47132.0 136518.0 103757.0 136518.0 136518.0 136518.0 136518.0 136518.0 136518.0 136518.0 103757.0 103757.0 103757.0 103757.0 103757.0 103757.0 103757.0
44723.0 42591.0 128581.0 130149.0 153591.0 145883.0 6256.0 12123.0 184303.0 179638.0 217675.0 224640.0 46969.0 39224.0 149675.0 152887.0 155144.0 148833.0 135839.0 140037.0 145211.0 146494.0 134715.0 136581.0 174110.0 181308.0 239245.0 245799.0 35138.0 34695.0 8048.0 0.0 58165.0 61219.0 53668.0 61104.0 87024.0 89462.0 43530.0 51355.0 144566.0 106109.0 144566.0 144566.0 144566.0 144566.0 144566.0 144566.0 144566.0 106109.0 106109.0 106109.0 106109.0 106109.0 106109.0 106109.0
81307.0 84767.0 175212.0 174812.0 189928.0 182719.0 54539.0 60071.0 128667.0 123286.0 242450.0 250136.0 33122.0 34839.0 163707.0 169307.0 125317.0 121297.0 140110.0 141086.0 87178.0 88874.0 98446.0 103263.0 208450.0 214557.0 259615.0 266468.0 28385.0 35359.0 50272.0 58165.0 0.0 7992.0 40809.0 40494.0 93001.0 99581.0 38861.0 41484.0 88120.0 113104.0 88120.0 88120.0 88120.0 88120.0 88120.0 88120.0 88120.0 113104.0 113104.0 113104.0 113104.0 113104.0 113104.0 113104.0
87677.0 90711.0 173768.0 172999.0 197081.0 189819.0 58256.0 64496.0 123763.0 118735.0 250252.0 257921.0 29285.0 32677.0 171667.0 177238.0 117326.0 113311.0 133652.0 134361.0 84264.0 85291.0 90527.0 95289.0 215772.0 221954.0 267503.0 274355.0 34536.0 41974.0 53601.0 61219.0 7992.0 0.0 35729.0 34232.0 100960.0 107495.0 35602.0 36812.0 88461.0 121085.0 88461.0 88461.0 88461.0 88461.0 88461.0 88461.0 88461.0 121085.0 121085.0 121085.0 121085.0 121085.0 121085.0 121085.0
94182.0 94223.0 142375.0 140761.0 205551.0 197927.0 54526.0 62924.0 139500.0 136298.0 265899.0 273214.0 9609.0 15469.0 191889.0 196438.0 102055.0 96137.0 100339.0 102023.0 109335.0 108145.0 81084.0 82953.0 225615.0 232513.0 285205.0 292054.0 49449.0 56868.0 49250.0 53668.0 40809.0 35729.0 0.0 8006.0 122630.0 127731.0 10152.0 2646.0 120994.0 143177.0 120994.0 120994.0 120994.0 120994.0 120994.0 120994.0 120994.0 143177.0 143177.0 143177.0 143177.0 143177.0 143177.0 143177.0
100563.0 100975.0 148505.0 146594.0 212099.0 204508.0 61599.0 69907.0 131814.0 128758.0 271457.0 278841.0 14858.0 22139.0 196460.0 201228.0 95496.0 89864.0 99617.0 100666.0 102840.0 101316.0 73642.0 75846.0 232012.0 238821.0 290344.0 297161.0 53576.0 61296.0 56277.0 61104.0 40494.0 34232.0 8006.0 0.0 126648.0 132083.0 17698.0 10644.0 116316.0 147199.0 116316.0 116316.0 116316.0 116316.0 116316.0 116316.0 116316.0 147199.0 147199.0 147199.0 147199.0 147199.0 147199.0 147199.0
51250.0 58768.0 207083.0 210360.0 108925.0 103054.0 81388.0 75469.0 205059.0 197759.0 150656.0 158504.0 113043.0 108265.0 70707.0 76406.0 218164.0 213831.0 219247.0 222333.0 155523.0 160916.0 191420.0 196241.0 123909.0 128669.0 167031.0 173884.0 73205.0 65811.0 84120.0 87024.0 93001.0 100960.0 122630.0 126648.0 0.0 8150.0 114508.0 121602.0 140034.0 20556.0 140034.0 140034.0 140034.0 140034.0 140034.0 140034.0 140034.0 20556.0 20556.0 20556.0 20556.0 20556.0 20556.0 20556.0
50715.0 57786.0 206549.0 210119.0 100782.0 94937.0 84094.0 77611.0 213061.0 205793.0 143367.0 151171.0 118193.0 113073.0 64494.0 69769.0 224458.0 219960.0 223166.0 226490.0 163591.0 168935.0 198022.0 202678.0 115795.0 120606.0 160072.0 166925.0 78509.0 70884.0 87231.0 89462.0 99581.0 107495.0 127731.0 132083.0 8150.0 0.0 119295.0 126579.0 148135.0 16669.0 148135.0 148135.0 148135.0 148135.0 148135.0 148135.0 148135.0 16669.0 16669.0 16669.0 16669.0 16669.0 16669.0 16669.0
84300.0 84174.0 138742.0 137685.0 195552.0 187916.0 44401.0 52817.0 147221.0 143642.0 256420.0 263690.0 6654.0 6245.0 183176.0 187545.0 112125.0 106125.0 106281.0 108572.0 114664.0 114079.0 91195.0 93105.0 215676.0 222614.0 276028.0 282879.0 41766.0 48745.0 39141.0 43530.0 38861.0 35602.0 10152.0 17698.0 114508.0 119295.0 0.0 8006.0 123436.0 135005.0 123436.0 123436.0 123436.0 123436.0 123436.0 123436.0 123436.0 135005.0 135005.0 135005.0 135005.0 135005.0 135005.0 135005.0
92286.0 92178.0 140242.0 138722.0 203557.0 195921.0 52379.0 60806.0 142101.0 138867.0 264269.0 271558.0 9070.0 13770.0 190630.0 195099.0 104131.0 98119.0 100483.0 102374.0 111647.0 110544.0 83476.0 85227.0 223676.0 230607.0 283732.0 290585.0 48517.0 55794.0 47132.0 51355.0 41484.0 36812.0 2646.0 10644.0 121602.0 126579.0 8006.0 0.0 122800.0 142135.0 122800.0 122800.0 122800.0 122800.0 122800.0 122800.0 122800.0 142135.0 142135.0 142135.0 142135.0 142135.0 142135.0 142135.0
154464.0 160365.0 262112.0 261115.0 248445.0 242216.0 139943.0 143565.0 92852.0 84514.0 289808.0 297692.0 116844.0 121091.0 209336.0 215192.0 154576.0 154719.0 205338.0 203519.0 44275.0 52073.0 125530.0 133371.0 263929.0 268701.0 305958.0 312811.0 110237.0 113779.0 136518.0 144566.0 88120.0 88461.0 120994.0 116316.0 140034.0 148135.0 123436.0 122800.0 0.0 158470.0 0.0 0.0 0.0 0.0 0.0 0.0 0.0 158470.0 158470.0 158470.0 158470.0 158470.0 158470.0 158470.0
66901.0 73696.0 222342.0 226086.0 97988.0 93095.0 100704.0 94275.0 223554.0 216221.0 132322.0 140267.0 133594.0 128765.0 50865.0 57106.0 238386.0 234156.0 239442.0 242642.0 173963.0 179394.0 211398.0 216364.0 110557.0 114448.0 149265.0 156118.0 93760.0 86341.0 103757.0 106109.0 113104.0 121085.0 143177.0 147199.0 20556.0 16669.0 135005.0 142135.0 158470.0 0.0 158470.0 158470.0 158470.0 158470.0 158470.0 158470.0 158470.0 0.0 0.0 0.0 0.0 0.0 0.0 0.0
154464.0 160365.0 262112.0 261115.0 248445.0 242216.0 139943.0 143565.0 92852.0 84514.0 289808.0 297692.0 116844.0 121091.0 209336.0 215192.0 154576.0 154719.0 205338.0 203519.0 44275.0 52073.0 125530.0 133371.0 263929.0 268701.0 305958.0 312811.0 110237.0 113779.0 136518.0 144566.0 88120.0 88461.0 120994.0 116316.0 140034.0 148135.0 123436.0 122800.0 0.0 158470.0 0.0 0.0 0.0 0.0 0.0 0.0 0.0 158470.0 158470.0 158470.0 158470.0 158470.0 158470.0 158470.0
154464.0 160365.0 262112.0 261115.0 248445.0 242216.0 139943.0 143565.0 92852.0 84514.0 289808.0 297692.0 116844.0 121091.0 209336.0 215192.0 154576.0 154719.0 205338.0 203519.0 44275.0 52073.0 125530.0 133371.0 263929.0 268701.0 305958.0 312811.0 110237.0 113779.0 136518.0 144566.0 88120.0 88461.0 120994.0 116316.0 140034.0 148135.0 123436.0 122800.0 0.0 158470.0 0.0 0.0 0.0 0.0 0.0 0.0 0.0 158470.0 158470.0 158470.0 158470.0 158470.0 158470.0 158470.0
154464.0 160365.0 262112.0 261115.0 248445.0 242216.0 139943.0 143565.0 92852.0 84514.0 289808.0 297692.0 116844.0 121091.0 209336.0 215192.0 154576.0 154719.0 205338.0 203519.0 44275.0 52073.0 125530.0 133371.0 263929.0 268701.0 305958.0 312811.0 110237.0 113779.0 136518.0 144566.0 88120.0 88461.0 120994.0 116316.0 140034.0 148135.0 123436.0 122800.0 0.0 158470.0 0.0 0.0 0.0 0.0 0.0 0.0 0.0 158470.0 158470.0 158470.0 158470.0 158470.0 158470.0 158470.0
154464.0 160365.0 262112.0 261115.0 248445.0 242216.0 139943.0 143565.0 92852.0 84514.0 289808.0 297692.0 116844.0 121091.0 209336.0 215192.0 154576.0 154719.0 205338.0 203519.0 44275.0 52073.0 125530.0 133371.0 263929.0 268701.0 305958.0 312811.0 110237.0 113779.0 136518.0 144566.0 88120.0 88461.0 120994.0 116316.0 140034.0 148135.0 123436.0 122800.0 0.0 158470.0 0.0 0.0 0.0 0.0 0.0 0.0 0.0 158470.0 158470.0 158470.0 158470.0 158470.0 158470.0 158470.0
154464.0 160365.0 262112.0 261115.0 248445.0 242216.0 139943.0 143565.0 92852.0 84514.0 289808.0 297692.0 116844.0 121091.0 209336.0 215192.0 154576.0 154719.0 205338.0 203519.0 44275.0 52073.0 125530.0 133371.0 263929.0 268701.0 305958.0 312811.0 110237.0 113779.0 136518.0 144566.0 88120.0 88461.0 120994.0 116316.0 140034.0 148135.0 123436.0 122800.0 0.0 158470.0 0.0 0.0 0.0 0.0 0.0 0.0 0.0 158470.0 158470.0 158470.0 158470.0 158470.0 158470.0 158470.0
154464.0 160365.0 262112.0 261115.0 248445.0 242216.0 139943.0 143565.0 92852.0 84514.0 289808.0 297692.0 116844.0 121091.0 209336.0 215192.0 154576.0 154719.0 205338.0 203519.0 44275.0 52073.0 125530.0 133371.0 263929.0 268701.0 305958.0 312811.0 110237.0 113779.0 136518.0 144566.0 88120.0 88461.0 120994.0 116316.0 140034.0 148135.0 123436.0 122800.0 0.0 158470.0 0.0 0.0 0.0 0.0 0.0 0.0 0.0 158470.0 158470.0 158470.0 158470.0 158470.0 158470.0 158470.0
154464.0 160365.0 262112.0 261115.0 248445.0 242216.0 139943.0 143565.0 92852.0 84514.0 289808.0 297692.0 116844.0 121091.0 209336.0 215192.0 154576.0 154719.0 205338.0 203519.0 44275.0 52073.0 125530.0 133371.0 263929.0 268701.0 305958.0 312811.0 110237.0 113779.0 136518.0 144566.0 88120.0 88461.0 120994.0 116316.0 140034.0 148135.0 123436.0 122800.0 0.0 158470.0 0.0 0.0 0.0 0.0 0.0 0.0 0.0 158470.0 158470.0 158470.0 158470.0 158470.0 158470.0 158470.0
66901.0 73696.0 222342.0 226086.0 97988.0 93095.0 100704.0 94275.0 223554.0 216221.0 132322.0 140267.0 133594.0 128765.0 50865.0 57106.0 238386.0 234156.0 239442.0 242642.0 173963.0 179394.0 211398.0 216364.0 110557.0 114448.0 149265.0 156118.0 93760.0 86341.0 103757.0 106109.0 113104.0 121085.0 143177.0 147199.0 20556.0 16669.0 135005.0 142135.0 158470.0 0.0 158470.0 158470.0 158470.0 158470.0 158470.0 158470.0 158470.0 0.0 0.0 0.0 0.0 0.0 0.0 0.0
66901.0 73696.0 222342.0 226086.0 97988.0 93095.0 100704.0 94275.0 223554.0 216221.0 132322.0 140267.0 133594.0 128765.0 50865.0 57106.0 238386.0 234156.0 239442.0 242642.0 173963.0 179394.0 211398.0 216364.0 110557.0 114448.0 149265.0 156118.0 93760.0 86341.0 103757.0 106109.0 113104.0 121085.0 143177.0 147199.0 20556.0 16669.0 135005.0 142135.0 158470.0 0.0 158470.0 158470.0 158470.0 158470.0 158470.0 158470.0 158470.0 0.0 0.0 0.0 0.0 0.0 0.0 0.0
66901.0 73696.0 222342.0 226086.0 97988.0 93095.0 100704.0 94275.0 223554.0 216221.0 132322.0 140267.0 133594.0 128765.0 50865.0 57106.0 238386.0 234156.0 239442.0 242642.0 173963.0 179394.0 211398.0 216364.0 110557.0 114448.0 149265.0 156118.0 93760.0 86341.0 103757.0 106109.0 113104.0 121085.0 143177.0 147199.0 20556.0 16669.0 135005.0 142135.0 158470.0 0.0 158470.0 158470.0 158470.0 158470.0 158470.0 158470.0 158470.0 0.0 0.0 0.0 0.0 0.0 0.0 0.0
66901.0 73696.0 222342.0 226086.0 97988.0 93095.0 100704.0 94275.0 223554.0 216221.0 132322.0 140267.0 133594.0 128765.0 50865.0 57106.0 238386.0 234156.0 239442.0 242642.0 173963.0 179394.0 211398.0 216364.0 110557.0 114448.0 149265.0 156118.0 93760.0 86341.0 103757.0 106109.0 113104.0 121085.0 143177.0 147199.0 20556.0 16669.0 135005.0 142135.0 158470.0 0.0 158470.0 158470.0 158470.0 158470.0 158470.0 158470.0 158470.0 0.0 0.0 0.0 0.0 0.0 0.0 0.0
66901.0 73696.0 222342.0 226086.0 97988.0 93095.0 100704.0 94275.0 223554.0 216221.0 132322.0 140267.0 133594.0 128765.0 50865.0 57106.0 238386.0 234156.0 239442.0 242642.0 173963.0 179394.0 211398.0 216364.0 110557.0 114448.0 149265.0 156118.0 93760.0 86341.0 103757.0 106109.0 113104.0 121085.0 143177.0 147199.0 20556.0 16669.0 135005.0 142135.0 158470.0 0.0 158470.0 158470.0 158470.0 158470.0 158470.0 158470.0 158470.0 0.0 0.0 0.0 0.0 0.0 0.0 0.0
66901.0 73696.0 222342.0 226086.0 97988.0 93095.0 100704.0 94275.0 223554.0 216221.0 132322.0 140267.0 133594.0 128765.0 50865.0 57106.0 238386.0 234156.0 239442.0 242642.0 173963.0 179394.0 211398.0 216364.0 110557.0 114448.0 149265.0 156118.0 93760.0 86341.0 103757.0 106109.0 113104.0 121085.0 143177.0 147199.0 20556.0 16669.0 135005.0 142135.0 158470.0 0.0 158470.0 158470.0 158470.0 158470.0 158470.0 158470.0 158470.0 0.0 0.0 0.0 0.0 0.0 0.0 0.0
66901.0 73696.0 222342.0 226086.0 97988.0 93095.0 100704.0 94275.0 223554.0 216221.0 132322.0 140267.0 133594.0 128765.0 50865.0 57106.0 238386.0 234156.0 239442.0 242642.0 173963.0 179394.0 211398.0 216364.0 110557.0 114448.0 149265.0 156118.0 93760.0 86341.0 103757.0 106109.0 113104.0 121085.0 143177.0 147199.0 20556.0 16669.0 135005.0 142135.0 158470.0 0.0 158470.0 158470.0 158470.0 158470.0 158470.0 158470.0 158470.0 0.0 0.0 0.0 0.0 0.0 0.0 0.0
FIXED_EDGES_SECTION
1 2
3 4
5 6
7 8
9 10
11 12
13 14
15 16
17 18
19 20
21 22
23 24
25 26
27 28
29 30
31 32
33 34
35 36
37 38
39 40
-1 
DEMAND_SECTION
1 342
2 342
3 234
4 234
5 244
6 244
7 421
8 421
9 251
10 251
11 99
12 99
13 191
14 191
15 114
16 114
17 497
18 497
19 68
20 68
21 104
22 104
23 55
24 55
25 350
26 350
27 280
28 280
29 80
30 80
31 177
32 177
33 56
34 56
35 541
36 541
37 235
38 235
39 256
40 256
41 0
42 0
43 0
44 0
45 0
46 0
47 0
48 0
49 0
50 0
51 0
52 0
53 0
54 0
55 0
56 0
DEPOT_SECTION
41 
-1 
CAPACITIES_SECTION
1250 
1375 
-1 
EOF