NAME: GFS_20_1
TYPE: GFSP
DIMENSION: 46
VEHICLES: 4
CAPACITY: 5000.0
TRIP_DIST_LIMIT: 600000.0
TOTAL_DIST_LIMIT: 1050000.0
EDGE_WEIGHT_TYPE: EXPLICIT
EDGE_WEIGHT_FORMAT: FULL_MATRIX
EDGE_WEIGHT_SECTION
0.0 8049.0 112304.0 114280.0 373762.0 377064.0 342590.0 348021.0 334145.0 340763.0 119290.0 112209.0 333119.0 328207.0 352158.0 356884.0 276147.0 268889.0 196048.0 204340.0 290053.0 297197.0 88254.0 96259.0 139646.0 147643.0 325576.0 331249.0 380929.0 387638.0 183896.0 175895.0 49264.0 55828.0 257676.0 249740.0 352586.0 360564.0 323553.0 325472.0 327097.0 170417.0 327097.0 327097.0 170417.0 170417.0
8049.0 0.0 109874.0 111300.0 369637.0 373083.0 341462.0 346892.0 328581.0 335284.0 118287.0 111207.0 331990.0 327078.0 348207.0 353059.0 273187.0 265813.0 192163.0 200505.0 287316.0 294565.0 82487.0 90537.0 135100.0 143065.0 323618.0 329422.0 375532.0 382312.0 181736.0 173716.0 50233.0 55954.0 255554.0 247600.0 349661.0 357647.0 319505.0 321592.0 325969.0 168223.0 325969.0 325969.0 168223.0 168223.0
112304.0 109874.0 0.0 8300.0 264841.0 267494.0 234787.0 240218.0 236799.0 242346.0 28991.0 22901.0 225135.0 220384.0 242565.0 246774.0 164071.0 156991.0 87919.0 95684.0 177782.0 184895.0 53969.0 51924.0 44674.0 51001.0 213865.0 219794.0 281018.0 286952.0 71927.0 63901.0 69044.0 60777.0 145719.0 137759.0 240424.0 248392.0 214541.0 215709.0 219294.0 63526.0 219294.0 219294.0 63526.0 63526.0
114280.0 111300.0 8300.0 0.0 260979.0 263856.0 236958.0 242412.0 230715.0 236408.0 37007.0 31176.0 226804.0 222305.0 238916.0 243331.0 161915.0 154613.0 83393.0 91393.0 176030.0 183323.0 49217.0 46193.0 36841.0 43507.0 213381.0 219507.0 275346.0 281399.0 71735.0 63769.0 73199.0 64927.0 145126.0 137158.0 238381.0 246364.0 210660.0 212101.0 221494.0 67000.0 221494.0 221494.0 67000.0 67000.0
373762.0 369637.0 264841.0 260979.0 0.0 8425.0 193699.0 189582.0 88535.0 81748.0 272107.0 274741.0 168127.0 174392.0 23321.0 22833.0 109869.0 114026.0 177850.0 169673.0 103914.0 101710.0 290094.0 282270.0 234771.0 226903.0 111567.0 115469.0 73937.0 71104.0 201195.0 208026.0 333868.0 325592.0 142189.0 147570.0 63372.0 62289.0 50320.0 49677.0 215326.0 229147.0 215326.0 215326.0 229147.0 229147.0
377064.0 373083.0 267494.0 263856.0 8425.0 0.0 188210.0 183866.0 96835.0 90113.0 273911.0 276773.0 162828.0 169304.0 24940.0 21661.0 110092.0 114788.0 181021.0 172760.0 102958.0 100115.0 294062.0 286291.0 238467.0 230651.0 107093.0 110553.0 81787.0 78614.0 202708.0 209703.0 336538.0 328271.0 141571.0 147285.0 57914.0 56037.0 53651.0 51785.0 210954.0 230070.0 210954.0 210954.0 230070.0 230070.0
342590.0 341462.0 234787.0 236958.0 193699.0 188210.0 0.0 8039.0 251309.0 249196.0 224829.0 230685.0 26005.0 22088.0 177253.0 172902.0 132031.0 138261.0 193126.0 187697.0 120290.0 114838.0 285208.0 280451.0 238027.0 234010.0 84458.0 78992.0 262179.0 261661.0 169440.0 176430.0 296335.0 288167.0 114054.0 119441.0 130370.0 132527.0 174554.0 167308.0 44275.0 173963.0 44275.0 44275.0 173963.0 173963.0
348021.0 346892.0 240218.0 242412.0 189582.0 183866.0 8039.0 0.0 249445.0 247084.0 230260.0 236116.0 24161.0 22919.0 173787.0 169166.0 132444.0 139000.0 196396.0 190723.0 120006.0 114144.0 290427.0 285530.0 242512.0 238301.0 81832.0 75855.0 258918.0 258174.0 174184.0 181315.0 301765.0 293598.0 116376.0 122131.0 126212.0 127964.0 172336.0 164947.0 52073.0 179394.0 52073.0 52073.0 179394.0 179394.0
334145.0 328581.0 236799.0 230715.0 88535.0 96835.0 251309.0 249445.0 0.0 8242.0 252875.0 252893.0 225570.0 229582.0 86988.0 94577.0 129005.0 127087.0 152154.0 146171.0 134722.0 138194.0 246101.0 238045.0 197100.0 189233.0 167896.0 174570.0 47928.0 55494.0 190824.0 195173.0 302363.0 294295.0 161564.0 162890.0 134040.0 137266.0 77528.0 85273.0 262112.0 222342.0 262112.0 262112.0 222342.0 222342.0
340763.0 335284.0 242346.0 236408.0 81748.0 90113.0 249196.0 247084.0 8242.0 0.0 257797.0 258021.0 223348.0 227614.0 81732.0 89142.0 129285.0 127898.0 156957.0 150713.0 134036.0 137051.0 252833.0 244771.0 203205.0 195299.0 165334.0 171804.0 40510.0 47852.0 194655.0 199252.0 308365.0 300263.0 162398.0 164117.0 129659.0 132504.0 74762.0 82289.0 261115.0 226086.0 261115.0 261115.0 226086.0 226086.0
119290.0 118287.0 28991.0 37007.0 272107.0 273911.0 224829.0 230260.0 252875.0 257797.0 0.0 8101.0 215358.0 210446.0 249209.0 252627.0 166334.0 160182.0 100857.0 107468.0 178360.0 184722.0 79602.0 79023.0 70507.0 75457.0 209472.0 214649.0 295181.0 300610.0 71547.0 64259.0 73021.0 64854.0 142895.0 135177.0 241253.0 249092.0 222307.0 222456.0 209336.0 50865.0 209336.0 209336.0 50865.0 50865.0
112209.0 111207.0 22901.0 31176.0 274741.0 276773.0 230685.0 236116.0 252893.0 258021.0 8101.0 0.0 221214.0 216302.0 251982.0 255612.0 170064.0 163664.0 101394.0 108390.0 182528.0 189081.0 71737.0 71411.0 66403.0 71962.0 214819.0 220162.0 295847.0 301436.0 75298.0 67699.0 65941.0 57773.0 147745.0 139944.0 245473.0 253353.0 224740.0 225163.0 215192.0 57106.0 215192.0 215192.0 57106.0 57106.0
333119.0 331990.0 225135.0 226804.0 168127.0 162828.0 26005.0 24161.0 225570.0 223348.0 215358.0 221214.0 0.0 8344.0 151347.0 147112.0 108631.0 115380.0 175701.0 169627.0 95919.0 89989.0 273941.0 268653.0 224202.0 219543.0 58454.0 53065.0 236205.0 235742.0 156864.0 164330.0 286863.0 278696.0 94569.0 100852.0 104918.0 107473.0 148656.0 141367.0 53939.0 164492.0 53939.0 53939.0 164492.0 164492.0
328207.0 327078.0 220384.0 222305.0 174392.0 169304.0 22088.0 22919.0 229582.0 227614.0 210446.0 216302.0 8344.0 0.0 157044.0 153074.0 110070.0 116430.0 173797.0 168007.0 98204.0 92778.0 269832.0 264711.0 220916.0 216488.0 63704.0 58961.0 241591.0 241341.0 153035.0 160355.0 281951.0 273784.0 93486.0 99331.0 111412.0 114310.0 153103.0 145976.0 45598.0 159580.0 45598.0 45598.0 159580.0 159580.0
352158.0 348207.0 242565.0 238916.0 23321.0 24940.0 177253.0 173787.0 86988.0 81732.0 249209.0 251982.0 151347.0 157044.0 0.0 7913.0 86562.0 90724.0 156111.0 147839.0 81038.0 79322.0 269391.0 261649.0 213687.0 205896.0 93419.0 98283.0 85252.0 84412.0 178139.0 185051.0 311609.0 303341.0 119073.0 124340.0 49476.0 51186.0 29028.0 26868.0 196277.0 205896.0 196277.0 196277.0 205896.0 205896.0
356884.0 353059.0 246774.0 243331.0 22833.0 21661.0 172902.0 169166.0 94577.0 89142.0 252627.0 255612.0 147112.0 153074.0 7913.0 0.0 88433.0 93203.0 160895.0 152563.0 81510.0 79008.0 274734.0 267044.0 218851.0 211115.0 89741.0 94134.0 90593.0 89195.0 181318.0 188385.0 315794.0 307539.0 120026.0 125665.0 43680.0 44572.0 35117.0 31551.0 193212.0 208479.0 193212.0 193212.0 208479.0 208479.0
276147.0 273187.0 164071.0 161915.0 109869.0 110092.0 132031.0 132444.0 129005.0 129285.0 166334.0 170064.0 108631.0 110070.0 86562.0 88433.0 0.0 8440.0 85735.0 77588.0 16317.0 24553.0 199917.0 192891.0 143987.0 137112.0 63375.0 71199.0 154640.0 157255.0 94826.0 102367.0 232314.0 224146.0 34265.0 38246.0 76476.0 84464.0 64720.0 61697.0 135648.0 120401.0 135648.0 135648.0 120401.0 120401.0
268889.0 265813.0 156991.0 154613.0 114026.0 114788.0 138261.0 139000.0 127087.0 127898.0 160182.0 163664.0 115380.0 116430.0 90724.0 93203.0 8440.0 0.0 77527.0 69330.0 24753.0 32989.0 191976.0 184893.0 135949.0 129001.0 71640.0 79430.0 155093.0 158117.0 88641.0 96007.0 225444.0 217279.0 34505.0 36770.0 84008.0 91998.0 67050.0 64957.0 140215.0 115283.0 140215.0 140215.0 115283.0 115283.0
196048.0 192163.0 87919.0 83393.0 177850.0 181021.0 193126.0 196396.0 152154.0 156957.0 100857.0 101394.0 175701.0 173797.0 156111.0 160895.0 85735.0 77527.0 0.0 8434.0 101585.0 109651.0 115168.0 107846.0 58889.0 51645.0 145588.0 152850.0 194461.0 200049.0 45043.0 46385.0 156563.0 148284.0 81777.0 74951.0 160747.0 168690.0 127569.0 129439.0 183483.0 75084.0 183483.0 183483.0 75084.0 75084.0
204340.0 200505.0 95684.0 91393.0 169673.0 172760.0 187697.0 190723.0 146171.0 150713.0 107468.0 108390.0 169627.0 168007.0 147839.0 152563.0 77588.0 69330.0 8434.0 0.0 93534.0 101640.0 123593.0 116256.0 67311.0 60027.0 137986.0 145328.0 187719.0 193154.0 47431.0 50069.0 164495.0 156213.0 75280.0 68777.0 152379.0 160317.0 119369.0 121132.0 179018.0 78498.0 179018.0 179018.0 78498.0 78498.0
290053.0 287316.0 177782.0 176030.0 103914.0 102958.0 120290.0 120006.0 134722.0 134036.0 178360.0 182528.0 95919.0 98204.0 81038.0 81510.0 16317.0 24753.0 101585.0 93534.0 0.0 8237.0 215176.0 208262.0 159467.0 152733.0 47409.0 55294.0 155687.0 157487.0 107288.0 115064.0 245552.0 237365.0 38777.0 45110.0 62948.0 70845.0 63858.0 59033.0 127471.0 130820.0 127471.0 127471.0 130820.0 130820.0
297197.0 294565.0 184895.0 183323.0 101710.0 100115.0 114838.0 114144.0 138194.0 137051.0 184722.0 189081.0 89989.0 92778.0 79322.0 79008.0 24553.0 32989.0 109651.0 101640.0 8237.0 0.0 222957.0 216094.0 167360.0 160688.0 39477.0 47391.0 156795.0 158181.0 113985.0 121837.0 252427.0 244215.0 43320.0 50306.0 56635.0 64405.0 64930.0 59306.0 124066.0 136565.0 124066.0 124066.0 136565.0 136565.0
88254.0 82487.0 53969.0 49217.0 290094.0 294062.0 285208.0 290427.0 246101.0 252833.0 79602.0 71737.0 273941.0 269832.0 269391.0 274734.0 199917.0 191976.0 115168.0 123593.0 215176.0 222957.0 0.0 8065.0 56284.0 63761.0 255954.0 262563.0 293124.0 299957.0 117218.0 109630.0 67941.0 62160.0 188132.0 180267.0 275735.0 283700.0 240429.0 243186.0 269783.0 116178.0 269783.0 269783.0 116178.0 116178.0
96259.0 90537.0 51924.0 46193.0 282270.0 286291.0 280451.0 285530.0 238045.0 244771.0 79023.0 71411.0 268653.0 264711.0 261649.0 267044.0 192891.0 184893.0 107846.0 116256.0 208262.0 216094.0 8065.0 0.0 48986.0 56284.0 249503.0 256193.0 285059.0 291892.0 111794.0 104360.0 74217.0 67989.0 181875.0 174050.0 268533.0 276490.0 232672.0 235502.0 265195.0 112592.0 265195.0 265195.0 112592.0 112592.0
139646.0 135100.0 44674.0 36841.0 234771.0 238467.0 238027.0 242512.0 197100.0 203205.0 70507.0 66403.0 224202.0 220916.0 213687.0 218851.0 143987.0 135949.0 58889.0 67311.0 159467.0 167360.0 56284.0 48986.0 0.0 8013.0 201498.0 208372.0 242830.0 249233.0 68931.0 62695.0 105318.0 97317.0 134544.0 126875.0 219548.0 227504.0 184819.0 187303.0 224102.0 80125.0 224102.0 224102.0 80125.0 80125.0
147643.0 143065.0 51001.0 43507.0 226903.0 230651.0 234010.0 238301.0 189233.0 195299.0 75457.0 71962.0 219543.0 216488.0 205896.0 211115.0 137112.0 129001.0 51645.0 60027.0 152733.0 160688.0 63761.0 56284.0 8013.0 0.0 195340.0 202313.0 234878.0 241263.0 65800.0 60195.0 113139.0 105102.0 128867.0 121302.0 212392.0 220336.0 177001.0 179564.0 220667.0 80081.0 220667.0 220667.0 80081.0 80081.0
325576.0 323618.0 213865.0 213381.0 111567.0 107093.0 84458.0 81832.0 167896.0 165334.0 209472.0 214819.0 58454.0 63704.0 93419.0 89741.0 63375.0 71640.0 145588.0 137986.0 47409.0 39477.0 255954.0 249503.0 201498.0 195340.0 0.0 7924.0 177900.0 177648.0 141938.0 149964.0 279643.0 271475.0 68259.0 76225.0 50134.0 54870.0 90572.0 83126.0 103862.0 159119.0 103862.0 103862.0 159119.0 159119.0
331249.0 329422.0 219794.0 219507.0 115469.0 110553.0 78992.0 75855.0 174570.0 171804.0 214649.0 220162.0 53065.0 58961.0 98283.0 94134.0 71199.0 79430.0 152850.0 145328.0 55294.0 47391.0 262563.0 256193.0 208372.0 202313.0 7924.0 0.0 183202.0 182680.0 147907.0 155927.0 285190.0 277023.0 74541.0 82478.0 52845.0 56622.0 97097.0 89516.0 100912.0 164086.0 100912.0 100912.0 164086.0 164086.0
380929.0 375532.0 281018.0 275346.0 73937.0 81787.0 262179.0 258918.0 47928.0 40510.0 295181.0 295847.0 236205.0 241591.0 85252.0 90593.0 154640.0 155093.0 194461.0 187719.0 155687.0 156795.0 293124.0 285059.0 242830.0 234878.0 177900.0 183202.0 0.0 8111.0 229710.0 234895.0 347738.0 339589.0 188840.0 191858.0 134271.0 134741.0 91924.0 97651.0 279075.0 260732.0 279075.0 279075.0 260732.0 260732.0
387638.0 382312.0 286952.0 281399.0 71104.0 78614.0 261661.0 258174.0 55494.0 47852.0 300610.0 301436.0 235742.0 241341.0 84412.0 89195.0 157255.0 158117.0 200049.0 193154.0 157487.0 158181.0 299957.0 291892.0 249233.0 241263.0 177648.0 182680.0 8111.0 0.0 234465.0 239818.0 353965.0 345794.0 191515.0 194823.0 132786.0 132782.0 93633.0 98877.0 279587.0 265317.0 279587.0 279587.0 265317.0 265317.0
183896.0 181736.0 71927.0 71735.0 201195.0 202708.0 169440.0 174184.0 190824.0 194655.0 71547.0 75298.0 156864.0 153035.0 178139.0 181318.0 94826.0 88641.0 45043.0 47431.0 107288.0 113985.0 117218.0 111794.0 68931.0 65800.0 141938.0 147907.0 229710.0 234465.0 0.0 8025.0 138527.0 130359.0 73818.0 65867.0 170233.0 178131.0 151847.0 151523.0 155178.0 31579.0 155178.0 155178.0 31579.0 31579.0
175895.0 173716.0 63901.0 63769.0 208026.0 209703.0 176430.0 181315.0 195173.0 199252.0 64259.0 67699.0 164330.0 160355.0 185051.0 188385.0 102367.0 96007.0 46385.0 50069.0 115064.0 121837.0 109630.0 104360.0 62695.0 60195.0 149964.0 155927.0 234895.0 239818.0 8025.0 0.0 130612.0 122445.0 81838.0 73885.0 177994.0 185906.0 158450.0 158352.0 161762.0 28701.0 161762.0 161762.0 28701.0 28701.0
49264.0 50233.0 69044.0 73199.0 333868.0 336538.0 296335.0 301765.0 302363.0 308365.0 73021.0 65941.0 286863.0 281951.0 311609.0 315794.0 232314.0 225444.0 156563.0 164495.0 245552.0 252427.0 67941.0 74217.0 105318.0 113139.0 279643.0 285190.0 347738.0 353965.0 138527.0 130612.0 0.0 8282.0 212021.0 204128.0 308411.0 316349.0 283560.0 284753.0 280842.0 124149.0 280842.0 280842.0 124149.0 124149.0
55828.0 55954.0 60777.0 64927.0 325592.0 328271.0 288167.0 293598.0 294295.0 300263.0 64854.0 57773.0 278696.0 273784.0 303341.0 307539.0 224146.0 217279.0 148284.0 156213.0 237365.0 244215.0 62160.0 67989.0 97317.0 105102.0 271475.0 277023.0 339589.0 345794.0 130359.0 122445.0 8282.0 0.0 203854.0 195961.0 300234.0 308170.0 275283.0 276486.0 272674.0 115982.0 272674.0 272674.0 115982.0 115982.0
257676.0 255554.0 145719.0 145126.0 142189.0 141571.0 114054.0 116376.0 161564.0 162398.0 142895.0 147745.0 94569.0 93486.0 119073.0 120026.0 34265.0 34505.0 81777.0 75280.0 38777.0 43320.0 188132.0 181875.0 134544.0 128867.0 68259.0 74541.0 188840.0 191515.0 73818.0 81838.0 212021.0 203854.0 0.0 7968.0 99634.0 107245.0 98816.0 95330.0 110237.0 93760.0 110237.0 110237.0 93760.0 93760.0
249740.0 247600.0 137759.0 137158.0 147570.0 147285.0 119441.0 122131.0 162890.0 164117.0 135177.0 139944.0 100852.0 99331.0 124340.0 125665.0 38246.0 36770.0 74951.0 68777.0 45110.0 50306.0 180267.0 174050.0 126875.0 121302.0 76225.0 82478.0 191858.0 194823.0 65867.0 73885.0 204128.0 195961.0 7968.0 0.0 106856.0 114539.0 102910.0 99914.0 113779.0 86341.0 113779.0 113779.0 86341.0 86341.0
352586.0 349661.0 240424.0 238381.0 63372.0 57914.0 130370.0 126212.0 134040.0 129659.0 241253.0 245473.0 104918.0 111412.0 49476.0 43680.0 76476.0 84008.0 160747.0 152379.0 62948.0 56635.0 275735.0 268533.0 219548.0 212392.0 50134.0 52845.0 134271.0 132786.0 170233.0 177994.0 308411.0 300234.0 99634.0 106856.0 0.0 7991.0 59863.0 52068.0 153652.0 193176.0 153652.0 153652.0 193176.0 193176.0
360564.0 357647.0 248392.0 246364.0 62289.0 56037.0 132527.0 127964.0 137266.0 132504.0 249092.0 253353.0 107473.0 114310.0 51186.0 44572.0 84464.0 91998.0 168690.0 160317.0 70845.0 64405.0 283700.0 276490.0 227504.0 220336.0 54870.0 56622.0 134741.0 132782.0 178131.0 185906.0 316349.0 308170.0 107245.0 114539.0 7991.0 0.0 64956.0 57375.0 157491.0 200878.0 157491.0 157491.0 200878.0 200878.0
323553.0 319505.0 214541.0 210660.0 50320.0 53651.0 174554.0 172336.0 77528.0 74762.0 222307.0 224740.0 148656.0 153103.0 29028.0 35117.0 64720.0 67050.0 127569.0 119369.0 63858.0 64930.0 240429.0 232672.0 184819.0 177001.0 90572.0 97097.0 91924.0 93633.0 151847.0 158450.0 283560.0 275283.0 98816.0 102910.0 59863.0 64956.0 0.0 7971.0 188170.0 180652.0 188170.0 188170.0 180652.0 180652.0
325472.0 321592.0 215709.0 212101.0 49677.0 51785.0 167308.0 164947.0 85273.0 82289.0 222456.0 225163.0 141367.0 145976.0 26868.0 31551.0 61697.0 64957.0 129439.0 121132.0 59033.0 59306.0 243186.0 235502.0 187303.0 179564.0 83126.0 89516.0 97651.0 98877.0 151523.0 158352.0 284753.0 276486.0 95330.0 99914.0 52068.0 57375.0 7971.0 0.0 181724.0 179673.0 181724.0 181724.0 179673.0 179673.0
327097.0 325969.0 219294.0 221494.0 215326.0 210954.0 44275.0 52073.0 262112.0 261115.0 209336.0 215192.0 53939.0 45598.0 196277.0 193212.0 135648.0 140215.0 183483.0 179018.0 127471.0 124066.0 269783.0 265195.0 224102.0 220667.0 103862.0 100912.0 279075.0 279587.0 155178.0 161762.0 280842.0 272674.0 110237.0 113779.0 153652.0 157491.0 188170.0 181724.0 0.0 158470.0 0.0 0.0 158470.0 158470.0
170417.0 168223.0 63526.0 67000.0 229147.0 230070.0 173963.0 179394.0 222342.0 226086.0 50865.0 57106.0 164492.0 159580.0 205896.0 208479.0 120401.0 115283.0 75084.0 78498.0 130820.0 136565.0 116178.0 112592.0 80125.0 80081.0 159119.0 164086.0 260732.0 265317.0 31579.0 28701.0 124149.0 115982.0 93760.0 86341.0 193176.0 200878.0 180652.0 179673.0 158470.0 0.0 158470.0 158470.0 0.0 0.0
327097.0 325969.0 219294.0 221494.0 215326.0 210954.0 44275.0 52073.0 262112.0 261115.0 209336.0 215192.0 53939.0 45598.0 196277.0 193212.0 135648.0 140215.0 183483.0 179018.0 127471.0 124066.0 269783.0 265195.0 224102.0 220667.0 103862.0 100912.0 279075.0 279587.0 155178.0 161762.0 280842.0 272674.0 110237.0 113779.0 153652.0 157491.0 188170.0 181724.0 0.0 158470.0 0.0 0.0 158470.0 158470.0
327097.0 325969.0 219294.0 221494.0 215326.0 210954.0 44275.0 52073.0 262112.0 261115.0 209336.0 215192.0 53939.0 45598.0 196277.0 193212.0 135648.0 140215.0 183483.0 179018.0 127471.0 124066.0 269783.0 265195.0 224102.0 220667.0 103862.0 100912.0 279075.0 279587.0 155178.0 161762.0 280842.0 272674.0 110237.0 113779.0 153652.0 157491.0 188170.0 181724.0 0.0 158470.0 0.0 0.0 158470.0 158470.0
170417.0 168223.0 63526.0 67000.0 229147.0 230070.0 173963.0 179394.0 222342.0 226086.0 50865.0 57106.0 164492.0 159580.0 205896.0 208479.0 120401.0 115283.0 75084.0 78498.0 130820.0 136565.0 116178.0 112592.0 80125.0 80081.0 159119.0 164086.0 260732.0 265317.0 31579.0 28701.0 124149.0 115982.0 93760.0 86341.0 193176.0 200878.0 180652.0 179673.0 158470.0 0.0 158470.0 158470.0 0.0 0.0
170417.0 168223.0 63526.0 67000.0 229147.0 230070.0 173963.0 179394.0 222342.0 226086.0 50865.0 57106.0 164492.0 159580.0 205896.0 208479.0 120401.0 115283.0 75084.0 78498.0 130820.0 136565.0 116178.0 112592.0 80125.0 80081.0 159119.0 164086.0 260732.0 265317.0 31579.0 28701.0 124149.0 115982.0 93760.0 86341.0 193176.0 200878.0 180652.0 179673.0 158470.0 0.0 158470.0 158470.0 0.0 0.0
FIXED_EDGES_SECTION
1 2
3 4
5 6
7 8
9 10
11 12
13 14
15 16
17 18
19 20
21 22
23 24
25 26
27 28
29 30
31 32
33 34
35 36
37 38
39 40
-1 
DEMAND_SECTION
1 491
2 491
3 563
4 563
5 76
6 76
7 104
8 104
9 234
10 234
11 114
12 114
13 100
14 100
15 72
16 72
17 279
18 279
19 68
20 68
21 89
22 89
23 268
24 268
25 336
26 336
27 353
28 353
29 138
30 138
31 371
32 371
33 224
34 224
35 80
36 80
37 90
38 90
39 180
40 180
41 0
42 0
43 0
44 0
45 0
46 0
DEPOT_SECTION
41 
-1 
CAPACITIES_SECTION
5000 
5500 
6000 
6500 
-1 
EOF