NAME: GFS_20_1
TYPE: GFSP
DIMENSION: 46
VEHICLES: 4
CAPACITY: 5000.0
TRIP_DIST_LIMIT: 600000.0
TOTAL_DIST_LIMIT: 1050000.0
EDGE_WEIGHT_TYPE: EXPLICIT
EDGE_WEIGHT_FORMAT: FULL_MATRIX
EDGE_WEIGHT_SECTION
0.0 8039.0 108608.0 109519.0 294240.0 300267.0 116924.0 119363.0 97786.0 102946.0 74480.0 78084.0 185139.0 178776.0 83234.0 82535.0 191768.0 196503.0 77729.0 75296.0 84356.0 85625.0 66812.0 62750.0 71331.0 73343.0 104006.0 110206.0 110202.0 116406.0 222378.0 214835.0 76280.0 68149.0 86533.0 86073.0 125153.0 122085.0 198489.0 200924.0 208797.0 196710.0 208797.0 208797.0 196710.0 196710.0
8039.0 0.0 113179.0 113578.0 301095.0 307195.0 115915.0 118877.0 101912.0 107505.0 69625.0 72621.0 182394.0 176254.0 86133.0 84724.0 196841.0 201775.0 80873.0 77705.0 85642.0 86146.0 64390.0 61216.0 70908.0 72035.0 108040.0 113856.0 108089.0 113940.0 229558.0 221987.0 70179.0 61999.0 87167.0 85967.0 126005.0 122467.0 196465.0 199182.0 208225.0 201614.0 208225.0 208225.0 201614.0 201614.0
108608.0 113179.0 0.0 8419.0 201317.0 208405.0 81368.0 75511.0 13041.0 5674.0 111805.0 119791.0 149907.0 141721.0 34751.0 41699.0 84213.0 89776.0 167152.0 168882.0 49998.0 57760.0 174503.0 169336.0 175296.0 179171.0 9856.0 14913.0 92819.0 100096.0 139159.0 131528.0 126382.0 123156.0 56394.0 64399.0 60054.0 65064.0 150672.0 148867.0 141771.0 88619.0 141771.0 141771.0 88619.0 88619.0
109519.0 113578.0 8419.0 0.0 206193.0 213402.0 73490.0 67434.0 11750.0 10180.0 107141.0 115095.0 141510.0 133322.0 31065.0 37104.0 85801.0 91875.0 170995.0 172371.0 44492.0 51860.0 175959.0 171098.0 177596.0 181141.0 5542.0 6503.0 85494.0 92627.0 145595.0 138022.0 122014.0 119242.0 50419.0 58372.0 51647.0 56754.0 142282.0 140523.0 133739.0 89649.0 133739.0 133739.0 89649.0 89649.0
294240.0 301095.0 201317.0 206193.0 0.0 8039.0 271395.0 263577.0 214280.0 206004.0 313111.0 321093.0 317877.0 310397.0 236050.0 242946.0 131290.0 123327.0 319055.0 324751.0 250684.0 257902.0 349770.0 342511.0 342918.0 349486.0 210524.0 210465.0 286940.0 292776.0 74872.0 81556.0 327672.0 324185.0 256420.0 264269.0 242450.0 250252.0 308729.0 303872.0 289808.0 132322.0 289808.0 289808.0 132322.0 132322.0
300267.0 307195.0 208405.0 213402.0 8039.0 0.0 279029.0 271232.0 221340.0 213032.0 320211.0 328197.0 325762.0 318281.0 243113.0 250069.0 139160.0 131188.0 323646.0 329457.0 257893.0 265164.0 355138.0 347818.0 347994.0 354645.0 217674.0 217754.0 294501.0 300385.0 79640.0 86612.0 334708.0 331131.0 263690.0 271558.0 250136.0 257921.0 316614.0 311757.0 297692.0 140267.0 297692.0 297692.0 140267.0 140267.0
116924.0 115915.0 81368.0 73490.0 271395.0 279029.0 0.0 8151.0 72288.0 79678.0 64882.0 70479.0 74800.0 67123.0 58081.0 51250.0 141677.0 149331.0 193769.0 192019.0 42375.0 36002.0 177939.0 176167.0 186654.0 187061.0 71872.0 67326.0 17385.0 21545.0 216869.0 209501.0 79240.0 81578.0 36035.0 32445.0 29453.0 21464.0 83398.0 84849.0 92538.0 142547.0 92538.0 92538.0 142547.0 142547.0
119363.0 118877.0 75511.0 67434.0 263577.0 271232.0 8151.0 0.0 67227.0 74235.0 71412.0 77369.0 77362.0 69421.0 54952.0 48763.0 133664.0 141343.0 195498.0 194072.0 40737.0 35592.0 181704.0 179609.0 189773.0 190501.0 66253.0 61124.0 25430.0 29626.0 209730.0 202409.0 86106.0 87998.0 35272.0 33472.0 21366.0 13402.0 83827.0 84547.0 89435.0 134468.0 89435.0 89435.0 134468.0 134468.0
97786.0 101912.0 13041.0 11750.0 214280.0 221340.0 72288.0 67227.0 0.0 8481.0 98891.0 106881.0 143437.0 135304.0 21773.0 28953.0 96579.0 102370.0 159802.0 161019.0 37692.0 45686.0 164209.0 159357.0 165912.0 169415.0 6325.0 14134.0 82310.0 89830.0 151420.0 143750.0 113396.0 110120.0 44401.0 52379.0 54539.0 58256.0 145998.0 144814.0 139943.0 100704.0 139943.0 139943.0 100704.0 100704.0
102946.0 107505.0 5674.0 10180.0 206004.0 213032.0 79678.0 74235.0 8481.0 0.0 107254.0 115245.0 149652.0 141485.0 30134.0 37419.0 89830.0 95329.0 162051.0 163668.0 46157.0 54119.0 168890.0 163758.0 169801.0 173622.0 8189.0 15823.0 90306.0 97740.0 142940.0 135270.0 121676.0 118265.0 52817.0 60806.0 60071.0 64496.0 151266.0 149739.0 143565.0 94275.0 143565.0 143565.0 94275.0 94275.0
74480.0 69625.0 111805.0 107141.0 313111.0 320211.0 64882.0 71412.0 98891.0 107254.0 0.0 7991.0 116930.0 111831.0 77126.0 70176.0 190558.0 197371.0 150048.0 146192.0 62948.0 56635.0 122106.0 122232.0 134271.0 132786.0 102623.0 103470.0 50134.0 52845.0 249298.0 241565.0 15509.0 16737.0 58192.0 51116.0 88207.0 81375.0 133875.0 137914.0 153652.0 193176.0 153652.0 153652.0 193176.0 193176.0
78084.0 72621.0 119791.0 115095.0 321093.0 328197.0 70479.0 77369.0 106881.0 115245.0 7991.0 0.0 118044.0 113396.0 85116.0 78152.0 198328.0 205178.0 152209.0 147989.0 70845.0 64405.0 121761.0 122418.0 134741.0 132782.0 110596.0 111377.0 54870.0 56622.0 257255.0 249521.0 8763.0 13449.0 65959.0 58751.0 94912.0 87877.0 135881.0 140275.0 157491.0 200878.0 157491.0 157491.0 200878.0 200878.0
185139.0 182394.0 149907.0 141510.0 317877.0 325762.0 74800.0 77362.0 143437.0 149652.0 116930.0 118044.0 0.0 8193.0 132283.0 125837.0 186669.0 194661.0 262862.0 260080.0 117164.0 110670.0 239008.0 238882.0 250630.0 249539.0 141473.0 135007.0 75556.0 68824.0 273941.0 267199.0 125277.0 131493.0 110790.0 106418.0 89873.0 85209.0 22537.0 29754.0 64593.0 186539.0 64593.0 64593.0 186539.0 186539.0
178776.0 176254.0 141721.0 133322.0 310397.0 318281.0 67123.0 69421.0 135304.0 141485.0 111831.0 113396.0 8193.0 0.0 124369.0 118007.0 179188.0 187173.0 256500.0 253872.0 109436.0 103077.0 233718.0 233380.0 244985.0 244091.0 133305.0 126819.0 68795.0 62373.0 266058.0 259285.0 120900.0 126818.0 103154.0 98989.0 81683.0 77062.0 23343.0 29454.0 60608.0 179059.0 60608.0 60608.0 179059.0 179059.0
83234.0 86133.0 34751.0 31065.0 236050.0 243113.0 58081.0 54952.0 21773.0 30134.0 77126.0 85116.0 132283.0 124369.0 0.0 7905.0 116760.0 122924.0 151788.0 151970.0 17639.0 25865.0 150017.0 145900.0 153677.0 156356.0 26005.0 29124.0 64825.0 72661.0 172781.0 165084.0 91633.0 88468.0 24872.0 32440.0 49038.0 49762.0 137939.0 137849.0 137159.0 120399.0 137159.0 137159.0 120399.0 120399.0
82535.0 84724.0 41699.0 37104.0 242946.0 250069.0 51250.0 48763.0 28953.0 37419.0 70176.0 78152.0 125837.0 118007.0 7905.0 0.0 122118.0 128512.0 153488.0 153259.0 9797.0 17992.0 149012.0 145273.0 153590.0 155875.0 32452.0 34127.0 57157.0 65026.0 180302.0 172617.0 84936.0 82166.0 17052.0 24540.0 45429.0 45020.0 132329.0 132562.0 133236.0 125451.0 133236.0 133236.0 125451.0 125451.0
191768.0 196841.0 84213.0 85801.0 131290.0 139160.0 141677.0 133664.0 96579.0 89830.0 190558.0 198328.0 186669.0 179188.0 116760.0 122118.0 0.0 7995.0 241626.0 244800.0 127897.0 133928.0 256317.0 250543.0 255101.0 259800.0 91131.0 87993.0 157982.0 163216.0 93181.0 87963.0 205868.0 203898.0 132373.0 139672.0 112321.0 120263.0 177522.0 172664.0 158600.0 7151.0 158600.0 158600.0 7151.0 7151.0
196503.0 201775.0 89776.0 91875.0 123327.0 131188.0 149331.0 141343.0 102370.0 95329.0 197371.0 205178.0 194661.0 187173.0 122924.0 128512.0 7995.0 0.0 244402.0 247801.0 134571.0 140777.0 260513.0 254588.0 258809.0 263687.0 97110.0 94404.0 165537.0 170860.0 86271.0 81340.0 212626.0 210488.0 139227.0 146618.0 120020.0 127944.0 185513.0 180656.0 166591.0 11757.0 166591.0 166591.0 11757.0 11757.0
77729.0 80873.0 167152.0 170995.0 319055.0 323646.0 193769.0 195498.0 159802.0 162051.0 150048.0 152209.0 262862.0 256500.0 151788.0 153488.0 241626.0 244402.0 0.0 8088.0 157666.0 160533.0 51844.0 44542.0 34815.0 42858.0 166019.0 173782.0 187867.0 194133.0 244184.0 237610.0 148385.0 140314.0 161198.0 162030.0 198490.0 196587.0 276038.0 278273.0 284593.0 247775.0 284593.0 284593.0 247775.0 247775.0
75296.0 77705.0 168882.0 172371.0 324751.0 329457.0 192019.0 194072.0 161019.0 163668.0 146192.0 147989.0 260080.0 253872.0 151970.0 153259.0 244800.0 247801.0 8088.0 0.0 156971.0 159443.0 43951.0 36825.0 26743.0 34774.0 167285.0 174884.0 185447.0 191512.0 249904.0 243235.0 143808.0 135811.0 160178.0 160614.0 197925.0 195707.0 273774.0 276214.0 283373.0 250835.0 283373.0 283373.0 250835.0 250835.0
84356.0 85642.0 49998.0 44492.0 250684.0 257893.0 42375.0 40737.0 37692.0 46157.0 62948.0 70845.0 117164.0 109436.0 17639.0 9797.0 127897.0 134571.0 157666.0 156971.0 0.0 8237.0 150003.0 146746.0 155687.0 157487.0 40376.0 40534.0 47409.0 55294.0 189062.0 181404.0 78085.0 76030.0 7256.0 14880.0 40999.0 39049.0 124564.0 125163.0 127471.0 130820.0 127471.0 127471.0 130820.0 130820.0
85625.0 86146.0 57760.0 51860.0 257902.0 265164.0 36002.0 35592.0 45686.0 54119.0 56635.0 64405.0 110670.0 103077.0 25865.0 17992.0 133928.0 140777.0 160533.0 159443.0 8237.0 0.0 150197.0 147356.0 156795.0 158181.0 48027.0 47460.0 39477.0 47391.0 196910.0 189269.0 71995.0 70574.0 1561.0 6700.0 39955.0 36462.0 119078.0 120068.0 124066.0 136565.0 124066.0 124066.0 136565.0 136565.0
66812.0 64390.0 174503.0 175959.0 349770.0 355138.0 177939.0 181704.0 164209.0 168890.0 122106.0 121761.0 239008.0 233718.0 150017.0 149012.0 256317.0 260513.0 51844.0 43951.0 150003.0 150197.0 0.0 8118.0 18123.0 12134.0 170481.0 176901.0 167906.0 172688.0 275705.0 268555.0 115720.0 108494.0 151282.0 149519.0 190141.0 186270.0 255271.0 258768.0 270462.0 261626.0 270462.0 270462.0 261626.0 261626.0
62750.0 61216.0 169336.0 171098.0 342511.0 347818.0 176167.0 179609.0 159357.0 163758.0 122232.0 122418.0 238882.0 233380.0 145900.0 145273.0 250543.0 254588.0 44542.0 36825.0 146746.0 147356.0 8118.0 0.0 13011.0 10896.0 165656.0 172283.0 166804.0 171880.0 268326.0 261215.0 116820.0 109337.0 148383.0 147023.0 187219.0 183636.0 254623.0 257905.0 268692.0 255959.0 268692.0 268692.0 255959.0 255959.0
71331.0 70908.0 175296.0 177596.0 342918.0 347994.0 186654.0 189773.0 165912.0 169801.0 134271.0 134741.0 250630.0 244985.0 153677.0 153590.0 255101.0 258809.0 34815.0 26743.0 155687.0 156795.0 18123.0 13011.0 0.0 8111.0 172235.0 179186.0 177900.0 183202.0 268367.0 261416.0 129351.0 121770.0 157750.0 156848.0 196457.0 193216.0 265985.0 269096.0 279075.0 260732.0 279075.0 279075.0 260732.0 260732.0
73343.0 72035.0 179171.0 181141.0 349486.0 354645.0 187061.0 190501.0 169415.0 173622.0 132786.0 132782.0 249539.0 244091.0 156356.0 155875.0 259800.0 263687.0 42858.0 34774.0 157487.0 158181.0 12134.0 10896.0 8111.0 0.0 175727.0 182472.0 177648.0 182680.0 275049.0 268040.0 126990.0 119617.0 159197.0 157892.0 198020.0 194484.0 265403.0 268723.0 279587.0 265317.0 279587.0 279587.0 265317.0 265317.0
104006.0 108040.0 9856.0 5542.0 210524.0 217674.0 71872.0 66253.0 6325.0 8189.0 102623.0 110596.0 141473.0 133305.0 26005.0 32452.0 91131.0 97110.0 166019.0 167285.0 40376.0 48027.0 170481.0 165656.0 172235.0 175727.0 0.0 8448.0 83023.0 90341.0 148945.0 141325.0 117367.0 114410.0 46640.0 54640.0 51886.0 56337.0 143121.0 141648.0 135822.0 95068.0 135822.0 135822.0 95068.0 95068.0
110206.0 113856.0 14913.0 6503.0 210465.0 217754.0 67326.0 61124.0 14134.0 15823.0 103470.0 111377.0 135007.0 126819.0 29124.0 34127.0 87993.0 94404.0 173782.0 174884.0 40534.0 47460.0 176901.0 172283.0 179186.0 182472.0 8448.0 0.0 79746.0 86758.0 150966.0 143437.0 118537.0 116132.0 45967.0 53805.0 45145.0 50288.0 135862.0 134167.0 127741.0 91411.0 127741.0 127741.0 91411.0 91411.0
110202.0 108089.0 92819.0 85494.0 286940.0 294501.0 17385.0 25430.0 82310.0 90306.0 50134.0 54870.0 75556.0 68795.0 64825.0 57157.0 157982.0 165537.0 187867.0 185447.0 47409.0 39477.0 167906.0 166804.0 177900.0 177648.0 83023.0 79746.0 0.0 7924.0 230539.0 223062.0 63595.0 66826.0 40189.0 33657.0 46338.0 38382.0 88378.0 91209.0 103862.0 159119.0 103862.0 103862.0 159119.0 159119.0
116406.0 113940.0 100096.0 92627.0 292776.0 300385.0 21545.0 29626.0 89830.0 97740.0 52845.0 56622.0 68824.0 62373.0 72661.0 65026.0 163216.0 170860.0 194133.0 191512.0 55294.0 47391.0 172688.0 171880.0 183202.0 182680.0 90341.0 86758.0 7924.0 0.0 237289.0 229849.0 65170.0 69249.0 48086.0 41577.0 50984.0 43001.0 82783.0 86080.0 100912.0 164086.0 100912.0 100912.0 164086.0 164086.0
222378.0 229558.0 139159.0 145595.0 74872.0 79640.0 216869.0 209730.0 151420.0 142940.0 249298.0 257255.0 273941.0 266058.0 172781.0 180302.0 93181.0 86271.0 244184.0 249904.0 189062.0 196910.0 275705.0 268326.0 268367.0 275049.0 148945.0 150966.0 230539.0 237289.0 0.0 7751.0 263012.0 258616.0 195552.0 203557.0 189928.0 197081.0 266971.0 262450.0 248445.0 97988.0 248445.0 248445.0 97988.0 97988.0
214835.0 221987.0 131528.0 138022.0 81556.0 86612.0 209501.0 202409.0 143750.0 135270.0 241565.0 249521.0 267199.0 259285.0 165084.0 172617.0 87963.0 81340.0 237610.0 243235.0 181404.0 189269.0 268555.0 261215.0 261416.0 268040.0 141325.0 143437.0 223062.0 229849.0 7751.0 0.0 255267.0 250865.0 187916.0 195921.0 182719.0 189819.0 260558.0 256141.0 242216.0 93095.0 242216.0 242216.0 93095.0 93095.0
76280.0 70179.0 126382.0 122014.0 327672.0 334708.0 79240.0 86106.0 113396.0 121676.0 15509.0 8763.0 125277.0 120900.0 91633.0 84936.0 205868.0 212626.0 148385.0 143808.0 78085.0 71995.0 115720.0 116820.0 129351.0 126990.0 117367.0 118537.0 63595.0 65170.0 263012.0 255267.0 0.0 8186.0 73555.0 66582.0 103473.0 96506.0 143586.0 148153.0 165956.0 208560.0 165956.0 165956.0 208560.0 208560.0
68149.0 61999.0 123156.0 119242.0 324185.0 331131.0 81578.0 87998.0 110120.0 118265.0 16737.0 13449.0 131493.0 126818.0 88468.0 82166.0 203898.0 210488.0 140314.0 135811.0 76030.0 70574.0 108494.0 109337.0 121770.0 119617.0 114410.0 116132.0 66826.0 69249.0 258616.0 250865.0 8186.0 0.0 72131.0 65663.0 104246.0 97619.0 149247.0 153563.0 170149.0 206844.0 170149.0 170149.0 206844.0 206844.0
86533.0 87167.0 56394.0 50419.0 256420.0 263690.0 36035.0 35272.0 44401.0 52817.0 58192.0 65959.0 110790.0 103154.0 24872.0 17052.0 132373.0 139227.0 161198.0 160178.0 7256.0 1561.0 151282.0 148383.0 157750.0 159197.0 46640.0 45967.0 40189.0 48086.0 195552.0 187916.0 73555.0 72131.0 0.0 8006.0 38861.0 35602.0 118913.0 119806.0 123436.0 135005.0 123436.0 123436.0 135005.0 135005.0
86073.0 85967.0 64399.0 58372.0 264269.0 271558.0 32445.0 33472.0 52379.0 60806.0 51116.0 58751.0 106418.0 98989.0 32440.0 24540.0 139672.0 146618.0 162030.0 160614.0 14880.0 6700.0 149519.0 147023.0 156848.0 157892.0 54640.0 53805.0 33657.0 41577.0 203557.0 195921.0 66582.0 65663.0 8006.0 0.0 41484.0 36812.0 115843.0 117213.0 122800.0 142135.0 122800.0 122800.0 142135.0 142135.0
125153.0 126005.0 60054.0 51647.0 242450.0 250136.0 29453.0 21366.0 54539.0 60071.0 88207.0 94912.0 89873.0 81683.0 49038.0 45429.0 112321.0 120020.0 198490.0 197925.0 40999.0 39955.0 190141.0 187219.0 196457.0 198020.0 51886.0 45145.0 46338.0 50984.0 189928.0 182719.0 103473.0 104246.0 38861.0 41484.0 0.0 7992.0 91461.0 90419.0 88120.0 113104.0 88120.0 88120.0 113104.0 113104.0
122085.0 122467.0 65064.0 56754.0 250252.0 257921.0 21464.0 13402.0 58256.0 64496.0 81375.0 87877.0 85209.0 77062.0 49762.0 45020.0 120263.0 127944.0 196587.0 195707.0 39049.0 36462.0 186270.0 183636.0 193216.0 194484.0 56337.0 50288.0 38382.0 43001.0 197081.0 189819.0 96506.0 97619.0 35602.0 36812.0 7992.0 0.0 88571.0 88168.0 88461.0 121085.0 88461.0 88461.0 121085.0 121085.0
198489.0 196465.0 150672.0 142282.0 308729.0 316614.0 83398.0 83827.0 145998.0 151266.0 133875.0 135881.0 22537.0 23343.0 137939.0 132329.0 177522.0 185513.0 276038.0 273774.0 124564.0 119078.0 255271.0 254623.0 265985.0 265403.0 143121.0 135862.0 88378.0 82783.0 266971.0 260558.0 143586.0 149247.0 118913.0 115843.0 91461.0 88571.0 0.0 7611.0 45843.0 177392.0 45843.0 45843.0 177392.0 177392.0
200924.0 199182.0 148867.0 140523.0 303872.0 311757.0 84849.0 84547.0 144814.0 149739.0 137914.0 140275.0 29754.0 29454.0 137849.0 132562.0 172664.0 180656.0 278273.0 276214.0 125163.0 120068.0 258768.0 257905.0 269096.0 268723.0 141648.0 134167.0 91209.0 86080.0 262450.0 256141.0 148153.0 153563.0 119806.0 117213.0 90419.0 88168.0 7611.0 0.0 38771.0 172534.0 38771.0 38771.0 172534.0 172534.0
208797.0 208225.0 141771.0 133739.0 289808.0 297692.0 92538.0 89435.0 139943.0 143565.0 153652.0 157491.0 64593.0 60608.0 137159.0 133236.0 158600.0 166591.0 284593.0 283373.0 127471.0 124066.0 270462.0 268692.0 279075.0 279587.0 135822.0 127741.0 103862.0 100912.0 248445.0 242216.0 165956.0 170149.0 123436.0 122800.0 88120.0 88461.0 45843.0 38771.0 0.0 158470.0 0.0 0.0 158470.0 158470.0
196710.0 201614.0 88619.0 89649.0 132322.0 140267.0 142547.0 134468.0 100704.0 94275.0 193176.0 200878.0 186539.0 179059.0 120399.0 125451.0 7151.0 11757.0 247775.0 250835.0 130820.0 136565.0 261626.0 255959.0 260732.0 265317.0 95068.0 91411.0 159119.0 164086.0 97988.0 93095.0 208560.0 206844.0 135005.0 142135.0 113104.0 121085.0 177392.0 172534.0 158470.0 0.0 158470.0 158470.0 0.0 0.0
208797.0 208225.0 141771.0 133739.0 289808.0 297692.0 92538.0 89435.0 139943.0 143565.0 153652.0 157491.0 64593.0 60608.0 137159.0 133236.0 158600.0 166591.0 284593.0 283373.0 127471.0 124066.0 270462.0 268692.0 279075.0 279587.0 135822.0 127741.0 103862.0 100912.0 248445.0 242216.0 165956.0 170149.0 123436.0 122800.0 88120.0 88461.0 45843.0 38771.0 0.0 158470.0 0.0 0.0 158470.0 158470.0
208797.0 208225.0 141771.0 133739.0 289808.0 297692.0 92538.0 89435.0 139943.0 143565.0 153652.0 157491.0 64593.0 60608.0 137159.0 133236.0 158600.0 166591.0 284593.0 283373.0 127471.0 124066.0 270462.0 268692.0 279075.0 279587.0 135822.0 127741.0 103862.0 100912.0 248445.0 242216.0 165956.0 170149.0 123436.0 122800.0 88120.0 88461.0 45843.0 38771.0 0.0 158470.0 0.0 0.0 158470.0 158470.0
196710.0 201614.0 88619.0 89649.0 132322.0 140267.0 142547.0 134468.0 100704.0 94275.0 193176.0 200878.0 186539.0 179059.0 120399.0 125451.0 7151.0 11757.0 247775.0 250835.0 130820.0 136565.0 261626.0 255959.0 260732.0 265317.0 95068.0 91411.0 159119.0 164086.0 97988.0 93095.0 208560.0 206844.0 135005.0 142135.0 113104.0 121085.0 177392.0 172534.0 158470.0 0.0 158470.0 158470.0 0.0 0.0
196710.0 201614.0 88619.0 89649.0 132322.0 140267.0 142547.0 134468.0 100704.0 94275.0 193176.0 200878.0 186539.0 179059.0 120399.0 125451.0 7151.0 11757.0 247775.0 250835.0 130820.0 136565.0 261626.0 255959.0 260732.0 265317.0 95068.0 91411.0 159119.0 164086.0 97988.0 93095.0 208560.0 206844.0 135005.0 142135.0 113104.0 121085.0 177392.0 172534.0 158470.0 0.0 158470.0 158470.0 0.0 0.0
FIXED_EDGES_SECTION
1 2
3 4
5 6
7 8
9 10
11 12
13 14
15 16
17 18
19 20
21 22
23 24
25 26
27 28
29 30
31 32
33 34
35 36
37 38
39 40
-1 
DEMAND_SECTION
1 157
2 157
3 223
4 223
5 99
6 99
7 171
8 171
9 421
10 421
11 90
12 90
13 396
14 396
15 90
16 90
17 37
18 37
19 120
20 120
21 89
22 89
23 542
24 542
25 138
26 138
27 119
28 119
29 353
30 353
31 244
32 244
33 211
34 211
35 256
36 256
37 56
38 56
39 341
40 341
41 0
42 0
43 0
44 0
45 0
46 0
DEPOT_SECTION
41 
-1 
CAPACITIES_SECTION
5000 
5500 
6000 
6500 
-1 
EOF