NAME: GFS_20_1
TYPE: GFSP
DIMENSION: 46
VEHICLES: 4
CAPACITY: 5000.0
TRIP_DIST_LIMIT: 600000.0
TOTAL_DIST_LIMIT: 1050000.0
EDGE_WEIGHT_TYPE: EXPLICIT
EDGE_WEIGHT_FORMAT: FULL_MATRIX
EDGE_WEIGHT_SECTION
0.0 7971.0 151612.0 149867.0 62672.0 58248.0 323553.0 319505.0 80395.0 86380.0 92043.0 91971.0 172890.0 168917.0 77090.0 82506.0 90572.0 97097.0 148205.0 145917.0 77528.0 74762.0 65542.0 73460.0 96505.0 98749.0 64720.0 67050.0 137417.0 129669.0 72108.0 69772.0 187414.0 188177.0 85210.0 77146.0 184819.0 177001.0 222307.0 224740.0 188170.0 180652.0 188170.0 188170.0 180652.0 180652.0
7971.0 0.0 153429.0 152087.0 68927.0 64998.0 325472.0 321592.0 79010.0 85541.0 91150.0 90353.0 165030.0 161009.0 85004.0 90338.0 83126.0 89516.0 146632.0 144759.0 85273.0 82289.0 58631.0 66570.0 89692.0 92301.0 61697.0 64957.0 129943.0 122261.0 66378.0 64686.0 179572.0 180406.0 80055.0 71978.0 187303.0 179564.0 222456.0 225163.0 181724.0 179673.0 181724.0 181724.0 179673.0 179673.0
151612.0 153429.0 0.0 8078.0 189920.0 181994.0 172044.0 168231.0 85276.0 76795.0 73055.0 79695.0 234649.0 236044.0 146184.0 141601.0 165022.0 171967.0 63979.0 56086.0 173423.0 178654.0 200016.0 206855.0 152004.0 145189.0 107547.0 99596.0 189828.0 182914.0 131257.0 124087.0 244386.0 239870.0 122852.0 123807.0 36602.0 30363.0 79946.0 79499.0 192960.0 64459.0 192960.0 192960.0 64459.0 64459.0
149867.0 152087.0 8078.0 0.0 185915.0 177946.0 173777.0 169640.0 86916.0 78480.0 75201.0 82323.0 239195.0 240367.0 140702.0 135863.0 167816.0 174924.0 71136.0 63179.0 168290.0 173749.0 200265.0 207258.0 155351.0 148761.0 108885.0 100741.0 194208.0 187135.0 133497.0 126159.0 249229.0 244893.0 125871.0 126336.0 35570.0 28300.0 86136.0 85153.0 199086.0 72531.0 199086.0 199086.0 72531.0 72531.0
62672.0 68927.0 189920.0 185915.0 0.0 8030.0 356640.0 351541.0 135919.0 139949.0 145476.0 147620.0 228814.0 223863.0 57995.0 65788.0 150875.0 156641.0 202012.0 198286.0 34883.0 27010.0 105919.0 112287.0 158540.0 161219.0 124636.0 125027.0 197275.0 189897.0 134772.0 132179.0 243527.0 245305.0 147605.0 139577.0 217565.0 209562.0 267273.0 268271.0 250648.0 231534.0 250648.0 250648.0 231534.0 231534.0
58248.0 64998.0 181994.0 177946.0 8030.0 0.0 348609.0 343513.0 129239.0 133030.0 138517.0 140900.0 227072.0 222341.0 50890.0 58706.0 147738.0 153763.0 194925.0 191069.0 30104.0 23025.0 106032.0 112731.0 154658.0 156996.0 118722.0 118751.0 194375.0 186858.0 130070.0 127123.0 241764.0 243285.0 142504.0 134523.0 209541.0 201539.0 259495.0 260436.0 246410.0 224138.0 246410.0 246410.0 224138.0 224138.0
323553.0 325472.0 172044.0 173777.0 356640.0 348609.0 0.0 8049.0 253804.0 245553.0 240823.0 245577.0 378850.0 382041.0 305345.0 298981.0 325576.0 331249.0 201390.0 197892.0 334145.0 340763.0 370136.0 376546.0 309793.0 301899.0 276147.0 268889.0 337211.0 331939.0 295959.0 289755.0 385918.0 380103.0 284277.0 287561.0 139646.0 147643.0 119290.0 112209.0 327097.0 170417.0 327097.0 327097.0 170417.0 170417.0
319505.0 321592.0 168231.0 169640.0 351541.0 343513.0 8049.0 0.0 250794.0 242487.0 237856.0 242824.0 377721.0 380912.0 299757.0 293307.0 323618.0 329422.0 199887.0 196107.0 328581.0 335284.0 367044.0 373547.0 308020.0 300181.0 273187.0 265813.0 335990.0 330910.0 293511.0 287186.0 384790.0 378974.0 282099.0 285182.0 135100.0 143065.0 118287.0 111207.0 325969.0 168223.0 325969.0 325969.0 168223.0 168223.0
80395.0 79010.0 85276.0 86916.0 135919.0 129239.0 253804.0 250794.0 0.0 8481.0 13041.0 11750.0 160864.0 160575.0 116745.0 116807.0 82310.0 89830.0 67811.0 65753.0 134776.0 136386.0 116348.0 122757.0 72288.0 67227.0 22441.0 15225.0 115973.0 108054.0 47028.0 39467.0 172806.0 170002.0 42504.0 40756.0 121795.0 115041.0 145035.0 148461.0 139943.0 100704.0 139943.0 139943.0 100704.0 100704.0
86380.0 85541.0 76795.0 78480.0 139949.0 133030.0 245553.0 242487.0 8481.0 0.0 5674.0 10180.0 167684.0 167631.0 117305.0 116800.0 90306.0 97740.0 62381.0 59585.0 136792.0 138882.0 124584.0 131064.0 79678.0 74235.0 30868.0 23336.0 122624.0 114819.0 55249.0 47769.0 179356.0 176310.0 49740.0 48654.0 113319.0 106581.0 137552.0 140782.0 143565.0 94275.0 143565.0 143565.0 94275.0 94275.0
92043.0 91150.0 73055.0 75201.0 145476.0 138517.0 240823.0 237856.0 13041.0 5674.0 0.0 8419.0 168533.0 168745.0 121861.0 121126.0 92819.0 100096.0 56746.0 53912.0 141837.0 144067.0 129357.0 135724.0 81368.0 75511.0 35332.0 28258.0 123361.0 115693.0 58306.0 51045.0 179909.0 176622.0 51451.0 51208.0 109651.0 103095.0 132163.0 135497.0 141771.0 88619.0 141771.0 141771.0 88619.0 88619.0
91971.0 90353.0 79695.0 82323.0 147620.0 140900.0 245577.0 242824.0 11750.0 10180.0 8419.0 0.0 160246.0 160540.0 127005.0 126678.0 85494.0 92627.0 56292.0 54624.0 145856.0 147672.0 125138.0 131233.0 73490.0 67434.0 31293.0 25634.0 115056.0 107429.0 51667.0 44738.0 171552.0 168229.0 43692.0 44114.0 116271.0 109935.0 135041.0 138797.0 133739.0 89649.0 133739.0 133739.0 89649.0 89649.0
172890.0 165030.0 234649.0 239195.0 228814.0 227072.0 378850.0 377721.0 160864.0 167684.0 168533.0 160246.0 0.0 7962.0 247781.0 251825.0 85546.0 77880.0 180204.0 185903.0 250212.0 246714.0 127231.0 123472.0 89381.0 93659.0 145837.0 153464.0 45216.0 52867.0 118547.0 125966.0 14718.0 18392.0 118442.0 121704.0 269377.0 264506.0 261089.0 266945.0 88720.0 210223.0 88720.0 88720.0 210223.0 210223.0
168917.0 161009.0 236044.0 240367.0 223863.0 222341.0 382041.0 380912.0 160575.0 167631.0 168745.0 160540.0 7962.0 0.0 244394.0 248631.0 83191.0 75370.0 182887.0 188352.0 246009.0 242310.0 121303.0 117254.0 88535.0 93401.0 144703.0 152511.0 46229.0 53280.0 117148.0 124702.0 20811.0 25889.0 118071.0 120836.0 271114.0 266059.0 264280.0 270136.0 94953.0 213414.0 94953.0 94953.0 213414.0 213414.0
77090.0 85004.0 146184.0 140702.0 57995.0 50890.0 305345.0 299757.0 116745.0 117305.0 121861.0 127005.0 247781.0 244394.0 0.0 7817.0 163009.0 170306.0 173765.0 168274.0 28841.0 35963.0 140271.0 147925.0 164656.0 164464.0 115278.0 111712.0 209090.0 200961.0 135812.0 130350.0 262040.0 262039.0 144157.0 137154.0 168664.0 160843.0 225985.0 225664.0 250760.0 197841.0 250760.0 250760.0 197841.0 197841.0
82506.0 90338.0 141601.0 135863.0 65788.0 58706.0 298981.0 293307.0 116807.0 116800.0 121126.0 126678.0 251825.0 248631.0 7817.0 0.0 166717.0 174133.0 171739.0 165996.0 35717.0 43197.0 146462.0 154180.0 167623.0 167073.0 116838.0 112764.0 212449.0 204275.0 138453.0 132693.0 265984.0 265771.0 146104.0 139326.0 162968.0 155209.0 221523.0 220973.0 252484.0 194778.0 252484.0 252484.0 194778.0 194778.0
90572.0 83126.0 165022.0 167816.0 150875.0 147738.0 325576.0 323618.0 82310.0 90306.0 92819.0 85494.0 85546.0 83191.0 163009.0 166717.0 0.0 7924.0 124851.0 127735.0 167896.0 165334.0 67596.0 69255.0 17385.0 25430.0 63375.0 71640.0 46847.0 39143.0 35697.0 43474.0 99426.0 99059.0 42290.0 41664.0 201498.0 195340.0 209472.0 214819.0 103862.0 159119.0 103862.0 103862.0 159119.0 159119.0
97097.0 89516.0 171967.0 174924.0 156641.0 153763.0 331249.0 329422.0 89830.0 97740.0 100096.0 92627.0 77880.0 75370.0 170306.0 174133.0 7924.0 0.0 130146.0 133359.0 174570.0 171804.0 69126.0 69891.0 21545.0 29626.0 71199.0 79430.0 40636.0 33387.0 43464.0 51240.0 91878.0 91746.0 49116.0 49095.0 208372.0 202313.0 214649.0 220162.0 100912.0 164086.0 100912.0 100912.0 164086.0 164086.0
148205.0 146632.0 63979.0 71136.0 202012.0 194925.0 201390.0 199887.0 67811.0 62381.0 56746.0 56292.0 180204.0 182887.0 173765.0 171739.0 124851.0 130146.0 0.0 8000.0 196200.0 199128.0 177072.0 182341.0 108618.0 100639.0 86251.0 81746.0 137358.0 131703.0 98609.0 93813.0 188147.0 182720.0 85079.0 89866.0 92857.0 89770.0 84639.0 90016.0 131325.0 34986.0 131325.0 131325.0 34986.0 34986.0
145917.0 144759.0 56086.0 63179.0 198286.0 191069.0 197892.0 196107.0 65753.0 59585.0 53912.0 54624.0 185903.0 188352.0 168274.0 165996.0 127735.0 133359.0 8000.0 0.0 191302.0 194482.0 177646.0 183173.0 111922.0 104075.0 85421.0 80259.0 142558.0 136636.0 99887.0 94605.0 194202.0 188944.0 87018.0 91210.0 85709.0 82347.0 82530.0 87349.0 138409.0 35028.0 138409.0 138409.0 35028.0 35028.0
77528.0 85273.0 173423.0 168290.0 34883.0 30104.0 334145.0 328581.0 134776.0 136792.0 141837.0 145856.0 250212.0 246009.0 28841.0 35717.0 167896.0 174570.0 196200.0 191302.0 0.0 8242.0 133436.0 140521.0 172426.0 173565.0 129005.0 127087.0 214723.0 206871.0 145371.0 141091.0 264790.0 265678.0 155940.0 148326.0 197100.0 189233.0 252875.0 252893.0 262112.0 222342.0 262112.0 262112.0 222342.0 222342.0
74762.0 82289.0 178654.0 173749.0 27010.0 23025.0 340763.0 335284.0 136386.0 138882.0 144067.0 147672.0 246714.0 242310.0 35963.0 43197.0 165334.0 171804.0 199128.0 194482.0 8242.0 0.0 128083.0 134995.0 170647.0 172164.0 129285.0 127898.0 212178.0 204427.0 144271.0 140370.0 261344.0 262466.0 155431.0 147682.0 203205.0 195299.0 257797.0 258021.0 261115.0 226086.0 261115.0 261115.0 226086.0 226086.0
65542.0 58631.0 200016.0 200265.0 105919.0 106032.0 370136.0 367044.0 116348.0 124584.0 129357.0 125138.0 127231.0 121303.0 140271.0 146462.0 67596.0 69126.0 177072.0 177646.0 133436.0 128083.0 0.0 7940.0 83235.0 90081.0 94098.0 101248.0 105322.0 99895.0 79024.0 83264.0 141802.0 144903.0 93817.0 87727.0 235817.0 228502.0 259729.0 263794.0 169876.0 212006.0 169876.0 169876.0 212006.0 212006.0
73460.0 66570.0 206855.0 207258.0 112287.0 112731.0 376546.0 373547.0 122757.0 131064.0 135724.0 131233.0 123472.0 117254.0 147925.0 154180.0 69255.0 69891.0 182341.0 183173.0 140521.0 134995.0 7940.0 0.0 85580.0 92780.0 100401.0 107752.0 104215.0 99285.0 83888.0 88591.0 137915.0 141388.0 98348.0 92636.0 242785.0 235523.0 265450.0 269658.0 169977.0 217317.0 169977.0 169977.0 217317.0 217317.0
96505.0 89692.0 152004.0 155351.0 158540.0 154658.0 309793.0 308020.0 72288.0 79678.0 81368.0 73490.0 89381.0 88535.0 164656.0 167623.0 17385.0 21545.0 108618.0 111922.0 172426.0 170647.0 83235.0 85580.0 0.0 8151.0 56498.0 64086.0 45806.0 37551.0 29792.0 36829.0 102144.0 100377.0 29955.0 32337.0 188207.0 182364.0 193105.0 198632.0 92538.0 142547.0 92538.0 92538.0 142547.0 142547.0
98749.0 92301.0 145189.0 148761.0 161219.0 156996.0 301899.0 300181.0 67227.0 74235.0 75511.0 67434.0 93659.0 93401.0 164464.0 167073.0 25430.0 29626.0 100639.0 104075.0 173565.0 172164.0 90081.0 92780.0 8151.0 0.0 53345.0 60404.0 49023.0 40954.0 28652.0 34663.0 105855.0 103518.0 24789.0 28938.0 181238.0 175528.0 185067.0 190639.0 89435.0 134468.0 89435.0 89435.0 134468.0 134468.0
64720.0 61697.0 107547.0 108885.0 124636.0 118722.0 276147.0 273187.0 22441.0 30868.0 35332.0 31293.0 145837.0 144703.0 115278.0 116838.0 63375.0 71199.0 86251.0 85421.0 129005.0 129285.0 94098.0 100401.0 56498.0 53345.0 0.0 8440.0 102058.0 93857.0 27787.0 20068.0 158629.0 156671.0 29823.0 24423.0 143987.0 137112.0 166334.0 170064.0 135648.0 120401.0 135648.0 135648.0 120401.0 120401.0
67050.0 64957.0 99596.0 100741.0 125027.0 118751.0 268889.0 265813.0 15225.0 23336.0 28258.0 25634.0 153464.0 152511.0 111712.0 112764.0 71640.0 79430.0 81746.0 80259.0 127087.0 127898.0 101248.0 107752.0 64086.0 60404.0 8440.0 0.0 109353.0 101200.0 35967.0 28197.0 166075.0 163913.0 36119.0 31765.0 135949.0 129001.0 160182.0 163664.0 140215.0 115283.0 140215.0 140215.0 115283.0 115283.0
137417.0 129943.0 189828.0 194208.0 197275.0 194375.0 337211.0 335990.0 115973.0 122624.0 123361.0 115056.0 45216.0 46229.0 209090.0 212449.0 46847.0 40636.0 137358.0 142558.0 214723.0 212178.0 105322.0 104215.0 45806.0 49023.0 102058.0 109353.0 0.0 8263.0 75577.0 82607.0 56858.0 54618.0 73758.0 77672.0 224896.0 219831.0 219450.0 225307.0 67138.0 168584.0 67138.0 67138.0 168584.0 168584.0
129669.0 122261.0 182914.0 187135.0 189897.0 186858.0 331939.0 330910.0 108054.0 114819.0 115693.0 107429.0 52867.0 53280.0 200961.0 204275.0 39143.0 33387.0 131703.0 136636.0 206871.0 204427.0 99895.0 99285.0 37551.0 40954.0 93857.0 101200.0 8263.0 0.0 67316.0 74362.0 64910.0 62844.0 65730.0 69490.0 218216.0 213016.0 214279.0 220135.0 69266.0 163413.0 69266.0 69266.0 163413.0 163413.0
72108.0 66378.0 131257.0 133497.0 134772.0 130070.0 295959.0 293511.0 47028.0 55249.0 58306.0 51667.0 118547.0 117148.0 135812.0 138453.0 35697.0 43464.0 98609.0 99887.0 145371.0 144271.0 79024.0 83888.0 29792.0 28652.0 27787.0 35967.0 75577.0 67316.0 0.0 7778.0 131641.0 130093.0 15340.0 8753.0 167856.0 161385.0 182407.0 187017.0 116844.0 133594.0 116844.0 116844.0 133594.0 133594.0
69772.0 64686.0 124087.0 126159.0 132179.0 127123.0 289755.0 287186.0 39467.0 47769.0 51045.0 44738.0 125966.0 124702.0 130350.0 132693.0 43474.0 51240.0 93813.0 94605.0 141091.0 140370.0 83264.0 88591.0 36829.0 34663.0 20068.0 28197.0 82607.0 74362.0 7778.0 0.0 138925.0 137201.0 15440.0 7401.0 160688.0 154132.0 176998.0 181405.0 121091.0 128765.0 121091.0 121091.0 128765.0 128765.0
187414.0 179572.0 244386.0 249229.0 243527.0 241764.0 385918.0 384790.0 172806.0 179356.0 179909.0 171552.0 14718.0 20811.0 262040.0 265984.0 99426.0 91878.0 188147.0 194202.0 264790.0 261344.0 141802.0 137915.0 102144.0 105855.0 158629.0 166075.0 56858.0 64910.0 131641.0 138925.0 0.0 8198.0 130612.0 134331.0 278572.0 273972.0 268157.0 274014.0 89757.0 217291.0 89757.0 89757.0 217291.0 217291.0
188177.0 180406.0 239870.0 244893.0 245305.0 243285.0 380103.0 378974.0 170002.0 176310.0 176622.0 168229.0 18392.0 25889.0 262039.0 265771.0 99059.0 91746.0 182720.0 188944.0 265678.0 262466.0 144903.0 141388.0 100377.0 103518.0 156671.0 163913.0 54618.0 62844.0 130093.0 137201.0 8198.0 0.0 128132.0 132274.0 273705.0 269265.0 262342.0 268198.0 82210.0 211476.0 82210.0 82210.0 211476.0 211476.0
85210.0 80055.0 122852.0 125871.0 147605.0 142504.0 284277.0 282099.0 42504.0 49740.0 51451.0 43692.0 118442.0 118071.0 144157.0 146104.0 42290.0 49116.0 85079.0 87018.0 155940.0 155431.0 93817.0 98348.0 29955.0 24789.0 29823.0 36119.0 73758.0 65730.0 15340.0 15440.0 130612.0 128132.0 0.0 8078.0 159270.0 153198.0 169446.0 174366.0 106667.0 119965.0 106667.0 106667.0 119965.0 119965.0
77146.0 71978.0 123807.0 126336.0 139577.0 134523.0 287561.0 285182.0 40756.0 48654.0 51208.0 44114.0 121704.0 120836.0 137154.0 139326.0 41664.0 49095.0 89866.0 91210.0 148326.0 147682.0 87727.0 92636.0 32337.0 28938.0 24423.0 31765.0 77672.0 69490.0 8753.0 7401.0 134331.0 132274.0 8078.0 0.0 160375.0 154043.0 173738.0 178399.0 113965.0 124850.0 113965.0 113965.0 124850.0 124850.0
184819.0 187303.0 36602.0 35570.0 217565.0 209541.0 139646.0 135100.0 121795.0 113319.0 109651.0 116271.0 269377.0 271114.0 168664.0 162968.0 201498.0 208372.0 92857.0 85709.0 197100.0 203205.0 235817.0 242785.0 188207.0 181238.0 143987.0 135949.0 224896.0 218216.0 167856.0 160688.0 278572.0 273705.0 159270.0 160375.0 0.0 8013.0 70507.0 66403.0 224102.0 80125.0 224102.0 224102.0 80125.0 80125.0
177001.0 179564.0 30363.0 28300.0 209562.0 201539.0 147643.0 143065.0 115041.0 106581.0 103095.0 109935.0 264506.0 266059.0 160843.0 155209.0 195340.0 202313.0 89770.0 82347.0 189233.0 195299.0 228502.0 235523.0 182364.0 175528.0 137112.0 129001.0 219831.0 213016.0 161385.0 154132.0 273972.0 269265.0 153198.0 154043.0 8013.0 0.0 75457.0 71962.0 220667.0 80081.0 220667.0 220667.0 80081.0 80081.0
222307.0 222456.0 79946.0 86136.0 267273.0 259495.0 119290.0 118287.0 145035.0 137552.0 132163.0 135041.0 261089.0 264280.0 225985.0 221523.0 209472.0 214649.0 84639.0 82530.0 252875.0 257797.0 259729.0 265450.0 193105.0 185067.0 166334.0 160182.0 219450.0 214279.0 182407.0 176998.0 268157.0 262342.0 169446.0 173738.0 70507.0 75457.0 0.0 8101.0 209336.0 50865.0 209336.0 209336.0 50865.0 50865.0
224740.0 225163.0 79499.0 85153.0 268271.0 260436.0 112209.0 111207.0 148461.0 140782.0 135497.0 138797.0 266945.0 270136.0 225664.0 220973.0 214819.0 220162.0 90016.0 87349.0 252893.0 258021.0 263794.0 269658.0 198632.0 190639.0 170064.0 163664.0 225307.0 220135.0 187017.0 181405.0 274014.0 268198.0 174366.0 178399.0 66403.0 71962.0 8101.0 0.0 215192.0 57106.0 215192.0 215192.0 57106.0 57106.0
188170.0 181724.0 192960.0 199086.0 250648.0 246410.0 327097.0 325969.0 139943.0 143565.0 141771.0 133739.0 88720.0 94953.0 250760.0 252484.0 103862.0 100912.0 131325.0 138409.0 262112.0 261115.0 169876.0 169977.0 92538.0 89435.0 135648.0 140215.0 67138.0 69266.0 116844.0 121091.0 89757.0 82210.0 106667.0 113965.0 224102.0 220667.0 209336.0 215192.0 0.0 158470.0 0.0 0.0 158470.0 158470.0
180652.0 179673.0 64459.0 72531.0 231534.0 224138.0 170417.0 168223.0 100704.0 94275.0 88619.0 89649.0 210223.0 213414.0 197841.0 194778.0 159119.0 164086.0 34986.0 35028.0 222342.0 226086.0 212006.0 217317.0 142547.0 134468.0 120401.0 115283.0 168584.0 163413.0 133594.0 128765.0 217291.0 211476.0 119965.0 124850.0 80125.0 80081.0 50865.0 57106.0 158470.0 0.0 158470.0 158470.0 0.0 0.0
188170.0 181724.0 192960.0 199086.0 250648.0 246410.0 327097.0 325969.0 139943.0 143565.0 141771.0 133739.0 88720.0 94953.0 250760.0 252484.0 103862.0 100912.0 131325.0 138409.0 262112.0 261115.0 169876.0 169977.0 92538.0 89435.0 135648.0 140215.0 67138.0 69266.0 116844.0 121091.0 89757.0 82210.0 106667.0 113965.0 224102.0 220667.0 209336.0 215192.0 0.0 158470.0 0.0 0.0 158470.0 158470.0
188170.0 181724.0 192960.0 199086.0 250648.0 246410.0 327097.0 325969.0 139943.0 143565.0 141771.0 133739.0 88720.0 94953.0 250760.0 252484.0 103862.0 100912.0 131325.0 138409.0 262112.0 261115.0 169876.0 169977.0 92538.0 89435.0 135648.0 140215.0 67138.0 69266.0 116844.0 121091.0 89757.0 82210.0 106667.0 113965.0 224102.0 220667.0 209336.0 215192.0 0.0 158470.0 0.0 0.0 158470.0 158470.0
180652.0 179673.0 64459.0 72531.0 231534.0 224138.0 170417.0 168223.0 100704.0 94275.0 88619.0 89649.0 210223.0 213414.0 197841.0 194778.0 159119.0 164086.0 34986.0 35028.0 222342.0 226086.0 212006.0 217317.0 142547.0 134468.0 120401.0 115283.0 168584.0 163413.0 133594.0 128765.0 217291.0 211476.0 119965.0 124850.0 80125.0 80081.0 50865.0 57106.0 158470.0 0.0 158470.0 158470.0 0.0 0.0
180652.0 179673.0 64459.0 72531.0 231534.0 224138.0 170417.0 168223.0 100704.0 94275.0 88619.0 89649.0 210223.0 213414.0 197841.0 194778.0 159119.0 164086.0 34986.0 35028.0 222342.0 226086.0 212006.0 217317.0 142547.0 134468.0 120401.0 115283.0 168584.0 163413.0 133594.0 128765.0 217291.0 211476.0 119965.0 124850.0 80125.0 80081.0 50865.0 57106.0 158470.0 0.0 158470.0 158470.0 0.0 0.0
FIXED_EDGES_SECTION
1 2
3 4
5 6
7 8
9 10
11 12
13 14
15 16
17 18
19 20
21 22
23 24
25 26
27 28
29 30
31 32
33 34
35 36
37 38
39 40
-1 
DEMAND_SECTION
1 180
2 180
3 84
4 84
5 258
6 258
7 491
8 491
9 421
10 421
11 223
12 223
13 274
14 274
15 321
16 321
17 353
18 353
19 100
20 100
21 234
22 234
23 224
24 224
25 171
26 171
27 279
28 279
29 155
30 155
31 191
32 191
33 216
34 216
35 114
36 114
37 336
38 336
39 114
40 114
41 0
42 0
43 0
44 0
45 0
46 0
DEPOT_SECTION
41 
-1 
CAPACITIES_SECTION
5000 
5500 
6000 
6500 
-1 
EOF