NAME: GFS_20_1
TYPE: GFSP
DIMENSION: 46
VEHICLES: 4
CAPACITY: 5000.0
TRIP_DIST_LIMIT: 600000.0
TOTAL_DIST_LIMIT: 1050000.0
EDGE_WEIGHT_TYPE: EXPLICIT
EDGE_WEIGHT_FORMAT: FULL_MATRIX
EDGE_WEIGHT_SECTION
0.0 7909.0 113800.0 121735.0 180401.0 184722.0 61315.0 65563.0 34643.0 42499.0 161721.0 154685.0 36088.0 42171.0 29411.0 24618.0 81307.0 87677.0 119156.0 126093.0 169382.0 167923.0 24870.0 32305.0 179301.0 176840.0 162851.0 156320.0 131460.0 138331.0 113862.0 119650.0 173112.0 176089.0 190350.0 191333.0 193841.0 198490.0 196658.0 188425.0 154464.0 66901.0 154464.0 154464.0 66901.0 66901.0
7909.0 0.0 116834.0 124879.0 177226.0 181823.0 67839.0 71586.0 32180.0 39737.0 163291.0 156072.0 42411.0 47804.0 25472.0 19060.0 84767.0 90711.0 120491.0 127656.0 174914.0 173709.0 22438.0 30451.0 183752.0 181015.0 166231.0 159926.0 131744.0 138850.0 116133.0 122267.0 174148.0 176780.0 193944.0 194634.0 187310.0 192115.0 197576.0 189355.0 160365.0 73696.0 160365.0 160365.0 73696.0 73696.0
113800.0 116834.0 0.0 8189.0 129391.0 128508.0 143163.0 151016.0 92717.0 89825.0 54144.0 49496.0 130524.0 138425.0 142294.0 135516.0 32813.0 26140.0 26677.0 26221.0 77938.0 81327.0 98744.0 91999.0 72475.0 67755.0 49678.0 44148.0 241144.0 247176.0 11809.0 8746.0 69095.0 75039.0 77721.0 77882.0 201607.0 201857.0 302930.0 294791.0 78028.0 143376.0 78028.0 78028.0 143376.0 143376.0
121735.0 124879.0 8189.0 0.0 130952.0 129565.0 149605.0 157503.0 100906.0 97983.0 49080.0 45373.0 137687.0 145543.0 150328.0 143600.0 40542.0 34170.0 29196.0 26432.0 72083.0 76025.0 106914.0 100185.0 64713.0 59779.0 41512.0 35979.0 248524.0 254478.0 16264.0 9037.0 64579.0 71051.0 69537.0 69777.0 206437.0 206420.0 309944.0 301823.0 74759.0 149722.0 74759.0 74759.0 149722.0 149722.0
180401.0 177226.0 129391.0 130952.0 0.0 8160.0 236025.0 242249.0 145758.0 137906.0 104104.0 99607.0 213734.0 221083.0 196092.0 187703.0 140110.0 133652.0 102715.0 104549.0 196426.0 202318.0 155548.0 148208.0 174433.0 166617.0 142862.0 145677.0 304948.0 312612.0 117715.0 122312.0 94859.0 88005.0 159232.0 152738.0 102427.0 98245.0 371732.0 363630.0 205338.0 239442.0 205338.0 205338.0 239442.0 239442.0
184722.0 181823.0 128508.0 129565.0 8160.0 0.0 239423.0 245798.0 150101.0 142293.0 100042.0 96038.0 217541.0 224992.0 201270.0 192857.0 141086.0 134361.0 101917.0 103140.0 193471.0 199568.0 159928.0 152445.0 170525.0 162660.0 139182.0 142394.0 310381.0 317995.0 116974.0 121112.0 89906.0 82753.0 154462.0 147778.0 110016.0 105619.0 377131.0 369006.0 203519.0 242642.0 203519.0 203519.0 242642.0 242642.0
61315.0 67839.0 143163.0 149605.0 236025.0 239423.0 0.0 7995.0 93134.0 100833.0 196802.0 191146.0 25448.0 21799.0 68158.0 71795.0 112321.0 120263.0 157982.0 163216.0 174821.0 172170.0 84281.0 90135.0 192965.0 192881.0 185951.0 178139.0 106678.0 110953.0 147932.0 151117.0 210763.0 215511.0 210352.0 213534.0 255101.0 259800.0 162168.0 154244.0 158600.0 7151.0 158600.0 158600.0 7151.0 7151.0
65563.0 71586.0 151016.0 157503.0 242249.0 245798.0 7995.0 0.0 98401.0 106188.0 204580.0 198868.0 29526.0 23958.0 69096.0 73559.0 120020.0 127944.0 165537.0 170860.0 182812.0 180161.0 89278.0 95495.0 200956.0 200872.0 193940.0 186131.0 99180.0 103290.0 155656.0 158931.0 218466.0 223144.0 218343.0 221529.0 258809.0 263687.0 154187.0 146271.0 166591.0 11757.0 166591.0 166591.0 11757.0 11757.0
34643.0 32180.0 92717.0 100906.0 145758.0 150101.0 93134.0 98401.0 0.0 7886.0 134634.0 127100.0 69059.0 75951.0 55172.0 47070.0 63540.0 67580.0 91774.0 99334.0 159618.0 159784.0 9847.0 3303.0 163427.0 159658.0 142298.0 136825.0 163687.0 170879.0 89763.0 96737.0 144416.0 146482.0 170399.0 170152.0 165425.0 169342.0 229697.0 221480.0 147836.0 97785.0 147836.0 147836.0 97785.0 97785.0
42499.0 39737.0 89825.0 97983.0 137906.0 142293.0 100833.0 106188.0 7886.0 0.0 129549.0 121892.0 76891.0 83821.0 61903.0 53643.0 62300.0 65492.0 86869.0 94571.0 159142.0 159702.0 17644.0 10701.0 161379.0 157285.0 139103.0 133962.0 170879.0 178137.0 85970.0 93232.0 138787.0 140555.0 167229.0 166645.0 158837.0 162571.0 237039.0 228830.0 148365.0 105378.0 148365.0 148365.0 105378.0 105378.0
161721.0 163291.0 54144.0 49080.0 104104.0 100042.0 196802.0 204580.0 134634.0 129549.0 0.0 8042.0 182689.0 190685.0 188454.0 180883.0 84738.0 76958.0 42906.0 35645.0 95298.0 102101.0 142622.0 134909.0 70489.0 62618.0 39487.0 43936.0 291983.0 298363.0 49142.0 45805.0 16000.0 23552.0 56327.0 50909.0 196538.0 194603.0 355098.0 346911.0 109849.0 197172.0 109849.0 109849.0 197172.0 197172.0
154685.0 156072.0 49496.0 45373.0 99607.0 96038.0 191146.0 198868.0 127100.0 121892.0 8042.0 0.0 176427.0 184439.0 181151.0 173514.0 78855.0 70967.0 35581.0 28690.0 97822.0 104281.0 135213.0 127448.0 74932.0 67189.0 43257.0 46462.0 285267.0 291721.0 43214.0 40876.0 19698.0 25682.0 62746.0 57806.0 190125.0 188394.0 348694.0 340495.0 109735.0 191730.0 109735.0 109735.0 191730.0 191730.0
36088.0 42411.0 130524.0 137687.0 213734.0 217541.0 25448.0 29526.0 69059.0 76891.0 182689.0 176427.0 0.0 8025.0 45043.0 47431.0 98171.0 105791.0 141938.0 147907.0 171398.0 168748.0 59816.0 66227.0 187364.0 186388.0 176525.0 169124.0 111234.0 116919.0 133561.0 137816.0 195742.0 199812.0 202468.0 204784.0 229710.0 234465.0 172497.0 164334.0 155178.0 31579.0 155178.0 155178.0 31579.0 31579.0
42171.0 47804.0 138425.0 145543.0 221083.0 224992.0 21799.0 23958.0 75951.0 83821.0 190685.0 184439.0 8025.0 0.0 46385.0 50069.0 106131.0 113772.0 149964.0 155927.0 177982.0 175331.0 66512.0 73219.0 194553.0 193718.0 184195.0 176746.0 103659.0 109215.0 141552.0 145762.0 203761.0 207837.0 209990.0 212404.0 234895.0 239818.0 164545.0 156390.0 161762.0 28701.0 161762.0 161762.0 28701.0 28701.0
29411.0 25472.0 142294.0 150328.0 196092.0 201270.0 68158.0 69096.0 55172.0 61903.0 188454.0 181151.0 45043.0 46385.0 0.0 8434.0 110133.0 116164.0 145588.0 152850.0 198626.0 197005.0 46183.0 54178.0 208662.0 206112.0 191646.0 185279.0 109467.0 116923.0 141558.0 147733.0 198996.0 201375.0 219306.0 220068.0 194461.0 200049.0 176031.0 167868.0 183483.0 75084.0 183483.0 183483.0 75084.0 75084.0
24618.0 19060.0 135516.0 143600.0 187703.0 192857.0 71795.0 73559.0 47070.0 53643.0 180883.0 173514.0 47431.0 50069.0 8434.0 0.0 103663.0 109437.0 137986.0 145328.0 193780.0 192441.0 38332.0 46240.0 202806.0 200038.0 185023.0 178808.0 117897.0 125357.0 134378.0 140717.0 191203.0 193460.0 212808.0 213377.0 187719.0 193154.0 184465.0 176301.0 179018.0 78498.0 179018.0 179018.0 78498.0 78498.0
81307.0 84767.0 32813.0 40542.0 140110.0 141086.0 112321.0 120020.0 63540.0 62300.0 84738.0 78855.0 98171.0 106131.0 110133.0 103663.0 0.0 7992.0 46338.0 50984.0 97024.0 98015.0 68162.0 62227.0 100117.0 96752.0 81553.0 75160.0 208450.0 214557.0 35658.0 39672.0 98446.0 103263.0 109179.0 110026.0 196457.0 198020.0 270668.0 262504.0 88120.0 113104.0 88120.0 88120.0 113104.0 113104.0
87677.0 90711.0 26140.0 34170.0 133652.0 134361.0 120263.0 127944.0 67580.0 65492.0 76958.0 70967.0 105791.0 113772.0 116164.0 109437.0 7992.0 0.0 38382.0 43001.0 95326.0 96958.0 73028.0 66592.0 95932.0 92079.0 75604.0 69608.0 215772.0 221954.0 27823.0 32319.0 90527.0 95289.0 103497.0 103942.0 193216.0 194484.0 278271.0 270098.0 88461.0 121085.0 88461.0 88461.0 121085.0 121085.0
119156.0 120491.0 26677.0 29196.0 102715.0 101917.0 157982.0 165537.0 91774.0 86869.0 42906.0 35581.0 141938.0 149964.0 145588.0 137986.0 46338.0 38382.0 0.0 7924.0 100295.0 104738.0 99717.0 92009.0 87935.0 81589.0 58734.0 56589.0 249977.0 256517.0 15059.0 20182.0 54109.0 57874.0 85546.0 83191.0 177900.0 177648.0 313798.0 305585.0 103862.0 159119.0 103862.0 103862.0 159119.0 159119.0
126093.0 127656.0 26221.0 26432.0 104549.0 103140.0 163216.0 170860.0 99334.0 94571.0 35645.0 28690.0 147907.0 155927.0 152850.0 145328.0 50984.0 43001.0 7924.0 0.0 95339.0 100194.0 107122.0 99483.0 81246.0 74670.0 51406.0 49787.0 256577.0 263034.0 16293.0 18113.0 47835.0 52298.0 77880.0 75370.0 183202.0 182680.0 320067.0 311864.0 100912.0 164086.0 100912.0 100912.0 164086.0 164086.0
169382.0 174914.0 77938.0 72083.0 196426.0 193471.0 174821.0 182812.0 159618.0 159142.0 95298.0 97822.0 171398.0 177982.0 198626.0 193780.0 97024.0 95326.0 100295.0 95339.0 0.0 7995.0 162681.0 157869.0 32612.0 38864.0 56298.0 51447.0 280150.0 284922.0 88331.0 80874.0 109301.0 117454.0 58400.0 65773.0 278191.0 277901.0 336985.0 329050.0 36893.0 174691.0 36893.0 36893.0 174691.0 174691.0
167923.0 173709.0 81327.0 76025.0 202318.0 199568.0 172170.0 180161.0 159784.0 159702.0 102101.0 104281.0 168748.0 175331.0 197005.0 192441.0 98015.0 96958.0 104738.0 100194.0 7995.0 0.0 162379.0 157896.0 40607.0 46807.0 63462.0 58165.0 277499.0 282271.0 92154.0 84967.0 116384.0 124532.0 66395.0 73761.0 282454.0 282358.0 334334.0 326399.0 31861.0 172040.0 31861.0 31861.0 172040.0 172040.0
24870.0 22438.0 98744.0 106914.0 155548.0 159928.0 84281.0 89278.0 9847.0 17644.0 142622.0 135213.0 59816.0 66512.0 46183.0 38332.0 68162.0 73028.0 99717.0 107122.0 162681.0 162379.0 0.0 8071.0 168268.0 164865.0 148422.0 142621.0 154117.0 161259.0 96695.0 103351.0 152874.0 155194.0 176433.0 176537.0 172627.0 176813.0 220012.0 211791.0 149818.0 89199.0 149818.0 149818.0 89199.0 89199.0
32305.0 30451.0 91999.0 100185.0 148208.0 152445.0 90135.0 95495.0 3303.0 10701.0 134909.0 127448.0 66227.0 73219.0 54178.0 46240.0 62227.0 66592.0 92009.0 99483.0 157869.0 157896.0 8071.0 0.0 162274.0 158641.0 141647.0 136035.0 162170.0 169297.0 89457.0 96284.0 144985.0 147226.0 169719.0 169623.0 168717.0 172619.0 228019.0 219797.0 145762.0 94711.0 145762.0 145762.0 94711.0 94711.0
179301.0 183752.0 72475.0 64713.0 174433.0 170525.0 192965.0 200956.0 163427.0 161379.0 70489.0 74932.0 187364.0 194553.0 208662.0 202806.0 100117.0 95932.0 87935.0 81246.0 32612.0 40607.0 168268.0 162274.0 0.0 7927.0 31851.0 31470.0 297859.0 302907.0 79829.0 71769.0 82408.0 90428.0 25791.0 33265.0 262959.0 261813.0 355129.0 347194.0 64505.0 192835.0 64505.0 64505.0 192835.0 192835.0
176840.0 181015.0 67755.0 59779.0 166617.0 162660.0 192881.0 200872.0 159658.0 157285.0 62618.0 67189.0 186388.0 193718.0 206112.0 200038.0 96752.0 92079.0 81589.0 74670.0 38864.0 46807.0 164865.0 158641.0 7927.0 0.0 24343.0 25025.0 297249.0 302461.0 74324.0 66292.0 74484.0 82510.0 20478.0 27215.0 255693.0 254451.0 354969.0 347070.0 68264.0 192751.0 68264.0 68264.0 192751.0 192751.0
162851.0 166231.0 49678.0 41512.0 142862.0 139182.0 185951.0 193940.0 142298.0 139103.0 39487.0 43257.0 176525.0 184195.0 191646.0 185023.0 81553.0 75604.0 58734.0 51406.0 56298.0 63462.0 148422.0 141647.0 31851.0 24343.0 0.0 8219.0 287746.0 293411.0 53694.0 46013.0 53008.0 61161.0 28126.0 28515.0 231373.0 230110.0 347715.0 339678.0 76270.0 185857.0 76270.0 76270.0 185857.0 185857.0
156320.0 159926.0 44148.0 35979.0 145677.0 142394.0 178139.0 186131.0 136825.0 133962.0 43936.0 46462.0 169124.0 176746.0 185279.0 178808.0 75160.0 69608.0 56589.0 49787.0 51447.0 58165.0 142621.0 136035.0 31470.0 25025.0 8219.0 0.0 280357.0 285951.0 49626.0 41667.0 58491.0 66604.0 34032.0 35660.0 231833.0 230855.0 340018.0 331996.0 68795.0 178033.0 68795.0 68795.0 178033.0 178033.0
131460.0 131744.0 241144.0 248524.0 304948.0 310381.0 106678.0 99180.0 163687.0 170879.0 291983.0 285267.0 111234.0 103659.0 109467.0 117897.0 208450.0 215772.0 249977.0 256577.0 280150.0 277499.0 154117.0 162170.0 297859.0 297249.0 287746.0 280357.0 0.0 8055.0 243198.0 248064.0 304081.0 307358.0 313649.0 316017.0 288722.0 295495.0 66796.0 58739.0 263929.0 110557.0 263929.0 263929.0 110557.0 110557.0
138331.0 138850.0 247176.0 254478.0 312612.0 317995.0 110953.0 103290.0 170879.0 178137.0 298363.0 291721.0 116919.0 109215.0 116923.0 125357.0 214557.0 221954.0 256517.0 263034.0 284922.0 282271.0 161259.0 169297.0 302907.0 302461.0 293411.0 285951.0 8055.0 0.0 249476.0 254209.0 310626.0 314014.0 319098.0 321607.0 296775.0 303550.0 59138.0 51018.0 268701.0 114448.0 268701.0 268701.0 114448.0 114448.0
113862.0 116133.0 11809.0 16264.0 117715.0 116974.0 147932.0 155656.0 89763.0 85970.0 49142.0 43214.0 133561.0 141552.0 141558.0 134378.0 35658.0 27823.0 15059.0 16293.0 88331.0 92154.0 96695.0 89457.0 79829.0 74324.0 53694.0 49626.0 243198.0 249476.0 0.0 8061.0 62847.0 67940.0 81689.0 80719.0 190395.0 190501.0 306006.0 297825.0 89706.0 148561.0 89706.0 89706.0 148561.0 148561.0
119650.0 122267.0 8746.0 9037.0 122312.0 121112.0 151117.0 158931.0 96737.0 93232.0 45805.0 40876.0 137816.0 145762.0 147733.0 140717.0 39672.0 32319.0 20182.0 18113.0 80874.0 84967.0 103351.0 96284.0 71769.0 66292.0 46013.0 41667.0 248064.0 254209.0 8061.0 0.0 60525.0 66353.0 74096.0 73442.0 197488.0 197428.0 310306.0 302149.0 83699.0 151405.0 83699.0 83699.0 151405.0 151405.0
173112.0 174148.0 69095.0 64579.0 94859.0 89906.0 210763.0 218466.0 144416.0 138787.0 16000.0 19698.0 195742.0 203761.0 198996.0 191203.0 98446.0 90527.0 54109.0 47835.0 109301.0 116384.0 152874.0 144985.0 82408.0 74484.0 53008.0 58491.0 304081.0 310626.0 62847.0 60525.0 0.0 8154.0 64576.0 57898.0 191327.0 188784.0 367838.0 359630.0 125530.0 211398.0 125530.0 125530.0 211398.0 211398.0
176089.0 176780.0 75039.0 71051.0 88005.0 82753.0 215511.0 223144.0 146482.0 140555.0 23552.0 25682.0 199812.0 207837.0 201375.0 193460.0 103263.0 95289.0 57874.0 52298.0 117454.0 124532.0 155194.0 147226.0 90428.0 82510.0 61161.0 66604.0 307358.0 314014.0 67940.0 66353.0 8154.0 0.0 72019.0 65112.0 185767.0 182986.0 371536.0 363317.0 133371.0 216364.0 133371.0 133371.0 216364.0 216364.0
190350.0 193944.0 77721.0 69537.0 159232.0 154462.0 210352.0 218343.0 170399.0 167229.0 56327.0 62746.0 202468.0 209990.0 219306.0 212808.0 109179.0 103497.0 85546.0 77880.0 58400.0 66395.0 176433.0 169719.0 25791.0 20478.0 28126.0 34032.0 313649.0 319098.0 81689.0 74096.0 64576.0 72019.0 0.0 7962.0 252803.0 250927.0 372490.0 364525.0 88720.0 210223.0 88720.0 88720.0 210223.0 210223.0
191333.0 194634.0 77882.0 69777.0 152738.0 147778.0 213534.0 221529.0 170152.0 166645.0 50909.0 57806.0 204784.0 212404.0 220068.0 213377.0 110026.0 103942.0 83191.0 75370.0 65773.0 73761.0 176537.0 169623.0 33265.0 27215.0 28515.0 35660.0 316017.0 321607.0 80719.0 73442.0 57898.0 65112.0 7962.0 0.0 247384.0 245326.0 375535.0 367530.0 94953.0 213414.0 94953.0 94953.0 213414.0 213414.0
193841.0 187310.0 201607.0 206437.0 102427.0 110016.0 255101.0 258809.0 165425.0 158837.0 196538.0 190125.0 229710.0 234895.0 194461.0 187719.0 196457.0 193216.0 177900.0 183202.0 278191.0 282454.0 172627.0 168717.0 262959.0 255693.0 231373.0 231833.0 288722.0 296775.0 190395.0 197488.0 191327.0 185767.0 252803.0 247384.0 0.0 8111.0 352728.0 345356.0 279075.0 260732.0 279075.0 279075.0 260732.0 260732.0
198490.0 192115.0 201857.0 206420.0 98245.0 105619.0 259800.0 263687.0 169342.0 162571.0 194603.0 188394.0 234465.0 239818.0 200049.0 193154.0 198020.0 194484.0 177648.0 182680.0 277901.0 282358.0 176813.0 172619.0 261813.0 254451.0 230110.0 230855.0 295495.0 303550.0 190501.0 197428.0 188784.0 182986.0 250927.0 245326.0 8111.0 0.0 359748.0 352334.0 279587.0 265317.0 279587.0 279587.0 265317.0 265317.0
196658.0 197576.0 302930.0 309944.0 371732.0 377131.0 162168.0 154187.0 229697.0 237039.0 355098.0 348694.0 172497.0 164545.0 176031.0 184465.0 270668.0 278271.0 313798.0 320067.0 336985.0 334334.0 220012.0 228019.0 355129.0 354969.0 347715.0 340018.0 66796.0 59138.0 306006.0 310306.0 367838.0 371536.0 372490.0 375535.0 352728.0 359748.0 0.0 8235.0 320764.0 164164.0 320764.0 320764.0 164164.0 164164.0
188425.0 189355.0 294791.0 301823.0 363630.0 369006.0 154244.0 146271.0 221480.0 228830.0 346911.0 340495.0 164334.0 156390.0 167868.0 176301.0 262504.0 270098.0 305585.0 311864.0 329050.0 326399.0 211791.0 219797.0 347194.0 347070.0 339678.0 331996.0 58739.0 51018.0 297825.0 302149.0 359630.0 363317.0 364525.0 367530.0 345356.0 352334.0 8235.0 0.0 312829.0 156343.0 312829.0 312829.0 156343.0 156343.0
154464.0 160365.0 78028.0 74759.0 205338.0 203519.0 158600.0 166591.0 147836.0 148365.0 109849.0 109735.0 155178.0 161762.0 183483.0 179018.0 88120.0 88461.0 103862.0 100912.0 36893.0 31861.0 149818.0 145762.0 64505.0 68264.0 76270.0 68795.0 263929.0 268701.0 89706.0 83699.0 125530.0 133371.0 88720.0 94953.0 279075.0 279587.0 320764.0 312829.0 0.0 158470.0 0.0 0.0 158470.0 158470.0
66901.0 73696.0 143376.0 149722.0 239442.0 242642.0 7151.0 11757.0 97785.0 105378.0 197172.0 191730.0 31579.0 28701.0 75084.0 78498.0 113104.0 121085.0 159119.0 164086.0 174691.0 172040.0 89199.0 94711.0 192835.0 192751.0 185857.0 178033.0 110557.0 114448.0 148561.0 151405.0 211398.0 216364.0 210223.0 213414.0 260732.0 265317.0 164164.0 156343.0 158470.0 0.0 158470.0 158470.0 0.0 0.0
154464.0 160365.0 78028.0 74759.0 205338.0 203519.0 158600.0 166591.0 147836.0 148365.0 109849.0 109735.0 155178.0 161762.0 183483.0 179018.0 88120.0 88461.0 103862.0 100912.0 36893.0 31861.0 149818.0 145762.0 64505.0 68264.0 76270.0 68795.0 263929.0 268701.0 89706.0 83699.0 125530.0 133371.0 88720.0 94953.0 279075.0 279587.0 320764.0 312829.0 0.0 158470.0 0.0 0.0 158470.0 158470.0
154464.0 160365.0 78028.0 74759.0 205338.0 203519.0 158600.0 166591.0 147836.0 148365.0 109849.0 109735.0 155178.0 161762.0 183483.0 179018.0 88120.0 88461.0 103862.0 100912.0 36893.0 31861.0 149818.0 145762.0 64505.0 68264.0 76270.0 68795.0 263929.0 268701.0 89706.0 83699.0 125530.0 133371.0 88720.0 94953.0 279075.0 279587.0 320764.0 312829.0 0.0 158470.0 0.0 0.0 158470.0 158470.0
66901.0 73696.0 143376.0 149722.0 239442.0 242642.0 7151.0 11757.0 97785.0 105378.0 197172.0 191730.0 31579.0 28701.0 75084.0 78498.0 113104.0 121085.0 159119.0 164086.0 174691.0 172040.0 89199.0 94711.0 192835.0 192751.0 185857.0 178033.0 110557.0 114448.0 148561.0 151405.0 211398.0 216364.0 210223.0 213414.0 260732.0 265317.0 164164.0 156343.0 158470.0 0.0 158470.0 158470.0 0.0 0.0
66901.0 73696.0 143376.0 149722.0 239442.0 242642.0 7151.0 11757.0 97785.0 105378.0 197172.0 191730.0 31579.0 28701.0 75084.0 78498.0 113104.0 121085.0 159119.0 164086.0 174691.0 172040.0 89199.0 94711.0 192835.0 192751.0 185857.0 178033.0 110557.0 114448.0 148561.0 151405.0 211398.0 216364.0 210223.0 213414.0 260732.0 265317.0 164164.0 156343.0 158470.0 0.0 158470.0 158470.0 0.0 0.0
FIXED_EDGES_SECTION
1 2
3 4
5 6
7 8
9 10
11 12
13 14
15 16
17 18
19 20
21 22
23 24
25 26
27 28
29 30
31 32
33 34
35 36
37 38
39 40
-1 
DEMAND_SECTION
1 342
2 342
3 394
4 394
5 68
6 68
7 37
8 37
9 291
10 291
11 461
12 461
13 371
14 371
15 68
16 68
17 56
18 56
19 353
20 353
21 97
22 97
23 158
24 158
25 247
26 247
27 493
28 493
29 350
30 350
31 207
32 207
33 55
34 55
35 274
36 274
37 138
38 138
39 421
40 421
41 0
42 0
43 0
44 0
45 0
46 0
DEPOT_SECTION
41 
-1 
CAPACITIES_SECTION
5000 
5500 
6000 
6500 
-1 
EOF