NAME: GFS_20_1
TYPE: GFSP
DIMENSION: 46
VEHICLES: 4
CAPACITY: 5000.0
TRIP_DIST_LIMIT: 600000.0
TOTAL_DIST_LIMIT: 1050000.0
EDGE_WEIGHT_TYPE: EXPLICIT
EDGE_WEIGHT_FORMAT: FULL_MATRIX
EDGE_WEIGHT_SECTION
0.0 8448.0 141473.0 133305.0 112307.0 120323.0 77691.0 83996.0 113124.0 106441.0 94355.0 86724.0 136481.0 139057.0 166019.0 167285.0 111739.0 106650.0 152558.0 145969.0 56319.0 51753.0 31199.0 39149.0 72976.0 75410.0 40376.0 48027.0 61822.0 60056.0 201328.0 195244.0 134134.0 135011.0 142240.0 135564.0 180095.0 174971.0 48452.0 41220.0 135822.0 95068.0 135822.0 135822.0 95068.0 95068.0
8448.0 0.0 135007.0 126819.0 111007.0 119115.0 76508.0 82202.0 114746.0 108408.0 91633.0 84275.0 133682.0 136710.0 173782.0 174884.0 115531.0 110028.0 146712.0 139937.0 52975.0 48677.0 22764.0 30739.0 79265.0 82234.0 40534.0 47460.0 57251.0 56477.0 201422.0 195563.0 138615.0 139044.0 149142.0 142619.0 173767.0 168431.0 46615.0 40051.0 127741.0 91411.0 127741.0 127741.0 91411.0 91411.0
141473.0 135007.0 0.0 8193.0 91154.0 93460.0 95860.0 88511.0 237834.0 233417.0 75857.0 81341.0 72166.0 80285.0 262862.0 260080.0 157324.0 149496.0 19196.0 11738.0 162460.0 161326.0 117756.0 111281.0 166900.0 174741.0 117164.0 110670.0 157150.0 163152.0 310112.0 305950.0 180126.0 174081.0 224904.0 222325.0 38893.0 33534.0 104591.0 111483.0 64593.0 186539.0 64593.0 64593.0 186539.0 186539.0
133305.0 126819.0 8193.0 0.0 86939.0 89862.0 89332.0 82229.0 229901.0 225430.0 70039.0 75074.0 70561.0 78714.0 256500.0 253872.0 151947.0 144058.0 24953.0 16888.0 154581.0 153384.0 109592.0 103155.0 159861.0 167636.0 109436.0 103077.0 149418.0 155331.0 302632.0 298440.0 175176.0 169357.0 218885.0 216119.0 47075.0 41674.0 96890.0 103687.0 60608.0 179059.0 60608.0 60608.0 179059.0 179059.0
112307.0 111007.0 91154.0 86939.0 0.0 8167.0 34617.0 29152.0 225396.0 218748.0 25702.0 29516.0 32461.0 30605.0 178638.0 174711.0 68760.0 61512.0 86385.0 85491.0 160341.0 156852.0 109203.0 108437.0 94836.0 103034.0 72282.0 64336.0 160889.0 163058.0 312171.0 306451.0 89679.0 83211.0 138735.0 137562.0 115563.0 115760.0 64400.0 71167.0 134550.0 195588.0 134550.0 134550.0 195588.0 195588.0
120323.0 119115.0 93460.0 89862.0 8167.0 0.0 42661.0 37319.0 233434.0 226755.0 33062.0 37479.0 29047.0 25382.0 180731.0 176493.0 70211.0 63428.0 87043.0 86903.0 168507.0 165019.0 117345.0 116512.0 100117.0 108240.0 80205.0 72317.0 169027.0 171219.0 320318.0 314588.0 89506.0 82558.0 140452.0 139734.0 115422.0 116221.0 72520.0 79227.0 139846.0 203707.0 139846.0 139846.0 203707.0 203707.0
77691.0 76508.0 95860.0 89332.0 34617.0 42661.0 0.0 8408.0 190782.0 184132.0 22465.0 15036.0 61408.0 62545.0 167185.0 164684.0 66764.0 58808.0 98033.0 94329.0 126722.0 123054.0 76469.0 76820.0 72110.0 80224.0 37806.0 29760.0 127969.0 129610.0 277849.0 272051.0 91965.0 88059.0 130064.0 126961.0 128449.0 126368.0 30016.0 36566.0 123494.0 162894.0 123494.0 123494.0 162894.0 162894.0
83996.0 82202.0 88511.0 82229.0 29152.0 37319.0 8408.0 0.0 196845.0 190332.0 14089.0 7169.0 53643.0 55300.0 174353.0 171646.0 71617.0 63613.0 90004.0 86520.0 131192.0 127701.0 80159.0 79715.0 80270.0 88418.0 44823.0 36617.0 131844.0 133922.0 283116.0 277447.0 96354.0 91865.0 136715.0 133892.0 120426.0 118533.0 35644.0 42796.0 119091.0 166617.0 119091.0 119091.0 166617.0 166617.0
113124.0 114746.0 237834.0 229901.0 225396.0 233434.0 190782.0 196845.0 0.0 7996.0 206301.0 199013.0 248236.0 251439.0 223525.0 228476.0 215193.0 212049.0 252990.0 245380.0 75497.0 76519.0 123291.0 128188.0 166172.0 163564.0 153426.0 161151.0 82126.0 75235.0 91700.0 84728.0 232827.0 236138.0 218495.0 210502.0 276117.0 269310.0 161202.0 154236.0 213451.0 68145.0 213451.0 213451.0 68145.0 68145.0
106441.0 108408.0 233417.0 225430.0 218748.0 226755.0 184132.0 190332.0 7996.0 0.0 200038.0 192666.0 242054.0 245105.0 215766.0 220664.0 207496.0 204433.0 248251.0 240714.0 71629.0 72212.0 117932.0 123137.0 158334.0 155658.0 146639.0 154440.0 78999.0 71755.0 99564.0 92526.0 224975.0 228340.0 210513.0 202521.0 271869.0 265194.0 154697.0 147631.0 210164.0 68493.0 210164.0 210164.0 68493.0 68493.0
94355.0 91633.0 75857.0 70039.0 25702.0 33062.0 22465.0 14089.0 206301.0 200038.0 0.0 8087.0 42128.0 45225.0 187272.0 184315.0 82094.0 74153.0 76261.0 73115.0 138228.0 135051.0 86517.0 84833.0 94273.0 102442.0 56749.0 48535.0 137900.0 140681.0 291050.0 285613.0 105957.0 100726.0 149052.0 146575.0 106664.0 105034.0 46116.0 53745.0 111434.0 172222.0 111434.0 111434.0 172222.0 172222.0
86724.0 84275.0 81341.0 75074.0 29516.0 37479.0 15036.0 7169.0 199013.0 192666.0 8087.0 0.0 49836.0 52439.0 181523.0 178807.0 78330.0 70329.0 83015.0 79420.0 131797.0 128493.0 80276.0 79113.0 87145.0 95260.0 48731.0 40507.0 131874.0 134365.0 284333.0 278806.0 102847.0 98121.0 143844.0 141052.0 113434.0 111445.0 38342.0 45894.0 112936.0 166420.0 112936.0 112936.0 166420.0 166420.0
136481.0 133682.0 72166.0 70561.0 32461.0 29047.0 61408.0 53643.0 248236.0 242054.0 42128.0 49836.0 0.0 8154.0 209770.0 205488.0 99207.0 92475.0 61910.0 63503.0 178922.0 175992.0 127164.0 124540.0 127118.0 135340.0 98327.0 90092.0 177769.0 181142.0 332051.0 326791.0 117683.0 110385.0 169446.0 168780.0 88382.0 90155.0 88171.0 95726.0 125530.0 211398.0 125530.0 125530.0 211398.0 211398.0
139057.0 136710.0 80285.0 78714.0 30605.0 25382.0 62545.0 55300.0 251439.0 245105.0 45225.0 52439.0 8154.0 0.0 205151.0 200649.0 94522.0 88122.0 69646.0 71489.0 183185.0 180109.0 131405.0 129191.0 125243.0 133406.0 100103.0 91911.0 182431.0 185530.0 336165.0 330780.0 111920.0 104417.0 164631.0 164286.0 95450.0 97558.0 90606.0 97979.0 133371.0 216364.0 133371.0 133371.0 216364.0 216364.0
166019.0 173782.0 262862.0 256500.0 178638.0 180731.0 167185.0 174353.0 223525.0 215766.0 187272.0 181523.0 209770.0 205151.0 0.0 8088.0 110635.0 117320.0 262893.0 260309.0 212817.0 208137.0 194437.0 201279.0 100784.0 94723.0 157666.0 160533.0 221688.0 216803.0 309277.0 301443.0 96856.0 105255.0 40799.0 41079.0 293006.0 292056.0 167762.0 163987.0 284593.0 247775.0 284593.0 284593.0 247775.0 247775.0
167285.0 174884.0 260080.0 253872.0 174711.0 176493.0 164684.0 171646.0 228476.0 220664.0 184315.0 178807.0 205488.0 200649.0 8088.0 0.0 106284.0 113228.0 259560.0 257196.0 215347.0 210632.0 195101.0 201765.0 100135.0 94558.0 156971.0 159443.0 224008.0 219348.0 314951.0 307144.0 91183.0 99530.0 36042.0 37756.0 289548.0 288812.0 166681.0 163241.0 283373.0 250835.0 283373.0 283373.0 250835.0 250835.0
111739.0 115531.0 157324.0 151947.0 68760.0 70211.0 66764.0 71617.0 215193.0 207496.0 82094.0 78330.0 99207.0 94522.0 110635.0 106284.0 0.0 8004.0 154690.0 153084.0 168020.0 163486.0 126786.0 130421.0 51035.0 56516.0 79226.0 76538.0 172779.0 171699.0 306689.0 299881.0 25555.0 23743.0 70242.0 69786.0 184223.0 184086.0 82567.0 83565.0 190251.0 206726.0 190251.0 190251.0 206726.0 206726.0
106650.0 110028.0 149496.0 144058.0 61512.0 63428.0 58808.0 63613.0 212049.0 204433.0 74153.0 70329.0 92475.0 88122.0 117320.0 113228.0 8004.0 0.0 147132.0 145398.0 162779.0 158306.0 120380.0 123748.0 50272.0 56611.0 72753.0 69614.0 167202.0 166397.0 303333.0 296627.0 33288.0 30561.0 77229.0 76306.0 176785.0 176516.0 75433.0 76815.0 182282.0 201399.0 182282.0 182282.0 201399.0 201399.0
152558.0 146712.0 19196.0 24953.0 86385.0 87043.0 98033.0 90004.0 252990.0 248251.0 76261.0 83015.0 61910.0 69646.0 262893.0 259560.0 154690.0 147132.0 0.0 8072.0 177981.0 176533.0 131189.0 125283.0 170124.0 178200.0 124373.0 117182.0 173276.0 178929.0 326886.0 322844.0 176040.0 169403.0 223871.0 221955.0 30421.0 29401.0 111816.0 119190.0 83749.0 203425.0 83749.0 83749.0 203425.0 203425.0
145969.0 139937.0 11738.0 16888.0 85491.0 86903.0 94329.0 86520.0 245380.0 240714.0 73115.0 79420.0 63503.0 71489.0 260309.0 257196.0 153084.0 145398.0 8072.0 0.0 170272.0 168890.0 123932.0 117880.0 166211.0 174211.0 118956.0 111982.0 165447.0 171169.0 319044.0 314887.0 175090.0 168702.0 221688.0 219502.0 34958.0 32042.0 106360.0 113595.0 76242.0 195471.0 76242.0 76242.0 195471.0 195471.0
56319.0 52975.0 162460.0 154581.0 160341.0 168507.0 126722.0 131192.0 75497.0 71629.0 138228.0 131797.0 178922.0 183185.0 212817.0 215347.0 168020.0 162779.0 177981.0 170272.0 0.0 4794.0 51785.0 54881.0 127622.0 128744.0 92994.0 99208.0 10588.0 4016.0 153158.0 148054.0 190391.0 191329.0 194276.0 187055.0 200641.0 193812.0 96905.0 91471.0 138719.0 38758.0 138719.0 138719.0 38758.0 38758.0
51753.0 48677.0 161326.0 153384.0 156852.0 165019.0 123054.0 127701.0 76519.0 72212.0 135051.0 128493.0 175992.0 180109.0 208137.0 210632.0 163486.0 158306.0 176533.0 168890.0 4794.0 0.0 48854.0 52510.0 122860.0 123956.0 88891.0 95251.0 14329.0 8801.0 156073.0 150815.0 185759.0 186756.0 189485.0 182269.0 199687.0 192983.0 93153.0 87548.0 138832.0 43398.0 138832.0 138832.0 43398.0 43398.0
31199.0 22764.0 117756.0 109592.0 109203.0 117345.0 76469.0 80159.0 123291.0 117932.0 86517.0 80276.0 127164.0 131405.0 194437.0 195101.0 126786.0 120380.0 131189.0 123932.0 51785.0 48854.0 0.0 8047.0 97042.0 101134.0 47626.0 51734.0 51688.0 54165.0 204887.0 199668.0 151224.0 150528.0 167670.0 161561.0 156640.0 150724.0 47714.0 44048.0 105814.0 86491.0 105814.0 105814.0 86491.0 86491.0
39149.0 30739.0 111281.0 103155.0 108437.0 116512.0 76820.0 79715.0 128188.0 123137.0 84833.0 79113.0 124540.0 129191.0 201279.0 201765.0 130421.0 123748.0 125283.0 117880.0 54881.0 52510.0 8047.0 0.0 103055.0 107502.0 51291.0 54325.0 53248.0 56792.0 207892.0 202895.0 155205.0 154120.0 173719.0 167774.0 150112.0 144011.0 49435.0 46939.0 97865.0 87390.0 97865.0 97865.0 87390.0 87390.0
72976.0 79265.0 166900.0 159861.0 94836.0 100117.0 72110.0 80270.0 166172.0 158334.0 94273.0 87145.0 127118.0 125243.0 100784.0 100135.0 51035.0 50272.0 170124.0 166211.0 127622.0 122860.0 97042.0 103055.0 0.0 8254.0 56892.0 59962.0 134308.0 131558.0 257872.0 250857.0 66671.0 70147.0 70666.0 64820.0 200528.0 198242.0 67156.0 63205.0 183973.0 166018.0 183973.0 183973.0 166018.0 166018.0
75410.0 82234.0 174741.0 167636.0 103034.0 108240.0 80224.0 88418.0 163564.0 155658.0 102442.0 95260.0 135340.0 133406.0 94723.0 94558.0 56516.0 56611.0 178200.0 174211.0 128744.0 123956.0 101134.0 107502.0 8254.0 0.0 63223.0 66890.0 135924.0 132722.0 255209.0 248082.0 69700.0 73977.0 66908.0 60494.0 208594.0 206230.0 74013.0 69591.0 190633.0 166783.0 190633.0 190633.0 166783.0 166783.0
40376.0 40534.0 117164.0 109436.0 72282.0 80205.0 37806.0 44823.0 153426.0 146639.0 56749.0 48731.0 98327.0 100103.0 157666.0 156971.0 79226.0 72753.0 124373.0 118956.0 92994.0 88891.0 47626.0 51291.0 56892.0 63223.0 0.0 8237.0 96005.0 96287.0 241550.0 235539.0 103914.0 102958.0 126112.0 120967.0 153911.0 150177.0 12604.0 6381.0 127471.0 130820.0 127471.0 127471.0 130820.0 130820.0
48027.0 47460.0 110670.0 103077.0 64336.0 72317.0 29760.0 36617.0 161151.0 154440.0 48535.0 40507.0 90092.0 91911.0 160533.0 159443.0 76538.0 69614.0 117182.0 111982.0 99208.0 95251.0 51734.0 54325.0 59962.0 66890.0 8237.0 0.0 101617.0 102367.0 248827.0 242898.0 101710.0 100115.0 127582.0 122848.0 146933.0 143436.0 7238.0 7806.0 124066.0 136565.0 124066.0 124066.0 136565.0 136565.0
61822.0 57251.0 157150.0 149418.0 160889.0 169027.0 127969.0 131844.0 82126.0 78999.0 137900.0 131874.0 177769.0 182431.0 221688.0 224008.0 172779.0 167202.0 173276.0 165447.0 10588.0 14329.0 51688.0 53248.0 134308.0 135924.0 96005.0 101617.0 0.0 8000.0 155254.0 150577.0 195754.0 196291.0 202012.0 194925.0 194906.0 187851.0 98609.0 93813.0 131325.0 34986.0 131325.0 131325.0 34986.0 34986.0
60056.0 56477.0 163152.0 155331.0 163058.0 171219.0 129610.0 133922.0 75235.0 71755.0 140681.0 134365.0 181142.0 185530.0 216803.0 219348.0 171699.0 166397.0 178929.0 171169.0 4016.0 8801.0 54165.0 56792.0 131558.0 132722.0 96287.0 102367.0 8000.0 0.0 151100.0 146140.0 194171.0 195046.0 198286.0 191069.0 201162.0 194231.0 99887.0 94605.0 138409.0 35028.0 138409.0 138409.0 35028.0 35028.0
201328.0 201422.0 310112.0 302632.0 312171.0 320318.0 277849.0 283116.0 91700.0 99564.0 291050.0 284333.0 332051.0 336165.0 309277.0 314951.0 306689.0 303333.0 326886.0 319044.0 153158.0 156073.0 204887.0 207892.0 257872.0 255209.0 241550.0 248827.0 155254.0 151100.0 0.0 7962.0 324527.0 327808.0 308253.0 300225.0 347127.0 339794.0 247850.0 241473.0 282043.0 124850.0 282043.0 282043.0 124850.0 124850.0
195244.0 195563.0 305950.0 298440.0 306451.0 314588.0 272051.0 277447.0 84728.0 92526.0 285613.0 278806.0 326791.0 330780.0 301443.0 307144.0 299881.0 296627.0 322844.0 314887.0 148054.0 150815.0 199668.0 202895.0 250857.0 248082.0 235539.0 242898.0 150577.0 146140.0 7962.0 0.0 317487.0 320860.0 300679.0 292649.0 342964.0 335632.0 242080.0 235604.0 277881.0 121060.0 277881.0 277881.0 121060.0 121060.0
134134.0 138615.0 180126.0 175176.0 89679.0 89506.0 91965.0 96354.0 232827.0 224975.0 105957.0 102847.0 117683.0 111920.0 96856.0 91183.0 25555.0 33288.0 176040.0 175090.0 190391.0 185759.0 151224.0 155205.0 66671.0 69700.0 103914.0 101710.0 195754.0 194171.0 324527.0 317487.0 0.0 8425.0 56380.0 58724.0 204883.0 205387.0 107904.0 108545.0 215326.0 229147.0 215326.0 215326.0 229147.0 229147.0
135011.0 139044.0 174081.0 169357.0 83211.0 82558.0 88059.0 91865.0 236138.0 228340.0 100726.0 98121.0 110385.0 104417.0 105255.0 99530.0 23743.0 30561.0 169403.0 168702.0 191329.0 186756.0 150528.0 154120.0 70147.0 73977.0 102958.0 100115.0 196291.0 195046.0 327808.0 320860.0 8425.0 0.0 64804.0 67094.0 197976.0 198690.0 105992.0 107228.0 210954.0 230070.0 210954.0 210954.0 230070.0 230070.0
142240.0 149142.0 224904.0 218885.0 138735.0 140452.0 130064.0 136715.0 218495.0 210513.0 149052.0 143844.0 169446.0 164631.0 40799.0 36042.0 70242.0 77229.0 223871.0 221688.0 194276.0 189485.0 167670.0 173719.0 70666.0 66908.0 126112.0 127582.0 202012.0 198286.0 308253.0 300679.0 56380.0 64804.0 0.0 8030.0 253761.0 253178.0 134772.0 132179.0 250648.0 231534.0 250648.0 250648.0 231534.0 231534.0
135564.0 142619.0 222325.0 216119.0 137562.0 139734.0 126961.0 133892.0 210502.0 202521.0 146575.0 141052.0 168780.0 164286.0 41079.0 37756.0 69786.0 76306.0 221955.0 219502.0 187055.0 182269.0 161561.0 167774.0 64820.0 60494.0 120967.0 122848.0 194925.0 191069.0 300225.0 292649.0 58724.0 67094.0 8030.0 0.0 252015.0 251169.0 130070.0 127123.0 246410.0 224138.0 246410.0 246410.0 224138.0 224138.0
180095.0 173767.0 38893.0 47075.0 115563.0 115422.0 128449.0 120426.0 276117.0 271869.0 106664.0 113434.0 88382.0 95450.0 293006.0 289548.0 184223.0 176785.0 30421.0 34958.0 200641.0 199687.0 156640.0 150112.0 200528.0 208594.0 153911.0 146933.0 194906.0 201162.0 347127.0 342964.0 204883.0 197976.0 253761.0 252015.0 0.0 8543.0 141313.0 148526.0 92852.0 223554.0 92852.0 92852.0 223554.0 223554.0
174971.0 168431.0 33534.0 41674.0 115760.0 116221.0 126368.0 118533.0 269310.0 265194.0 105034.0 111445.0 90155.0 97558.0 292056.0 288812.0 184086.0 176516.0 29401.0 32042.0 193812.0 192983.0 150724.0 144011.0 198242.0 206230.0 150177.0 143436.0 187851.0 194231.0 339794.0 335632.0 205387.0 198690.0 253178.0 251169.0 8543.0 0.0 137577.0 144624.0 84514.0 216221.0 84514.0 84514.0 216221.0 216221.0
48452.0 46615.0 104591.0 96890.0 64400.0 72520.0 30016.0 35644.0 161202.0 154697.0 46116.0 38342.0 88171.0 90606.0 167762.0 166681.0 82567.0 75433.0 111816.0 106360.0 96905.0 93153.0 47714.0 49435.0 67156.0 74013.0 12604.0 7238.0 98609.0 99887.0 247850.0 242080.0 107904.0 105992.0 134772.0 130070.0 141313.0 137577.0 0.0 7778.0 116844.0 133594.0 116844.0 116844.0 133594.0 133594.0
41220.0 40051.0 111483.0 103687.0 71167.0 79227.0 36566.0 42796.0 154236.0 147631.0 53745.0 45894.0 95726.0 97979.0 163987.0 163241.0 83565.0 76815.0 119190.0 113595.0 91471.0 87548.0 44048.0 46939.0 63205.0 69591.0 6381.0 7806.0 93813.0 94605.0 241473.0 235604.0 108545.0 107228.0 132179.0 127123.0 148526.0 144624.0 7778.0 0.0 121091.0 128765.0 121091.0 121091.0 128765.0 128765.0
135822.0 127741.0 64593.0 60608.0 134550.0 139846.0 123494.0 119091.0 213451.0 210164.0 111434.0 112936.0 125530.0 133371.0 284593.0 283373.0 190251.0 182282.0 83749.0 76242.0 138719.0 138832.0 105814.0 97865.0 183973.0 190633.0 127471.0 124066.0 131325.0 138409.0 282043.0 277881.0 215326.0 210954.0 250648.0 246410.0 92852.0 84514.0 116844.0 121091.0 0.0 158470.0 0.0 0.0 158470.0 158470.0
95068.0 91411.0 186539.0 179059.0 195588.0 203707.0 162894.0 166617.0 68145.0 68493.0 172222.0 166420.0 211398.0 216364.0 247775.0 250835.0 206726.0 201399.0 203425.0 195471.0 38758.0 43398.0 86491.0 87390.0 166018.0 166783.0 130820.0 136565.0 34986.0 35028.0 124850.0 121060.0 229147.0 230070.0 231534.0 224138.0 223554.0 216221.0 133594.0 128765.0 158470.0 0.0 158470.0 158470.0 0.0 0.0
135822.0 127741.0 64593.0 60608.0 134550.0 139846.0 123494.0 119091.0 213451.0 210164.0 111434.0 112936.0 125530.0 133371.0 284593.0 283373.0 190251.0 182282.0 83749.0 76242.0 138719.0 138832.0 105814.0 97865.0 183973.0 190633.0 127471.0 124066.0 131325.0 138409.0 282043.0 277881.0 215326.0 210954.0 250648.0 246410.0 92852.0 84514.0 116844.0 121091.0 0.0 158470.0 0.0 0.0 158470.0 158470.0
135822.0 127741.0 64593.0 60608.0 134550.0 139846.0 123494.0 119091.0 213451.0 210164.0 111434.0 112936.0 125530.0 133371.0 284593.0 283373.0 190251.0 182282.0 83749.0 76242.0 138719.0 138832.0 105814.0 97865.0 183973.0 190633.0 127471.0 124066.0 131325.0 138409.0 282043.0 277881.0 215326.0 210954.0 250648.0 246410.0 92852.0 84514.0 116844.0 121091.0 0.0 158470.0 0.0 0.0 158470.0 158470.0
95068.0 91411.0 186539.0 179059.0 195588.0 203707.0 162894.0 166617.0 68145.0 68493.0 172222.0 166420.0 211398.0 216364.0 247775.0 250835.0 206726.0 201399.0 203425.0 195471.0 38758.0 43398.0 86491.0 87390.0 166018.0 166783.0 130820.0 136565.0 34986.0 35028.0 124850.0 121060.0 229147.0 230070.0 231534.0 224138.0 223554.0 216221.0 133594.0 128765.0 158470.0 0.0 158470.0 158470.0 0.0 0.0
95068.0 91411.0 186539.0 179059.0 195588.0 203707.0 162894.0 166617.0 68145.0 68493.0 172222.0 166420.0 211398.0 216364.0 247775.0 250835.0 206726.0 201399.0 203425.0 195471.0 38758.0 43398.0 86491.0 87390.0 166018.0 166783.0 130820.0 136565.0 34986.0 35028.0 124850.0 121060.0 229147.0 230070.0 231534.0 224138.0 223554.0 216221.0 133594.0 128765.0 158470.0 0.0 158470.0 158470.0 0.0 0.0
FIXED_EDGES_SECTION
1 2
3 4
5 6
7 8
9 10
11 12
13 14
15 16
17 18
19 20
21 22
23 24
25 26
27 28
29 30
31 32
33 34
35 36
37 38
39 40
-1 
DEMAND_SECTION
1 119
2 119
3 396
4 396
5 247
6 247
7 349
8 349
9 319
10 319
11 583
12 583
13 55
14 55
15 120
16 120
17 186
18 186
19 379
20 379
21 399
22 399
23 373
24 373
25 112
26 112
27 89
28 89
29 100
30 100
31 322
32 322
33 76
34 76
35 258
36 258
37 251
38 251
39 191
40 191
41 0
42 0
43 0
44 0
45 0
46 0
DEPOT_SECTION
41 
-1 
CAPACITIES_SECTION
5000 
5500 
6000 
6500 
-1 
EOF