NAME: GFS_20_1
TYPE: GFSP
DIMENSION: 128
VEHICLES: 4
CAPACITY: 7500.0
TRIP_DIST_LIMIT: 900000.0
TOTAL_DIST_LIMIT: 1050000.0
EDGE_WEIGHT_TYPE: EXPLICIT
EDGE_WEIGHT_FORMAT: FULL_MATRIX
EDGE_WEIGHT_SECTION
0.0 7987.0 257399.0 262342.0 307791.0 313941.0 305518.0 307717.0 106123.0 98776.0 197863.0 205676.0 198605.0 194224.0 168953.0 171687.0 289674.0 285558.0 273434.0 265954.0 212794.0 206645.0 271633.0 275941.0 221975.0 227361.0 83440.0 76554.0 207066.0 214125.0 321701.0 316743.0 174508.0 166567.0 275867.0 269289.0 289386.0 285889.0 310231.0 314781.0 100710.0 92706.0 307008.0 302240.0 154884.0 162500.0 234512.0 228995.0 297118.0 300260.0 171197.0 163055.0 223701.0 226336.0 193431.0 186362.0 282600.0 276606.0 230463.0 238396.0 165763.0 162615.0 264287.0 259430.0 44610.0 52395.0 208883.0 211338.0 42039.0 43330.0 261586.0 258935.0 118816.0 114938.0 86809.0 78827.0 167153.0 166667.0 287519.0 293797.0 291630.0 291735.0 157846.0 153007.0 87478.0 86958.0 314823.0 322552.0 227204.0 225222.0 255006.0 261524.0 66258.0 73847.0 286755.0 280199.0 116313.0 124283.0 310449.0 303116.0 253034.0 245298.0 245343.0 237299.0 233495.0 237185.0 242808.0 247810.0 31804.0 35399.0 201097.0 204381.0 192911.0 199604.0 296064.0 300348.0 229448.0 236112.0 76524.0 68999.0 245365.0 88159.0 245365.0 245365.0 245365.0 88159.0 88159.0 88159.0
7987.0 0.0 263944.0 268770.0 315630.0 321753.0 310040.0 312204.0 110812.0 103694.0 203116.0 210976.0 204923.0 200708.0 174481.0 176956.0 294266.0 290313.0 277920.0 270440.0 218842.0 212810.0 278801.0 283022.0 228088.0 233336.0 80486.0 74023.0 213382.0 220341.0 327360.0 322515.0 180267.0 172350.0 280610.0 274151.0 293871.0 290374.0 317154.0 321616.0 106599.0 98638.0 311585.0 306957.0 161688.0 169231.0 242448.0 236950.0 301604.0 304794.0 177808.0 169730.0 229304.0 231746.0 199960.0 193001.0 287819.0 281940.0 236499.0 244403.0 171537.0 168122.0 268773.0 263915.0 40158.0 48151.0 214200.0 216880.0 37500.0 37654.0 266072.0 263421.0 123867.0 120347.0 91394.0 83470.0 173636.0 172911.0 294057.0 300257.0 299314.0 299357.0 163354.0 158755.0 94213.0 94047.0 319309.0 327037.0 234506.0 232632.0 262476.0 268943.0 74243.0 81822.0 292010.0 285543.0 123779.0 131682.0 314934.0 307602.0 259741.0 251984.0 250733.0 242674.0 238772.0 242277.0 248841.0 253697.0 37473.0 42028.0 206896.0 210372.0 199476.0 206069.0 301457.0 305874.0 234435.0 240970.0 74284.0 67162.0 249851.0 92214.0 249851.0 249851.0 249851.0 92214.0 92214.0 92214.0
257399.0 263944.0 0.0 8174.0 128593.0 127925.0 124099.0 118833.0 162105.0 166554.0 81749.0 75657.0 59929.0 63278.0 98115.0 100302.0 100463.0 92146.0 122216.0 116414.0 50883.0 54158.0 43516.0 39609.0 41642.0 41425.0 332153.0 324186.0 51701.0 46401.0 81239.0 73595.0 89709.0 96547.0 88784.0 81825.0 160259.0 164087.0 58698.0 60637.0 158509.0 166164.0 110214.0 102100.0 103090.0 95211.0 124837.0 130019.0 126570.0 122096.0 86229.0 94478.0 56022.0 61485.0 63985.0 71145.0 71841.0 64409.0 37321.0 33455.0 97414.0 103907.0 137482.0 140848.0 300482.0 307500.0 73253.0 65211.0 298157.0 300565.0 150081.0 154767.0 147675.0 147961.0 179571.0 186176.0 90327.0 91848.0 30121.0 36711.0 98638.0 91694.0 108044.0 109466.0 169972.0 171379.0 144328.0 150410.0 55882.0 63977.0 64443.0 60666.0 206103.0 198868.0 72331.0 65457.0 147238.0 138841.0 151494.0 150560.0 10336.0 14459.0 57130.0 59170.0 63979.0 70246.0 30266.0 35072.0 256657.0 249254.0 66134.0 59338.0 64489.0 57973.0 71940.0 69521.0 75722.0 79283.0 322868.0 314663.0 153675.0 182518.0 153675.0 153675.0 153675.0 182518.0 182518.0 182518.0
262342.0 268770.0 8174.0 0.0 134313.0 133274.0 116803.0 111351.0 165515.0 170262.0 82140.0 75544.0 64018.0 68148.0 100683.0 102257.0 93329.0 85032.0 116325.0 110820.0 52996.0 57250.0 49068.0 44204.0 43443.0 41693.0 337857.0 329907.0 55609.0 49448.0 73221.0 65644.0 92587.0 99731.0 82135.0 75463.0 154462.0 158560.0 58137.0 58974.0 162879.0 170627.0 102584.0 94474.0 108646.0 100677.0 132849.0 138096.0 119660.0 114961.0 91452.0 99815.0 54996.0 59600.0 69039.0 76570.0 64413.0 57164.0 37593.0 32207.0 100598.0 106660.0 132363.0 136049.0 305677.0 312774.0 72910.0 65269.0 303326.0 305582.0 145385.0 150359.0 151063.0 151741.0 183328.0 190104.0 95199.0 96113.0 26053.0 31527.0 104407.0 97225.0 110956.0 112925.0 175045.0 176739.0 137123.0 143073.0 64053.0 72151.0 71814.0 67621.0 212147.0 205006.0 64694.0 58008.0 153362.0 145000.0 144607.0 143938.0 18434.0 22276.0 52863.0 55891.0 61003.0 66650.0 28282.0 31263.0 262358.0 255028.0 67886.0 61684.0 69687.0 62749.0 63920.0 61372.0 72812.0 75628.0 328635.0 320419.0 150345.0 186013.0 150345.0 150345.0 150345.0 186013.0 186013.0 186013.0
307791.0 315630.0 128593.0 134313.0 0.0 8111.0 248483.0 242055.0 243839.0 244397.0 196457.0 193216.0 159522.0 155765.0 197715.0 203718.0 226022.0 217903.0 250630.0 244985.0 163934.0 161671.0 85252.0 90593.0 158416.0 162759.0 362649.0 354886.0 155687.0 156795.0 185364.0 177608.0 188840.0 191858.0 216053.0 209685.0 288749.0 292678.0 102427.0 110016.0 229710.0 234895.0 232425.0 224581.0 172627.0 168717.0 76466.0 83598.0 252803.0 247384.0 165912.0 169801.0 178685.0 185805.0 154640.0 155093.0 196538.0 190125.0 159419.0 159056.0 192526.0 201025.0 265985.0 269096.0 342918.0 347994.0 191952.0 183435.0 341256.0 346107.0 278191.0 282454.0 231704.0 227808.0 255101.0 258809.0 172235.0 179186.0 126862.0 132245.0 29957.0 37176.0 203131.0 199664.0 229574.0 226317.0 269001.0 274172.0 100686.0 96957.0 71331.0 70908.0 242830.0 234878.0 195748.0 190235.0 194461.0 187719.0 277664.0 277656.0 120434.0 123930.0 185330.0 186228.0 190395.0 197488.0 157159.0 163306.0 293615.0 285598.0 177111.0 169055.0 153677.0 153590.0 191327.0 185767.0 201607.0 206437.0 352728.0 345356.0 279075.0 260732.0 279075.0 279075.0 279075.0 260732.0 260732.0 260732.0
313941.0 321753.0 127925.0 133274.0 8111.0 0.0 246258.0 239669.0 248117.0 248900.0 198020.0 194484.0 161691.0 158295.0 200462.0 206257.0 224090.0 216042.0 249539.0 244091.0 165252.0 163354.0 84412.0 89195.0 159350.0 163350.0 369669.0 361884.0 157487.0 158181.0 181668.0 174016.0 191515.0 194823.0 214544.0 208380.0 287697.0 291828.0 98245.0 105619.0 234465.0 239818.0 229938.0 222170.0 176813.0 172619.0 83788.0 91043.0 250927.0 245326.0 169415.0 173622.0 179287.0 186240.0 157255.0 158117.0 194603.0 188394.0 159893.0 159122.0 195512.0 203976.0 265403.0 268723.0 349486.0 354645.0 193095.0 184552.0 347795.0 352566.0 277901.0 282358.0 235760.0 232075.0 259800.0 263687.0 175727.0 182472.0 124314.0 129340.0 30184.0 36304.0 206239.0 203045.0 234909.0 231845.0 266764.0 271762.0 103485.0 100317.0 73343.0 72035.0 249233.0 241263.0 193635.0 188353.0 200049.0 193154.0 275715.0 275950.0 120196.0 124151.0 184935.0 186182.0 190501.0 197428.0 157015.0 162863.0 300235.0 292212.0 178780.0 170705.0 156356.0 155875.0 188784.0 182986.0 201857.0 206420.0 359748.0 352334.0 279587.0 265317.0 279587.0 279587.0 279587.0 265317.0 265317.0 265317.0
305518.0 310040.0 124099.0 116803.0 248483.0 246258.0 0.0 8242.0 199654.0 207344.0 114768.0 108562.0 138521.0 146680.0 144396.0 138891.0 23998.0 32241.0 35632.0 41209.0 121011.0 128618.0 164539.0 158300.0 117604.0 109647.0 388511.0 381206.0 133369.0 125777.0 76183.0 80878.0 142993.0 150127.0 38285.0 46574.0 56786.0 64557.0 152801.0 147613.0 209869.0 217509.0 18091.0 24653.0 180977.0 173992.0 247045.0 251404.0 11955.0 5358.0 164874.0 172017.0 100549.0 93662.0 148655.0 156537.0 52442.0 59691.0 110090.0 104854.0 150655.0 149829.0 55819.0 63430.0 349997.0 357749.0 106095.0 108521.0 347375.0 347584.0 70345.0 78341.0 188051.0 193469.0 218777.0 226771.0 164039.0 158662.0 122033.0 117684.0 219114.0 211435.0 154181.0 161382.0 229342.0 234678.0 20518.0 26335.0 175553.0 183747.0 188533.0 184395.0 276048.0 270945.0 52781.0 58850.0 224723.0 217968.0 30724.0 34118.0 134088.0 134350.0 79159.0 84452.0 84849.0 77725.0 103759.0 95434.0 317129.0 311440.0 122376.0 124932.0 150195.0 142886.0 58008.0 64863.0 82453.0 74395.0 380746.0 372734.0 100102.0 218659.0 100102.0 100102.0 100102.0 218659.0 218659.0 218659.0
307717.0 312204.0 118833.0 111351.0 242055.0 239669.0 8242.0 0.0 201670.0 209249.0 114862.0 108301.0 136541.0 144642.0 144750.0 139595.0 20805.0 28383.0 41171.0 45721.0 118825.0 126520.0 158546.0 152140.0 114827.0 106828.0 390489.0 383117.0 131003.0 123229.0 68065.0 72917.0 142834.0 150157.0 35992.0 44242.0 64892.0 72585.0 145532.0 140185.0 211117.0 218844.0 10159.0 17505.0 180037.0 172872.0 242520.0 247060.0 19443.0 11616.0 163588.0 170946.0 98753.0 92230.0 146588.0 154618.0 46995.0 54607.0 106980.0 101323.0 150721.0 150361.0 62391.0 69971.0 352128.0 360033.0 105676.0 107465.0 349497.0 349747.0 77313.0 85293.0 189721.0 194885.0 220912.0 228899.0 163067.0 158029.0 115360.0 110749.0 212827.0 205087.0 154812.0 161801.0 230266.0 235386.0 27458.0 32119.0 171238.0 179465.0 183164.0 178797.0 276603.0 271316.0 46796.0 53376.0 224350.0 217412.0 38616.0 42335.0 128943.0 129597.0 76635.0 82503.0 83427.0 76720.0 99912.0 91522.0 318562.0 312728.0 121207.0 123251.0 148101.0 140638.0 50999.0 57527.0 82180.0 74320.0 382597.0 374547.0 105724.0 220823.0 105724.0 105724.0 105724.0 220823.0 220823.0 220823.0
106123.0 110812.0 162105.0 165515.0 243839.0 248117.0 199654.0 201670.0 0.0 8150.0 93001.0 100960.0 102338.0 100489.0 65968.0 67101.0 183552.0 179507.0 167879.0 160324.0 113043.0 108265.0 186362.0 188715.0 122630.0 126648.0 188862.0 181555.0 110424.0 116068.0 218164.0 213831.0 73205.0 65811.0 169806.0 163347.0 184055.0 180558.0 219247.0 222333.0 21879.0 24862.0 200885.0 196164.0 71321.0 76120.0 183724.0 181247.0 191393.0 194431.0 81388.0 75469.0 120371.0 121991.0 100412.0 95639.0 177396.0 171786.0 130228.0 137782.0 64946.0 59647.0 158956.0 154099.0 150656.0 158504.0 104225.0 107774.0 148046.0 148413.0 156255.0 153604.0 14452.0 16043.0 19441.0 27343.0 75548.0 71388.0 191522.0 196792.0 220716.0 218357.0 55045.0 52642.0 41056.0 49018.0 209277.0 217027.0 147478.0 148731.0 178369.0 182967.0 86680.0 84739.0 181653.0 175410.0 66278.0 67658.0 205059.0 197759.0 160115.0 152305.0 140828.0 132752.0 128577.0 131692.0 142344.0 146116.0 118612.0 113692.0 99423.0 104298.0 100483.0 105285.0 191420.0 196241.0 123724.0 130169.0 181118.0 173136.0 140034.0 20556.0 140034.0 140034.0 140034.0 20556.0 20556.0 20556.0
98776.0 103694.0 166554.0 170262.0 244397.0 248900.0 207344.0 209249.0 8150.0 0.0 99581.0 107495.0 106639.0 104247.0 71752.0 73501.0 190967.0 186784.0 175775.0 168181.0 118193.0 113073.0 189299.0 191951.0 127731.0 132083.0 181240.0 173883.0 114867.0 120850.0 224458.0 219960.0 78509.0 70884.0 177095.0 170522.0 192155.0 188658.0 223166.0 226490.0 17139.0 17968.0 208307.0 203472.0 72576.0 78042.0 182506.0 179704.0 199194.0 202138.0 84094.0 77611.0 126479.0 128424.0 104026.0 98749.0 184193.0 178435.0 135563.0 143230.0 70028.0 65379.0 167042.0 162199.0 143367.0 151171.0 110743.0 113923.0 140773.0 141340.0 164355.0 161704.0 20253.0 18629.0 13099.0 20470.0 78514.0 75102.0 196195.0 201662.0 221952.0 219877.0 60677.0 57422.0 34066.0 42107.0 217172.0 224935.0 149357.0 150172.0 180069.0 184950.0 78792.0 77083.0 188411.0 182050.0 62168.0 64468.0 213061.0 205793.0 164133.0 156299.0 147344.0 139270.0 135227.0 138593.0 147772.0 151845.0 110587.0 105600.0 104993.0 109482.0 103982.0 109207.0 198022.0 202678.0 130745.0 137342.0 173403.0 165392.0 148135.0 16669.0 148135.0 148135.0 148135.0 16669.0 16669.0 16669.0
197863.0 203116.0 81749.0 82140.0 196457.0 198020.0 114768.0 114862.0 93001.0 99581.0 0.0 7992.0 39105.0 45687.0 30051.0 26176.0 94961.0 89546.0 89873.0 81683.0 33122.0 34839.0 118824.0 117891.0 40809.0 40494.0 279026.0 271417.0 40999.0 39955.0 125317.0 121297.0 28385.0 35359.0 80131.0 72750.0 119129.0 118924.0 140110.0 141086.0 98171.0 106131.0 112060.0 106263.0 68162.0 62227.0 162729.0 164367.0 109179.0 110026.0 54539.0 60071.0 28952.0 29109.0 47529.0 52355.0 84738.0 78855.0 44616.0 50353.0 35893.0 35985.0 91461.0 90419.0 242450.0 250136.0 11271.0 16993.0 239896.0 240767.0 97024.0 98015.0 79332.0 82960.0 112321.0 120020.0 51886.0 45145.0 107353.0 110923.0 167883.0 162701.0 40643.0 47107.0 116188.0 120878.0 128874.0 136702.0 97799.0 103834.0 125153.0 126005.0 161861.0 156471.0 88900.0 82469.0 110133.0 103663.0 128667.0 123286.0 84259.0 77721.0 47830.0 39756.0 35658.0 39672.0 54749.0 56077.0 205457.0 199229.0 19458.0 27438.0 49038.0 45429.0 98446.0 103263.0 32813.0 40542.0 270668.0 262504.0 88120.0 113104.0 88120.0 88120.0 88120.0 113104.0 113104.0 113104.0
205676.0 210976.0 75657.0 75544.0 193216.0 194484.0 108562.0 108301.0 100960.0 107495.0 7992.0 0.0 38838.0 46222.0 37350.0 34022.0 88156.0 82464.0 85209.0 77062.0 29285.0 32677.0 114051.0 112696.0 35729.0 34232.0 286675.0 279045.0 39049.0 36462.0 117326.0 113311.0 34536.0 41974.0 73172.0 65604.0 116083.0 116406.0 133652.0 134361.0 105791.0 113772.0 105123.0 99126.0 73028.0 66592.0 162526.0 164535.0 103497.0 103942.0 58256.0 64496.0 21399.0 21117.0 48182.0 54030.0 76958.0 70967.0 38339.0 43471.0 42583.0 43459.0 88571.0 88168.0 250252.0 257921.0 3279.0 10482.0 247703.0 248622.0 95326.0 96958.0 87243.0 90747.0 120263.0 127944.0 56337.0 50288.0 100422.0 103738.0 164304.0 158857.0 48175.0 54297.0 123520.0 128027.0 123333.0 131117.0 95812.0 102268.0 122085.0 122467.0 168813.0 163276.0 81082.0 74574.0 116164.0 109437.0 123763.0 118735.0 78855.0 72671.0 39869.0 31793.0 27823.0 32319.0 47748.0 48547.0 212930.0 206630.0 18449.0 25504.0 49762.0 45020.0 90527.0 95289.0 26140.0 34170.0 278271.0 270098.0 88461.0 121085.0 88461.0 88461.0 88461.0 121085.0 121085.0 121085.0
198605.0 204923.0 59929.0 64018.0 159522.0 161691.0 138521.0 136541.0 102338.0 106639.0 39105.0 38838.0 0.0 8199.0 40743.0 45225.0 115737.0 108555.0 120521.0 112626.0 17932.0 10156.0 87389.0 88354.0 24855.0 32055.0 275423.0 267531.0 8462.0 16060.0 126861.0 120836.0 31702.0 37469.0 100588.0 92306.0 153700.0 154548.0 117041.0 119996.0 98862.0 106625.0 131225.0 124034.0 47493.0 39482.0 123814.0 125712.0 135633.0 134540.0 29672.0 38080.0 37997.0 45269.0 10213.0 18087.0 96259.0 88609.0 33946.0 41870.0 38317.0 45729.0 126506.0 126604.0 242231.0 249447.0 39187.0 32657.0 239840.0 241902.0 134015.0 135790.0 87949.0 88037.0 119645.0 126259.0 32019.0 32098.0 89734.0 95544.0 131830.0 127354.0 49353.0 49794.0 111612.0 113882.0 155583.0 163098.0 59471.0 65037.0 88354.0 90298.0 151300.0 144634.0 99382.0 91703.0 93660.0 85696.0 157924.0 153818.0 57895.0 50143.0 60099.0 54093.0 53946.0 61615.0 45812.0 52486.0 200069.0 192979.0 20395.0 14296.0 11801.0 6326.0 105696.0 107770.0 59566.0 67472.0 266389.0 258155.0 126955.0 122677.0 126955.0 126955.0 126955.0 122677.0 122677.0 122677.0
194224.0 200708.0 63278.0 68148.0 155765.0 158295.0 146680.0 144642.0 100489.0 104247.0 45687.0 46222.0 8199.0 0.0 42364.0 47969.0 123837.0 116604.0 128648.0 120732.0 25871.0 18128.0 86858.0 88551.0 31880.0 39454.0 270082.0 262160.0 14649.0 22874.0 133349.0 127108.0 33315.0 37651.0 108707.0 100418.0 161604.0 162327.0 118919.0 122371.0 95339.0 102933.0 139230.0 131986.0 41196.0 33126.0 117070.0 118689.0 143831.0 142717.0 23523.0 31994.0 46179.0 53467.0 2030.0 10172.0 103942.0 96219.0 40942.0 48685.0 38440.0 46531.0 134329.0 134271.0 237535.0 244651.0 46820.0 40643.0 235180.0 237445.0 141542.0 143121.0 86268.0 85626.0 117113.0 123427.0 27074.0 29153.0 93366.0 99574.0 128704.0 124639.0 49572.0 48655.0 106897.0 108705.0 163780.0 171291.0 55149.0 59996.0 85046.0 87660.0 145243.0 138414.0 106968.0 99248.0 87115.0 79009.0 166109.0 161971.0 59962.0 52118.0 68124.0 62236.0 62143.0 69813.0 52373.0 59471.0 194630.0 187424.0 27840.0 22393.0 3638.0 5435.0 112962.0 114744.0 67671.0 75611.0 260956.0 252728.0 133796.0 120562.0 133796.0 133796.0 133796.0 120562.0 120562.0 120562.0
168953.0 174481.0 98115.0 100683.0 197715.0 200462.0 144396.0 144750.0 65968.0 71752.0 30051.0 37350.0 40743.0 42364.0 0.0 8047.0 124973.0 119596.0 117756.0 109592.0 47714.0 44048.0 128130.0 129010.0 57312.0 60791.0 249474.0 241815.0 47626.0 51734.0 152921.0 148268.0 9100.0 8047.0 110178.0 102791.0 143778.0 142438.0 156444.0 158750.0 68620.0 76629.0 142100.0 136309.0 44011.0 40463.0 152935.0 153192.0 138289.0 139553.0 36455.0 38310.0 54851.0 57471.0 43259.0 42980.0 114093.0 107810.0 64470.0 71895.0 8000.0 6380.0 116238.0 113898.0 213450.0 221053.0 40415.0 42399.0 210925.0 212074.0 119100.0 118517.0 51688.0 54165.0 84777.0 92178.0 31199.0 22764.0 126726.0 131566.0 170996.0 167001.0 11133.0 17067.0 86183.0 90828.0 157750.0 165612.0 97042.0 101134.0 127327.0 130022.0 131870.0 126585.0 118129.0 111379.0 81548.0 75717.0 156640.0 150724.0 97648.0 90093.0 76485.0 68484.0 64998.0 69620.0 76469.0 80159.0 175587.0 169281.0 33509.0 39000.0 44110.0 45594.0 127164.0 131405.0 62851.0 70478.0 241011.0 232829.0 105814.0 86491.0 105814.0 105814.0 105814.0 86491.0 86491.0 86491.0
171687.0 176956.0 100302.0 102257.0 203718.0 206257.0 138891.0 139595.0 67101.0 73501.0 26176.0 34022.0 45225.0 47969.0 8047.0 0.0 120149.0 115128.0 111281.0 103155.0 49435.0 46939.0 132299.0 132756.0 58859.0 61344.0 252942.0 245355.0 51291.0 54325.0 151064.0 146767.0 15218.0 16094.0 105586.0 98459.0 136403.0 134887.0 158925.0 160848.0 72173.0 80095.0 137390.0 131880.0 52002.0 48504.0 160425.0 160819.0 132369.0 133957.0 44247.0 46347.0 53399.0 54930.0 49083.0 49718.0 110914.0 104988.0 65230.0 72248.0 16024.0 11266.0 108950.0 106404.0 216275.0 223963.0 37256.0 40787.0 213720.0 214605.0 111416.0 110686.0 53248.0 56792.0 86323.0 93961.0 39149.0 30739.0 128188.0 132633.0 176608.0 172374.0 15313.0 22950.0 90712.0 95814.0 151650.0 159520.0 103055.0 107502.0 132974.0 135327.0 137159.0 132151.0 115072.0 108596.0 88388.0 82859.0 150112.0 144011.0 100629.0 93262.0 73845.0 65773.0 61819.0 65687.0 76820.0 79715.0 179620.0 173516.0 34374.0 41004.0 50088.0 50605.0 124540.0 129191.0 58364.0 65647.0 244634.0 236483.0 97865.0 87390.0 97865.0 97865.0 97865.0 87390.0 87390.0 87390.0
289674.0 294266.0 100463.0 93329.0 226022.0 224090.0 23998.0 20805.0 183552.0 190967.0 94961.0 88156.0 115737.0 123837.0 124973.0 120149.0 0.0 8322.0 35402.0 36164.0 98023.0 105716.0 141546.0 135551.0 94123.0 86133.0 372095.0 364645.0 110218.0 102472.0 62862.0 65601.0 122672.0 130113.0 15243.0 23447.0 69149.0 75633.0 132656.0 128099.0 192057.0 199867.0 17342.0 13869.0 159428.0 152206.0 223060.0 227406.0 26864.0 21636.0 142879.0 150296.0 77971.0 71534.0 125784.0 133815.0 29490.0 36187.0 86395.0 80965.0 130703.0 130725.0 57865.0 64844.0 334199.0 342055.0 85432.0 86879.0 331585.0 331771.0 73610.0 81202.0 171191.0 176043.0 202911.0 210872.0 142457.0 137570.0 100378.0 96724.0 196455.0 188882.0 135254.0 142040.0 210852.0 215768.0 43887.0 50258.0 151556.0 159749.0 164901.0 160948.0 256822.0 251394.0 30752.0 35792.0 203975.0 196948.0 51643.0 52242.0 110358.0 110439.0 55853.0 61711.0 62750.0 56243.0 79788.0 71450.0 299583.0 293601.0 100560.0 102476.0 127297.0 119843.0 38573.0 46404.0 62156.0 54532.0 364054.0 355962.0 96105.0 202888.0 96105.0 96105.0 96105.0 202888.0 202888.0 202888.0
285558.0 290313.0 92146.0 85032.0 217903.0 216042.0 32241.0 28383.0 179507.0 186784.0 89546.0 82464.0 108555.0 116604.0 119596.0 115128.0 8322.0 0.0 40038.0 39195.0 90743.0 98477.0 133328.0 127389.0 86496.0 78492.0 367674.0 360169.0 102805.0 94963.0 58587.0 60462.0 116850.0 124421.0 9712.0 16888.0 75643.0 81739.0 125259.0 120919.0 187240.0 195111.0 22878.0 16755.0 152877.0 145539.0 214805.0 219185.0 34900.0 29951.0 136113.0 143668.0 71035.0 64933.0 118530.0 126642.0 21493.0 27920.0 78599.0 72978.0 125041.0 125481.0 61981.0 68560.0 330135.0 337953.0 79617.0 80487.0 327534.0 327887.0 77671.0 84998.0 166848.0 171436.0 198919.0 206850.0 135918.0 131303.0 92556.0 89138.0 188297.0 180751.0 130080.0 136641.0 205697.0 210416.0 52209.0 58542.0 143333.0 151535.0 156582.0 152648.0 251277.0 245707.0 23237.0 27689.0 197771.0 190617.0 59788.0 60031.0 102036.0 102136.0 48486.0 54754.0 56240.0 50226.0 71678.0 63316.0 294739.0 288636.0 94003.0 95528.0 120025.0 112487.0 32230.0 40303.0 56800.0 49580.0 359523.0 351403.0 97414.0 198964.0 97414.0 97414.0 97414.0 198964.0 198964.0 198964.0
273434.0 277920.0 122216.0 116325.0 250630.0 249539.0 35632.0 41171.0 167879.0 175775.0 89873.0 85209.0 120521.0 128648.0 117756.0 111281.0 35402.0 40038.0 0.0 8193.0 104591.0 111483.0 165378.0 160352.0 103900.0 96595.0 356310.0 349150.0 117164.0 110670.0 98148.0 100446.0 118068.0 124412.0 36852.0 41508.0 38165.0 42937.0 162887.0 159189.0 179862.0 187231.0 46455.0 47619.0 157985.0 151765.0 238212.0 241617.0 24795.0 30407.0 143437.0 149652.0 83708.0 75844.0 130678.0 137740.0 59345.0 63281.0 98322.0 95374.0 124807.0 122522.0 22537.0 29754.0 317877.0 325762.0 83455.0 88176.0 315255.0 315464.0 38250.0 45942.0 157150.0 163152.0 186669.0 194661.0 141473.0 135007.0 128743.0 126416.0 220705.0 213549.0 126494.0 134220.0 200051.0 205937.0 41398.0 49167.0 166900.0 174741.0 185139.0 182394.0 247507.0 242938.0 62245.0 64522.0 199274.0 193181.0 38893.0 33534.0 131087.0 129258.0 67548.0 69696.0 67807.0 59757.0 95860.0 88511.0 286229.0 280893.0 101796.0 106255.0 132283.0 125837.0 72166.0 80285.0 60989.0 53057.0 348813.0 340894.0 64593.0 186539.0 64593.0 64593.0 64593.0 186539.0 186539.0 186539.0
265954.0 270440.0 116414.0 110820.0 244985.0 244091.0 41209.0 45721.0 160324.0 168181.0 81683.0 77062.0 112626.0 120732.0 109592.0 103155.0 36164.0 39195.0 8193.0 0.0 96890.0 103687.0 159772.0 154981.0 96501.0 89325.0 348915.0 341719.0 109436.0 103077.0 97782.0 99429.0 109874.0 116227.0 34136.0 37338.0 43996.0 47742.0 159051.0 155692.0 172008.0 179419.0 49567.0 49419.0 149802.0 143602.0 231010.0 234302.0 31366.0 35859.0 135304.0 141485.0 76078.0 68167.0 122762.0 129753.0 56662.0 59679.0 91207.0 88610.0 116625.0 114388.0 23343.0 29454.0 310397.0 318281.0 75343.0 80196.0 307774.0 307983.0 38749.0 45873.0 149418.0 155331.0 179188.0 187173.0 133305.0 126819.0 124472.0 122579.0 215035.0 207987.0 118384.0 126086.0 192120.0 197952.0 49089.0 56916.0 159861.0 167636.0 178776.0 176254.0 239517.0 234902.0 59989.0 61320.0 191100.0 184994.0 47075.0 41674.0 125033.0 122886.0 60847.0 62476.0 60303.0 52243.0 89332.0 82229.0 278552.0 273157.0 93760.0 98345.0 124369.0 118007.0 70561.0 78714.0 53062.0 45223.0 341353.0 333412.0 60608.0 179059.0 60608.0 60608.0 60608.0 179059.0 179059.0 179059.0
212794.0 218842.0 50883.0 52996.0 163934.0 165252.0 121011.0 118825.0 113043.0 118193.0 33122.0 29285.0 17932.0 25871.0 47714.0 49435.0 98023.0 90743.0 104591.0 96890.0 0.0 7778.0 85778.0 85121.0 9609.0 14858.0 290901.0 283059.0 12604.0 7238.0 110354.0 104691.0 39850.0 47313.0 82931.0 74630.0 139052.0 140501.0 109553.0 111416.0 112271.0 120208.0 113359.0 106129.0 64704.0 56821.0 135812.0 138453.0 118547.0 117148.0 47028.0 55249.0 20970.0 28749.0 27787.0 35967.0 78375.0 70774.0 17672.0 25644.0 48172.0 53763.0 112370.0 113198.0 256812.0 264166.0 28204.0 19890.0 254373.0 256122.0 121168.0 123714.0 98609.0 99887.0 131292.0 138338.0 48452.0 46615.0 79024.0 83888.0 135079.0 129735.0 58157.0 60808.0 126607.0 129471.0 138442.0 145873.0 67156.0 74013.0 92808.0 93221.0 167856.0 161385.0 81559.0 73917.0 110848.0 103032.0 141313.0 137577.0 51901.0 44976.0 42258.0 36590.0 37059.0 44987.0 30016.0 35644.0 215770.0 208843.0 15340.0 8753.0 29283.0 21878.0 88171.0 90606.0 44279.0 51732.0 282003.0 273770.0 116844.0 133594.0 116844.0 116844.0 116844.0 133594.0 133594.0 133594.0
206645.0 212810.0 54158.0 57250.0 161671.0 163354.0 128618.0 126520.0 108265.0 113073.0 34839.0 32677.0 10156.0 18128.0 44048.0 46939.0 105716.0 98477.0 111483.0 103687.0 7778.0 0.0 85898.0 85957.0 15469.0 22139.0 284216.0 276352.0 6381.0 7806.0 117412.0 111571.0 35552.0 42500.0 90597.0 82303.0 145387.0 146566.0 112397.0 114762.0 106374.0 114251.0 121115.0 113900.0 57220.0 49280.0 130350.0 132693.0 125966.0 124702.0 39467.0 47769.0 28256.0 35795.0 20068.0 28197.0 86119.0 78490.0 24395.0 32408.0 43368.0 49757.0 118451.0 118949.0 250507.0 257804.0 32309.0 24737.0 248089.0 249972.0 126675.0 128876.0 93813.0 94605.0 126154.0 133029.0 41220.0 40051.0 83264.0 88591.0 133262.0 128277.0 53892.0 55688.0 120073.0 122693.0 145889.0 153358.0 63205.0 69591.0 90348.0 91411.0 160688.0 154132.0 89269.0 81606.0 103398.0 95518.0 148526.0 144624.0 53735.0 46323.0 50000.0 44166.0 44324.0 52139.0 36566.0 42796.0 208977.0 201979.0 15440.0 7401.0 21588.0 14426.0 95726.0 97979.0 50762.0 58464.0 275258.0 267023.0 121091.0 128765.0 121091.0 121091.0 121091.0 128765.0 128765.0 128765.0
271633.0 278801.0 43516.0 49068.0 85252.0 84412.0 164539.0 158546.0 186362.0 189299.0 118824.0 114051.0 87389.0 86858.0 128130.0 132299.0 141546.0 133328.0 165378.0 159772.0 85778.0 85898.0 0.0 7913.0 78323.0 80972.0 340431.0 332413.0 81038.0 79322.0 108846.0 100725.0 119073.0 124340.0 131011.0 124495.0 203500.0 207489.0 42977.0 50055.0 178139.0 185051.0 149263.0 141250.0 118579.0 111913.0 95211.0 101857.0 168166.0 163084.0 105206.0 112027.0 96718.0 103150.0 86562.0 90724.0 112189.0 105425.0 77206.0 75431.0 125153.0 132960.0 180991.0 184350.0 312576.0 319001.0 112185.0 103689.0 310455.0 313801.0 193562.0 198152.0 172441.0 170905.0 201751.0 207356.0 110856.0 115294.0 46449.0 53625.0 55339.0 48218.0 136297.0 135428.0 185209.0 184758.0 185014.0 190585.0 45476.0 49933.0 30315.0 23144.0 213687.0 205896.0 111810.0 105811.0 156111.0 147839.0 193099.0 192750.0 36298.0 41469.0 100589.0 102171.0 106707.0 113368.0 72976.0 78511.0 265845.0 258030.0 100635.0 92751.0 86259.0 82805.0 108745.0 104226.0 118271.0 122395.0 330773.0 322732.0 196277.0 205896.0 196277.0 196277.0 196277.0 205896.0 205896.0 205896.0
275941.0 283022.0 39609.0 44204.0 90593.0 89195.0 158300.0 152140.0 188715.0 191951.0 117891.0 112696.0 88354.0 88551.0 129010.0 132756.0 135551.0 127389.0 160352.0 154981.0 85121.0 85957.0 7913.0 0.0 77117.0 79010.0 345694.0 337675.0 81510.0 79008.0 101212.0 93098.0 120026.0 125665.0 125471.0 119200.0 198513.0 202724.0 36315.0 42992.0 181318.0 188385.0 142736.0 134767.0 122098.0 115166.0 103125.0 109762.0 162280.0 157005.0 107997.0 115139.0 94482.0 100534.0 88433.0 93203.0 106102.0 99560.0 75098.0 72550.0 126496.0 134081.0 176558.0 180166.0 317267.0 323787.0 110648.0 102247.0 315113.0 318321.0 189463.0 194280.0 174643.0 173452.0 204549.0 210353.0 113441.0 117394.0 38942.0 45947.0 60908.0 53417.0 137609.0 137204.0 189152.0 188992.0 178804.0 184229.0 51249.0 56372.0 38215.0 31042.0 218851.0 211115.0 105521.0 99762.0 160895.0 152563.0 187175.0 187067.0 33922.0 40180.0 96628.0 98763.0 103508.0 109855.0 69720.0 74626.0 270891.0 263121.0 100249.0 92536.0 88270.0 84187.0 101991.0 97218.0 115205.0 118892.0 336077.0 328006.0 193212.0 208479.0 193212.0 193212.0 193212.0 208479.0 208479.0 208479.0
221975.0 228088.0 41642.0 43443.0 158416.0 159350.0 117604.0 114827.0 122630.0 127731.0 40809.0 35729.0 24855.0 31880.0 57312.0 58859.0 94123.0 86496.0 103900.0 96501.0 9609.0 15469.0 78323.0 77117.0 0.0 8006.0 299684.0 291821.0 17247.0 9010.0 102055.0 96137.0 49449.0 56868.0 79322.0 71030.0 139559.0 141561.0 100339.0 102023.0 121567.0 129478.0 108732.0 101237.0 72345.0 64336.0 134667.0 137815.0 116051.0 114038.0 54526.0 62924.0 21268.0 29148.0 33563.0 41999.0 72441.0 64608.0 9099.0 17027.0 57729.0 63372.0 113519.0 114977.0 265899.0 273214.0 33957.0 25416.0 263473.0 265305.0 123340.0 126448.0 108191.0 109386.0 140829.0 147839.0 56607.0 55480.0 69451.0 74279.0 129175.0 123490.0 67765.0 70323.0 135518.0 138162.0 135761.0 143006.0 64305.0 71714.0 87809.0 87511.0 176049.0 169437.0 75302.0 67541.0 118514.0 110540.0 139500.0 136298.0 43455.0 36989.0 38475.0 34349.0 36237.0 44285.0 21103.0 27654.0 224445.0 217440.0 24539.0 18360.0 34867.0 26981.0 81084.0 82953.0 45453.0 52090.0 290727.0 282493.0 120994.0 143177.0 120994.0 120994.0 120994.0 143177.0 143177.0 143177.0
227361.0 233336.0 41425.0 41693.0 162759.0 163350.0 109647.0 106828.0 126648.0 132083.0 40494.0 34232.0 32055.0 39454.0 60791.0 61344.0 86133.0 78492.0 96595.0 89325.0 14858.0 22139.0 80972.0 79010.0 8006.0 0.0 305705.0 297871.0 24938.0 16766.0 95496.0 89864.0 53576.0 61296.0 71362.0 63078.0 132665.0 134916.0 99617.0 100666.0 126737.0 134703.0 100731.0 93248.0 79359.0 71414.0 141687.0 145022.0 108231.0 106118.0 61599.0 69907.0 15938.0 23219.0 41211.0 49619.0 64586.0 56802.0 4124.0 11147.0 62139.0 67041.0 106976.0 108757.0 271457.0 278841.0 31877.0 23792.0 269008.0 270680.0 117317.0 120751.0 112272.0 113945.0 145173.0 152351.0 63258.0 61440.0 67213.0 71337.0 133245.0 127255.0 71604.0 74895.0 141379.0 144309.0 127897.0 135109.0 70791.0 78417.0 92802.0 91927.0 182695.0 176198.0 67532.0 59799.0 125536.0 117654.0 131814.0 128758.0 45090.0 39568.0 30566.0 26901.0 29358.0 37308.0 15697.0 20785.0 230605.0 223691.0 27289.0 22983.0 42569.0 34731.0 73642.0 75846.0 39434.0 45512.0 296825.0 288592.0 116316.0 147199.0 116316.0 116316.0 116316.0 147199.0 147199.0 147199.0
83440.0 80486.0 332153.0 337857.0 362649.0 369669.0 388511.0 390489.0 188862.0 181240.0 279026.0 286675.0 275423.0 270082.0 249474.0 252942.0 372095.0 367674.0 356310.0 348915.0 290901.0 284216.0 340431.0 345694.0 299684.0 305705.0 0.0 8018.0 283800.0 291353.0 400988.0 395563.0 254187.0 246225.0 358024.0 351204.0 372379.0 368883.0 381299.0 386655.0 180886.0 172904.0 389436.0 384409.0 229214.0 237204.0 286377.0 279630.0 380114.0 383280.0 246581.0 238146.0 303622.0 306903.0 269013.0 261297.0 363565.0 357232.0 308490.0 316506.0 245467.0 243253.0 347281.0 342423.0 41568.0 33796.0 289814.0 291541.0 44180.0 47731.0 344580.0 341929.0 200905.0 196280.0 169769.0 161775.0 243424.0 244288.0 362073.0 368861.0 351420.0 352968.0 238514.0 232929.0 164374.0 161549.0 397652.0 405328.0 294998.0 291514.0 319759.0 327017.0 126882.0 134580.0 367600.0 360779.0 185475.0 193906.0 393443.0 386110.0 326592.0 319110.0 325895.0 317931.0 314445.0 318629.0 320763.0 326430.0 75502.0 82941.0 280407.0 282830.0 268263.0 275517.0 376438.0 380231.0 311171.0 318108.0 9922.0 17704.0 328359.0 171494.0 328359.0 328359.0 328359.0 171494.0 171494.0 171494.0
76554.0 74023.0 324186.0 329907.0 354886.0 361884.0 381206.0 383117.0 181555.0 173883.0 271417.0 279045.0 267531.0 262160.0 241815.0 245355.0 364645.0 360169.0 349150.0 341719.0 283059.0 276352.0 332413.0 337675.0 291821.0 297871.0 8018.0 0.0 275903.0 283472.0 393185.0 387733.0 246457.0 238497.0 350527.0 343670.0 365156.0 361659.0 373283.0 378642.0 173255.0 165286.0 381984.0 376909.0 221268.0 229263.0 278651.0 271936.0 372885.0 375985.0 238654.0 230215.0 295889.0 299223.0 261083.0 253353.0 355908.0 349542.0 300639.0 308656.0 237744.0 235607.0 340057.0 335200.0 36274.0 28991.0 282175.0 283835.0 38769.0 43234.0 337356.0 334705.0 193464.0 188744.0 162536.0 154548.0 235527.0 236445.0 354097.0 360895.0 343523.0 345042.0 230875.0 225230.0 156574.0 153670.0 390511.0 398203.0 286982.0 283505.0 311768.0 319020.0 118866.0 126561.0 359930.0 353085.0 177472.0 185904.0 386219.0 378886.0 318604.0 311126.0 318207.0 310253.0 306799.0 311038.0 312905.0 318604.0 67550.0 74954.0 272638.0 275010.0 260326.0 267595.0 368721.0 372473.0 303619.0 310594.0 2881.0 9697.0 321135.0 164411.0 321135.0 321135.0 321135.0 164411.0 164411.0 164411.0
207066.0 213382.0 51701.0 55609.0 155687.0 157487.0 133369.0 131003.0 110424.0 114867.0 40999.0 39049.0 8462.0 14649.0 47626.0 51291.0 110218.0 102805.0 117164.0 109436.0 12604.0 6381.0 81038.0 81510.0 17247.0 24938.0 283800.0 275903.0 0.0 8237.0 118847.0 112708.0 38777.0 45110.0 95202.0 86892.0 151401.0 152689.0 109230.0 111985.0 107288.0 115064.0 125282.0 117920.0 55504.0 47449.0 124033.0 126439.0 131082.0 129575.0 37692.0 46157.0 33574.0 41333.0 16317.0 24753.0 89518.0 81740.0 26295.0 34050.0 45970.0 52984.0 124564.0 125163.0 250684.0 257893.0 38685.0 31033.0 248295.0 250363.0 132948.0 135206.0 96005.0 96287.0 127897.0 134571.0 40376.0 40534.0 81391.0 87130.0 127441.0 122595.0 56847.0 57800.0 120057.0 122273.0 150957.0 158359.0 56892.0 63223.0 84356.0 85642.0 159467.0 152733.0 92465.0 84722.0 101585.0 93534.0 153911.0 150177.0 50175.0 42529.0 54368.0 49053.0 49660.0 57591.0 37806.0 44823.0 208423.0 201306.0 21542.0 13650.0 17639.0 9797.0 98327.0 100103.0 56672.0 64242.0 274748.0 266515.0 127471.0 130820.0 127471.0 127471.0 127471.0 130820.0 130820.0 130820.0
214125.0 220341.0 46401.0 49448.0 156795.0 158181.0 125777.0 123229.0 116068.0 120850.0 39955.0 36462.0 16060.0 22874.0 51734.0 54325.0 102472.0 94963.0 110670.0 103077.0 7238.0 7806.0 79322.0 79008.0 9010.0 16766.0 291353.0 283472.0 8237.0 0.0 110818.0 104777.0 43320.0 50306.0 87539.0 79230.0 145585.0 147200.0 104755.0 107026.0 113985.0 121837.0 117342.0 109921.0 63512.0 55479.0 128962.0 131740.0 123814.0 122082.0 45686.0 54119.0 27007.0 34962.0 24553.0 32989.0 81348.0 73547.0 18072.0 25888.0 51174.0 57507.0 119078.0 120068.0 257902.0 265164.0 35438.0 27121.0 255494.0 257445.0 128130.0 130782.0 101617.0 102367.0 133928.0 140777.0 48027.0 47460.0 75459.0 80812.0 128018.0 122757.0 61674.0 63481.0 127368.0 129804.0 143625.0 150959.0 59962.0 66890.0 85625.0 86146.0 167360.0 160688.0 84260.0 76510.0 109651.0 101640.0 146933.0 143436.0 46323.0 39074.0 46644.0 41770.0 42888.0 50919.0 29760.0 36617.0 216038.0 208977.0 21314.0 13535.0 25865.0 17992.0 90092.0 91911.0 50868.0 58093.0 282347.0 274113.0 124066.0 136565.0 124066.0 124066.0 124066.0 136565.0 136565.0 136565.0
321701.0 327360.0 81239.0 73221.0 185364.0 181668.0 76183.0 68065.0 218164.0 224458.0 125317.0 117326.0 126861.0 133349.0 152921.0 151064.0 62862.0 58587.0 98148.0 97782.0 110354.0 117412.0 108846.0 101212.0 102055.0 95496.0 400988.0 393185.0 118847.0 110818.0 0.0 8126.0 147215.0 155171.0 64939.0 65921.0 130889.0 137877.0 83725.0 77010.0 221032.0 229053.0 58112.0 52806.0 174327.0 166285.0 202322.0 208285.0 85526.0 77859.0 156501.0 164936.0 98071.0 96223.0 134802.0 143141.0 45521.0 48315.0 93024.0 85031.0 155965.0 159295.0 120426.0 127123.0 366068.0 373571.0 114049.0 110563.0 363575.0 364912.0 136157.0 143559.0 204234.0 207086.0 237358.0 244926.0 158631.0 156885.0 62453.0 55272.0 158004.0 149933.0 164054.0 168700.0 236615.0 239751.0 94648.0 97329.0 136713.0 144611.0 137945.0 131669.0 278095.0 271489.0 41087.0 44801.0 220431.0 212357.0 106609.0 110230.0 90959.0 95488.0 77634.0 85657.0 90261.0 88942.0 81060.0 74711.0 326026.0 319159.0 120712.0 118212.0 135891.0 128079.0 29522.0 22637.0 97643.0 93676.0 392183.0 383953.0 154576.0 238386.0 154576.0 154576.0 154576.0 238386.0 238386.0 238386.0
316743.0 322515.0 73595.0 65644.0 177608.0 174016.0 80878.0 72917.0 213831.0 219960.0 121297.0 113311.0 120836.0 127108.0 148268.0 146767.0 65601.0 60462.0 100446.0 99429.0 104691.0 111571.0 100725.0 93098.0 96137.0 89864.0 395563.0 387733.0 112708.0 104777.0 8126.0 0.0 142253.0 150182.0 65821.0 65777.0 134411.0 141147.0 76301.0 69807.0 216034.0 224043.0 62810.0 56811.0 168210.0 160150.0 194231.0 200215.0 89574.0 82113.0 150399.0 158859.0 93486.0 92205.0 128504.0 136788.0 44899.0 46348.0 87189.0 79169.0 150990.0 154648.0 122424.0 128879.0 361016.0 368468.0 110035.0 106065.0 358541.0 360008.0 138081.0 145302.0 199783.0 202386.0 232923.0 240415.0 152739.0 151301.0 54327.0 47164.0 150094.0 142031.0 159391.0 163763.0 231214.0 234161.0 99948.0 103071.0 128888.0 136748.0 129825.0 123543.0 272136.0 265440.0 40699.0 43047.0 214223.0 206091.0 111530.0 114681.0 83200.0 87919.0 74024.0 81929.0 86774.0 86136.0 75050.0 69137.0 320461.0 313518.0 115646.0 112743.0 129546.0 121788.0 29260.0 21351.0 94881.0 91514.0 386689.0 378456.0 154719.0 234156.0 154719.0 154719.0 154719.0 234156.0 234156.0 234156.0
174508.0 180267.0 89709.0 92587.0 188840.0 191515.0 142993.0 142834.0 73205.0 78509.0 28385.0 34536.0 31702.0 33315.0 9100.0 15218.0 122672.0 116850.0 118068.0 109874.0 39850.0 35552.0 119073.0 120026.0 49449.0 53576.0 254187.0 246457.0 38777.0 43320.0 147215.0 142253.0 0.0 7968.0 107643.0 99965.0 145953.0 145112.0 147839.0 150308.0 73818.0 81838.0 139581.0 133443.0 40587.0 35653.0 145388.0 145921.0 137558.0 138306.0 29941.0 33449.0 49436.0 53105.0 34265.0 34505.0 109847.0 103214.0 57068.0 64723.0 8750.0 14235.0 118279.0 116494.0 218854.0 226365.0 37253.0 37481.0 216361.0 217757.0 122268.0 122243.0 58783.0 60409.0 91601.0 98783.0 25589.0 17702.0 118638.0 123695.0 161995.0 157951.0 18371.0 21511.0 90120.0 94137.0 157259.0 165087.0 88154.0 92418.0 118329.0 120958.0 134544.0 128867.0 113732.0 106723.0 81777.0 75280.0 156919.0 151377.0 88909.0 81300.0 71938.0 64112.0 61192.0 66624.0 69263.0 73539.0 179769.0 173238.0 26648.0 31099.0 35170.0 36494.0 122274.0 126094.0 60659.0 68619.0 245564.0 237356.0 110237.0 93760.0 110237.0 110237.0 110237.0 93760.0 93760.0 93760.0
166567.0 172350.0 96547.0 99731.0 191858.0 194823.0 150127.0 150157.0 65811.0 70884.0 35359.0 41974.0 37469.0 37651.0 8047.0 16094.0 130113.0 124421.0 124412.0 116227.0 47313.0 42500.0 124340.0 125665.0 56868.0 61296.0 246225.0 238497.0 45110.0 50306.0 155171.0 150182.0 7968.0 0.0 115147.0 107548.0 151220.0 150039.0 154339.0 157033.0 65867.0 73885.0 147097.0 141055.0 36044.0 32426.0 145503.0 145608.0 144412.0 145377.0 28802.0 30279.0 57401.0 60973.0 38246.0 36770.0 117734.0 111141.0 64706.0 72437.0 867.0 9169.0 123619.0 121462.0 210898.0 218405.0 44811.0 45397.0 208408.0 209826.0 126829.0 126376.0 51361.0 52652.0 83982.0 91078.0 23314.0 14868.0 125759.0 130981.0 165583.0 161847.0 11958.0 13619.0 82199.0 86309.0 164015.0 171862.0 91340.0 95019.0 121945.0 125006.0 126875.0 121302.0 121640.0 114656.0 74951.0 68777.0 163302.0 157560.0 95251.0 87548.0 79848.0 71993.0 68970.0 74218.0 76958.0 81396.0 171840.0 165333.0 34546.0 38598.0 38881.0 41544.0 130228.0 134062.0 67994.0 75854.0 237610.0 229402.0 113779.0 86341.0 113779.0 113779.0 113779.0 86341.0 86341.0 86341.0
275867.0 280610.0 88784.0 82135.0 216053.0 214544.0 38285.0 35992.0 169806.0 177095.0 80131.0 73172.0 100588.0 108707.0 110178.0 105586.0 15243.0 9712.0 36852.0 34136.0 82931.0 90597.0 131011.0 125471.0 79322.0 71362.0 358024.0 350527.0 95202.0 87539.0 64939.0 65821.0 107643.0 115147.0 0.0 8311.0 74315.0 79676.0 126134.0 122346.0 177659.0 185516.0 31951.0 26387.0 144195.0 136964.0 209735.0 213864.0 38122.0 34918.0 127637.0 135056.0 62762.0 56291.0 110663.0 118656.0 22592.0 26639.0 71841.0 66820.0 115752.0 116015.0 57462.0 63468.0 320441.0 328262.0 70389.0 71658.0 317839.0 318181.0 72853.0 79801.0 157177.0 161807.0 189216.0 197149.0 127224.0 122387.0 92330.0 89695.0 186264.0 178880.0 120591.0 127237.0 196215.0 201006.0 57056.0 63989.0 138092.0 146229.0 152960.0 149449.0 241951.0 236449.0 25859.0 27681.0 188816.0 181755.0 62876.0 61806.0 98345.0 97753.0 40899.0 46520.0 47510.0 41095.0 66016.0 57825.0 285172.0 279102.0 85322.0 87260.0 112185.0 104781.0 36668.0 44792.0 47332.0 39973.0 349891.0 341776.0 89809.0 189257.0 89809.0 89809.0 89809.0 189257.0 189257.0 189257.0
269289.0 274151.0 81825.0 75463.0 209685.0 208380.0 46574.0 44242.0 163347.0 170522.0 72750.0 65604.0 92306.0 100418.0 102791.0 98459.0 23447.0 16888.0 41508.0 37338.0 74630.0 82303.0 124495.0 119200.0 71030.0 63078.0 351204.0 343670.0 86892.0 79230.0 65921.0 65777.0 99965.0 107548.0 8311.0 0.0 79578.0 84393.0 121726.0 118369.0 170617.0 178512.0 39712.0 33525.0 136129.0 128848.0 201877.0 205924.0 45908.0 43104.0 119482.0 126956.0 54526.0 48182.0 102370.0 110379.0 20944.0 22454.0 63613.0 58744.0 108172.0 108716.0 60482.0 65845.0 313887.0 321678.0 62739.0 63659.0 311295.0 311760.0 75370.0 81873.0 150500.0 154927.0 182781.0 190683.0 119161.0 114454.0 87299.0 85248.0 179821.0 172538.0 113336.0 119823.0 188932.0 193594.0 65128.0 72160.0 130214.0 138323.0 145729.0 142429.0 234413.0 228827.0 25081.0 24465.0 180915.0 173792.0 70430.0 68855.0 91183.0 90267.0 32592.0 38263.0 39439.0 33341.0 58104.0 50010.0 278075.0 271925.0 77244.0 79032.0 103890.0 96475.0 36621.0 44431.0 40095.0 33181.0 342996.0 334862.0 88942.0 182886.0 88942.0 88942.0 88942.0 182886.0 182886.0 182886.0
289386.0 293871.0 160259.0 154462.0 288749.0 287697.0 56786.0 64892.0 184055.0 192155.0 119129.0 116083.0 153700.0 161604.0 143778.0 136403.0 69149.0 75643.0 38165.0 43996.0 139052.0 145387.0 203500.0 198513.0 139559.0 132665.0 372379.0 365156.0 151401.0 145585.0 130889.0 134411.0 145953.0 151220.0 74315.0 79578.0 0.0 8285.0 200376.0 196359.0 199027.0 205741.0 73793.0 78121.0 186538.0 181142.0 274225.0 277267.0 45809.0 53745.0 173668.0 178959.0 118662.0 110677.0 163620.0 170008.0 96329.0 100947.0 134772.0 132497.0 151455.0 147529.0 27693.0 30325.0 333828.0 341713.0 114985.0 121052.0 331206.0 331415.0 28514.0 34156.0 175277.0 182199.0 202620.0 210612.0 170813.0 163547.0 166606.0 163979.0 258814.0 251686.0 150850.0 158966.0 219997.0 226645.0 46195.0 50440.0 203411.0 211081.0 222768.0 220236.0 267886.0 264177.0 98742.0 101889.0 224483.0 219234.0 33853.0 25792.0 168988.0 166880.0 104796.0 106012.0 103363.0 95362.0 133309.0 126220.0 302650.0 297740.0 133943.0 139452.0 165227.0 159424.0 107640.0 115542.0 94774.0 87544.0 364784.0 356850.0 65346.0 202490.0 65346.0 65346.0 65346.0 202490.0 202490.0 202490.0
285889.0 290374.0 164087.0 158560.0 292678.0 291828.0 64557.0 72585.0 180558.0 188658.0 118924.0 116406.0 154548.0 162327.0 142438.0 134887.0 75633.0 81739.0 42937.0 47742.0 140501.0 146566.0 207489.0 202724.0 141561.0 134916.0 368883.0 361659.0 152689.0 147200.0 137877.0 141147.0 145112.0 150039.0 79676.0 84393.0 8285.0 0.0 205794.0 201997.0 195702.0 202285.0 81253.0 85237.0 185668.0 180547.0 276102.0 278932.0 53323.0 61284.0 173378.0 178353.0 120459.0 112486.0 164328.0 170436.0 101994.0 106200.0 137228.0 135404.0 150229.0 145893.0 28131.0 28618.0 330331.0 338216.0 115532.0 122004.0 327709.0 327918.0 24303.0 28492.0 171836.0 178924.0 199124.0 207115.0 170256.0 162785.0 171670.0 169332.0 262724.0 255707.0 149022.0 157183.0 216769.0 223570.0 54476.0 58687.0 205701.0 213249.0 225931.0 223661.0 264627.0 261125.0 104629.0 107353.0 222529.0 217525.0 42109.0 34077.0 172562.0 170119.0 107931.0 108563.0 105558.0 97661.0 136473.0 129658.0 299153.0 294243.0 134533.0 140387.0 165928.0 160405.0 113908.0 121896.0 96343.0 89479.0 361288.0 353353.0 60282.0 198994.0 60282.0 60282.0 60282.0 198994.0 198994.0 198994.0
310231.0 317154.0 58698.0 58137.0 102427.0 98245.0 152801.0 145532.0 219247.0 223166.0 140110.0 133652.0 117041.0 118919.0 156444.0 158925.0 132656.0 125259.0 162887.0 159051.0 109553.0 112397.0 42977.0 36315.0 100339.0 99617.0 381299.0 373283.0 109230.0 104755.0 83725.0 76301.0 147839.0 154339.0 126134.0 121726.0 200376.0 205794.0 0.0 8160.0 213734.0 221083.0 135472.0 128180.0 155548.0 148208.0 134319.0 141498.0 159232.0 152738.0 140257.0 147923.0 113096.0 117336.0 119189.0 125095.0 104104.0 99607.0 95494.0 90336.0 155199.0 162074.0 182031.0 186885.0 352126.0 358782.0 131043.0 123328.0 349924.0 352914.0 196426.0 202318.0 204914.0 204542.0 236025.0 242249.0 145212.0 148065.0 35462.0 36484.0 76898.0 68870.0 166051.0 166826.0 222995.0 223325.0 172984.0 177161.0 87509.0 92662.0 71470.0 63517.0 254417.0 246750.0 102030.0 98492.0 196092.0 187703.0 183241.0 184793.0 59153.0 66945.0 107781.0 112331.0 117715.0 122312.0 86313.0 88007.0 306275.0 298565.0 124828.0 117924.0 119325.0 113991.0 94859.0 88005.0 129391.0 130952.0 371732.0 363630.0 205338.0 239442.0 205338.0 205338.0 205338.0 239442.0 239442.0 239442.0
314781.0 321616.0 60637.0 58974.0 110016.0 105619.0 147613.0 140185.0 222333.0 226490.0 141086.0 134361.0 119996.0 122371.0 158750.0 160848.0 128099.0 120919.0 159189.0 155692.0 111416.0 114762.0 50055.0 42992.0 102023.0 100666.0 386655.0 378642.0 111985.0 107026.0 77010.0 69807.0 150308.0 157033.0 122346.0 118369.0 196359.0 201997.0 8160.0 0.0 217541.0 224992.0 130072.0 122960.0 159928.0 152445.0 142309.0 149449.0 154462.0 147778.0 144225.0 152058.0 113457.0 117208.0 122763.0 129011.0 100042.0 96038.0 96566.0 90893.0 157898.0 164519.0 178831.0 183923.0 356975.0 363711.0 131635.0 124171.0 354745.0 357605.0 193471.0 199568.0 207944.0 207863.0 239423.0 245798.0 148979.0 151435.0 34362.0 33588.0 84889.0 76884.0 168616.0 169763.0 227406.0 227978.0 167637.0 171577.0 93815.0 99303.0 79108.0 71208.0 259796.0 252187.0 97696.0 94668.0 201270.0 192857.0 178191.0 180044.0 62411.0 70254.0 106487.0 111517.0 116974.0 121112.0 86686.0 87602.0 311489.0 303827.0 126561.0 119944.0 122996.0 117309.0 89906.0 82753.0 128508.0 129565.0 377131.0 369006.0 203519.0 242642.0 203519.0 203519.0 203519.0 242642.0 242642.0 242642.0
100710.0 106599.0 158509.0 162879.0 229710.0 234465.0 209869.0 211117.0 21879.0 17139.0 98171.0 105791.0 98862.0 95339.0 68620.0 72173.0 192057.0 187240.0 179862.0 172008.0 112271.0 106374.0 178139.0 181318.0 121567.0 126737.0 180886.0 173255.0 107288.0 113985.0 221032.0 216034.0 73818.0 65867.0 177659.0 170617.0 199027.0 195702.0 213734.0 217541.0 0.0 8025.0 209354.0 203996.0 59816.0 66227.0 166267.0 163249.0 202468.0 204784.0 73517.0 66180.0 123122.0 126086.0 94826.0 88641.0 182689.0 176427.0 129916.0 137809.0 65069.0 62372.0 173120.0 168842.0 145038.0 152569.0 108928.0 110861.0 142544.0 143995.0 171398.0 168748.0 23979.0 16851.0 25448.0 29526.0 68563.0 66765.0 188501.0 194405.0 208119.0 206425.0 57630.0 52341.0 21188.0 28591.0 221084.0 228922.0 136664.0 136837.0 166977.0 172259.0 68931.0 65800.0 186743.0 179991.0 45043.0 47431.0 217949.0 211049.0 155171.0 147335.0 145097.0 137103.0 133561.0 137816.0 142255.0 147119.0 107528.0 101612.0 100388.0 103776.0 94550.0 100567.0 195742.0 199812.0 130524.0 137687.0 172497.0 164334.0 155178.0 31579.0 155178.0 155178.0 155178.0 31579.0 31579.0 31579.0
92706.0 98638.0 166164.0 170627.0 234895.0 239818.0 217509.0 218844.0 24862.0 17968.0 106131.0 113772.0 106625.0 102933.0 76629.0 80095.0 199867.0 195111.0 187231.0 179419.0 120208.0 114251.0 185051.0 188385.0 129478.0 134703.0 172904.0 165286.0 115064.0 121837.0 229053.0 224043.0 81838.0 73885.0 185516.0 178512.0 205741.0 202285.0 221083.0 224992.0 8025.0 0.0 217175.0 211865.0 66512.0 73219.0 170054.0 166729.0 209990.0 212404.0 80826.0 73293.0 131147.0 134099.0 102367.0 96007.0 190685.0 184439.0 137862.0 145766.0 73088.0 70371.0 180059.0 175632.0 137016.0 144544.0 116916.0 118884.0 134523.0 136001.0 177982.0 175331.0 30473.0 24092.0 21799.0 23958.0 76041.0 74530.0 196190.0 202154.0 213862.0 212376.0 65623.0 60365.0 16205.0 24207.0 228506.0 236334.0 143070.0 142946.0 173152.0 178608.0 62695.0 60195.0 194746.0 188005.0 46385.0 50069.0 225183.0 218201.0 162665.0 154837.0 153110.0 145113.0 141552.0 145762.0 150204.0 155110.0 99731.0 93931.0 108399.0 111735.0 102046.0 108196.0 203761.0 207837.0 138425.0 145543.0 164545.0 156390.0 161762.0 28701.0 161762.0 161762.0 161762.0 28701.0 28701.0 28701.0
307008.0 311585.0 110214.0 102584.0 232425.0 229938.0 18091.0 10159.0 200885.0 208307.0 112060.0 105123.0 131225.0 139230.0 142100.0 137390.0 17342.0 22878.0 46455.0 49567.0 113359.0 121115.0 149263.0 142736.0 108732.0 100731.0 389436.0 381984.0 125282.0 117342.0 58112.0 62810.0 139581.0 147097.0 31951.0 39712.0 73793.0 81253.0 135472.0 130072.0 209354.0 217175.0 0.0 8114.0 175753.0 168402.0 234414.0 239118.0 27985.0 20072.0 158958.0 166537.0 93857.0 87811.0 141138.0 149306.0 38659.0 46542.0 100564.0 94490.0 147703.0 147903.0 68600.0 76046.0 351528.0 359387.0 102329.0 103357.0 348912.0 349080.0 83978.0 91881.0 188532.0 193368.0 220238.0 228202.0 158794.0 154164.0 105629.0 100862.0 203301.0 195522.0 152456.0 159164.0 228072.0 232922.0 37569.0 41865.0 163403.0 171649.0 174362.0 169810.0 273898.0 268399.0 37892.0 44915.0 220627.0 213490.0 48726.0 52126.0 120411.0 121425.0 71128.0 77586.0 79115.0 72989.0 92752.0 84344.0 316882.0 310876.0 116880.0 118330.0 142616.0 135010.0 41161.0 47481.0 79250.0 71745.0 381390.0 373296.0 110171.0 220209.0 110171.0 110171.0 110171.0 220209.0 220209.0 220209.0
302240.0 306957.0 102100.0 94474.0 224581.0 222170.0 24653.0 17505.0 196164.0 203472.0 106263.0 99126.0 124034.0 131986.0 136309.0 131880.0 13869.0 16755.0 47619.0 49419.0 106129.0 113900.0 141250.0 134767.0 101237.0 93248.0 384409.0 376909.0 117920.0 109921.0 52806.0 56811.0 133443.0 141055.0 26387.0 33525.0 78121.0 85237.0 128180.0 122960.0 203996.0 211865.0 8114.0 0.0 169006.0 161570.0 226323.0 231046.0 32787.0 25323.0 152057.0 159737.0 86950.0 81178.0 133875.0 142095.0 30590.0 38513.0 92954.0 86737.0 141684.0 142214.0 70131.0 77360.0 346808.0 354635.0 96244.0 96835.0 344204.0 344515.0 85778.0 93542.0 183563.0 188182.0 215565.0 223504.0 152073.0 147661.0 97858.0 93258.0 195395.0 187637.0 146820.0 153346.0 222431.0 227118.0 44850.0 49598.0 155354.0 163602.0 166258.0 161727.0 267927.0 262311.0 29781.0 36819.0 214131.0 206895.0 55306.0 57924.0 112298.0 113335.0 64004.0 70733.0 72584.0 66837.0 84895.0 76492.0 311494.0 305386.0 110203.0 111347.0 135336.0 127676.0 33508.0 40213.0 73542.0 66329.0 376268.0 368150.0 109736.0 215591.0 109736.0 109736.0 109736.0 215591.0 215591.0 215591.0
154884.0 161688.0 103090.0 108646.0 172627.0 176813.0 180977.0 180037.0 71321.0 72576.0 68162.0 73028.0 47493.0 41196.0 44011.0 52002.0 159428.0 152877.0 157985.0 149802.0 64704.0 57220.0 118579.0 122098.0 72345.0 79359.0 229214.0 221268.0 55504.0 63512.0 174327.0 168210.0 40587.0 36044.0 144195.0 136129.0 186538.0 185668.0 155548.0 159928.0 59816.0 66512.0 175753.0 169006.0 0.0 8071.0 116555.0 115424.0 176433.0 176537.0 17827.0 9456.0 82116.0 87952.0 39960.0 32086.0 142622.0 135213.0 81430.0 89362.0 36012.0 42326.0 158861.0 157053.0 197519.0 204468.0 75167.0 72572.0 195225.0 197840.0 162681.0 162379.0 59143.0 55279.0 84281.0 89278.0 16972.0 23057.0 133145.0 139756.0 149462.0 147302.0 41135.0 33952.0 67479.0 68347.0 196315.0 204077.0 76952.0 77598.0 107522.0 112568.0 104047.0 97241.0 146000.0 138448.0 46183.0 38332.0 196699.0 191436.0 98213.0 90525.0 105279.0 98275.0 96695.0 103351.0 93267.0 99951.0 153717.0 146422.0 58884.0 58055.0 39115.0 46594.0 152874.0 155194.0 98744.0 106914.0 220012.0 211791.0 149818.0 89199.0 149818.0 149818.0 149818.0 89199.0 89199.0 89199.0
162500.0 169231.0 95211.0 100677.0 168717.0 172619.0 173992.0 172872.0 76120.0 78042.0 62227.0 66592.0 39482.0 33126.0 40463.0 48504.0 152206.0 145539.0 151765.0 143602.0 56821.0 49280.0 111913.0 115166.0 64336.0 71414.0 237204.0 229263.0 47449.0 55479.0 166285.0 160150.0 35653.0 32426.0 136964.0 128848.0 181142.0 180547.0 148208.0 152445.0 66227.0 73219.0 168402.0 161570.0 8071.0 0.0 115563.0 114972.0 169719.0 169623.0 9818.0 2204.0 74625.0 80675.0 31900.0 24108.0 134909.0 127448.0 73428.0 81344.0 32578.0 39909.0 153449.0 151934.0 205307.0 212296.0 68559.0 65477.0 202998.0 205533.0 157869.0 157896.0 63223.0 60173.0 90135.0 95495.0 10343.0 18022.0 125293.0 131846.0 144756.0 142255.0 39623.0 33458.0 75032.0 76170.0 189642.0 197372.0 71388.0 72709.0 102250.0 106941.0 112117.0 105308.0 138238.0 130655.0 54178.0 46240.0 190354.0 185272.0 90534.0 82807.0 97723.0 90846.0 89457.0 96284.0 85226.0 91961.0 161714.0 154441.0 51668.0 50388.0 31077.0 38526.0 144985.0 147226.0 91999.0 100185.0 228019.0 219797.0 145762.0 94711.0 145762.0 145762.0 145762.0 94711.0 94711.0 94711.0
234512.0 242448.0 124837.0 132849.0 76466.0 83788.0 247045.0 242520.0 183724.0 182506.0 162729.0 162526.0 123814.0 117070.0 152935.0 160425.0 223060.0 214805.0 238212.0 231010.0 135812.0 130350.0 95211.0 103125.0 134667.0 141687.0 286377.0 278651.0 124033.0 128962.0 202322.0 194231.0 145388.0 145503.0 209735.0 201877.0 274225.0 276102.0 134319.0 142309.0 166267.0 170054.0 234414.0 226323.0 116555.0 115563.0 0.0 7817.0 247781.0 244394.0 116745.0 117305.0 155653.0 163633.0 115278.0 111712.0 195764.0 187968.0 139897.0 143425.0 145930.0 154164.0 247999.0 249007.0 267820.0 272612.0 162541.0 155065.0 266261.0 271398.0 256941.0 259223.0 173765.0 168274.0 191472.0 193807.0 122591.0 130857.0 140271.0 147925.0 71642.0 76306.0 154721.0 149010.0 161878.0 157355.0 266686.0 273310.0 71667.0 63611.0 64975.0 72160.0 168664.0 160843.0 196732.0 189505.0 125767.0 120344.0 272191.0 269833.0 114505.0 112989.0 171032.0 168547.0 170883.0 178911.0 143775.0 151911.0 218418.0 210441.0 144157.0 137154.0 113816.0 117552.0 196765.0 193964.0 179767.0 186718.0 276458.0 269158.0 250760.0 197841.0 250760.0 250760.0 250760.0 197841.0 197841.0 197841.0
228995.0 236950.0 130019.0 138096.0 83598.0 91043.0 251404.0 247060.0 181247.0 179704.0 164367.0 164535.0 125712.0 118689.0 153192.0 160819.0 227406.0 219185.0 241617.0 234302.0 138453.0 132693.0 101857.0 109762.0 137815.0 145022.0 279630.0 271936.0 126439.0 131740.0 208285.0 200215.0 145921.0 145608.0 213864.0 205924.0 277267.0 278932.0 141498.0 149449.0 163249.0 166729.0 239118.0 231046.0 115424.0 114972.0 7817.0 0.0 251825.0 248631.0 116807.0 116800.0 158606.0 166591.0 116838.0 112764.0 200460.0 192604.0 143417.0 147287.0 145994.0 154100.0 250805.0 251591.0 261673.0 266350.0 164701.0 157428.0 260155.0 265391.0 259367.0 261427.0 171739.0 165996.0 188292.0 190342.0 122483.0 130841.0 146462.0 154180.0 79453.0 84115.0 154417.0 148412.0 157971.0 153169.0 270889.0 277613.0 75852.0 67661.0 71548.0 78927.0 162968.0 155209.0 201564.0 194247.0 121832.0 116784.0 276095.0 273532.0 119687.0 117775.0 174718.0 171922.0 174049.0 182100.0 147849.0 156070.0 212268.0 204314.0 146104.0 139326.0 115334.0 119518.0 201947.0 199369.0 182608.0 189724.0 269716.0 262473.0 252484.0 194778.0 252484.0 252484.0 252484.0 194778.0 194778.0 194778.0
297118.0 301604.0 126570.0 119660.0 252803.0 250927.0 11955.0 19443.0 191393.0 199194.0 109179.0 103497.0 135633.0 143831.0 138289.0 132369.0 26864.0 34900.0 24795.0 31366.0 118547.0 125966.0 168166.0 162280.0 116051.0 108231.0 380114.0 372885.0 131082.0 123814.0 85526.0 89574.0 137558.0 144412.0 38122.0 45908.0 45809.0 53323.0 159232.0 154462.0 202468.0 209990.0 27985.0 32787.0 176433.0 169719.0 247781.0 251825.0 0.0 7962.0 160864.0 167684.0 97712.0 90387.0 145837.0 153464.0 56327.0 62746.0 109117.0 104589.0 144889.0 143471.0 44000.0 51609.0 341561.0 349445.0 101268.0 104546.0 338938.0 339147.0 58400.0 66395.0 180204.0 185903.0 210352.0 218343.0 159600.0 153785.0 127231.0 123472.0 223187.0 215649.0 147681.0 155121.0 222290.0 227878.0 19976.0 27654.0 176120.0 184231.0 190903.0 187201.0 269377.0 264506.0 57569.0 62581.0 219306.0 212808.0 24949.0 25582.0 136280.0 135856.0 77714.0 82063.0 81689.0 74096.0 104011.0 95887.0 309380.0 303861.0 118442.0 121704.0 147409.0 140365.0 64576.0 72019.0 77721.0 69537.0 372490.0 364525.0 88720.0 210223.0 88720.0 88720.0 88720.0 210223.0 210223.0 210223.0
300260.0 304794.0 122096.0 114961.0 247384.0 245326.0 5358.0 11616.0 194431.0 202138.0 110026.0 103942.0 134540.0 142717.0 139553.0 133957.0 21636.0 29951.0 30407.0 35859.0 117148.0 124702.0 163084.0 157005.0 114038.0 106118.0 383280.0 375985.0 129575.0 122082.0 77859.0 82113.0 138306.0 145377.0 34918.0 43104.0 53745.0 61284.0 152738.0 147778.0 204784.0 212404.0 20072.0 25323.0 176537.0 169623.0 244394.0 248631.0 7962.0 0.0 160575.0 167631.0 96543.0 89514.0 144703.0 152511.0 50909.0 57806.0 106716.0 101728.0 145893.0 144934.0 51001.0 58602.0 344751.0 352636.0 101533.0 104190.0 342129.0 342338.0 65773.0 73761.0 182887.0 188352.0 213534.0 221529.0 159620.0 154124.0 121303.0 117254.0 217890.0 210275.0 149257.0 156512.0 224324.0 229712.0 22318.0 29070.0 172808.0 180974.0 186532.0 182581.0 271114.0 266059.0 51695.0 57275.0 220068.0 213377.0 30550.0 32605.0 131975.0 131950.0 75563.0 80559.0 80719.0 73442.0 100826.0 92564.0 311993.0 306333.0 118071.0 120836.0 146254.0 139024.0 57898.0 65112.0 77882.0 69777.0 375535.0 367530.0 94953.0 213414.0 94953.0 94953.0 94953.0 213414.0 213414.0 213414.0
171197.0 177808.0 86229.0 91452.0 165912.0 169415.0 164874.0 163588.0 81388.0 84094.0 54539.0 58256.0 29672.0 23523.0 36455.0 44247.0 142879.0 136113.0 143437.0 135304.0 47028.0 39467.0 105206.0 107997.0 54526.0 61599.0 246581.0 238654.0 37692.0 45686.0 156501.0 150399.0 29941.0 28802.0 127637.0 119482.0 173668.0 173378.0 140257.0 144225.0 73517.0 80826.0 158958.0 152057.0 17827.0 9818.0 116745.0 116807.0 160864.0 160575.0 0.0 8481.0 65115.0 71359.0 22441.0 15225.0 125195.0 117703.0 63615.0 71539.0 29199.0 37434.0 145998.0 144814.0 214280.0 221340.0 60010.0 56388.0 211945.0 214338.0 151086.0 151489.0 67811.0 65753.0 96579.0 102370.0 6325.0 14134.0 116348.0 122757.0 140920.0 137938.0 38330.0 33836.0 83746.0 85289.0 180817.0 188512.0 66754.0 69100.0 97786.0 101912.0 121795.0 115041.0 128494.0 120896.0 63989.0 56056.0 181859.0 176970.0 82021.0 74228.0 88137.0 81373.0 80165.0 87152.0 75441.0 82145.0 171118.0 163903.0 42504.0 40756.0 21773.0 28953.0 135182.0 137409.0 83211.0 91398.0 237442.0 229215.0 139943.0 100704.0 139943.0 139943.0 139943.0 100704.0 100704.0 100704.0
163055.0 169730.0 94478.0 99815.0 169801.0 173622.0 172017.0 170946.0 75469.0 77611.0 60071.0 64496.0 38080.0 31994.0 38310.0 46347.0 150296.0 143668.0 149652.0 141485.0 55249.0 47769.0 112027.0 115139.0 62924.0 69907.0 238146.0 230215.0 46157.0 54119.0 164936.0 158859.0 33449.0 30279.0 135056.0 126956.0 178959.0 178353.0 147923.0 152058.0 66180.0 73293.0 166537.0 159737.0 9456.0 2204.0 117305.0 116800.0 167684.0 167631.0 8481.0 0.0 72807.0 78776.0 30868.0 23336.0 133211.0 125783.0 72003.0 79946.0 30445.0 37861.0 151266.0 149739.0 206004.0 213032.0 66492.0 63518.0 203681.0 206144.0 155667.0 155692.0 62381.0 59585.0 89830.0 95329.0 8189.0 15823.0 124584.0 131064.0 145616.0 143005.0 37691.0 31712.0 75578.0 76936.0 187601.0 195337.0 72014.0 73568.0 102946.0 107505.0 113319.0 106581.0 136572.0 129010.0 55630.0 47786.0 188259.0 183154.0 90013.0 82255.0 95938.0 89005.0 87546.0 94324.0 83878.0 90514.0 162674.0 155444.0 49740.0 48654.0 30134.0 37419.0 143419.0 145746.0 89963.0 98148.0 228994.0 220768.0 143565.0 94275.0 143565.0 143565.0 143565.0 94275.0 94275.0 94275.0
223701.0 229304.0 56022.0 54996.0 178685.0 179287.0 100549.0 98753.0 120371.0 126479.0 28952.0 21399.0 37997.0 46179.0 54851.0 53399.0 77971.0 71035.0 83708.0 76078.0 20970.0 28256.0 96718.0 94482.0 21268.0 15938.0 303622.0 295889.0 33574.0 27007.0 98071.0 93486.0 49436.0 57401.0 62762.0 54526.0 118662.0 120459.0 113096.0 113457.0 123122.0 131147.0 93857.0 86950.0 82116.0 74625.0 155653.0 158606.0 97712.0 96543.0 65115.0 72807.0 0.0 7986.0 48172.0 55988.0 61013.0 54032.0 19520.0 22811.0 58164.0 61226.0 92376.0 93722.0 268135.0 275688.0 18400.0 12612.0 265627.0 266875.0 102072.0 105235.0 106297.0 109014.0 139437.0 146937.0 65233.0 61401.0 79333.0 82427.0 149182.0 143183.0 65984.0 70797.0 139474.0 143221.0 117641.0 125126.0 85566.0 92926.0 108579.0 107834.0 182988.0 176932.0 64694.0 57477.0 127620.0 120188.0 120350.0 116619.0 60629.0 55412.0 23219.0 16283.0 16095.0 24024.0 26800.0 27157.0 229123.0 222512.0 23735.0 24509.0 49731.0 42668.0 72873.0 76692.0 24205.0 31124.0 294987.0 286776.0 100394.0 140747.0 100394.0 100394.0 100394.0 140747.0 140747.0 140747.0
226336.0 231746.0 61485.0 59600.0 185805.0 186240.0 93662.0 92230.0 121991.0 128424.0 29109.0 21117.0 45269.0 53467.0 57471.0 54930.0 71534.0 64933.0 75844.0 68167.0 28749.0 35795.0 103150.0 100534.0 29148.0 23219.0 306903.0 299223.0 41333.0 34962.0 96223.0 92205.0 53105.0 60973.0 56291.0 48182.0 110677.0 112486.0 117336.0 117208.0 126086.0 134099.0 87811.0 81178.0 87952.0 80675.0 163633.0 166591.0 90387.0 89514.0 71359.0 78776.0 7986.0 0.0 55480.0 63084.0 56768.0 50341.0 26386.0 28049.0 61681.0 63761.0 84412.0 85836.0 270870.0 278495.0 17838.0 15754.0 268336.0 269376.0 94257.0 97560.0 108174.0 111416.0 141249.0 148888.0 70988.0 66504.0 82880.0 85314.0 156194.0 150053.0 68525.0 74017.0 143151.0 147241.0 110349.0 117900.0 93448.0 100853.0 116018.0 115047.0 187474.0 181610.0 60719.0 53908.0 132962.0 125722.0 112737.0 108861.0 66892.0 62134.0 19016.0 11034.0 8818.0 16358.0 31413.0 29691.0 232763.0 226298.0 29071.0 31342.0 57061.0 50216.0 69729.0 74262.0 16322.0 23142.0 298389.0 290195.0 93350.0 142168.0 93350.0 93350.0 93350.0 142168.0 142168.0 142168.0
193431.0 199960.0 63985.0 69039.0 154640.0 157255.0 148655.0 146588.0 100412.0 104026.0 47529.0 48182.0 10213.0 2030.0 43259.0 49083.0 125784.0 118530.0 130678.0 122762.0 27787.0 20068.0 86562.0 88433.0 33563.0 41211.0 269013.0 261083.0 16317.0 24553.0 134802.0 128504.0 34265.0 38246.0 110663.0 102370.0 163620.0 164328.0 119189.0 122763.0 94826.0 102367.0 141138.0 133875.0 39960.0 31900.0 115278.0 116838.0 145837.0 144703.0 22441.0 30868.0 48172.0 55480.0 0.0 8440.0 105744.0 98001.0 42595.0 50279.0 39015.0 47220.0 136335.0 136256.0 236648.0 243735.0 48812.0 42669.0 234303.0 236624.0 143507.0 145055.0 86251.0 85421.0 116845.0 123076.0 26366.0 29023.0 94098.0 100401.0 127739.0 123775.0 50112.0 48867.0 106045.0 107720.0 165784.0 173290.0 53972.0 58631.0 84070.0 86845.0 143987.0 137112.0 108741.0 101010.0 85735.0 77588.0 168132.0 164000.0 60362.0 52521.0 70046.0 64206.0 64148.0 71828.0 53897.0 61095.0 193542.0 186305.0 29823.0 24423.0 1610.0 6723.0 114638.0 116337.0 69702.0 77641.0 259862.0 251636.0 135648.0 120401.0 135648.0 135648.0 135648.0 120401.0 120401.0 120401.0
186362.0 193001.0 71145.0 76570.0 155093.0 158117.0 156537.0 154618.0 95639.0 98749.0 52355.0 54030.0 18087.0 10172.0 42980.0 49718.0 133815.0 126642.0 137740.0 129753.0 35967.0 28197.0 90724.0 93203.0 41999.0 49619.0 261297.0 253353.0 24753.0 32989.0 143141.0 136788.0 34505.0 36770.0 118656.0 110379.0 170008.0 170436.0 125095.0 129011.0 88641.0 96007.0 149306.0 142095.0 32086.0 24108.0 111712.0 112764.0 153464.0 152511.0 15225.0 23336.0 55988.0 63084.0 8440.0 0.0 114114.0 106391.0 51035.0 58711.0 37433.0 45938.0 142568.0 142169.0 229338.0 236357.0 55025.0 49564.0 227017.0 229471.0 149145.0 150348.0 81746.0 80259.0 111381.0 117334.0 20250.0 24939.0 101248.0 107752.0 129024.0 125532.0 48132.0 45562.0 98892.0 100245.0 173430.0 180983.0 54674.0 58263.0 85473.0 88956.0 135949.0 129001.0 117139.0 109416.0 77527.0 69330.0 175481.0 171161.0 66797.0 59008.0 78182.0 72146.0 71829.0 79375.0 62300.0 69533.0 185802.0 178505.0 36119.0 31765.0 7250.0 15120.0 123078.0 124765.0 76773.0 84816.0 252097.0 243877.0 140215.0 115283.0 140215.0 140215.0 140215.0 115283.0 115283.0 115283.0
282600.0 287819.0 71841.0 64413.0 196538.0 194603.0 52442.0 46995.0 177396.0 184193.0 84738.0 76958.0 96259.0 103942.0 114093.0 110914.0 29490.0 21493.0 59345.0 56662.0 78375.0 86119.0 112189.0 106102.0 72441.0 64586.0 363565.0 355908.0 89518.0 81348.0 45521.0 44899.0 109847.0 117734.0 22592.0 20944.0 96329.0 101994.0 104104.0 100042.0 182689.0 190685.0 38659.0 30590.0 142622.0 134909.0 195764.0 200460.0 56327.0 50909.0 125195.0 133211.0 61013.0 56768.0 105744.0 114114.0 0.0 8042.0 63767.0 57023.0 118447.0 120317.0 80004.0 85856.0 327188.0 334870.0 73784.0 72381.0 324634.0 325473.0 95298.0 102101.0 163971.0 167692.0 196802.0 204580.0 125908.0 122402.0 71080.0 67826.0 166997.0 159406.0 125062.0 130763.0 199919.0 203959.0 72858.0 78669.0 124766.0 133015.0 136206.0 131966.0 243967.0 237943.0 4510.0 6409.0 188454.0 180883.0 81132.0 81523.0 81951.0 82777.0 37951.0 45742.0 49142.0 45805.0 54803.0 46460.0 289527.0 283065.0 84747.0 84568.0 107130.0 99314.0 16000.0 23552.0 54144.0 49080.0 355098.0 346911.0 109849.0 197172.0 109849.0 109849.0 109849.0 197172.0 197172.0 197172.0
276606.0 281940.0 64409.0 57164.0 190125.0 188394.0 59691.0 54607.0 171786.0 178435.0 78855.0 70967.0 88609.0 96219.0 107810.0 104988.0 36187.0 27920.0 63281.0 59679.0 70774.0 78490.0 105425.0 99560.0 64608.0 56802.0 357232.0 349542.0 81740.0 73547.0 48315.0 46348.0 103214.0 111141.0 26639.0 22454.0 100947.0 106200.0 99607.0 96038.0 176427.0 184439.0 46542.0 38513.0 135213.0 127448.0 187968.0 192604.0 62746.0 57806.0 117703.0 125783.0 54032.0 50341.0 98001.0 106391.0 8042.0 0.0 55865.0 49030.0 111873.0 114090.0 82904.0 88295.0 321162.0 328804.0 67740.0 65745.0 318621.0 319585.0 97822.0 104281.0 158187.0 161669.0 191146.0 198868.0 118577.0 115298.0 65697.0 63135.0 160460.0 152957.0 118851.0 124315.0 193334.0 197216.0 79962.0 86004.0 116863.0 125108.0 128844.0 124785.0 237000.0 230889.0 10790.0 3633.0 181151.0 173514.0 87674.0 87559.0 74423.0 75005.0 31337.0 39330.0 43214.0 40876.0 46765.0 38431.0 282980.0 276441.0 77732.0 77196.0 99369.0 91530.0 19698.0 25682.0 49496.0 45373.0 348694.0 340495.0 109735.0 191730.0 109735.0 109735.0 109735.0 191730.0 191730.0 191730.0
230463.0 236499.0 37321.0 37593.0 159419.0 159893.0 110090.0 106980.0 130228.0 135563.0 44616.0 38339.0 33946.0 40942.0 64470.0 65230.0 86395.0 78599.0 98322.0 91207.0 17672.0 24395.0 77206.0 75098.0 9099.0 4124.0 308490.0 300639.0 26295.0 18072.0 93024.0 87189.0 57068.0 64706.0 71841.0 63613.0 134772.0 137228.0 95494.0 96566.0 129916.0 137862.0 100564.0 92954.0 81430.0 73428.0 139897.0 143417.0 109117.0 106716.0 63615.0 72003.0 19520.0 26386.0 42595.0 51035.0 63767.0 55865.0 0.0 8022.0 65557.0 70680.0 109390.0 111392.0 274483.0 281833.0 35949.0 27908.0 272044.0 273790.0 120064.0 123676.0 115828.0 117351.0 148659.0 155784.0 65608.0 64211.0 63177.0 67406.0 129826.0 123742.0 75203.0 78272.0 144239.0 147009.0 128651.0 135763.0 68664.0 76435.0 89780.0 88671.0 185071.0 178487.0 66499.0 58714.0 127604.0 119637.0 132958.0 130143.0 41194.0 35901.0 31447.0 28764.0 31799.0 39577.0 12345.0 18555.0 233306.0 226336.0 31028.0 26175.0 43868.0 35967.0 72048.0 73855.0 42378.0 48055.0 299566.0 291332.0 119700.0 150783.0 119700.0 119700.0 119700.0 150783.0 150783.0 150783.0
238396.0 244403.0 33455.0 32207.0 159056.0 159122.0 104854.0 101323.0 137782.0 143230.0 50353.0 43471.0 41870.0 48685.0 71895.0 72248.0 80965.0 72978.0 95374.0 88610.0 25644.0 32408.0 75431.0 72550.0 17027.0 11147.0 316506.0 308656.0 34050.0 25888.0 85031.0 79169.0 64723.0 72437.0 66820.0 58744.0 132497.0 135404.0 90336.0 90893.0 137809.0 145766.0 94490.0 86737.0 89362.0 81344.0 143425.0 147287.0 104589.0 101728.0 71539.0 79946.0 22811.0 28049.0 50279.0 58711.0 57023.0 49030.0 8022.0 0.0 73281.0 78161.0 107885.0 110411.0 282445.0 289807.0 40756.0 33369.0 280003.0 281720.0 119339.0 123413.0 123411.0 125088.0 156320.0 163497.0 73610.0 72221.0 57005.0 60705.0 129249.0 122840.0 82737.0 86031.0 152241.0 155029.0 123858.0 130796.0 71807.0 79814.0 90605.0 88788.0 193067.0 186464.0 59507.0 51701.0 135522.0 127526.0 128811.0 126435.0 39137.0 35164.0 27827.0 27229.0 31379.0 38479.0 4579.0 10884.0 241327.0 234358.0 38386.0 34033.0 51501.0 43598.0 64525.0 66061.0 42846.0 47388.0 307585.0 299351.0 120848.0 158330.0 120848.0 120848.0 120848.0 158330.0 158330.0 158330.0
165763.0 171537.0 97414.0 100598.0 192526.0 195512.0 150655.0 150721.0 64946.0 70028.0 35893.0 42583.0 38317.0 38440.0 8000.0 16024.0 130703.0 125041.0 124807.0 116625.0 48172.0 43368.0 125153.0 126496.0 57729.0 62139.0 245467.0 237744.0 45970.0 51174.0 155965.0 150990.0 8750.0 867.0 115752.0 108172.0 151455.0 150229.0 155199.0 157898.0 65069.0 73088.0 147703.0 141684.0 36012.0 32578.0 145930.0 145994.0 144889.0 145893.0 29199.0 30445.0 58164.0 61681.0 39015.0 37433.0 118447.0 111873.0 65557.0 73281.0 0.0 8532.0 123869.0 121662.0 210104.0 217615.0 45442.0 46128.0 207612.0 209018.0 126975.0 126467.0 50495.0 51806.0 83126.0 90228.0 23619.0 15185.0 126627.0 131847.0 166293.0 162578.0 11145.0 12792.0 81477.0 85629.0 164474.0 172323.0 92033.0 95668.0 122662.0 125751.0 126243.0 120699.0 122362.0 115392.0 74515.0 68403.0 163699.0 157926.0 96108.0 88403.0 80572.0 72705.0 69649.0 74848.0 77804.0 82222.0 171111.0 164618.0 35361.0 39454.0 39635.0 42363.0 130978.0 134834.0 68571.0 76410.0 236861.0 228655.0 113808.0 85477.0 113808.0 113808.0 113808.0 85477.0 85477.0 85477.0
162615.0 168122.0 103907.0 106660.0 201025.0 203976.0 149829.0 150361.0 59647.0 65379.0 35985.0 43459.0 45729.0 46531.0 6380.0 11266.0 130725.0 125481.0 122522.0 114388.0 53763.0 49757.0 132960.0 134081.0 63372.0 67041.0 243253.0 235607.0 52984.0 57507.0 159295.0 154648.0 14235.0 9169.0 116015.0 108716.0 147529.0 145893.0 162074.0 164519.0 62372.0 70371.0 147903.0 142214.0 42326.0 39909.0 154164.0 154100.0 143471.0 144934.0 37434.0 37861.0 61226.0 63761.0 47220.0 45938.0 120317.0 114090.0 70680.0 78161.0 8532.0 0.0 120124.0 117466.0 207125.0 214739.0 46570.0 48759.0 204597.0 205721.0 122296.0 121341.0 45338.0 47794.0 78411.0 85801.0 31617.0 23308.0 132712.0 137650.0 174706.0 170923.0 4770.0 11698.0 80218.0 85052.0 162812.0 170680.0 100491.0 104186.0 131059.0 134046.0 126257.0 121125.0 124375.0 117665.0 77143.0 71705.0 161363.0 155276.0 103135.0 95512.0 82776.0 74760.0 71193.0 75643.0 82729.0 86506.0 169492.0 163244.0 39783.0 45020.0 47914.0 50183.0 133474.0 137756.0 68689.0 76194.0 234821.0 226645.0 108260.0 80183.0 108260.0 108260.0 108260.0 80183.0 80183.0 80183.0
264287.0 268773.0 137482.0 132363.0 265985.0 265403.0 55819.0 62391.0 158956.0 167042.0 91461.0 88571.0 126506.0 134329.0 116238.0 108950.0 57865.0 61981.0 22537.0 23343.0 112370.0 118451.0 180991.0 176558.0 113519.0 106976.0 347281.0 340057.0 124564.0 119078.0 120426.0 122424.0 118279.0 123619.0 57462.0 60482.0 27693.0 28131.0 182031.0 178831.0 173120.0 180059.0 68600.0 70131.0 158861.0 153449.0 247999.0 250805.0 44000.0 51001.0 145998.0 151266.0 92376.0 84412.0 136335.0 142568.0 80004.0 82904.0 109390.0 107885.0 123869.0 120124.0 0.0 7611.0 308729.0 316614.0 87583.0 93923.0 306107.0 306316.0 15748.0 23411.0 149603.0 156269.0 177522.0 185513.0 143121.0 135862.0 147227.0 145596.0 236035.0 229173.0 123552.0 131630.0 193918.0 200365.0 55327.0 62179.0 177728.0 185229.0 198489.0 196465.0 241777.0 237821.0 83300.0 84627.0 197191.0 191808.0 47583.0 39551.0 145614.0 142821.0 80736.0 80848.0 77639.0 69819.0 109185.0 102691.0 277514.0 272641.0 106577.0 112317.0 137939.0 132329.0 93744.0 101896.0 68233.0 61479.0 339686.0 331751.0 45843.0 177392.0 45843.0 45843.0 45843.0 177392.0 177392.0 177392.0
259430.0 263915.0 140848.0 136049.0 269096.0 268723.0 63430.0 69971.0 154099.0 162199.0 90419.0 88168.0 126604.0 134271.0 113898.0 106404.0 64844.0 68560.0 29754.0 29454.0 113198.0 118949.0 184350.0 180166.0 114977.0 108757.0 342423.0 335200.0 125163.0 120068.0 127123.0 128879.0 116494.0 121462.0 63468.0 65845.0 30325.0 28618.0 186885.0 183923.0 168842.0 175632.0 76046.0 77360.0 157053.0 151934.0 249007.0 251591.0 51609.0 58602.0 144814.0 149739.0 93722.0 85836.0 136256.0 142169.0 85856.0 88295.0 111392.0 110411.0 121662.0 117466.0 7611.0 0.0 303872.0 311757.0 87455.0 94253.0 301250.0 301459.0 9548.0 16438.0 145159.0 152002.0 172664.0 180656.0 141648.0 134167.0 151860.0 150539.0 239176.0 232443.0 120693.0 128832.0 189769.0 196371.0 62510.0 69185.0 179282.0 186635.0 200924.0 199182.0 237658.0 233892.0 89320.0 90210.0 194292.0 189150.0 54146.0 45892.0 148662.0 145518.0 83793.0 83207.0 79603.0 72012.0 111993.0 105861.0 272694.0 267744.0 106434.0 112555.0 137849.0 132562.0 99999.0 108150.0 69524.0 63339.0 334828.0 326894.0 38771.0 172534.0 38771.0 38771.0 38771.0 172534.0 172534.0 172534.0
44610.0 40158.0 300482.0 305677.0 342918.0 349486.0 349997.0 352128.0 150656.0 143367.0 242450.0 250252.0 242231.0 237535.0 213450.0 216275.0 334199.0 330135.0 317877.0 310397.0 256812.0 250507.0 312576.0 317267.0 265899.0 271457.0 41568.0 36274.0 250684.0 257902.0 366068.0 361016.0 218854.0 210898.0 320441.0 313887.0 333828.0 330331.0 352126.0 356975.0 145038.0 137016.0 351528.0 346808.0 197519.0 205307.0 267820.0 261673.0 341561.0 344751.0 214280.0 206004.0 268135.0 270870.0 236648.0 229338.0 327188.0 321162.0 274483.0 282445.0 210104.0 207125.0 308729.0 303872.0 0.0 8039.0 253453.0 255812.0 2678.0 8434.0 306028.0 303378.0 163425.0 159506.0 131290.0 123327.0 210524.0 210465.0 330586.0 337036.0 328881.0 329614.0 202357.0 197377.0 130657.0 129175.0 359266.0 366994.0 267588.0 264972.0 294240.0 301095.0 100656.0 108669.0 331334.0 324750.0 156469.0 164743.0 354891.0 347559.0 295703.0 288039.0 289882.0 281845.0 278073.0 281792.0 286823.0 291993.0 49406.0 57380.0 245393.0 248476.0 236050.0 242946.0 340596.0 344810.0 274057.0 280708.0 37325.0 32114.0 289808.0 132322.0 289808.0 289808.0 289808.0 132322.0 132322.0 132322.0
52395.0 48151.0 307500.0 312774.0 347994.0 354645.0 357749.0 360033.0 158504.0 151171.0 250136.0 257921.0 249447.0 244651.0 221053.0 223963.0 342055.0 337953.0 325762.0 318281.0 264166.0 257804.0 319001.0 323787.0 273214.0 278841.0 33796.0 28991.0 257893.0 265164.0 373571.0 368468.0 226365.0 218405.0 328262.0 321678.0 341713.0 338216.0 358782.0 363711.0 152569.0 144544.0 359387.0 354635.0 204468.0 212296.0 272612.0 266350.0 349445.0 352636.0 221340.0 213032.0 275688.0 278495.0 243735.0 236357.0 334870.0 328804.0 281833.0 289807.0 217615.0 214739.0 316614.0 311757.0 8039.0 0.0 261115.0 263393.0 10717.0 14253.0 313913.0 311262.0 171192.0 167178.0 139160.0 131188.0 217674.0 217754.0 337589.0 344092.0 334431.0 335303.0 209972.0 204907.0 137837.0 136128.0 367151.0 374879.0 273908.0 271145.0 300267.0 307195.0 106373.0 114373.0 339003.0 332388.0 162907.0 171224.0 362776.0 355443.0 302599.0 294959.0 297510.0 289480.0 285744.0 289521.0 294169.0 299411.0 54438.0 62470.0 252872.0 255865.0 243113.0 250069.0 348213.0 352375.0 281817.0 288503.0 30334.0 26140.0 297692.0 140267.0 297692.0 297692.0 297692.0 140267.0 140267.0 140267.0
208883.0 214200.0 73253.0 72910.0 191952.0 193095.0 106095.0 105676.0 104225.0 110743.0 11271.0 3279.0 39187.0 46820.0 40415.0 37256.0 85432.0 79617.0 83455.0 75343.0 28204.0 32309.0 112185.0 110648.0 33957.0 31877.0 289814.0 282175.0 38685.0 35438.0 114049.0 110035.0 37253.0 44811.0 70389.0 62739.0 114985.0 115532.0 131043.0 131635.0 108928.0 116916.0 102329.0 96244.0 75167.0 68559.0 162541.0 164701.0 101268.0 101533.0 60010.0 66492.0 18400.0 17838.0 48812.0 55025.0 73784.0 67740.0 35949.0 40756.0 45442.0 46570.0 87583.0 87455.0 253453.0 261115.0 0.0 8555.0 250906.0 251845.0 94831.0 96728.0 90490.0 93948.0 123521.0 131195.0 58369.0 52594.0 97617.0 100819.0 162911.0 157356.0 51301.0 57302.0 126545.0 130981.0 121150.0 128910.0 95163.0 101784.0 120942.0 121123.0 171684.0 166091.0 77889.0 71344.0 118696.0 111874.0 121859.0 116988.0 76756.0 70743.0 36609.0 28533.0 24642.0 29407.0 44964.0 45498.0 216001.0 209674.0 19002.0 25389.0 50408.0 45245.0 87284.0 92020.0 23651.0 31780.0 281392.0 273215.0 88850.0 124359.0 88850.0 88850.0 88850.0 124359.0 124359.0 124359.0
211338.0 216880.0 65211.0 65269.0 183435.0 184552.0 108521.0 107465.0 107774.0 113923.0 16993.0 10482.0 32657.0 40643.0 42399.0 40787.0 86879.0 80487.0 88176.0 80196.0 19890.0 24737.0 103689.0 102247.0 25416.0 23792.0 291541.0 283835.0 31033.0 27121.0 110563.0 106065.0 37481.0 45397.0 71658.0 63659.0 121052.0 122004.0 123328.0 124171.0 110861.0 118884.0 103357.0 96835.0 72572.0 65477.0 155065.0 157428.0 104546.0 104190.0 56388.0 63518.0 12612.0 15754.0 42669.0 49564.0 72381.0 65745.0 27908.0 33369.0 46128.0 48759.0 93923.0 94253.0 255812.0 263393.0 8555.0 0.0 253294.0 254472.0 101939.0 104184.0 93725.0 96551.0 126864.0 134387.0 55603.0 50829.0 90374.0 93938.0 154368.0 148802.0 53526.0 58615.0 127594.0 131579.0 124515.0 132179.0 87022.0 93789.0 112474.0 112591.0 171733.0 165857.0 76251.0 69266.0 117302.0 110134.0 126049.0 121610.0 68389.0 62269.0 34458.0 26678.0 24257.0 30807.0 37756.0 39350.0 217237.0 210718.0 13899.0 18403.0 44278.0 38407.0 84905.0 89011.0 27229.0 35329.0 282969.0 274767.0 96959.0 128140.0 96959.0 96959.0 96959.0 128140.0 128140.0 128140.0
42039.0 37500.0 298157.0 303326.0 341256.0 347795.0 347375.0 349497.0 148046.0 140773.0 239896.0 247703.0 239840.0 235180.0 210925.0 213720.0 331585.0 327534.0 315255.0 307774.0 254373.0 248089.0 310455.0 315113.0 263473.0 269008.0 44180.0 38769.0 248295.0 255494.0 363575.0 358541.0 216361.0 208408.0 317839.0 311295.0 331206.0 327709.0 349924.0 354745.0 142544.0 134523.0 348912.0 344204.0 195225.0 202998.0 266261.0 260155.0 338938.0 342129.0 211945.0 203681.0 265627.0 268336.0 234303.0 227017.0 324634.0 318621.0 272044.0 280003.0 207612.0 204597.0 306107.0 301250.0 2678.0 10717.0 250906.0 253294.0 0.0 7469.0 303406.0 300755.0 160844.0 156959.0 128674.0 120714.0 208159.0 208051.0 328265.0 334697.0 327059.0 327744.0 199828.0 194879.0 128290.0 126889.0 356644.0 364372.0 265506.0 262940.0 292257.0 299086.0 98826.0 106838.0 328784.0 322211.0 154361.0 162617.0 352269.0 344936.0 293421.0 285749.0 287347.0 279308.0 275524.0 279223.0 284386.0 289531.0 47916.0 55842.0 242910.0 246025.0 233713.0 240588.0 338063.0 342297.0 271476.0 278116.0 39744.0 34295.0 287186.0 129679.0 287186.0 287186.0 287186.0 129679.0 129679.0 129679.0
43330.0 37654.0 300565.0 305582.0 346107.0 352566.0 347584.0 349747.0 148413.0 141340.0 240767.0 248622.0 241902.0 237445.0 212074.0 214605.0 331771.0 327887.0 315464.0 307983.0 256122.0 249972.0 313801.0 318321.0 265305.0 270680.0 47731.0 43234.0 250363.0 257445.0 364912.0 360008.0 217757.0 209826.0 318181.0 311760.0 331415.0 327918.0 352914.0 357605.0 143995.0 136001.0 349080.0 344515.0 197840.0 205533.0 271398.0 265391.0 339147.0 342338.0 214338.0 206144.0 266875.0 269376.0 236624.0 229471.0 325473.0 319585.0 273790.0 281720.0 209018.0 205721.0 306316.0 301459.0 8434.0 14253.0 251845.0 254472.0 7469.0 0.0 303615.0 300964.0 161520.0 157964.0 128981.0 121080.0 210384.0 209986.0 330684.0 337016.0 331452.0 331987.0 200952.0 196249.0 130593.0 129627.0 356853.0 364581.0 269022.0 266650.0 296130.0 302866.0 103361.0 111353.0 329662.0 323187.0 157845.0 166022.0 352478.0 345145.0 296047.0 288338.0 288368.0 280312.0 276422.0 279928.0 286135.0 291110.0 53519.0 61291.0 244366.0 247702.0 236079.0 242835.0 339094.0 343477.0 272075.0 278582.0 44580.0 40002.0 287395.0 129575.0 287395.0 287395.0 287395.0 129575.0 129575.0 129575.0
261586.0 266072.0 150081.0 145385.0 278191.0 277901.0 70345.0 77313.0 156255.0 164355.0 97024.0 95326.0 134015.0 141542.0 119100.0 111416.0 73610.0 77671.0 38250.0 38749.0 121168.0 126675.0 193562.0 189463.0 123340.0 117317.0 344580.0 337356.0 132948.0 128130.0 136157.0 138081.0 122268.0 126829.0 72853.0 75370.0 28514.0 24303.0 196426.0 193471.0 171398.0 177982.0 83978.0 85778.0 162681.0 157869.0 256941.0 259367.0 58400.0 65773.0 151086.0 155667.0 102072.0 94257.0 143507.0 149145.0 95298.0 97822.0 120064.0 119339.0 126975.0 122296.0 15748.0 9548.0 306028.0 313913.0 94831.0 101939.0 303406.0 303615.0 0.0 7995.0 147536.0 154622.0 174821.0 182812.0 147649.0 139970.0 161384.0 160085.0 248289.0 241609.0 125275.0 133454.0 192467.0 199278.0 67073.0 73172.0 187618.0 194874.0 209734.0 208127.0 240324.0 236833.0 98712.0 99711.0 198626.0 193780.0 57298.0 48785.0 157774.0 154485.0 92975.0 92111.0 88331.0 80874.0 121040.0 115052.0 274850.0 269940.0 113718.0 120110.0 145088.0 140063.0 109301.0 117454.0 77938.0 72083.0 336985.0 329050.0 36893.0 174691.0 36893.0 36893.0 36893.0 174691.0 174691.0 174691.0
258935.0 263421.0 154767.0 150359.0 282454.0 282358.0 78341.0 85293.0 153604.0 161704.0 98015.0 96958.0 135790.0 143121.0 118517.0 110686.0 81202.0 84998.0 45942.0 45873.0 123714.0 128876.0 198152.0 194280.0 126448.0 120751.0 341929.0 334705.0 135206.0 130782.0 143559.0 145302.0 122243.0 126376.0 79801.0 81873.0 34156.0 28492.0 202318.0 199568.0 168748.0 175331.0 91881.0 93542.0 162379.0 157896.0 259223.0 261427.0 66395.0 73761.0 151489.0 155692.0 105235.0 97560.0 145055.0 150348.0 102101.0 104281.0 123676.0 123413.0 126467.0 121341.0 23411.0 16438.0 303378.0 311262.0 96728.0 104184.0 300755.0 300964.0 7995.0 0.0 144895.0 151979.0 172170.0 180161.0 147773.0 139910.0 167127.0 166089.0 252608.0 246053.0 124074.0 132259.0 189826.0 196684.0 74765.0 80696.0 190563.0 197661.0 213455.0 212110.0 237672.0 234236.0 105632.0 106309.0 197005.0 192441.0 64628.0 56088.0 162162.0 158571.0 97654.0 96226.0 92154.0 84967.0 125348.0 119695.0 272199.0 267289.0 115407.0 122112.0 146617.0 141932.0 116384.0 124532.0 81327.0 76025.0 334334.0 326399.0 31861.0 172040.0 31861.0 31861.0 31861.0 172040.0 172040.0 172040.0
118816.0 123867.0 147675.0 151063.0 231704.0 235760.0 188051.0 189721.0 14452.0 20253.0 79332.0 87243.0 87949.0 86268.0 51688.0 53248.0 171191.0 166848.0 157150.0 149418.0 98609.0 93813.0 172441.0 174643.0 108191.0 112272.0 200905.0 193464.0 96005.0 101617.0 204234.0 199783.0 58783.0 51361.0 157177.0 150500.0 175277.0 171836.0 204914.0 207944.0 23979.0 30473.0 188532.0 183563.0 59143.0 63223.0 173765.0 171739.0 180204.0 182887.0 67811.0 62381.0 106297.0 108174.0 86251.0 81746.0 163971.0 158187.0 115828.0 123411.0 50495.0 45338.0 149603.0 145159.0 163425.0 171192.0 90490.0 93725.0 160844.0 161520.0 147536.0 144895.0 0.0 8000.0 33140.0 40714.0 61822.0 57251.0 177072.0 182341.0 207974.0 205377.0 40692.0 38210.0 45165.0 52424.0 198496.0 206302.0 134308.0 135924.0 165291.0 169662.0 92857.0 89770.0 168180.0 161801.0 62399.0 61999.0 194906.0 187851.0 145769.0 137969.0 127091.0 119017.0 114982.0 118414.0 127969.0 131844.0 129176.0 123744.0 85079.0 89866.0 86374.0 90999.0 177769.0 182431.0 110632.0 117336.0 192902.0 184836.0 131325.0 34986.0 131325.0 131325.0 131325.0 34986.0 34986.0 34986.0
114938.0 120347.0 147961.0 151741.0 227808.0 232075.0 193469.0 194885.0 16043.0 18629.0 82960.0 90747.0 88037.0 85626.0 54165.0 56792.0 176043.0 171436.0 163152.0 155331.0 99887.0 94605.0 170905.0 173452.0 109386.0 113945.0 196280.0 188744.0 96287.0 102367.0 207086.0 202386.0 60409.0 52652.0 161807.0 154927.0 182199.0 178924.0 204542.0 207863.0 16851.0 24092.0 193368.0 188182.0 55279.0 60173.0 168274.0 165996.0 185903.0 188352.0 65753.0 59585.0 109014.0 111416.0 85421.0 80259.0 167692.0 161669.0 117351.0 125088.0 51806.0 47794.0 156269.0 152002.0 159506.0 167178.0 93948.0 96551.0 156959.0 157964.0 154622.0 151979.0 8000.0 0.0 31610.0 38453.0 60056.0 56477.0 177646.0 183173.0 204691.0 202370.0 43032.0 39083.0 37848.0 44864.0 204418.0 212247.0 131558.0 132722.0 162412.0 167085.0 85709.0 82347.0 171829.0 165262.0 54637.0 54598.0 201162.0 194231.0 145505.0 137670.0 130416.0 122367.0 118569.0 122428.0 129610.0 133922.0 123686.0 117987.0 87018.0 91210.0 85395.0 90579.0 181142.0 185530.0 114893.0 121857.0 188087.0 179969.0 138409.0 35028.0 138409.0 138409.0 138409.0 35028.0 35028.0 35028.0
86809.0 91394.0 179571.0 183328.0 255101.0 259800.0 218777.0 220912.0 19441.0 13099.0 112321.0 120263.0 119645.0 117113.0 84777.0 86323.0 202911.0 198919.0 186669.0 179188.0 131292.0 126154.0 201751.0 204549.0 140829.0 145173.0 169769.0 162536.0 127897.0 133928.0 237358.0 232923.0 91601.0 83982.0 189216.0 182781.0 202620.0 199124.0 236025.0 239423.0 25448.0 21799.0 220238.0 215565.0 84281.0 90135.0 191472.0 188292.0 210352.0 213534.0 96579.0 89830.0 139437.0 141249.0 116845.0 111381.0 196802.0 191146.0 148659.0 156320.0 83126.0 78411.0 177522.0 172664.0 131290.0 139160.0 123521.0 126864.0 128674.0 128981.0 174821.0 172170.0 33140.0 31610.0 0.0 7995.0 91131.0 87993.0 209248.0 214740.0 233256.0 231403.0 73724.0 70516.0 35058.0 42748.0 228058.0 235786.0 161224.0 161729.0 191768.0 196841.0 74070.0 73664.0 201049.0 194766.0 68158.0 71795.0 223683.0 216351.0 177042.0 169203.0 160129.0 152054.0 147932.0 151117.0 160864.0 164901.0 100688.0 96261.0 118066.0 122581.0 116760.0 122118.0 210763.0 215511.0 143163.0 149605.0 162168.0 154244.0 158600.0 7151.0 158600.0 158600.0 158600.0 7151.0 7151.0 7151.0
78827.0 83470.0 186176.0 190104.0 258809.0 263687.0 226771.0 228899.0 27343.0 20470.0 120020.0 127944.0 126259.0 123427.0 92178.0 93961.0 210872.0 206850.0 194661.0 187173.0 138338.0 133029.0 207356.0 210353.0 147839.0 152351.0 161775.0 154548.0 134571.0 140777.0 244926.0 240415.0 98783.0 91078.0 197149.0 190683.0 210612.0 207115.0 242249.0 245798.0 29526.0 23958.0 228202.0 223504.0 89278.0 95495.0 193807.0 190342.0 218343.0 221529.0 102370.0 95329.0 146937.0 148888.0 123076.0 117334.0 204580.0 198868.0 155784.0 163497.0 90228.0 85801.0 185513.0 180656.0 123327.0 131188.0 131195.0 134387.0 120714.0 121080.0 182812.0 180161.0 40714.0 38453.0 7995.0 0.0 97110.0 94404.0 215961.0 221565.0 237550.0 235922.0 81083.0 77531.0 34068.0 41104.0 236050.0 243778.0 166174.0 166356.0 196503.0 201775.0 68620.0 68904.0 208813.0 202485.0 69096.0 73559.0 231675.0 224342.0 183389.0 175545.0 167800.0 159725.0 155656.0 158931.0 168028.0 172214.0 92968.0 88710.0 125334.0 129655.0 122924.0 128512.0 218466.0 223144.0 151016.0 157503.0 154187.0 146271.0 166591.0 11757.0 166591.0 166591.0 166591.0 11757.0 11757.0 11757.0
167153.0 173636.0 90327.0 95199.0 172235.0 175727.0 164039.0 163067.0 75548.0 78514.0 51886.0 56337.0 32019.0 27074.0 31199.0 39149.0 142457.0 135918.0 141473.0 133305.0 48452.0 41220.0 110856.0 113441.0 56607.0 63258.0 243424.0 235527.0 40376.0 48027.0 158631.0 152739.0 25589.0 23314.0 127224.0 119161.0 170813.0 170256.0 145212.0 148979.0 68563.0 76041.0 158794.0 152073.0 16972.0 10343.0 122591.0 122483.0 159600.0 159620.0 6325.0 8189.0 65233.0 70988.0 26366.0 20250.0 125908.0 118577.0 65608.0 73610.0 23619.0 31617.0 143121.0 141648.0 210524.0 217674.0 58369.0 55603.0 208159.0 210384.0 147649.0 147773.0 61822.0 60056.0 91131.0 97110.0 0.0 8448.0 120429.0 126645.0 147193.0 144160.0 32230.0 27523.0 79869.0 81903.0 179505.0 187251.0 72976.0 75410.0 104006.0 108040.0 119468.0 112940.0 129354.0 121855.0 62577.0 54987.0 180095.0 174971.0 86626.0 78796.0 88426.0 81353.0 79726.0 86389.0 77691.0 83996.0 168054.0 160961.0 41918.0 41384.0 26005.0 32452.0 136481.0 139057.0 81884.0 90064.0 234376.0 226143.0 135822.0 95068.0 135822.0 135822.0 135822.0 95068.0 95068.0 95068.0
166667.0 172911.0 91848.0 96113.0 179186.0 182472.0 158662.0 158029.0 71388.0 75102.0 45145.0 50288.0 32098.0 29153.0 22764.0 30739.0 137570.0 131303.0 135007.0 126819.0 46615.0 40051.0 115294.0 117394.0 55480.0 61440.0 244288.0 236445.0 40534.0 47460.0 156885.0 151301.0 17702.0 14868.0 122387.0 114454.0 163547.0 162785.0 148065.0 151435.0 66765.0 74530.0 154164.0 147661.0 23057.0 18022.0 130857.0 130841.0 153785.0 154124.0 14134.0 15823.0 61401.0 66504.0 29023.0 24939.0 122402.0 115298.0 64211.0 72221.0 15185.0 23308.0 135862.0 134167.0 210465.0 217754.0 52594.0 50829.0 208051.0 209986.0 139970.0 139910.0 57251.0 56477.0 87993.0 94404.0 8448.0 0.0 121772.0 127640.0 153637.0 150323.0 24302.0 20676.0 80042.0 82873.0 173615.0 181404.0 79265.0 82234.0 110206.0 113856.0 121787.0 115594.0 126020.0 118672.0 66473.0 59384.0 173767.0 168431.0 89048.0 81209.0 84585.0 77190.0 75085.0 81334.0 76508.0 82202.0 169167.0 162274.0 37685.0 38711.0 29124.0 34127.0 133682.0 136710.0 76242.0 84370.0 235389.0 227155.0 127741.0 91411.0 127741.0 127741.0 127741.0 91411.0 91411.0 91411.0
287519.0 294057.0 30121.0 26053.0 126862.0 124314.0 122033.0 115360.0 191522.0 196195.0 107353.0 100422.0 89734.0 93366.0 126726.0 128188.0 100378.0 92556.0 128743.0 124472.0 79024.0 83264.0 46449.0 38942.0 69451.0 67213.0 362073.0 354097.0 81391.0 75459.0 62453.0 54327.0 118638.0 125759.0 92330.0 87299.0 166606.0 171670.0 35462.0 34362.0 188501.0 196190.0 105629.0 97858.0 133145.0 125293.0 140271.0 146462.0 127231.0 121303.0 116348.0 124584.0 79333.0 82880.0 94098.0 101248.0 71080.0 65697.0 63177.0 57005.0 126627.0 132712.0 147227.0 151860.0 330586.0 337589.0 97617.0 90374.0 328265.0 330684.0 161384.0 167127.0 177072.0 177646.0 209248.0 215961.0 120429.0 121772.0 0.0 7940.0 98046.0 90149.0 137008.0 138909.0 200091.0 201462.0 142516.0 147448.0 78260.0 85535.0 75592.0 69217.0 235817.0 228502.0 69676.0 65070.0 176928.0 168510.0 151810.0 152572.0 35929.0 43077.0 72395.0 77206.0 82648.0 86971.0 52674.0 53247.0 286592.0 279149.0 93817.0 87727.0 94609.0 88037.0 64488.0 58991.0 94227.0 95548.0 352752.0 344555.0 169876.0 212006.0 169876.0 169876.0 169876.0 212006.0 212006.0 212006.0
293797.0 300257.0 36711.0 31527.0 132245.0 129340.0 117684.0 110749.0 196792.0 201662.0 110923.0 103738.0 95544.0 99574.0 131566.0 132633.0 96724.0 89138.0 126416.0 122579.0 83888.0 88591.0 53625.0 45947.0 74279.0 71337.0 368861.0 360895.0 87130.0 80812.0 55272.0 47164.0 123695.0 130981.0 89695.0 85248.0 163979.0 169332.0 36484.0 33588.0 194405.0 202154.0 100862.0 93258.0 139756.0 131846.0 147925.0 154180.0 123472.0 117254.0 122757.0 131064.0 82427.0 85314.0 100401.0 107752.0 67826.0 63135.0 67406.0 60705.0 131847.0 137650.0 145596.0 150539.0 337036.0 344092.0 100819.0 93938.0 334697.0 337016.0 160085.0 166089.0 182341.0 183173.0 214740.0 221565.0 126645.0 127640.0 7940.0 0.0 103867.0 95883.0 142035.0 144273.0 206445.0 207995.0 138079.0 142727.0 86183.0 93473.0 83128.0 76581.0 242785.0 235523.0 65984.0 62096.0 183908.0 175503.0 147804.0 148959.0 43350.0 50243.0 73310.0 78769.0 84276.0 87959.0 56222.0 55659.0 293363.0 285965.0 98348.0 92636.0 100986.0 94196.0 59751.0 53659.0 95608.0 96258.0 359579.0 351373.0 169977.0 217317.0 169977.0 169977.0 169977.0 217317.0 217317.0 217317.0
291630.0 299314.0 98638.0 104407.0 29957.0 30184.0 219114.0 212827.0 220716.0 221952.0 167883.0 164304.0 131830.0 128704.0 170996.0 176608.0 196455.0 188297.0 220705.0 215035.0 135079.0 133262.0 55339.0 60908.0 129175.0 133245.0 351420.0 343523.0 127441.0 128018.0 158004.0 150094.0 161995.0 165583.0 186264.0 179821.0 258814.0 262724.0 76898.0 84889.0 208119.0 213862.0 203301.0 195395.0 149462.0 144756.0 71642.0 79453.0 223187.0 217890.0 140920.0 145616.0 149182.0 156194.0 127739.0 129024.0 166997.0 160460.0 129826.0 129249.0 166293.0 174706.0 236035.0 239176.0 328881.0 334431.0 162911.0 154368.0 327059.0 331452.0 248289.0 252608.0 207974.0 204691.0 233256.0 237550.0 147193.0 153637.0 98046.0 103867.0 0.0 8092.0 177137.0 174288.0 210088.0 207627.0 239628.0 244941.0 74380.0 72051.0 43670.0 41879.0 228234.0 220221.0 166338.0 160664.0 176193.0 168853.0 248082.0 247936.0 90517.0 94179.0 155398.0 156386.0 160613.0 167643.0 127278.0 133364.0 280033.0 272006.0 148676.0 140599.0 126903.0 126098.0 162315.0 157036.0 171896.0 176609.0 341524.0 333880.0 249526.0 238506.0 249526.0 249526.0 249526.0 238506.0 238506.0 238506.0
291735.0 299357.0 91694.0 97225.0 37176.0 36304.0 211435.0 205087.0 218357.0 219877.0 162701.0 158857.0 127354.0 124639.0 167001.0 172374.0 188882.0 180751.0 213549.0 207987.0 129735.0 128277.0 48218.0 53417.0 123490.0 127255.0 352968.0 345042.0 122595.0 122757.0 149933.0 142031.0 157951.0 161847.0 178880.0 172538.0 251686.0 255707.0 68870.0 76884.0 206425.0 212376.0 195522.0 187637.0 147302.0 142255.0 76306.0 84115.0 215649.0 210275.0 137938.0 143005.0 143183.0 150053.0 123775.0 125532.0 159406.0 152957.0 123742.0 122840.0 162578.0 170923.0 229173.0 232443.0 329614.0 335303.0 157356.0 148802.0 327744.0 331987.0 241609.0 246053.0 205377.0 202370.0 231403.0 235922.0 144160.0 150323.0 90149.0 95883.0 8092.0 0.0 173522.0 170998.0 209201.0 207038.0 231952.0 237205.0 71185.0 69705.0 40154.0 37058.0 228973.0 220962.0 158673.0 153092.0 175863.0 168336.0 240522.0 240481.0 83892.0 87929.0 148650.0 149882.0 154219.0 161126.0 120711.0 126584.0 280979.0 272963.0 143635.0 135561.0 123018.0 121774.0 154493.0 149137.0 165604.0 170121.0 343091.0 335377.0 243402.0 236487.0 243402.0 243402.0 243402.0 236487.0 236487.0 236487.0
157846.0 163354.0 108044.0 110956.0 203131.0 206239.0 154181.0 154812.0 55045.0 60677.0 40643.0 48175.0 49353.0 49572.0 11133.0 15313.0 135254.0 130080.0 126494.0 118384.0 58157.0 53892.0 136297.0 137609.0 67765.0 71604.0 238514.0 230875.0 56847.0 61674.0 164054.0 159391.0 18371.0 11958.0 120591.0 113336.0 150850.0 149022.0 166051.0 168616.0 57630.0 65623.0 152456.0 146820.0 41135.0 39623.0 154721.0 154417.0 147681.0 149257.0 38330.0 37691.0 65984.0 68525.0 50112.0 48132.0 125062.0 118851.0 75203.0 82737.0 11145.0 4770.0 123552.0 120693.0 202357.0 209972.0 51301.0 53526.0 199828.0 200952.0 125275.0 124074.0 40692.0 43032.0 73724.0 81083.0 32230.0 24302.0 137008.0 142035.0 177137.0 173522.0 0.0 8186.0 75623.0 80574.0 166945.0 174815.0 102805.0 106193.0 133543.0 136752.0 121869.0 116838.0 129127.0 122428.0 73643.0 68513.0 165290.0 159100.0 107021.0 99350.0 87541.0 79521.0 75931.0 80314.0 87300.0 91177.0 164814.0 158597.0 44387.0 49405.0 50690.0 53501.0 138241.0 142525.0 73280.0 80723.0 230097.0 221923.0 110802.0 75595.0 110802.0 110802.0 110802.0 75595.0 75595.0 75595.0
153007.0 158755.0 109466.0 112925.0 199664.0 203045.0 161382.0 161801.0 52642.0 57422.0 47107.0 54297.0 49794.0 48655.0 17067.0 22950.0 142040.0 136641.0 134220.0 126086.0 60808.0 55688.0 135428.0 137204.0 70323.0 74895.0 232929.0 225230.0 57800.0 63481.0 168700.0 163763.0 21511.0 13619.0 127237.0 119823.0 158966.0 157183.0 166826.0 169763.0 52341.0 60365.0 159164.0 153346.0 33952.0 33458.0 149010.0 148412.0 155121.0 156512.0 33836.0 31712.0 70797.0 74017.0 48867.0 45562.0 130763.0 124315.0 78272.0 86031.0 12792.0 11698.0 131630.0 128832.0 197377.0 204907.0 57302.0 58615.0 194879.0 196249.0 133454.0 132259.0 38210.0 39083.0 70516.0 77531.0 27523.0 20676.0 138909.0 144273.0 174288.0 170998.0 8186.0 0.0 69247.0 73775.0 174489.0 182357.0 99926.0 102753.0 130880.0 134513.0 114808.0 109567.0 134736.0 127855.0 65567.0 60343.0 173059.0 166956.0 107673.0 99897.0 92983.0 85051.0 81777.0 86607.0 90544.0 95013.0 158777.0 152390.0 48149.0 52126.0 49195.0 53132.0 143519.0 147488.0 79914.0 87542.0 224380.0 216183.0 118974.0 73098.0 118974.0 118974.0 118974.0 73098.0 73098.0 73098.0
87478.0 94213.0 169972.0 175045.0 229574.0 234909.0 229342.0 230266.0 41056.0 34066.0 116188.0 123520.0 111612.0 106897.0 86183.0 90712.0 210852.0 205697.0 200051.0 192120.0 126607.0 120073.0 185209.0 189152.0 135518.0 141379.0 164374.0 156574.0 120057.0 127368.0 236615.0 231214.0 90120.0 82199.0 196215.0 188932.0 219997.0 216769.0 222995.0 227406.0 21188.0 16205.0 228072.0 222431.0 67479.0 75032.0 161878.0 157971.0 222290.0 224324.0 83746.0 75578.0 139474.0 143151.0 106045.0 98892.0 199919.0 193334.0 144239.0 152241.0 81477.0 80218.0 193918.0 189769.0 130657.0 137837.0 126545.0 127594.0 128290.0 130593.0 192467.0 189826.0 45165.0 37848.0 35058.0 34068.0 79869.0 80042.0 200091.0 206445.0 210088.0 209201.0 75623.0 69247.0 0.0 8049.0 241131.0 248987.0 141696.0 140639.0 170836.0 176810.0 47890.0 44614.0 203838.0 196841.0 36140.0 41956.0 238352.0 231577.0 165562.0 157821.0 162046.0 154178.0 151011.0 155804.0 156547.0 162077.0 89653.0 83154.0 116101.0 118472.0 105488.0 112301.0 212347.0 215947.0 148900.0 156329.0 155600.0 147376.0 176257.0 42206.0 176257.0 176257.0 176257.0 42206.0 42206.0 42206.0
86958.0 94047.0 171379.0 176739.0 226317.0 231845.0 234678.0 235386.0 49018.0 42107.0 120878.0 128027.0 113882.0 108705.0 90828.0 95814.0 215768.0 210416.0 205937.0 197952.0 129471.0 122693.0 184758.0 188992.0 138162.0 144309.0 161549.0 153670.0 122273.0 129804.0 239751.0 234161.0 94137.0 86309.0 201006.0 193594.0 226645.0 223570.0 223325.0 227978.0 28591.0 24207.0 232922.0 227118.0 68347.0 76170.0 157355.0 153169.0 227878.0 229712.0 85289.0 76936.0 143221.0 147241.0 107720.0 100245.0 203959.0 197216.0 147009.0 155029.0 85629.0 85052.0 200365.0 196371.0 129175.0 136128.0 130981.0 131579.0 126889.0 129627.0 199278.0 196684.0 52424.0 44864.0 42748.0 41104.0 81903.0 82873.0 201462.0 207995.0 207627.0 207038.0 80574.0 73775.0 8049.0 0.0 246876.0 254740.0 140643.0 139125.0 169198.0 175412.0 41572.0 37555.0 207800.0 200687.0 31902.0 38783.0 244391.0 237733.0 166532.0 158864.0 166022.0 158240.0 155278.0 160346.0 159254.0 165075.0 86300.0 79422.0 119655.0 121545.0 107053.0 114136.0 216038.0 219392.0 153676.0 161242.0 152565.0 144331.0 183114.0 49871.0 183114.0 183114.0 183114.0 49871.0 49871.0 49871.0
314823.0 319309.0 144328.0 137123.0 269001.0 266764.0 20518.0 27458.0 209277.0 217172.0 128874.0 123333.0 155583.0 163780.0 157750.0 151650.0 43887.0 52209.0 41398.0 49089.0 138442.0 145889.0 185014.0 178804.0 135761.0 127897.0 397652.0 390511.0 150957.0 143625.0 94648.0 99948.0 157259.0 164015.0 57056.0 65128.0 46195.0 54476.0 172984.0 167637.0 221084.0 228506.0 37569.0 44850.0 196315.0 189642.0 266686.0 270889.0 19976.0 22318.0 180817.0 187601.0 117641.0 110349.0 165784.0 173430.0 72858.0 79962.0 128651.0 123858.0 164474.0 162812.0 55327.0 62510.0 359266.0 367151.0 121150.0 124515.0 356644.0 356853.0 67073.0 74765.0 198496.0 204418.0 228058.0 236050.0 179505.0 173615.0 142516.0 138079.0 239628.0 231952.0 166945.0 174489.0 241131.0 246876.0 0.0 7871.0 195082.0 203238.0 208771.0 204739.0 288422.0 283685.0 73291.0 79258.0 238953.0 232535.0 13306.0 20429.0 154244.0 154267.0 97337.0 101913.0 101638.0 94068.0 123054.0 114820.0 327607.0 322238.0 138410.0 141673.0 167353.0 160278.0 78344.0 84980.0 97645.0 89457.0 390186.0 382275.0 101167.0 227928.0 101167.0 101167.0 101167.0 227928.0 227928.0 227928.0
322552.0 327037.0 150410.0 143073.0 274172.0 271762.0 26335.0 32119.0 217027.0 224935.0 136702.0 131117.0 163098.0 171291.0 165612.0 159520.0 50258.0 58542.0 49167.0 56916.0 145873.0 153358.0 190585.0 184229.0 143006.0 135109.0 405328.0 398203.0 158359.0 150959.0 97329.0 103071.0 165087.0 171862.0 63989.0 72160.0 50440.0 58687.0 177161.0 171577.0 228922.0 236334.0 41865.0 49598.0 204077.0 197372.0 273310.0 277613.0 27654.0 29070.0 188512.0 195337.0 125126.0 117900.0 173290.0 180983.0 78669.0 86004.0 135763.0 130796.0 172323.0 170680.0 62179.0 69185.0 366994.0 374879.0 128910.0 132179.0 364372.0 364581.0 73172.0 80696.0 206302.0 212247.0 235786.0 243778.0 187251.0 181404.0 147448.0 142727.0 244941.0 237205.0 174815.0 182357.0 248987.0 254740.0 7871.0 0.0 201772.0 209953.0 214834.0 210633.0 296288.0 291555.0 78777.0 85078.0 246794.0 240359.0 16595.0 24950.0 160415.0 160673.0 104544.0 109306.0 109162.0 101654.0 129856.0 121571.0 335395.0 330045.0 146077.0 149237.0 174854.0 167728.0 83016.0 89267.0 105375.0 97190.0 397890.0 389988.0 107939.0 235656.0 107939.0 107939.0 107939.0 235656.0 235656.0 235656.0
227204.0 234506.0 55882.0 64053.0 100686.0 103485.0 175553.0 171238.0 147478.0 149357.0 97799.0 95812.0 59471.0 55149.0 97042.0 103055.0 151556.0 143333.0 166900.0 159861.0 67156.0 63205.0 45476.0 51249.0 64305.0 70791.0 294998.0 286982.0 56892.0 59962.0 136713.0 128888.0 88154.0 91340.0 138092.0 130214.0 203411.0 205701.0 87509.0 93815.0 136664.0 143070.0 163403.0 155354.0 76952.0 71388.0 71667.0 75852.0 176120.0 172808.0 66754.0 72014.0 85566.0 93448.0 53972.0 54674.0 124766.0 116863.0 68664.0 71807.0 92033.0 100491.0 177728.0 179282.0 267588.0 273908.0 95163.0 87022.0 265506.0 269022.0 187618.0 190563.0 134308.0 131558.0 161224.0 166174.0 72976.0 79265.0 78260.0 86183.0 74380.0 71185.0 102805.0 99926.0 141696.0 140643.0 195082.0 201772.0 0.0 8254.0 31032.0 35617.0 168325.0 160504.0 126033.0 118611.0 111180.0 103016.0 200528.0 198242.0 45826.0 42537.0 99509.0 97425.0 100148.0 108088.0 72110.0 80270.0 220544.0 212700.0 78364.0 70543.0 52992.0 53334.0 127118.0 125243.0 109758.0 116249.0 285327.0 277297.0 183973.0 166018.0 183973.0 183973.0 183973.0 166018.0 166018.0 166018.0
225222.0 232632.0 63977.0 72151.0 96957.0 100317.0 183747.0 179465.0 148731.0 150172.0 103834.0 102268.0 65037.0 59996.0 101134.0 107502.0 159749.0 151535.0 174741.0 167636.0 74013.0 69591.0 49933.0 56372.0 71714.0 78417.0 291514.0 283505.0 63223.0 66890.0 144611.0 136748.0 92418.0 95019.0 146229.0 138323.0 211081.0 213249.0 92662.0 99303.0 136837.0 142946.0 171649.0 163602.0 77598.0 72709.0 63611.0 67661.0 184231.0 180974.0 69100.0 73568.0 92926.0 100853.0 58631.0 58263.0 133015.0 125108.0 76435.0 79814.0 95668.0 104186.0 185229.0 186635.0 264972.0 271145.0 101784.0 93789.0 262940.0 266650.0 194874.0 197661.0 135924.0 132722.0 161729.0 166356.0 75410.0 82234.0 85535.0 93473.0 72051.0 69705.0 106193.0 102753.0 140639.0 139125.0 203238.0 209953.0 8254.0 0.0 30242.0 36314.0 165163.0 157270.0 134287.0 126864.0 108932.0 100950.0 208594.0 206230.0 53849.0 50760.0 107446.0 105166.0 107745.0 115722.0 80224.0 88418.0 217468.0 209568.0 84495.0 76834.0 57502.0 58774.0 135340.0 133406.0 117131.0 123771.0 281789.0 273810.0 190633.0 166783.0 190633.0 190633.0 190633.0 166783.0 166783.0 166783.0
255006.0 262476.0 64443.0 71814.0 71331.0 73343.0 188533.0 183164.0 178369.0 180069.0 125153.0 122085.0 88354.0 85046.0 127327.0 132974.0 164901.0 156582.0 185139.0 178776.0 92808.0 90348.0 30315.0 38215.0 87809.0 92802.0 319759.0 311768.0 84356.0 85625.0 137945.0 129825.0 118329.0 121945.0 152960.0 145729.0 222768.0 225931.0 71470.0 79108.0 166977.0 173152.0 174362.0 166258.0 107522.0 102250.0 64975.0 71548.0 190903.0 186532.0 97786.0 102946.0 108579.0 116018.0 84070.0 85473.0 136206.0 128844.0 89780.0 90605.0 122662.0 131059.0 198489.0 200924.0 294240.0 300267.0 120942.0 112474.0 292257.0 296130.0 209734.0 213455.0 165291.0 162412.0 191768.0 196503.0 104006.0 110206.0 75592.0 83128.0 43670.0 40154.0 133543.0 130880.0 170836.0 169198.0 208771.0 214834.0 31032.0 30242.0 0.0 8039.0 194015.0 186060.0 136487.0 129807.0 138700.0 130839.0 215791.0 214583.0 54625.0 55894.0 118024.0 117734.0 121408.0 128913.0 89480.0 96628.0 246316.0 238364.0 105787.0 97736.0 83234.0 82535.0 134949.0 131286.0 132150.0 137652.0 309968.0 302072.0 208797.0 196710.0 208797.0 208797.0 208797.0 196710.0 196710.0 196710.0
261524.0 268943.0 60666.0 67621.0 70908.0 72035.0 184395.0 178797.0 182967.0 184950.0 126005.0 122467.0 90298.0 87660.0 130022.0 135327.0 160948.0 152648.0 182394.0 176254.0 93221.0 91411.0 23144.0 31042.0 87511.0 91927.0 327017.0 319020.0 85642.0 86146.0 131669.0 123543.0 120958.0 125006.0 149449.0 142429.0 220236.0 223661.0 63517.0 71208.0 172259.0 178608.0 169810.0 161727.0 112568.0 106941.0 72160.0 78927.0 187201.0 182581.0 101912.0 107505.0 107834.0 115047.0 86845.0 88956.0 131966.0 124785.0 88671.0 88788.0 125751.0 134046.0 196465.0 199182.0 301095.0 307195.0 121123.0 112591.0 299086.0 302866.0 208127.0 212110.0 169662.0 167085.0 196841.0 201775.0 108040.0 113856.0 69217.0 76581.0 41879.0 37058.0 136752.0 134513.0 176810.0 175412.0 204739.0 210633.0 35617.0 36314.0 8039.0 0.0 201040.0 193106.0 132020.0 125557.0 145222.0 137261.0 212135.0 211214.0 51328.0 53668.0 115767.0 116016.0 119956.0 127259.0 87280.0 94033.0 253354.0 245421.0 106815.0 98737.0 86133.0 84724.0 129925.0 125924.0 130985.0 136119.0 317245.0 309322.0 208225.0 201614.0 208225.0 208225.0 208225.0 201614.0 201614.0 201614.0
66258.0 74243.0 206103.0 212147.0 242830.0 249233.0 276048.0 276603.0 86680.0 78792.0 161861.0 168813.0 151300.0 145243.0 131870.0 137159.0 256822.0 251277.0 247507.0 239517.0 167856.0 160688.0 213687.0 218851.0 176049.0 182695.0 126882.0 118866.0 159467.0 167360.0 278095.0 272136.0 134544.0 126875.0 241951.0 234413.0 267886.0 264627.0 254417.0 259796.0 68931.0 62695.0 273898.0 267927.0 104047.0 112117.0 168664.0 162968.0 269377.0 271114.0 121795.0 113319.0 182988.0 187474.0 143987.0 135949.0 243967.0 237000.0 185071.0 193067.0 126243.0 126257.0 241777.0 237658.0 100656.0 106373.0 171684.0 171733.0 98826.0 103361.0 240324.0 237672.0 92857.0 85709.0 74070.0 68620.0 119468.0 121787.0 235817.0 242785.0 228234.0 228973.0 121869.0 114808.0 47890.0 41572.0 288422.0 296288.0 168325.0 165163.0 194015.0 201040.0 0.0 8013.0 247682.0 240406.0 58889.0 67311.0 285960.0 279281.0 200130.0 192757.0 206034.0 198398.0 195711.0 201091.0 197100.0 203455.0 52316.0 44405.0 159270.0 160375.0 143087.0 150639.0 255468.0 258383.0 194670.0 202347.0 117335.0 109217.0 224102.0 80125.0 224102.0 224102.0 224102.0 80125.0 80125.0 80125.0
73847.0 81822.0 198868.0 205006.0 234878.0 241263.0 270945.0 271316.0 84739.0 77083.0 156471.0 163276.0 144634.0 138414.0 126585.0 132151.0 251394.0 245707.0 242938.0 234902.0 161385.0 154132.0 205896.0 211115.0 169437.0 176198.0 134580.0 126561.0 152733.0 160688.0 271489.0 265440.0 128867.0 121302.0 236449.0 228827.0 264177.0 261125.0 246750.0 252187.0 65800.0 60195.0 268399.0 262311.0 97241.0 105308.0 160843.0 155209.0 264506.0 266059.0 115041.0 106581.0 176932.0 181610.0 137112.0 129001.0 237943.0 230889.0 178487.0 186464.0 120699.0 121125.0 237821.0 233892.0 108669.0 114373.0 166091.0 165857.0 106838.0 111353.0 236833.0 234236.0 89770.0 82347.0 73664.0 68904.0 112940.0 115594.0 228502.0 235523.0 220221.0 220962.0 116838.0 109567.0 44614.0 37555.0 283685.0 291555.0 160504.0 157270.0 186060.0 193106.0 8013.0 0.0 241601.0 234267.0 51645.0 60027.0 281526.0 274976.0 192757.0 185429.0 200047.0 192485.0 189936.0 195486.0 190446.0 196926.0 60256.0 52316.0 153198.0 154043.0 136174.0 143789.0 249209.0 251976.0 189245.0 197005.0 124984.0 116895.0 220667.0 80081.0 220667.0 220667.0 220667.0 80081.0 80081.0 80081.0
286755.0 292010.0 72331.0 64694.0 195748.0 193635.0 52781.0 46796.0 181653.0 188411.0 88900.0 81082.0 99382.0 106968.0 118129.0 115072.0 30752.0 23237.0 62245.0 59989.0 81559.0 89269.0 111810.0 105521.0 75302.0 67532.0 367600.0 359930.0 92465.0 84260.0 41087.0 40699.0 113732.0 121640.0 25859.0 25081.0 98742.0 104629.0 102030.0 97696.0 186743.0 194746.0 37892.0 29781.0 146000.0 138238.0 196732.0 201564.0 57569.0 51695.0 128494.0 136572.0 64694.0 60719.0 108741.0 117139.0 4510.0 10790.0 66499.0 59507.0 122362.0 124375.0 83300.0 89320.0 331334.0 339003.0 77889.0 76251.0 328784.0 329662.0 98712.0 105632.0 168180.0 171829.0 201049.0 208813.0 129354.0 126020.0 69676.0 65984.0 166338.0 158673.0 129127.0 134736.0 203838.0 207800.0 73291.0 78777.0 126033.0 134287.0 136487.0 132020.0 247682.0 241601.0 0.0 7807.0 191926.0 184298.0 82151.0 82994.0 82549.0 83791.0 41794.0 49685.0 53260.0 50151.0 57022.0 48782.0 293468.0 286969.0 88416.0 87977.0 110100.0 102249.0 11595.0 19362.0 58543.0 53567.0 359104.0 350911.0 114021.0 201470.0 114021.0 114021.0 114021.0 201470.0 201470.0 201470.0
280199.0 285543.0 65457.0 58008.0 190235.0 188353.0 58850.0 53376.0 175410.0 182050.0 82469.0 74574.0 91703.0 99248.0 111379.0 108596.0 35792.0 27689.0 64522.0 61320.0 73917.0 81606.0 105811.0 99762.0 67541.0 59799.0 360779.0 353085.0 84722.0 76510.0 44801.0 43047.0 106723.0 114656.0 27681.0 24465.0 101889.0 107353.0 98492.0 94668.0 179991.0 188005.0 44915.0 36819.0 138448.0 130655.0 189505.0 194247.0 62581.0 57275.0 120896.0 129010.0 57477.0 53908.0 101010.0 109416.0 6409.0 3633.0 58714.0 51701.0 115392.0 117665.0 84627.0 90210.0 324750.0 332388.0 71344.0 69266.0 322211.0 323187.0 99711.0 106309.0 161801.0 165262.0 194766.0 202485.0 121855.0 118672.0 65070.0 62096.0 160664.0 153092.0 122428.0 127855.0 196841.0 200687.0 79258.0 85078.0 118611.0 126864.0 129807.0 125557.0 240406.0 234267.0 7807.0 0.0 184432.0 176763.0 87431.0 87670.0 75586.0 76518.0 34895.0 42908.0 46834.0 44493.0 49231.0 40979.0 286491.0 279936.0 81149.0 80471.0 102360.0 94501.0 16065.0 22189.0 53101.0 48876.0 352230.0 344029.0 112529.0 195359.0 112529.0 112529.0 112529.0 195359.0 195359.0 195359.0
116313.0 123779.0 147238.0 153362.0 194461.0 200049.0 224723.0 224350.0 66278.0 62168.0 110133.0 116164.0 93660.0 87115.0 81548.0 88388.0 203975.0 197771.0 199274.0 191100.0 110848.0 103398.0 156111.0 160895.0 118514.0 125536.0 185475.0 177472.0 101585.0 109651.0 220431.0 214223.0 81777.0 74951.0 188816.0 180915.0 224483.0 222529.0 196092.0 201270.0 45043.0 46385.0 220627.0 214131.0 46183.0 54178.0 125767.0 121832.0 219306.0 220068.0 63989.0 55630.0 127620.0 132962.0 85735.0 77527.0 188454.0 181151.0 127604.0 135522.0 74515.0 77143.0 197191.0 194292.0 156469.0 162907.0 118696.0 117302.0 154361.0 157845.0 198626.0 197005.0 62399.0 54637.0 68158.0 69096.0 62577.0 66473.0 176928.0 183908.0 176193.0 175863.0 73643.0 65567.0 36140.0 31902.0 238953.0 246794.0 111180.0 108932.0 138700.0 145222.0 58889.0 51645.0 191926.0 184432.0 0.0 8434.0 238166.0 232268.0 141254.0 133868.0 150839.0 143580.0 141558.0 147733.0 139384.0 146131.0 110220.0 102577.0 104023.0 103961.0 84738.0 92442.0 198996.0 201375.0 142294.0 150328.0 176031.0 167868.0 183483.0 75084.0 183483.0 183483.0 183483.0 75084.0 75084.0 75084.0
124283.0 131682.0 138841.0 145000.0 187719.0 193154.0 217968.0 217412.0 67658.0 64468.0 103663.0 109437.0 85696.0 79009.0 75717.0 82859.0 196948.0 190617.0 193181.0 184994.0 103032.0 95518.0 147839.0 152563.0 110540.0 117654.0 193906.0 185904.0 93534.0 101640.0 212357.0 206091.0 75280.0 68777.0 181755.0 173792.0 219234.0 217525.0 187703.0 192857.0 47431.0 50069.0 213490.0 206895.0 38332.0 46240.0 120344.0 116784.0 212808.0 213377.0 56056.0 47786.0 120188.0 125722.0 77588.0 69330.0 180883.0 173514.0 119637.0 127526.0 68403.0 71705.0 191808.0 189150.0 164743.0 171224.0 111874.0 110134.0 162617.0 166022.0 193780.0 192441.0 61999.0 54598.0 71795.0 73559.0 54987.0 59384.0 168510.0 175503.0 168853.0 168336.0 68513.0 60343.0 41956.0 38783.0 232535.0 240359.0 103016.0 100950.0 130839.0 137261.0 67311.0 60027.0 184298.0 176763.0 8434.0 0.0 232068.0 226329.0 132825.0 125447.0 143395.0 136240.0 134378.0 140717.0 131340.0 138182.0 118635.0 111003.0 96700.0 96325.0 76558.0 84305.0 191203.0 193460.0 135516.0 143600.0 184465.0 176301.0 179018.0 78498.0 179018.0 179018.0 179018.0 78498.0 78498.0 78498.0
310449.0 314934.0 151494.0 144607.0 277664.0 275715.0 30724.0 38616.0 205059.0 213061.0 128667.0 123763.0 157924.0 166109.0 156640.0 150112.0 51643.0 59788.0 38893.0 47075.0 141313.0 148526.0 193099.0 187175.0 139500.0 131814.0 393443.0 386219.0 153911.0 146933.0 106609.0 111530.0 156919.0 163302.0 62876.0 70430.0 33853.0 42109.0 183241.0 178191.0 217949.0 225183.0 48726.0 55306.0 196699.0 190354.0 272191.0 276095.0 24949.0 30550.0 181859.0 188259.0 120350.0 112737.0 168132.0 175481.0 81132.0 87674.0 132958.0 128811.0 163699.0 161363.0 47583.0 54146.0 354891.0 362776.0 121859.0 126049.0 352269.0 352478.0 57298.0 64628.0 194906.0 201162.0 223683.0 231675.0 180095.0 173767.0 151810.0 147804.0 248082.0 240522.0 165290.0 173059.0 238352.0 244391.0 13306.0 16595.0 200528.0 208594.0 215791.0 212135.0 285960.0 281526.0 82151.0 87431.0 238166.0 232068.0 0.0 8543.0 161167.0 160615.0 101517.0 105220.0 104256.0 96387.0 128449.0 120426.0 323647.0 318518.0 139838.0 143778.0 169725.0 162951.0 88382.0 95450.0 98845.0 90719.0 385848.0 377913.0 92852.0 223554.0 92852.0 92852.0 92852.0 223554.0 223554.0 223554.0
303116.0 307602.0 150560.0 143938.0 277656.0 275950.0 34118.0 42335.0 197759.0 205793.0 123286.0 118735.0 153818.0 161971.0 150724.0 144011.0 52242.0 60031.0 33534.0 41674.0 137577.0 144624.0 192750.0 187067.0 136298.0 128758.0 386110.0 378886.0 150177.0 143436.0 110230.0 114681.0 151377.0 157560.0 61806.0 68855.0 25792.0 34077.0 184793.0 180044.0 211049.0 218201.0 52126.0 57924.0 191436.0 185272.0 269833.0 273532.0 25582.0 32605.0 176970.0 183154.0 116619.0 108861.0 164000.0 171161.0 81523.0 87559.0 130143.0 126435.0 157926.0 155276.0 39551.0 45892.0 347559.0 355443.0 116988.0 121610.0 344936.0 345145.0 48785.0 56088.0 187851.0 194231.0 216351.0 224342.0 174971.0 168431.0 152572.0 148959.0 247936.0 240481.0 159100.0 166956.0 231577.0 237733.0 20429.0 24950.0 198242.0 206230.0 214583.0 211214.0 279281.0 274976.0 82994.0 87670.0 232268.0 226329.0 8543.0 0.0 160021.0 159058.0 98821.0 101949.0 100576.0 92594.0 126368.0 118533.0 316370.0 311330.0 135281.0 139586.0 165602.0 159022.0 90155.0 97558.0 94388.0 86368.0 378515.0 370580.0 84514.0 216221.0 84514.0 84514.0 84514.0 216221.0 216221.0 216221.0
253034.0 259741.0 10336.0 18434.0 120434.0 120196.0 134088.0 128943.0 160115.0 164133.0 84259.0 78855.0 57895.0 59962.0 97648.0 100629.0 110358.0 102036.0 131087.0 125033.0 51901.0 53735.0 36298.0 33922.0 43455.0 45090.0 326592.0 318604.0 50175.0 46323.0 90959.0 83200.0 88909.0 95251.0 98345.0 91183.0 168988.0 172562.0 59153.0 62411.0 155171.0 162665.0 120411.0 112298.0 98213.0 90534.0 114505.0 119687.0 136280.0 131975.0 82021.0 90013.0 60629.0 66892.0 60362.0 66797.0 81951.0 74423.0 41194.0 39137.0 96108.0 103135.0 145614.0 148662.0 295703.0 302599.0 76756.0 68389.0 293421.0 296047.0 157774.0 162162.0 145769.0 145505.0 177042.0 183389.0 86626.0 89048.0 35929.0 43350.0 90517.0 83892.0 107021.0 107673.0 165562.0 166532.0 154244.0 160415.0 45826.0 53849.0 54625.0 51328.0 200130.0 192757.0 82549.0 75586.0 141254.0 132825.0 161167.0 160021.0 0.0 7844.0 64906.0 66009.0 70452.0 77244.0 36822.0 42934.0 251158.0 243651.0 67206.0 59789.0 60624.0 54927.0 82275.0 79803.0 81982.0 86250.0 317217.0 309034.0 159981.0 180349.0 159981.0 159981.0 159981.0 180349.0 180349.0 180349.0
245298.0 251984.0 14459.0 22276.0 123930.0 124151.0 134350.0 129597.0 152305.0 156299.0 77721.0 72671.0 50143.0 52118.0 90093.0 93262.0 110439.0 102136.0 129258.0 122886.0 44976.0 46323.0 41469.0 40180.0 36989.0 39568.0 319110.0 311126.0 42529.0 39074.0 95488.0 87919.0 81300.0 87548.0 97753.0 90267.0 166880.0 170119.0 66945.0 70254.0 147335.0 154837.0 121425.0 113335.0 90525.0 82807.0 112989.0 117775.0 135856.0 131950.0 74228.0 82255.0 55412.0 62134.0 52521.0 59008.0 82777.0 75005.0 35901.0 35164.0 88403.0 95512.0 142821.0 145518.0 288039.0 294959.0 70743.0 62269.0 285749.0 288338.0 154485.0 158571.0 137969.0 137670.0 169203.0 175545.0 78796.0 81209.0 43077.0 50243.0 94179.0 87929.0 99350.0 99897.0 157821.0 158864.0 154267.0 160673.0 42537.0 50760.0 55894.0 53668.0 192757.0 185429.0 83791.0 76518.0 133868.0 125447.0 160615.0 159058.0 7844.0 0.0 62188.0 62387.0 66466.0 73641.0 33652.0 40755.0 243651.0 236173.0 60182.0 52598.0 52792.0 47092.0 84581.0 82814.0 77719.0 82547.0 309759.0 301569.0 155476.0 172526.0 155476.0 155476.0 155476.0 172526.0 172526.0 172526.0
245343.0 250733.0 57130.0 52863.0 185330.0 184935.0 79159.0 76635.0 140828.0 147344.0 47830.0 39869.0 60099.0 68124.0 76485.0 73845.0 55853.0 48486.0 67548.0 60847.0 42258.0 50000.0 100589.0 96628.0 38475.0 30566.0 325895.0 318207.0 54368.0 46644.0 77634.0 74024.0 71938.0 79848.0 40899.0 32592.0 104796.0 107931.0 107781.0 106487.0 145097.0 153110.0 71128.0 64004.0 105279.0 97723.0 171032.0 174718.0 77714.0 75563.0 88137.0 95938.0 23219.0 19016.0 70046.0 78182.0 37951.0 31337.0 31447.0 27827.0 80572.0 82776.0 80736.0 83793.0 289882.0 297510.0 36609.0 34458.0 287347.0 288368.0 92975.0 97654.0 127091.0 130416.0 160129.0 167800.0 88426.0 84585.0 72395.0 73310.0 155398.0 148650.0 87541.0 92983.0 162046.0 166022.0 97337.0 104544.0 99509.0 107446.0 118024.0 115767.0 206034.0 200047.0 41794.0 34895.0 150839.0 143395.0 101517.0 98821.0 64906.0 62188.0 0.0 8076.0 12777.0 14648.0 28546.0 22077.0 251682.0 245175.0 46900.0 47387.0 71538.0 64016.0 50726.0 55447.0 22633.0 23178.0 317363.0 309166.0 97835.0 160920.0 97835.0 97835.0 97835.0 160920.0 160920.0 160920.0
237299.0 242674.0 59170.0 55891.0 186228.0 186182.0 84452.0 82503.0 132752.0 139270.0 39756.0 31793.0 54093.0 62236.0 68484.0 65773.0 61711.0 54754.0 69696.0 62476.0 36590.0 44166.0 102171.0 98763.0 34349.0 26901.0 317931.0 310253.0 49053.0 41770.0 85657.0 81929.0 64112.0 71993.0 46520.0 38263.0 106012.0 108563.0 112331.0 111517.0 137103.0 145113.0 77586.0 70733.0 98275.0 90846.0 168547.0 171922.0 82063.0 80559.0 81373.0 89005.0 16283.0 11034.0 64206.0 72146.0 45742.0 39330.0 28764.0 27229.0 72705.0 74760.0 80848.0 83207.0 281845.0 289480.0 28533.0 26678.0 279308.0 280312.0 92111.0 96226.0 119017.0 122367.0 152054.0 159725.0 81353.0 77190.0 77206.0 78769.0 156386.0 149882.0 79521.0 85051.0 154178.0 158240.0 101913.0 109306.0 97425.0 105166.0 117734.0 116016.0 198398.0 192485.0 49685.0 42908.0 143580.0 136240.0 105220.0 101949.0 66009.0 62387.0 8076.0 0.0 5523.0 11261.0 29200.0 24650.0 243795.0 237323.0 39558.0 40788.0 65743.0 58466.0 58783.0 63513.0 17065.0 20240.0 309421.0 301228.0 94554.0 152851.0 94554.0 94554.0 94554.0 152851.0 152851.0 152851.0
233495.0 238772.0 63979.0 61003.0 190395.0 190501.0 84849.0 83427.0 128577.0 135227.0 35658.0 27823.0 53946.0 62143.0 64998.0 61819.0 62750.0 56240.0 67807.0 60303.0 37059.0 44324.0 106707.0 103508.0 36237.0 29358.0 314445.0 306799.0 49660.0 42888.0 90261.0 86774.0 61192.0 68970.0 47510.0 39439.0 103363.0 105558.0 117715.0 116974.0 133561.0 141552.0 79115.0 72584.0 96695.0 89457.0 170883.0 174049.0 81689.0 80719.0 80165.0 87546.0 16095.0 8818.0 64148.0 71829.0 49142.0 43214.0 31799.0 31379.0 69649.0 71193.0 77639.0 79603.0 278073.0 285744.0 24642.0 24257.0 275524.0 276422.0 88331.0 92154.0 114982.0 118569.0 147932.0 155656.0 79726.0 75085.0 82648.0 84276.0 160613.0 154219.0 75931.0 81777.0 151011.0 155278.0 101638.0 109162.0 100148.0 107745.0 121408.0 119956.0 195711.0 189936.0 53260.0 46834.0 141558.0 134378.0 104256.0 100576.0 70452.0 66466.0 12777.0 5523.0 0.0 8061.0 33796.0 29859.0 240544.0 234163.0 37814.0 40118.0 65720.0 58746.0 62847.0 67940.0 11809.0 16264.0 306006.0 297825.0 89706.0 148561.0 89706.0 89706.0 89706.0 148561.0 148561.0 148561.0
237185.0 242277.0 70246.0 66650.0 197488.0 197428.0 77725.0 76720.0 131692.0 138593.0 39672.0 32319.0 61615.0 69813.0 69620.0 65687.0 56243.0 50226.0 59757.0 52243.0 44987.0 52139.0 113368.0 109855.0 44285.0 37308.0 318629.0 311038.0 57591.0 50919.0 88942.0 86136.0 66624.0 74218.0 41095.0 33341.0 95362.0 97661.0 122312.0 121112.0 137816.0 145762.0 72989.0 66837.0 103351.0 96284.0 178911.0 182100.0 74096.0 73442.0 87152.0 94324.0 24024.0 16358.0 71828.0 79375.0 45805.0 40876.0 39577.0 38479.0 74848.0 75643.0 69819.0 72012.0 281792.0 289521.0 29407.0 30807.0 279223.0 279928.0 80874.0 84967.0 118414.0 122428.0 151117.0 158931.0 86389.0 81334.0 86971.0 87959.0 167643.0 161126.0 80314.0 86607.0 155804.0 160346.0 94068.0 101654.0 108088.0 115722.0 128913.0 127259.0 201091.0 195486.0 50151.0 44493.0 147733.0 140717.0 96387.0 92594.0 77244.0 73641.0 14648.0 11261.0 8061.0 0.0 40424.0 35411.0 245127.0 238882.0 44652.0 47611.0 73412.0 66564.0 60525.0 66353.0 8746.0 9037.0 310306.0 302149.0 83699.0 151405.0 83699.0 83699.0 83699.0 151405.0 151405.0 151405.0
242808.0 248841.0 30266.0 28282.0 157159.0 157015.0 103759.0 99912.0 142344.0 147772.0 54749.0 47748.0 45812.0 52373.0 76469.0 76820.0 79788.0 71678.0 95860.0 89332.0 30016.0 36566.0 72976.0 69720.0 21103.0 15697.0 320763.0 312905.0 37806.0 29760.0 81060.0 75050.0 69263.0 76958.0 66016.0 58104.0 133309.0 136473.0 86313.0 86686.0 142255.0 150204.0 92752.0 84895.0 93267.0 85226.0 143775.0 147849.0 104011.0 100826.0 75441.0 83878.0 26800.0 31413.0 53897.0 62300.0 54803.0 46765.0 12345.0 4579.0 77804.0 82729.0 109185.0 111993.0 286823.0 294169.0 44964.0 37756.0 284386.0 286135.0 121040.0 125348.0 127969.0 129610.0 160864.0 168028.0 77691.0 76508.0 52674.0 56222.0 127278.0 120711.0 87300.0 90544.0 156547.0 159254.0 123054.0 129856.0 72110.0 80224.0 89480.0 87280.0 197100.0 190446.0 57022.0 49231.0 139384.0 131340.0 128449.0 126368.0 36822.0 33652.0 28546.0 29200.0 33796.0 40424.0 0.0 8408.0 245542.0 238543.0 42959.0 38494.0 55060.0 47184.0 61408.0 62545.0 45489.0 49436.0 311819.0 303584.0 123494.0 162894.0 123494.0 123494.0 123494.0 162894.0 162894.0 162894.0
247810.0 253697.0 35072.0 31263.0 163306.0 162863.0 95434.0 91522.0 146116.0 151845.0 56077.0 48547.0 52486.0 59471.0 80159.0 79715.0 71450.0 63316.0 88511.0 82229.0 35644.0 42796.0 78511.0 74626.0 27654.0 20785.0 326430.0 318604.0 44823.0 36617.0 74711.0 69137.0 73539.0 81396.0 57825.0 50010.0 126220.0 129658.0 88007.0 87602.0 147119.0 155110.0 84344.0 76492.0 99951.0 91961.0 151911.0 156070.0 95887.0 92564.0 82145.0 90514.0 27157.0 29691.0 61095.0 69533.0 46460.0 38431.0 18555.0 10884.0 82222.0 86506.0 102691.0 105861.0 291993.0 299411.0 45498.0 39350.0 289531.0 291110.0 115052.0 119695.0 131844.0 133922.0 164901.0 172214.0 83996.0 82202.0 53247.0 55659.0 133364.0 126584.0 91177.0 95013.0 162077.0 165075.0 114820.0 121571.0 80270.0 88418.0 96628.0 94033.0 203455.0 196926.0 48782.0 40979.0 146131.0 138182.0 120426.0 118533.0 42934.0 40755.0 22077.0 24650.0 29859.0 35411.0 8408.0 0.0 251367.0 244467.0 46904.0 43606.0 62337.0 54432.0 53643.0 55300.0 41647.0 44415.0 317570.0 309338.0 119091.0 166617.0 119091.0 119091.0 119091.0 166617.0 166617.0 166617.0
31804.0 37473.0 256657.0 262358.0 293615.0 300235.0 317129.0 318562.0 118612.0 110587.0 205457.0 212930.0 200069.0 194630.0 175587.0 179620.0 299583.0 294739.0 286229.0 278552.0 215770.0 208977.0 265845.0 270891.0 224445.0 230605.0 75502.0 67550.0 208423.0 216038.0 326026.0 320461.0 179769.0 171840.0 285172.0 278075.0 302650.0 299153.0 306275.0 311489.0 107528.0 99731.0 316882.0 311494.0 153717.0 161714.0 218418.0 212268.0 309380.0 311993.0 171118.0 162674.0 229123.0 232763.0 193542.0 185802.0 289527.0 282980.0 233306.0 241327.0 171111.0 169492.0 277514.0 272694.0 49406.0 54438.0 216001.0 217237.0 47916.0 53519.0 274850.0 272199.0 129176.0 123686.0 100688.0 92968.0 168054.0 169167.0 286592.0 293363.0 280033.0 280979.0 164814.0 158777.0 89653.0 86300.0 327607.0 335395.0 220544.0 217468.0 246316.0 253354.0 52316.0 60256.0 293468.0 286491.0 110220.0 118635.0 323647.0 316370.0 251158.0 243651.0 251682.0 243795.0 240544.0 245127.0 245542.0 251367.0 0.0 8032.0 205704.0 207814.0 192779.0 200063.0 301996.0 305534.0 237982.0 245203.0 66330.0 58100.0 258629.0 104040.0 258629.0 258629.0 258629.0 104040.0 104040.0 104040.0
35399.0 42028.0 249254.0 255028.0 285598.0 292212.0 311440.0 312728.0 113692.0 105600.0 199229.0 206630.0 192979.0 187424.0 169281.0 173516.0 293601.0 288636.0 280893.0 273157.0 208843.0 201979.0 258030.0 263121.0 217440.0 223691.0 82941.0 74954.0 201306.0 208977.0 319159.0 313518.0 173238.0 165333.0 279102.0 271925.0 297740.0 294243.0 298565.0 303827.0 101612.0 93931.0 310876.0 305386.0 146422.0 154441.0 210441.0 204314.0 303861.0 306333.0 163903.0 155444.0 222512.0 226298.0 186305.0 178505.0 283065.0 276441.0 226336.0 234358.0 164618.0 163244.0 272641.0 267744.0 57380.0 62470.0 209674.0 210718.0 55842.0 61291.0 269940.0 267289.0 123744.0 117987.0 96261.0 88710.0 160961.0 162274.0 279149.0 285965.0 272006.0 272963.0 158597.0 152390.0 83154.0 79422.0 322238.0 330045.0 212700.0 209568.0 238364.0 245421.0 44405.0 52316.0 286969.0 279936.0 102577.0 111003.0 318518.0 311330.0 243651.0 236173.0 245175.0 237323.0 234163.0 238882.0 238543.0 244467.0 8032.0 0.0 199018.0 200962.0 185517.0 192855.0 295371.0 298801.0 231847.0 239151.0 73615.0 65409.0 253719.0 100037.0 253719.0 253719.0 253719.0 100037.0 100037.0 100037.0
201097.0 206896.0 66134.0 67886.0 177111.0 178780.0 122376.0 121207.0 99423.0 104993.0 19458.0 18449.0 20395.0 27840.0 33509.0 34374.0 100560.0 94003.0 101796.0 93760.0 15340.0 15440.0 100635.0 100249.0 24539.0 27289.0 280407.0 272638.0 21542.0 21314.0 120712.0 115646.0 26648.0 34546.0 85322.0 77244.0 133943.0 134533.0 124828.0 126561.0 100388.0 108399.0 116880.0 110203.0 58884.0 51668.0 144157.0 146104.0 118442.0 118071.0 42504.0 49740.0 23735.0 29071.0 29823.0 36119.0 84747.0 77732.0 31028.0 38386.0 35361.0 39783.0 106577.0 106434.0 245393.0 252872.0 19002.0 13899.0 242910.0 244366.0 113718.0 115407.0 85079.0 87018.0 118066.0 125334.0 41918.0 37685.0 93817.0 98348.0 148676.0 143635.0 44387.0 48149.0 116101.0 119655.0 138410.0 146077.0 78364.0 84495.0 105787.0 106815.0 159270.0 153198.0 88416.0 81149.0 104023.0 96700.0 139838.0 135281.0 67206.0 60182.0 46900.0 39558.0 37814.0 44652.0 42959.0 46904.0 205704.0 199018.0 0.0 8078.0 31416.0 26609.0 96387.0 99846.0 40995.0 49142.0 271692.0 263472.0 106667.0 119965.0 106667.0 106667.0 106667.0 119965.0 119965.0 119965.0
204381.0 210372.0 59338.0 61684.0 169055.0 170705.0 124932.0 123251.0 104298.0 109482.0 27438.0 25504.0 14296.0 22393.0 39000.0 41004.0 102476.0 95528.0 106255.0 98345.0 8753.0 7401.0 92751.0 92536.0 18360.0 22983.0 282830.0 275010.0 13650.0 13535.0 118212.0 112743.0 31099.0 38598.0 87260.0 79032.0 139452.0 140387.0 117924.0 119944.0 103776.0 111735.0 118330.0 111347.0 58055.0 50388.0 137154.0 139326.0 121704.0 120836.0 40756.0 48654.0 24509.0 31342.0 24423.0 31765.0 84568.0 77196.0 26175.0 34033.0 39454.0 45020.0 112317.0 112555.0 248476.0 255865.0 25389.0 18403.0 246025.0 247702.0 120110.0 122112.0 89866.0 91210.0 122581.0 129655.0 41384.0 38711.0 87727.0 92636.0 140599.0 135561.0 49405.0 52126.0 118472.0 121545.0 141673.0 149237.0 70543.0 76834.0 97736.0 98737.0 160375.0 154043.0 87977.0 80471.0 103961.0 96325.0 143778.0 139586.0 59789.0 52598.0 47387.0 40788.0 40118.0 47611.0 38494.0 43606.0 207814.0 200962.0 8078.0 0.0 26028.0 20020.0 95181.0 98027.0 45283.0 53221.0 273987.0 265756.0 113965.0 124850.0 113965.0 113965.0 113965.0 124850.0 124850.0 124850.0
192911.0 199476.0 64489.0 69687.0 153677.0 156356.0 150195.0 148101.0 100483.0 103982.0 49038.0 49762.0 11801.0 3638.0 44110.0 50088.0 127297.0 120025.0 132283.0 124369.0 29283.0 21588.0 86259.0 88270.0 34867.0 42569.0 268263.0 260326.0 17639.0 25865.0 135891.0 129546.0 35170.0 38881.0 112185.0 103890.0 165227.0 165928.0 119325.0 122996.0 94550.0 102046.0 142616.0 135336.0 39115.0 31077.0 113816.0 115334.0 147409.0 146254.0 21773.0 30134.0 49731.0 57061.0 1610.0 7250.0 107130.0 99369.0 43868.0 51501.0 39635.0 47914.0 137939.0 137849.0 236050.0 243113.0 50408.0 44278.0 233713.0 236079.0 145088.0 146617.0 86374.0 85395.0 116760.0 122924.0 26005.0 29124.0 94609.0 100986.0 126903.0 123018.0 50690.0 49195.0 105488.0 107053.0 167353.0 174854.0 52992.0 57502.0 83234.0 86133.0 143087.0 136174.0 110100.0 102360.0 84738.0 76558.0 169725.0 165602.0 60624.0 52792.0 71538.0 65743.0 65720.0 73412.0 55060.0 62337.0 192779.0 185517.0 31416.0 26028.0 0.0 7905.0 115916.0 117544.0 71308.0 79244.0 259091.0 250867.0 137159.0 120399.0 137159.0 137159.0 137159.0 120399.0 120399.0 120399.0
199604.0 206069.0 57973.0 62749.0 153590.0 155875.0 142886.0 140638.0 105285.0 109207.0 45429.0 45020.0 6326.0 5435.0 45594.0 50605.0 119843.0 112487.0 125837.0 118007.0 21878.0 14426.0 82805.0 84187.0 26981.0 34731.0 275517.0 267595.0 9797.0 17992.0 128079.0 121788.0 36494.0 41544.0 104781.0 96475.0 159424.0 160405.0 113991.0 117309.0 100567.0 108196.0 135010.0 127676.0 46594.0 38526.0 117552.0 119518.0 140365.0 139024.0 28953.0 37419.0 42668.0 50216.0 6723.0 15120.0 99314.0 91530.0 35967.0 43598.0 42363.0 50183.0 132329.0 132562.0 242946.0 250069.0 45245.0 38407.0 240588.0 242835.0 140063.0 141932.0 90999.0 90579.0 122118.0 128512.0 32452.0 34127.0 88037.0 94196.0 126098.0 121774.0 53501.0 53132.0 112301.0 114136.0 160278.0 167728.0 53334.0 58774.0 82535.0 84724.0 150639.0 143789.0 102249.0 94501.0 92442.0 84305.0 162951.0 159022.0 54927.0 47092.0 64016.0 58466.0 58746.0 66564.0 47184.0 54432.0 200063.0 192855.0 26609.0 20020.0 7905.0 0.0 108013.0 109647.0 65002.0 72791.0 266390.0 258162.0 133236.0 125451.0 133236.0 133236.0 133236.0 125451.0 125451.0 125451.0
296064.0 301457.0 71940.0 63920.0 191327.0 188784.0 58008.0 50999.0 191420.0 198022.0 98446.0 90527.0 105696.0 112962.0 127164.0 124540.0 38573.0 32230.0 72166.0 70561.0 88171.0 95726.0 108745.0 101991.0 81084.0 73642.0 376438.0 368721.0 98327.0 90092.0 29522.0 29260.0 122274.0 130228.0 36668.0 36621.0 107640.0 113908.0 94859.0 89906.0 195742.0 203761.0 41161.0 33508.0 152874.0 144985.0 196765.0 201947.0 64576.0 57898.0 135182.0 143419.0 72873.0 69729.0 114638.0 123078.0 16000.0 19698.0 72048.0 64525.0 130978.0 133474.0 93744.0 99999.0 340596.0 348213.0 87284.0 84905.0 338063.0 339094.0 109301.0 116384.0 177769.0 181142.0 210763.0 218466.0 136481.0 133682.0 64488.0 59751.0 162315.0 154493.0 138241.0 143519.0 212347.0 216038.0 78344.0 83016.0 127118.0 135340.0 134949.0 129925.0 255468.0 249209.0 11595.0 16065.0 198996.0 191203.0 88382.0 90155.0 82275.0 84581.0 50726.0 58783.0 62847.0 60525.0 61408.0 53643.0 301996.0 295371.0 96387.0 95181.0 115916.0 108013.0 0.0 8154.0 69095.0 64579.0 367838.0 359630.0 125530.0 211398.0 125530.0 125530.0 125530.0 211398.0 211398.0 211398.0
300348.0 305874.0 69521.0 61372.0 185767.0 182986.0 64863.0 57527.0 196241.0 202678.0 103263.0 95289.0 107770.0 114744.0 131405.0 129191.0 46404.0 40303.0 80285.0 78714.0 90606.0 97979.0 104226.0 97218.0 82953.0 75846.0 380231.0 372473.0 100103.0 91911.0 22637.0 21351.0 126094.0 134062.0 44792.0 44431.0 115542.0 121896.0 88005.0 82753.0 199812.0 207837.0 47481.0 40213.0 155194.0 147226.0 193964.0 199369.0 72019.0 65112.0 137409.0 145746.0 76692.0 74262.0 116337.0 124765.0 23552.0 25682.0 73855.0 66061.0 134834.0 137756.0 101896.0 108150.0 344810.0 352375.0 92020.0 89011.0 342297.0 343477.0 117454.0 124532.0 182431.0 185530.0 215511.0 223144.0 139057.0 136710.0 58991.0 53659.0 157036.0 149137.0 142525.0 147488.0 215947.0 219392.0 84980.0 89267.0 125243.0 133406.0 131286.0 125924.0 258383.0 251976.0 19362.0 22189.0 201375.0 193460.0 95450.0 97558.0 79803.0 82814.0 55447.0 63513.0 67940.0 66353.0 62545.0 55300.0 305534.0 298801.0 99846.0 98027.0 117544.0 109647.0 8154.0 0.0 75039.0 71051.0 371536.0 363317.0 133371.0 216364.0 133371.0 133371.0 133371.0 216364.0 216364.0 216364.0
229448.0 234435.0 75722.0 72812.0 201607.0 201857.0 82453.0 82180.0 123724.0 130745.0 32813.0 26140.0 59566.0 67671.0 62851.0 58364.0 62156.0 56800.0 60989.0 53062.0 44279.0 50762.0 118271.0 115205.0 45453.0 39434.0 311171.0 303619.0 56672.0 50868.0 97643.0 94881.0 60659.0 67994.0 47332.0 40095.0 94774.0 96343.0 129391.0 128508.0 130524.0 138425.0 79250.0 73542.0 98744.0 91999.0 179767.0 182608.0 77721.0 77882.0 83211.0 89963.0 24205.0 16322.0 69702.0 76773.0 54144.0 49496.0 42378.0 42846.0 68571.0 68689.0 68233.0 69524.0 274057.0 281817.0 23651.0 27229.0 271476.0 272075.0 77938.0 81327.0 110632.0 114893.0 143163.0 151016.0 81884.0 76242.0 94227.0 95608.0 171896.0 165604.0 73280.0 79914.0 148900.0 153676.0 97645.0 105375.0 109758.0 117131.0 132150.0 130985.0 194670.0 189245.0 58543.0 53101.0 142294.0 135516.0 98845.0 94388.0 81982.0 77719.0 22633.0 17065.0 11809.0 8746.0 45489.0 41647.0 237982.0 231847.0 40995.0 45283.0 71308.0 65002.0 69095.0 75039.0 0.0 8189.0 302930.0 294791.0 78028.0 143376.0 78028.0 78028.0 78028.0 143376.0 143376.0 143376.0
236112.0 240970.0 79283.0 75628.0 206437.0 206420.0 74395.0 74320.0 130169.0 137342.0 40542.0 34170.0 67472.0 75611.0 70478.0 65647.0 54532.0 49580.0 53057.0 45223.0 51732.0 58464.0 122395.0 118892.0 52090.0 45512.0 318108.0 310594.0 64242.0 58093.0 93676.0 91514.0 68619.0 75854.0 39973.0 33181.0 87544.0 89479.0 130952.0 129565.0 137687.0 145543.0 71745.0 66329.0 106914.0 100185.0 186718.0 189724.0 69537.0 69777.0 91398.0 98148.0 31124.0 23142.0 77641.0 84816.0 49080.0 45373.0 48055.0 47388.0 76410.0 76194.0 61479.0 63339.0 280708.0 288503.0 31780.0 35329.0 278116.0 278582.0 72083.0 76025.0 117336.0 121857.0 149605.0 157503.0 90064.0 84370.0 95548.0 96258.0 176609.0 170121.0 80723.0 87542.0 156329.0 161242.0 89457.0 97190.0 116249.0 123771.0 137652.0 136119.0 202347.0 197005.0 53567.0 48876.0 150328.0 143600.0 90719.0 86368.0 86250.0 82547.0 23178.0 20240.0 16264.0 9037.0 49436.0 44415.0 245203.0 239151.0 49142.0 53221.0 79244.0 72791.0 64579.0 71051.0 8189.0 0.0 309944.0 301823.0 74759.0 149722.0 74759.0 74759.0 74759.0 149722.0 149722.0 149722.0
76524.0 74284.0 322868.0 328635.0 352728.0 359748.0 380746.0 382597.0 181118.0 173403.0 270668.0 278271.0 266389.0 260956.0 241011.0 244634.0 364054.0 359523.0 348813.0 341353.0 282003.0 275258.0 330773.0 336077.0 290727.0 296825.0 9922.0 2881.0 274748.0 282347.0 392183.0 386689.0 245564.0 237610.0 349891.0 342996.0 364784.0 361288.0 371732.0 377131.0 172497.0 164545.0 381390.0 376268.0 220012.0 228019.0 276458.0 269716.0 372490.0 375535.0 237442.0 228994.0 294987.0 298389.0 259862.0 252097.0 355098.0 348694.0 299566.0 307585.0 236861.0 234821.0 339686.0 334828.0 37325.0 30334.0 281392.0 282969.0 39744.0 44580.0 336985.0 334334.0 192902.0 188087.0 162168.0 154187.0 234376.0 235389.0 352752.0 359579.0 341524.0 343091.0 230097.0 224380.0 155600.0 152565.0 390186.0 397890.0 285327.0 281789.0 309968.0 317245.0 117335.0 124984.0 359104.0 352230.0 176031.0 184465.0 385848.0 378515.0 317217.0 309759.0 317363.0 309421.0 306006.0 310306.0 311819.0 317570.0 66330.0 73615.0 271692.0 273987.0 259091.0 266390.0 367838.0 371536.0 302930.0 309944.0 0.0 8235.0 320764.0 164164.0 320764.0 320764.0 320764.0 164164.0 164164.0 164164.0
68999.0 67162.0 314663.0 320419.0 345356.0 352334.0 372734.0 374547.0 173136.0 165392.0 262504.0 270098.0 258155.0 252728.0 232829.0 236483.0 355962.0 351403.0 340894.0 333412.0 273770.0 267023.0 322732.0 328006.0 282493.0 288592.0 17704.0 9697.0 266515.0 274113.0 383953.0 378456.0 237356.0 229402.0 341776.0 334862.0 356850.0 353353.0 363630.0 369006.0 164334.0 156390.0 373296.0 368150.0 211791.0 219797.0 269158.0 262473.0 364525.0 367530.0 229215.0 220768.0 286776.0 290195.0 251636.0 243877.0 346911.0 340495.0 291332.0 299351.0 228655.0 226645.0 331751.0 326894.0 32114.0 26140.0 273215.0 274767.0 34295.0 40002.0 329050.0 326399.0 184836.0 179969.0 154244.0 146271.0 226143.0 227155.0 344555.0 351373.0 333880.0 335377.0 221923.0 216183.0 147376.0 144331.0 382275.0 389988.0 277297.0 273810.0 302072.0 309322.0 109217.0 116895.0 350911.0 344029.0 167868.0 176301.0 377913.0 370580.0 309034.0 301569.0 309166.0 301228.0 297825.0 302149.0 303584.0 309338.0 58100.0 65409.0 263472.0 265756.0 250867.0 258162.0 359630.0 363317.0 294791.0 301823.0 8235.0 0.0 312829.0 156343.0 312829.0 312829.0 312829.0 156343.0 156343.0 156343.0
245365.0 249851.0 153675.0 150345.0 279075.0 279587.0 100102.0 105724.0 140034.0 148135.0 88120.0 88461.0 126955.0 133796.0 105814.0 97865.0 96105.0 97414.0 64593.0 60608.0 116844.0 121091.0 196277.0 193212.0 120994.0 116316.0 328359.0 321135.0 127471.0 124066.0 154576.0 154719.0 110237.0 113779.0 89809.0 88942.0 65346.0 60282.0 205338.0 203519.0 155178.0 161762.0 110171.0 109736.0 149818.0 145762.0 250760.0 252484.0 88720.0 94953.0 139943.0 143565.0 100394.0 93350.0 135648.0 140215.0 109849.0 109735.0 119700.0 120848.0 113808.0 108260.0 45843.0 38771.0 289808.0 297692.0 88850.0 96959.0 287186.0 287395.0 36893.0 31861.0 131325.0 138409.0 158600.0 166591.0 135822.0 127741.0 169876.0 169977.0 249526.0 243402.0 110802.0 118974.0 176257.0 183114.0 101167.0 107939.0 183973.0 190633.0 208797.0 208225.0 224102.0 220667.0 114021.0 112529.0 183483.0 179018.0 92852.0 84514.0 159981.0 155476.0 97835.0 94554.0 89706.0 83699.0 123494.0 119091.0 258629.0 253719.0 106667.0 113965.0 137159.0 133236.0 125530.0 133371.0 78028.0 74759.0 320764.0 312829.0 0.0 158470.0 0.0 0.0 0.0 158470.0 158470.0 158470.0
88159.0 92214.0 182518.0 186013.0 260732.0 265317.0 218659.0 220823.0 20556.0 16669.0 113104.0 121085.0 122677.0 120562.0 86491.0 87390.0 202888.0 198964.0 186539.0 179059.0 133594.0 128765.0 205896.0 208479.0 143177.0 147199.0 171494.0 164411.0 130820.0 136565.0 238386.0 234156.0 93760.0 86341.0 189257.0 182886.0 202490.0 198994.0 239442.0 242642.0 31579.0 28701.0 220209.0 215591.0 89199.0 94711.0 197841.0 194778.0 210223.0 213414.0 100704.0 94275.0 140747.0 142168.0 120401.0 115283.0 197172.0 191730.0 150783.0 158330.0 85477.0 80183.0 177392.0 172534.0 132322.0 140267.0 124359.0 128140.0 129679.0 129575.0 174691.0 172040.0 34986.0 35028.0 7151.0 11757.0 95068.0 91411.0 212006.0 217317.0 238506.0 236487.0 75595.0 73098.0 42206.0 49871.0 227928.0 235656.0 166018.0 166783.0 196710.0 201614.0 80125.0 80081.0 201470.0 195359.0 75084.0 78498.0 223554.0 216221.0 180349.0 172526.0 160920.0 152851.0 148561.0 151405.0 162894.0 166617.0 104040.0 100037.0 119965.0 124850.0 120399.0 125451.0 211398.0 216364.0 143376.0 149722.0 164164.0 156343.0 158470.0 0.0 158470.0 158470.0 158470.0 0.0 0.0 0.0
245365.0 249851.0 153675.0 150345.0 279075.0 279587.0 100102.0 105724.0 140034.0 148135.0 88120.0 88461.0 126955.0 133796.0 105814.0 97865.0 96105.0 97414.0 64593.0 60608.0 116844.0 121091.0 196277.0 193212.0 120994.0 116316.0 328359.0 321135.0 127471.0 124066.0 154576.0 154719.0 110237.0 113779.0 89809.0 88942.0 65346.0 60282.0 205338.0 203519.0 155178.0 161762.0 110171.0 109736.0 149818.0 145762.0 250760.0 252484.0 88720.0 94953.0 139943.0 143565.0 100394.0 93350.0 135648.0 140215.0 109849.0 109735.0 119700.0 120848.0 113808.0 108260.0 45843.0 38771.0 289808.0 297692.0 88850.0 96959.0 287186.0 287395.0 36893.0 31861.0 131325.0 138409.0 158600.0 166591.0 135822.0 127741.0 169876.0 169977.0 249526.0 243402.0 110802.0 118974.0 176257.0 183114.0 101167.0 107939.0 183973.0 190633.0 208797.0 208225.0 224102.0 220667.0 114021.0 112529.0 183483.0 179018.0 92852.0 84514.0 159981.0 155476.0 97835.0 94554.0 89706.0 83699.0 123494.0 119091.0 258629.0 253719.0 106667.0 113965.0 137159.0 133236.0 125530.0 133371.0 78028.0 74759.0 320764.0 312829.0 0.0 158470.0 0.0 0.0 0.0 158470.0 158470.0 158470.0
245365.0 249851.0 153675.0 150345.0 279075.0 279587.0 100102.0 105724.0 140034.0 148135.0 88120.0 88461.0 126955.0 133796.0 105814.0 97865.0 96105.0 97414.0 64593.0 60608.0 116844.0 121091.0 196277.0 193212.0 120994.0 116316.0 328359.0 321135.0 127471.0 124066.0 154576.0 154719.0 110237.0 113779.0 89809.0 88942.0 65346.0 60282.0 205338.0 203519.0 155178.0 161762.0 110171.0 109736.0 149818.0 145762.0 250760.0 252484.0 88720.0 94953.0 139943.0 143565.0 100394.0 93350.0 135648.0 140215.0 109849.0 109735.0 119700.0 120848.0 113808.0 108260.0 45843.0 38771.0 289808.0 297692.0 88850.0 96959.0 287186.0 287395.0 36893.0 31861.0 131325.0 138409.0 158600.0 166591.0 135822.0 127741.0 169876.0 169977.0 249526.0 243402.0 110802.0 118974.0 176257.0 183114.0 101167.0 107939.0 183973.0 190633.0 208797.0 208225.0 224102.0 220667.0 114021.0 112529.0 183483.0 179018.0 92852.0 84514.0 159981.0 155476.0 97835.0 94554.0 89706.0 83699.0 123494.0 119091.0 258629.0 253719.0 106667.0 113965.0 137159.0 133236.0 125530.0 133371.0 78028.0 74759.0 320764.0 312829.0 0.0 158470.0 0.0 0.0 0.0 158470.0 158470.0 158470.0
245365.0 249851.0 153675.0 150345.0 279075.0 279587.0 100102.0 105724.0 140034.0 148135.0 88120.0 88461.0 126955.0 133796.0 105814.0 97865.0 96105.0 97414.0 64593.0 60608.0 116844.0 121091.0 196277.0 193212.0 120994.0 116316.0 328359.0 321135.0 127471.0 124066.0 154576.0 154719.0 110237.0 113779.0 89809.0 88942.0 65346.0 60282.0 205338.0 203519.0 155178.0 161762.0 110171.0 109736.0 149818.0 145762.0 250760.0 252484.0 88720.0 94953.0 139943.0 143565.0 100394.0 93350.0 135648.0 140215.0 109849.0 109735.0 119700.0 120848.0 113808.0 108260.0 45843.0 38771.0 289808.0 297692.0 88850.0 96959.0 287186.0 287395.0 36893.0 31861.0 131325.0 138409.0 158600.0 166591.0 135822.0 127741.0 169876.0 169977.0 249526.0 243402.0 110802.0 118974.0 176257.0 183114.0 101167.0 107939.0 183973.0 190633.0 208797.0 208225.0 224102.0 220667.0 114021.0 112529.0 183483.0 179018.0 92852.0 84514.0 159981.0 155476.0 97835.0 94554.0 89706.0 83699.0 123494.0 119091.0 258629.0 253719.0 106667.0 113965.0 137159.0 133236.0 125530.0 133371.0 78028.0 74759.0 320764.0 312829.0 0.0 158470.0 0.0 0.0 0.0 158470.0 158470.0 158470.0
88159.0 92214.0 182518.0 186013.0 260732.0 265317.0 218659.0 220823.0 20556.0 16669.0 113104.0 121085.0 122677.0 120562.0 86491.0 87390.0 202888.0 198964.0 186539.0 179059.0 133594.0 128765.0 205896.0 208479.0 143177.0 147199.0 171494.0 164411.0 130820.0 136565.0 238386.0 234156.0 93760.0 86341.0 189257.0 182886.0 202490.0 198994.0 239442.0 242642.0 31579.0 28701.0 220209.0 215591.0 89199.0 94711.0 197841.0 194778.0 210223.0 213414.0 100704.0 94275.0 140747.0 142168.0 120401.0 115283.0 197172.0 191730.0 150783.0 158330.0 85477.0 80183.0 177392.0 172534.0 132322.0 140267.0 124359.0 128140.0 129679.0 129575.0 174691.0 172040.0 34986.0 35028.0 7151.0 11757.0 95068.0 91411.0 212006.0 217317.0 238506.0 236487.0 75595.0 73098.0 42206.0 49871.0 227928.0 235656.0 166018.0 166783.0 196710.0 201614.0 80125.0 80081.0 201470.0 195359.0 75084.0 78498.0 223554.0 216221.0 180349.0 172526.0 160920.0 152851.0 148561.0 151405.0 162894.0 166617.0 104040.0 100037.0 119965.0 124850.0 120399.0 125451.0 211398.0 216364.0 143376.0 149722.0 164164.0 156343.0 158470.0 0.0 158470.0 158470.0 158470.0 0.0 0.0 0.0
88159.0 92214.0 182518.0 186013.0 260732.0 265317.0 218659.0 220823.0 20556.0 16669.0 113104.0 121085.0 122677.0 120562.0 86491.0 87390.0 202888.0 198964.0 186539.0 179059.0 133594.0 128765.0 205896.0 208479.0 143177.0 147199.0 171494.0 164411.0 130820.0 136565.0 238386.0 234156.0 93760.0 86341.0 189257.0 182886.0 202490.0 198994.0 239442.0 242642.0 31579.0 28701.0 220209.0 215591.0 89199.0 94711.0 197841.0 194778.0 210223.0 213414.0 100704.0 94275.0 140747.0 142168.0 120401.0 115283.0 197172.0 191730.0 150783.0 158330.0 85477.0 80183.0 177392.0 172534.0 132322.0 140267.0 124359.0 128140.0 129679.0 129575.0 174691.0 172040.0 34986.0 35028.0 7151.0 11757.0 95068.0 91411.0 212006.0 217317.0 238506.0 236487.0 75595.0 73098.0 42206.0 49871.0 227928.0 235656.0 166018.0 166783.0 196710.0 201614.0 80125.0 80081.0 201470.0 195359.0 75084.0 78498.0 223554.0 216221.0 180349.0 172526.0 160920.0 152851.0 148561.0 151405.0 162894.0 166617.0 104040.0 100037.0 119965.0 124850.0 120399.0 125451.0 211398.0 216364.0 143376.0 149722.0 164164.0 156343.0 158470.0 0.0 158470.0 158470.0 158470.0 0.0 0.0 0.0
88159.0 92214.0 182518.0 186013.0 260732.0 265317.0 218659.0 220823.0 20556.0 16669.0 113104.0 121085.0 122677.0 120562.0 86491.0 87390.0 202888.0 198964.0 186539.0 179059.0 133594.0 128765.0 205896.0 208479.0 143177.0 147199.0 171494.0 164411.0 130820.0 136565.0 238386.0 234156.0 93760.0 86341.0 189257.0 182886.0 202490.0 198994.0 239442.0 242642.0 31579.0 28701.0 220209.0 215591.0 89199.0 94711.0 197841.0 194778.0 210223.0 213414.0 100704.0 94275.0 140747.0 142168.0 120401.0 115283.0 197172.0 191730.0 150783.0 158330.0 85477.0 80183.0 177392.0 172534.0 132322.0 140267.0 124359.0 128140.0 129679.0 129575.0 174691.0 172040.0 34986.0 35028.0 7151.0 11757.0 95068.0 91411.0 212006.0 217317.0 238506.0 236487.0 75595.0 73098.0 42206.0 49871.0 227928.0 235656.0 166018.0 166783.0 196710.0 201614.0 80125.0 80081.0 201470.0 195359.0 75084.0 78498.0 223554.0 216221.0 180349.0 172526.0 160920.0 152851.0 148561.0 151405.0 162894.0 166617.0 104040.0 100037.0 119965.0 124850.0 120399.0 125451.0 211398.0 216364.0 143376.0 149722.0 164164.0 156343.0 158470.0 0.0 158470.0 158470.0 158470.0 0.0 0.0 0.0
FIXED_EDGES_SECTION
1 2
3 4
5 6
7 8
9 10
11 12
13 14
15 16
17 18
19 20
21 22
23 24
25 26
27 28
29 30
31 32
33 34
35 36
37 38
39 40
41 42
43 44
45 46
47 48
49 50
51 52
53 54
55 56
57 58
59 60
61 62
63 64
65 66
67 68
69 70
71 72
73 74
75 76
77 78
79 80
81 82
83 84
85 86
87 88
89 90
91 92
93 94
95 96
97 98
99 100
101 102
103 104
105 106
107 108
109 110
111 112
113 114
115 116
117 118
119 120
-1 
DEMAND_SECTION
1 184
2 184
3 211
4 211
5 138
6 138
7 500
8 500
9 235
10 235
11 56
12 56
13 94
14 94
15 373
16 373
17 375
18 375
19 396
20 396
21 191
22 191
23 72
24 72
25 541
26 541
27 229
28 229
29 89
30 89
31 497
32 497
33 80
34 80
35 57
36 57
37 369
38 369
39 68
40 68
41 371
42 371
43 265
44 265
45 158
46 158
47 321
48 321
49 274
50 274
51 421
52 421
53 119
54 119
55 279
56 279
57 461
58 461
59 96
60 96
61 358
62 358
63 341
64 341
65 99
66 99
67 94
68 94
69 60
70 60
71 97
72 97
73 100
74 100
75 37
76 37
77 119
78 119
79 224
80 224
81 380
82 380
83 324
84 324
85 313
86 313
87 316
88 316
89 112
90 112
91 157
92 157
93 336
94 336
95 497
96 497
97 68
98 68
99 251
100 251
101 82
102 82
103 293
104 293
105 207
106 207
107 349
108 349
109 341
110 341
111 114
112 114
113 90
114 90
115 55
116 55
117 394
118 394
119 421
120 421
121 0
122 0
123 0
124 0
125 0
126 0
127 0
128 0
DEPOT_SECTION
121 
-1 
CAPACITIES_SECTION
7500 
8250 
9000 
9750 
-1 
EOF