NAME: GFS_20_1
TYPE: GFSP
DIMENSION: 206
VEHICLES: 3
CAPACITY: 25000.0
TRIP_DIST_LIMIT: 1200000.0
TOTAL_DIST_LIMIT: 1400000.0
EDGE_WEIGHT_TYPE: EXPLICIT
EDGE_WEIGHT_FORMAT: FULL_MATRIX
EDGE_WEIGHT_SECTION
0.0 7988.0 162753.0 163086.0 35391.0 41291.0 119385.0 116018.0 41849.0 45100.0 112483.0 116427.0 149212.0 149721.0 32741.0 25870.0 109139.0 100950.0 255367.0 247163.0 39735.0 43179.0 83168.0 75786.0 178550.0 179545.0 91370.0 84686.0 107650.0 106953.0 58556.0 64702.0 100042.0 104473.0 82928.0 75463.0 71339.0 64866.0 219740.0 214370.0 48887.0 43079.0 225907.0 227205.0 114955.0 115309.0 100751.0 93938.0 60772.0 64528.0 17813.0 23702.0 117246.0 110437.0 99937.0 93353.0 51243.0 56726.0 15698.0 17477.0 141584.0 143646.0 108461.0 112166.0 221342.0 213175.0 123757.0 125347.0 81644.0 87321.0 228411.0 235956.0 187741.0 190014.0 184000.0 189663.0 100338.0 94173.0 19278.0 24796.0 9096.0 9723.0 157846.0 152160.0 147910.0 142562.0 129704.0 123526.0 83388.0 91414.0 35857.0 40906.0 192060.0 198427.0 106124.0 108046.0 21239.0 28011.0 83036.0 85287.0 147917.0 155725.0 112837.0 106950.0 28372.0 32365.0 141106.0 136667.0 128143.0 128717.0 9949.0 17798.0 33800.0 36415.0 115228.0 115692.0 93615.0 101767.0 116671.0 118667.0 254306.0 252731.0 148119.0 149153.0 173038.0 165693.0 32300.0 29463.0 61382.0 54854.0 97776.0 90063.0 26650.0 31064.0 44550.0 44011.0 139248.0 135861.0 95611.0 101564.0 88127.0 80200.0 54132.0 49307.0 111299.0 116008.0 136488.0 130730.0 43853.0 36752.0 267134.0 265099.0 112961.0 106271.0 138079.0 137607.0 151806.0 156837.0 133354.0 133065.0 246459.0 253312.0 32049.0 40087.0 40777.0 32372.0 27406.0 27609.0 38070.0 30666.0 121056.0 114186.0 96609.0 92422.0 99995.0 104074.0 155315.0 154852.0 103843.0 96875.0 50932.0 58959.0 100373.0 107708.0 87342.0 92359.0 35046.0 34155.0 198055.0 191814.0 48804.0 56199.0 18521.0 21998.0 110388.0 109017.0 33917.0 36889.0 67330.0 69511.0 104539.0 102177.0 104539.0 104539.0 102177.0 102177.0
7988.0 0.0 162774.0 162703.0 30418.0 35352.0 113448.0 109762.0 35560.0 38004.0 104497.0 108464.0 157144.0 157598.0 38593.0 32553.0 102886.0 94722.0 263355.0 255151.0 31778.0 35237.0 78010.0 70866.0 186440.0 187484.0 98700.0 91831.0 101081.0 100760.0 50591.0 56715.0 96044.0 100953.0 76071.0 68432.0 63412.0 57036.0 227701.0 222346.0 55247.0 48880.0 233850.0 235117.0 110921.0 110802.0 95100.0 88567.0 53569.0 56939.0 11022.0 18274.0 110967.0 103940.0 91977.0 85370.0 43395.0 49103.0 23263.0 23398.0 135826.0 137582.0 116207.0 119773.0 229212.0 221044.0 118459.0 119699.0 89182.0 95015.0 236358.0 243912.0 185876.0 187827.0 191929.0 197560.0 93312.0 87385.0 14001.0 17781.0 16448.0 17487.0 156158.0 150767.0 141507.0 136393.0 122087.0 115814.0 91348.0 99373.0 40796.0 46767.0 200009.0 206393.0 101020.0 102494.0 22424.0 30201.0 77139.0 78891.0 141102.0 148879.0 105312.0 99290.0 26692.0 32432.0 140536.0 135731.0 121251.0 121581.0 17871.0 25772.0 34169.0 38485.0 111025.0 111976.0 85949.0 94087.0 114583.0 116065.0 262212.0 260599.0 149430.0 150869.0 180939.0 173576.0 26285.0 25050.0 68009.0 61145.0 90196.0 82403.0 34357.0 39039.0 49980.0 48387.0 132667.0 129544.0 90540.0 96163.0 83522.0 75534.0 46294.0 41334.0 104798.0 109245.0 144401.0 138593.0 35930.0 28996.0 275048.0 273041.0 108345.0 101404.0 132953.0 132864.0 159509.0 164619.0 126142.0 125650.0 254328.0 261181.0 36377.0 44216.0 47290.0 38998.0 20049.0 19625.0 30333.0 23194.0 114183.0 107473.0 94201.0 89480.0 107971.0 112004.0 163274.0 162835.0 95869.0 88889.0 43700.0 51818.0 108040.0 115436.0 86134.0 91713.0 35615.0 32939.0 206003.0 199739.0 41852.0 48990.0 26503.0 29636.0 105312.0 104386.0 30448.0 31809.0 74940.0 77336.0 101763.0 109679.0 101763.0 101763.0 109679.0 109679.0
162753.0 162774.0 0.0 8242.0 138742.0 140242.0 255783.0 249227.0 142375.0 148505.0 194468.0 190567.0 209604.0 204104.0 140952.0 148817.0 243374.0 236689.0 305284.0 297994.0 163637.0 171451.0 114036.0 114500.0 262412.0 258025.0 152154.0 146171.0 134643.0 126457.0 167896.0 174570.0 92305.0 84076.0 214723.0 206871.0 168528.0 162253.0 286709.0 278939.0 137575.0 135301.0 294950.0 300024.0 86988.0 94577.0 116675.0 113531.0 147533.0 155114.0 155940.0 148326.0 128959.0 133240.0 195823.0 188411.0 177789.0 185604.0 169788.0 176781.0 120518.0 128678.0 173423.0 168290.0 302363.0 294295.0 265860.0 264074.0 207083.0 206549.0 296530.0 301377.0 47928.0 55494.0 262741.0 270654.0 225596.0 224349.0 175212.0 173768.0 158375.0 166263.0 34883.0 30104.0 275041.0 273558.0 234010.0 225906.0 190824.0 195173.0 134776.0 136792.0 241850.0 249890.0 251309.0 249445.0 141516.0 135200.0 124006.0 131454.0 268280.0 274414.0 224395.0 216073.0 136224.0 130563.0 24648.0 32023.0 250212.0 246009.0 161564.0 162890.0 129005.0 127087.0 265703.0 268770.0 162524.0 165527.0 59648.0 64648.0 323832.0 326304.0 28841.0 35717.0 221755.0 214976.0 145371.0 141091.0 137397.0 134884.0 212165.0 204757.0 173097.0 168234.0 132035.0 126678.0 264790.0 265678.0 241989.0 244918.0 238053.0 230449.0 160950.0 166327.0 133436.0 140521.0 199675.0 191841.0 172426.0 173565.0 334145.0 328581.0 96924.0 102607.0 280552.0 283232.0 252875.0 252893.0 248098.0 242796.0 324789.0 329386.0 135372.0 128581.0 141837.0 145856.0 173264.0 165209.0 174405.0 174023.0 244705.0 241595.0 77528.0 85273.0 188052.0 183986.0 236799.0 230715.0 196134.0 189428.0 187772.0 194005.0 216227.0 219090.0 78244.0 71500.0 127715.0 129911.0 246101.0 238045.0 146027.0 148080.0 163424.0 171894.0 255415.0 257246.0 134722.0 138194.0 196200.0 191302.0 262112.0 222342.0 262112.0 262112.0 222342.0 222342.0
163086.0 162703.0 8242.0 0.0 137685.0 138722.0 253047.0 246356.0 140761.0 146594.0 189927.0 185773.0 215606.0 210243.0 142631.0 150312.0 240620.0 234094.0 312277.0 304932.0 161966.0 169691.0 110436.0 111422.0 268088.0 263864.0 156957.0 150713.0 129473.0 121302.0 165334.0 171804.0 88110.0 79848.0 212178.0 204427.0 165357.0 159327.0 293119.0 285382.0 140201.0 137489.0 301337.0 306314.0 81732.0 89142.0 111900.0 109215.0 144781.0 152164.0 155431.0 147682.0 123298.0 127928.0 191865.0 184577.0 175739.0 183459.0 170805.0 177602.0 113709.0 121866.0 178654.0 173749.0 308365.0 300263.0 263419.0 261419.0 210360.0 210119.0 302954.0 307909.0 40510.0 47852.0 268605.0 276493.0 222547.0 221580.0 174812.0 172999.0 159122.0 167044.0 27010.0 23025.0 271602.0 270352.0 229826.0 221739.0 194655.0 199252.0 136386.0 138882.0 248500.0 256548.0 249196.0 247084.0 141863.0 135854.0 120214.0 127455.0 264529.0 270528.0 220675.0 212359.0 136041.0 130758.0 22365.0 28638.0 246714.0 242310.0 162398.0 164117.0 129285.0 127898.0 263910.0 267199.0 158238.0 160912.0 55811.0 60035.0 330333.0 332687.0 35963.0 43197.0 228269.0 221406.0 144271.0 140370.0 140746.0 137817.0 208765.0 201500.0 174613.0 170065.0 134199.0 128497.0 261344.0 262466.0 240039.0 242729.0 236407.0 228894.0 158545.0 164201.0 128083.0 134995.0 205448.0 197569.0 170647.0 172164.0 340763.0 335284.0 91613.0 97658.0 278041.0 280939.0 257797.0 258021.0 244250.0 238762.0 330990.0 335693.0 136664.0 130149.0 144067.0 147672.0 172342.0 164157.0 172953.0 172946.0 241347.0 238471.0 74762.0 82289.0 192661.0 188847.0 242346.0 236408.0 192009.0 185458.0 185991.0 191993.0 220096.0 223203.0 77190.0 71011.0 128060.0 129766.0 252833.0 244771.0 143940.0 145569.0 164685.0 173195.0 253260.0 255320.0 134036.0 137051.0 199128.0 194482.0 261115.0 226086.0 261115.0 261115.0 226086.0 226086.0
35391.0 30418.0 138742.0 137685.0 0.0 8006.0 122685.0 117358.0 10152.0 17698.0 91195.0 93105.0 172762.0 172017.0 46640.0 45967.0 110790.0 103154.0 280926.0 272691.0 27083.0 34992.0 47795.0 40507.0 207882.0 207987.0 108383.0 100396.0 73555.0 72131.0 40189.0 48086.0 65784.0 71036.0 81700.0 73438.0 49524.0 41524.0 247353.0 241436.0 62226.0 54206.0 254011.0 255949.0 80619.0 80385.0 65429.0 58548.0 31084.0 37806.0 20035.0 12156.0 82516.0 76152.0 82267.0 74497.0 43067.0 51072.0 50194.0 52838.0 106281.0 108572.0 129433.0 131296.0 250911.0 242697.0 130652.0 130207.0 114508.0 119295.0 256420.0 263690.0 157750.0 159197.0 212627.0 218833.0 96470.0 92689.0 38861.0 35602.0 38378.0 44218.0 128476.0 123674.0 147221.0 143642.0 118067.0 110686.0 112460.0 120317.0 44401.0 52817.0 215676.0 222614.0 114664.0 114079.0 24118.0 28553.0 47951.0 51009.0 144048.0 151411.0 103083.0 95627.0 14737.0 21783.0 115320.0 109738.0 124209.0 122572.0 41766.0 48745.0 23517.0 31935.0 127804.0 130367.0 65685.0 73686.0 86533.0 87167.0 283052.0 282071.0 129201.0 131893.0 195552.0 187916.0 6654.0 6245.0 74900.0 66938.0 88106.0 79795.0 60117.0 61922.0 53379.0 47594.0 137474.0 136109.0 104771.0 108720.0 99906.0 92130.0 32901.0 33636.0 77020.0 82368.0 159761.0 153070.0 36035.0 35272.0 295707.0 293087.0 77931.0 71043.0 145513.0 147042.0 183176.0 187545.0 126313.0 123856.0 276028.0 282879.0 39141.0 43530.0 56394.0 50419.0 34696.0 26479.0 36265.0 35285.0 117547.0 112264.0 65852.0 60338.0 125904.0 128375.0 183404.0 181853.0 85229.0 77494.0 50752.0 58085.0 132373.0 139227.0 60543.0 67365.0 24872.0 17052.0 221579.0 214730.0 19251.0 27139.0 49612.0 55956.0 118913.0 119806.0 7256.0 1561.0 100056.0 100814.0 123436.0 135005.0 123436.0 123436.0 135005.0 135005.0
41291.0 35352.0 140242.0 138722.0 8006.0 0.0 118506.0 112852.0 2646.0 10644.0 83476.0 85227.0 180758.0 180022.0 54640.0 53805.0 106418.0 98989.0 288895.0 280661.0 23497.0 31434.0 42994.0 36255.0 215605.0 215787.0 116349.0 108340.0 66582.0 65663.0 33657.0 41577.0 62789.0 68724.0 77233.0 69012.0 42090.0 34027.0 255225.0 249337.0 70206.0 62176.0 261852.0 263742.0 77385.0 76434.0 59751.0 53324.0 23081.0 29943.0 24384.0 17608.0 75969.0 69288.0 74993.0 67141.0 38699.0 46755.0 56590.0 58489.0 100483.0 102374.0 137439.0 139286.0 258616.0 250387.0 127119.0 126265.0 121602.0 126579.0 264269.0 271558.0 156848.0 157892.0 220415.0 226576.0 91239.0 87964.0 41484.0 36812.0 45279.0 50547.0 128004.0 123621.0 142101.0 138867.0 111358.0 103853.0 120119.0 128005.0 52379.0 60806.0 223676.0 230607.0 111647.0 110544.0 32016.0 36545.0 41818.0 44102.0 138396.0 145645.0 96768.0 89136.0 22732.0 29528.0 116389.0 110430.0 118678.0 116680.0 48517.0 55794.0 31168.0 39608.0 125520.0 128536.0 57679.0 65683.0 86073.0 85967.0 290852.0 289818.0 132263.0 135356.0 203557.0 195921.0 9070.0 13770.0 82843.0 74871.0 81968.0 73675.0 66878.0 69158.0 61296.0 55357.0 132224.0 131233.0 102024.0 105488.0 97813.0 90216.0 26141.0 28213.0 70153.0 75198.0 167757.0 161074.0 32445.0 33472.0 303523.0 300944.0 73830.0 66591.0 141968.0 143905.0 190630.0 195099.0 120249.0 117470.0 283732.0 290585.0 47132.0 51355.0 64399.0 58372.0 35229.0 26675.0 34234.0 35054.0 112145.0 107200.0 65403.0 59203.0 133804.0 136337.0 191219.0 189737.0 77819.0 70048.0 47701.0 54460.0 139672.0 146618.0 62098.0 69430.0 32440.0 24540.0 229580.0 222735.0 11428.0 19190.0 56658.0 62560.0 115843.0 117213.0 14880.0 6700.0 107153.0 108173.0 122800.0 142135.0 122800.0 122800.0 142135.0 142135.0
119385.0 113448.0 255783.0 253047.0 122685.0 118506.0 0.0 7927.0 116010.0 108788.0 82408.0 90428.0 257176.0 259511.0 151947.0 145227.0 12431.0 19535.0 355129.0 347194.0 95612.0 87696.0 143503.0 141689.0 273093.0 275808.0 208662.0 202806.0 137163.0 143512.0 87935.0 81246.0 166896.0 174906.0 41364.0 49518.0 88258.0 93772.0 316408.0 312246.0 168268.0 162274.0 321550.0 321759.0 177709.0 172619.0 147992.0 147468.0 108280.0 100942.0 112971.0 117740.0 148345.0 140155.0 70489.0 74932.0 79829.0 71769.0 127140.0 120347.0 174433.0 170525.0 221997.0 227176.0 315206.0 307039.0 14177.0 8764.0 174340.0 182344.0 324172.0 332057.0 262959.0 261813.0 279730.0 284216.0 31851.0 31470.0 100117.0 95932.0 128371.0 124669.0 237309.0 234750.0 30719.0 23756.0 52132.0 54954.0 187364.0 194553.0 154173.0 160136.0 297859.0 302907.0 20418.0 13538.0 133683.0 141689.0 134599.0 128646.0 36858.0 44010.0 44359.0 50205.0 132032.0 140113.0 231251.0 224421.0 25791.0 33265.0 128029.0 134069.0 142143.0 149035.0 32612.0 40607.0 103015.0 104983.0 197570.0 194815.0 348535.0 346595.0 250454.0 253793.0 281454.0 274853.0 116410.0 123169.0 180629.0 174238.0 48315.0 53560.0 135400.0 143283.0 163427.0 161379.0 25501.0 18722.0 28077.0 20325.0 37857.0 43598.0 95068.0 90574.0 140571.0 138008.0 245596.0 241451.0 86653.0 88803.0 361462.0 360333.0 169593.0 161787.0 26044.0 31558.0 243701.0 249557.0 37740.0 44860.0 340323.0 347176.0 149529.0 157078.0 160139.0 151723.0 94372.0 99517.0 87568.0 91891.0 23189.0 18996.0 178340.0 170758.0 207853.0 213987.0 253659.0 255840.0 73074.0 75943.0 72475.0 64713.0 192965.0 200956.0 179213.0 187027.0 143751.0 137465.0 303774.0 298825.0 110594.0 107758.0 134417.0 131612.0 18777.0 26267.0 128946.0 122612.0 164241.0 170558.0 64505.0 192835.0 64505.0 64505.0 192835.0 192835.0
116018.0 109762.0 249227.0 246356.0 117358.0 112852.0 7927.0 0.0 110317.0 102933.0 74484.0 82510.0 256185.0 258303.0 148350.0 141887.0 6880.0 15070.0 354969.0 347070.0 90286.0 82457.0 136537.0 134941.0 273009.0 275725.0 206112.0 200038.0 129490.0 135919.0 81589.0 74670.0 159860.0 167913.0 35664.0 43924.0 81254.0 87029.0 316324.0 312162.0 164865.0 158641.0 321467.0 321676.0 170462.0 165263.0 140595.0 140243.0 101697.0 94191.0 108610.0 112997.0 140620.0 132462.0 62618.0 67189.0 74324.0 66292.0 124583.0 118069.0 166617.0 162660.0 220150.0 225113.0 315123.0 306955.0 21991.0 16558.0 174146.0 182074.0 324089.0 331973.0 255693.0 254451.0 279646.0 284132.0 24343.0 25025.0 96752.0 92079.0 125072.0 121786.0 230262.0 227826.0 32058.0 26682.0 45155.0 47480.0 186388.0 193718.0 150300.0 156529.0 297249.0 302461.0 24167.0 16208.0 129418.0 137374.0 127494.0 121396.0 35263.0 42921.0 36518.0 42278.0 127251.0 135389.0 224655.0 217750.0 20478.0 27215.0 124940.0 131265.0 137419.0 144523.0 38864.0 46807.0 95343.0 97178.0 190773.0 187864.0 348451.0 346511.0 244446.0 247933.0 280485.0 273772.0 111203.0 118152.0 177391.0 170809.0 40552.0 46082.0 133264.0 141013.0 159658.0 157285.0 24576.0 19874.0 29373.0 21744.0 38942.0 43503.0 88856.0 84746.0 132867.0 130212.0 244425.0 240062.0 81414.0 84128.0 361378.0 360250.0 162243.0 154470.0 33769.0 39479.0 243617.0 249474.0 32115.0 38598.0 340239.0 347092.0 145540.0 152956.0 156787.0 148390.0 90310.0 94962.0 82855.0 87668.0 16390.0 11157.0 171725.0 164083.0 206645.0 212580.0 253575.0 255592.0 65163.0 68126.0 67755.0 59779.0 192881.0 200872.0 173036.0 180921.0 139022.0 132525.0 303189.0 298074.0 104554.0 101373.0 131657.0 129316.0 23799.0 31391.0 123789.0 117209.0 163574.0 169652.0 68264.0 192751.0 68264.0 68264.0 192751.0 192751.0
41849.0 35560.0 142375.0 140761.0 10152.0 2646.0 116010.0 110317.0 0.0 8006.0 81084.0 82953.0 182675.0 182013.0 56607.0 55480.0 103900.0 96501.0 290727.0 282493.0 21268.0 29148.0 43455.0 36989.0 217097.0 217363.0 118514.0 110540.0 65814.0 65214.0 31013.0 38933.0 63842.0 69981.0 74714.0 66504.0 39571.0 31524.0 256887.0 251043.0 72345.0 64336.0 263473.0 265305.0 78323.0 77117.0 59738.0 53548.0 21103.0 27654.0 24539.0 18360.0 75455.0 68588.0 72441.0 64608.0 36237.0 44285.0 57312.0 58859.0 100339.0 102023.0 139456.0 141396.0 260088.0 251921.0 124715.0 123800.0 122630.0 127731.0 265899.0 273214.0 158416.0 159350.0 221975.0 228088.0 88636.0 85410.0 40809.0 35729.0 46303.0 51257.0 129699.0 125422.0 139500.0 136298.0 108732.0 101237.0 121567.0 129478.0 54526.0 62924.0 225615.0 232513.0 109335.0 108145.0 33806.0 38665.0 41642.0 43443.0 135761.0 143006.0 94123.0 86496.0 24855.0 31880.0 118446.0 112410.0 116051.0 114038.0 49449.0 56868.0 33563.0 41999.0 123340.0 126448.0 55716.0 63764.0 87809.0 87511.0 292421.0 291329.0 134667.0 137815.0 205551.0 197927.0 9609.0 15469.0 85046.0 77087.0 79322.0 71030.0 67765.0 70323.0 63531.0 57709.0 129614.0 128655.0 99767.0 103142.0 95688.0 88136.0 23503.0 25632.0 69451.0 74279.0 169681.0 163045.0 30147.0 31576.0 305111.0 302585.0 74461.0 67101.0 139559.0 141561.0 191889.0 196438.0 117604.0 114827.0 285205.0 292054.0 49250.0 53668.0 66401.0 60205.0 33957.0 25416.0 32274.0 33564.0 109526.0 104608.0 67177.0 60820.0 135518.0 138162.0 192815.0 191421.0 75302.0 67541.0 45453.0 52090.0 140829.0 147839.0 64305.0 71714.0 34867.0 26981.0 231527.0 224716.0 9099.0 17027.0 57729.0 63372.0 113519.0 114977.0 17247.0 9010.0 108191.0 109386.0 120994.0 143177.0 120994.0 120994.0 143177.0 143177.0
45100.0 38004.0 148505.0 146594.0 17698.0 10644.0 108788.0 102933.0 8006.0 0.0 73642.0 75846.0 189031.0 188560.0 63258.0 61440.0 96595.0 89325.0 296825.0 288592.0 15938.0 23219.0 45090.0 39568.0 222296.0 222792.0 125536.0 117654.0 63407.0 63793.0 23022.0 30938.0 66937.0 73626.0 67432.0 59278.0 31833.0 23863.0 262534.0 256809.0 79359.0 71414.0 269008.0 270680.0 80972.0 79010.0 59701.0 54305.0 15697.0 20785.0 27289.0 22983.0 73746.0 66366.0 64586.0 56802.0 29358.0 37308.0 60791.0 61344.0 99617.0 100666.0 146094.0 148268.0 265228.0 257060.0 117853.0 116698.0 126648.0 132083.0 271457.0 278841.0 162759.0 163350.0 227361.0 233336.0 80949.0 77960.0 40494.0 34232.0 50713.0 54771.0 134474.0 130531.0 131814.0 128758.0 100731.0 93248.0 126737.0 134703.0 61599.0 69907.0 232012.0 238821.0 102840.0 101316.0 40218.0 45745.0 41425.0 41693.0 127897.0 135109.0 86133.0 78492.0 32055.0 39454.0 124360.0 118095.0 108231.0 106118.0 53576.0 61296.0 41211.0 49619.0 117317.0 120751.0 49642.0 57785.0 92802.0 91927.0 297804.0 296552.0 141687.0 145022.0 212099.0 204508.0 14858.0 22139.0 92186.0 84268.0 71362.0 63078.0 71604.0 74895.0 70779.0 65220.0 121883.0 121077.0 93490.0 96522.0 89912.0 82542.0 15497.0 18214.0 67213.0 71337.0 176060.0 169552.0 24136.0 27254.0 310543.0 308163.0 76219.0 68559.0 132665.0 134916.0 196460.0 201228.0 109647.0 106828.0 290344.0 297161.0 56277.0 61104.0 73105.0 66525.0 31877.0 23792.0 27674.0 30720.0 101754.0 96971.0 72369.0 65586.0 141379.0 144309.0 198310.0 197157.0 67532.0 59799.0 39434.0 45512.0 145173.0 152351.0 70791.0 78417.0 42569.0 34731.0 237945.0 231223.0 4124.0 11147.0 62139.0 67041.0 106976.0 108757.0 24938.0 16766.0 112272.0 113945.0 116316.0 147199.0 116316.0 116316.0 147199.0 147199.0
112483.0 104497.0 194468.0 189927.0 91195.0 83476.0 82408.0 74484.0 81084.0 73642.0 0.0 8154.0 261108.0 261103.0 136481.0 133682.0 72166.0 70561.0 367838.0 359630.0 72873.0 69729.0 82275.0 84581.0 290302.0 291691.0 198996.0 191203.0 62011.0 69799.0 54109.0 47835.0 102234.0 110421.0 58403.0 57545.0 42128.0 49836.0 332051.0 326791.0 152874.0 144985.0 338063.0 339094.0 108745.0 101991.0 78099.0 80985.0 61408.0 53643.0 96387.0 95181.0 71391.0 64349.0 16000.0 19698.0 62847.0 60525.0 127164.0 124540.0 94859.0 89906.0 218939.0 221508.0 332903.0 324736.0 96383.0 90860.0 191420.0 198022.0 340596.0 348213.0 191327.0 188784.0 296064.0 301457.0 53008.0 58491.0 98446.0 90527.0 120275.0 121791.0 169446.0 168780.0 88382.0 90155.0 41161.0 33508.0 195742.0 203761.0 135182.0 143419.0 304081.0 310626.0 91554.0 84910.0 113427.0 119357.0 71940.0 63920.0 78344.0 83016.0 38573.0 32230.0 105696.0 112962.0 170158.0 162508.0 64576.0 57898.0 122274.0 130228.0 114638.0 123078.0 109301.0 116384.0 32461.0 29047.0 134949.0 129925.0 366126.0 364291.0 196765.0 201947.0 284592.0 277094.0 88171.0 95726.0 165772.0 157879.0 36668.0 36621.0 138241.0 143519.0 144416.0 138787.0 78692.0 82844.0 88493.0 85241.0 92809.0 90303.0 59745.0 63254.0 64488.0 59751.0 248236.0 242054.0 69221.0 77135.0 379013.0 377232.0 99207.0 92475.0 107640.0 113908.0 262108.0 267753.0 58008.0 50999.0 358019.0 364872.0 129846.0 134715.0 146330.0 139275.0 87284.0 84905.0 76012.0 84010.0 61910.0 63503.0 119700.0 111766.0 212347.0 216038.0 267628.0 267324.0 11595.0 16065.0 69095.0 64579.0 210763.0 218466.0 127118.0 135340.0 115916.0 108013.0 310056.0 303581.0 72048.0 64525.0 130978.0 133474.0 93744.0 99999.0 98327.0 90092.0 177769.0 181142.0 125530.0 211398.0 125530.0 125530.0 211398.0 211398.0
116427.0 108464.0 190567.0 185773.0 93105.0 85227.0 90428.0 82510.0 82953.0 75846.0 8154.0 0.0 264361.0 264142.0 139057.0 136710.0 80285.0 78714.0 371536.0 363317.0 76692.0 74262.0 79803.0 82814.0 294733.0 295925.0 201375.0 193460.0 56847.0 64850.0 57874.0 52298.0 98647.0 106736.0 66235.0 65007.0 45225.0 52439.0 336165.0 330780.0 155194.0 147226.0 342297.0 343477.0 104226.0 97218.0 73903.0 77476.0 62545.0 55300.0 99846.0 98027.0 65513.0 58936.0 23552.0 25682.0 67940.0 66353.0 131405.0 129191.0 88005.0 82753.0 221798.0 224101.0 337413.0 329246.0 104437.0 98839.0 196241.0 202678.0 344810.0 352375.0 185767.0 182986.0 300348.0 305874.0 61161.0 66604.0 103263.0 95289.0 123917.0 125885.0 164631.0 164286.0 95450.0 97558.0 47481.0 40213.0 199812.0 207837.0 137409.0 145746.0 307358.0 314014.0 99706.0 93060.0 115986.0 121541.0 69521.0 61372.0 84980.0 89267.0 46404.0 40303.0 107770.0 114744.0 166440.0 158716.0 72019.0 65112.0 126094.0 134062.0 116337.0 124765.0 117454.0 124532.0 30605.0 25382.0 131286.0 125924.0 370547.0 368768.0 193964.0 199369.0 287666.0 280117.0 90606.0 97979.0 167974.0 160028.0 44792.0 44431.0 142525.0 147488.0 146482.0 140555.0 85921.0 90360.0 96581.0 93385.0 100765.0 98094.0 62821.0 67137.0 58991.0 53659.0 251439.0 245105.0 73842.0 81898.0 383409.0 381485.0 94522.0 88122.0 115542.0 121896.0 266947.0 272446.0 64863.0 57527.0 362530.0 369383.0 132100.0 136581.0 148912.0 142112.0 92020.0 89011.0 80842.0 88809.0 69646.0 71489.0 116899.0 109034.0 215947.0 219392.0 271738.0 271216.0 19362.0 22189.0 75039.0 71051.0 215511.0 223144.0 125243.0 133406.0 117544.0 109647.0 313317.0 306727.0 73855.0 66061.0 134834.0 137756.0 101896.0 108150.0 100103.0 91911.0 182431.0 185530.0 133371.0 216364.0 133371.0 133371.0 216364.0 216364.0
149212.0 157144.0 209604.0 215606.0 172762.0 180758.0 257176.0 256185.0 182675.0 189031.0 261108.0 264361.0 0.0 7469.0 126127.0 127688.0 249639.0 241756.0 108600.0 100391.0 188325.0 192381.0 208713.0 201217.0 54303.0 48806.0 67821.0 76222.0 241499.0 237428.0 207010.0 213647.0 211974.0 210819.0 228054.0 221658.0 219204.0 211943.0 79539.0 72372.0 111451.0 119478.0 87382.0 91543.0 223705.0 228636.0 227214.0 219125.0 203777.0 209816.0 164722.0 166399.0 247436.0 243351.0 249097.0 242335.0 200405.0 205409.0 135825.0 140536.0 263911.0 269076.0 44185.0 45121.0 92764.0 84692.0 256564.0 260661.0 85164.0 77051.0 89340.0 95434.0 255067.0 261379.0 53379.0 61356.0 245775.0 238524.0 165870.0 173094.0 140984.0 140481.0 229470.0 221457.0 287766.0 280851.0 277849.0 272132.0 69817.0 62710.0 128969.0 120502.0 42998.0 49860.0 239138.0 243976.0 148907.0 144453.0 214272.0 220045.0 290809.0 298656.0 260650.0 255413.0 158134.0 152492.0 203145.0 204872.0 272060.0 274158.0 139277.0 131442.0 151355.0 143531.0 240577.0 237927.0 238390.0 246431.0 204904.0 211784.0 117085.0 118355.0 181263.0 175665.0 24302.0 17897.0 174174.0 167226.0 100071.0 107872.0 245964.0 238616.0 125397.0 118804.0 121110.0 128439.0 280710.0 275541.0 229535.0 237039.0 219994.0 213615.0 201562.0 197935.0 244178.0 250983.0 13010.0 20324.0 193065.0 185836.0 128690.0 124520.0 227798.0 224756.0 268373.0 264880.0 59167.0 54433.0 279183.0 280109.0 115679.0 120850.0 133986.0 131540.0 116437.0 122522.0 176070.0 176717.0 187124.0 179416.0 265036.0 257375.0 194985.0 197135.0 49849.0 45140.0 32136.0 24084.0 252930.0 245799.0 198634.0 206120.0 70330.0 63927.0 178520.0 175711.0 150555.0 157920.0 48957.0 42617.0 191607.0 199627.0 130757.0 129949.0 242769.0 238309.0 166435.0 174155.0 93172.0 86621.0 224357.0 75676.0 224357.0 224357.0 75676.0 75676.0
149721.0 157598.0 204104.0 210243.0 172017.0 180022.0 259511.0 258303.0 182013.0 188560.0 261103.0 264142.0 7469.0 0.0 125406.0 127453.0 251700.0 243754.0 110584.0 102439.0 188485.0 192806.0 206719.0 199309.0 61064.0 55163.0 65473.0 73906.0 239761.0 235477.0 207068.0 213855.0 209190.0 207767.0 229529.0 222966.0 219084.0 211704.0 83679.0 76255.0 110225.0 118289.0 91704.0 96258.0 220623.0 225739.0 225084.0 216995.0 203090.0 209336.0 164797.0 166115.0 245393.0 241532.0 249406.0 242516.0 200963.0 206195.0 136779.0 141830.0 261246.0 266575.0 42641.0 42254.0 98389.0 90427.0 259284.0 263212.0 88963.0 80935.0 93533.0 99264.0 249903.0 256321.0 59599.0 67585.0 247263.0 240132.0 166817.0 173885.0 141305.0 141220.0 224679.0 216655.0 290017.0 283229.0 278877.0 273008.0 72334.0 65648.0 127913.0 119432.0 44020.0 51456.0 241751.0 246401.0 148353.0 143563.0 212574.0 218539.0 292739.0 300598.0 261746.0 256326.0 157323.0 151402.0 198274.0 200220.0 273819.0 275712.0 139772.0 132028.0 150185.0 142212.0 243592.0 240959.0 237701.0 245695.0 201089.0 208095.0 121241.0 122907.0 175634.0 169888.0 23540.0 15995.0 173707.0 166613.0 98424.0 106330.0 246947.0 239483.0 126587.0 119714.0 119742.0 126887.0 282776.0 277772.0 232024.0 239461.0 222555.0 216023.0 201430.0 198070.0 242350.0 249272.0 13949.0 19050.0 193520.0 186445.0 132540.0 128027.0 224991.0 222179.0 271326.0 267889.0 66595.0 61902.0 280687.0 281398.0 120759.0 125641.0 133026.0 130157.0 115624.0 122060.0 176801.0 177087.0 187750.0 180135.0 266770.0 259182.0 191779.0 194197.0 51665.0 46017.0 39554.0 31437.0 253167.0 245945.0 199627.0 207229.0 75135.0 69134.0 175288.0 172187.0 149317.0 156812.0 49785.0 42722.0 191007.0 199014.0 131375.0 131050.0 245447.0 241166.0 165540.0 173378.0 96065.0 89183.0 227389.0 80817.0 227389.0 227389.0 80817.0 80817.0
32741.0 38593.0 140952.0 142631.0 46640.0 54640.0 151947.0 148350.0 56607.0 63258.0 136481.0 139057.0 126127.0 125406.0 0.0 8448.0 141473.0 133305.0 234376.0 226143.0 65233.0 70988.0 86626.0 78796.0 162842.0 162439.0 62577.0 54987.0 117367.0 114410.0 83023.0 90341.0 96635.0 98600.0 114509.0 106733.0 94355.0 86724.0 201328.0 195244.0 16972.0 10343.0 208159.0 210384.0 110856.0 113441.0 105502.0 97646.0 77691.0 83996.0 41918.0 41384.0 124766.0 119574.0 125908.0 118577.0 79726.0 86389.0 31199.0 39149.0 145212.0 148979.0 82867.0 85057.0 205963.0 197796.0 156497.0 158032.0 75548.0 78514.0 210524.0 217674.0 172235.0 175727.0 167153.0 173636.0 131558.0 125853.0 51886.0 56337.0 24129.0 30089.0 142240.0 135564.0 180095.0 174971.0 158794.0 152073.0 68563.0 76041.0 6325.0 8189.0 169036.0 175983.0 138860.0 140752.0 23075.0 18501.0 90327.0 95199.0 179505.0 187251.0 142457.0 135918.0 32019.0 27074.0 121781.0 118786.0 159600.0 159620.0 25589.0 23314.0 26366.0 20250.0 147649.0 147773.0 112307.0 120323.0 104006.0 108040.0 237423.0 236758.0 122591.0 122483.0 148945.0 141325.0 48452.0 41220.0 30015.0 22698.0 127224.0 119161.0 32230.0 27523.0 12021.0 14403.0 171214.0 168137.0 128347.0 134294.0 120770.0 112872.0 76786.0 74489.0 120429.0 126645.0 113124.0 106441.0 71872.0 66253.0 249972.0 247113.0 111739.0 106650.0 170813.0 170256.0 140106.0 143739.0 164039.0 163067.0 231080.0 237814.0 8792.0 12569.0 9856.0 5542.0 58369.0 55603.0 67615.0 61308.0 152558.0 145969.0 86430.0 84839.0 79869.0 81903.0 137808.0 135814.0 129354.0 121855.0 81884.0 90064.0 91131.0 97110.0 72976.0 75410.0 26005.0 32452.0 174940.0 168109.0 65608.0 73610.0 23619.0 31617.0 143121.0 141648.0 40376.0 48027.0 61822.0 60056.0 135822.0 95068.0 135822.0 135822.0 95068.0 95068.0
25870.0 32553.0 148817.0 150312.0 45967.0 53805.0 145227.0 141887.0 55480.0 61440.0 133682.0 136710.0 127688.0 127453.0 8448.0 0.0 135007.0 126819.0 235389.0 227155.0 61401.0 66504.0 89048.0 81209.0 161988.0 162022.0 66473.0 59384.0 118537.0 116132.0 79746.0 86758.0 100798.0 103335.0 108588.0 100983.0 91633.0 84275.0 201422.0 195563.0 23057.0 18022.0 208051.0 209986.0 115294.0 117394.0 107820.0 100141.0 76508.0 82202.0 37685.0 38711.0 126547.0 120909.0 122402.0 115298.0 75085.0 81334.0 22764.0 30739.0 148065.0 151435.0 85279.0 88186.0 205042.0 196848.0 149346.0 151102.0 71388.0 75102.0 210465.0 217754.0 179186.0 182472.0 166667.0 172911.0 125864.0 119879.0 45145.0 50288.0 16859.0 21982.0 149142.0 142619.0 173767.0 168431.0 154164.0 147661.0 66765.0 74530.0 14134.0 15823.0 170685.0 177428.0 131623.0 133775.0 21876.0 20297.0 91848.0 96113.0 173615.0 181404.0 137570.0 131303.0 32098.0 29153.0 129247.0 126009.0 153785.0 154124.0 17702.0 14868.0 29023.0 24939.0 139970.0 139910.0 111007.0 119115.0 110206.0 113856.0 237087.0 236140.0 130857.0 130841.0 150966.0 143437.0 46615.0 40051.0 35535.0 29041.0 122387.0 114454.0 24302.0 20676.0 20213.0 22673.0 165059.0 161727.0 121111.0 127232.0 113325.0 105477.0 73979.0 70892.0 121772.0 127640.0 114746.0 108408.0 67326.0 61124.0 249740.0 247139.0 115531.0 110028.0 163547.0 162785.0 137987.0 142035.0 158662.0 158029.0 230159.0 236999.0 14016.0 20247.0 14913.0 6503.0 52594.0 50829.0 62483.0 55692.0 146712.0 139937.0 91985.0 89815.0 80042.0 82873.0 137437.0 135944.0 126020.0 118672.0 76242.0 84370.0 87993.0 94404.0 79265.0 82234.0 29124.0 34127.0 176634.0 170017.0 64211.0 72221.0 15185.0 23308.0 135862.0 134167.0 40534.0 47460.0 57251.0 56477.0 127741.0 91411.0 127741.0 127741.0 91411.0 91411.0
109139.0 102886.0 243374.0 240620.0 110790.0 106418.0 12431.0 6880.0 103900.0 96595.0 72166.0 80285.0 249639.0 251700.0 141473.0 135007.0 0.0 8193.0 348813.0 340894.0 83708.0 75844.0 131087.0 129258.0 266797.0 269513.0 199274.0 193181.0 125277.0 131493.0 75556.0 68824.0 154491.0 162492.0 29186.0 37413.0 75857.0 81341.0 310112.0 305950.0 157985.0 151765.0 315255.0 315464.0 165378.0 160352.0 135761.0 135131.0 95860.0 88511.0 101796.0 106255.0 136561.0 128306.0 59345.0 63281.0 67807.0 59757.0 117756.0 111281.0 162887.0 159189.0 213413.0 218338.0 308911.0 300744.0 24808.0 20997.0 167879.0 175775.0 317877.0 325762.0 250630.0 249539.0 273434.0 277920.0 20025.0 19041.0 89873.0 85209.0 118193.0 114928.0 224904.0 222325.0 38893.0 33534.0 46455.0 47619.0 179862.0 187231.0 143437.0 149652.0 290808.0 296071.0 21669.0 13805.0 122594.0 130557.0 122216.0 116325.0 41398.0 49167.0 35402.0 40038.0 120521.0 128648.0 218835.0 211996.0 24795.0 30407.0 118068.0 124412.0 130678.0 137740.0 38250.0 45942.0 91154.0 93460.0 185139.0 182394.0 342239.0 340299.0 238212.0 241617.0 273941.0 267199.0 104591.0 111483.0 170512.0 163929.0 36852.0 41508.0 126494.0 134220.0 152789.0 150443.0 31077.0 26741.0 24611.0 17546.0 33760.0 37602.0 82730.0 78387.0 128743.0 126416.0 237834.0 233417.0 74800.0 77362.0 355166.0 354038.0 157324.0 149496.0 38165.0 42937.0 237406.0 243262.0 35632.0 41171.0 334027.0 340880.0 138686.0 146116.0 149907.0 141510.0 83455.0 88176.0 76096.0 80829.0 19196.0 11738.0 165920.0 158332.0 200051.0 205937.0 247351.0 249277.0 62245.0 64522.0 60989.0 53057.0 186669.0 194661.0 166900.0 174741.0 132283.0 125837.0 296755.0 291591.0 98322.0 95374.0 124807.0 122522.0 22537.0 29754.0 117164.0 110670.0 157150.0 163152.0 64593.0 186539.0 64593.0 64593.0 186539.0 186539.0
100950.0 94722.0 236689.0 234094.0 103154.0 98989.0 19535.0 15070.0 96501.0 89325.0 70561.0 78714.0 241756.0 243754.0 133305.0 126819.0 8193.0 0.0 341353.0 333412.0 76078.0 68167.0 125033.0 122886.0 259317.0 262032.0 191100.0 184994.0 120900.0 126818.0 68795.0 62373.0 148517.0 156438.0 21990.0 30049.0 70039.0 75074.0 302632.0 298440.0 149802.0 143602.0 307774.0 307983.0 159772.0 154981.0 130534.0 129530.0 89332.0 82229.0 93760.0 98345.0 132355.0 123994.0 56662.0 59679.0 60303.0 52243.0 109592.0 103155.0 159051.0 155692.0 205330.0 210219.0 301430.0 293263.0 29663.0 27424.0 160324.0 168181.0 310397.0 318281.0 244985.0 244091.0 265954.0 270440.0 17589.0 13428.0 81683.0 77062.0 110003.0 106740.0 218885.0 216119.0 47075.0 41674.0 49567.0 49419.0 172008.0 179419.0 135304.0 141485.0 283035.0 288354.0 20999.0 14763.0 114537.0 122514.0 116414.0 110820.0 49089.0 56916.0 36164.0 39195.0 112626.0 120732.0 212204.0 205457.0 31366.0 35859.0 109874.0 116227.0 122762.0 129753.0 38749.0 45873.0 86939.0 89862.0 178776.0 176254.0 334759.0 332819.0 231010.0 234302.0 266058.0 259285.0 96890.0 103687.0 162322.0 155748.0 34136.0 37338.0 118384.0 126086.0 144641.0 142350.0 39070.0 34934.0 20220.0 14953.0 28234.0 30861.0 75805.0 71115.0 124472.0 122579.0 229901.0 225430.0 67123.0 69421.0 347686.0 346557.0 151947.0 144058.0 43996.0 47742.0 229925.0 235781.0 41209.0 45721.0 326547.0 333400.0 130572.0 138029.0 141721.0 133322.0 75343.0 80196.0 68170.0 72752.0 24953.0 16888.0 159341.0 151832.0 192120.0 197952.0 239827.0 241650.0 59989.0 61320.0 53062.0 45223.0 179188.0 187173.0 159861.0 167636.0 124369.0 118007.0 288989.0 283771.0 91207.0 88610.0 116625.0 114388.0 23343.0 29454.0 109436.0 103077.0 149418.0 155331.0 60608.0 179059.0 60608.0 60608.0 179059.0 179059.0
255367.0 263355.0 305284.0 312277.0 280926.0 288895.0 355129.0 354969.0 290727.0 296825.0 367838.0 371536.0 108600.0 110584.0 234376.0 235389.0 348813.0 341353.0 0.0 8235.0 294987.0 298389.0 317217.0 309759.0 84356.0 79828.0 176031.0 184465.0 350091.0 345957.0 313798.0 320067.0 319626.0 317968.0 330239.0 324586.0 326312.0 319298.0 41035.0 43250.0 220012.0 228019.0 39744.0 44580.0 330773.0 336077.0 335638.0 327549.0 311819.0 317570.0 271692.0 273987.0 355918.0 351927.0 355098.0 348694.0 306006.0 310306.0 241011.0 244634.0 371732.0 377131.0 152736.0 152836.0 60542.0 62504.0 353323.0 357861.0 181118.0 173403.0 37325.0 30334.0 352728.0 359748.0 76524.0 74284.0 347715.0 340018.0 270668.0 278271.0 247633.0 246168.0 329872.0 321873.0 385848.0 378515.0 381390.0 376268.0 172497.0 164545.0 237442.0 228994.0 66796.0 59138.0 336257.0 341688.0 256922.0 252797.0 322868.0 328635.0 390186.0 397890.0 364054.0 359523.0 266389.0 260956.0 303349.0 306293.0 372490.0 375535.0 245564.0 237610.0 259862.0 252097.0 336985.0 334334.0 346379.0 354469.0 309968.0 317245.0 37772.0 45511.0 276458.0 269716.0 87943.0 95641.0 282003.0 275258.0 208657.0 216470.0 349891.0 342996.0 230097.0 224380.0 229697.0 237039.0 379468.0 373770.0 327120.0 334812.0 317399.0 311665.0 308756.0 304599.0 352752.0 359579.0 121574.0 128799.0 298991.0 291409.0 38726.0 30736.0 335401.0 332718.0 364784.0 361288.0 117041.0 109278.0 380746.0 382597.0 54703.0 51147.0 242397.0 240126.0 224784.0 230529.0 281392.0 282969.0 292640.0 284740.0 365664.0 357732.0 301820.0 304526.0 155600.0 152565.0 101650.0 100780.0 359104.0 352230.0 302930.0 309944.0 162168.0 154187.0 285327.0 281789.0 259091.0 266390.0 61399.0 69235.0 299566.0 307585.0 236861.0 234821.0 339686.0 334828.0 274748.0 282347.0 192902.0 188087.0 320764.0 164164.0 320764.0 320764.0 164164.0 164164.0
247163.0 255151.0 297994.0 304932.0 272691.0 280661.0 347194.0 347070.0 282493.0 288592.0 359630.0 363317.0 100391.0 102439.0 226143.0 227155.0 340894.0 333412.0 8235.0 0.0 286776.0 290195.0 309034.0 301569.0 76973.0 72147.0 167868.0 176301.0 341888.0 337770.0 305585.0 311864.0 311534.0 309918.0 322186.0 316503.0 318092.0 311072.0 34353.0 35737.0 211791.0 219797.0 34295.0 40002.0 322732.0 328006.0 327468.0 319378.0 303584.0 309338.0 263472.0 265756.0 347740.0 343730.0 346911.0 340495.0 297825.0 302149.0 232829.0 236483.0 363630.0 369006.0 144539.0 144693.0 56123.0 57170.0 345388.0 349926.0 173136.0 165392.0 32114.0 26140.0 345356.0 352334.0 68999.0 67162.0 339678.0 331996.0 262504.0 270098.0 239417.0 237974.0 322301.0 314296.0 377913.0 370580.0 373296.0 368150.0 164334.0 156390.0 229215.0 220768.0 58739.0 51018.0 328322.0 333753.0 248687.0 244565.0 314663.0 320419.0 382275.0 389988.0 355962.0 351403.0 258155.0 252728.0 295771.0 298639.0 364525.0 367530.0 237356.0 229402.0 251636.0 243877.0 329050.0 326399.0 338145.0 346235.0 302072.0 309322.0 38521.0 45743.0 269158.0 262473.0 79904.0 87582.0 273770.0 267023.0 200455.0 208263.0 341776.0 334862.0 221923.0 216183.0 221480.0 228830.0 371580.0 365835.0 319185.0 326877.0 309464.0 303730.0 300534.0 296389.0 344555.0 351373.0 113360.0 120605.0 290800.0 283227.0 42065.0 34444.0 327316.0 324599.0 356850.0 353353.0 109680.0 101845.0 372734.0 374547.0 53717.0 51322.0 234167.0 231910.0 216553.0 222294.0 273215.0 274767.0 284460.0 276564.0 357688.0 349765.0 293792.0 296454.0 147376.0 144331.0 93637.0 92635.0 350911.0 344029.0 294791.0 301823.0 154244.0 146271.0 277297.0 273810.0 250867.0 258162.0 53428.0 61327.0 291332.0 299351.0 228655.0 226645.0 331751.0 326894.0 266515.0 274113.0 184836.0 179969.0 312829.0 156343.0 312829.0 312829.0 156343.0 156343.0
39735.0 31778.0 163637.0 161966.0 27083.0 23497.0 95612.0 90286.0 21268.0 15938.0 72873.0 76692.0 188325.0 188485.0 65233.0 61401.0 83708.0 76078.0 294987.0 286776.0 0.0 7986.0 60629.0 55412.0 218176.0 219260.0 127620.0 120188.0 75387.0 76917.0 18826.0 25384.0 82809.0 89557.0 54637.0 46374.0 31667.0 25727.0 259475.0 254097.0 82116.0 74625.0 265627.0 266875.0 96718.0 94482.0 74135.0 69332.0 26800.0 27157.0 23735.0 24509.0 86403.0 78522.0 61013.0 54032.0 16095.0 24024.0 54851.0 53399.0 113096.0 113457.0 146585.0 149583.0 260920.0 252753.0 103803.0 103185.0 120371.0 126479.0 268135.0 275688.0 178685.0 179287.0 223701.0 229304.0 69765.0 65686.0 28952.0 21399.0 47404.0 49230.0 150327.0 146283.0 120350.0 116619.0 93857.0 86950.0 123122.0 131147.0 65115.0 72807.0 231274.0 237776.0 88170.0 87221.0 42879.0 50079.0 56022.0 54996.0 117641.0 125126.0 77971.0 71035.0 37997.0 46179.0 139668.0 133561.0 97712.0 96543.0 49436.0 57401.0 48172.0 55988.0 102072.0 105235.0 55164.0 63185.0 108579.0 107834.0 293964.0 292303.0 155653.0 158606.0 211928.0 204479.0 20970.0 28256.0 95182.0 87580.0 62762.0 54526.0 65984.0 70797.0 74692.0 70472.0 110701.0 109125.0 78528.0 82053.0 74447.0 66942.0 15137.0 9620.0 79333.0 82427.0 175491.0 169440.0 9017.0 11518.0 306807.0 304818.0 91638.0 83865.0 118662.0 120459.0 190936.0 196192.0 100549.0 98753.0 286037.0 292889.0 59845.0 66132.0 74918.0 67328.0 18400.0 12612.0 11794.0 16286.0 90935.0 85400.0 88060.0 81409.0 139474.0 143221.0 195049.0 194555.0 64694.0 57477.0 24205.0 31124.0 139437.0 146937.0 85566.0 92926.0 49731.0 42668.0 237256.0 230852.0 19520.0 22811.0 58164.0 61226.0 92376.0 93722.0 33574.0 27007.0 106297.0 109014.0 100394.0 140747.0 100394.0 100394.0 140747.0 140747.0
43179.0 35237.0 171451.0 169691.0 34992.0 31434.0 87696.0 82457.0 29148.0 23219.0 69729.0 74262.0 192381.0 192806.0 70988.0 66504.0 75844.0 68167.0 298389.0 290195.0 7986.0 0.0 66892.0 62134.0 220594.0 221965.0 132962.0 125722.0 78888.0 81132.0 17468.0 21973.0 89521.0 96483.0 46846.0 38590.0 30499.0 26318.0 262346.0 257138.0 87952.0 80675.0 268336.0 269376.0 103150.0 100534.0 79308.0 75032.0 31413.0 29691.0 29071.0 31342.0 90228.0 82098.0 56768.0 50341.0 8818.0 16358.0 57471.0 54930.0 117336.0 117208.0 151249.0 154561.0 263225.0 255057.0 95817.0 95228.0 121991.0 128424.0 270870.0 278495.0 185805.0 186240.0 226336.0 231746.0 62338.0 57981.0 29109.0 21117.0 51514.0 52221.0 157655.0 153749.0 112737.0 108861.0 87811.0 81178.0 126086.0 134099.0 71359.0 78776.0 235239.0 241598.0 80213.0 79235.0 49260.0 56761.0 61485.0 59600.0 110349.0 117900.0 71534.0 64933.0 45269.0 53467.0 147417.0 141237.0 90387.0 89514.0 53105.0 60973.0 55480.0 63084.0 94257.0 97560.0 55556.0 63296.0 116018.0 115047.0 296418.0 294555.0 163633.0 166591.0 216166.0 208789.0 28749.0 35795.0 101003.0 93556.0 56291.0 48182.0 68525.0 74017.0 80957.0 77156.0 103169.0 101414.0 70619.0 74076.0 66734.0 59327.0 17193.0 9326.0 82880.0 85314.0 179635.0 173790.0 1044.0 7961.0 309299.0 307503.0 97637.0 89765.0 110677.0 112486.0 192692.0 198190.0 93662.0 92230.0 288341.0 295194.0 66171.0 72795.0 80503.0 72649.0 17838.0 15754.0 7257.0 14765.0 83541.0 77817.0 95582.0 88793.0 143151.0 147241.0 197931.0 197750.0 60719.0 53908.0 16322.0 23142.0 141249.0 148888.0 93448.0 100853.0 57061.0 50216.0 241234.0 234975.0 26386.0 28049.0 61681.0 63761.0 84412.0 85836.0 41333.0 34962.0 108174.0 111416.0 93350.0 142168.0 93350.0 93350.0 142168.0 142168.0
83168.0 78010.0 114036.0 110436.0 47795.0 42994.0 143503.0 136537.0 43455.0 45090.0 82275.0 79803.0 208713.0 206719.0 86626.0 89048.0 131087.0 125033.0 317217.0 309034.0 60629.0 66892.0 0.0 7844.0 249079.0 248258.0 141254.0 132825.0 33864.0 28771.0 57481.0 62865.0 23531.0 31411.0 103472.0 96213.0 55283.0 50028.0 286290.0 279838.0 98213.0 90534.0 293421.0 296047.0 36298.0 33922.0 18881.0 11099.0 36822.0 42934.0 67206.0 59789.0 38733.0 35153.0 81951.0 74423.0 70452.0 77244.0 97648.0 100629.0 59153.0 62411.0 164528.0 164562.0 292227.0 284053.0 154655.0 152047.0 160115.0 164133.0 295703.0 302599.0 120434.0 120196.0 253034.0 259741.0 112466.0 112106.0 84259.0 78855.0 85360.0 91768.0 93853.0 91295.0 161167.0 160021.0 120411.0 112298.0 155171.0 162665.0 82021.0 90013.0 250721.0 258151.0 141774.0 138707.0 68368.0 68851.0 10336.0 18434.0 154244.0 160415.0 110358.0 102036.0 57895.0 59962.0 89411.0 82091.0 136280.0 131975.0 88909.0 95251.0 60362.0 66797.0 157774.0 162162.0 49815.0 54506.0 54625.0 51328.0 322942.0 322639.0 114505.0 119687.0 229846.0 222096.0 51901.0 53735.0 108721.0 101074.0 98345.0 91183.0 107021.0 107673.0 88367.0 80683.0 150909.0 152133.0 133487.0 135060.0 131534.0 124747.0 51905.0 59077.0 35929.0 43350.0 195820.0 188442.0 67628.0 72134.0 335312.0 332041.0 31152.0 23651.0 168988.0 172562.0 226693.0 230361.0 134088.0 128943.0 317315.0 323904.0 77868.0 78121.0 95054.0 91652.0 76756.0 68389.0 72405.0 75787.0 130932.0 128253.0 37521.0 29556.0 165562.0 166532.0 223668.0 221059.0 82549.0 75586.0 81982.0 86250.0 177042.0 183389.0 45826.0 53849.0 60624.0 54927.0 256414.0 249036.0 41194.0 39137.0 96108.0 103135.0 145614.0 148662.0 50175.0 46323.0 145769.0 145505.0 159981.0 180349.0 159981.0 159981.0 180349.0 180349.0
75786.0 70866.0 114500.0 111422.0 40507.0 36255.0 141689.0 134941.0 36989.0 39568.0 84581.0 82814.0 201217.0 199309.0 78796.0 81209.0 129258.0 122886.0 309759.0 301569.0 55412.0 62134.0 7844.0 0.0 241308.0 240528.0 133868.0 125447.0 40703.0 36217.0 54444.0 60513.0 27405.0 34453.0 101084.0 93549.0 54028.0 47922.0 278643.0 272221.0 90525.0 82807.0 285749.0 288338.0 41469.0 40180.0 26706.0 18932.0 33652.0 40755.0 60182.0 52598.0 46344.0 42271.0 82777.0 75005.0 66466.0 73641.0 90093.0 93262.0 66945.0 70254.0 157038.0 157199.0 284450.0 276282.0 152378.0 150119.0 152305.0 156299.0 288039.0 294959.0 123930.0 124151.0 245298.0 251984.0 111144.0 110220.0 77721.0 72671.0 77731.0 84250.0 96468.0 93311.0 160615.0 159058.0 121425.0 113335.0 147335.0 154837.0 74228.0 82255.0 243323.0 250721.0 138886.0 136217.0 60594.0 61008.0 14459.0 22276.0 154267.0 160673.0 110439.0 102136.0 50143.0 52118.0 89866.0 82839.0 135856.0 131950.0 81300.0 87548.0 52521.0 59008.0 154485.0 158571.0 52325.0 57879.0 55894.0 53668.0 315249.0 314910.0 112989.0 117775.0 222489.0 214740.0 44976.0 46323.0 101176.0 93483.0 97753.0 90267.0 99350.0 99897.0 80683.0 73038.0 150375.0 151178.0 130267.0 132254.0 127802.0 120795.0 48227.0 54903.0 43077.0 50243.0 188305.0 180966.0 62938.0 66817.0 327638.0 324405.0 37594.0 30540.0 166880.0 170119.0 218853.0 222534.0 134350.0 129597.0 309548.0 316153.0 70043.0 70402.0 87265.0 83812.0 70743.0 62269.0 67199.0 70002.0 130243.0 127110.0 37039.0 29228.0 157821.0 158864.0 215930.0 213372.0 83791.0 76518.0 77719.0 82547.0 169203.0 175545.0 42537.0 50760.0 52792.0 47092.0 249036.0 241693.0 35901.0 35164.0 88403.0 95512.0 142821.0 145518.0 42529.0 39074.0 137969.0 137670.0 155476.0 172526.0 155476.0 155476.0 172526.0 172526.0
178550.0 186440.0 262412.0 268088.0 207882.0 215605.0 273093.0 273009.0 217097.0 222296.0 290302.0 294733.0 54303.0 61064.0 162842.0 161988.0 266797.0 259317.0 84356.0 76973.0 218176.0 220594.0 249079.0 241308.0 0.0 8428.0 114158.0 121920.0 280190.0 277192.0 236924.0 242549.0 255761.0 255716.0 248815.0 243667.0 249839.0 243398.0 43952.0 41243.0 151139.0 158616.0 48507.0 48819.0 268597.0 272710.0 267938.0 259959.0 237819.0 242629.0 195810.0 199340.0 287512.0 282415.0 276656.0 270781.0 227611.0 231112.0 163346.0 165796.0 306668.0 311049.0 90576.0 94548.0 43162.0 34974.0 271287.0 275825.0 99665.0 92531.0 51149.0 59099.0 306955.0 312958.0 8493.0 11165.0 266115.0 258291.0 191954.0 199816.0 171743.0 168958.0 280379.0 272427.0 303812.0 296479.0 300467.0 295820.0 95564.0 87623.0 167097.0 159071.0 49819.0 48298.0 254221.0 259652.0 183856.0 181197.0 253167.0 257923.0 308186.0 315914.0 283145.0 279170.0 194027.0 189907.0 254388.0 255475.0 290481.0 293672.0 169174.0 161265.0 189186.0 182305.0 254949.0 252298.0 271776.0 279942.0 252758.0 259124.0 75824.0 74256.0 234402.0 229091.0 54664.0 57164.0 207829.0 201843.0 142055.0 149045.0 269469.0 262998.0 152218.0 147664.0 160954.0 168782.0 297549.0 291734.0 245084.0 252776.0 235363.0 229629.0 232675.0 227650.0 283271.0 289423.0 62806.0 70579.0 221084.0 213185.0 88714.0 87266.0 271506.0 267507.0 282748.0 279252.0 32708.0 24935.0 298917.0 301081.0 68247.0 75015.0 171467.0 171032.0 154057.0 158191.0 203042.0 205744.0 214333.0 206338.0 283683.0 275729.0 240665.0 241732.0 83673.0 83884.0 26241.0 31698.0 280847.0 274385.0 223274.0 229817.0 80254.0 72322.0 224505.0 222812.0 188726.0 195255.0 52757.0 54678.0 225479.0 233373.0 160449.0 156985.0 257650.0 252792.0 202484.0 209394.0 112702.0 109203.0 238728.0 81174.0 238728.0 238728.0 81174.0 81174.0
179545.0 187484.0 258025.0 263864.0 207987.0 215787.0 275808.0 275725.0 217363.0 222792.0 291691.0 295925.0 48806.0 55163.0 162439.0 162022.0 269513.0 262032.0 79828.0 72147.0 219260.0 221965.0 248258.0 240528.0 8428.0 0.0 111444.0 119414.0 279779.0 276552.0 238058.0 243873.0 254189.0 253876.0 251469.0 246115.0 250884.0 244282.0 40655.0 36623.0 150093.0 157725.0 46375.0 47969.0 266778.0 271096.0 267077.0 259060.0 238219.0 243267.0 196591.0 199809.0 286823.0 281931.0 278294.0 272256.0 229174.0 232934.0 164550.0 167382.0 305411.0 309977.0 87564.0 90923.0 45141.0 36872.0 274003.0 278541.0 102101.0 94663.0 48906.0 56587.0 303013.0 309147.0 4870.0 12630.0 268802.0 260999.0 193557.0 201351.0 172458.0 170041.0 276810.0 268830.0 306527.0 299194.0 302956.0 298130.0 96206.0 88192.0 166450.0 158293.0 41402.0 40091.0 256937.0 262367.0 183892.0 180886.0 252662.0 257634.0 310902.0 318630.0 285618.0 281435.0 193933.0 189506.0 250676.0 251998.0 293131.0 296385.0 170021.0 162072.0 188701.0 181606.0 257664.0 255013.0 272380.0 280540.0 250137.0 256655.0 75065.0 74383.0 229827.0 224343.0 46836.0 49846.0 208203.0 202018.0 140489.0 147689.0 271751.0 265124.0 153454.0 148529.0 159937.0 167706.0 300265.0 294449.0 247799.0 255492.0 238079.0 232345.0 233587.0 228790.0 282782.0 289080.0 58446.0 66381.0 222489.0 214673.0 87755.0 85560.0 269978.0 266195.0 285464.0 281967.0 38419.0 30346.0 301633.0 303757.0 69542.0 75764.0 170967.0 170138.0 153428.0 157952.0 204550.0 206921.0 215848.0 207869.0 286361.0 278390.0 238605.0 239941.0 82715.0 82120.0 24631.0 28060.0 282434.0 275845.0 225240.0 231956.0 82861.0 74868.0 222338.0 220352.0 188173.0 194891.0 44441.0 46250.0 225874.0 233815.0 161273.0 158223.0 260365.0 255508.0 202394.0 209482.0 114626.0 110605.0 241444.0 84457.0 241444.0 241444.0 84457.0 84457.0
91370.0 98700.0 152154.0 156957.0 108383.0 116349.0 208662.0 206112.0 118514.0 125536.0 198996.0 201375.0 67821.0 65473.0 62577.0 66473.0 199274.0 191100.0 176031.0 167868.0 127620.0 132962.0 141254.0 133868.0 114158.0 111444.0 0.0 8434.0 174385.0 170017.0 145588.0 152850.0 144187.0 143206.0 174130.0 166794.0 156885.0 149187.0 146791.0 139894.0 46183.0 54178.0 154361.0 157845.0 156111.0 160895.0 159614.0 151524.0 139384.0 146131.0 104023.0 103961.0 179921.0 176114.0 188454.0 181151.0 141558.0 147733.0 81548.0 88388.0 196092.0 201270.0 24044.0 23354.0 156563.0 148284.0 211028.0 213721.0 66278.0 62168.0 156469.0 162907.0 194461.0 200049.0 116313.0 123779.0 191646.0 185279.0 110133.0 116164.0 82350.0 84484.0 166961.0 159095.0 238166.0 232268.0 220627.0 214131.0 45043.0 46385.0 63989.0 55630.0 109467.0 116923.0 193126.0 196396.0 85579.0 79856.0 147238.0 153362.0 238953.0 246794.0 203975.0 197771.0 93660.0 87115.0 141428.0 141932.0 219306.0 220068.0 81777.0 74951.0 85735.0 77527.0 198626.0 197005.0 173835.0 181696.0 138700.0 145222.0 184121.0 184743.0 125767.0 121832.0 88629.0 80883.0 110848.0 103398.0 33578.0 41577.0 188816.0 180915.0 73643.0 65567.0 55172.0 61903.0 229908.0 225972.0 182787.0 189591.0 174069.0 166669.0 139348.0 136979.0 176928.0 183908.0 55180.0 47500.0 133792.0 127536.0 196048.0 192163.0 160015.0 156936.0 224483.0 222529.0 100857.0 101394.0 224723.0 224350.0 180856.0 186716.0 69282.0 65444.0 52769.0 60333.0 118696.0 117302.0 128891.0 121888.0 212206.0 205140.0 127569.0 129439.0 36140.0 31902.0 87919.0 83393.0 191926.0 184432.0 142294.0 150328.0 68158.0 69096.0 111180.0 108932.0 84738.0 92442.0 115168.0 107846.0 127604.0 135522.0 74515.0 77143.0 197191.0 194292.0 101585.0 109651.0 62399.0 54637.0 183483.0 75084.0 183483.0 183483.0 75084.0 75084.0
84686.0 91831.0 146171.0 150713.0 100396.0 108340.0 202806.0 200038.0 110540.0 117654.0 191203.0 193460.0 76222.0 73906.0 54987.0 59384.0 193181.0 184994.0 184465.0 176301.0 120188.0 125722.0 132825.0 125447.0 121920.0 119414.0 8434.0 0.0 165978.0 161589.0 137986.0 145328.0 135830.0 134931.0 167596.0 160144.0 149123.0 141372.0 155084.0 148226.0 38332.0 46240.0 162617.0 166022.0 147839.0 152563.0 151180.0 143090.0 131340.0 138182.0 96700.0 96325.0 171488.0 167697.0 180883.0 173514.0 134378.0 140717.0 75717.0 82859.0 187703.0 192857.0 32296.0 31757.0 164495.0 156213.0 205594.0 208075.0 67658.0 64468.0 164743.0 171224.0 187719.0 193154.0 124283.0 131682.0 185023.0 178808.0 103663.0 109437.0 75611.0 78254.0 159896.0 152081.0 232068.0 226329.0 213490.0 206895.0 47431.0 50069.0 56056.0 47786.0 117897.0 125357.0 187697.0 190723.0 77865.0 71921.0 138841.0 145000.0 232535.0 240359.0 196948.0 190617.0 85696.0 79009.0 134606.0 134839.0 212808.0 213377.0 75280.0 68777.0 77588.0 69330.0 193780.0 192441.0 165732.0 173563.0 130839.0 137261.0 192371.0 192912.0 120344.0 116784.0 97044.0 89297.0 103032.0 95518.0 25497.0 33475.0 181755.0 173792.0 68513.0 60343.0 47070.0 53643.0 223661.0 219911.0 177298.0 183966.0 168749.0 161237.0 131637.0 129475.0 168510.0 175503.0 63539.0 55899.0 126573.0 120506.0 204340.0 200505.0 151660.0 148535.0 219234.0 217525.0 107468.0 108390.0 217968.0 217412.0 188892.0 194823.0 61377.0 57263.0 45272.0 53101.0 111874.0 110134.0 121865.0 115020.0 205715.0 198755.0 119369.0 121132.0 41956.0 38783.0 95684.0 91393.0 184298.0 176763.0 135516.0 143600.0 71795.0 73559.0 103016.0 100950.0 76558.0 84305.0 123593.0 116256.0 119637.0 127526.0 68403.0 71705.0 191808.0 189150.0 93534.0 101640.0 61999.0 54598.0 179018.0 78498.0 179018.0 179018.0 78498.0 78498.0
107650.0 101081.0 134643.0 129473.0 73555.0 66582.0 137163.0 129490.0 65814.0 63407.0 62011.0 56847.0 241499.0 239761.0 117367.0 118537.0 125277.0 120900.0 350091.0 341888.0 75387.0 78888.0 33864.0 40703.0 280190.0 279779.0 174385.0 165978.0 0.0 8186.0 63595.0 65170.0 44722.0 52174.0 101596.0 96085.0 54524.0 54013.0 318370.0 312088.0 130323.0 122432.0 325340.0 327702.0 47741.0 40478.0 19246.0 25785.0 48763.0 49248.0 90116.0 84125.0 11804.0 3281.0 67971.0 62378.0 78646.0 82993.0 123118.0 124477.0 39388.0 38364.0 197361.0 197734.0 323299.0 315129.0 150012.0 145926.0 188060.0 192805.0 327672.0 334708.0 129351.0 126990.0 284505.0 291001.0 105341.0 107474.0 103473.0 96506.0 111816.0 117064.0 107800.0 107642.0 148881.0 149494.0 103074.0 95236.0 185293.0 193010.0 113396.0 121676.0 283781.0 291122.0 140314.0 135545.0 96878.0 98996.0 27238.0 22548.0 139774.0 144832.0 97359.0 89463.0 86463.0 90293.0 110975.0 103143.0 124223.0 118414.0 115093.0 122270.0 91078.0 98351.0 157670.0 163364.0 34148.0 33507.0 76280.0 70179.0 354707.0 354119.0 140674.0 146731.0 263012.0 255267.0 75405.0 79796.0 141435.0 133633.0 88983.0 83797.0 133458.0 135472.0 120539.0 113078.0 138833.0 141793.0 133862.0 133469.0 134385.0 128915.0 61695.0 69614.0 4004.0 9542.0 228547.0 221301.0 79240.0 86106.0 367200.0 364163.0 37885.0 32177.0 163205.0 168188.0 256445.0 260573.0 119269.0 112720.0 348413.0 355177.0 108812.0 110140.0 126382.0 122014.0 93687.0 86487.0 85842.0 91665.0 120200.0 119576.0 65220.0 58067.0 197116.0 198595.0 255149.0 252939.0 66731.0 61882.0 90229.0 91586.0 205868.0 212626.0 77336.0 84790.0 91633.0 84936.0 289524.0 282231.0 59389.0 53119.0 123137.0 129134.0 143586.0 148153.0 78085.0 71995.0 173608.0 174277.0 165956.0 208560.0 165956.0 165956.0 208560.0 208560.0
106953.0 100760.0 126457.0 121302.0 72131.0 65663.0 143512.0 135919.0 65214.0 63793.0 69799.0 64850.0 237428.0 235477.0 114410.0 116132.0 131493.0 126818.0 345957.0 337770.0 76917.0 81132.0 28771.0 36217.0 277192.0 276552.0 170017.0 161589.0 8186.0 0.0 66826.0 69249.0 36865.0 44151.0 106992.0 101109.0 58946.0 57409.0 314810.0 308415.0 126669.0 118892.0 321884.0 324407.0 39572.0 32380.0 11796.0 19244.0 50121.0 51928.0 89740.0 83266.0 10427.0 7406.0 75023.0 69068.0 81741.0 86683.0 122191.0 124071.0 36216.0 36891.0 193247.0 193330.0 320304.0 312160.0 156135.0 152272.0 186422.0 190884.0 324185.0 331131.0 121770.0 119617.0 281308.0 287925.0 111661.0 113397.0 104246.0 97619.0 110506.0 116164.0 99785.0 99522.0 156104.0 156490.0 110750.0 102856.0 182733.0 190353.0 110120.0 118265.0 279483.0 286903.0 145862.0 141368.0 94760.0 96244.0 24330.0 22106.0 147237.0 152426.0 104496.0 96495.0 84254.0 87421.0 102797.0 94963.0 131349.0 125712.0 113891.0 120814.0 88043.0 94946.0 163041.0 168516.0 40765.0 41016.0 68149.0 61999.0 351350.0 350932.0 132650.0 138768.0 258616.0 250865.0 74669.0 78361.0 137393.0 129695.0 95539.0 89990.0 132248.0 133781.0 116836.0 109229.0 146005.0 148744.0 139049.0 139010.0 139106.0 133347.0 64057.0 72009.0 7946.0 15885.0 224520.0 217170.0 81578.0 87998.0 363769.0 360581.0 29741.0 24017.0 169549.0 174322.0 254109.0 258024.0 126720.0 120308.0 345439.0 352108.0 105736.0 106511.0 123156.0 119242.0 94952.0 87367.0 87857.0 93168.0 127132.0 126210.0 57626.0 50687.0 193838.0 195016.0 251937.0 249492.0 74027.0 68822.0 93482.0 95475.0 203898.0 210488.0 70333.0 77591.0 88468.0 82166.0 285181.0 277807.0 59687.0 54203.0 121681.0 128057.0 149247.0 153563.0 76030.0 70574.0 171989.0 172289.0 170149.0 206844.0 170149.0 170149.0 206844.0 206844.0
58556.0 50591.0 167896.0 165334.0 40189.0 33657.0 87935.0 81589.0 31013.0 23022.0 54109.0 57874.0 207010.0 207068.0 83023.0 79746.0 75556.0 68795.0 313798.0 305585.0 18826.0 17468.0 57481.0 54444.0 236924.0 238058.0 145588.0 137986.0 63595.0 66826.0 0.0 7924.0 80952.0 88579.0 46847.0 39143.0 13130.0 9610.0 278292.0 272922.0 99717.0 92009.0 284428.0 285644.0 93419.0 89741.0 66793.0 63820.0 20811.0 15231.0 42290.0 41664.0 75234.0 66863.0 42906.0 35581.0 15059.0 20182.0 73578.0 71736.0 102715.0 101917.0 165022.0 167816.0 279643.0 271475.0 98096.0 96180.0 138827.0 145069.0 286940.0 294501.0 177900.0 177648.0 242490.0 248058.0 58734.0 56589.0 46338.0 38382.0 66183.0 68017.0 150875.0 147738.0 109464.0 106834.0 77878.0 70521.0 141938.0 149964.0 82310.0 90306.0 249977.0 256517.0 84458.0 81832.0 60171.0 66754.0 50138.0 46485.0 105084.0 112221.0 63111.0 55505.0 53630.0 61503.0 143411.0 136695.0 85546.0 83191.0 68259.0 76225.0 63375.0 71640.0 100295.0 104738.0 38148.0 45835.0 110202.0 108089.0 312725.0 311017.0 163009.0 166717.0 230539.0 223062.0 35697.0 43474.0 112741.0 104984.0 48370.0 40105.0 84707.0 89620.0 91774.0 86869.0 99426.0 99059.0 76012.0 77811.0 74242.0 67735.0 7607.0 9274.0 67596.0 69255.0 194150.0 188019.0 17385.0 25430.0 325576.0 323618.0 86742.0 78741.0 112709.0 115730.0 209472.0 214819.0 86652.0 83818.0 304759.0 311612.0 76975.0 82618.0 92819.0 85494.0 35122.0 31185.0 24671.0 32174.0 79211.0 74848.0 90572.0 83126.0 158262.0 161931.0 213865.0 213381.0 46342.0 38928.0 26677.0 29196.0 157982.0 165537.0 91479.0 99419.0 64825.0 57157.0 255954.0 249503.0 23574.0 19825.0 76990.0 79942.0 88378.0 91209.0 47409.0 39477.0 124851.0 127735.0 103862.0 159119.0 103862.0 103862.0 159119.0 159119.0
64702.0 56715.0 174570.0 171804.0 48086.0 41577.0 81246.0 74670.0 38933.0 30938.0 47835.0 52298.0 213647.0 213855.0 90341.0 86758.0 68824.0 62373.0 320067.0 311864.0 25384.0 21973.0 62865.0 60513.0 242549.0 243873.0 152850.0 145328.0 65170.0 69249.0 7924.0 0.0 86394.0 94210.0 40636.0 33387.0 10919.0 12870.0 284218.0 278959.0 107122.0 99483.0 290248.0 291323.0 98283.0 94134.0 70476.0 68277.0 27039.0 19933.0 49116.0 49095.0 76955.0 68450.0 35645.0 28690.0 16293.0 18113.0 79333.0 76900.0 104549.0 103140.0 171967.0 174924.0 285190.0 277023.0 91901.0 89627.0 143944.0 150397.0 292776.0 300385.0 183202.0 182680.0 248259.0 253699.0 51406.0 49787.0 50984.0 43001.0 72671.0 73961.0 156641.0 153763.0 101966.0 99559.0 69988.0 62676.0 147907.0 155927.0 89830.0 97740.0 256577.0 263034.0 78992.0 75855.0 67630.0 74376.0 54772.0 50174.0 97331.0 104419.0 55196.0 47582.0 61386.0 69312.0 150016.0 143176.0 77880.0 75370.0 74541.0 82478.0 71199.0 79430.0 95339.0 100194.0 36383.0 43420.0 116406.0 113940.0 318372.0 316525.0 170306.0 174133.0 237289.0 229849.0 43464.0 51240.0 120169.0 112460.0 40506.0 32267.0 90419.0 95708.0 99334.0 94571.0 91878.0 91746.0 71054.0 72243.0 70148.0 64141.0 15474.0 15878.0 69126.0 69891.0 200832.0 194812.0 21545.0 29626.0 331249.0 329422.0 91109.0 83115.0 106368.0 109731.0 214649.0 220162.0 78776.0 75895.0 310307.0 317159.0 84507.0 90299.0 100096.0 92627.0 39729.0 37098.0 28608.0 36540.0 71636.0 67525.0 97097.0 89516.0 164659.0 168526.0 219794.0 219507.0 39313.0 32182.0 26221.0 26432.0 163216.0 170860.0 98686.0 106695.0 72661.0 65026.0 262563.0 256193.0 31346.0 26882.0 83216.0 85651.0 82783.0 86080.0 55294.0 47391.0 130146.0 133359.0 100912.0 164086.0 100912.0 100912.0 164086.0 164086.0
100042.0 96044.0 92305.0 88110.0 65784.0 62789.0 166896.0 159860.0 63842.0 66937.0 102234.0 98647.0 211974.0 209190.0 96635.0 100798.0 154491.0 148517.0 319626.0 311534.0 82809.0 89521.0 23531.0 27405.0 255761.0 254189.0 144187.0 135830.0 44722.0 36865.0 80952.0 86394.0 0.0 8262.0 126993.0 119743.0 78639.0 73552.0 290859.0 284050.0 105116.0 98203.0 298308.0 301466.0 14913.0 16982.0 25560.0 21249.0 60214.0 66464.0 85814.0 77901.0 43080.0 44241.0 103766.0 96543.0 93613.0 100582.0 113255.0 117387.0 52157.0 58057.0 168106.0 167007.0 298855.0 290603.0 178152.0 175468.0 172024.0 175145.0 300475.0 307034.0 96950.0 96889.0 259030.0 266091.0 135706.0 135540.0 104144.0 99553.0 100550.0 107708.0 70413.0 68160.0 183884.0 183013.0 141754.0 133658.0 164376.0 171421.0 91124.0 98196.0 252834.0 260519.0 165298.0 162230.0 82336.0 80709.0 32456.0 39380.0 176502.0 182435.0 132698.0 124395.0 72511.0 72166.0 67926.0 60302.0 158947.0 154332.0 104206.0 109554.0 71940.0 76423.0 181242.0 185544.0 70221.0 73408.0 32716.0 28257.0 328029.0 328286.0 96087.0 102037.0 231716.0 223998.0 71050.0 71010.0 113730.0 106753.0 121229.0 114274.0 121511.0 120796.0 95504.0 87621.0 173630.0 175130.0 156964.0 158588.0 154854.0 147962.0 75176.0 82118.0 44697.0 52560.0 199364.0 191670.0 90315.0 94191.0 340102.0 336334.0 15831.0 14420.0 192449.0 196077.0 235658.0 238631.0 156177.0 150652.0 323680.0 329932.0 87951.0 86093.0 103696.0 102056.0 97782.0 89254.0 94591.0 97198.0 153796.0 151386.0 21210.0 15586.0 172185.0 172075.0 229844.0 226452.0 103910.0 97358.0 104994.0 109557.0 187699.0 193451.0 35972.0 42191.0 71699.0 68010.0 258328.0 250680.0 63304.0 62234.0 110373.0 118128.0 169143.0 172156.0 66125.0 64507.0 158018.0 156680.0 182844.0 191700.0 182844.0 182844.0 191700.0 191700.0
104473.0 100953.0 84076.0 79848.0 71036.0 68724.0 174906.0 167913.0 69981.0 73626.0 110421.0 106736.0 210819.0 207767.0 98600.0 103335.0 162492.0 156438.0 317968.0 309918.0 89557.0 96483.0 31411.0 34453.0 255716.0 253876.0 143206.0 134931.0 52174.0 44151.0 88579.0 94210.0 8262.0 0.0 134840.0 127507.0 86664.0 81401.0 289997.0 283073.0 105875.0 99318.0 297547.0 300890.0 12910.0 18567.0 33244.0 29455.0 67784.0 74279.0 91035.0 83021.0 49438.0 51437.0 112027.0 104795.0 100913.0 108027.0 117099.0 121648.0 54881.0 61489.0 167221.0 165732.0 298718.0 290449.0 186052.0 183456.0 174148.0 176920.0 299670.0 306101.0 89483.0 89758.0 258732.0 265907.0 143795.0 143516.0 109747.0 105531.0 104345.0 111721.0 62447.0 59992.0 192100.0 191182.0 150008.0 141913.0 165526.0 172376.0 92846.0 99494.0 251181.0 258938.0 173009.0 170065.0 85907.0 83567.0 40628.0 47635.0 184756.0 190696.0 140944.0 132639.0 76475.0 75308.0 59746.0 52090.0 167168.0 162579.0 108006.0 112937.0 74873.0 78587.0 188808.0 192985.0 78462.0 81548.0 24553.0 20038.0 327300.0 327758.0 88504.0 94635.0 230025.0 222337.0 76638.0 75925.0 113724.0 107060.0 129412.0 122410.0 124874.0 123651.0 96469.0 88638.0 181845.0 183297.0 164555.0 166324.0 162236.0 155247.0 82601.0 89356.0 51828.0 59574.0 198346.0 190568.0 97308.0 100830.0 339254.0 335314.0 18776.0 20534.0 200399.0 203936.0 236491.0 239201.0 164436.0 158914.0 323415.0 329538.0 90067.0 87498.0 105088.0 104096.0 103915.0 95362.0 101294.0 103510.0 161988.0 159515.0 16551.0 14039.0 172365.0 171868.0 229674.0 226009.0 112168.0 105619.0 112164.0 116962.0 189294.0 194806.0 32794.0 37821.0 74466.0 71544.0 256595.0 248870.0 70138.0 69576.0 113735.0 121704.0 176886.0 179777.0 70670.0 69848.0 160328.0 158595.0 189830.0 193544.0 189830.0 189830.0 193544.0 193544.0
82928.0 76071.0 214723.0 212178.0 81700.0 77233.0 41364.0 35664.0 74714.0 67432.0 58403.0 66235.0 228054.0 229529.0 114509.0 108588.0 29186.0 21990.0 330239.0 322186.0 54637.0 46846.0 103472.0 101084.0 248815.0 251469.0 174130.0 167596.0 101596.0 106992.0 46847.0 40636.0 126993.0 134840.0 0.0 8263.0 48959.0 53444.0 292110.0 287732.0 131294.0 124681.0 297295.0 297509.0 138598.0 134088.0 109888.0 108423.0 67471.0 60561.0 73758.0 77672.0 113264.0 104779.0 42730.0 43259.0 38659.0 30629.0 93348.0 87738.0 140450.0 137715.0 189828.0 194208.0 290956.0 282789.0 51295.0 49414.0 149369.0 156912.0 299920.0 307806.0 223693.0 223002.0 255461.0 259914.0 17736.0 11368.0 63998.0 58303.0 92019.0 89754.0 197275.0 194375.0 66132.0 62019.0 51885.0 48256.0 158854.0 166547.0 115973.0 122624.0 270062.0 275757.0 38925.0 35239.0 94595.0 102453.0 95117.0 89888.0 65030.0 72816.0 34771.0 32765.0 91860.0 100032.0 190255.0 183539.0 45216.0 46229.0 92362.0 99291.0 102058.0 109353.0 56080.0 61878.0 68309.0 72404.0 156949.0 154573.0 324284.0 322344.0 209090.0 212449.0 252296.0 245286.0 75577.0 82607.0 144080.0 137161.0 23734.0 21804.0 103033.0 110289.0 125461.0 122599.0 56858.0 54618.0 32420.0 32081.0 34802.0 31912.0 53816.0 49219.0 105322.0 104215.0 215833.0 210872.0 45806.0 49023.0 337211.0 335990.0 131052.0 123106.0 65863.0 69097.0 219450.0 225307.0 51159.0 52363.0 316072.0 322925.0 111049.0 118243.0 123361.0 115056.0 56141.0 59933.0 47708.0 53237.0 38131.0 31500.0 137417.0 129943.0 178207.0 183519.0 228606.0 229778.0 46883.0 45763.0 32781.0 24616.0 168653.0 176633.0 137884.0 145675.0 103655.0 97010.0 276053.0 270457.0 69241.0 66647.0 99786.0 98705.0 42481.0 46580.0 88172.0 81545.0 137358.0 142558.0 67138.0 168584.0 67138.0 67138.0 168584.0 168584.0
75463.0 68432.0 206871.0 204427.0 73438.0 69012.0 49518.0 43924.0 66504.0 59278.0 57545.0 65007.0 221658.0 222966.0 106733.0 100983.0 37413.0 30049.0 324586.0 316503.0 46374.0 38590.0 96213.0 93549.0 243667.0 246115.0 166794.0 160144.0 96085.0 101109.0 39143.0 33387.0 119743.0 127507.0 8263.0 0.0 42441.0 46257.0 286769.0 282248.0 123574.0 116858.0 292095.0 292319.0 131649.0 127368.0 103407.0 101577.0 59898.0 53288.0 65730.0 69490.0 107839.0 99312.0 41556.0 40549.0 30404.0 22368.0 86434.0 81148.0 135231.0 132868.0 182914.0 187135.0 285737.0 277570.0 58999.0 57448.0 144055.0 151463.0 294708.0 302559.0 216586.0 216055.0 250175.0 254794.0 24884.0 19464.0 56760.0 50720.0 84533.0 82605.0 189897.0 186858.0 74288.0 70271.0 56844.0 52287.0 152756.0 160524.0 108054.0 114819.0 263856.0 269668.0 45608.0 42689.0 86550.0 94375.0 88133.0 83240.0 72786.0 80519.0 39504.0 35905.0 83653.0 91832.0 182444.0 175792.0 52867.0 53280.0 85027.0 92118.0 93857.0 101200.0 62164.0 67413.0 63515.0 68311.0 149344.0 147142.0 319066.0 317126.0 200961.0 204275.0 245857.0 238780.0 67316.0 74362.0 136417.0 129413.0 26252.0 21648.0 96381.0 103453.0 117570.0 114573.0 64910.0 62844.0 37989.0 38857.0 38536.0 34071.0 45921.0 41067.0 99895.0 99285.0 209335.0 204227.0 37551.0 40954.0 331939.0 330910.0 124336.0 116358.0 73686.0 76587.0 214279.0 220135.0 58012.0 58451.0 310854.0 317707.0 103088.0 110213.0 115693.0 107429.0 48418.0 51869.0 39627.0 45425.0 45832.0 39516.0 129669.0 122261.0 171816.0 176951.0 223019.0 223974.0 45962.0 43489.0 24859.0 16672.0 163424.0 171381.0 129841.0 137596.0 95452.0 88770.0 269855.0 264144.0 61178.0 58858.0 92643.0 91959.0 49403.0 52809.0 79913.0 73286.0 131703.0 136636.0 69266.0 163413.0 69266.0 69266.0 163413.0 163413.0
71339.0 63412.0 168528.0 165357.0 49524.0 42090.0 88258.0 81254.0 39571.0 31833.0 42128.0 45225.0 219204.0 219084.0 94355.0 91633.0 75857.0 70039.0 326312.0 318092.0 31667.0 30499.0 55283.0 54028.0 249839.0 250884.0 156885.0 149123.0 54524.0 58946.0 13130.0 10919.0 78639.0 86664.0 48959.0 42441.0 0.0 8087.0 291050.0 285613.0 110790.0 102932.0 297244.0 298528.0 89745.0 85130.0 60990.0 59520.0 22465.0 14089.0 54620.0 53062.0 66326.0 57798.0 32976.0 25063.0 26525.0 29032.0 86517.0 84833.0 93910.0 92337.0 176851.0 179381.0 292587.0 284419.0 99703.0 96841.0 151910.0 158104.0 299747.0 307280.0 174946.0 174109.0 255338.0 260964.0 57224.0 56937.0 59463.0 51500.0 78704.0 80884.0 149052.0 146575.0 106664.0 105034.0 70384.0 62594.0 154713.0 162738.0 93143.0 101338.0 262196.0 268820.0 87814.0 84068.0 71309.0 77359.0 46390.0 40928.0 100812.0 107517.0 57367.0 49227.0 63801.0 71287.0 143891.0 136820.0 82012.0 78535.0 80930.0 88896.0 73040.0 81452.0 104598.0 109788.0 25702.0 33062.0 109642.0 106611.0 325621.0 323969.0 165878.0 170101.0 242591.0 235070.0 46116.0 53745.0 123720.0 115855.0 43899.0 36255.0 97650.0 102373.0 102445.0 97035.0 96441.0 97153.0 80421.0 80991.0 80163.0 74456.0 17654.0 22308.0 58453.0 59015.0 206301.0 200038.0 30329.0 38448.0 338459.0 336437.0 82094.0 74153.0 113870.0 117745.0 222533.0 227837.0 81356.0 77448.0 317703.0 324556.0 87802.0 92894.0 104204.0 97169.0 48235.0 44182.0 37620.0 45250.0 76261.0 73115.0 91044.0 83255.0 170722.0 174199.0 226634.0 226026.0 35731.0 27974.0 37055.0 37247.0 171037.0 178568.0 94273.0 102442.0 74387.0 66527.0 268161.0 261618.0 30803.0 24159.0 89677.0 92891.0 91436.0 95213.0 56749.0 48535.0 137900.0 140681.0 111434.0 172222.0 111434.0 111434.0 172222.0 172222.0
64866.0 57036.0 162253.0 159327.0 41524.0 34027.0 93772.0 87029.0 31524.0 23863.0 49836.0 52439.0 211943.0 211704.0 86724.0 84275.0 81341.0 75074.0 319298.0 311072.0 25727.0 26318.0 50028.0 47922.0 243398.0 244282.0 149187.0 141372.0 54013.0 57409.0 9610.0 12870.0 73552.0 81401.0 53444.0 46257.0 8087.0 0.0 284333.0 278806.0 103046.0 95150.0 290614.0 292015.0 85423.0 81350.0 57908.0 55464.0 15036.0 7169.0 47723.0 45589.0 65678.0 57284.0 41062.0 33147.0 24666.0 29297.0 80276.0 79113.0 93191.0 92319.0 169379.0 171780.0 286205.0 278038.0 104659.0 102227.0 146010.0 152011.0 293102.0 300591.0 170335.0 169815.0 248772.0 254503.0 63368.0 62307.0 54410.0 46587.0 71872.0 74513.0 143844.0 141052.0 113434.0 111445.0 78293.0 70555.0 148076.0 156093.0 85346.0 93591.0 254941.0 261628.0 91862.0 88679.0 63652.0 69524.0 41919.0 37567.0 108036.0 114871.0 64886.0 56843.0 55897.0 63302.0 137655.0 130722.0 88975.0 85826.0 74264.0 82209.0 65037.0 73459.0 108166.0 112933.0 29516.0 37479.0 103798.0 101181.0 319126.0 317593.0 158809.0 162880.0 235227.0 227680.0 38342.0 45894.0 115936.0 108045.0 50989.0 43068.0 91389.0 95767.0 94594.0 89082.0 103255.0 103588.0 83872.0 85112.0 82718.0 76485.0 10743.0 17211.0 58012.0 59656.0 199013.0 192666.0 26406.0 34177.0 331937.0 329806.0 78330.0 70329.0 119062.0 122537.0 216497.0 221653.0 88826.0 85161.0 311321.0 318174.0 80010.0 84965.0 96580.0 89686.0 43392.0 38330.0 33572.0 40667.0 83015.0 79420.0 84728.0 77056.0 163701.0 167012.0 219951.0 219179.0 43794.0 36022.0 36220.0 38178.0 165006.0 172450.0 87145.0 95260.0 66369.0 58497.0 260896.0 254291.0 22718.0 16199.0 83009.0 86655.0 95650.0 98929.0 48731.0 40507.0 131874.0 134365.0 112936.0 166420.0 112936.0 112936.0 166420.0 166420.0
219740.0 227701.0 286709.0 293119.0 247353.0 255225.0 316408.0 316324.0 256887.0 262534.0 332051.0 336165.0 79539.0 83679.0 201328.0 201422.0 310112.0 302632.0 41035.0 34353.0 259475.0 262346.0 286290.0 278643.0 43952.0 40655.0 146791.0 155084.0 318370.0 314810.0 278292.0 284218.0 290859.0 289997.0 292110.0 286769.0 291050.0 284333.0 0.0 7962.0 188143.0 195964.0 8332.0 14879.0 302901.0 307633.0 305002.0 296940.0 277849.0 283116.0 236611.0 239560.0 324986.0 320413.0 318778.0 312668.0 269643.0 273496.0 204887.0 207892.0 342561.0 347456.0 122787.0 124575.0 27211.0 24960.0 314602.0 319140.0 142747.0 135316.0 9862.0 16346.0 333070.0 339631.0 36701.0 33444.0 309425.0 301606.0 234058.0 241821.0 212462.0 210302.0 308253.0 300225.0 347127.0 339794.0 343610.0 338780.0 136354.0 128328.0 204998.0 196694.0 46516.0 39065.0 297536.0 302967.0 223236.0 219827.0 291165.0 296430.0 351501.0 359230.0 326272.0 322081.0 233104.0 228305.0 281803.0 283866.0 333796.0 336957.0 210126.0 202163.0 227392.0 220021.0 298264.0 295613.0 312171.0 320318.0 284442.0 291314.0 37573.0 39616.0 258008.0 251882.0 65112.0 71733.0 247850.0 241473.0 177750.0 185258.0 312399.0 305754.0 193821.0 188683.0 197974.0 205610.0 340864.0 335049.0 288399.0 296091.0 278678.0 272944.0 273670.0 269033.0 321256.0 327752.0 91700.0 99564.0 262887.0 255115.0 49257.0 45796.0 306689.0 303333.0 326064.0 322567.0 76416.0 68834.0 342213.0 344385.0 39872.0 43059.0 209698.0 208313.0 192061.0 197059.0 245007.0 247203.0 256302.0 248333.0 326886.0 319044.0 274305.0 276216.0 121493.0 119799.0 64430.0 65521.0 322895.0 316247.0 265843.0 272590.0 123475.0 115486.0 257872.0 255209.0 226771.0 233723.0 44034.0 51331.0 265516.0 273492.0 201376.0 198585.0 300965.0 296108.0 241550.0 248827.0 155254.0 151100.0 282043.0 124850.0 282043.0 282043.0 124850.0 124850.0
214370.0 222346.0 278939.0 285382.0 241436.0 249337.0 312246.0 312162.0 251043.0 256809.0 326791.0 330780.0 72372.0 76255.0 195244.0 195563.0 305950.0 298440.0 43250.0 35737.0 254097.0 257138.0 279838.0 272221.0 41243.0 36623.0 139894.0 148226.0 312088.0 308415.0 272922.0 278959.0 284050.0 283073.0 287732.0 282248.0 285613.0 278806.0 7962.0 0.0 181786.0 189656.0 16285.0 22671.0 295971.0 300786.0 298508.0 290436.0 272051.0 277447.0 231089.0 233856.0 318556.0 314091.0 313689.0 307478.0 264548.0 268563.0 199668.0 202895.0 335840.0 340818.0 115945.0 117480.0 33350.0 29523.0 310440.0 314978.0 138407.0 130822.0 17613.0 23063.0 325374.0 331965.0 33285.0 31726.0 305129.0 297368.0 229030.0 236741.0 206946.0 205002.0 300679.0 292649.0 342964.0 335632.0 339089.0 334134.0 131055.0 123040.0 198783.0 190438.0 38558.0 31153.0 293374.0 298805.0 217327.0 213744.0 284864.0 290235.0 347339.0 355067.0 321747.0 317411.0 227106.0 222159.0 274212.0 276343.0 329635.0 332811.0 204689.0 196721.0 221205.0 213743.0 294102.0 291451.0 306451.0 314588.0 277212.0 284133.0 45060.0 47469.0 250221.0 244064.0 57260.0 63976.0 242080.0 235604.0 171192.0 178768.0 307747.0 300998.0 188643.0 183307.0 191600.0 199187.0 336702.0 330886.0 284237.0 291929.0 274516.0 268782.0 268172.0 263677.0 314931.0 321495.0 84728.0 92526.0 257701.0 249988.0 56333.0 52291.0 299881.0 296627.0 321901.0 318405.0 73948.0 66108.0 338045.0 340060.0 47798.0 51003.0 203544.0 201969.0 185893.0 191071.0 239906.0 241897.0 251191.0 243242.0 322844.0 314887.0 267309.0 269331.0 115534.0 113502.0 59330.0 59655.0 317770.0 311045.0 261011.0 267867.0 119291.0 111298.0 250857.0 248082.0 220551.0 227585.0 36180.0 43397.0 259730.0 267722.0 195946.0 193399.0 296803.0 291945.0 235539.0 242898.0 150577.0 146140.0 277881.0 121060.0 277881.0 277881.0 121060.0 121060.0
48887.0 55247.0 137575.0 140201.0 62226.0 70206.0 168268.0 164865.0 72345.0 79359.0 152874.0 155194.0 111451.0 110225.0 16972.0 23057.0 157985.0 149802.0 220012.0 211791.0 82116.0 87952.0 98213.0 90525.0 151139.0 150093.0 46183.0 38332.0 130323.0 126669.0 99717.0 107122.0 105116.0 105875.0 131294.0 123574.0 110790.0 103046.0 188143.0 181786.0 0.0 8071.0 195225.0 197840.0 118579.0 122098.0 117001.0 108973.0 93267.0 99951.0 58884.0 58055.0 136866.0 132305.0 142622.0 135213.0 96695.0 103351.0 44011.0 52002.0 155548.0 159928.0 67587.0 69093.0 194300.0 186089.0 172375.0 174158.0 71321.0 72576.0 197519.0 204468.0 172627.0 176813.0 154884.0 161688.0 148422.0 142621.0 68162.0 73028.0 39914.0 44550.0 143031.0 135862.0 196699.0 191436.0 175753.0 169006.0 59816.0 66512.0 17827.0 9456.0 154117.0 161259.0 154631.0 156830.0 39556.0 33681.0 103090.0 108646.0 196315.0 204077.0 159428.0 152877.0 47493.0 41196.0 120565.0 118627.0 176433.0 176537.0 40587.0 36044.0 39960.0 32086.0 162681.0 162379.0 127786.0 135700.0 107522.0 112568.0 224730.0 224461.0 116555.0 115424.0 133708.0 126023.0 64704.0 57220.0 13067.0 5989.0 144195.0 136129.0 41135.0 33952.0 9847.0 17644.0 187910.0 184689.0 144121.0 150280.0 136244.0 128428.0 93314.0 91301.0 133145.0 139756.0 98453.0 91438.0 88839.0 83200.0 237113.0 233920.0 120720.0 116437.0 186538.0 185668.0 130631.0 133515.0 180977.0 180037.0 219305.0 225799.0 23100.0 20184.0 8190.0 16588.0 75167.0 72572.0 84563.0 78158.0 169379.0 162718.0 92030.0 91846.0 67479.0 68347.0 125535.0 122848.0 146000.0 138448.0 98744.0 106914.0 84281.0 89278.0 76952.0 77598.0 39115.0 46594.0 159960.0 152933.0 81430.0 89362.0 36012.0 42326.0 158861.0 157053.0 55504.0 63512.0 59143.0 55279.0 149818.0 89199.0 149818.0 149818.0 89199.0 89199.0
43079.0 48880.0 135301.0 137489.0 54206.0 62176.0 162274.0 158641.0 64336.0 71414.0 144985.0 147226.0 119478.0 118289.0 10343.0 18022.0 151765.0 143602.0 228019.0 219797.0 74625.0 80675.0 90534.0 82807.0 158616.0 157725.0 54178.0 46240.0 122432.0 118892.0 92009.0 99483.0 98203.0 99318.0 124681.0 116858.0 102932.0 95150.0 195964.0 189656.0 8071.0 0.0 202998.0 205533.0 111913.0 115166.0 109362.0 101361.0 85226.0 91961.0 51668.0 50388.0 129125.0 124451.0 134909.0 127448.0 89457.0 96284.0 40463.0 48504.0 148208.0 152445.0 75649.0 77147.0 201777.0 193584.0 166835.0 168373.0 76120.0 78042.0 205307.0 212296.0 168717.0 172619.0 162500.0 169231.0 141647.0 136035.0 62227.0 66592.0 34401.0 40002.0 138912.0 131936.0 190354.0 185272.0 168402.0 161570.0 66227.0 73219.0 9818.0 2204.0 162170.0 169297.0 149191.0 151094.0 31853.0 25686.0 95211.0 100677.0 189642.0 197372.0 152206.0 145539.0 39482.0 33126.0 117262.0 114858.0 169719.0 169623.0 35653.0 32426.0 31900.0 24108.0 157869.0 157896.0 119730.0 127637.0 102250.0 106941.0 232460.0 232106.0 115563.0 114972.0 141776.0 134092.0 56821.0 49280.0 20788.0 12978.0 136964.0 128848.0 39623.0 33458.0 3303.0 10701.0 181431.0 178414.0 138676.0 144636.0 131063.0 123175.0 85509.0 83705.0 125293.0 131846.0 106475.0 99489.0 81584.0 76223.0 244880.0 241751.0 113696.0 109193.0 181142.0 180547.0 137464.0 140576.0 173992.0 172872.0 226827.0 233380.0 15140.0 12419.0 6601.0 12284.0 68559.0 65477.0 77582.0 71450.0 162689.0 156159.0 85970.0 85332.0 75032.0 76170.0 133135.0 130601.0 138238.0 130655.0 91999.0 100185.0 90135.0 95495.0 71388.0 72709.0 31077.0 38526.0 168017.0 161000.0 73428.0 81344.0 32578.0 39909.0 153449.0 151934.0 47449.0 55479.0 63223.0 60173.0 145762.0 94711.0 145762.0 145762.0 94711.0 94711.0
225907.0 233850.0 294950.0 301337.0 254011.0 261852.0 321550.0 321467.0 263473.0 269008.0 338063.0 342297.0 87382.0 91704.0 208159.0 208051.0 315255.0 307774.0 39744.0 34295.0 265627.0 268336.0 293421.0 285749.0 48507.0 46375.0 154361.0 162617.0 325340.0 321884.0 284428.0 290248.0 298308.0 297547.0 297295.0 292095.0 297244.0 290614.0 8332.0 16285.0 195225.0 202998.0 0.0 7469.0 310455.0 315113.0 312168.0 304115.0 284386.0 289531.0 242910.0 246025.0 332090.0 327419.0 324634.0 318621.0 275524.0 279223.0 210925.0 213720.0 349924.0 354745.0 130329.0 132321.0 22567.0 22884.0 319745.0 324283.0 148046.0 140773.0 2678.0 10717.0 341256.0 347795.0 42039.0 37500.0 314523.0 306749.0 239896.0 247703.0 218769.0 216412.0 316347.0 308320.0 352269.0 344936.0 348912.0 344204.0 142544.0 134523.0 211945.0 203681.0 54816.0 47301.0 302679.0 308109.0 229897.0 226647.0 298157.0 303326.0 356644.0 364372.0 331585.0 327534.0 239840.0 235180.0 289912.0 291922.0 338938.0 342129.0 216361.0 208408.0 234303.0 227017.0 303406.0 300755.0 318623.0 326778.0 292257.0 299086.0 29764.0 31355.0 266261.0 260155.0 73415.0 79983.0 254373.0 248089.0 185014.0 192459.0 317839.0 311295.0 199828.0 194879.0 205066.0 212741.0 346007.0 340191.0 293541.0 301234.0 283821.0 278087.0 279928.0 275161.0 328265.0 334697.0 99379.0 107286.0 268858.0 261033.0 41892.0 39193.0 314135.0 310689.0 331206.0 327709.0 80262.0 72997.0 347375.0 349497.0 31693.0 34728.0 216588.0 215373.0 198974.0 203807.0 250906.0 253294.0 262205.0 254222.0 332141.0 324187.0 281920.0 283734.0 128290.0 126889.0 70701.0 72404.0 328784.0 322211.0 271476.0 278116.0 128674.0 120714.0 265506.0 262940.0 233713.0 240588.0 52203.0 59589.0 272044.0 280003.0 207612.0 204597.0 306107.0 301250.0 248295.0 255494.0 160844.0 156959.0 287186.0 129679.0 287186.0 287186.0 129679.0 129679.0
227205.0 235117.0 300024.0 306314.0 255949.0 263742.0 321759.0 321676.0 265305.0 270680.0 339094.0 343477.0 91543.0 96258.0 210384.0 209986.0 315464.0 307983.0 44580.0 40002.0 266875.0 269376.0 296047.0 288338.0 48819.0 47969.0 157845.0 166022.0 327702.0 324407.0 285644.0 291323.0 301466.0 300890.0 297509.0 292319.0 298528.0 292015.0 14879.0 22671.0 197840.0 205533.0 7469.0 0.0 313801.0 318321.0 314840.0 306807.0 286135.0 291110.0 244366.0 247702.0 334657.0 329835.0 325473.0 319585.0 276422.0 279928.0 212074.0 214605.0 352914.0 357605.0 133802.0 136174.0 16121.0 18508.0 319954.0 324492.0 148413.0 141340.0 8434.0 14253.0 346107.0 352566.0 43330.0 37654.0 314782.0 306958.0 240767.0 248622.0 220256.0 217646.0 320907.0 312886.0 352478.0 345145.0 349080.0 344515.0 143995.0 136001.0 214338.0 206144.0 61101.0 53812.0 302888.0 308318.0 231858.0 228840.0 300565.0 305582.0 356853.0 364581.0 331771.0 327887.0 241902.0 237445.0 294522.0 296377.0 339147.0 342338.0 217757.0 209826.0 236624.0 229471.0 303615.0 300964.0 320239.0 328402.0 296130.0 302866.0 27124.0 26905.0 271398.0 265391.0 78967.0 85255.0 256122.0 249972.0 187932.0 195266.0 318181.0 311760.0 200952.0 196249.0 207687.0 215419.0 346216.0 340400.0 293750.0 301443.0 284030.0 278296.0 281304.0 276370.0 330684.0 337016.0 103180.0 111144.0 269873.0 261987.0 39932.0 38674.0 317281.0 313679.0 331415.0 327918.0 79626.0 72546.0 347584.0 349747.0 25269.0 29390.0 218892.0 217936.0 201329.0 205916.0 251845.0 254472.0 263139.0 255145.0 332350.0 324396.0 285391.0 287023.0 130593.0 129627.0 72587.0 75076.0 329662.0 323187.0 272075.0 278582.0 128981.0 121080.0 269022.0 266650.0 236079.0 242835.0 58849.0 66024.0 273790.0 281720.0 209018.0 205721.0 306316.0 301459.0 250363.0 257445.0 161520.0 157964.0 287395.0 129575.0 287395.0 287395.0 129575.0 129575.0
114955.0 110921.0 86988.0 81732.0 80619.0 77385.0 177709.0 170462.0 78323.0 80972.0 108745.0 104226.0 223705.0 220623.0 110856.0 115294.0 165378.0 159772.0 330773.0 322732.0 96718.0 103150.0 36298.0 41469.0 268597.0 266778.0 156111.0 147839.0 47741.0 39572.0 93419.0 98283.0 14913.0 12910.0 138598.0 131649.0 89745.0 85423.0 302901.0 295971.0 118579.0 111913.0 310455.0 313801.0 0.0 7913.0 30798.0 30251.0 72976.0 78511.0 100635.0 92751.0 42334.0 46255.0 112189.0 105425.0 106707.0 113368.0 128130.0 132299.0 42977.0 50055.0 180128.0 178611.0 311609.0 303341.0 189432.0 186373.0 186362.0 189299.0 312576.0 319001.0 85252.0 84412.0 271633.0 278801.0 146156.0 146593.0 118824.0 114051.0 115415.0 122603.0 60859.0 60069.0 193099.0 192750.0 149263.0 141250.0 178139.0 185051.0 105206.0 112027.0 263993.0 271762.0 177253.0 173787.0 97150.0 95314.0 43516.0 49068.0 185014.0 190585.0 141546.0 133328.0 87389.0 86858.0 63688.0 55818.0 168166.0 163084.0 119073.0 124340.0 86562.0 90724.0 193562.0 198152.0 77883.0 79708.0 30315.0 23144.0 340209.0 340668.0 95211.0 101857.0 242833.0 235151.0 85778.0 85898.0 126583.0 119866.0 131011.0 124495.0 136297.0 135428.0 109108.0 101255.0 182884.0 184898.0 169263.0 170478.0 167631.0 160941.0 88125.0 95368.0 46449.0 53625.0 211245.0 203461.0 103899.0 108180.0 352158.0 348207.0 9945.0 16371.0 203500.0 207489.0 249209.0 251982.0 164539.0 158546.0 336316.0 342445.0 102242.0 99981.0 117590.0 116320.0 112185.0 103689.0 108511.0 111472.0 163380.0 161523.0 29028.0 26868.0 185209.0 184758.0 242565.0 238916.0 111810.0 105811.0 118271.0 122395.0 201751.0 207356.0 45476.0 49933.0 86259.0 82805.0 269391.0 261649.0 77206.0 75431.0 125153.0 132960.0 180991.0 184350.0 81038.0 79322.0 172441.0 170905.0 196277.0 205896.0 196277.0 196277.0 205896.0 205896.0
115309.0 110802.0 94577.0 89142.0 80385.0 76434.0 172619.0 165263.0 77117.0 79010.0 101991.0 97218.0 228636.0 225739.0 113441.0 117394.0 160352.0 154981.0 336077.0 328006.0 94482.0 100534.0 33922.0 40180.0 272710.0 271096.0 160895.0 152563.0 40478.0 32380.0 89741.0 94134.0 16982.0 18567.0 134088.0 127368.0 85130.0 81350.0 307633.0 300786.0 122098.0 115166.0 315113.0 318321.0 7913.0 0.0 24747.0 25923.0 69720.0 74626.0 100249.0 92536.0 34516.0 38799.0 106102.0 99560.0 103508.0 109855.0 129010.0 132756.0 36315.0 42992.0 184854.0 183610.0 315794.0 307539.0 184606.0 181322.0 188715.0 191951.0 317267.0 323787.0 90593.0 89195.0 275941.0 283022.0 140923.0 141707.0 117891.0 112696.0 116389.0 123339.0 67461.0 67166.0 187175.0 187067.0 142736.0 134767.0 181318.0 188385.0 107997.0 115139.0 269281.0 277002.0 172902.0 169166.0 98413.0 97208.0 39609.0 44204.0 178804.0 184229.0 135551.0 127389.0 88354.0 88551.0 71472.0 63600.0 162280.0 157005.0 120026.0 125665.0 88433.0 93203.0 189463.0 194280.0 71682.0 73022.0 38215.0 31042.0 344845.0 345154.0 103125.0 109762.0 248141.0 240436.0 85121.0 85957.0 130665.0 123721.0 125471.0 119200.0 137609.0 137204.0 112479.0 104595.0 176991.0 179241.0 165186.0 166093.0 163954.0 157461.0 84901.0 92386.0 38942.0 45947.0 216074.0 208348.0 101229.0 105997.0 356884.0 353059.0 3036.0 11021.0 198513.0 202724.0 252627.0 255612.0 158300.0 152140.0 340601.0 346829.0 104725.0 103028.0 120622.0 118833.0 110648.0 102247.0 106234.0 109708.0 157670.0 156090.0 35117.0 31551.0 189152.0 188992.0 246774.0 243331.0 105521.0 99762.0 115205.0 118892.0 204549.0 210353.0 51249.0 56372.0 88270.0 84187.0 274734.0 267044.0 75098.0 72550.0 126496.0 134081.0 176558.0 180166.0 81510.0 79008.0 174643.0 173452.0 193212.0 208479.0 193212.0 193212.0 208479.0 208479.0
100751.0 95100.0 116675.0 111900.0 65429.0 59751.0 147992.0 140595.0 59738.0 59701.0 78099.0 73903.0 227214.0 225084.0 105502.0 107820.0 135761.0 130534.0 335638.0 327468.0 74135.0 79308.0 18881.0 26706.0 267938.0 267077.0 159614.0 151180.0 19246.0 11796.0 66793.0 70476.0 25560.0 33244.0 109888.0 103407.0 60990.0 57908.0 305002.0 298508.0 117001.0 109362.0 312168.0 314840.0 30798.0 24747.0 0.0 8090.0 47905.0 51562.0 84131.0 77114.0 20468.0 19156.0 81461.0 74833.0 81185.0 86969.0 115593.0 118118.0 40853.0 43622.0 183033.0 182873.0 311089.0 302911.0 160114.0 156710.0 178737.0 182868.0 314439.0 321302.0 115341.0 113867.0 271858.0 278587.0 116252.0 117209.0 100016.0 93932.0 103513.0 109639.0 91657.0 90705.0 162478.0 162323.0 118479.0 110459.0 174039.0 181542.0 100897.0 108867.0 269056.0 276537.0 148786.0 144827.0 86923.0 87668.0 18279.0 20343.0 154249.0 159790.0 110873.0 102689.0 76413.0 78783.0 92654.0 84886.0 137568.0 132369.0 107008.0 113580.0 79218.0 85672.0 165570.0 170628.0 47101.0 49054.0 57642.0 52028.0 341714.0 341454.0 121630.0 127596.0 248119.0 240368.0 68815.0 71546.0 127331.0 119748.0 100730.0 94518.0 125248.0 126200.0 107154.0 99433.0 152283.0 154495.0 141355.0 141954.0 140598.0 134385.0 62792.0 70593.0 19735.0 27671.0 214353.0 206919.0 79887.0 85549.0 354059.0 350736.0 21764.0 14433.0 173926.0 178260.0 245552.0 249239.0 133764.0 127748.0 336169.0 342742.0 96746.0 96945.0 113928.0 110511.0 91510.0 83489.0 85590.0 90087.0 132926.0 131360.0 45986.0 38931.0 184394.0 185283.0 242495.0 239828.0 81019.0 75100.0 92990.0 95958.0 195803.0 202198.0 58540.0 65803.0 79498.0 73695.0 274715.0 267278.0 55594.0 51415.0 114442.0 121241.0 152365.0 156200.0 68479.0 63905.0 164360.0 164241.0 170653.0 199028.0 170653.0 170653.0 199028.0 199028.0
93938.0 88567.0 113531.0 109215.0 58548.0 53324.0 147468.0 140243.0 53548.0 54305.0 80985.0 77476.0 219125.0 216995.0 97646.0 100141.0 135131.0 129530.0 327549.0 319378.0 69332.0 75032.0 11099.0 18932.0 259959.0 259060.0 151524.0 143090.0 25785.0 19244.0 63820.0 68277.0 21249.0 29455.0 108423.0 101577.0 59520.0 55464.0 296940.0 290436.0 108973.0 101361.0 304115.0 306807.0 30251.0 25923.0 8090.0 0.0 43938.0 48706.0 77674.0 70427.0 28497.0 26320.0 82823.0 75767.0 77680.0 83945.0 108563.0 111372.0 48073.0 51345.0 174945.0 174785.0 303115.0 294931.0 159188.0 156126.0 171211.0 175230.0 306383.0 313237.0 115500.0 114591.0 263845.0 270592.0 115953.0 116342.0 94198.0 88444.0 96341.0 102655.0 90432.0 88785.0 163346.0 162768.0 120612.0 112526.0 166204.0 173675.0 92965.0 100892.0 260968.0 268448.0 147155.0 143583.0 79451.0 79933.0 13709.0 18863.0 155655.0 161470.0 111953.0 103679.0 68969.0 71043.0 89174.0 81541.0 138397.0 133565.0 99874.0 106287.0 71419.0 77741.0 163616.0 168379.0 49028.0 52189.0 53964.0 49204.0 333670.0 333433.0 116776.0 122470.0 240034.0 232283.0 62334.0 64570.0 119254.0 111682.0 100974.0 94326.0 118031.0 118756.0 99127.0 91391.0 153107.0 154901.0 139328.0 140362.0 138032.0 131546.0 59092.0 66675.0 26995.0 34826.0 206266.0 198830.0 75685.0 80836.0 346006.0 342668.0 22922.0 14923.0 173249.0 177255.0 237736.0 241364.0 135265.0 129599.0 328183.0 334739.0 88877.0 88942.0 105987.0 102701.0 86176.0 77964.0 80985.0 84969.0 133444.0 131397.0 40146.0 32651.0 176390.0 177235.0 234486.0 231784.0 82817.0 76415.0 89415.0 92981.0 188134.0 194468.0 51563.0 59095.0 71655.0 66023.0 266629.0 259196.0 50264.0 46983.0 107146.0 114106.0 150856.0 154347.0 61188.0 57050.0 156862.0 156601.0 167380.0 191448.0 167380.0 167380.0 191448.0 191448.0
60772.0 53569.0 147533.0 144781.0 31084.0 23081.0 108280.0 101697.0 21103.0 15697.0 61408.0 62545.0 203777.0 203090.0 77691.0 76508.0 95860.0 89332.0 311819.0 303584.0 26800.0 31413.0 36822.0 33652.0 237819.0 238219.0 139384.0 131340.0 48763.0 50121.0 20811.0 27039.0 60214.0 67784.0 67471.0 59898.0 22465.0 15036.0 277849.0 272051.0 93267.0 85226.0 284386.0 286135.0 72976.0 69720.0 47905.0 43938.0 0.0 8408.0 42959.0 38494.0 59633.0 51850.0 54803.0 46765.0 33796.0 40424.0 76469.0 76820.0 86313.0 86686.0 160515.0 162355.0 280773.0 272605.0 118764.0 116638.0 142344.0 147772.0 286823.0 294169.0 157159.0 157015.0 242808.0 248841.0 78243.0 76826.0 54749.0 47748.0 66367.0 70455.0 130064.0 126961.0 128449.0 126368.0 92752.0 84895.0 142255.0 150204.0 75441.0 83878.0 246713.0 253616.0 105269.0 102572.0 54903.0 59622.0 30266.0 28282.0 123054.0 129856.0 79788.0 71678.0 45812.0 52373.0 122977.0 116149.0 104011.0 100826.0 69263.0 76958.0 53897.0 62300.0 121040.0 125348.0 34617.0 42661.0 89480.0 87280.0 313257.0 312071.0 143775.0 147849.0 226626.0 218995.0 30016.0 36566.0 105849.0 97865.0 66016.0 58104.0 87300.0 90544.0 84272.0 78110.0 118278.0 118523.0 96776.0 98619.0 94713.0 87966.0 15185.0 22761.0 52674.0 56222.0 190782.0 184132.0 31981.0 37933.0 325974.0 323520.0 66764.0 58808.0 133309.0 136473.0 212133.0 216865.0 103759.0 99912.0 305889.0 312721.0 70206.0 74212.0 87467.0 81305.0 44964.0 37756.0 37861.0 43069.0 98033.0 94329.0 70060.0 62503.0 156547.0 159254.0 213702.0 212414.0 57022.0 49231.0 45489.0 49436.0 160864.0 168028.0 72110.0 80224.0 55060.0 47184.0 252623.0 245798.0 12345.0 4579.0 77804.0 82729.0 109185.0 111993.0 37806.0 29760.0 127969.0 129610.0 123494.0 162894.0 123494.0 123494.0 162894.0 162894.0
64528.0 56939.0 155114.0 152164.0 37806.0 29943.0 100942.0 94191.0 27654.0 20785.0 53643.0 55300.0 209816.0 209336.0 83996.0 82202.0 88511.0 82229.0 317570.0 309338.0 27157.0 29691.0 42934.0 40755.0 242629.0 243267.0 146131.0 138182.0 49248.0 51928.0 15231.0 19933.0 66464.0 74279.0 60561.0 53288.0 14089.0 7169.0 283116.0 277447.0 99951.0 91961.0 289531.0 291110.0 78511.0 74626.0 51562.0 48706.0 8408.0 0.0 46904.0 43606.0 60697.0 52477.0 46460.0 38431.0 29859.0 35411.0 80159.0 79715.0 88007.0 87602.0 166853.0 168949.0 285515.0 277347.0 111801.0 109395.0 146116.0 151845.0 291993.0 299411.0 163306.0 162863.0 247810.0 253697.0 70488.0 69476.0 56077.0 48547.0 70887.0 74248.0 136715.0 133892.0 120426.0 118533.0 84344.0 76492.0 147119.0 155110.0 82145.0 90514.0 252798.0 259602.0 98873.0 95787.0 60985.0 66276.0 35072.0 31263.0 114820.0 121571.0 71450.0 63316.0 52486.0 59471.0 130510.0 123563.0 95887.0 92564.0 73539.0 81396.0 61095.0 69533.0 115052.0 119695.0 29152.0 37319.0 96628.0 94033.0 318234.0 316877.0 151911.0 156070.0 232876.0 225280.0 35644.0 42796.0 112690.0 104736.0 57825.0 50010.0 91177.0 95013.0 91184.0 85297.0 110230.0 110669.0 90753.0 92142.0 89330.0 82921.0 12531.0 20384.0 53247.0 55659.0 196845.0 190332.0 30008.0 37127.0 331000.0 328702.0 71617.0 63613.0 126220.0 129658.0 216321.0 221270.0 95434.0 91522.0 310631.0 317484.0 76850.0 81295.0 93833.0 87310.0 45498.0 39350.0 36756.0 43113.0 90004.0 86520.0 77587.0 69901.0 162077.0 165075.0 218831.0 217792.0 48782.0 40979.0 41647.0 44415.0 164901.0 172214.0 80270.0 88418.0 62337.0 54432.0 258730.0 252004.0 18555.0 10884.0 82222.0 86506.0 102691.0 105861.0 44823.0 36617.0 131844.0 133922.0 119091.0 166617.0 119091.0 119091.0 166617.0 166617.0
17813.0 11022.0 155940.0 155431.0 20035.0 24384.0 112971.0 108610.0 24539.0 27289.0 96387.0 99846.0 164722.0 164797.0 41918.0 37685.0 101796.0 93760.0 271692.0 263472.0 23735.0 29071.0 67206.0 60182.0 195810.0 196591.0 104023.0 96700.0 90116.0 89740.0 42290.0 49116.0 85814.0 91035.0 73758.0 65730.0 54620.0 47723.0 236611.0 231089.0 58884.0 51668.0 242910.0 244366.0 100635.0 100249.0 84131.0 77674.0 42959.0 46904.0 0.0 8078.0 99953.0 92958.0 84747.0 77732.0 37814.0 44652.0 33509.0 34374.0 124828.0 126561.0 122852.0 125871.0 238665.0 230498.0 119218.0 119775.0 99423.0 104993.0 245393.0 252872.0 177111.0 178780.0 201097.0 206896.0 90319.0 85119.0 19458.0 18449.0 24149.0 27504.0 147605.0 142504.0 139838.0 135281.0 116880.0 110203.0 100388.0 108399.0 42504.0 49740.0 207694.0 214258.0 102270.0 102887.0 20841.0 28763.0 66134.0 67886.0 138410.0 146077.0 100560.0 94003.0 20395.0 27840.0 133133.0 127966.0 118442.0 118071.0 26648.0 34546.0 29823.0 36119.0 113718.0 115407.0 76046.0 84210.0 105787.0 106815.0 271483.0 270041.0 144157.0 146104.0 188258.0 180791.0 15340.0 15440.0 71933.0 64511.0 85322.0 77244.0 44387.0 48149.0 52086.0 48845.0 130612.0 128132.0 91954.0 96909.0 85830.0 77854.0 37090.0 33283.0 93817.0 98348.0 151859.0 145749.0 29955.0 24789.0 284277.0 282099.0 97740.0 90690.0 133943.0 134533.0 169446.0 174366.0 122376.0 121207.0 263782.0 270635.0 37427.0 44487.0 51451.0 43692.0 19002.0 13899.0 26131.0 21125.0 111469.0 105231.0 85210.0 80055.0 116101.0 119655.0 172237.0 171470.0 88416.0 81149.0 40995.0 49142.0 118066.0 125334.0 78364.0 84495.0 31416.0 26609.0 213669.0 207213.0 31028.0 38386.0 35361.0 39783.0 106577.0 106434.0 21542.0 21314.0 85079.0 87018.0 106667.0 119965.0 106667.0 106667.0 119965.0 119965.0
23702.0 18274.0 148326.0 147682.0 12156.0 17608.0 117740.0 112997.0 18360.0 22983.0 95181.0 98027.0 166399.0 166115.0 41384.0 38711.0 106255.0 98345.0 273987.0 265756.0 24509.0 31342.0 59789.0 52598.0 199340.0 199809.0 103961.0 96325.0 84125.0 83266.0 41664.0 49095.0 77901.0 83021.0 77672.0 69490.0 53062.0 45589.0 239560.0 233856.0 58055.0 50388.0 246025.0 247702.0 92751.0 92536.0 77114.0 70427.0 38494.0 43606.0 8078.0 0.0 93577.0 86862.0 84568.0 77196.0 40118.0 47611.0 39000.0 41004.0 117924.0 119944.0 123807.0 126336.0 242285.0 234117.0 124650.0 124832.0 104298.0 109482.0 248476.0 255865.0 169055.0 170705.0 204381.0 210372.0 93622.0 88954.0 27438.0 25504.0 28009.0 32950.0 139577.0 134523.0 143778.0 139586.0 118330.0 111347.0 103776.0 111735.0 40756.0 48654.0 209396.0 216129.0 108021.0 108189.0 18535.0 25570.0 59338.0 61684.0 141673.0 149237.0 102476.0 95528.0 14296.0 22393.0 125359.0 120098.0 121704.0 120836.0 31099.0 38598.0 24423.0 31765.0 120110.0 122112.0 72611.0 80760.0 97736.0 98737.0 274826.0 273594.0 137154.0 139326.0 189640.0 182091.0 8753.0 7401.0 71088.0 63366.0 87260.0 79032.0 49405.0 52126.0 50294.0 45967.0 134331.0 132274.0 97835.0 102427.0 92160.0 84234.0 35441.0 33340.0 87727.0 92636.0 153455.0 147079.0 32337.0 28938.0 287561.0 285182.0 90072.0 83138.0 139452.0 140387.0 173738.0 178399.0 124932.0 123251.0 267401.0 274229.0 35448.0 41624.0 51208.0 44114.0 25389.0 18403.0 30176.0 26855.0 114830.0 108943.0 77146.0 71978.0 118472.0 121545.0 175327.0 174202.0 87977.0 80471.0 45283.0 53221.0 122581.0 129655.0 70543.0 76834.0 26028.0 20020.0 215344.0 208712.0 26175.0 34033.0 39454.0 45020.0 112317.0 112555.0 13650.0 13535.0 89866.0 91210.0 113965.0 124850.0 113965.0 113965.0 124850.0 124850.0
117246.0 110967.0 128959.0 123298.0 82516.0 75969.0 148345.0 140620.0 75455.0 73746.0 71391.0 65513.0 247436.0 245393.0 124766.0 126547.0 136561.0 132355.0 355918.0 347740.0 86403.0 90228.0 38733.0 46344.0 287512.0 286823.0 179921.0 171488.0 11804.0 10427.0 75234.0 76955.0 43080.0 49438.0 113264.0 107839.0 66326.0 65678.0 324986.0 318556.0 136866.0 129125.0 332090.0 334657.0 42334.0 34516.0 20468.0 28497.0 59633.0 60697.0 99953.0 93577.0 0.0 8540.0 78635.0 73432.0 90265.0 94739.0 132531.0 134310.0 27594.0 27054.0 203250.0 203206.0 330633.0 322483.0 161333.0 157104.0 196844.0 201311.0 334382.0 341301.0 120296.0 117481.0 291585.0 298228.0 116577.0 118938.0 114101.0 107326.0 120894.0 126498.0 100349.0 100918.0 159129.0 160049.0 112547.0 104866.0 193127.0 200735.0 120421.0 128531.0 289382.0 296837.0 151913.0 147035.0 105187.0 106635.0 34757.0 32111.0 149628.0 154407.0 107819.0 100077.0 94680.0 97802.0 105988.0 98117.0 134645.0 128594.0 124268.0 131218.0 98401.0 105230.0 169321.0 175073.0 45435.0 43832.0 72280.0 65444.0 361582.0 361205.0 137236.0 143668.0 268473.0 260722.0 84949.0 88751.0 147454.0 139799.0 100071.0 95147.0 142630.0 144201.0 127025.0 119379.0 149169.0 152413.0 145570.0 145074.0 146169.0 140718.0 73056.0 81000.0 7946.0 12001.0 234548.0 227158.0 90617.0 97305.0 373979.0 370747.0 32474.0 28944.0 174373.0 179494.0 264519.0 268413.0 129183.0 122370.0 355759.0 362408.0 116077.0 116729.0 133460.0 129623.0 104587.0 97164.0 97095.0 102686.0 130869.0 130548.0 64274.0 57928.0 204109.0 205207.0 262214.0 259709.0 77077.0 72700.0 101896.0 103361.0 214325.0 220911.0 78079.0 84941.0 98805.0 92561.0 295058.0 287645.0 69662.0 63855.0 132086.0 138421.0 155142.0 159796.0 86456.0 80958.0 182408.0 182716.0 177758.0 217268.0 177758.0 177758.0 217268.0 217268.0
110437.0 103940.0 133240.0 127928.0 76152.0 69288.0 140155.0 132462.0 68588.0 66366.0 64349.0 58936.0 243351.0 241532.0 119574.0 120909.0 128306.0 123994.0 351927.0 343730.0 78522.0 82098.0 35153.0 42271.0 282415.0 281931.0 176114.0 167697.0 3281.0 7406.0 66863.0 68450.0 44241.0 51437.0 104779.0 99312.0 57798.0 57284.0 320413.0 314091.0 132305.0 124451.0 327419.0 329835.0 46255.0 38799.0 19156.0 26320.0 51850.0 52477.0 92958.0 86862.0 8540.0 0.0 70760.0 65308.0 81911.0 86274.0 125862.0 127329.0 36112.0 35126.0 199192.0 199452.0 325527.0 317366.0 153057.0 148918.0 190655.0 195329.0 329741.0 336746.0 126982.0 124486.0 286668.0 293203.0 108350.0 110571.0 106520.0 99598.0 114468.0 119811.0 105878.0 105925.0 151551.0 152267.0 105475.0 97684.0 187639.0 195329.0 115499.0 123738.0 285550.0 292922.0 143468.0 138654.0 99317.0 101255.0 29270.0 25187.0 142311.0 147279.0 100089.0 92243.0 88870.0 92510.0 109749.0 101898.0 126947.0 121055.0 117772.0 124892.0 93245.0 100403.0 160847.0 166568.0 37153.0 36129.0 75277.0 68958.0 356821.0 356289.0 139906.0 146072.0 264741.0 256993.0 78161.0 82397.0 143281.0 135515.0 91934.0 86847.0 136142.0 138041.0 122500.0 114984.0 141531.0 144588.0 137065.0 136626.0 137631.0 132179.0 64907.0 72833.0 867.0 8532.0 230415.0 223128.0 82458.0 89286.0 369290.0 366201.0 36330.0 31137.0 166194.0 171228.0 258865.0 262932.0 121821.0 115182.0 350650.0 357385.0 110977.0 112122.0 128507.0 124279.0 96798.0 89542.0 89034.0 94804.0 123007.0 122490.0 65032.0 58077.0 199242.0 200620.0 257304.0 255016.0 69406.0 64724.0 93502.0 94867.0 208381.0 215095.0 77651.0 84957.0 93759.0 87179.0 291276.0 283950.0 62327.0 56175.0 125759.0 131847.0 146722.0 151327.0 80525.0 74591.0 176205.0 176780.0 169228.0 211139.0 169228.0 169228.0 211139.0 211139.0
99937.0 91977.0 195823.0 191865.0 82267.0 74993.0 70489.0 62618.0 72441.0 64586.0 16000.0 23552.0 249097.0 249406.0 125908.0 122402.0 59345.0 56662.0 355098.0 346911.0 61013.0 56768.0 81951.0 82777.0 276656.0 278294.0 188454.0 180883.0 67971.0 75023.0 42906.0 35645.0 103766.0 112027.0 42730.0 41556.0 32976.0 41062.0 318778.0 313689.0 142622.0 134909.0 324634.0 325473.0 112189.0 106102.0 81461.0 82823.0 54803.0 46460.0 84747.0 84568.0 78635.0 70760.0 0.0 8042.0 49142.0 45805.0 114093.0 110914.0 104104.0 100042.0 207592.0 210568.0 319148.0 310981.0 84053.0 79175.0 177396.0 184193.0 327188.0 334870.0 196538.0 194603.0 282600.0 287819.0 39487.0 43936.0 84738.0 76958.0 108129.0 108960.0 172996.0 171598.0 81132.0 81523.0 38659.0 30590.0 182689.0 190685.0 125195.0 133211.0 291983.0 298363.0 77480.0 71317.0 103076.0 109576.0 71841.0 64413.0 72858.0 78669.0 29490.0 21493.0 96259.0 103942.0 171251.0 163812.0 56327.0 50909.0 109847.0 117734.0 105744.0 114114.0 95298.0 102101.0 34438.0 34837.0 136206.0 131966.0 352443.0 350536.0 195764.0 200460.0 272813.0 265398.0 78375.0 86119.0 155646.0 147881.0 22592.0 20944.0 125062.0 130763.0 134634.0 129549.0 70998.0 73828.0 73606.0 70951.0 77378.0 74554.0 49569.0 51519.0 71080.0 67826.0 236318.0 230371.0 56131.0 63709.0 365357.0 363756.0 103168.0 95832.0 96329.0 101994.0 247984.0 253800.0 52442.0 46995.0 344264.0 351117.0 119857.0 125341.0 135688.0 128265.0 73784.0 72381.0 62498.0 70450.0 52250.0 52150.0 119321.0 111358.0 199919.0 203959.0 254415.0 254404.0 4510.0 6409.0 54144.0 49080.0 196802.0 204580.0 124766.0 133015.0 107130.0 99314.0 297975.0 291674.0 63767.0 57023.0 118447.0 120317.0 80004.0 85856.0 89518.0 81348.0 163971.0 167692.0 109849.0 197172.0 109849.0 109849.0 197172.0 197172.0
93353.0 85370.0 188411.0 184577.0 74497.0 67141.0 74932.0 67189.0 64608.0 56802.0 19698.0 25682.0 242335.0 242516.0 118577.0 115298.0 63281.0 59679.0 348694.0 340495.0 54032.0 50341.0 74423.0 75005.0 270781.0 272256.0 181151.0 173514.0 62378.0 69068.0 35581.0 28690.0 96543.0 104795.0 43259.0 40549.0 25063.0 33147.0 312668.0 307478.0 135213.0 127448.0 318621.0 319585.0 105425.0 99560.0 74833.0 75767.0 46765.0 38431.0 77732.0 77196.0 73432.0 65308.0 8042.0 0.0 43214.0 40876.0 107810.0 104988.0 99607.0 96038.0 200559.0 203396.0 313350.0 305182.0 88089.0 83686.0 171786.0 178435.0 321162.0 328804.0 190125.0 188394.0 276606.0 281940.0 43257.0 46462.0 78855.0 70967.0 101361.0 102536.0 166123.0 164537.0 87674.0 87559.0 46542.0 38513.0 176427.0 184439.0 117703.0 125783.0 285267.0 291721.0 80062.0 74442.0 95657.0 102019.0 64409.0 57164.0 79962.0 86004.0 36187.0 27920.0 88609.0 96219.0 163809.0 156420.0 62746.0 57806.0 103214.0 111141.0 98001.0 106391.0 97822.0 104281.0 28309.0 30217.0 128844.0 124785.0 346599.0 344738.0 187968.0 192604.0 265960.0 258511.0 70774.0 78490.0 148212.0 140409.0 26639.0 22454.0 118851.0 124315.0 127100.0 121892.0 77463.0 79766.0 75219.0 73356.0 78026.0 74427.0 41969.0 44449.0 65697.0 63135.0 229514.0 223470.0 49782.0 57599.0 359496.0 357775.0 96593.0 89115.0 100947.0 106200.0 242462.0 248144.0 59691.0 54607.0 338466.0 345319.0 112361.0 117709.0 128385.0 121073.0 67740.0 65745.0 56448.0 64445.0 58162.0 57200.0 111684.0 103730.0 193334.0 197216.0 248262.0 248083.0 10790.0 3633.0 49496.0 45373.0 191146.0 198868.0 116863.0 125108.0 99369.0 91530.0 291253.0 284876.0 55865.0 49030.0 111873.0 114090.0 82904.0 88295.0 81740.0 73547.0 158187.0 161669.0 109735.0 191730.0 109735.0 109735.0 191730.0 191730.0
51243.0 43395.0 177789.0 175739.0 43067.0 38699.0 79829.0 74324.0 36237.0 29358.0 62847.0 67940.0 200405.0 200963.0 79726.0 75085.0 67807.0 60303.0 306006.0 297825.0 16095.0 8818.0 70452.0 66466.0 227611.0 229174.0 141558.0 134378.0 78646.0 81741.0 15059.0 16293.0 93613.0 100913.0 38659.0 30404.0 26525.0 24666.0 269643.0 264548.0 96695.0 89457.0 275524.0 276422.0 106707.0 103508.0 81185.0 77680.0 33796.0 29859.0 37814.0 40118.0 90265.0 81911.0 49142.0 43214.0 0.0 8061.0 64998.0 61819.0 117715.0 116974.0 159583.0 163021.0 270155.0 261988.0 88534.0 87567.0 128577.0 135227.0 278073.0 285744.0 190395.0 190501.0 233495.0 238772.0 53694.0 49626.0 35658.0 27823.0 59795.0 59989.0 162720.0 159132.0 104256.0 100576.0 79115.0 72584.0 133561.0 141552.0 80165.0 87546.0 243198.0 249476.0 73521.0 71981.0 58077.0 65572.0 63979.0 61003.0 101638.0 109162.0 62750.0 56240.0 53946.0 62143.0 153563.0 147176.0 81689.0 80719.0 61192.0 68970.0 64148.0 71829.0 88331.0 92154.0 52222.0 59521.0 121408.0 119956.0 303420.0 301543.0 170883.0 174049.0 224272.0 216934.0 37059.0 44324.0 109738.0 102322.0 47510.0 39439.0 75931.0 81777.0 89763.0 85970.0 94609.0 93056.0 64315.0 67169.0 61349.0 54351.0 18611.0 11617.0 82648.0 84276.0 187711.0 181971.0 7877.0 14606.0 316323.0 314659.0 100546.0 92577.0 103363.0 105558.0 199262.0 204930.0 84849.0 83427.0 295271.0 302124.0 74984.0 81609.0 89197.0 81283.0 24642.0 24257.0 13366.0 21310.0 74879.0 69305.0 101226.0 94151.0 151011.0 155278.0 205273.0 205286.0 53260.0 46834.0 11809.0 16264.0 147932.0 155656.0 100148.0 107745.0 65720.0 58746.0 249197.0 243017.0 31799.0 31379.0 69649.0 71193.0 77639.0 79603.0 49660.0 42888.0 114982.0 118569.0 89706.0 148561.0 89706.0 89706.0 148561.0 148561.0
56726.0 49103.0 185604.0 183459.0 51072.0 46755.0 71769.0 66292.0 44285.0 37308.0 60525.0 66353.0 205409.0 206195.0 86389.0 81334.0 59757.0 52243.0 310306.0 302149.0 24024.0 16358.0 77244.0 73641.0 231112.0 232934.0 147733.0 140717.0 82993.0 86683.0 20182.0 18113.0 100582.0 108027.0 30629.0 22368.0 29032.0 29297.0 273496.0 268563.0 103351.0 96284.0 279223.0 279928.0 113368.0 109855.0 86969.0 83945.0 40424.0 35411.0 44652.0 47611.0 94739.0 86274.0 45805.0 40876.0 8061.0 0.0 69620.0 65687.0 122312.0 121112.0 165175.0 168864.0 273534.0 265366.0 80545.0 79515.0 131692.0 138593.0 281792.0 289521.0 197488.0 197428.0 237185.0 242277.0 46013.0 41667.0 39672.0 32319.0 65544.0 64976.0 170053.0 166606.0 96387.0 92594.0 72989.0 66837.0 137816.0 145762.0 87152.0 94324.0 248064.0 254209.0 65738.0 64010.0 65237.0 72880.0 70246.0 66650.0 94068.0 101654.0 56243.0 50226.0 61615.0 69813.0 161324.0 154869.0 74096.0 73442.0 66624.0 74218.0 71828.0 79375.0 80874.0 84967.0 54308.0 61030.0 128913.0 127259.0 306852.0 304922.0 178911.0 182100.0 229400.0 222134.0 44987.0 52139.0 116348.0 109062.0 41095.0 33341.0 80314.0 86607.0 96737.0 93232.0 86812.0 85107.0 56728.0 59314.0 54290.0 47611.0 25426.0 19277.0 86971.0 87959.0 192813.0 187258.0 15333.0 20211.0 319779.0 318295.0 106865.0 98868.0 95362.0 97661.0 202271.0 208096.0 77725.0 76720.0 298650.0 305503.0 82040.0 88866.0 95702.0 87642.0 29407.0 30807.0 18852.0 26090.0 67220.0 61461.0 108849.0 101677.0 155804.0 160346.0 209238.0 209529.0 50151.0 44493.0 8746.0 9037.0 151117.0 158931.0 108088.0 115722.0 73412.0 66564.0 254068.0 248023.0 39577.0 38479.0 74848.0 75643.0 69819.0 72012.0 57591.0 50919.0 118414.0 122428.0 83699.0 151405.0 83699.0 83699.0 151405.0 151405.0
15698.0 23263.0 169788.0 170805.0 50194.0 56590.0 127140.0 124583.0 57312.0 60791.0 127164.0 131405.0 135825.0 136779.0 31199.0 22764.0 117756.0 109592.0 241011.0 232829.0 54851.0 57471.0 97648.0 90093.0 163346.0 164550.0 81548.0 75717.0 123118.0 122191.0 73578.0 79333.0 113255.0 117099.0 93348.0 86434.0 86517.0 80276.0 204887.0 199668.0 44011.0 40463.0 210925.0 212074.0 128130.0 129010.0 115593.0 108563.0 76469.0 80159.0 33509.0 39000.0 132531.0 125862.0 114093.0 107810.0 64998.0 69620.0 0.0 8047.0 156444.0 158750.0 96495.0 100906.0 206073.0 197906.0 129970.0 132360.0 65968.0 71752.0 213450.0 221053.0 197715.0 200462.0 168953.0 174481.0 111038.0 104291.0 30051.0 37350.0 12758.0 6057.0 167670.0 161561.0 156640.0 150724.0 142100.0 136309.0 68620.0 76629.0 36455.0 38310.0 178444.0 184605.0 112091.0 115006.0 31289.0 35423.0 98115.0 100683.0 157750.0 165612.0 124973.0 119596.0 40743.0 42364.0 149268.0 145448.0 138289.0 139553.0 9100.0 8047.0 43259.0 42980.0 119100.0 118517.0 109203.0 117345.0 127327.0 130022.0 239150.0 237453.0 152935.0 153192.0 159876.0 152673.0 47714.0 44048.0 54942.0 49858.0 110178.0 102791.0 11133.0 17067.0 42895.0 45143.0 148489.0 144436.0 101654.0 108256.0 93285.0 85658.0 69533.0 64304.0 126726.0 131566.0 123291.0 117932.0 58035.0 50398.0 252006.0 250105.0 126786.0 120380.0 143778.0 142438.0 136246.0 141382.0 144396.0 144750.0 231189.0 238042.0 34674.0 42167.0 36012.0 28216.0 40415.0 42399.0 51634.0 43768.0 131189.0 123932.0 107881.0 104429.0 86183.0 90828.0 140467.0 140314.0 118129.0 111379.0 62851.0 70478.0 84777.0 92178.0 97042.0 101134.0 44110.0 45594.0 184448.0 178430.0 64470.0 71895.0 8000.0 6380.0 116238.0 113898.0 47626.0 51734.0 51688.0 54165.0 105814.0 86491.0 105814.0 105814.0 86491.0 86491.0
17477.0 23398.0 176781.0 177602.0 52838.0 58489.0 120347.0 118069.0 58859.0 61344.0 124540.0 129191.0 140536.0 141830.0 39149.0 30739.0 111281.0 103155.0 244634.0 236483.0 53399.0 54930.0 100629.0 93262.0 165796.0 167382.0 88388.0 82859.0 124477.0 124071.0 71736.0 76900.0 117387.0 121648.0 87738.0 81148.0 84833.0 79113.0 207892.0 202895.0 52002.0 48504.0 213720.0 214605.0 132299.0 132756.0 118118.0 111372.0 76820.0 79715.0 34374.0 41004.0 134310.0 127329.0 110914.0 104988.0 61819.0 65687.0 8047.0 0.0 158925.0 160848.0 102302.0 107065.0 208366.0 200199.0 122739.0 125335.0 67101.0 73501.0 216275.0 223963.0 203718.0 206257.0 171687.0 176956.0 105472.0 98479.0 26176.0 34022.0 18511.0 10574.0 173719.0 167774.0 150112.0 144011.0 137390.0 131880.0 72173.0 80095.0 44247.0 46347.0 182879.0 188844.0 104840.0 108009.0 36668.0 41798.0 100302.0 102257.0 151650.0 159520.0 120149.0 115128.0 45225.0 47969.0 155909.0 151877.0 132369.0 133957.0 15218.0 16094.0 49083.0 49718.0 111416.0 110686.0 108437.0 116512.0 132974.0 135327.0 241611.0 239754.0 160425.0 160819.0 164715.0 157633.0 49435.0 46939.0 62728.0 57822.0 105586.0 98459.0 15313.0 22950.0 50909.0 52941.0 142167.0 137877.0 94454.0 101205.0 85906.0 78379.0 68435.0 62527.0 128188.0 132633.0 128188.0 123137.0 55370.0 47405.0 254510.0 252846.0 130421.0 123748.0 136403.0 134887.0 137782.0 143263.0 138891.0 139595.0 233482.0 240335.0 42148.0 49818.0 44036.0 36262.0 37256.0 40787.0 48541.0 40544.0 125283.0 117880.0 113204.0 109347.0 90712.0 95814.0 143579.0 143854.0 115072.0 108596.0 58364.0 65647.0 86323.0 93961.0 103055.0 107502.0 50088.0 50605.0 188882.0 183062.0 65230.0 72248.0 16024.0 11266.0 108950.0 106404.0 51291.0 54325.0 53248.0 56792.0 97865.0 87390.0 97865.0 97865.0 87390.0 87390.0
141584.0 135826.0 120518.0 113709.0 106281.0 100483.0 174433.0 166617.0 100339.0 99617.0 94859.0 88005.0 263911.0 261246.0 145212.0 148065.0 162887.0 159051.0 371732.0 363630.0 113096.0 117336.0 59153.0 66945.0 306668.0 305411.0 196092.0 187703.0 39388.0 36216.0 102715.0 104549.0 52157.0 54881.0 140450.0 135231.0 93910.0 93191.0 342561.0 335840.0 155548.0 148208.0 349924.0 352914.0 42977.0 36315.0 40853.0 48073.0 86313.0 88007.0 124828.0 117924.0 27594.0 36112.0 104104.0 99607.0 117715.0 122312.0 156444.0 158925.0 0.0 8160.0 219924.0 219028.0 349823.0 341599.0 187695.0 183164.0 219247.0 223166.0 352126.0 358782.0 102427.0 98245.0 310231.0 317154.0 142862.0 145677.0 140110.0 133652.0 144332.0 150492.0 88027.0 90684.0 183241.0 184793.0 135472.0 128180.0 213734.0 221083.0 140257.0 147923.0 304948.0 312612.0 178907.0 173787.0 127520.0 127800.0 58698.0 58137.0 172984.0 177161.0 132656.0 125259.0 117041.0 118919.0 100271.0 92695.0 159232.0 152738.0 147839.0 154339.0 119189.0 125095.0 196426.0 202318.0 72234.0 69452.0 71470.0 63517.0 379601.0 379670.0 134319.0 141498.0 283841.0 276118.0 109553.0 112397.0 164982.0 157722.0 126134.0 121726.0 166051.0 166826.0 145758.0 137906.0 173508.0 177318.0 172827.0 172087.0 173638.0 168266.0 100233.0 108188.0 35462.0 36484.0 251233.0 243592.0 117772.0 124210.0 391770.0 388131.0 36526.0 39237.0 200376.0 205794.0 285277.0 288688.0 152801.0 145532.0 374779.0 381173.0 136421.0 135839.0 153194.0 150382.0 131043.0 123328.0 124073.0 129324.0 155967.0 156254.0 71431.0 67510.0 222995.0 223325.0 280941.0 277842.0 102030.0 98492.0 129391.0 130952.0 236025.0 242249.0 87509.0 92662.0 119325.0 113991.0 310458.0 302824.0 95494.0 90336.0 155199.0 162074.0 182031.0 186885.0 109230.0 104755.0 204914.0 204542.0 205338.0 239442.0 205338.0 205338.0 239442.0 239442.0
143646.0 137582.0 128678.0 121866.0 108572.0 102374.0 170525.0 162660.0 102023.0 100666.0 89906.0 82753.0 269076.0 266575.0 148979.0 151435.0 159189.0 155692.0 377131.0 369006.0 113457.0 117208.0 62411.0 70254.0 311049.0 309977.0 201270.0 192857.0 38364.0 36891.0 101917.0 103140.0 58057.0 61489.0 137715.0 132868.0 92337.0 92319.0 347456.0 340818.0 159928.0 152445.0 354745.0 357605.0 50055.0 42992.0 43622.0 51345.0 86686.0 87602.0 126561.0 119944.0 27054.0 35126.0 100042.0 96038.0 116974.0 121112.0 158750.0 160848.0 8160.0 0.0 224994.0 224326.0 354211.0 346009.0 183978.0 179218.0 222333.0 226490.0 356975.0 363711.0 110016.0 105619.0 314781.0 321616.0 139182.0 142394.0 141086.0 134361.0 146860.0 152749.0 96140.0 98842.0 178191.0 180044.0 130072.0 122960.0 217541.0 224992.0 144225.0 152058.0 310381.0 317995.0 175835.0 170453.0 130514.0 131260.0 60637.0 58974.0 167637.0 171577.0 128099.0 120919.0 119996.0 122371.0 108358.0 100758.0 154462.0 147778.0 150308.0 157033.0 122763.0 129011.0 193471.0 199568.0 69428.0 65831.0 79108.0 71208.0 384376.0 384306.0 142309.0 149449.0 289312.0 281576.0 111416.0 114762.0 169730.0 162340.0 122346.0 118369.0 168616.0 169763.0 150101.0 142293.0 168584.0 172668.0 170135.0 169050.0 171387.0 166296.0 100021.0 107952.0 34362.0 33588.0 256330.0 248752.0 117577.0 124338.0 396618.0 393100.0 42823.0 44441.0 196359.0 201997.0 289077.0 292670.0 147613.0 140185.0 379233.0 385713.0 140203.0 140037.0 157226.0 154046.0 131635.0 124171.0 124112.0 129740.0 151473.0 152123.0 77992.0 73588.0 227406.0 227978.0 285449.0 282535.0 97696.0 94668.0 128508.0 129565.0 239423.0 245798.0 93815.0 99303.0 122996.0 117309.0 315937.0 308354.0 96566.0 90893.0 157898.0 164519.0 178831.0 183923.0 111985.0 107026.0 207944.0 207863.0 203519.0 242642.0 203519.0 203519.0 242642.0 242642.0
108461.0 116207.0 173423.0 178654.0 129433.0 137439.0 221997.0 220150.0 139456.0 146094.0 218939.0 221798.0 44185.0 42641.0 82867.0 85279.0 213413.0 205330.0 152736.0 144539.0 146585.0 151249.0 164528.0 157038.0 90576.0 87564.0 24044.0 32296.0 197361.0 193247.0 165022.0 171967.0 168106.0 167221.0 189828.0 182914.0 176851.0 169379.0 122787.0 115945.0 67587.0 75649.0 130329.0 133802.0 180128.0 184854.0 183033.0 174945.0 160515.0 166853.0 122852.0 123807.0 203250.0 199192.0 207592.0 200559.0 159583.0 165175.0 96495.0 102302.0 219924.0 224994.0 0.0 8078.0 132704.0 124431.0 223032.0 226370.0 62433.0 55986.0 132449.0 138933.0 216894.0 222713.0 92430.0 99974.0 207529.0 200706.0 126276.0 133001.0 99787.0 100443.0 189920.0 181994.0 252128.0 245746.0 238115.0 231987.0 41046.0 38028.0 85276.0 76795.0 86555.0 93785.0 205232.0 209236.0 105876.0 100949.0 170144.0 176003.0 253949.0 261820.0 221145.0 215400.0 114725.0 108762.0 164080.0 164968.0 234649.0 236044.0 98550.0 91033.0 107547.0 99596.0 208913.0 206530.0 195117.0 203095.0 162602.0 169192.0 160087.0 160702.0 146184.0 141601.0 66146.0 58488.0 131257.0 124087.0 55928.0 63779.0 206168.0 198516.0 87005.0 79547.0 77131.0 84352.0 244386.0 239870.0 195156.0 202327.0 185994.0 179003.0 159205.0 156124.0 200016.0 206855.0 31341.0 23940.0 152004.0 145189.0 172044.0 168231.0 183936.0 180729.0 235834.0 233136.0 79946.0 79499.0 240891.0 241138.0 156887.0 162699.0 90401.0 87555.0 73055.0 79695.0 135791.0 135495.0 146517.0 139090.0 227557.0 220181.0 151612.0 153429.0 22372.0 14598.0 64393.0 59505.0 211263.0 203945.0 159014.0 166818.0 57329.0 55609.0 135224.0 132921.0 106687.0 114171.0 92381.0 85358.0 148473.0 156471.0 90444.0 91179.0 209128.0 205509.0 122918.0 130783.0 63979.0 56086.0 192960.0 64459.0 192960.0 192960.0 64459.0 64459.0
112166.0 119773.0 168290.0 173749.0 131296.0 139286.0 227176.0 225113.0 141396.0 148268.0 221508.0 224101.0 45121.0 42254.0 85057.0 88186.0 218338.0 210219.0 152836.0 144693.0 149583.0 154561.0 164562.0 157199.0 94548.0 90923.0 23354.0 31757.0 197734.0 193330.0 167816.0 174924.0 167007.0 165732.0 194208.0 187135.0 179381.0 171780.0 124575.0 117480.0 69093.0 77147.0 132321.0 136174.0 178611.0 183610.0 182873.0 174785.0 162355.0 168949.0 125871.0 126336.0 203206.0 199452.0 210568.0 203396.0 163021.0 168864.0 100906.0 107065.0 219028.0 224326.0 8078.0 0.0 135981.0 127743.0 228589.0 231752.0 70226.0 63925.0 134339.0 140539.0 212419.0 218412.0 95757.0 103476.0 211862.0 205193.0 130387.0 136872.0 103326.0 104532.0 185915.0 177946.0 257140.0 250902.0 241853.0 235566.0 48655.0 45992.0 86916.0 78480.0 86183.0 93702.0 210744.0 214547.0 108132.0 102743.0 170590.0 176708.0 258627.0 266493.0 225001.0 219063.0 116559.0 110216.0 159855.0 161079.0 239195.0 240367.0 102338.0 95033.0 108885.0 100741.0 214895.0 212656.0 196878.0 204780.0 159968.0 166766.0 162068.0 163065.0 140702.0 135863.0 65290.0 57541.0 133497.0 126159.0 56773.0 64758.0 209938.0 202177.0 91850.0 84155.0 78317.0 85189.0 249229.0 244893.0 200584.0 207660.0 191532.0 184420.0 161777.0 159050.0 200265.0 207258.0 32994.0 25041.0 155351.0 148761.0 173777.0 169640.0 182819.0 179939.0 241575.0 239063.0 86136.0 85153.0 245146.0 245159.0 159764.0 165308.0 92155.0 88653.0 75201.0 82323.0 139568.0 138822.0 150102.0 142832.0 232095.0 224819.0 149867.0 152087.0 30444.0 22661.0 68623.0 63021.0 214143.0 206731.0 162978.0 170880.0 65403.0 63584.0 133399.0 130635.0 107927.0 115575.0 91854.0 84499.0 150466.0 158422.0 94495.0 95848.0 214690.0 211256.0 124596.0 132597.0 71136.0 63179.0 199086.0 72531.0 199086.0 199086.0 72531.0 72531.0
221342.0 229212.0 302363.0 308365.0 250911.0 258616.0 315206.0 315123.0 260088.0 265228.0 332903.0 337413.0 92764.0 98389.0 205963.0 205042.0 308911.0 301430.0 60542.0 56123.0 260920.0 263225.0 292227.0 284450.0 43162.0 45141.0 156563.0 164495.0 323299.0 320304.0 279643.0 285190.0 298855.0 298718.0 290956.0 285737.0 292587.0 286205.0 27211.0 33350.0 194300.0 201777.0 22567.0 16121.0 311609.0 315794.0 311089.0 303115.0 280773.0 285515.0 238665.0 242285.0 330633.0 325527.0 319148.0 313350.0 270155.0 273534.0 206073.0 208366.0 349823.0 354211.0 132704.0 135981.0 0.0 8282.0 313401.0 317939.0 141915.0 134956.0 24271.0 30237.0 347738.0 353965.0 40278.0 32831.0 308229.0 300405.0 234499.0 242386.0 214629.0 211725.0 321777.0 313786.0 345925.0 338592.0 342581.0 337949.0 138527.0 130612.0 210242.0 202224.0 68957.0 62618.0 296335.0 301765.0 226904.0 224304.0 296285.0 301016.0 350300.0 358028.0 325182.0 321333.0 237097.0 233024.0 295577.0 297013.0 332594.0 335785.0 212021.0 204128.0 232314.0 225444.0 297062.0 294411.0 314666.0 322833.0 295263.0 301753.0 36574.0 32798.0 273976.0 268275.0 84170.0 89529.0 250796.0 244858.0 185129.0 192171.0 311625.0 305245.0 194940.0 190517.0 204117.0 211943.0 339663.0 333847.0 287197.0 294890.0 277477.0 271743.0 275475.0 270370.0 326384.0 332523.0 103285.0 111265.0 263700.0 255770.0 49264.0 50233.0 314613.0 310654.0 324862.0 321365.0 73021.0 65941.0 341031.0 343194.0 25228.0 32458.0 214598.0 214192.0 197202.0 201291.0 245622.0 248458.0 256905.0 248907.0 325797.0 317843.0 283560.0 284753.0 126830.0 126851.0 69044.0 73199.0 323362.0 316959.0 265625.0 272073.0 122474.0 114611.0 267337.0 265445.0 231858.0 238366.0 67941.0 74217.0 268437.0 276316.0 203308.0 199703.0 299763.0 294906.0 245552.0 252427.0 155182.0 151909.0 280842.0 124149.0 280842.0 280842.0 124149.0 124149.0
213175.0 221044.0 294295.0 300263.0 242697.0 250387.0 307039.0 306955.0 251921.0 257060.0 324736.0 329246.0 84692.0 90427.0 197796.0 196848.0 300744.0 293263.0 62504.0 57170.0 252753.0 255057.0 284053.0 276282.0 34974.0 36872.0 148284.0 156213.0 315129.0 312160.0 271475.0 277023.0 290603.0 290449.0 282789.0 277570.0 284419.0 278038.0 24960.0 29523.0 186089.0 193584.0 22884.0 18508.0 303341.0 307539.0 302911.0 294931.0 272605.0 277347.0 230498.0 234117.0 322483.0 317366.0 310981.0 305182.0 261988.0 265366.0 197906.0 200199.0 341599.0 346009.0 124431.0 127743.0 8282.0 0.0 305233.0 309772.0 133747.0 126789.0 25194.0 32462.0 339589.0 345794.0 32013.0 24552.0 300062.0 292238.0 226332.0 234219.0 206462.0 203558.0 313569.0 305581.0 337758.0 330425.0 334414.0 329782.0 130359.0 122445.0 202070.0 194044.0 62661.0 56794.0 288167.0 293598.0 218705.0 216134.0 288123.0 292841.0 342133.0 349861.0 317014.0 313166.0 228911.0 224856.0 287384.0 288791.0 324427.0 327618.0 203854.0 195961.0 224146.0 217279.0 288895.0 286244.0 306498.0 314665.0 286984.0 293472.0 42924.0 40042.0 265944.0 260285.0 76892.0 81997.0 242629.0 236634.0 176874.0 183932.0 303458.0 297078.0 186773.0 182350.0 195910.0 203731.0 331496.0 325680.0 279030.0 286722.0 269310.0 263576.0 267307.0 262203.0 318223.0 324349.0 95087.0 103062.0 255533.0 247602.0 55828.0 55954.0 306364.0 302424.0 316695.0 313198.0 64854.0 57773.0 332864.0 335027.0 33284.0 40238.0 206431.0 206001.0 189030.0 193120.0 237455.0 240291.0 248738.0 240740.0 317630.0 309676.0 275283.0 276486.0 118613.0 118584.0 60777.0 64927.0 315194.0 308792.0 257458.0 263906.0 114307.0 106444.0 259057.0 257163.0 223693.0 230197.0 62160.0 67989.0 260270.0 268149.0 195140.0 191536.0 291596.0 286739.0 237365.0 244215.0 147014.0 143742.0 272674.0 115982.0 272674.0 272674.0 115982.0 115982.0
123757.0 118459.0 265860.0 263419.0 130652.0 127119.0 14177.0 21991.0 124715.0 117853.0 96383.0 104437.0 256564.0 259284.0 156497.0 149346.0 24808.0 29663.0 353323.0 345388.0 103803.0 95817.0 154655.0 152378.0 271287.0 274003.0 211028.0 205594.0 150012.0 156135.0 98096.0 91901.0 178152.0 186052.0 51295.0 58999.0 99703.0 104659.0 314602.0 310440.0 172375.0 166835.0 319745.0 319954.0 189432.0 184606.0 160114.0 159188.0 118764.0 111801.0 119218.0 124650.0 161333.0 153057.0 84053.0 88089.0 88534.0 80545.0 129970.0 122739.0 187695.0 183978.0 223032.0 228589.0 313401.0 305233.0 0.0 7456.0 172590.0 180691.0 322367.0 330251.0 274649.0 273738.0 277924.0 282410.0 44834.0 42906.0 104705.0 101452.0 132540.0 128113.0 248499.0 245662.0 35920.0 27475.0 65974.0 69071.0 186953.0 193857.0 159223.0 164661.0 296481.0 301228.0 17902.0 16582.0 139588.0 147635.0 146076.0 140464.0 45599.0 51655.0 58504.0 64153.0 138909.0 146835.0 241443.0 234782.0 38813.0 46609.0 131819.0 137290.0 148853.0 155308.0 21521.0 29168.0 115911.0 118267.0 208244.0 205834.0 346729.0 344789.0 259380.0 262408.0 280750.0 274365.0 124195.0 130549.0 184372.0 178364.0 61632.0 66214.0 137397.0 145461.0 168235.0 166803.0 34471.0 26360.0 28321.0 22332.0 37057.0 44365.0 104915.0 99740.0 153502.0 151223.0 245337.0 241596.0 94786.0 95891.0 359656.0 358528.0 181573.0 173695.0 14862.0 18187.0 241895.0 247751.0 50673.0 58212.0 338517.0 345370.0 154821.0 162578.0 164192.0 155789.0 100286.0 106255.0 94745.0 98127.0 37128.0 33135.0 188658.0 181219.0 207777.0 214246.0 251853.0 254053.0 86815.0 89312.0 79916.0 72686.0 191159.0 199150.0 188617.0 196268.0 150461.0 144609.0 302341.0 297696.0 119999.0 117852.0 137556.0 133932.0 13903.0 18831.0 136552.0 130723.0 163392.0 170102.0 57108.0 191029.0 57108.0 57108.0 191029.0 191029.0
125347.0 119699.0 264074.0 261419.0 130207.0 126265.0 8764.0 16558.0 123800.0 116698.0 90860.0 98839.0 260661.0 263212.0 158032.0 151102.0 20997.0 27424.0 357861.0 349926.0 103185.0 95228.0 152047.0 150119.0 275825.0 278541.0 213721.0 208075.0 145926.0 152272.0 96180.0 89627.0 175468.0 183456.0 49414.0 57448.0 96841.0 102227.0 319140.0 314978.0 174158.0 168373.0 324283.0 324492.0 186373.0 181322.0 156710.0 156126.0 116638.0 109395.0 119775.0 124832.0 157104.0 148918.0 79175.0 83686.0 87567.0 79515.0 132360.0 125335.0 183164.0 179218.0 226370.0 231752.0 317939.0 309772.0 7456.0 0.0 177127.0 185194.0 326905.0 334790.0 271624.0 270513.0 282462.0 286948.0 40611.0 39944.0 106146.0 102383.0 134249.0 130191.0 245878.0 243256.0 29382.0 21190.0 59056.0 62522.0 190926.0 197960.0 160491.0 166216.0 300920.0 305795.0 21604.0 17363.0 140364.0 148396.0 143209.0 137316.0 38363.0 44657.0 52582.0 58717.0 139127.0 147151.0 239571.0 232786.0 31594.0 39463.0 133725.0 139494.0 149178.0 155891.0 28723.0 36493.0 111778.0 113718.0 206012.0 203340.0 351267.0 349327.0 258383.0 261615.0 284895.0 278414.0 123854.0 130460.0 186354.0 180142.0 57063.0 62310.0 140207.0 148193.0 169642.0 167873.0 27135.0 19108.0 31237.0 24133.0 40667.0 47369.0 103224.0 98497.0 149332.0 146748.0 249274.0 245351.0 94188.0 95921.0 364195.0 363066.0 178295.0 170477.0 17281.0 23060.0 246434.0 252290.0 43380.0 51032.0 343055.0 349908.0 155953.0 163602.0 165996.0 157579.0 100996.0 106509.0 94721.0 98652.0 30433.0 27357.0 186683.0 179138.0 211614.0 217936.0 256391.0 258562.0 81693.0 84671.0 79698.0 72127.0 195697.0 203689.0 187281.0 195044.0 150787.0 144675.0 306805.0 302030.0 118622.0 116002.0 139802.0 136580.0 18404.0 24764.0 136333.0 130188.0 167538.0 174081.0 63495.0 195567.0 63495.0 63495.0 195567.0 195567.0
81644.0 89182.0 207083.0 210360.0 114508.0 121602.0 174340.0 174146.0 122630.0 126648.0 191420.0 196241.0 85164.0 88963.0 75548.0 71388.0 167879.0 160324.0 181118.0 173136.0 120371.0 121991.0 160115.0 152305.0 99665.0 102101.0 66278.0 67658.0 188060.0 186422.0 138827.0 143944.0 172024.0 174148.0 149369.0 144055.0 151910.0 146010.0 142747.0 138407.0 71321.0 76120.0 148046.0 148413.0 186362.0 188715.0 178737.0 171211.0 142344.0 146116.0 99423.0 104298.0 196844.0 190655.0 177396.0 171786.0 128577.0 131692.0 65968.0 67101.0 219247.0 222333.0 62433.0 70226.0 141915.0 133747.0 172590.0 177127.0 0.0 8150.0 150656.0 158504.0 243839.0 248117.0 106123.0 110812.0 166728.0 158962.0 93001.0 100960.0 76335.0 71927.0 214328.0 207104.0 205059.0 197759.0 200885.0 196164.0 21879.0 24862.0 81388.0 75469.0 123909.0 128669.0 155523.0 160916.0 91819.0 91673.0 162105.0 165515.0 209277.0 217027.0 183552.0 179507.0 102338.0 100489.0 191450.0 189820.0 191393.0 194431.0 73205.0 65811.0 100412.0 95639.0 156255.0 153604.0 175118.0 183245.0 178369.0 182967.0 175242.0 173303.0 183724.0 181247.0 108925.0 103054.0 113043.0 108265.0 69686.0 72790.0 169806.0 163347.0 55045.0 52642.0 79302.0 86657.0 198704.0 192961.0 146352.0 154031.0 136643.0 130833.0 135284.0 129602.0 191522.0 196792.0 75254.0 73407.0 122399.0 114360.0 188183.0 186931.0 186893.0 181410.0 184055.0 180558.0 70707.0 76406.0 199654.0 201670.0 167031.0 173884.0 84120.0 87024.0 69796.0 70055.0 104225.0 107774.0 115445.0 107457.0 184552.0 176631.0 161700.0 160373.0 41056.0 49018.0 79514.0 81500.0 181653.0 175410.0 123724.0 130169.0 19441.0 27343.0 147478.0 148731.0 100483.0 105285.0 129756.0 125257.0 130228.0 137782.0 64946.0 59647.0 158956.0 154099.0 110424.0 116068.0 14452.0 16043.0 140034.0 20556.0 140034.0 140034.0 20556.0 20556.0
87321.0 95015.0 206549.0 210119.0 119295.0 126579.0 182344.0 182074.0 127731.0 132083.0 198022.0 202678.0 77051.0 80935.0 78514.0 75102.0 175775.0 168181.0 173403.0 165392.0 126479.0 128424.0 164133.0 156299.0 92531.0 94663.0 62168.0 64468.0 192805.0 190884.0 145069.0 150397.0 175145.0 176920.0 156912.0 151463.0 158104.0 152011.0 135316.0 130822.0 72576.0 78042.0 140773.0 141340.0 189299.0 191951.0 182868.0 175230.0 147772.0 151845.0 104993.0 109482.0 201311.0 195329.0 184193.0 178435.0 135227.0 138593.0 71752.0 73501.0 223166.0 226490.0 55986.0 63925.0 134956.0 126789.0 180691.0 185194.0 8150.0 0.0 143367.0 151171.0 244397.0 248900.0 98776.0 103694.0 174335.0 166617.0 99581.0 107495.0 81475.0 77605.0 215108.0 207755.0 213061.0 205793.0 208307.0 203472.0 17139.0 17968.0 84094.0 77611.0 115795.0 120606.0 163591.0 168935.0 96126.0 95371.0 166554.0 170262.0 217172.0 224935.0 190967.0 186784.0 106639.0 104247.0 191710.0 190410.0 199194.0 202138.0 78509.0 70884.0 104026.0 98749.0 164355.0 161704.0 180933.0 189081.0 180069.0 184950.0 168264.0 166344.0 182506.0 179704.0 100782.0 94937.0 118193.0 113073.0 69463.0 73388.0 177095.0 170522.0 60677.0 57422.0 81119.0 88709.0 206640.0 200948.0 154378.0 162043.0 144680.0 138810.0 141269.0 135814.0 196195.0 201662.0 67280.0 65669.0 128871.0 120892.0 181187.0 179762.0 190226.0 184980.0 192155.0 188658.0 64494.0 69769.0 207344.0 209249.0 160072.0 166925.0 87231.0 89462.0 71957.0 73125.0 110743.0 113923.0 122010.0 114011.0 192329.0 184429.0 163985.0 163036.0 34066.0 42107.0 71756.0 73522.0 188411.0 182050.0 130745.0 137342.0 13099.0 20470.0 149357.0 150172.0 103982.0 109207.0 121650.0 117117.0 135563.0 143230.0 70028.0 65379.0 167042.0 162199.0 114867.0 120850.0 20253.0 18629.0 148135.0 16669.0 148135.0 148135.0 16669.0 16669.0
228411.0 236358.0 296530.0 302954.0 256420.0 264269.0 324172.0 324089.0 265899.0 271457.0 340596.0 344810.0 89340.0 93533.0 210524.0 210465.0 317877.0 310397.0 37325.0 32114.0 268135.0 270870.0 295703.0 288039.0 51149.0 48906.0 156469.0 164743.0 327672.0 324185.0 286940.0 292776.0 300475.0 299670.0 299920.0 294708.0 299747.0 293102.0 9862.0 17613.0 197519.0 205307.0 2678.0 8434.0 312576.0 317267.0 314439.0 306383.0 286823.0 291993.0 245393.0 248476.0 334382.0 329741.0 327188.0 321162.0 278073.0 281792.0 213450.0 216275.0 352126.0 356975.0 132449.0 134339.0 24271.0 25194.0 322367.0 326905.0 150656.0 143367.0 0.0 8039.0 342918.0 349486.0 44610.0 40158.0 317155.0 309287.0 242450.0 250252.0 221249.0 218925.0 318115.0 310087.0 354891.0 347559.0 351528.0 346808.0 145038.0 137016.0 214280.0 206004.0 55915.0 48270.0 305301.0 310731.0 232304.0 229016.0 300482.0 305677.0 359266.0 366994.0 334199.0 330135.0 242231.0 237535.0 291665.0 293727.0 341561.0 344751.0 218854.0 210898.0 236648.0 229338.0 306028.0 303378.0 321078.0 329233.0 294240.0 301095.0 27746.0 29861.0 267820.0 261673.0 74872.0 81556.0 256812.0 250507.0 187248.0 194715.0 320441.0 313887.0 202357.0 197377.0 207357.0 215021.0 348629.0 342813.0 296163.0 303856.0 286443.0 280709.0 282419.0 277673.0 330586.0 337036.0 101430.0 109315.0 271395.0 263577.0 39645.0 36710.0 316303.0 312893.0 333828.0 330331.0 82938.0 75664.0 349997.0 352128.0 31096.0 33550.0 218938.0 217675.0 201317.0 206193.0 253453.0 255812.0 264751.0 256770.0 334763.0 326809.0 284012.0 285871.0 130657.0 129175.0 73165.0 74735.0 331334.0 324750.0 274057.0 280708.0 131290.0 123327.0 267588.0 264972.0 236050.0 242946.0 53055.0 60579.0 274483.0 282445.0 210104.0 207125.0 308729.0 303872.0 250684.0 257902.0 163425.0 159506.0 289808.0 132322.0 289808.0 289808.0 132322.0 132322.0
235956.0 243912.0 301377.0 307909.0 263690.0 271558.0 332057.0 331973.0 273214.0 278841.0 348213.0 352375.0 95434.0 99264.0 217674.0 217754.0 325762.0 318281.0 30334.0 26140.0 275688.0 278495.0 302599.0 294959.0 59099.0 56587.0 162907.0 171224.0 334708.0 331131.0 294501.0 300385.0 307034.0 306101.0 307806.0 302559.0 307280.0 300591.0 16346.0 23063.0 204468.0 212296.0 10717.0 14253.0 319001.0 323787.0 321302.0 313237.0 294169.0 299411.0 252872.0 255865.0 341301.0 336746.0 334870.0 328804.0 285744.0 289521.0 221053.0 223963.0 358782.0 363711.0 138933.0 140539.0 30237.0 32462.0 330251.0 334790.0 158504.0 151171.0 8039.0 0.0 347994.0 354645.0 52395.0 48151.0 325061.0 317204.0 250136.0 257921.0 228724.0 226497.0 323506.0 315476.0 362776.0 355443.0 359387.0 354635.0 152569.0 144544.0 221340.0 213032.0 59828.0 51915.0 313185.0 318616.0 239572.0 236173.0 307500.0 312774.0 367151.0 374879.0 342055.0 337953.0 249447.0 244651.0 297019.0 299233.0 349445.0 352636.0 226365.0 218405.0 243735.0 236357.0 313913.0 311262.0 328474.0 336624.0 300267.0 307195.0 22520.0 26510.0 272612.0 266350.0 79640.0 86612.0 264166.0 257804.0 194026.0 201554.0 328262.0 321678.0 209972.0 204907.0 214296.0 221923.0 356514.0 350698.0 304048.0 311740.0 294328.0 288594.0 289920.0 285238.0 337589.0 344092.0 107758.0 115574.0 279029.0 271232.0 33281.0 29455.0 322865.0 319559.0 341713.0 338216.0 90970.0 83676.0 357749.0 360033.0 30657.0 31136.0 226043.0 224640.0 208405.0 213402.0 261115.0 263393.0 272412.0 264437.0 342648.0 334694.0 290356.0 292346.0 137837.0 136128.0 80647.0 81865.0 339003.0 332388.0 281817.0 288503.0 139160.0 131188.0 273908.0 271145.0 243113.0 250069.0 56317.0 64144.0 281833.0 289807.0 217615.0 214739.0 316614.0 311757.0 257893.0 265164.0 171192.0 167178.0 297692.0 140267.0 297692.0 297692.0 140267.0 140267.0
187741.0 185876.0 47928.0 40510.0 157750.0 156848.0 262959.0 255693.0 158416.0 162759.0 191327.0 185767.0 255067.0 249903.0 172235.0 179186.0 250630.0 244985.0 352728.0 345356.0 178685.0 185805.0 120434.0 123930.0 306955.0 303013.0 194461.0 187719.0 129351.0 121770.0 177900.0 183202.0 96950.0 89483.0 223693.0 216586.0 174946.0 170335.0 333070.0 325374.0 172627.0 168717.0 341256.0 346107.0 85252.0 90593.0 115341.0 115500.0 157159.0 163306.0 177111.0 169055.0 120296.0 126982.0 196538.0 190125.0 190395.0 197488.0 197715.0 203718.0 102427.0 110016.0 216894.0 212419.0 347738.0 339589.0 274649.0 271624.0 243839.0 244397.0 342918.0 347994.0 0.0 8111.0 307791.0 315630.0 231373.0 231833.0 196457.0 193216.0 185326.0 193211.0 30066.0 36784.0 277664.0 277656.0 232425.0 224581.0 229710.0 234895.0 165912.0 169801.0 288722.0 296775.0 262179.0 258918.0 167083.0 162300.0 128593.0 134313.0 269001.0 274172.0 226022.0 217903.0 159522.0 155765.0 53141.0 54019.0 252803.0 247384.0 188840.0 191858.0 154640.0 155093.0 278191.0 282454.0 162102.0 162771.0 71331.0 70908.0 370377.0 372589.0 76466.0 83598.0 268367.0 261416.0 163934.0 161671.0 175075.0 171109.0 216053.0 209685.0 203131.0 199664.0 165425.0 158837.0 267505.0 269833.0 253912.0 255443.0 251718.0 244723.0 172065.0 178832.0 126862.0 132245.0 244569.0 236634.0 186654.0 189773.0 380929.0 375532.0 93584.0 101253.0 288749.0 292678.0 295181.0 295847.0 248483.0 242055.0 370649.0 375496.0 165186.0 159694.0 175296.0 177596.0 191952.0 183435.0 190323.0 191902.0 248256.0 246648.0 91924.0 97651.0 229574.0 226317.0 281018.0 275346.0 195748.0 190235.0 201607.0 206437.0 255101.0 258809.0 100686.0 96957.0 153677.0 153590.0 293124.0 285059.0 159419.0 159056.0 192526.0 201025.0 265985.0 269096.0 155687.0 156795.0 231704.0 227808.0 279075.0 260732.0 279075.0 279075.0 260732.0 260732.0
190014.0 187827.0 55494.0 47852.0 159197.0 157892.0 261813.0 254451.0 159350.0 163350.0 188784.0 182986.0 261379.0 256321.0 175727.0 182472.0 249539.0 244091.0 359748.0 352334.0 179287.0 186240.0 120196.0 124151.0 312958.0 309147.0 200049.0 193154.0 126990.0 119617.0 177648.0 182680.0 96889.0 89758.0 223002.0 216055.0 174109.0 169815.0 339631.0 331965.0 176813.0 172619.0 347795.0 352566.0 84412.0 89195.0 113867.0 114591.0 157015.0 162863.0 178780.0 170705.0 117481.0 124486.0 194603.0 188394.0 190501.0 197428.0 200462.0 206257.0 98245.0 105619.0 222713.0 218412.0 353965.0 345794.0 273738.0 270513.0 248117.0 248900.0 349486.0 354645.0 8111.0 0.0 313941.0 321753.0 230110.0 230855.0 198020.0 194484.0 187962.0 195804.0 33796.0 41251.0 275715.0 275950.0 229938.0 222170.0 234465.0 239818.0 169415.0 173622.0 295495.0 303550.0 261661.0 258174.0 169589.0 165111.0 127925.0 133274.0 266764.0 271762.0 224090.0 216042.0 161691.0 158295.0 58642.0 58633.0 250927.0 245326.0 191515.0 194823.0 157255.0 158117.0 277901.0 282358.0 160219.0 160491.0 73343.0 72035.0 376995.0 379109.0 83788.0 91043.0 275049.0 268040.0 165252.0 163354.0 179754.0 175526.0 214544.0 208380.0 206239.0 203045.0 169342.0 162571.0 265601.0 268160.0 253603.0 254889.0 251715.0 244851.0 172045.0 178998.0 124314.0 129340.0 250725.0 242771.0 187061.0 190501.0 387638.0 382312.0 92219.0 100052.0 287697.0 291828.0 300610.0 301436.0 246258.0 239669.0 377022.0 381954.0 168457.0 163235.0 179171.0 181141.0 193095.0 184552.0 190998.0 192905.0 246555.0 245202.0 93633.0 98877.0 234909.0 231845.0 286952.0 281399.0 193635.0 188353.0 201857.0 206420.0 259800.0 263687.0 103485.0 100317.0 156356.0 155875.0 299957.0 291892.0 159893.0 159122.0 195512.0 203976.0 265403.0 268723.0 157487.0 158181.0 235760.0 232075.0 279587.0 265317.0 279587.0 279587.0 265317.0 265317.0
184000.0 191929.0 262741.0 268605.0 212627.0 220415.0 279730.0 279646.0 221975.0 227361.0 296064.0 300348.0 53379.0 59599.0 167153.0 166667.0 273434.0 265954.0 76524.0 68999.0 223701.0 226336.0 253034.0 245298.0 8493.0 4870.0 116313.0 124283.0 284505.0 281308.0 242490.0 248259.0 259030.0 258732.0 255461.0 250175.0 255338.0 248772.0 36701.0 33285.0 154884.0 162500.0 42039.0 43330.0 271633.0 275941.0 271858.0 263845.0 242808.0 247810.0 201097.0 204381.0 291585.0 286668.0 282600.0 276606.0 233495.0 237185.0 168953.0 171687.0 310231.0 314781.0 92430.0 95757.0 40278.0 32013.0 277924.0 282462.0 106123.0 98776.0 44610.0 52395.0 307791.0 313941.0 0.0 7987.0 272752.0 264922.0 197863.0 205676.0 176975.0 174474.0 281630.0 273648.0 310449.0 303116.0 307008.0 302240.0 100710.0 92706.0 171197.0 163055.0 42740.0 40514.0 260858.0 266289.0 188541.0 185589.0 257399.0 262342.0 314823.0 322552.0 289674.0 285558.0 198605.0 194224.0 255483.0 256827.0 297118.0 300260.0 174508.0 166567.0 193431.0 186362.0 261586.0 258935.0 276932.0 285094.0 255006.0 261524.0 70449.0 69625.0 234512.0 228995.0 50080.0 53568.0 212794.0 206645.0 145324.0 152509.0 275867.0 269289.0 157846.0 153007.0 164726.0 172502.0 304186.0 298371.0 251721.0 259413.0 242000.0 236266.0 238070.0 233219.0 287519.0 293797.0 63223.0 71170.0 226851.0 219013.0 83190.0 81170.0 274817.0 271019.0 289386.0 285889.0 40827.0 32890.0 305518.0 307717.0 64683.0 70942.0 175696.0 174915.0 158171.0 162641.0 208883.0 211338.0 220181.0 212196.0 290320.0 282366.0 243469.0 244795.0 87478.0 86958.0 29371.0 32927.0 286755.0 280199.0 229448.0 236112.0 86809.0 78827.0 227204.0 225222.0 192911.0 199604.0 45194.0 47802.0 230463.0 238396.0 165763.0 162615.0 264287.0 259430.0 207066.0 214125.0 118816.0 114938.0 245365.0 88159.0 245365.0 245365.0 88159.0 88159.0
189663.0 197560.0 270654.0 276493.0 218833.0 226576.0 284216.0 284132.0 228088.0 233336.0 301457.0 305874.0 61356.0 67585.0 173636.0 172911.0 277920.0 270440.0 74284.0 67162.0 229304.0 231746.0 259741.0 251984.0 11165.0 12630.0 123779.0 131682.0 291001.0 287925.0 248058.0 253699.0 266091.0 265907.0 259914.0 254794.0 260964.0 254503.0 33444.0 31726.0 161688.0 169231.0 37500.0 37654.0 278801.0 283022.0 278587.0 270592.0 248841.0 253697.0 206896.0 210372.0 298228.0 293203.0 287819.0 281940.0 238772.0 242277.0 174481.0 176956.0 317154.0 321616.0 99974.0 103476.0 32831.0 24552.0 282410.0 286948.0 110812.0 103694.0 40158.0 48151.0 315630.0 321753.0 7987.0 0.0 277238.0 269414.0 203116.0 210976.0 182815.0 180081.0 289383.0 281407.0 314934.0 307602.0 311585.0 306957.0 106599.0 98638.0 177808.0 169730.0 48387.0 45112.0 265344.0 270775.0 194785.0 192025.0 263944.0 268770.0 319309.0 327037.0 294266.0 290313.0 204923.0 200708.0 263268.0 264555.0 301604.0 304794.0 180267.0 172350.0 199960.0 193001.0 266072.0 263421.0 282840.0 291006.0 262476.0 268943.0 64675.0 63242.0 242448.0 236950.0 57474.0 61277.0 218842.0 212810.0 152361.0 159455.0 280610.0 274151.0 163354.0 158755.0 171519.0 179324.0 308672.0 302856.0 256207.0 263899.0 246486.0 240752.0 243783.0 238784.0 294057.0 300257.0 71069.0 78996.0 232238.0 224343.0 77556.0 76123.0 281860.0 277964.0 293871.0 290374.0 42998.0 35545.0 310040.0 312204.0 57626.0 64184.0 182231.0 181650.0 164770.0 169035.0 214200.0 216880.0 225493.0 217498.0 294806.0 286852.0 250731.0 251948.0 94213.0 94047.0 36247.0 40505.0 292010.0 285543.0 234435.0 240970.0 91394.0 83470.0 234506.0 232632.0 199476.0 206069.0 50118.0 53622.0 236499.0 244403.0 171537.0 168122.0 268773.0 263915.0 213382.0 220341.0 123867.0 120347.0 249851.0 92214.0 249851.0 249851.0 92214.0 92214.0
100338.0 93312.0 225596.0 222547.0 96470.0 91239.0 31851.0 24343.0 88636.0 80949.0 53008.0 61161.0 245775.0 247263.0 131558.0 125864.0 20025.0 17589.0 347715.0 339678.0 69765.0 62338.0 112466.0 111144.0 266115.0 268802.0 191646.0 185023.0 105341.0 111661.0 58734.0 51406.0 135706.0 143795.0 17736.0 24884.0 57224.0 63368.0 309425.0 305129.0 148422.0 141647.0 314523.0 314782.0 146156.0 140923.0 116252.0 115953.0 78243.0 70488.0 90319.0 93622.0 116577.0 108350.0 39487.0 43257.0 53694.0 46013.0 111038.0 105472.0 142862.0 139182.0 207529.0 211862.0 308229.0 300062.0 44834.0 40611.0 166728.0 174335.0 317155.0 325061.0 231373.0 230110.0 272752.0 277238.0 0.0 8219.0 81553.0 75604.0 109413.0 107363.0 206078.0 203756.0 50867.0 48153.0 35806.0 33803.0 176525.0 184195.0 132755.0 139623.0 287746.0 293411.0 38585.0 31951.0 111074.0 118808.0 103295.0 97098.0 48100.0 55760.0 19971.0 21723.0 107605.0 115804.0 200982.0 193981.0 28126.0 28515.0 109870.0 116891.0 117815.0 125387.0 56298.0 63462.0 71199.0 73436.0 166861.0 163781.0 341557.0 339617.0 221697.0 225450.0 270021.0 263018.0 90674.0 98014.0 161285.0 154247.0 16906.0 21742.0 120765.0 127999.0 142298.0 139103.0 41011.0 40342.0 36698.0 32446.0 43029.0 43208.0 66217.0 63051.0 108777.0 106392.0 233565.0 228607.0 61324.0 65539.0 354485.0 353356.0 137904.0 130140.0 57890.0 62947.0 236724.0 242580.0 33423.0 34976.0 333345.0 340198.0 127737.0 134737.0 140561.0 132306.0 73287.0 76422.0 64192.0 70265.0 21207.0 16121.0 148069.0 140351.0 195931.0 201255.0 246068.0 247337.0 42605.0 44525.0 49678.0 41512.0 185951.0 193940.0 150091.0 158089.0 119393.0 112432.0 293735.0 288164.0 82150.0 78285.0 117400.0 116428.0 40750.0 47041.0 103248.0 96142.0 154887.0 160182.0 76270.0 185857.0 76270.0 76270.0 185857.0 185857.0
94173.0 87385.0 224349.0 221580.0 92689.0 87964.0 31470.0 25025.0 85410.0 77960.0 58491.0 66604.0 238524.0 240132.0 125853.0 119879.0 19041.0 13428.0 340018.0 331996.0 65686.0 57981.0 112106.0 110220.0 258291.0 260999.0 185279.0 178808.0 107474.0 113397.0 56589.0 49787.0 135540.0 143516.0 11368.0 19464.0 56937.0 62307.0 301606.0 297368.0 142621.0 136035.0 306749.0 306958.0 146593.0 141707.0 117209.0 116342.0 76826.0 69476.0 85119.0 88954.0 118938.0 110571.0 43936.0 46462.0 49626.0 41667.0 104291.0 98479.0 145677.0 142394.0 200706.0 205193.0 300405.0 292238.0 42906.0 39944.0 158962.0 166617.0 309287.0 317204.0 231833.0 230855.0 264922.0 269414.0 8219.0 0.0 75160.0 69608.0 103268.0 100840.0 205945.0 203316.0 54824.0 50956.0 44024.0 41838.0 169124.0 176746.0 127340.0 133974.0 280357.0 285951.0 33644.0 28112.0 105953.0 113802.0 103325.0 97585.0 53744.0 61555.0 27970.0 28631.0 103110.0 111291.0 199803.0 192956.0 34032.0 35660.0 103543.0 110380.0 113316.0 120662.0 51447.0 58165.0 73531.0 76581.0 166104.0 163396.0 333733.0 331793.0 219422.0 222931.0 262793.0 255840.0 86654.0 93774.0 155386.0 148496.0 21829.0 24033.0 113792.0 121162.0 136825.0 133962.0 45493.0 43440.0 30063.0 27031.0 35505.0 35168.0 63833.0 59801.0 111051.0 109215.0 226391.0 221547.0 56945.0 60371.0 346660.0 345532.0 138674.0 130806.0 56934.0 61056.0 228899.0 234756.0 40779.0 42940.0 325521.0 332374.0 122417.0 129605.0 134672.0 126355.0 67484.0 71284.0 59052.0 64597.0 26930.0 20133.0 146885.0 139291.0 188700.0 194147.0 238368.0 239739.0 47523.0 48268.0 44148.0 35979.0 178139.0 186131.0 148015.0 155896.0 114910.0 108191.0 286341.0 280845.0 79535.0 76392.0 110858.0 109534.0 36449.0 41961.0 99257.0 92480.0 147277.0 152698.0 68795.0 178033.0 68795.0 68795.0 178033.0 178033.0
19278.0 14001.0 175212.0 174812.0 38861.0 41484.0 100117.0 96752.0 40809.0 40494.0 98446.0 103263.0 165870.0 166817.0 51886.0 45145.0 89873.0 81683.0 270668.0 262504.0 28952.0 29109.0 84259.0 77721.0 191954.0 193557.0 110133.0 103663.0 103473.0 104246.0 46338.0 50984.0 104144.0 109747.0 63998.0 56760.0 59463.0 54410.0 234058.0 229030.0 68162.0 62227.0 239896.0 240767.0 118824.0 117891.0 100016.0 94198.0 54749.0 56077.0 19458.0 27438.0 114101.0 106520.0 84738.0 78855.0 35658.0 39672.0 30051.0 26176.0 140110.0 141086.0 126276.0 130387.0 234499.0 226332.0 104705.0 106146.0 93001.0 99581.0 242450.0 250136.0 196457.0 198020.0 197863.0 203116.0 81553.0 75160.0 0.0 7992.0 28320.0 25859.0 167011.0 161952.0 128667.0 123286.0 112060.0 106263.0 98171.0 106131.0 54539.0 60071.0 208450.0 214557.0 87178.0 88874.0 36260.0 44138.0 81749.0 82140.0 128874.0 136702.0 94961.0 89546.0 39105.0 45687.0 152534.0 147412.0 109179.0 110026.0 28385.0 35359.0 47529.0 52355.0 97024.0 98015.0 83926.0 91858.0 125153.0 126005.0 267763.0 265887.0 162729.0 164367.0 189928.0 182719.0 33122.0 34839.0 80640.0 74126.0 80131.0 72750.0 40643.0 47107.0 63540.0 62300.0 120070.0 116601.0 76680.0 82453.0 69544.0 61562.0 44032.0 37344.0 107353.0 110923.0 153342.0 147948.0 29453.0 21366.0 280666.0 279021.0 115257.0 107908.0 119129.0 118924.0 163707.0 169307.0 114768.0 114862.0 259615.0 266468.0 50272.0 58165.0 60054.0 51647.0 11271.0 16993.0 22444.0 14457.0 102081.0 95094.0 104535.0 99189.0 116188.0 120878.0 169726.0 169899.0 88900.0 82469.0 32813.0 40542.0 112321.0 120020.0 97799.0 103834.0 49038.0 45429.0 214454.0 208470.0 44616.0 50353.0 35893.0 35985.0 91461.0 90419.0 40999.0 39955.0 79332.0 82960.0 88120.0 113104.0 88120.0 88120.0 113104.0 113104.0
24796.0 17781.0 173768.0 172999.0 35602.0 36812.0 95932.0 92079.0 35729.0 34232.0 90527.0 95289.0 173094.0 173885.0 56337.0 50288.0 85209.0 77062.0 278271.0 270098.0 21399.0 21117.0 78855.0 72671.0 199816.0 201351.0 116164.0 109437.0 96506.0 97619.0 38382.0 43001.0 99553.0 105531.0 58303.0 50720.0 51500.0 46587.0 241821.0 236741.0 73028.0 66592.0 247703.0 248622.0 114051.0 112696.0 93932.0 88444.0 47748.0 48547.0 18449.0 25504.0 107326.0 99598.0 76958.0 70967.0 27823.0 32319.0 37350.0 34022.0 133652.0 134361.0 133001.0 136872.0 242386.0 234219.0 101452.0 102383.0 100960.0 107495.0 250252.0 257921.0 193216.0 194484.0 205676.0 210976.0 75604.0 69608.0 7992.0 0.0 33833.0 32666.0 164044.0 159276.0 123763.0 118735.0 105123.0 99126.0 105791.0 113772.0 58256.0 64496.0 215772.0 221954.0 84264.0 85291.0 38159.0 46205.0 75657.0 75544.0 123333.0 131117.0 88156.0 82464.0 38838.0 46222.0 150652.0 145227.0 103497.0 103942.0 34536.0 41974.0 48182.0 54030.0 95326.0 96958.0 76095.0 83990.0 122085.0 122467.0 275633.0 273774.0 162526.0 164535.0 197081.0 189819.0 29285.0 32677.0 85779.0 78922.0 73172.0 65604.0 48175.0 54297.0 67580.0 65492.0 114892.0 111829.0 73869.0 79120.0 67481.0 59491.0 36336.0 29453.0 100422.0 103738.0 160494.0 154960.0 21464.0 13402.0 288530.0 286842.0 109985.0 102474.0 116083.0 116406.0 171667.0 177238.0 108562.0 108301.0 267503.0 274355.0 53601.0 61219.0 65064.0 56754.0 3279.0 10482.0 14519.0 6522.0 96424.0 89693.0 101388.0 95628.0 123520.0 128027.0 177458.0 177525.0 81082.0 74574.0 26140.0 34170.0 120263.0 127944.0 95812.0 102268.0 49762.0 45020.0 221775.0 215709.0 38339.0 43471.0 42583.0 43459.0 88571.0 88168.0 39049.0 36462.0 87243.0 90747.0 88461.0 121085.0 88461.0 88461.0 121085.0 121085.0
9096.0 16448.0 158375.0 159122.0 38378.0 45279.0 128371.0 125072.0 46303.0 50713.0 120275.0 123917.0 140984.0 141305.0 24129.0 16859.0 118193.0 110003.0 247633.0 239417.0 47404.0 51514.0 85360.0 77731.0 171743.0 172458.0 82350.0 75611.0 111816.0 110506.0 66183.0 72671.0 100550.0 104345.0 92019.0 84533.0 78704.0 71872.0 212462.0 206946.0 39914.0 34401.0 218769.0 220256.0 115415.0 116389.0 103513.0 96341.0 66367.0 70887.0 24149.0 28009.0 120894.0 114468.0 108129.0 101361.0 59795.0 65544.0 12758.0 18511.0 144332.0 146860.0 99787.0 103326.0 214629.0 206462.0 132540.0 134249.0 76335.0 81475.0 221249.0 228724.0 185326.0 187962.0 176975.0 182815.0 109413.0 103268.0 28320.0 33833.0 0.0 7938.0 155306.0 149308.0 156982.0 151596.0 138531.0 132259.0 76265.0 84270.0 27900.0 32207.0 183906.0 190378.0 114847.0 116927.0 18553.0 23289.0 86290.0 89291.0 157012.0 164820.0 121732.0 115738.0 28052.0 29715.0 137403.0 133371.0 137235.0 137774.0 3661.0 10596.0 30708.0 31289.0 123525.0 123722.0 100037.0 108204.0 114751.0 117337.0 247377.0 245990.0 142523.0 143183.0 164689.0 157292.0 36734.0 32145.0 52319.0 45894.0 106632.0 98851.0 21756.0 24182.0 36096.0 36379.0 148339.0 144921.0 104332.0 110399.0 96663.0 88779.0 61226.0 57024.0 115335.0 120477.0 128190.0 122282.0 52246.0 45442.0 260160.0 257956.0 114198.0 107888.0 146787.0 146146.0 145771.0 150517.0 142392.0 142025.0 239746.0 246598.0 24762.0 32751.0 31769.0 23352.0 36352.0 35783.0 46780.0 39567.0 130149.0 123282.0 95195.0 91679.0 92079.0 95857.0 148090.0 147336.0 111946.0 104840.0 59948.0 68003.0 94573.0 101673.0 84642.0 88999.0 31650.0 32837.0 189892.0 183548.0 54111.0 61851.0 11448.0 17782.0 119095.0 117533.0 35202.0 39936.0 61892.0 63244.0 112043.0 96878.0 112043.0 112043.0 96878.0 96878.0
9723.0 17487.0 166263.0 167044.0 44218.0 50547.0 124669.0 121786.0 51257.0 54771.0 121791.0 125885.0 140481.0 141220.0 30089.0 21982.0 114928.0 106740.0 246168.0 237974.0 49230.0 52221.0 91768.0 84250.0 168958.0 170041.0 84484.0 78254.0 117064.0 116164.0 68017.0 73961.0 107708.0 111721.0 89754.0 82605.0 80884.0 74513.0 210302.0 205002.0 44550.0 40002.0 216412.0 217646.0 122603.0 123339.0 109639.0 102655.0 70455.0 74248.0 27504.0 32950.0 126498.0 119811.0 108960.0 102536.0 59989.0 64976.0 6057.0 10574.0 150492.0 152749.0 100443.0 104532.0 211725.0 203558.0 128113.0 130191.0 71927.0 77605.0 218925.0 226497.0 193211.0 195804.0 174474.0 180081.0 107363.0 100840.0 25859.0 32666.0 7938.0 0.0 163200.0 157226.0 153813.0 148120.0 137752.0 131792.0 73960.0 81982.0 34638.0 37802.0 183224.0 189487.0 110298.0 112829.0 26255.0 31225.0 92112.0 94635.0 154477.0 162323.0 120722.0 115126.0 35255.0 37514.0 145338.0 141306.0 134872.0 135854.0 4795.0 9541.0 38573.0 39180.0 118140.0 117962.0 103328.0 111478.0 122557.0 125036.0 244737.0 243113.0 150178.0 150716.0 164432.0 157158.0 41660.0 38101.0 56264.0 50515.0 105802.0 98270.0 16929.0 21803.0 42083.0 43282.0 145448.0 141660.0 99807.0 106171.0 91759.0 83989.0 63774.0 58749.0 120676.0 125509.0 127848.0 122294.0 52832.0 45391.0 257577.0 255601.0 121080.0 114598.0 142143.0 141141.0 142094.0 147153.0 140616.0 140703.0 236842.0 243695.0 32059.0 39907.0 36378.0 28122.0 35595.0 36902.0 46665.0 38938.0 127769.0 120660.0 102898.0 99221.0 91022.0 95386.0 145873.0 145552.0 112939.0 106084.0 58575.0 66386.0 90654.0 98001.0 92534.0 96933.0 39549.0 40378.0 189225.0 183098.0 58432.0 65885.0 10039.0 12281.0 114500.0 112534.0 41863.0 45753.0 57607.0 59852.0 105770.0 92464.0 105770.0 105770.0 92464.0 92464.0
157846.0 156158.0 34883.0 27010.0 128476.0 128004.0 237309.0 230262.0 129699.0 134474.0 169446.0 164631.0 229470.0 224679.0 142240.0 149142.0 224904.0 218885.0 329872.0 322301.0 150327.0 157655.0 93853.0 96468.0 280379.0 276810.0 166961.0 159896.0 107800.0 99785.0 150875.0 156641.0 70413.0 62447.0 197275.0 189897.0 149052.0 143844.0 308253.0 300679.0 143031.0 138912.0 316347.0 320907.0 60859.0 67461.0 91657.0 90432.0 130064.0 136715.0 147605.0 139577.0 100349.0 105878.0 172996.0 166123.0 162720.0 170053.0 167670.0 173719.0 88027.0 96140.0 189920.0 185915.0 321777.0 313569.0 248499.0 245878.0 214328.0 215108.0 318115.0 323506.0 30066.0 33796.0 281630.0 289383.0 206078.0 205945.0 167011.0 164044.0 155306.0 163200.0 0.0 8030.0 253761.0 253178.0 210098.0 202096.0 200724.0 206141.0 135919.0 139949.0 264813.0 272862.0 235333.0 232492.0 137106.0 132252.0 102784.0 109242.0 245843.0 251443.0 202290.0 194042.0 129700.0 125786.0 26537.0 25062.0 228814.0 223863.0 158810.0 161793.0 124636.0 125027.0 250925.0 254870.0 138735.0 140452.0 41968.0 42802.0 345738.0 347586.0 57995.0 65788.0 244111.0 236938.0 134772.0 132179.0 146002.0 141731.0 191373.0 184577.0 173068.0 169643.0 135629.0 128936.0 243527.0 245305.0 226727.0 228677.0 224045.0 216867.0 144671.0 151107.0 105919.0 112287.0 218495.0 210513.0 158540.0 161219.0 356640.0 351541.0 70242.0 77229.0 262840.0 266372.0 267273.0 268271.0 225380.0 219405.0 345139.0 350269.0 135138.0 129713.0 145476.0 147620.0 162910.0 154439.0 161836.0 163013.0 223871.0 221688.0 62672.0 68927.0 201516.0 198652.0 254276.0 248935.0 172667.0 166607.0 173676.0 178901.0 226040.0 229985.0 70666.0 66908.0 123656.0 123713.0 269474.0 261421.0 131316.0 131587.0 162460.0 170960.0 239243.0 241984.0 126112.0 127582.0 202012.0 198286.0 250648.0 231534.0 250648.0 250648.0 231534.0 231534.0
152160.0 150767.0 30104.0 23025.0 123674.0 123621.0 234750.0 227826.0 125422.0 130531.0 168780.0 164286.0 221457.0 216655.0 135564.0 142619.0 222325.0 216119.0 321873.0 314296.0 146283.0 153749.0 91295.0 93311.0 272427.0 268830.0 159095.0 152081.0 107642.0 99522.0 147738.0 153763.0 68160.0 59992.0 194375.0 186858.0 146575.0 141052.0 300225.0 292649.0 135862.0 131936.0 308320.0 312886.0 60069.0 67166.0 90705.0 88785.0 126961.0 133892.0 142504.0 134523.0 100918.0 105925.0 171598.0 164537.0 159132.0 166606.0 161561.0 167774.0 90684.0 98842.0 181994.0 177946.0 313786.0 305581.0 245662.0 243256.0 207104.0 207755.0 310087.0 315476.0 36784.0 41251.0 273648.0 281407.0 203756.0 203316.0 161952.0 159276.0 149308.0 157226.0 8030.0 0.0 252015.0 251169.0 209122.0 201074.0 193233.0 198567.0 129239.0 133030.0 256788.0 264837.0 232127.0 229527.0 131258.0 126146.0 100609.0 107421.0 244439.0 250213.0 200722.0 192436.0 124183.0 119946.0 18525.0 17383.0 227072.0 222341.0 152773.0 155512.0 118722.0 118751.0 247450.0 251195.0 137562.0 139734.0 37740.0 39976.0 337709.0 339561.0 50890.0 58706.0 236082.0 228908.0 130070.0 127123.0 138535.0 134416.0 189388.0 182400.0 166663.0 163031.0 128644.0 122087.0 241764.0 243285.0 223332.0 225526.0 220348.0 213059.0 141320.0 147517.0 106032.0 112731.0 210502.0 202521.0 154658.0 156996.0 348609.0 343513.0 69786.0 76306.0 260112.0 263429.0 259495.0 260436.0 224039.0 218270.0 337129.0 342249.0 128642.0 123010.0 138517.0 140900.0 158267.0 149854.0 157664.0 158507.0 221955.0 219502.0 58248.0 64998.0 193757.0 190820.0 246337.0 240967.0 171476.0 165192.0 169890.0 175369.0 218583.0 222439.0 64820.0 60494.0 117686.0 118108.0 261454.0 253402.0 127520.0 128236.0 156162.0 164680.0 236091.0 238613.0 120967.0 122848.0 194925.0 191069.0 246410.0 224138.0 246410.0 246410.0 224138.0 224138.0
147910.0 141507.0 275041.0 271602.0 147221.0 142101.0 30719.0 32058.0 139500.0 131814.0 88382.0 95450.0 287766.0 290017.0 180095.0 173767.0 38893.0 47075.0 385848.0 377913.0 120350.0 112737.0 161167.0 160615.0 303812.0 306527.0 238166.0 232068.0 148881.0 156104.0 109464.0 101966.0 183884.0 192100.0 66132.0 74288.0 106664.0 113434.0 347127.0 342964.0 196699.0 190354.0 352269.0 352478.0 193099.0 187175.0 162478.0 163346.0 128449.0 120426.0 139838.0 143778.0 159129.0 151551.0 81132.0 87674.0 104256.0 96387.0 156640.0 150112.0 183241.0 178191.0 252128.0 257140.0 345925.0 337758.0 35920.0 29382.0 205059.0 213061.0 354891.0 362776.0 277664.0 275715.0 310449.0 314934.0 50867.0 54824.0 128667.0 123763.0 156982.0 153813.0 253761.0 252015.0 0.0 8543.0 48726.0 55306.0 217949.0 225183.0 181859.0 188259.0 328548.0 333617.0 50293.0 44189.0 160679.0 168565.0 151494.0 144607.0 13306.0 16595.0 51643.0 59788.0 157924.0 166109.0 250392.0 243199.0 24949.0 30550.0 156919.0 163302.0 168132.0 175481.0 57298.0 64628.0 115563.0 115422.0 215791.0 212135.0 379254.0 377313.0 272191.0 276095.0 312053.0 305412.0 141313.0 148526.0 209293.0 202626.0 62876.0 70430.0 165290.0 173059.0 191281.0 188652.0 10258.0 12261.0 58761.0 51038.0 68525.0 74285.0 116996.0 113902.0 151810.0 147804.0 276117.0 271869.0 111706.0 115145.0 392181.0 391052.0 184223.0 176785.0 33853.0 42109.0 274420.0 280276.0 30724.0 38616.0 371042.0 377894.0 177015.0 184303.0 188651.0 180268.0 121859.0 126049.0 113835.0 119102.0 30421.0 34958.0 197655.0 189817.0 238352.0 244391.0 284377.0 286559.0 82151.0 87431.0 98845.0 90719.0 223683.0 231675.0 200528.0 208594.0 169725.0 162951.0 334467.0 329486.0 132958.0 128811.0 163699.0 161363.0 47583.0 54146.0 153911.0 146933.0 194906.0 201162.0 92852.0 223554.0 92852.0 92852.0 223554.0 223554.0
142562.0 136393.0 273558.0 270352.0 143642.0 138867.0 23756.0 26682.0 136298.0 128758.0 90155.0 97558.0 280851.0 283229.0 174971.0 168431.0 33534.0 41674.0 378515.0 370580.0 116619.0 108861.0 160021.0 159058.0 296479.0 299194.0 232268.0 226329.0 149494.0 156490.0 106834.0 99559.0 183013.0 191182.0 62019.0 70271.0 105034.0 111445.0 339794.0 335632.0 191436.0 185272.0 344936.0 345145.0 192750.0 187067.0 162323.0 162768.0 126368.0 118533.0 135281.0 139586.0 160049.0 152267.0 81523.0 87559.0 100576.0 92594.0 150724.0 144011.0 184793.0 180044.0 245746.0 250902.0 338592.0 330425.0 27475.0 21190.0 197759.0 205793.0 347559.0 355443.0 277656.0 275950.0 303116.0 307602.0 48153.0 50956.0 123286.0 118735.0 151596.0 148120.0 253178.0 251169.0 8543.0 0.0 52126.0 57924.0 211049.0 218201.0 176970.0 183154.0 321410.0 326390.0 42494.0 36896.0 156095.0 164045.0 150560.0 143938.0 20429.0 24950.0 52242.0 60031.0 153818.0 161971.0 248924.0 241844.0 25582.0 32605.0 151377.0 157560.0 164000.0 171161.0 48785.0 56088.0 115760.0 116221.0 214583.0 211214.0 371921.0 369981.0 269833.0 273532.0 305120.0 298546.0 137577.0 144624.0 203906.0 197389.0 61806.0 68855.0 159100.0 166956.0 186315.0 183967.0 12311.0 7888.0 51422.0 43823.0 61116.0 67236.0 114268.0 110668.0 152572.0 148959.0 269310.0 265194.0 107822.0 110757.0 384848.0 383719.0 184086.0 176516.0 25792.0 34077.0 267087.0 272943.0 34118.0 42335.0 363709.0 370562.0 172218.0 179638.0 183339.0 174933.0 116988.0 121610.0 109475.0 114350.0 29401.0 32042.0 196053.0 188285.0 231577.0 237733.0 277045.0 279244.0 82994.0 87670.0 94388.0 86368.0 216351.0 224342.0 198242.0 206230.0 165602.0 159022.0 327315.0 322426.0 130143.0 126435.0 157926.0 155276.0 39551.0 45892.0 150177.0 143436.0 187851.0 194231.0 84514.0 216221.0 84514.0 84514.0 216221.0 216221.0
129704.0 122087.0 234010.0 229826.0 118067.0 111358.0 52132.0 45155.0 108732.0 100731.0 41161.0 47481.0 277849.0 278877.0 158794.0 154164.0 46455.0 49567.0 381390.0 373296.0 93857.0 87811.0 120411.0 121425.0 300467.0 302956.0 220627.0 213490.0 103074.0 110750.0 77878.0 69988.0 141754.0 150008.0 51885.0 56844.0 70384.0 78293.0 343610.0 339089.0 175753.0 168402.0 348912.0 349080.0 149263.0 142736.0 118479.0 120612.0 92752.0 84344.0 116880.0 118330.0 112547.0 105475.0 38659.0 46542.0 79115.0 72989.0 142100.0 137390.0 135472.0 130072.0 238115.0 241853.0 342581.0 334414.0 65974.0 59056.0 200885.0 208307.0 351528.0 359387.0 232425.0 229938.0 307008.0 311585.0 35806.0 44024.0 112060.0 105123.0 138531.0 137752.0 210098.0 209122.0 48726.0 52126.0 0.0 8114.0 209354.0 217175.0 158958.0 166537.0 320269.0 326201.0 68115.0 60166.0 136733.0 143873.0 110214.0 102584.0 37569.0 41865.0 17342.0 22878.0 131225.0 139230.0 209504.0 201988.0 27985.0 20072.0 139581.0 147097.0 141138.0 149306.0 83978.0 91881.0 71604.0 69756.0 174362.0 169810.0 375909.0 373969.0 234414.0 239118.0 301956.0 294772.0 113359.0 121115.0 188809.0 181322.0 31951.0 39712.0 152456.0 159164.0 168542.0 164218.0 39926.0 45825.0 69757.0 63619.0 77541.0 78702.0 85254.0 85159.0 105629.0 100862.0 265378.0 260004.0 86939.0 93126.0 388646.0 387691.0 139894.0 132911.0 73793.0 81253.0 271075.0 276932.0 18091.0 10159.0 367697.0 374550.0 153699.0 159901.0 168306.0 160391.0 102329.0 103357.0 91778.0 99042.0 28947.0 34833.0 157865.0 149896.0 228072.0 232922.0 279849.0 280730.0 37892.0 44915.0 79250.0 71745.0 220238.0 228202.0 163403.0 171649.0 142616.0 135010.0 326272.0 320418.0 100564.0 94490.0 147703.0 147903.0 68600.0 76046.0 125282.0 117342.0 188532.0 193368.0 110171.0 220209.0 110171.0 110171.0 220209.0 220209.0
123526.0 115814.0 225906.0 221739.0 110686.0 103853.0 54954.0 47480.0 101237.0 93248.0 33508.0 40213.0 272132.0 273008.0 152073.0 147661.0 47619.0 49419.0 376268.0 368150.0 86950.0 81178.0 112298.0 113335.0 295820.0 298130.0 214131.0 206895.0 95236.0 102856.0 70521.0 62676.0 133658.0 141913.0 48256.0 52287.0 62594.0 70555.0 338780.0 334134.0 169006.0 161570.0 344204.0 344515.0 141250.0 134767.0 110459.0 112526.0 84895.0 76492.0 110203.0 111347.0 104866.0 97684.0 30590.0 38513.0 72584.0 66837.0 136309.0 131880.0 128180.0 122960.0 231987.0 235566.0 337949.0 329782.0 69071.0 62522.0 196164.0 203472.0 346808.0 354635.0 224581.0 222170.0 302240.0 306957.0 33803.0 41838.0 106263.0 99126.0 132259.0 131792.0 202096.0 201074.0 55306.0 57924.0 8114.0 0.0 203996.0 211865.0 152057.0 159737.0 314683.0 320715.0 69153.0 61416.0 129815.0 136839.0 102100.0 94474.0 44850.0 49598.0 13869.0 16755.0 124034.0 131986.0 201395.0 193883.0 32787.0 25323.0 133443.0 141055.0 133875.0 142095.0 85778.0 93542.0 63533.0 61842.0 166258.0 161727.0 371221.0 369337.0 226323.0 231046.0 296174.0 288935.0 106129.0 113900.0 182071.0 174517.0 26387.0 33525.0 146820.0 153346.0 161624.0 157135.0 45991.0 51120.0 69569.0 64061.0 76652.0 76989.0 77810.0 78065.0 97858.0 93258.0 259586.0 254085.0 80340.0 86818.0 384174.0 383080.0 131914.0 124891.0 78121.0 85237.0 266457.0 272313.0 24653.0 17505.0 363065.0 369918.0 146774.0 152836.0 161655.0 153827.0 96244.0 96835.0 85483.0 92925.0 32100.0 36536.0 149754.0 141784.0 222431.0 227118.0 274838.0 275532.0 29781.0 36819.0 73542.0 66329.0 215565.0 223504.0 155354.0 163602.0 135336.0 127676.0 320687.0 314733.0 92954.0 86737.0 141684.0 142214.0 70131.0 77360.0 117920.0 109921.0 183563.0 188182.0 109736.0 215591.0 109736.0 109736.0 215591.0 215591.0
83388.0 91348.0 190824.0 194655.0 112460.0 120119.0 187364.0 186388.0 121567.0 126737.0 195742.0 199812.0 69817.0 72334.0 68563.0 66765.0 179862.0 172008.0 172497.0 164334.0 123122.0 126086.0 155171.0 147335.0 95564.0 96206.0 45043.0 47431.0 185293.0 182733.0 141938.0 147907.0 164376.0 165526.0 158854.0 152756.0 154713.0 148076.0 136354.0 131055.0 59816.0 66227.0 142544.0 143995.0 178139.0 181318.0 174039.0 166204.0 142255.0 147119.0 100388.0 103776.0 193127.0 187639.0 182689.0 176427.0 133561.0 137816.0 68620.0 72173.0 213734.0 217541.0 41046.0 48655.0 138527.0 130359.0 186953.0 190926.0 21879.0 17139.0 145038.0 152569.0 229710.0 234465.0 100710.0 106599.0 176525.0 169124.0 98171.0 105791.0 76265.0 73960.0 200724.0 193233.0 217949.0 211049.0 209354.0 203996.0 0.0 8025.0 73517.0 66180.0 111234.0 116919.0 169440.0 174184.0 88549.0 86493.0 158509.0 162879.0 221084.0 228922.0 192057.0 187240.0 98862.0 95339.0 176782.0 175853.0 202468.0 204784.0 73818.0 65867.0 94826.0 88641.0 171398.0 168748.0 176254.0 184419.0 166977.0 172259.0 171117.0 169818.0 166267.0 163249.0 94107.0 87502.0 112271.0 106374.0 54729.0 59646.0 177659.0 170617.0 57630.0 52341.0 69059.0 76891.0 210925.0 205725.0 159766.0 167245.0 150261.0 143815.0 137385.0 132680.0 188501.0 194405.0 58385.0 55033.0 126654.0 118980.0 183896.0 181736.0 179779.0 175003.0 199027.0 195702.0 71547.0 75298.0 209869.0 211117.0 163643.0 170489.0 77345.0 78290.0 60713.0 63537.0 108928.0 110861.0 120197.0 112272.0 195473.0 187751.0 151847.0 151523.0 21188.0 28591.0 71927.0 71735.0 186743.0 179991.0 130524.0 137687.0 25448.0 29526.0 136664.0 136837.0 94550.0 100567.0 117218.0 111794.0 129916.0 137809.0 65069.0 62372.0 173120.0 168842.0 107288.0 113985.0 23979.0 16851.0 155178.0 31579.0 155178.0 155178.0 31579.0 31579.0
91414.0 99373.0 195173.0 199252.0 120317.0 128005.0 194553.0 193718.0 129478.0 134703.0 203761.0 207837.0 62710.0 65648.0 76041.0 74530.0 187231.0 179419.0 164545.0 156390.0 131147.0 134099.0 162665.0 154837.0 87623.0 88192.0 46385.0 50069.0 193010.0 190353.0 149964.0 155927.0 171421.0 172376.0 166547.0 160524.0 162738.0 156093.0 128328.0 123040.0 66512.0 73219.0 134523.0 136001.0 185051.0 188385.0 181542.0 173675.0 150204.0 155110.0 108399.0 111735.0 200735.0 195329.0 190685.0 184439.0 141552.0 145762.0 76629.0 80095.0 221083.0 224992.0 38028.0 45992.0 130612.0 122445.0 193857.0 197960.0 24862.0 17968.0 137016.0 144544.0 234895.0 239818.0 92706.0 98638.0 184195.0 176746.0 106131.0 113772.0 84270.0 81982.0 206141.0 198567.0 225183.0 218201.0 217175.0 211865.0 8025.0 0.0 80826.0 73293.0 103659.0 109215.0 176430.0 181315.0 96356.0 94114.0 166164.0 170627.0 228506.0 236334.0 199867.0 195111.0 106625.0 102933.0 181847.0 181185.0 209990.0 212404.0 81838.0 73885.0 102367.0 96007.0 177982.0 175331.0 184240.0 192404.0 173152.0 178608.0 163124.0 161868.0 170054.0 166729.0 86936.0 80513.0 120208.0 114251.0 60432.0 65891.0 185516.0 178512.0 65623.0 60365.0 75951.0 83821.0 218274.0 212975.0 166853.0 174381.0 157295.0 150970.0 145404.0 140705.0 196190.0 202154.0 51728.0 49060.0 134663.0 126976.0 175895.0 173716.0 186899.0 182251.0 205741.0 202285.0 64259.0 67699.0 217509.0 218844.0 155729.0 162581.0 84799.0 85416.0 67917.0 71112.0 116916.0 118884.0 128189.0 120258.0 203013.0 195258.0 158450.0 158352.0 16205.0 24207.0 63901.0 63769.0 194746.0 188005.0 138425.0 145543.0 21799.0 23958.0 143070.0 142946.0 102046.0 108196.0 109630.0 104360.0 137862.0 145766.0 73088.0 70371.0 180059.0 175632.0 115064.0 121837.0 30473.0 24092.0 161762.0 28701.0 161762.0 161762.0 28701.0 28701.0
35857.0 40796.0 134776.0 136386.0 44401.0 52379.0 154173.0 150300.0 54526.0 61599.0 135182.0 137409.0 128969.0 127913.0 6325.0 14134.0 143437.0 135304.0 237442.0 229215.0 65115.0 71359.0 82021.0 74228.0 167097.0 166450.0 63989.0 56056.0 113396.0 110120.0 82310.0 89830.0 91124.0 92846.0 115973.0 108054.0 93143.0 85346.0 204998.0 198783.0 17827.0 9818.0 211945.0 214338.0 105206.0 107997.0 100897.0 92965.0 75441.0 82145.0 42504.0 40756.0 120421.0 115499.0 125195.0 117703.0 80165.0 87152.0 36455.0 44247.0 140257.0 144225.0 85276.0 86916.0 210242.0 202070.0 159223.0 160491.0 81388.0 84094.0 214280.0 221340.0 165912.0 169415.0 171197.0 177808.0 132755.0 127340.0 54539.0 58256.0 27900.0 34638.0 135919.0 129239.0 181859.0 176970.0 158958.0 152057.0 73517.0 80826.0 0.0 8481.0 171739.0 178815.0 141716.0 143289.0 22244.0 15869.0 86229.0 91452.0 180817.0 188512.0 142879.0 136113.0 29672.0 23523.0 115485.0 112465.0 160864.0 160575.0 29941.0 28802.0 22441.0 15225.0 151086.0 151489.0 109970.0 117896.0 97786.0 101912.0 241323.0 240822.0 116745.0 116807.0 151420.0 143750.0 47028.0 39467.0 30592.0 22714.0 127637.0 119482.0 38330.0 33836.0 9599.0 8694.0 172806.0 170002.0 131217.0 136943.0 123921.0 115972.0 75749.0 74096.0 116348.0 122757.0 115959.0 109060.0 72288.0 67227.0 253804.0 250794.0 106371.0 101488.0 173668.0 173378.0 145035.0 148461.0 164874.0 163588.0 235343.0 241989.0 5344.0 6256.0 13041.0 11750.0 60010.0 56388.0 68579.0 62771.0 153864.0 147473.0 80395.0 79010.0 83746.0 85289.0 141828.0 139545.0 128494.0 120896.0 83211.0 91398.0 96579.0 102370.0 66754.0 69100.0 21773.0 28953.0 177603.0 170633.0 63615.0 71539.0 29199.0 37434.0 145998.0 144814.0 37692.0 45686.0 67811.0 65753.0 139943.0 100704.0 139943.0 139943.0 100704.0 100704.0
40906.0 46767.0 136792.0 138882.0 52817.0 60806.0 160136.0 156529.0 62924.0 69907.0 143419.0 145746.0 120502.0 119432.0 8189.0 15823.0 149652.0 141485.0 228994.0 220768.0 72807.0 78776.0 90013.0 82255.0 159071.0 158293.0 55630.0 47786.0 121676.0 118265.0 90306.0 97740.0 98196.0 99494.0 122624.0 114819.0 101338.0 93591.0 196694.0 190438.0 9456.0 2204.0 203681.0 206144.0 112027.0 115139.0 108867.0 100892.0 83878.0 90514.0 49740.0 48654.0 128531.0 123738.0 133211.0 125783.0 87546.0 94324.0 38310.0 46347.0 147923.0 152058.0 76795.0 78480.0 202224.0 194044.0 164661.0 166216.0 75469.0 77611.0 206004.0 213032.0 169801.0 173622.0 163055.0 169730.0 139623.0 133974.0 60071.0 64496.0 32207.0 37802.0 139949.0 133030.0 188259.0 183154.0 166537.0 159737.0 66180.0 73293.0 8481.0 0.0 163261.0 170344.0 147009.0 148933.0 30135.0 24263.0 94478.0 99815.0 187601.0 195337.0 150296.0 143668.0 38080.0 31994.0 118526.0 116004.0 167684.0 167631.0 33449.0 30279.0 30868.0 23336.0 155667.0 155692.0 118426.0 126362.0 102946.0 107505.0 233102.0 232675.0 117305.0 116800.0 142940.0 135270.0 55249.0 47769.0 22435.0 14785.0 135056.0 126956.0 37691.0 31712.0 4886.0 11195.0 179356.0 176310.0 136495.0 142467.0 128870.0 120984.0 83871.0 81938.0 124584.0 131064.0 107494.0 100581.0 79678.0 74235.0 245553.0 242487.0 113618.0 108986.0 178959.0 178353.0 137552.0 140782.0 172017.0 170946.0 227303.0 233899.0 13675.0 12123.0 5674.0 10180.0 66492.0 63518.0 75596.0 69402.0 160650.0 154096.0 86380.0 85541.0 75578.0 76936.0 133685.0 131278.0 136572.0 129010.0 89963.0 98148.0 89830.0 95329.0 72014.0 73568.0 30134.0 37419.0 169124.0 162152.0 72003.0 79946.0 30445.0 37861.0 151266.0 149739.0 46157.0 54119.0 62381.0 59585.0 143565.0 94275.0 143565.0 143565.0 94275.0 94275.0
192060.0 200009.0 241850.0 248500.0 215676.0 223676.0 297859.0 297249.0 225615.0 232012.0 304081.0 307358.0 42998.0 44020.0 169036.0 170685.0 290808.0 283035.0 66796.0 58739.0 231274.0 235239.0 250721.0 243323.0 49819.0 41402.0 109467.0 117897.0 283781.0 279483.0 249977.0 256577.0 252834.0 251181.0 270062.0 263856.0 262196.0 254941.0 46516.0 38558.0 154117.0 162170.0 54816.0 61101.0 263993.0 269281.0 269056.0 260968.0 246713.0 252798.0 207694.0 209396.0 289382.0 285550.0 291983.0 285267.0 243198.0 248064.0 178444.0 182879.0 304948.0 310381.0 86555.0 86183.0 68957.0 62661.0 296481.0 300920.0 123909.0 115795.0 55915.0 59828.0 288722.0 295495.0 42740.0 48387.0 287746.0 280357.0 208450.0 215772.0 183906.0 183224.0 264813.0 256788.0 328548.0 321410.0 320269.0 314683.0 111234.0 103659.0 171739.0 163261.0 0.0 8055.0 279326.0 284520.0 191867.0 187306.0 256592.0 262536.0 332124.0 339942.0 303020.0 297943.0 201022.0 195252.0 238281.0 240837.0 313649.0 316017.0 182138.0 174272.0 194070.0 186149.0 280150.0 277499.0 281330.0 289358.0 243507.0 250704.0 82346.0 85659.0 213045.0 206686.0 21170.0 28846.0 217154.0 210177.0 142423.0 150314.0 288443.0 281191.0 167864.0 161482.0 163687.0 170879.0 321820.0 316377.0 269992.0 277605.0 260338.0 254265.0 244556.0 240888.0 286368.0 293292.0 55953.0 62682.0 235910.0 228611.0 92301.0 86816.0 268607.0 265958.0 307950.0 304453.0 75191.0 67449.0 321101.0 322273.0 86327.0 89458.0 176805.0 174110.0 159310.0 165494.0 218783.0 219604.0 229889.0 222134.0 306670.0 298916.0 235054.0 237730.0 92263.0 88054.0 48826.0 43700.0 295842.0 288740.0 241144.0 248524.0 106678.0 99180.0 218559.0 215109.0 193228.0 200672.0 6004.0 5370.0 234564.0 242582.0 173573.0 172475.0 282812.0 277978.0 209292.0 217059.0 133677.0 127748.0 263929.0 110557.0 263929.0 263929.0 110557.0 110557.0
198427.0 206393.0 249890.0 256548.0 222614.0 230607.0 302907.0 302461.0 232513.0 238821.0 310626.0 314014.0 49860.0 51456.0 175983.0 177428.0 296071.0 288354.0 59138.0 51018.0 237776.0 241598.0 258151.0 250721.0 48298.0 40091.0 116923.0 125357.0 291122.0 286903.0 256517.0 263034.0 260519.0 258938.0 275757.0 269668.0 268820.0 261628.0 39065.0 31153.0 161259.0 169297.0 47301.0 53812.0 271762.0 277002.0 276537.0 268448.0 253616.0 259602.0 214258.0 216129.0 296837.0 292922.0 298363.0 291721.0 249476.0 254209.0 184605.0 188844.0 312612.0 317995.0 93785.0 93702.0 62618.0 56794.0 301228.0 305795.0 128669.0 120606.0 48270.0 51915.0 296775.0 303550.0 40514.0 45112.0 293411.0 285951.0 214557.0 221954.0 190378.0 189487.0 272862.0 264837.0 333617.0 326390.0 326201.0 320715.0 116919.0 109215.0 178815.0 170344.0 8055.0 0.0 284191.0 289522.0 198732.0 194313.0 263915.0 269785.0 337429.0 345230.0 308924.0 303966.0 207992.0 202337.0 246331.0 248874.0 319098.0 321607.0 188527.0 180629.0 201187.0 193323.0 284922.0 282271.0 288225.0 296274.0 251432.0 258608.0 74423.0 77899.0 221082.0 214709.0 29054.0 36644.0 223968.0 217059.0 149706.0 157564.0 294430.0 287255.0 173926.0 167707.0 170879.0 178137.0 327037.0 321477.0 274971.0 282621.0 265282.0 259338.0 251196.0 247394.0 293743.0 300623.0 62869.0 69855.0 242252.0 234877.0 84272.0 78762.0 276303.0 273584.0 312722.0 309225.0 76170.0 68209.0 326720.0 328035.0 78936.0 81813.0 183843.0 181308.0 166297.0 172337.0 224995.0 226007.0 236144.0 228348.0 312146.0 304349.0 242843.0 245451.0 98465.0 94622.0 51548.0 47485.0 302259.0 295212.0 247176.0 254478.0 110953.0 103290.0 226347.0 222962.0 200371.0 207764.0 5370.0 12310.0 241431.0 249452.0 179916.0 178573.0 287619.0 282766.0 216295.0 224009.0 138937.0 133255.0 268701.0 114448.0 268701.0 268701.0 114448.0 114448.0
106124.0 101020.0 251309.0 249196.0 114664.0 111647.0 20418.0 24167.0 109335.0 102840.0 91554.0 99706.0 239138.0 241751.0 138860.0 131623.0 21669.0 20999.0 336257.0 328322.0 88170.0 80213.0 141774.0 138886.0 254221.0 256937.0 193126.0 187697.0 140314.0 145862.0 84458.0 78992.0 165298.0 173009.0 38925.0 45608.0 87814.0 91862.0 297536.0 293374.0 154631.0 149191.0 302679.0 302888.0 177253.0 172902.0 148786.0 147155.0 105269.0 98873.0 102270.0 108021.0 151913.0 143468.0 77480.0 80062.0 73521.0 65738.0 112091.0 104840.0 178907.0 175835.0 205232.0 210744.0 296335.0 288167.0 17902.0 21604.0 155523.0 163591.0 305301.0 313185.0 262179.0 261661.0 260858.0 265344.0 38585.0 33644.0 87178.0 84264.0 114847.0 110298.0 235333.0 232127.0 50293.0 42494.0 68115.0 69153.0 169440.0 176430.0 141716.0 147009.0 279326.0 284191.0 0.0 8039.0 122420.0 130465.0 133737.0 128724.0 57273.0 64357.0 56489.0 60108.0 122206.0 130025.0 227058.0 220601.0 44634.0 51266.0 114054.0 119441.0 132031.0 138261.0 17818.0 24893.0 106673.0 110089.0 194501.0 192544.0 329663.0 327723.0 243773.0 246557.0 263359.0 256908.0 108113.0 114170.0 166562.0 160619.0 55050.0 57609.0 119497.0 127559.0 150650.0 149404.0 45902.0 38795.0 10515.0 6852.0 19247.0 26463.0 90823.0 85005.0 143987.0 142513.0 227808.0 223966.0 79203.0 79555.0 342590.0 341462.0 169868.0 161903.0 31958.0 32399.0 224829.0 230685.0 56256.0 62449.0 321451.0 328304.0 137396.0 145211.0 146443.0 138050.0 83276.0 89629.0 78475.0 81287.0 40193.0 33313.0 174554.0 167308.0 190186.0 196581.0 234787.0 236958.0 80908.0 81912.0 64009.0 57331.0 174093.0 182084.0 173569.0 181049.0 133634.0 128035.0 285208.0 280451.0 105294.0 103898.0 119698.0 116031.0 4308.0 8458.0 120290.0 114838.0 145992.0 152590.0 44275.0 173963.0 44275.0 44275.0 173963.0 173963.0
108046.0 102494.0 249445.0 247084.0 114079.0 110544.0 13538.0 16208.0 108145.0 101316.0 84910.0 93060.0 243976.0 246401.0 140752.0 133775.0 13805.0 14763.0 341688.0 333753.0 87221.0 79235.0 138707.0 136217.0 259652.0 262367.0 196396.0 190723.0 135545.0 141368.0 81832.0 75855.0 162230.0 170065.0 35239.0 42689.0 84068.0 88679.0 302967.0 298805.0 156830.0 151094.0 308109.0 308318.0 173787.0 169166.0 144827.0 143583.0 102572.0 95787.0 102887.0 108189.0 147035.0 138654.0 71317.0 74442.0 71981.0 64010.0 115006.0 108009.0 173787.0 170453.0 209236.0 214547.0 301765.0 293598.0 16582.0 17363.0 160916.0 168935.0 310731.0 318616.0 258918.0 258174.0 266289.0 270775.0 31951.0 28112.0 88874.0 85291.0 116927.0 112829.0 232492.0 229527.0 44189.0 36896.0 60166.0 61416.0 174184.0 181315.0 143289.0 148933.0 284520.0 289522.0 8039.0 0.0 123365.0 131407.0 130330.0 124966.0 50130.0 57431.0 49012.0 53097.0 122463.0 130423.0 225063.0 218453.0 36686.0 43236.0 116376.0 122131.0 132444.0 139000.0 24629.0 32199.0 101640.0 104623.0 192032.0 189769.0 335094.0 333154.0 242806.0 245826.0 268240.0 261685.0 107630.0 114024.0 169002.0 162815.0 48742.0 52092.0 122922.0 130887.0 152398.0 150747.0 38869.0 32259.0 14574.0 6940.0 24339.0 30377.0 88542.0 83232.0 139141.0 137320.0 232474.0 228431.0 78204.0 79378.0 348021.0 346892.0 166130.0 158207.0 31442.0 33902.0 230260.0 236116.0 48248.0 54411.0 326882.0 333735.0 138799.0 146494.0 148664.0 140248.0 84011.0 89807.0 78220.0 81770.0 32154.0 25339.0 172336.0 164947.0 194762.0 200987.0 240218.0 242412.0 74544.0 76061.0 63352.0 56105.0 179524.0 187515.0 172096.0 179725.0 134053.0 128123.0 290427.0 285530.0 103511.0 101527.0 122440.0 119261.0 8891.0 15949.0 120006.0 114144.0 150957.0 157358.0 52073.0 179394.0 52073.0 52073.0 179394.0 179394.0
21239.0 22424.0 141516.0 141863.0 24118.0 32016.0 133683.0 129418.0 33806.0 40218.0 113427.0 115986.0 148907.0 148353.0 23075.0 21876.0 122594.0 114537.0 256922.0 248687.0 42879.0 49260.0 68368.0 60594.0 183856.0 183892.0 85579.0 77865.0 96878.0 94760.0 60171.0 67630.0 82336.0 85907.0 94595.0 86550.0 71309.0 63652.0 223236.0 217327.0 39556.0 31853.0 229897.0 231858.0 97150.0 98413.0 86923.0 79451.0 54903.0 60985.0 20841.0 18535.0 105187.0 99317.0 103076.0 95657.0 58077.0 65237.0 31289.0 36668.0 127520.0 130514.0 105876.0 108132.0 226904.0 218705.0 139588.0 140364.0 91819.0 96126.0 232304.0 239572.0 167083.0 169589.0 188541.0 194785.0 111074.0 105953.0 36260.0 38159.0 18553.0 26255.0 137106.0 131258.0 160679.0 156095.0 136733.0 129815.0 88549.0 96356.0 22244.0 30135.0 191867.0 198732.0 122420.0 123365.0 0.0 8048.0 70432.0 74394.0 159173.0 166817.0 120721.0 113897.0 10523.0 11320.0 119918.0 115583.0 139200.0 138673.0 22194.0 27253.0 12599.0 16095.0 133093.0 134255.0 89497.0 97563.0 96314.0 98799.0 258956.0 258015.0 127253.0 128543.0 171893.0 164295.0 25388.0 18337.0 52570.0 44831.0 105483.0 97303.0 39201.0 39306.0 31813.0 28032.0 151444.0 148965.0 112013.0 117256.0 105405.0 97405.0 53778.0 51865.0 100183.0 105907.0 135921.0 129355.0 50209.0 45596.0 271602.0 268969.0 96319.0 90279.0 154237.0 154521.0 159567.0 163759.0 142893.0 141458.0 252020.0 258865.0 16967.0 23667.0 32932.0 26402.0 39368.0 34683.0 46928.0 41797.0 132246.0 126059.0 76659.0 73144.0 101793.0 104357.0 159302.0 157737.0 106444.0 98898.0 61835.0 69979.0 109139.0 115783.0 66467.0 71228.0 13809.0 14367.0 197790.0 191029.0 42700.0 50720.0 28084.0 35819.0 126727.0 126192.0 18794.0 25598.0 77436.0 77530.0 124185.0 112154.0 124185.0 124185.0 112154.0 112154.0
28011.0 30201.0 135200.0 135854.0 28553.0 36545.0 141689.0 137374.0 38665.0 45745.0 119357.0 121541.0 144453.0 143563.0 18501.0 20297.0 130557.0 122514.0 252797.0 244565.0 50079.0 56761.0 68851.0 61008.0 181197.0 180886.0 79856.0 71921.0 98996.0 96244.0 66754.0 74376.0 80709.0 83567.0 102453.0 94375.0 77359.0 69524.0 219827.0 213744.0 33681.0 25686.0 226647.0 228840.0 95314.0 97208.0 87668.0 79933.0 59622.0 66276.0 28763.0 25570.0 106635.0 101255.0 109576.0 102019.0 65572.0 72880.0 35423.0 41798.0 127800.0 131260.0 100949.0 102743.0 224304.0 216134.0 147635.0 148396.0 91673.0 95371.0 229016.0 236173.0 162300.0 165111.0 185589.0 192025.0 118808.0 113802.0 44138.0 46205.0 23289.0 31225.0 132252.0 126146.0 168565.0 164045.0 143873.0 136839.0 86493.0 94114.0 15869.0 24263.0 187306.0 194313.0 130465.0 131407.0 8048.0 0.0 72056.0 76754.0 166904.0 174522.0 128044.0 121087.0 13816.0 8890.0 114115.0 110113.0 146928.0 146265.0 26663.0 29863.0 8775.0 8418.0 141067.0 142153.0 94190.0 102149.0 92113.0 95153.0 255890.0 255180.0 120108.0 121182.0 167089.0 159437.0 31259.0 23631.0 46443.0 38526.0 112825.0 104601.0 41616.0 40116.0 25090.0 20407.0 159283.0 156886.0 120055.0 125303.0 113410.0 105410.0 60050.0 58776.0 102114.0 108232.0 131443.0 124654.0 57733.0 53431.0 268451.0 265611.0 95302.0 89738.0 162285.0 162555.0 157931.0 161780.0 150421.0 148816.0 249417.0 256192.0 10588.0 16056.0 28020.0 23024.0 47404.0 42520.0 54752.0 49798.0 139998.0 133890.0 73072.0 70294.0 98359.0 100378.0 156257.0 154311.0 112806.0 105174.0 69726.0 77848.0 108227.0 114538.0 61647.0 65758.0 9113.0 14083.0 193191.0 186284.0 47750.0 55684.0 30600.0 38949.0 134771.0 134210.0 21986.0 29863.0 77491.0 76753.0 131866.0 111706.0 131866.0 131866.0 111706.0 111706.0
83036.0 77139.0 124006.0 120214.0 47951.0 41818.0 134599.0 127494.0 41642.0 41425.0 71940.0 69521.0 214272.0 212574.0 90327.0 91848.0 122216.0 116414.0 322868.0 314663.0 56022.0 61485.0 10336.0 14459.0 253167.0 252662.0 147238.0 138841.0 27238.0 24330.0 50138.0 54772.0 32456.0 40628.0 95117.0 88133.0 46390.0 41919.0 291165.0 284864.0 103090.0 95211.0 298157.0 300565.0 43516.0 39609.0 18279.0 13709.0 30266.0 35072.0 66134.0 59338.0 34757.0 29270.0 71841.0 64409.0 63979.0 70246.0 98115.0 100302.0 58698.0 60637.0 170144.0 170590.0 296285.0 288123.0 146076.0 143209.0 162105.0 166554.0 300482.0 307500.0 128593.0 127925.0 257399.0 263944.0 103295.0 103325.0 81749.0 75657.0 86290.0 92112.0 102784.0 100609.0 151494.0 150560.0 110214.0 102100.0 158509.0 166164.0 86229.0 94478.0 256592.0 263915.0 133737.0 130330.0 70432.0 72056.0 0.0 8174.0 144328.0 150410.0 100463.0 92146.0 59929.0 63278.0 99416.0 92011.0 126570.0 122096.0 89709.0 96547.0 63985.0 71145.0 150081.0 154767.0 39479.0 44272.0 64443.0 60666.0 327552.0 327022.0 124837.0 130019.0 235853.0 228111.0 50883.0 54158.0 114216.0 106403.0 88784.0 81825.0 108044.0 109466.0 93302.0 85844.0 141237.0 142676.0 125785.0 126965.0 124369.0 117852.0 45399.0 53022.0 30121.0 36711.0 201316.0 194084.0 62114.0 67486.0 340025.0 336955.0 36620.0 28627.0 160259.0 164087.0 229835.0 233807.0 124099.0 118833.0 321407.0 328127.0 81714.0 82906.0 99237.0 95076.0 73253.0 65211.0 67580.0 71876.0 121360.0 118938.0 47826.0 39868.0 169972.0 171379.0 228035.0 225754.0 72331.0 65457.0 75722.0 79283.0 179571.0 186176.0 55882.0 63977.0 64489.0 57973.0 262346.0 255079.0 37321.0 33455.0 97414.0 103907.0 137482.0 140848.0 51701.0 46401.0 147675.0 147961.0 153675.0 182518.0 153675.0 153675.0 182518.0 182518.0
85287.0 78891.0 131454.0 127455.0 51009.0 44102.0 128646.0 121396.0 43443.0 41693.0 63920.0 61372.0 220045.0 218539.0 95199.0 96113.0 116325.0 110820.0 328635.0 320419.0 54996.0 59600.0 18434.0 22276.0 257923.0 257634.0 153362.0 145000.0 22548.0 22106.0 46485.0 50174.0 39380.0 47635.0 89888.0 83240.0 40928.0 37567.0 296430.0 290235.0 108646.0 100677.0 303326.0 305582.0 49068.0 44204.0 20343.0 18863.0 28282.0 31263.0 67886.0 61684.0 32111.0 25187.0 64413.0 57164.0 61003.0 66650.0 100683.0 102257.0 58137.0 58974.0 176003.0 176708.0 301016.0 292841.0 140464.0 137316.0 165515.0 170262.0 305677.0 312774.0 134313.0 133274.0 262342.0 268770.0 97098.0 97585.0 82140.0 75544.0 89291.0 94635.0 109242.0 107421.0 144607.0 143938.0 102584.0 94474.0 162879.0 170627.0 91452.0 99815.0 262536.0 269785.0 128724.0 124966.0 74394.0 76754.0 8174.0 0.0 137123.0 143073.0 93329.0 85032.0 64018.0 68148.0 106923.0 99433.0 119660.0 114961.0 92587.0 99731.0 69039.0 76570.0 145385.0 150359.0 31479.0 36102.0 71814.0 67621.0 332620.0 331933.0 132849.0 138096.0 241896.0 234166.0 52996.0 57250.0 120115.0 112226.0 82135.0 75463.0 110956.0 112925.0 98939.0 91657.0 134359.0 136067.0 121139.0 121908.0 120269.0 114042.0 42780.0 50671.0 26053.0 31527.0 207061.0 199930.0 60115.0 66212.0 345157.0 342225.0 41168.0 33244.0 154462.0 158560.0 233953.0 238135.0 116803.0 111351.0 326120.0 332929.0 86739.0 88509.0 104369.0 99736.0 72910.0 65269.0 66141.0 71198.0 114634.0 112535.0 55781.0 47847.0 175045.0 176739.0 233004.0 230947.0 64694.0 58008.0 72812.0 75628.0 183328.0 190104.0 64053.0 72151.0 69687.0 62749.0 268324.0 261133.0 37593.0 32207.0 100598.0 106660.0 132363.0 136049.0 55609.0 49448.0 151063.0 151741.0 150345.0 186013.0 150345.0 150345.0 186013.0 186013.0
147917.0 141102.0 268280.0 264529.0 144048.0 138396.0 36858.0 35263.0 135761.0 127897.0 78344.0 84980.0 290809.0 292739.0 179505.0 173615.0 41398.0 49089.0 390186.0 382275.0 117641.0 110349.0 154244.0 154267.0 308186.0 310902.0 238953.0 232535.0 139774.0 147237.0 105084.0 97331.0 176502.0 184756.0 65030.0 72786.0 100812.0 108036.0 351501.0 347339.0 196315.0 189642.0 356644.0 356853.0 185014.0 178804.0 154249.0 155655.0 123054.0 114820.0 138410.0 141673.0 149628.0 142311.0 72858.0 79962.0 101638.0 94068.0 157750.0 151650.0 172984.0 167637.0 253949.0 258627.0 350300.0 342133.0 45599.0 38363.0 209277.0 217172.0 359266.0 367151.0 269001.0 266764.0 314823.0 319309.0 48100.0 53744.0 128874.0 123333.0 157012.0 154477.0 245843.0 244439.0 13306.0 20429.0 37569.0 44850.0 221084.0 228506.0 180817.0 187601.0 332124.0 337429.0 57273.0 50130.0 159173.0 166904.0 144328.0 137123.0 0.0 7871.0 43887.0 52209.0 155583.0 163780.0 243654.0 236318.0 19976.0 22318.0 157259.0 164015.0 165784.0 173430.0 67073.0 74765.0 107151.0 106276.0 208771.0 204739.0 383628.0 381688.0 266686.0 270889.0 315110.0 308308.0 138442.0 145889.0 209110.0 202172.0 57056.0 65128.0 166945.0 174489.0 190346.0 187203.0 11410.0 19257.0 64297.0 56518.0 74009.0 78764.0 112688.0 110435.0 142516.0 138079.0 278906.0 274342.0 109345.0 113624.0 396555.0 395427.0 175898.0 168648.0 46195.0 54476.0 278794.0 284651.0 20518.0 27458.0 375416.0 382269.0 175819.0 182837.0 188391.0 180086.0 121150.0 124515.0 112279.0 118199.0 26955.0 33823.0 191228.0 183316.0 241131.0 246876.0 288745.0 290670.0 73291.0 79258.0 97645.0 89457.0 228058.0 236050.0 195082.0 203238.0 167353.0 160278.0 338077.0 332856.0 128651.0 123858.0 164474.0 162812.0 55327.0 62510.0 150957.0 143625.0 198496.0 204418.0 101167.0 227928.0 101167.0 101167.0 227928.0 227928.0
155725.0 148879.0 274414.0 270528.0 151411.0 145645.0 44010.0 42921.0 143006.0 135109.0 83016.0 89267.0 298656.0 300598.0 187251.0 181404.0 49167.0 56916.0 397890.0 389988.0 125126.0 117900.0 160415.0 160673.0 315914.0 318630.0 246794.0 240359.0 144832.0 152426.0 112221.0 104419.0 182435.0 190696.0 72816.0 80519.0 107517.0 114871.0 359230.0 355067.0 204077.0 197372.0 364372.0 364581.0 190585.0 184229.0 159790.0 161470.0 129856.0 121571.0 146077.0 149237.0 154407.0 147279.0 78669.0 86004.0 109162.0 101654.0 165612.0 159520.0 177161.0 171577.0 261820.0 266493.0 358028.0 349861.0 51655.0 44657.0 217027.0 224935.0 366994.0 374879.0 274172.0 271762.0 322552.0 327037.0 55760.0 61555.0 136702.0 131117.0 164820.0 162323.0 251443.0 250213.0 16595.0 24950.0 41865.0 49598.0 228922.0 236334.0 188512.0 195337.0 339942.0 345230.0 64357.0 57431.0 166817.0 174522.0 150410.0 143073.0 7871.0 0.0 50258.0 58542.0 163098.0 171291.0 249812.0 242420.0 27654.0 29070.0 165087.0 171862.0 173290.0 180983.0 73172.0 80696.0 112713.0 111411.0 214834.0 210633.0 391357.0 389416.0 273310.0 277613.0 322958.0 316162.0 145873.0 153358.0 216888.0 209926.0 63989.0 72160.0 174815.0 182357.0 198050.0 194842.0 18572.0 25729.0 71739.0 63944.0 81486.0 86413.0 119828.0 117779.0 147448.0 142727.0 286763.0 282208.0 116901.0 121299.0 404284.0 403155.0 181351.0 174214.0 50440.0 58687.0 286523.0 292379.0 26335.0 32119.0 383144.0 389997.0 183496.0 190475.0 196167.0 187870.0 128910.0 132179.0 119951.0 125942.0 34698.0 41680.0 197558.0 189625.0 248987.0 254740.0 296479.0 298441.0 78777.0 85078.0 105375.0 97190.0 235786.0 243778.0 201772.0 209953.0 174854.0 167728.0 345893.0 340687.0 135763.0 130796.0 172323.0 170680.0 62179.0 69185.0 158359.0 150959.0 206302.0 212247.0 107939.0 235656.0 107939.0 107939.0 235656.0 235656.0
112837.0 105312.0 224395.0 220675.0 103083.0 96768.0 44359.0 36518.0 94123.0 86133.0 38573.0 46404.0 260650.0 261746.0 142457.0 137570.0 35402.0 36164.0 364054.0 355962.0 77971.0 71534.0 110358.0 110439.0 283145.0 285618.0 203975.0 196948.0 97359.0 104496.0 63111.0 55196.0 132698.0 140944.0 34771.0 39504.0 57367.0 64886.0 326272.0 321747.0 159428.0 152206.0 331585.0 331771.0 141546.0 135551.0 110873.0 111953.0 79788.0 71450.0 100560.0 102476.0 107819.0 100089.0 29490.0 36187.0 62750.0 56243.0 124973.0 120149.0 132656.0 128099.0 221145.0 225001.0 325182.0 317014.0 58504.0 52582.0 183552.0 190967.0 334199.0 342055.0 226022.0 224090.0 289674.0 294266.0 19971.0 27970.0 94961.0 88156.0 121732.0 120722.0 202290.0 200722.0 51643.0 52242.0 17342.0 13869.0 192057.0 199867.0 142879.0 150296.0 303020.0 308924.0 56489.0 49012.0 120721.0 128044.0 100463.0 93329.0 43887.0 50258.0 0.0 8322.0 115737.0 123837.0 199767.0 192438.0 26864.0 21636.0 122672.0 130113.0 125784.0 133815.0 73610.0 81202.0 63920.0 64001.0 164901.0 160948.0 358510.0 356570.0 223060.0 227406.0 284782.0 277623.0 98023.0 105716.0 172460.0 165071.0 15243.0 23447.0 135254.0 142040.0 152476.0 148443.0 41511.0 44676.0 56137.0 51019.0 62932.0 63128.0 70662.0 69683.0 100378.0 96724.0 248213.0 242902.0 70622.0 76449.0 371356.0 370377.0 132606.0 125210.0 69149.0 75633.0 253754.0 259610.0 23998.0 20805.0 350298.0 357151.0 137667.0 144100.0 151868.0 143859.0 85432.0 86879.0 75091.0 82177.0 23386.0 25370.0 147366.0 139446.0 210852.0 215768.0 262508.0 263402.0 30752.0 35792.0 62156.0 54532.0 202911.0 210872.0 151556.0 159749.0 127297.0 119843.0 309022.0 303203.0 86395.0 80965.0 130703.0 130725.0 57865.0 64844.0 110218.0 102472.0 171191.0 176043.0 96105.0 202888.0 96105.0 96105.0 202888.0 202888.0
106950.0 99290.0 216073.0 212359.0 95627.0 89136.0 50205.0 42278.0 86496.0 78492.0 32230.0 40303.0 255413.0 256326.0 135918.0 131303.0 40038.0 39195.0 359523.0 351403.0 71035.0 64933.0 102036.0 102136.0 279170.0 281435.0 197771.0 190617.0 89463.0 96495.0 55505.0 47582.0 124395.0 132639.0 32765.0 35905.0 49227.0 56843.0 322081.0 317411.0 152877.0 145539.0 327534.0 327887.0 133328.0 127389.0 102689.0 103679.0 71678.0 63316.0 94003.0 95528.0 100077.0 92243.0 21493.0 27920.0 56240.0 50226.0 119596.0 115128.0 125259.0 120919.0 215400.0 219063.0 321333.0 313166.0 64153.0 58717.0 179507.0 186784.0 330135.0 337953.0 217903.0 216042.0 285558.0 290313.0 21723.0 28631.0 89546.0 82464.0 115738.0 115126.0 194042.0 192436.0 59788.0 60031.0 22878.0 16755.0 187240.0 195111.0 136113.0 143668.0 297943.0 303966.0 60108.0 53097.0 113897.0 121087.0 92146.0 85032.0 52209.0 58542.0 8322.0 0.0 108555.0 116604.0 191445.0 184116.0 34900.0 29951.0 116850.0 124421.0 118530.0 126642.0 77671.0 84998.0 55827.0 56248.0 156582.0 152648.0 354622.0 352721.0 214805.0 219185.0 279470.0 272244.0 90743.0 98477.0 165933.0 158453.0 9712.0 16888.0 130080.0 136641.0 145701.0 141454.0 49604.0 52346.0 58344.0 54123.0 64129.0 63278.0 62997.0 62458.0 92556.0 89138.0 242883.0 237417.0 64061.0 70307.0 367573.0 366435.0 124435.0 117004.0 75643.0 81739.0 249830.0 255687.0 32241.0 28383.0 346449.0 353302.0 130863.0 137128.0 145429.0 137521.0 79617.0 80487.0 68963.0 76311.0 30795.0 31382.0 139052.0 131131.0 205697.0 210416.0 258109.0 258782.0 23237.0 27689.0 56800.0 49580.0 198919.0 206850.0 143333.0 151535.0 120025.0 112487.0 303947.0 298009.0 78599.0 72978.0 125041.0 125481.0 61981.0 68560.0 102805.0 94963.0 166848.0 171436.0 97414.0 198964.0 97414.0 97414.0 198964.0 198964.0
28372.0 26692.0 136224.0 136041.0 14737.0 22732.0 132032.0 127251.0 24855.0 32055.0 105696.0 107770.0 158134.0 157323.0 32019.0 32098.0 120521.0 112626.0 266389.0 258155.0 37997.0 45269.0 57895.0 50143.0 194027.0 193933.0 93660.0 85696.0 86463.0 84254.0 53630.0 61386.0 72511.0 76475.0 91860.0 83653.0 63801.0 55897.0 233104.0 227106.0 47493.0 39482.0 239840.0 241902.0 87389.0 88354.0 76413.0 68969.0 45812.0 52486.0 20395.0 14296.0 94680.0 88870.0 96259.0 88609.0 53946.0 61615.0 40743.0 45225.0 117041.0 119996.0 114725.0 116559.0 237097.0 228911.0 138909.0 139127.0 102338.0 106639.0 242231.0 249447.0 159522.0 161691.0 198605.0 204923.0 107605.0 103110.0 39105.0 38838.0 28052.0 35255.0 129700.0 124183.0 157924.0 153818.0 131225.0 124034.0 98862.0 106625.0 29672.0 38080.0 201022.0 207992.0 122206.0 122463.0 10523.0 13816.0 59929.0 64018.0 155583.0 163098.0 115737.0 108555.0 0.0 8199.0 113853.0 109046.0 135633.0 134540.0 31702.0 37469.0 10213.0 18087.0 134015.0 135790.0 80395.0 88372.0 88354.0 90298.0 268983.0 268134.0 123814.0 125712.0 180854.0 173211.0 17932.0 10156.0 60205.0 52259.0 100588.0 92306.0 49353.0 49794.0 38736.0 33290.0 148416.0 146476.0 111975.0 116666.0 106094.0 98135.0 46691.0 46097.0 89734.0 95544.0 145128.0 138393.0 46286.0 43232.0 281594.0 278867.0 86190.0 80001.0 153700.0 154548.0 169995.0 174119.0 138521.0 136541.0 262182.0 269042.0 24404.0 29103.0 41714.0 36044.0 39187.0 32657.0 44464.0 40935.0 128806.0 123045.0 68238.0 64138.0 111612.0 113882.0 169321.0 167584.0 99382.0 91703.0 59566.0 67472.0 119645.0 126259.0 59471.0 65037.0 11801.0 6326.0 206917.0 200041.0 33946.0 41870.0 38317.0 45729.0 126506.0 126604.0 8462.0 16060.0 87949.0 88037.0 126955.0 122677.0 126955.0 126955.0 122677.0 122677.0
32365.0 32432.0 130563.0 130758.0 21783.0 29528.0 140113.0 135389.0 31880.0 39454.0 112962.0 114744.0 152492.0 151402.0 27074.0 29153.0 128648.0 120732.0 260956.0 252728.0 46179.0 53467.0 59962.0 52118.0 189907.0 189506.0 87115.0 79009.0 90293.0 87421.0 61503.0 69312.0 72166.0 75308.0 100032.0 91832.0 71287.0 63302.0 228305.0 222159.0 41196.0 33126.0 235180.0 237445.0 86858.0 88551.0 78783.0 71043.0 52373.0 59471.0 27840.0 22393.0 97802.0 92510.0 103942.0 96219.0 62143.0 69813.0 42364.0 47969.0 118919.0 122371.0 108762.0 110216.0 233024.0 224856.0 146835.0 147151.0 100489.0 104247.0 237535.0 244651.0 155765.0 158295.0 194224.0 200708.0 115804.0 111291.0 45687.0 46222.0 29715.0 37514.0 125786.0 119946.0 166109.0 161971.0 139230.0 131986.0 95339.0 102933.0 23523.0 31994.0 195252.0 202337.0 130025.0 130423.0 11320.0 8890.0 63278.0 68148.0 163780.0 171291.0 123837.0 116604.0 8199.0 0.0 108746.0 104323.0 143831.0 142717.0 33315.0 37651.0 2030.0 10172.0 141542.0 143121.0 86726.0 94582.0 85046.0 87660.0 264475.0 263831.0 117070.0 118689.0 174897.0 167216.0 25871.0 18128.0 53543.0 45547.0 108707.0 100418.0 49572.0 48655.0 31946.0 25832.0 156610.0 154644.0 119746.0 124563.0 113667.0 105687.0 54427.0 54165.0 93366.0 99574.0 139483.0 132571.0 54484.0 51315.0 277008.0 274098.0 86597.0 80934.0 161604.0 162327.0 166800.0 170614.0 146680.0 144642.0 258141.0 264886.0 18615.0 21845.0 36269.0 31821.0 46820.0 40643.0 52563.0 48744.0 137004.0 131237.0 65520.0 62276.0 106897.0 108705.0 164875.0 162809.0 106968.0 99248.0 67671.0 75611.0 117113.0 123427.0 55149.0 59996.0 3638.0 5435.0 201111.0 194118.0 40942.0 48685.0 38440.0 46531.0 134329.0 134271.0 14649.0 22874.0 86268.0 85626.0 133796.0 120562.0 133796.0 133796.0 120562.0 120562.0
141106.0 140536.0 24648.0 22365.0 115320.0 116389.0 231251.0 224655.0 118446.0 124360.0 170158.0 166440.0 203145.0 198274.0 121781.0 129247.0 218835.0 212204.0 303349.0 295771.0 139668.0 147417.0 89411.0 89866.0 254388.0 250676.0 141428.0 134606.0 110975.0 102797.0 143411.0 150016.0 67926.0 59746.0 190255.0 182444.0 143891.0 137655.0 281803.0 274212.0 120565.0 117262.0 289912.0 294522.0 63688.0 71472.0 92654.0 89174.0 122977.0 130510.0 133133.0 125359.0 105988.0 109749.0 171251.0 163809.0 153563.0 161324.0 149268.0 155909.0 100271.0 108358.0 164080.0 159855.0 295577.0 287384.0 241443.0 239571.0 191450.0 191710.0 291665.0 297019.0 53141.0 58642.0 255483.0 263268.0 200982.0 199803.0 152534.0 150652.0 137403.0 145338.0 26537.0 18525.0 250392.0 248924.0 209504.0 201395.0 176782.0 181847.0 115485.0 118526.0 238281.0 246331.0 227058.0 225063.0 119918.0 114115.0 99416.0 106923.0 243654.0 249812.0 199767.0 191445.0 113853.0 108746.0 0.0 7871.0 225564.0 221377.0 140737.0 142768.0 107323.0 106292.0 241660.0 244893.0 138094.0 141291.0 35210.0 40800.0 319271.0 321170.0 35042.0 42716.0 217594.0 210437.0 121905.0 118036.0 122273.0 118663.0 187516.0 180115.0 153507.0 149296.0 113959.0 107864.0 240141.0 241043.0 217837.0 220623.0 214115.0 206581.0 136530.0 142053.0 109998.0 117296.0 192297.0 184326.0 148379.0 149819.0 330138.0 325019.0 73616.0 78812.0 256106.0 258887.0 242074.0 242821.0 223491.0 218235.0 318823.0 323894.0 115443.0 109230.0 123863.0 126953.0 149981.0 141792.0 150615.0 150581.0 220059.0 216970.0 52931.0 60640.0 176440.0 173250.0 228349.0 222868.0 171617.0 164861.0 163727.0 169806.0 202205.0 205781.0 54841.0 48827.0 106137.0 107599.0 242937.0 234884.0 121769.0 123609.0 143363.0 151892.0 231141.0 233112.0 111710.0 114686.0 179700.0 175461.0 238750.0 207941.0 238750.0 238750.0 207941.0 207941.0
136667.0 135731.0 32023.0 28638.0 109738.0 110430.0 224421.0 217750.0 112410.0 118095.0 162508.0 158716.0 204872.0 200220.0 118786.0 126009.0 211996.0 205457.0 306293.0 298639.0 133561.0 141237.0 82091.0 82839.0 255475.0 251998.0 141932.0 134839.0 103143.0 94963.0 136695.0 143176.0 60302.0 52090.0 183539.0 175792.0 136820.0 130722.0 283866.0 276343.0 118627.0 114858.0 291922.0 296377.0 55818.0 63600.0 84886.0 81541.0 116149.0 123563.0 127966.0 120098.0 98117.0 101898.0 163812.0 156420.0 147176.0 154869.0 145448.0 151877.0 92695.0 100758.0 164968.0 161079.0 297013.0 288791.0 234782.0 232786.0 189820.0 190410.0 293727.0 299233.0 54019.0 58633.0 256827.0 264555.0 193981.0 192956.0 147412.0 145227.0 133371.0 141306.0 25062.0 17383.0 243199.0 241844.0 201988.0 193883.0 175853.0 181185.0 112465.0 116004.0 240837.0 248874.0 220601.0 218453.0 115583.0 110113.0 92011.0 99433.0 236318.0 242420.0 192438.0 184116.0 109046.0 104323.0 7871.0 0.0 218340.0 214061.0 136775.0 139184.0 102992.0 102502.0 235405.0 238786.0 130514.0 133604.0 27625.0 32965.0 321393.0 323109.0 41985.0 49488.0 220014.0 212758.0 116270.0 112731.0 121160.0 117096.0 180335.0 173004.0 150165.0 146296.0 111560.0 105139.0 232944.0 233960.0 211488.0 214120.0 207970.0 200503.0 129917.0 135622.0 102142.0 109430.0 193754.0 185764.0 142185.0 143900.0 332421.0 327445.0 65748.0 70991.0 249402.0 252313.0 242211.0 243219.0 216111.0 210779.0 320498.0 325715.0 112086.0 106218.0 121450.0 124067.0 144434.0 136155.0 144657.0 144910.0 212901.0 209930.0 46124.0 53669.0 176455.0 173600.0 229346.0 224082.0 164111.0 157415.0 157518.0 163436.0 201207.0 205055.0 49634.0 44380.0 101877.0 102857.0 245607.0 237572.0 115381.0 116933.0 139810.0 148341.0 224656.0 226773.0 106457.0 109035.0 177731.0 173790.0 233058.0 206777.0 233058.0 233058.0 206777.0 206777.0
128143.0 121251.0 250212.0 246714.0 124209.0 118678.0 25791.0 20478.0 116051.0 108231.0 64576.0 72019.0 272060.0 273819.0 159600.0 153785.0 24795.0 31366.0 372490.0 364525.0 97712.0 90387.0 136280.0 135856.0 290481.0 293131.0 219306.0 212808.0 124223.0 131349.0 85546.0 77880.0 158947.0 167168.0 45216.0 52867.0 82012.0 88975.0 333796.0 329635.0 176433.0 169719.0 338938.0 339147.0 168166.0 162280.0 137568.0 138397.0 104011.0 95887.0 118442.0 121704.0 134645.0 126947.0 56327.0 62746.0 81689.0 74096.0 138289.0 132369.0 159232.0 154462.0 234649.0 239195.0 332594.0 324427.0 38813.0 31594.0 191393.0 199194.0 341561.0 349445.0 252803.0 250927.0 297118.0 301604.0 28126.0 34032.0 109179.0 103497.0 137235.0 134872.0 228814.0 227072.0 24949.0 25582.0 27985.0 32787.0 202468.0 209990.0 160864.0 167684.0 313649.0 319098.0 44634.0 36686.0 139200.0 146928.0 126570.0 119660.0 19976.0 27654.0 26864.0 34900.0 135633.0 143831.0 225564.0 218340.0 0.0 7962.0 137558.0 144412.0 145837.0 153464.0 58400.0 66395.0 90722.0 90845.0 190903.0 187201.0 365923.0 363983.0 247781.0 251825.0 296350.0 289467.0 118547.0 125966.0 189256.0 182278.0 38122.0 45908.0 147681.0 155121.0 170399.0 167229.0 14718.0 18392.0 49312.0 41930.0 58555.0 62117.0 93135.0 90630.0 127231.0 123472.0 260032.0 255314.0 89381.0 93659.0 378850.0 377721.0 159321.0 151860.0 45809.0 53323.0 261089.0 266945.0 11955.0 19443.0 357711.0 364564.0 155856.0 162863.0 168533.0 160246.0 101268.0 104546.0 92313.0 98292.0 7103.0 14764.0 172890.0 165030.0 222290.0 227878.0 270906.0 272579.0 57569.0 62581.0 77721.0 69537.0 210352.0 218343.0 176120.0 184231.0 147409.0 140365.0 319619.0 314258.0 109117.0 104589.0 144889.0 143471.0 44000.0 51609.0 131082.0 123814.0 180204.0 185903.0 88720.0 210223.0 88720.0 88720.0 210223.0 210223.0
128717.0 121581.0 246009.0 242310.0 122572.0 116680.0 33265.0 27215.0 114038.0 106118.0 57898.0 65112.0 274158.0 275712.0 159620.0 154124.0 30407.0 35859.0 375535.0 367530.0 96543.0 89514.0 131975.0 131950.0 293672.0 296385.0 220068.0 213377.0 118414.0 125712.0 83191.0 75370.0 154332.0 162579.0 46229.0 53280.0 78535.0 85826.0 336957.0 332811.0 176537.0 169623.0 342129.0 342338.0 163084.0 157005.0 132369.0 133565.0 100826.0 92564.0 118071.0 120836.0 128594.0 121055.0 50909.0 57806.0 80719.0 73442.0 139553.0 133957.0 152738.0 147778.0 236044.0 240367.0 335785.0 327618.0 46609.0 39463.0 194431.0 202138.0 344751.0 352636.0 247384.0 245326.0 300260.0 304794.0 28515.0 35660.0 110026.0 103942.0 137774.0 135854.0 223863.0 222341.0 30550.0 32605.0 20072.0 25323.0 204784.0 212404.0 160575.0 167631.0 316017.0 321607.0 51266.0 43236.0 138673.0 146265.0 122096.0 114961.0 22318.0 29070.0 21636.0 29951.0 134540.0 142717.0 221377.0 214061.0 7962.0 0.0 138306.0 145377.0 144703.0 152511.0 65773.0 73761.0 85326.0 84929.0 186532.0 182581.0 369114.0 367174.0 244394.0 248631.0 298419.0 291445.0 117148.0 124702.0 189457.0 182318.0 34918.0 43104.0 149257.0 156512.0 170152.0 166645.0 20811.0 25889.0 54972.0 47920.0 63839.0 66670.0 90797.0 88940.0 121303.0 117254.0 261992.0 257083.0 88535.0 93401.0 382041.0 380912.0 154074.0 146734.0 53745.0 61284.0 264280.0 270136.0 5358.0 11616.0 360902.0 367755.0 155480.0 162280.0 168745.0 160540.0 101533.0 104190.0 92042.0 98443.0 11212.0 19049.0 168917.0 161009.0 224324.0 229712.0 273893.0 275345.0 51695.0 57275.0 77882.0 69777.0 213534.0 221529.0 172808.0 180974.0 146254.0 139024.0 322001.0 316497.0 106716.0 101728.0 145893.0 144934.0 51001.0 58602.0 129575.0 122082.0 182887.0 188352.0 94953.0 213414.0 94953.0 94953.0 213414.0 213414.0
9949.0 17871.0 161564.0 162398.0 41766.0 48517.0 128029.0 124940.0 49449.0 53576.0 122274.0 126094.0 139277.0 139772.0 25589.0 17702.0 118068.0 109874.0 245564.0 237356.0 49436.0 53105.0 88909.0 81300.0 169174.0 170021.0 81777.0 75280.0 115093.0 113891.0 68259.0 74541.0 104206.0 108006.0 92362.0 85027.0 80930.0 74264.0 210126.0 204689.0 40587.0 35653.0 216361.0 217757.0 119073.0 120026.0 107008.0 99874.0 69263.0 73539.0 26648.0 31099.0 124268.0 117772.0 109847.0 103214.0 61192.0 66624.0 9100.0 15218.0 147839.0 150308.0 98550.0 102338.0 212021.0 203854.0 131819.0 133725.0 73205.0 78509.0 218854.0 226365.0 188840.0 191515.0 174508.0 180267.0 109870.0 103543.0 28385.0 34536.0 3661.0 4795.0 158810.0 152773.0 156919.0 151377.0 139581.0 133443.0 73818.0 81838.0 29941.0 33449.0 182138.0 188527.0 114054.0 116376.0 22194.0 26663.0 89709.0 92587.0 157259.0 165087.0 122672.0 116850.0 31702.0 33315.0 140737.0 136775.0 137558.0 138306.0 0.0 7968.0 34265.0 34505.0 122268.0 122243.0 102687.0 110852.0 118329.0 120958.0 244871.0 243400.0 145388.0 145921.0 163092.0 155744.0 39850.0 35552.0 52631.0 46574.0 107643.0 99965.0 18371.0 21511.0 37608.0 38559.0 148411.0 144808.0 103548.0 109776.0 95667.0 87842.0 63567.0 59040.0 118638.0 123695.0 126544.0 120781.0 53789.0 46694.0 257676.0 255554.0 117828.0 111494.0 145953.0 145112.0 142895.0 147745.0 142993.0 142834.0 237138.0 243990.0 27270.0 35138.0 32398.0 24030.0 37253.0 37481.0 48009.0 40542.0 130461.0 123475.0 98816.0 95330.0 90120.0 94137.0 145719.0 145126.0 113732.0 106723.0 60659.0 68619.0 91601.0 98783.0 88154.0 92418.0 35170.0 36494.0 188132.0 181875.0 57068.0 64723.0 8750.0 14235.0 118279.0 116494.0 38777.0 43320.0 58783.0 60409.0 110237.0 93760.0 110237.0 110237.0 93760.0 93760.0
17798.0 25772.0 162890.0 164117.0 48745.0 55794.0 134069.0 131265.0 56868.0 61296.0 130228.0 134062.0 131442.0 132028.0 23314.0 14868.0 124412.0 116227.0 237610.0 229402.0 57401.0 60973.0 95251.0 87548.0 161265.0 162072.0 74951.0 68777.0 122270.0 120814.0 76225.0 82478.0 109554.0 112937.0 99291.0 92118.0 88896.0 82209.0 202163.0 196721.0 36044.0 32426.0 208408.0 209826.0 124340.0 125665.0 113580.0 106287.0 76958.0 81396.0 34546.0 38598.0 131218.0 124892.0 117734.0 111141.0 68970.0 74218.0 8047.0 16094.0 154339.0 157033.0 91033.0 95033.0 204128.0 195961.0 137290.0 139494.0 65811.0 70884.0 210898.0 218405.0 191858.0 194823.0 166567.0 172350.0 116891.0 110380.0 35359.0 41974.0 10596.0 9541.0 161793.0 155512.0 163302.0 157560.0 147097.0 141055.0 65867.0 73885.0 28802.0 30279.0 174272.0 180629.0 119441.0 122131.0 27253.0 29863.0 96547.0 99731.0 164015.0 171862.0 130113.0 124421.0 37469.0 37651.0 142768.0 139184.0 144412.0 145377.0 7968.0 0.0 38246.0 36770.0 126829.0 126376.0 110548.0 118715.0 121945.0 125006.0 236942.0 235500.0 145503.0 145608.0 155307.0 147988.0 47313.0 42500.0 47244.0 41926.0 115147.0 107548.0 11958.0 13619.0 34895.0 37448.0 154968.0 151137.0 108971.0 115436.0 100765.0 93063.0 71521.0 67002.0 125759.0 130981.0 118742.0 113063.0 61638.0 54423.0 249740.0 247600.0 123565.0 117463.0 151220.0 150039.0 135177.0 139944.0 150127.0 150157.0 229245.0 236097.0 27521.0 34695.0 28001.0 20170.0 44811.0 45397.0 55724.0 48132.0 137310.0 130198.0 102910.0 99914.0 82199.0 86309.0 137759.0 137158.0 121640.0 114656.0 67994.0 75854.0 83982.0 91078.0 91340.0 95019.0 38881.0 41544.0 180267.0 174050.0 64706.0 72437.0 867.0 9169.0 123619.0 121462.0 45110.0 50306.0 51361.0 52652.0 113779.0 86341.0 113779.0 113779.0 86341.0 86341.0
33800.0 34169.0 129005.0 129285.0 23517.0 31168.0 142143.0 137419.0 33563.0 41211.0 114638.0 116337.0 151355.0 150185.0 26366.0 29023.0 130678.0 122762.0 259862.0 251636.0 48172.0 55480.0 60362.0 52521.0 189186.0 188701.0 85735.0 77588.0 91078.0 88043.0 63375.0 71199.0 71940.0 74873.0 102058.0 93857.0 73040.0 65037.0 227392.0 221205.0 39960.0 31900.0 234303.0 236624.0 86562.0 88433.0 79218.0 71419.0 53897.0 61095.0 29823.0 24423.0 98401.0 93245.0 105744.0 98001.0 64148.0 71828.0 43259.0 49083.0 119189.0 122763.0 107547.0 108885.0 232314.0 224146.0 148853.0 149178.0 100412.0 104026.0 236648.0 243735.0 154640.0 157255.0 193431.0 199960.0 117815.0 113316.0 47529.0 48182.0 30708.0 38573.0 124636.0 118722.0 168132.0 164000.0 141138.0 133875.0 94826.0 102367.0 22441.0 30868.0 194070.0 201187.0 132031.0 132444.0 12599.0 8775.0 63985.0 69039.0 165784.0 173290.0 125784.0 118530.0 10213.0 2030.0 107323.0 102992.0 145837.0 144703.0 34265.0 38246.0 0.0 8440.0 143507.0 145055.0 88155.0 95975.0 84070.0 86845.0 263636.0 263049.0 115278.0 116838.0 173664.0 165974.0 27787.0 20068.0 52157.0 44158.0 110663.0 102370.0 50112.0 48867.0 30572.0 24220.0 158629.0 156671.0 121746.0 126578.0 115640.0 107658.0 56261.0 56104.0 94098.0 100401.0 138349.0 131388.0 56498.0 53345.0 276147.0 273187.0 86533.0 81009.0 163620.0 164328.0 166334.0 170064.0 148655.0 146588.0 257429.0 264143.0 17734.0 20341.0 35332.0 31293.0 48812.0 42669.0 54593.0 50755.0 139015.0 133257.0 64720.0 61697.0 106045.0 107720.0 164071.0 161915.0 108741.0 101010.0 69702.0 77641.0 116845.0 123076.0 53972.0 58631.0 1610.0 6723.0 199917.0 192891.0 42595.0 50279.0 39015.0 47220.0 136335.0 136256.0 16317.0 24553.0 86251.0 85421.0 135648.0 120401.0 135648.0 135648.0 120401.0 120401.0
36415.0 38485.0 127087.0 127898.0 31935.0 39608.0 149035.0 144523.0 41999.0 49619.0 123078.0 124765.0 143531.0 142212.0 20250.0 24939.0 137740.0 129753.0 252097.0 243877.0 55988.0 63084.0 66797.0 59008.0 182305.0 181606.0 77527.0 69330.0 98351.0 94946.0 71640.0 79430.0 76423.0 78587.0 109353.0 101200.0 81452.0 73459.0 220021.0 213743.0 32086.0 24108.0 227017.0 229471.0 90724.0 93203.0 85672.0 77741.0 62300.0 69533.0 36119.0 31765.0 105230.0 100403.0 114114.0 106391.0 71829.0 79375.0 42980.0 49718.0 125095.0 129011.0 99596.0 100741.0 225444.0 217279.0 155308.0 155891.0 95639.0 98749.0 229338.0 236357.0 155093.0 158117.0 186362.0 193001.0 125387.0 120662.0 52355.0 54030.0 31289.0 39180.0 125027.0 118751.0 175481.0 171161.0 149306.0 142095.0 88641.0 96007.0 15225.0 23336.0 186149.0 193323.0 138261.0 139000.0 16095.0 8418.0 71145.0 76570.0 173430.0 180983.0 133815.0 126642.0 18087.0 10172.0 106292.0 102502.0 153464.0 152511.0 34505.0 36770.0 8440.0 0.0 149145.0 150348.0 96480.0 104262.0 85473.0 88956.0 256435.0 255985.0 111712.0 112764.0 165658.0 157953.0 35967.0 28197.0 43970.0 35983.0 118656.0 110379.0 48132.0 45562.0 22472.0 15813.0 166075.0 163913.0 127889.0 132988.0 121415.0 113416.0 64592.0 64185.0 101248.0 107752.0 130535.0 123484.0 64086.0 60404.0 268889.0 265813.0 91490.0 86429.0 170008.0 170436.0 160182.0 163664.0 156537.0 154618.0 250549.0 257179.0 11529.0 12088.0 28258.0 25634.0 55025.0 49564.0 61692.0 57244.0 146594.0 140682.0 67050.0 64957.0 98892.0 100245.0 156991.0 154613.0 117139.0 109416.0 76773.0 84816.0 111381.0 117334.0 54674.0 58263.0 7250.0 15120.0 191976.0 184893.0 51035.0 58711.0 37433.0 45938.0 142568.0 142169.0 24753.0 32989.0 81746.0 80259.0 140215.0 115283.0 140215.0 140215.0 115283.0 115283.0
115228.0 111025.0 265703.0 263910.0 127804.0 125520.0 32612.0 38864.0 123340.0 117317.0 109301.0 117454.0 240577.0 243592.0 147649.0 139970.0 38250.0 38749.0 336985.0 329050.0 102072.0 94257.0 157774.0 154485.0 254949.0 257664.0 198626.0 193780.0 157670.0 163041.0 100295.0 95339.0 181242.0 188808.0 56080.0 62164.0 104598.0 108166.0 298264.0 294102.0 162681.0 157869.0 303406.0 303615.0 193562.0 189463.0 165570.0 163616.0 121040.0 115052.0 113718.0 120110.0 169321.0 160847.0 95298.0 97822.0 88331.0 80874.0 119100.0 111416.0 196426.0 193471.0 208913.0 214895.0 297062.0 288895.0 21521.0 28723.0 156255.0 164355.0 306028.0 313913.0 278191.0 277901.0 261586.0 266072.0 56298.0 51447.0 97024.0 95326.0 123525.0 118140.0 250925.0 247450.0 57298.0 48785.0 83978.0 85778.0 171398.0 177982.0 151086.0 155667.0 280150.0 284922.0 17818.0 24629.0 133093.0 141067.0 150081.0 145385.0 67073.0 73172.0 73610.0 77671.0 134015.0 141542.0 241660.0 235405.0 58400.0 65773.0 122268.0 126829.0 143507.0 149145.0 0.0 7995.0 124204.0 127786.0 209734.0 208127.0 330391.0 328451.0 256941.0 259367.0 264666.0 258437.0 121168.0 126675.0 174037.0 168634.0 72853.0 75370.0 125275.0 133454.0 159618.0 159142.0 55855.0 47817.0 24300.0 24466.0 27956.0 35883.0 106261.0 99940.0 161384.0 160085.0 229658.0 226375.0 93287.0 92541.0 343318.0 342189.0 186435.0 178445.0 28514.0 24303.0 225557.0 231413.0 70345.0 77313.0 322179.0 329032.0 147117.0 155087.0 154516.0 146242.0 94831.0 101939.0 91591.0 93274.0 55234.0 49326.0 189539.0 182480.0 192467.0 199278.0 235515.0 237714.0 98712.0 99711.0 77938.0 72083.0 174821.0 182812.0 187618.0 194874.0 145088.0 140063.0 286003.0 281416.0 120064.0 119339.0 126975.0 122296.0 15748.0 9548.0 132948.0 128130.0 147536.0 154622.0 36893.0 174691.0 36893.0 36893.0 174691.0 174691.0
115692.0 111976.0 268770.0 267199.0 130367.0 128536.0 40607.0 46807.0 126448.0 120751.0 116384.0 124532.0 237927.0 240959.0 147773.0 139910.0 45942.0 45873.0 334334.0 326399.0 105235.0 97560.0 162162.0 158571.0 252298.0 255013.0 197005.0 192441.0 163364.0 168516.0 104738.0 100194.0 185544.0 192985.0 61878.0 67413.0 109788.0 112933.0 295613.0 291451.0 162379.0 157896.0 300755.0 300964.0 198152.0 194280.0 170628.0 168379.0 125348.0 119695.0 115407.0 122112.0 175073.0 166568.0 102101.0 104281.0 92154.0 84967.0 118517.0 110686.0 202318.0 199568.0 206530.0 212656.0 294411.0 286244.0 29168.0 36493.0 153604.0 161704.0 303378.0 311262.0 282454.0 282358.0 258935.0 263421.0 63462.0 58165.0 98015.0 96958.0 123722.0 117962.0 254870.0 251195.0 64628.0 56088.0 91881.0 93542.0 168748.0 175331.0 151489.0 155692.0 277499.0 282271.0 24893.0 32199.0 134255.0 142153.0 154767.0 150359.0 74765.0 80696.0 81202.0 84998.0 135790.0 143121.0 244893.0 238786.0 66395.0 73761.0 122243.0 126376.0 145055.0 150348.0 7995.0 0.0 130183.0 134054.0 213455.0 212110.0 327740.0 325800.0 259223.0 261427.0 262015.0 255786.0 123714.0 128876.0 173414.0 168292.0 79801.0 81873.0 124074.0 132259.0 159784.0 159702.0 63619.0 55527.0 29503.0 31170.0 30848.0 38321.0 110390.0 103764.0 167127.0 166089.0 227021.0 223734.0 96623.0 95244.0 340667.0 339538.0 191261.0 183260.0 34156.0 28492.0 222906.0 228762.0 78341.0 85293.0 319528.0 326381.0 147717.0 155735.0 154256.0 146077.0 96728.0 104184.0 94375.0 95418.0 63189.0 57165.0 193110.0 186197.0 189826.0 196684.0 232864.0 235064.0 105632.0 106309.0 81327.0 76025.0 172170.0 180161.0 190563.0 197661.0 146617.0 141932.0 283353.0 278765.0 123676.0 123413.0 126467.0 121341.0 23411.0 16438.0 135206.0 130782.0 144895.0 151979.0 31861.0 172040.0 31861.0 31861.0 172040.0 172040.0
93615.0 85949.0 162524.0 158238.0 65685.0 57679.0 103015.0 95343.0 55716.0 49642.0 32461.0 30605.0 238390.0 237701.0 112307.0 111007.0 91154.0 86939.0 346379.0 338145.0 55164.0 55556.0 49815.0 52325.0 271776.0 272380.0 173835.0 165732.0 34148.0 40765.0 38148.0 36383.0 70221.0 78462.0 68309.0 63515.0 25702.0 29516.0 312171.0 306451.0 127786.0 119730.0 318623.0 320239.0 77883.0 71682.0 47101.0 49028.0 34617.0 29152.0 76046.0 72611.0 45435.0 37153.0 34438.0 28309.0 52222.0 54308.0 109203.0 108437.0 72234.0 69428.0 195117.0 196878.0 314666.0 306498.0 115911.0 111778.0 175118.0 180933.0 321078.0 328474.0 162102.0 160219.0 276932.0 282840.0 71199.0 73531.0 83926.0 76095.0 100037.0 103328.0 138735.0 137562.0 115563.0 115760.0 71604.0 63533.0 176254.0 184240.0 109970.0 118426.0 281330.0 288225.0 106673.0 101640.0 89497.0 94190.0 39479.0 31479.0 107151.0 112713.0 63920.0 55827.0 80395.0 86726.0 138094.0 130514.0 90722.0 85326.0 102687.0 110548.0 88155.0 96480.0 124204.0 130183.0 0.0 8167.0 102900.0 98211.0 347363.0 346025.0 164309.0 169489.0 261237.0 253601.0 64400.0 71167.0 140268.0 132272.0 54856.0 49713.0 120256.0 124165.0 118672.0 112277.0 105413.0 107998.0 100725.0 99853.0 102051.0 97214.0 40039.0 46666.0 37591.0 35906.0 225396.0 218748.0 55523.0 63496.0 360121.0 357786.0 68760.0 61512.0 129057.0 134079.0 245421.0 250407.0 86663.0 80714.0 339782.0 346555.0 104764.0 108496.0 122078.0 115898.0 72889.0 67722.0 62794.0 70108.0 86385.0 85491.0 87257.0 79316.0 191004.0 193823.0 247922.0 246799.0 33936.0 28141.0 62600.0 61940.0 193976.0 201322.0 94836.0 103034.0 89231.0 81434.0 287241.0 280412.0 46814.0 38794.0 111374.0 115565.0 109819.0 114661.0 72282.0 64336.0 160889.0 163058.0 134550.0 195588.0 134550.0 134550.0 195588.0 195588.0
101767.0 94087.0 165527.0 160912.0 73686.0 65683.0 104983.0 97178.0 63764.0 57785.0 29047.0 25382.0 246431.0 245695.0 120323.0 119115.0 93460.0 89862.0 354469.0 346235.0 63185.0 63296.0 54506.0 57879.0 279942.0 280540.0 181696.0 173563.0 33507.0 41016.0 45835.0 43420.0 73408.0 81548.0 72404.0 68311.0 33062.0 37479.0 320318.0 314588.0 135700.0 127637.0 326778.0 328402.0 79708.0 73022.0 49054.0 52189.0 42661.0 37319.0 84210.0 80760.0 43832.0 36129.0 34837.0 30217.0 59521.0 61030.0 117345.0 116512.0 69452.0 65831.0 203095.0 204780.0 322833.0 314665.0 118267.0 113718.0 183245.0 189081.0 329233.0 336624.0 162771.0 160491.0 285094.0 291006.0 73436.0 76581.0 91858.0 83990.0 108204.0 111478.0 140452.0 139734.0 115422.0 116221.0 69756.0 61842.0 184419.0 192404.0 117896.0 126362.0 289358.0 296274.0 110089.0 104623.0 97563.0 102149.0 44272.0 36102.0 106276.0 111411.0 64001.0 56248.0 88372.0 94582.0 141291.0 133604.0 90845.0 84929.0 110852.0 118715.0 95975.0 104262.0 127786.0 134054.0 8167.0 0.0 106099.0 100936.0 355526.0 354192.0 168583.0 173997.0 269226.0 261582.0 72520.0 79227.0 148120.0 140122.0 56682.0 52549.0 128404.0 132332.0 126524.0 120038.0 105410.0 108581.0 104752.0 103332.0 106722.0 102304.0 48084.0 54538.0 36393.0 33041.0 233434.0 226755.0 63216.0 71253.0 368283.0 365939.0 70211.0 63428.0 130943.0 136349.0 253571.0 258568.0 85767.0 79292.0 347949.0 354722.0 112712.0 116305.0 130076.0 123965.0 80767.0 75766.0 70506.0 77931.0 87043.0 86903.0 91519.0 83659.0 199127.0 201908.0 256078.0 254937.0 33284.0 29056.0 69503.0 68249.0 202120.0 209475.0 100117.0 108240.0 97020.0 89260.0 295263.0 288411.0 54908.0 46893.0 119540.0 123709.0 113028.0 118242.0 80205.0 72317.0 169027.0 171219.0 139846.0 203707.0 139846.0 139846.0 203707.0 203707.0
116671.0 114583.0 59648.0 55811.0 86533.0 86073.0 197570.0 190773.0 87809.0 92802.0 134949.0 131286.0 204904.0 201089.0 104006.0 110206.0 185139.0 178776.0 309968.0 302072.0 108579.0 116018.0 54625.0 55894.0 252758.0 250137.0 138700.0 130839.0 76280.0 68149.0 110202.0 116406.0 32716.0 24553.0 156949.0 149344.0 109642.0 103798.0 284442.0 277212.0 107522.0 102250.0 292257.0 296130.0 30315.0 38215.0 57642.0 53964.0 89480.0 96628.0 105787.0 97736.0 72280.0 75277.0 136206.0 128844.0 121408.0 128913.0 127327.0 132974.0 71470.0 79108.0 162602.0 159968.0 295263.0 286984.0 208244.0 206012.0 178369.0 180069.0 294240.0 300267.0 71331.0 73343.0 255006.0 262476.0 166861.0 166104.0 125153.0 122085.0 114751.0 122557.0 41968.0 37740.0 215791.0 214583.0 174362.0 166258.0 166977.0 173152.0 97786.0 102946.0 243507.0 251432.0 194501.0 192032.0 96314.0 92113.0 64443.0 71814.0 208771.0 214834.0 164901.0 156582.0 88354.0 85046.0 35210.0 27625.0 190903.0 186532.0 118329.0 121945.0 84070.0 85473.0 209734.0 213455.0 102900.0 106099.0 0.0 8039.0 321983.0 323027.0 64975.0 71548.0 222378.0 214835.0 92808.0 90348.0 112858.0 107338.0 152960.0 145729.0 133543.0 130880.0 99079.0 91752.0 205534.0 206696.0 185640.0 187928.0 182608.0 175321.0 103677.0 109795.0 75592.0 83128.0 192957.0 185008.0 116924.0 119363.0 333545.0 329114.0 39880.0 44148.0 222768.0 225931.0 236271.0 238179.0 188533.0 183164.0 319479.0 325198.0 96248.0 91781.0 108608.0 109519.0 120942.0 112474.0 120008.0 121058.0 185544.0 182741.0 20705.0 27261.0 170836.0 169198.0 226524.0 222081.0 136487.0 129807.0 132150.0 137652.0 191768.0 196503.0 31032.0 30242.0 83234.0 82535.0 248656.0 240748.0 89780.0 90605.0 122662.0 131059.0 198489.0 200924.0 84356.0 85625.0 165291.0 162412.0 208797.0 196710.0 208797.0 208797.0 196710.0 196710.0
118667.0 116065.0 64648.0 60035.0 87167.0 85967.0 194815.0 187864.0 87511.0 91927.0 129925.0 125924.0 211784.0 208095.0 108040.0 113856.0 182394.0 176254.0 317245.0 309322.0 107834.0 115047.0 51328.0 53668.0 259124.0 256655.0 145222.0 137261.0 70179.0 61999.0 108089.0 113940.0 28257.0 20038.0 154573.0 147142.0 106611.0 101181.0 291314.0 284133.0 112568.0 106941.0 299086.0 302866.0 23144.0 31042.0 52028.0 49204.0 87280.0 94033.0 106815.0 98737.0 65444.0 68958.0 131966.0 124785.0 119956.0 127259.0 130022.0 135327.0 63517.0 71208.0 169192.0 166766.0 301753.0 293472.0 205834.0 203340.0 182967.0 184950.0 301095.0 307195.0 70908.0 72035.0 261524.0 268943.0 163781.0 163396.0 126005.0 122467.0 117337.0 125036.0 42802.0 39976.0 212135.0 211214.0 169810.0 161727.0 172259.0 178608.0 101912.0 107505.0 250704.0 258608.0 192544.0 189769.0 98799.0 95153.0 60666.0 67621.0 204739.0 210633.0 160948.0 152648.0 90298.0 87660.0 40800.0 32965.0 187201.0 182581.0 120958.0 125006.0 86845.0 88956.0 208127.0 212110.0 98211.0 100936.0 8039.0 0.0 328830.0 329770.0 72160.0 78927.0 229558.0 221987.0 93221.0 91411.0 118529.0 112717.0 149449.0 142429.0 136752.0 134513.0 103835.0 96329.0 201880.0 203329.0 183925.0 185898.0 181297.0 174164.0 101870.0 108348.0 69217.0 76581.0 199731.0 191804.0 115915.0 118877.0 340464.0 336115.0 32974.0 38031.0 220236.0 223661.0 242040.0 244127.0 184395.0 178797.0 326073.0 331870.0 100016.0 96046.0 113179.0 113578.0 121123.0 112591.0 119440.0 121017.0 182026.0 179527.0 22142.0 26843.0 176810.0 175412.0 232906.0 228612.0 132020.0 125557.0 130985.0 136119.0 196841.0 201775.0 35617.0 36314.0 86133.0 84724.0 255897.0 248012.0 88671.0 88788.0 125751.0 134046.0 196465.0 199182.0 85642.0 86146.0 169662.0 167085.0 208225.0 201614.0 208225.0 208225.0 201614.0 201614.0
254306.0 262212.0 323832.0 330333.0 283052.0 290852.0 348535.0 348451.0 292421.0 297804.0 366126.0 370547.0 117085.0 121241.0 237423.0 237087.0 342239.0 334759.0 37772.0 38521.0 293964.0 296418.0 322942.0 315249.0 75824.0 75065.0 184121.0 192371.0 354707.0 351350.0 312725.0 318372.0 328029.0 327300.0 324284.0 319066.0 325621.0 319126.0 37573.0 45060.0 224730.0 232460.0 29764.0 27124.0 340209.0 344845.0 341714.0 333670.0 313257.0 318234.0 271483.0 274826.0 361582.0 356821.0 352443.0 346599.0 303420.0 306852.0 239150.0 241611.0 379601.0 384376.0 160087.0 162068.0 36574.0 42924.0 346729.0 351267.0 175242.0 168264.0 27746.0 22520.0 370377.0 376995.0 70449.0 64675.0 341557.0 333733.0 267763.0 275633.0 247377.0 244737.0 345738.0 337709.0 379254.0 371921.0 375909.0 371221.0 171117.0 163124.0 241323.0 233102.0 82346.0 74423.0 329663.0 335094.0 258956.0 255890.0 327552.0 332620.0 383628.0 391357.0 358510.0 354622.0 268983.0 264475.0 319271.0 321393.0 365923.0 369114.0 244871.0 236942.0 263636.0 256435.0 330391.0 327740.0 347363.0 355526.0 321983.0 328830.0 0.0 7961.0 295078.0 288839.0 102077.0 108962.0 283243.0 277082.0 214654.0 222055.0 344912.0 338563.0 228025.0 223361.0 234575.0 242281.0 372991.0 367176.0 320526.0 328218.0 310805.0 305071.0 308412.0 303452.0 357670.0 364036.0 129139.0 137038.0 296908.0 289005.0 12954.0 14310.0 343854.0 340364.0 358191.0 354694.0 106350.0 99269.0 374359.0 376523.0 18761.0 13501.0 245908.0 244852.0 228326.0 232984.0 278861.0 281549.0 290151.0 282155.0 359125.0 351171.0 311682.0 313479.0 157592.0 156439.0 99663.0 101886.0 356646.0 350204.0 298954.0 305394.0 155801.0 147938.0 295270.0 292696.0 263076.0 269871.0 78765.0 86631.0 300912.0 308843.0 236133.0 232794.0 333092.0 328235.0 277444.0 284547.0 188473.0 185021.0 314170.0 157477.0 314170.0 314170.0 157477.0 157477.0
252731.0 260599.0 326304.0 332687.0 282071.0 289818.0 346595.0 346511.0 291329.0 296552.0 364291.0 368768.0 118355.0 122907.0 236758.0 236140.0 340299.0 332819.0 45511.0 45743.0 292303.0 294555.0 322639.0 314910.0 74256.0 74383.0 184743.0 192912.0 354119.0 350932.0 311017.0 316525.0 328286.0 327758.0 322344.0 317126.0 323969.0 317593.0 39616.0 47469.0 224461.0 232106.0 31355.0 26905.0 340668.0 345154.0 341454.0 333433.0 312071.0 316877.0 270041.0 273594.0 361205.0 356289.0 350536.0 344738.0 301543.0 304922.0 237453.0 239754.0 379670.0 384306.0 160702.0 163065.0 32798.0 40042.0 344789.0 349327.0 173303.0 166344.0 29861.0 26510.0 372589.0 379109.0 69625.0 63242.0 339617.0 331793.0 265887.0 273774.0 245990.0 243113.0 347586.0 339561.0 377313.0 369981.0 373969.0 369337.0 169818.0 161868.0 240822.0 232675.0 85659.0 77899.0 327723.0 333154.0 258015.0 255180.0 327022.0 331933.0 381688.0 389416.0 356570.0 352721.0 268134.0 263831.0 321170.0 323109.0 363983.0 367174.0 243400.0 235500.0 263049.0 255985.0 328451.0 325800.0 346025.0 354192.0 323027.0 329770.0 7961.0 0.0 297614.0 291498.0 104720.0 111336.0 282076.0 276051.0 214693.0 221979.0 343013.0 336634.0 226321.0 221893.0 234306.0 242063.0 371051.0 365236.0 318586.0 326278.0 308865.0 303131.0 306863.0 301745.0 357141.0 363401.0 130072.0 138031.0 295089.0 287158.0 17418.0 21292.0 344096.0 340440.0 356250.0 352754.0 104410.0 97329.0 372419.0 374583.0 11333.0 5638.0 245315.0 244518.0 227796.0 232211.0 277010.0 279832.0 288294.0 280295.0 357185.0 349231.0 312281.0 313880.0 157097.0 156348.0 98995.0 101843.0 354750.0 348348.0 297014.0 303461.0 153863.0 145999.0 295917.0 293555.0 262534.0 269206.0 82508.0 90198.0 299730.0 307627.0 234682.0 231082.0 331152.0 326294.0 276595.0 283577.0 186570.0 183289.0 312230.0 155537.0 312230.0 312230.0 155537.0 155537.0
148119.0 149430.0 28841.0 35963.0 129201.0 132263.0 250454.0 244446.0 134667.0 141687.0 196765.0 193964.0 181263.0 175634.0 122591.0 130857.0 238212.0 231010.0 276458.0 269158.0 155653.0 163633.0 114505.0 112989.0 234402.0 229827.0 125767.0 120344.0 140674.0 132650.0 163009.0 170306.0 96087.0 88504.0 209090.0 200961.0 165878.0 158809.0 258008.0 250221.0 116555.0 115563.0 266261.0 271398.0 95211.0 103125.0 121630.0 116776.0 143775.0 151911.0 144157.0 137154.0 137236.0 139906.0 195764.0 187968.0 170883.0 178911.0 152935.0 160425.0 134319.0 142309.0 146184.0 140702.0 273976.0 265944.0 259380.0 258383.0 183724.0 182506.0 267820.0 272612.0 76466.0 83788.0 234512.0 242448.0 221697.0 219422.0 162729.0 162526.0 142523.0 150178.0 57995.0 50890.0 272191.0 269833.0 234414.0 226323.0 166267.0 170054.0 116745.0 117305.0 213045.0 221082.0 243773.0 242806.0 127253.0 120108.0 124837.0 132849.0 266686.0 273310.0 223060.0 214805.0 123814.0 117070.0 35042.0 41985.0 247781.0 244394.0 145388.0 145503.0 115278.0 111712.0 256941.0 259223.0 164309.0 168583.0 64975.0 72160.0 295078.0 297614.0 0.0 7817.0 193009.0 186279.0 135812.0 130350.0 114453.0 113073.0 209735.0 201877.0 154721.0 149010.0 112428.0 108204.0 262040.0 262039.0 233958.0 237705.0 229004.0 221158.0 155628.0 159895.0 140271.0 147925.0 171603.0 163834.0 164656.0 164464.0 305345.0 299757.0 104854.0 108815.0 274225.0 276102.0 225985.0 225664.0 247045.0 242520.0 296224.0 300743.0 118291.0 110815.0 121861.0 127005.0 162541.0 155065.0 165466.0 163810.0 241790.0 237819.0 77090.0 85004.0 161878.0 157355.0 208977.0 202710.0 196732.0 189505.0 179767.0 186718.0 191472.0 193807.0 71667.0 63611.0 113816.0 117552.0 217274.0 209220.0 139897.0 143425.0 145930.0 154164.0 247999.0 249007.0 124033.0 128962.0 173765.0 168274.0 250760.0 197841.0 250760.0 250760.0 197841.0 197841.0
149153.0 150869.0 35717.0 43197.0 131893.0 135356.0 253793.0 247933.0 137815.0 145022.0 201947.0 199369.0 175665.0 169888.0 122483.0 130841.0 241617.0 234302.0 269716.0 262473.0 158606.0 166591.0 119687.0 117775.0 229091.0 224343.0 121832.0 116784.0 146731.0 138768.0 166717.0 174133.0 102037.0 94635.0 212449.0 204275.0 170101.0 162880.0 251882.0 244064.0 115424.0 114972.0 260155.0 265391.0 101857.0 109762.0 127596.0 122470.0 147849.0 156070.0 146104.0 139326.0 143668.0 146072.0 200460.0 192604.0 174049.0 182100.0 153192.0 160819.0 141498.0 149449.0 141601.0 135863.0 268275.0 260285.0 262408.0 261615.0 181247.0 179704.0 261673.0 266350.0 83598.0 91043.0 228995.0 236950.0 225450.0 222931.0 164367.0 164535.0 143183.0 150716.0 65788.0 58706.0 276095.0 273532.0 239118.0 231046.0 163249.0 166729.0 116807.0 116800.0 206686.0 214709.0 246557.0 245826.0 128543.0 121182.0 130019.0 138096.0 270889.0 277613.0 227406.0 219185.0 125712.0 118689.0 42716.0 49488.0 251825.0 248631.0 145921.0 145608.0 116838.0 112764.0 259367.0 261427.0 169489.0 173997.0 71548.0 78927.0 288839.0 291498.0 7817.0 0.0 186814.0 180186.0 138453.0 132693.0 112465.0 111621.0 213864.0 205924.0 154417.0 148412.0 111915.0 108174.0 265984.0 265771.0 236631.0 240587.0 231411.0 223518.0 159263.0 163232.0 146462.0 154180.0 166291.0 158592.0 167623.0 167073.0 298981.0 293307.0 111392.0 115066.0 277267.0 278932.0 221523.0 220973.0 251404.0 247060.0 290298.0 294704.0 118690.0 111028.0 121126.0 126678.0 164701.0 157428.0 168115.0 166110.0 245732.0 241565.0 82506.0 90338.0 157971.0 153169.0 203848.0 197427.0 201564.0 194247.0 182608.0 189724.0 188292.0 190342.0 75852.0 67661.0 115334.0 119518.0 210824.0 202780.0 143417.0 147287.0 145994.0 154100.0 250805.0 251591.0 126439.0 131740.0 171739.0 165996.0 252484.0 194778.0 252484.0 252484.0 194778.0 194778.0
173038.0 180939.0 221755.0 228269.0 195552.0 203557.0 281454.0 280485.0 205551.0 212099.0 284592.0 287666.0 24302.0 23540.0 148945.0 150966.0 273941.0 266058.0 87943.0 79904.0 211928.0 216166.0 229846.0 222489.0 54664.0 46836.0 88629.0 97044.0 263012.0 258616.0 230539.0 237289.0 231716.0 230025.0 252296.0 245857.0 242591.0 235227.0 65112.0 57260.0 133708.0 141776.0 73415.0 78967.0 242833.0 248141.0 248119.0 240034.0 226626.0 232876.0 188258.0 189640.0 268473.0 264741.0 272813.0 265960.0 224272.0 229400.0 159876.0 164715.0 283841.0 289312.0 66146.0 65290.0 84170.0 76892.0 280750.0 284895.0 108925.0 100782.0 74872.0 79640.0 268367.0 275049.0 50080.0 57474.0 270021.0 262793.0 189928.0 197081.0 164689.0 164432.0 244111.0 236082.0 312053.0 305120.0 301956.0 296174.0 94107.0 86936.0 151420.0 142940.0 21170.0 29054.0 263359.0 268240.0 171893.0 167089.0 235853.0 241896.0 315110.0 322958.0 284782.0 279470.0 180854.0 174897.0 217594.0 220014.0 296350.0 298419.0 163092.0 155307.0 173664.0 165658.0 264666.0 262015.0 261237.0 269226.0 222378.0 229558.0 102077.0 104720.0 193009.0 186814.0 0.0 7751.0 197246.0 190153.0 121802.0 129735.0 270050.0 262650.0 149537.0 142829.0 143187.0 150270.0 305011.0 299831.0 253787.0 261304.0 244231.0 237884.0 224938.0 221522.0 265554.0 272533.0 36588.0 42561.0 216869.0 209730.0 112594.0 107439.0 247481.0 244881.0 292467.0 288969.0 71600.0 64916.0 303435.0 304308.0 104152.0 108085.0 156546.0 153591.0 139159.0 145595.0 200027.0 200464.0 211027.0 203368.0 289324.0 281670.0 213889.0 216590.0 74095.0 69056.0 42682.0 35143.0 276597.0 269399.0 222718.0 230250.0 93181.0 86271.0 197394.0 193941.0 172781.0 180302.0 26625.0 19238.0 214547.0 222554.0 154640.0 154059.0 266971.0 262450.0 189062.0 196910.0 117369.0 110896.0 248445.0 97988.0 248445.0 248445.0 97988.0 97988.0
165693.0 173576.0 214976.0 221406.0 187916.0 195921.0 274853.0 273772.0 197927.0 204508.0 277094.0 280117.0 17897.0 15995.0 141325.0 143437.0 267199.0 259285.0 95641.0 87582.0 204479.0 208789.0 222096.0 214740.0 57164.0 49846.0 80883.0 89297.0 255267.0 250865.0 223062.0 229849.0 223998.0 222337.0 245286.0 238780.0 235070.0 227680.0 71733.0 63976.0 126023.0 134092.0 79983.0 85255.0 235151.0 240436.0 240368.0 232283.0 218995.0 225280.0 180791.0 182091.0 260722.0 256993.0 265398.0 258511.0 216934.0 222134.0 152673.0 157633.0 276118.0 281576.0 58488.0 57541.0 89529.0 81997.0 274365.0 278414.0 103054.0 94937.0 81556.0 86612.0 261416.0 268040.0 53568.0 61277.0 263018.0 255840.0 182719.0 189819.0 157292.0 157158.0 236938.0 228908.0 305412.0 298546.0 294772.0 288935.0 87502.0 80513.0 143750.0 135270.0 28846.0 36644.0 256908.0 261685.0 164295.0 159437.0 228111.0 234166.0 308308.0 316162.0 277623.0 272244.0 173211.0 167216.0 210437.0 212758.0 289467.0 291445.0 155744.0 147988.0 165974.0 157953.0 258437.0 255786.0 253601.0 261582.0 214835.0 221987.0 108962.0 111336.0 186279.0 180186.0 7751.0 0.0 189658.0 182541.0 114081.0 122019.0 262850.0 255410.0 142416.0 135613.0 135482.0 142548.0 298275.0 293178.0 247265.0 254747.0 237746.0 231315.0 217416.0 214065.0 257806.0 264789.0 29453.0 35043.0 209501.0 202409.0 119702.0 114706.0 239767.0 237147.0 286226.0 282740.0 70555.0 64434.0 296439.0 297223.0 110307.0 114526.0 148887.0 145883.0 131528.0 138022.0 192745.0 193073.0 203711.0 196082.0 282428.0 274807.0 206218.0 208885.0 67183.0 61855.0 41635.0 33554.0 269162.0 261940.0 215523.0 223097.0 87963.0 81340.0 189722.0 186319.0 165084.0 172617.0 34366.0 26969.0 206932.0 214936.0 147330.0 146906.0 260558.0 256141.0 181404.0 189269.0 110986.0 104336.0 242216.0 93095.0 242216.0 242216.0 93095.0 93095.0
32300.0 26285.0 145371.0 144271.0 6654.0 9070.0 116410.0 111203.0 9609.0 14858.0 88171.0 90606.0 174174.0 173707.0 48452.0 46615.0 104591.0 96890.0 282003.0 273770.0 20970.0 28749.0 51901.0 44976.0 207829.0 208203.0 110848.0 103032.0 75405.0 74669.0 35697.0 43464.0 71050.0 76638.0 75577.0 67316.0 46116.0 38342.0 247850.0 242080.0 64704.0 56821.0 254373.0 256122.0 85778.0 85121.0 68815.0 62334.0 30016.0 35644.0 15340.0 8753.0 84949.0 78161.0 78375.0 70774.0 37059.0 44987.0 47714.0 49435.0 109553.0 111416.0 131257.0 133497.0 250796.0 242629.0 124195.0 123854.0 113043.0 118193.0 256812.0 264166.0 163934.0 165252.0 212794.0 218842.0 90674.0 86654.0 33122.0 29285.0 36734.0 41660.0 134772.0 130070.0 141313.0 137577.0 113359.0 106129.0 112271.0 120208.0 47028.0 55249.0 217154.0 223968.0 108113.0 107630.0 25388.0 31259.0 50883.0 52996.0 138442.0 145873.0 98023.0 90743.0 17932.0 25871.0 121905.0 116270.0 118547.0 117148.0 39850.0 47313.0 27787.0 35967.0 121168.0 123714.0 64400.0 72520.0 92808.0 93221.0 283243.0 282076.0 135812.0 138453.0 197246.0 189658.0 0.0 7778.0 77610.0 69739.0 82931.0 74630.0 58157.0 60808.0 56349.0 51194.0 131641.0 130093.0 98186.0 102210.0 93263.0 85480.0 28814.0 28342.0 79024.0 83888.0 161202.0 154697.0 29792.0 28652.0 295959.0 293511.0 82567.0 75433.0 139052.0 140501.0 182407.0 187017.0 121011.0 118825.0 275913.0 282753.0 41687.0 46969.0 58306.0 51667.0 28204.0 19890.0 29667.0 28676.0 111816.0 106360.0 72108.0 66378.0 126607.0 129471.0 183687.0 182434.0 81559.0 73917.0 44279.0 51732.0 131292.0 138338.0 67156.0 74013.0 29283.0 21878.0 223087.0 216367.0 17672.0 25644.0 48172.0 53763.0 112370.0 113198.0 12604.0 7238.0 98609.0 99887.0 116844.0 133594.0 116844.0 116844.0 133594.0 133594.0
29463.0 25050.0 141091.0 140370.0 6245.0 13770.0 123169.0 118152.0 15469.0 22139.0 95726.0 97979.0 167226.0 166613.0 41220.0 40051.0 111483.0 103687.0 275258.0 267023.0 28256.0 35795.0 53735.0 46323.0 201843.0 202018.0 103398.0 95518.0 79796.0 78361.0 43474.0 51240.0 71010.0 75925.0 82607.0 74362.0 53745.0 45894.0 241473.0 235604.0 57220.0 49280.0 248089.0 249972.0 85898.0 85957.0 71546.0 64570.0 36566.0 42796.0 15440.0 7401.0 88751.0 82397.0 86119.0 78490.0 44324.0 52139.0 44048.0 46939.0 112397.0 114762.0 124087.0 126159.0 244858.0 236634.0 130549.0 130460.0 108265.0 113073.0 250507.0 257804.0 161671.0 163354.0 206645.0 212810.0 98014.0 93774.0 34839.0 32677.0 32145.0 38101.0 132179.0 127123.0 148526.0 144624.0 121115.0 113900.0 106374.0 114251.0 39467.0 47769.0 210177.0 217059.0 114170.0 114024.0 18337.0 23631.0 54158.0 57250.0 145889.0 153358.0 105716.0 98477.0 10156.0 18128.0 118036.0 112731.0 125966.0 124702.0 35552.0 42500.0 20068.0 28197.0 126675.0 128876.0 71167.0 79227.0 90348.0 91411.0 277082.0 276051.0 130350.0 132693.0 190153.0 182541.0 7778.0 0.0 70059.0 62154.0 90597.0 82303.0 53892.0 55688.0 48705.0 43434.0 138925.0 137201.0 104091.0 108426.0 98720.0 90839.0 36551.0 36038.0 83264.0 88591.0 154236.0 147631.0 36829.0 34663.0 289755.0 287186.0 83565.0 76815.0 145387.0 146566.0 176998.0 181405.0 128618.0 126520.0 269975.0 276828.0 34141.0 39224.0 51045.0 44738.0 32309.0 24737.0 35804.0 33460.0 119190.0 113595.0 69772.0 64686.0 120073.0 122693.0 177451.0 175993.0 89269.0 81606.0 50762.0 58464.0 126154.0 133029.0 63205.0 69591.0 21588.0 14426.0 216094.0 209306.0 24395.0 32408.0 43368.0 49757.0 118451.0 118949.0 6381.0 7806.0 93813.0 94605.0 121091.0 128765.0 121091.0 121091.0 128765.0 128765.0
61382.0 68009.0 137397.0 140746.0 74900.0 82843.0 180629.0 177391.0 85046.0 92186.0 165772.0 167974.0 100071.0 98424.0 30015.0 35535.0 170512.0 162322.0 208657.0 200455.0 95182.0 101003.0 108721.0 101176.0 142055.0 140489.0 33578.0 25497.0 141435.0 137393.0 112741.0 120169.0 113730.0 113724.0 144080.0 136417.0 123720.0 115936.0 177750.0 171192.0 13067.0 20788.0 185014.0 187932.0 126583.0 130665.0 127331.0 119254.0 105849.0 112690.0 71933.0 71088.0 147454.0 143281.0 155646.0 148212.0 109738.0 116348.0 54942.0 62728.0 164982.0 169730.0 55928.0 56773.0 185129.0 176874.0 184372.0 186354.0 69686.0 69463.0 187248.0 194026.0 175075.0 179754.0 145324.0 152361.0 161285.0 155386.0 80640.0 85779.0 52319.0 56264.0 146002.0 138535.0 209293.0 203906.0 188809.0 182071.0 54729.0 60432.0 30592.0 22435.0 142423.0 149706.0 166562.0 169002.0 52570.0 46443.0 114216.0 120115.0 209110.0 216888.0 172460.0 165933.0 60205.0 53543.0 122273.0 121160.0 189256.0 189457.0 52631.0 47244.0 52157.0 43970.0 174037.0 173414.0 140268.0 148120.0 112858.0 118529.0 214654.0 214693.0 114453.0 112465.0 121802.0 114081.0 77610.0 70059.0 0.0 7999.0 157230.0 149175.0 50224.0 42326.0 21597.0 28468.0 200594.0 197240.0 156070.0 162385.0 147979.0 140240.0 106286.0 104356.0 144108.0 150927.0 87137.0 79868.0 101887.0 96176.0 226890.0 223443.0 129502.0 125749.0 198399.0 197283.0 123513.0 125754.0 193927.0 193050.0 209956.0 216249.0 35926.0 31883.0 20724.0 29042.0 88000.0 85589.0 97539.0 91032.0 182191.0 175458.0 99004.0 99716.0 58657.0 58370.0 116115.0 112860.0 159001.0 151430.0 111617.0 119773.0 80048.0 84094.0 83189.0 82620.0 51169.0 58864.0 148209.0 141041.0 94143.0 102030.0 47070.0 52282.0 170763.0 168701.0 68044.0 76144.0 59318.0 53959.0 160498.0 85675.0 160498.0 160498.0 85675.0 85675.0
54854.0 61145.0 134884.0 137817.0 66938.0 74871.0 174238.0 170809.0 77087.0 84268.0 157879.0 160028.0 107872.0 106330.0 22698.0 29041.0 163929.0 155748.0 216470.0 208263.0 87580.0 93556.0 101074.0 93483.0 149045.0 147689.0 41577.0 33475.0 133633.0 129695.0 104984.0 112460.0 106753.0 107060.0 137161.0 129413.0 115855.0 108045.0 185258.0 178768.0 5989.0 12978.0 192459.0 195266.0 119866.0 123721.0 119748.0 111682.0 97865.0 104736.0 64511.0 63366.0 139799.0 135515.0 147881.0 140409.0 102322.0 109062.0 49858.0 57822.0 157722.0 162340.0 63779.0 64758.0 192171.0 183932.0 178364.0 180142.0 72790.0 73388.0 194715.0 201554.0 171109.0 175526.0 152509.0 159455.0 154247.0 148496.0 74126.0 78922.0 45894.0 50515.0 141731.0 134416.0 202626.0 197389.0 181322.0 174517.0 59646.0 65891.0 22714.0 14785.0 150314.0 157564.0 160619.0 162815.0 44831.0 38526.0 106403.0 112226.0 202172.0 209926.0 165071.0 158453.0 52259.0 45547.0 118663.0 117096.0 182278.0 182318.0 46574.0 41926.0 44158.0 35983.0 168634.0 168292.0 132272.0 140122.0 107338.0 112717.0 222055.0 221979.0 113073.0 111621.0 129735.0 122019.0 69739.0 62154.0 7999.0 0.0 149832.0 141738.0 46515.0 39069.0 13601.0 20573.0 193813.0 190627.0 150110.0 156268.0 142225.0 134413.0 98461.0 96680.0 136345.0 143112.0 94914.0 87712.0 94456.0 88943.0 234347.0 230988.0 122472.0 118515.0 192525.0 191644.0 129608.0 132151.0 186731.0 185710.0 217076.0 223451.0 28058.0 23896.0 14177.0 22576.0 81023.0 78263.0 90305.0 83989.0 175230.0 168601.0 92699.0 93025.0 65432.0 65639.0 123228.0 120196.0 151199.0 143608.0 104570.0 112747.0 84613.0 89168.0 77185.0 77192.0 43174.0 50865.0 156113.0 148973.0 86185.0 94060.0 41868.0 47949.0 164849.0 163030.0 60060.0 68172.0 61330.0 56800.0 155671.0 89876.0 155671.0 155671.0 89876.0 89876.0
97776.0 90196.0 212165.0 208765.0 88106.0 81968.0 48315.0 40552.0 79322.0 71362.0 36668.0 44792.0 245964.0 246947.0 127224.0 122387.0 36852.0 34136.0 349891.0 341776.0 62762.0 56291.0 98345.0 97753.0 269469.0 271751.0 188816.0 181755.0 88983.0 95539.0 48370.0 40506.0 121229.0 129412.0 23734.0 26252.0 43899.0 50989.0 312399.0 307747.0 144195.0 136964.0 317839.0 318181.0 131011.0 125471.0 100730.0 100974.0 66016.0 57825.0 85322.0 87260.0 100071.0 91934.0 22592.0 26639.0 47510.0 41095.0 110178.0 105586.0 126134.0 122346.0 206168.0 209938.0 311625.0 303458.0 61632.0 57063.0 169806.0 177095.0 320441.0 328262.0 216053.0 214544.0 275867.0 280610.0 16906.0 21829.0 80131.0 73172.0 106632.0 105802.0 191373.0 189388.0 62876.0 61806.0 31951.0 26387.0 177659.0 185516.0 127637.0 135056.0 288443.0 294430.0 55050.0 48742.0 105483.0 112825.0 88784.0 82135.0 57056.0 63989.0 15243.0 9712.0 100588.0 108707.0 187516.0 180335.0 38122.0 34918.0 107643.0 115147.0 110663.0 118656.0 72853.0 79801.0 54856.0 56682.0 152960.0 149449.0 344912.0 343013.0 209735.0 213864.0 270050.0 262850.0 82931.0 90597.0 157230.0 149832.0 0.0 8311.0 120591.0 127237.0 137235.0 133227.0 52628.0 53932.0 51870.0 48634.0 56691.0 55079.0 55965.0 54594.0 92330.0 89695.0 233467.0 228064.0 55380.0 61281.0 357864.0 356733.0 122472.0 114829.0 74315.0 79676.0 240124.0 245980.0 38285.0 35992.0 336741.0 343594.0 122427.0 128881.0 136650.0 128659.0 70389.0 71658.0 59926.0 67110.0 32589.0 30688.0 134791.0 126944.0 196215.0 201006.0 248452.0 249163.0 25859.0 27681.0 47332.0 39973.0 189216.0 197149.0 138092.0 146229.0 112185.0 104781.0 294447.0 288547.0 71841.0 66820.0 115752.0 116015.0 57462.0 63468.0 95202.0 87539.0 157177.0 161807.0 89809.0 189257.0 89809.0 89809.0 189257.0 189257.0
90063.0 82403.0 204757.0 201500.0 79795.0 73675.0 53560.0 46082.0 71030.0 63078.0 36621.0 44431.0 238616.0 239483.0 119161.0 114454.0 41508.0 37338.0 342996.0 334862.0 54526.0 48182.0 91183.0 90267.0 262998.0 265124.0 180915.0 173792.0 83797.0 89990.0 40105.0 32267.0 114274.0 122410.0 21804.0 21648.0 36255.0 43068.0 305754.0 300998.0 136129.0 128848.0 311295.0 311760.0 124495.0 119200.0 94518.0 94326.0 58104.0 50010.0 77244.0 79032.0 95147.0 86847.0 20944.0 22454.0 39439.0 33341.0 102791.0 98459.0 121726.0 118369.0 198516.0 202177.0 305245.0 297078.0 66214.0 62310.0 163347.0 170522.0 313887.0 321678.0 209685.0 208380.0 269289.0 274151.0 21742.0 24033.0 72750.0 65604.0 98851.0 98270.0 184577.0 182400.0 70430.0 68855.0 39712.0 33525.0 170617.0 178512.0 119482.0 126956.0 281191.0 287255.0 57609.0 52092.0 97303.0 104601.0 81825.0 75463.0 65128.0 72160.0 23447.0 16888.0 92306.0 100418.0 180115.0 173004.0 45908.0 43104.0 99965.0 107548.0 102370.0 110379.0 75370.0 81873.0 49713.0 52549.0 145729.0 142429.0 338563.0 336634.0 201877.0 205924.0 262650.0 255410.0 74630.0 82303.0 149175.0 141738.0 8311.0 0.0 113336.0 119823.0 129077.0 124998.0 60223.0 60967.0 52973.0 50905.0 56444.0 53685.0 47707.0 46290.0 87299.0 85248.0 226062.0 220564.0 47290.0 53425.0 351509.0 350259.0 116183.0 108437.0 79578.0 84393.0 233752.0 239580.0 46574.0 44242.0 330362.0 337215.0 114257.0 120656.0 128633.0 120691.0 62739.0 63659.0 52079.0 59430.0 40015.0 37114.0 127294.0 119490.0 188932.0 193594.0 241676.0 242229.0 25081.0 24465.0 40095.0 33181.0 182781.0 190683.0 130214.0 138323.0 103890.0 96475.0 287195.0 281219.0 63613.0 58744.0 108172.0 108716.0 60482.0 65845.0 86892.0 79230.0 150500.0 154927.0 88942.0 182886.0 88942.0 88942.0 182886.0 182886.0
26650.0 34357.0 173097.0 174613.0 60117.0 66878.0 135400.0 133264.0 67765.0 71604.0 138241.0 142525.0 125397.0 126587.0 32230.0 24302.0 126494.0 118384.0 230097.0 221923.0 65984.0 68525.0 107021.0 99350.0 152218.0 153454.0 73643.0 68513.0 133458.0 132248.0 84707.0 90419.0 121511.0 124874.0 103033.0 96381.0 97650.0 91389.0 193821.0 188643.0 41135.0 39623.0 199828.0 200952.0 136297.0 137609.0 125248.0 118031.0 87300.0 91177.0 44387.0 49405.0 142630.0 136142.0 125062.0 118851.0 75931.0 80314.0 11133.0 15313.0 166051.0 168616.0 87005.0 91850.0 194940.0 186773.0 137397.0 140207.0 55045.0 60677.0 202357.0 209972.0 203131.0 206239.0 157846.0 163354.0 120765.0 113792.0 40643.0 48175.0 21756.0 16929.0 173068.0 166663.0 165290.0 159100.0 152456.0 146820.0 57630.0 65623.0 38330.0 37691.0 167864.0 173926.0 119497.0 122922.0 39201.0 41616.0 108044.0 110956.0 166945.0 174815.0 135254.0 130080.0 49353.0 49572.0 153507.0 150165.0 147681.0 149257.0 18371.0 11958.0 50112.0 48132.0 125275.0 124074.0 120256.0 128404.0 133543.0 136752.0 228025.0 226321.0 154721.0 154417.0 149537.0 142416.0 58157.0 53892.0 50224.0 46515.0 120591.0 113336.0 0.0 8186.0 42562.0 46622.0 157417.0 153045.0 109185.0 116077.0 100425.0 93049.0 80646.0 75434.0 137008.0 142035.0 112984.0 107858.0 69069.0 61353.0 240884.0 239004.0 135497.0 129353.0 150850.0 149022.0 125169.0 130264.0 154181.0 154812.0 220057.0 226910.0 38087.0 44517.0 33943.0 27741.0 51301.0 53526.0 62567.0 54647.0 140595.0 133184.0 114685.0 111805.0 75623.0 80574.0 129410.0 129358.0 129127.0 122428.0 73280.0 80723.0 73724.0 81083.0 102805.0 106193.0 50690.0 53501.0 173868.0 167962.0 75203.0 82737.0 11145.0 4770.0 123552.0 120693.0 56847.0 61674.0 40692.0 43032.0 110802.0 75595.0 110802.0 110802.0 75595.0 75595.0
31064.0 39039.0 168234.0 170065.0 61922.0 69158.0 143283.0 141013.0 70323.0 74895.0 143519.0 147488.0 118804.0 119714.0 27523.0 20676.0 134220.0 126086.0 224380.0 216183.0 70797.0 74017.0 107673.0 99897.0 147664.0 148529.0 65567.0 60343.0 135472.0 133781.0 89620.0 95708.0 120796.0 123651.0 110289.0 103453.0 102373.0 95767.0 188683.0 183307.0 33952.0 33458.0 194879.0 196249.0 135428.0 137204.0 126200.0 118756.0 90544.0 95013.0 48149.0 52126.0 144201.0 138041.0 130763.0 124315.0 81777.0 86607.0 17067.0 22950.0 166826.0 169763.0 79547.0 84155.0 190517.0 182350.0 145461.0 148193.0 52642.0 57422.0 197377.0 204907.0 199664.0 203045.0 153007.0 158755.0 127999.0 121162.0 47107.0 54297.0 24182.0 21803.0 169643.0 163031.0 173059.0 166956.0 159164.0 153346.0 52341.0 60365.0 33836.0 31712.0 161482.0 167707.0 127559.0 130887.0 39306.0 40116.0 109466.0 112925.0 174489.0 182357.0 142040.0 136641.0 49794.0 48655.0 149296.0 146296.0 155121.0 156512.0 21511.0 13619.0 48867.0 45562.0 133454.0 132259.0 124165.0 132332.0 130880.0 134513.0 223361.0 221893.0 149010.0 148412.0 142829.0 135613.0 60808.0 55688.0 42326.0 39069.0 127237.0 119823.0 8186.0 0.0 36584.0 41578.0 165078.0 160825.0 117222.0 124061.0 108519.0 101102.0 85062.0 80371.0 138909.0 144273.0 106241.0 100865.0 74634.0 67174.0 236169.0 234072.0 135227.0 129412.0 158966.0 157183.0 121612.0 126335.0 161382.0 161801.0 215634.0 222487.0 34649.0 40089.0 27331.0 22395.0 57302.0 58615.0 68438.0 60653.0 148026.0 140693.0 112606.0 110262.0 69247.0 73775.0 124262.0 123804.0 134736.0 127855.0 79914.0 87542.0 70516.0 77531.0 99926.0 102753.0 49195.0 53132.0 167484.0 161417.0 78272.0 86031.0 12792.0 11698.0 131630.0 128832.0 57800.0 63481.0 38210.0 39083.0 118974.0 73098.0 118974.0 118974.0 73098.0 73098.0
44550.0 49980.0 132035.0 134199.0 53379.0 61296.0 163427.0 159658.0 63531.0 70779.0 144416.0 146482.0 121110.0 119742.0 12021.0 20213.0 152789.0 144641.0 229697.0 221480.0 74692.0 80957.0 88367.0 80683.0 160954.0 159937.0 55172.0 47070.0 120539.0 116836.0 91774.0 99334.0 95504.0 96469.0 125461.0 117570.0 102445.0 94594.0 197974.0 191600.0 9847.0 3303.0 205066.0 207687.0 109108.0 112479.0 107154.0 99127.0 84272.0 91184.0 52086.0 50294.0 127025.0 122500.0 134634.0 127100.0 89763.0 96737.0 42895.0 50909.0 145758.0 150101.0 77131.0 78317.0 204117.0 195910.0 168235.0 169642.0 79302.0 81119.0 207357.0 214296.0 165425.0 169342.0 164726.0 171519.0 142298.0 136825.0 63540.0 67580.0 36096.0 42083.0 135629.0 128644.0 191281.0 186315.0 168542.0 161624.0 69059.0 75951.0 9599.0 4886.0 163687.0 170879.0 150650.0 152398.0 31813.0 25090.0 93302.0 98939.0 190346.0 198050.0 152476.0 145701.0 38736.0 31946.0 113959.0 111560.0 170399.0 170152.0 37608.0 34895.0 30572.0 22472.0 159618.0 159784.0 118672.0 126524.0 99079.0 103835.0 234575.0 234306.0 112428.0 111915.0 143187.0 135482.0 56349.0 48705.0 21597.0 13601.0 137235.0 129077.0 42562.0 36584.0 0.0 7886.0 182273.0 179391.0 140140.0 145993.0 132661.0 124745.0 85132.0 83632.0 123338.0 129984.0 108123.0 101031.0 81887.0 76784.0 246955.0 243747.0 111055.0 106677.0 182608.0 182146.0 140161.0 143167.0 174461.0 173187.0 229133.0 235638.0 14850.0 10431.0 9904.0 14951.0 69424.0 65962.0 78139.0 72234.0 163391.0 156958.0 82959.0 82463.0 77306.0 78183.0 135374.0 132693.0 137888.0 130263.0 92717.0 100906.0 93134.0 98401.0 68258.0 69479.0 29618.0 37272.0 169509.0 162421.0 72630.0 80486.0 35101.0 42654.0 154920.0 153548.0 46469.0 54598.0 66473.0 63333.0 147836.0 97785.0 147836.0 147836.0 97785.0 97785.0
44011.0 48387.0 126678.0 128497.0 47594.0 55357.0 161379.0 157285.0 57709.0 65220.0 138787.0 140555.0 128439.0 126887.0 14403.0 22673.0 150443.0 142350.0 237039.0 228830.0 70472.0 77156.0 80683.0 73038.0 168782.0 167706.0 61903.0 53643.0 113078.0 109229.0 86869.0 94571.0 87621.0 88638.0 122599.0 114573.0 97035.0 89082.0 205610.0 199187.0 17644.0 10701.0 212741.0 215419.0 101255.0 104595.0 99433.0 91391.0 78110.0 85297.0 48845.0 45967.0 119379.0 114984.0 129549.0 121892.0 85970.0 93232.0 45143.0 52941.0 137906.0 142293.0 84352.0 85189.0 211943.0 203731.0 166803.0 167873.0 86657.0 88709.0 215021.0 221923.0 158837.0 162571.0 172502.0 179324.0 139103.0 133962.0 62300.0 65492.0 36379.0 43282.0 128936.0 122087.0 188652.0 183967.0 164218.0 157135.0 76891.0 83821.0 8694.0 11195.0 170879.0 178137.0 149404.0 150747.0 28032.0 20407.0 85844.0 91657.0 187203.0 194842.0 148443.0 141454.0 33290.0 25832.0 107864.0 105139.0 167229.0 166645.0 38559.0 37448.0 24220.0 15813.0 159142.0 159702.0 112277.0 120038.0 91752.0 96329.0 242281.0 242063.0 108204.0 108174.0 150270.0 142548.0 51194.0 43434.0 28468.0 20573.0 133227.0 124998.0 46622.0 41578.0 7886.0 0.0 179455.0 176893.0 138926.0 144489.0 131823.0 123851.0 79981.0 79077.0 115817.0 122551.0 115476.0 108285.0 78123.0 73622.0 254633.0 251368.0 103169.0 98807.0 181330.0 181224.0 148040.0 151053.0 170819.0 169218.0 236944.0 243425.0 12032.0 4367.0 16862.0 19185.0 67020.0 62711.0 74956.0 69617.0 160277.0 154075.0 75283.0 74644.0 85119.0 85853.0 143160.0 140395.0 132661.0 124968.0 89825.0 97983.0 100833.0 106188.0 60822.0 62428.0 23061.0 30926.0 176671.0 169509.0 66773.0 74495.0 37822.0 45967.0 153698.0 152708.0 40479.0 48705.0 73564.0 70756.0 148365.0 105378.0 148365.0 148365.0 105378.0 105378.0
139248.0 132667.0 264790.0 261344.0 137474.0 132224.0 25501.0 24576.0 129614.0 121883.0 78692.0 85921.0 280710.0 282776.0 171214.0 165059.0 31077.0 39070.0 379468.0 371580.0 110701.0 103169.0 150909.0 150375.0 297549.0 300265.0 229908.0 223661.0 138833.0 146005.0 99426.0 91878.0 173630.0 181845.0 56858.0 64910.0 96441.0 103255.0 340864.0 336702.0 187910.0 181431.0 346007.0 346216.0 182884.0 176991.0 152283.0 153107.0 118278.0 110230.0 130612.0 134331.0 149169.0 141531.0 70998.0 77463.0 94609.0 86812.0 148489.0 142167.0 173508.0 168584.0 244386.0 249229.0 339663.0 331496.0 34471.0 27135.0 198704.0 206640.0 348629.0 356514.0 267505.0 265601.0 304186.0 308672.0 41011.0 45493.0 120070.0 114892.0 148339.0 145448.0 243527.0 241764.0 10258.0 12311.0 39926.0 45991.0 210925.0 218274.0 172806.0 179356.0 321820.0 327037.0 45902.0 38869.0 151444.0 159283.0 141237.0 134359.0 11410.0 18572.0 41511.0 49604.0 148416.0 156610.0 240141.0 232944.0 14718.0 20811.0 148411.0 154968.0 158629.0 166075.0 55855.0 63619.0 105413.0 105410.0 205534.0 201880.0 372991.0 371051.0 262040.0 265984.0 305011.0 298275.0 131641.0 138925.0 200594.0 193813.0 52628.0 60223.0 157417.0 165078.0 182273.0 179455.0 0.0 8198.0 53170.0 45373.0 62922.0 67963.0 106977.0 104053.0 141802.0 137915.0 268911.0 264484.0 102144.0 105855.0 385918.0 384790.0 174034.0 166578.0 36719.0 44884.0 268157.0 274014.0 21864.0 30056.0 364779.0 371632.0 167901.0 175098.0 179909.0 171552.0 112875.0 116770.0 104532.0 110040.0 20253.0 25396.0 187414.0 179572.0 231129.0 237004.0 278113.0 280160.0 72126.0 77273.0 89639.0 81473.0 217421.0 225413.0 190374.0 198452.0 160216.0 153350.0 327761.0 322633.0 122952.0 118697.0 155394.0 153383.0 43917.0 51110.0 144226.0 137152.0 188147.0 194202.0 89757.0 217291.0 89757.0 89757.0 217291.0 217291.0
135861.0 129544.0 265678.0 262466.0 136109.0 131233.0 18722.0 19874.0 128655.0 121077.0 82844.0 90360.0 275541.0 277772.0 168137.0 161727.0 26741.0 34934.0 373770.0 365835.0 109125.0 101414.0 152133.0 151178.0 291734.0 294449.0 225972.0 219911.0 141793.0 148744.0 99059.0 91746.0 175130.0 183297.0 54618.0 62844.0 97153.0 103588.0 335049.0 330886.0 184689.0 178414.0 340191.0 340400.0 184898.0 179241.0 154495.0 154901.0 118523.0 110669.0 128132.0 132274.0 152413.0 144588.0 73828.0 79766.0 93056.0 85107.0 144436.0 137877.0 177318.0 172668.0 239870.0 244893.0 333847.0 325680.0 26360.0 19108.0 192961.0 200948.0 342813.0 350698.0 269833.0 268160.0 298371.0 302856.0 40342.0 43440.0 116601.0 111829.0 144921.0 141660.0 245305.0 243285.0 12261.0 7888.0 45825.0 51120.0 205725.0 212975.0 170002.0 176310.0 316377.0 321477.0 38795.0 32259.0 148965.0 156886.0 142676.0 136067.0 19257.0 25729.0 44676.0 52346.0 146476.0 154644.0 241043.0 233960.0 18392.0 25889.0 144808.0 151137.0 156671.0 163913.0 47817.0 55527.0 107998.0 108581.0 206696.0 203329.0 367176.0 365236.0 262039.0 265771.0 299831.0 293178.0 130093.0 137201.0 197240.0 190627.0 53932.0 60967.0 153045.0 160825.0 179391.0 176893.0 8198.0 0.0 46792.0 39022.0 56574.0 62142.0 106513.0 103023.0 144903.0 141388.0 263875.0 259613.0 100377.0 103518.0 380103.0 378974.0 176257.0 168674.0 28955.0 37008.0 262342.0 268198.0 28184.0 36404.0 358964.0 365816.0 165199.0 172553.0 176622.0 168229.0 109992.0 114399.0 102223.0 107290.0 21613.0 24221.0 188177.0 180406.0 226107.0 232135.0 272243.0 274459.0 75404.0 79937.0 87171.0 79097.0 211605.0 219597.0 190431.0 198431.0 158269.0 151613.0 322301.0 317293.0 122410.0 118626.0 151527.0 149130.0 36469.0 43460.0 142697.0 135878.0 182720.0 188944.0 82210.0 211476.0 82210.0 82210.0 211476.0 211476.0
95611.0 90540.0 241989.0 240039.0 104771.0 102024.0 28077.0 29373.0 99767.0 93490.0 88493.0 96581.0 229535.0 232024.0 128347.0 121111.0 24611.0 20220.0 327120.0 319185.0 78528.0 70619.0 133487.0 130267.0 245084.0 247799.0 182787.0 177298.0 133862.0 139049.0 76012.0 71054.0 156964.0 164555.0 32420.0 37989.0 80421.0 83872.0 288399.0 284237.0 144121.0 138676.0 293541.0 293750.0 169263.0 165186.0 141355.0 139328.0 96776.0 90753.0 91954.0 97835.0 145570.0 137065.0 73606.0 75219.0 64315.0 56728.0 101654.0 94454.0 172827.0 170135.0 195156.0 200584.0 287197.0 279030.0 28321.0 31237.0 146352.0 154378.0 296163.0 304048.0 253912.0 253603.0 251721.0 256207.0 36698.0 30063.0 76680.0 73869.0 104332.0 99807.0 226727.0 223332.0 58761.0 51422.0 69757.0 69569.0 159766.0 166853.0 131217.0 136495.0 269992.0 274971.0 10515.0 14574.0 112013.0 120055.0 125785.0 121139.0 64297.0 71739.0 56137.0 58344.0 111975.0 119746.0 217837.0 211488.0 49312.0 54972.0 103548.0 108971.0 121746.0 127889.0 24300.0 29503.0 100725.0 104752.0 185640.0 183925.0 320526.0 318586.0 233958.0 236631.0 253787.0 247265.0 98186.0 104091.0 156070.0 150110.0 51870.0 52973.0 109185.0 117222.0 140140.0 138926.0 53170.0 46792.0 0.0 7799.0 9783.0 16165.0 82059.0 75894.0 137624.0 136628.0 218090.0 214127.0 69625.0 69559.0 333453.0 332324.0 162159.0 154167.0 42468.0 42582.0 215692.0 221548.0 60227.0 65458.0 312314.0 319167.0 126914.0 134741.0 135934.0 127539.0 72953.0 79469.0 68519.0 71040.0 43775.0 36032.0 165532.0 158400.0 180409.0 186705.0 225650.0 227847.0 77379.0 77429.0 54323.0 48052.0 164956.0 172947.0 164066.0 171454.0 123346.0 117855.0 275894.0 271026.0 96106.0 95145.0 109235.0 105663.0 14782.0 15289.0 110259.0 104997.0 136469.0 142929.0 40422.0 164826.0 40422.0 40422.0 164826.0 164826.0
101564.0 96163.0 244918.0 242729.0 108720.0 105488.0 20325.0 21744.0 103142.0 96522.0 85241.0 93385.0 237039.0 239461.0 134294.0 127232.0 17546.0 14953.0 334812.0 326877.0 82053.0 74076.0 135060.0 132254.0 252776.0 255492.0 189591.0 183966.0 133469.0 139010.0 77811.0 72243.0 158588.0 166324.0 32081.0 38857.0 80991.0 85112.0 296091.0 291929.0 150280.0 144636.0 301234.0 301443.0 170478.0 166093.0 141954.0 140362.0 98619.0 92142.0 96909.0 102427.0 145074.0 136626.0 70951.0 73356.0 67169.0 59314.0 108256.0 101205.0 172087.0 169050.0 202327.0 207660.0 294890.0 286722.0 22332.0 24133.0 154031.0 162043.0 303856.0 311740.0 255443.0 254889.0 259413.0 263899.0 32446.0 27031.0 82453.0 79120.0 110399.0 106171.0 228677.0 225526.0 51038.0 43823.0 63619.0 64061.0 167245.0 174381.0 136943.0 142467.0 277605.0 282621.0 6852.0 6940.0 117256.0 125303.0 126965.0 121908.0 56518.0 63944.0 51019.0 54123.0 116666.0 124563.0 220623.0 214120.0 41930.0 47920.0 109776.0 115436.0 126578.0 132988.0 24466.0 31170.0 99853.0 103332.0 187928.0 185898.0 328218.0 326278.0 237705.0 240587.0 261304.0 254747.0 102210.0 108426.0 162385.0 156268.0 48634.0 50905.0 116077.0 124061.0 145993.0 144489.0 45373.0 39022.0 7799.0 0.0 17574.0 23438.0 84266.0 78591.0 137147.0 135705.0 225534.0 221494.0 73056.0 73765.0 341145.0 340017.0 163058.0 155097.0 37042.0 38419.0 223384.0 229241.0 53103.0 58704.0 320006.0 326859.0 132514.0 140258.0 142105.0 133693.0 77963.0 84025.0 72648.0 75833.0 36711.0 29230.0 168045.0 160759.0 187823.0 194051.0 233342.0 235530.0 74462.0 75268.0 57979.0 51062.0 172648.0 180639.0 167297.0 174832.0 128185.0 122412.0 283514.0 278605.0 98891.0 97325.0 115732.0 112449.0 10567.0 14943.0 114485.0 108847.0 144028.0 150421.0 47048.0 172518.0 47048.0 47048.0 172518.0 172518.0
88127.0 83522.0 238053.0 236407.0 99906.0 97813.0 37857.0 38942.0 95688.0 89912.0 92809.0 100765.0 219994.0 222555.0 120770.0 113325.0 33760.0 28234.0 317399.0 309464.0 74447.0 66734.0 131534.0 127802.0 235363.0 238079.0 174069.0 168749.0 134385.0 139106.0 74242.0 70148.0 154854.0 162236.0 34802.0 38536.0 80163.0 82718.0 278678.0 274516.0 136244.0 131063.0 283821.0 284030.0 167631.0 163954.0 140598.0 138032.0 94713.0 89330.0 85830.0 92160.0 146169.0 137631.0 77378.0 78026.0 61349.0 54290.0 93285.0 85906.0 173638.0 171387.0 185994.0 191532.0 277477.0 269310.0 37057.0 40667.0 136643.0 144680.0 286443.0 294328.0 251718.0 251715.0 242000.0 246486.0 43029.0 35505.0 69544.0 67481.0 96663.0 91759.0 224045.0 220348.0 68525.0 61116.0 77541.0 76652.0 150261.0 157295.0 123921.0 128870.0 260338.0 265282.0 19247.0 24339.0 105405.0 113410.0 124369.0 120269.0 74009.0 81486.0 62932.0 64129.0 106094.0 113667.0 214115.0 207970.0 58555.0 63839.0 95667.0 100765.0 115640.0 121415.0 27956.0 30848.0 102051.0 106722.0 182608.0 181297.0 310805.0 308865.0 229004.0 231411.0 244231.0 237746.0 93263.0 98720.0 147979.0 142225.0 56691.0 56444.0 100425.0 108519.0 132661.0 131823.0 62922.0 56574.0 9783.0 17574.0 0.0 8000.0 79678.0 72949.0 138236.0 137800.0 208615.0 204737.0 65791.0 64669.0 323732.0 322604.0 160947.0 152943.0 50500.0 49486.0 205971.0 211828.0 69152.0 73949.0 302593.0 309446.0 119791.0 127706.0 128055.0 119697.0 66908.0 73984.0 63749.0 65320.0 52718.0 44794.0 162266.0 155351.0 170972.0 177344.0 215929.0 218129.0 81411.0 80565.0 50482.0 45297.0 155235.0 163227.0 159889.0 167072.0 117227.0 112124.0 266234.0 261405.0 92829.0 92662.0 100987.0 97047.0 23163.0 20893.0 104997.0 100259.0 126882.0 133415.0 33292.0 155105.0 33292.0 33292.0 155105.0 155105.0
80200.0 75534.0 230449.0 228894.0 92130.0 90216.0 43598.0 43503.0 88136.0 82542.0 90303.0 98094.0 213615.0 216023.0 112872.0 105477.0 37602.0 30861.0 311665.0 303730.0 66942.0 59327.0 124747.0 120795.0 229629.0 232345.0 166669.0 161237.0 128915.0 133347.0 67735.0 64141.0 147962.0 155247.0 31912.0 34071.0 74456.0 76485.0 272944.0 268782.0 128428.0 123175.0 278087.0 278296.0 160941.0 157461.0 134385.0 131546.0 87966.0 82921.0 77854.0 84234.0 140718.0 132179.0 74554.0 74427.0 54351.0 47611.0 85658.0 78379.0 168266.0 166296.0 179003.0 184420.0 271743.0 263576.0 44365.0 47369.0 130833.0 138810.0 280709.0 288594.0 244723.0 244851.0 236266.0 240752.0 43208.0 35168.0 61562.0 59491.0 88779.0 83989.0 216867.0 213059.0 74285.0 67236.0 78702.0 76989.0 143815.0 150970.0 115972.0 120984.0 254265.0 259338.0 26463.0 30377.0 97405.0 105410.0 117852.0 114042.0 78764.0 86413.0 63128.0 63278.0 98135.0 105687.0 206581.0 200503.0 62117.0 66670.0 87842.0 93063.0 107658.0 113416.0 35883.0 38321.0 97214.0 102304.0 175321.0 174164.0 305071.0 303131.0 221158.0 223518.0 237884.0 231315.0 85480.0 90839.0 140240.0 134413.0 55079.0 53685.0 93049.0 101102.0 124745.0 123851.0 67963.0 62142.0 16165.0 23438.0 8000.0 0.0 72842.0 65892.0 132811.0 132729.0 202097.0 198064.0 58407.0 56945.0 317998.0 316870.0 154468.0 146469.0 58160.0 57409.0 200237.0 206094.0 72026.0 76098.0 296859.0 303712.0 111819.0 119727.0 120238.0 111867.0 58950.0 66105.0 56062.0 57410.0 55813.0 47749.0 154909.0 148079.0 164385.0 170627.0 210178.0 212325.0 78762.0 77197.0 43191.0 38573.0 149501.0 157493.0 152247.0 159371.0 109243.0 104180.0 260183.0 255227.0 85565.0 85729.0 93304.0 89567.0 30581.0 28857.0 97132.0 92514.0 120644.0 126994.0 35337.0 149371.0 35337.0 35337.0 149371.0 149371.0
54132.0 46294.0 160950.0 158545.0 32901.0 26141.0 95068.0 88856.0 23503.0 15497.0 59745.0 62821.0 201562.0 201430.0 76786.0 73979.0 82730.0 75805.0 308756.0 300534.0 15137.0 17193.0 51905.0 48227.0 232675.0 233587.0 139348.0 131637.0 61695.0 64057.0 7607.0 15474.0 75176.0 82601.0 53816.0 45921.0 17654.0 10743.0 273670.0 268172.0 93314.0 85509.0 279928.0 281304.0 88125.0 84901.0 62792.0 59092.0 15185.0 12531.0 37090.0 35441.0 73056.0 64907.0 49569.0 41969.0 18611.0 25426.0 69533.0 68435.0 100233.0 100021.0 159205.0 161777.0 275475.0 267307.0 104915.0 103224.0 135284.0 141269.0 282419.0 289920.0 172065.0 172045.0 238070.0 243783.0 66217.0 63833.0 44032.0 36336.0 61226.0 63774.0 144671.0 141320.0 116996.0 114268.0 85254.0 77810.0 137385.0 145404.0 75749.0 83871.0 244556.0 251196.0 90823.0 88542.0 53778.0 60050.0 45399.0 42780.0 112688.0 119828.0 70662.0 62997.0 46691.0 54427.0 136530.0 129917.0 93135.0 90797.0 63567.0 71521.0 56261.0 64592.0 106261.0 110390.0 40039.0 48084.0 103677.0 101870.0 308412.0 306863.0 155628.0 159263.0 224938.0 217416.0 28814.0 36551.0 106286.0 98461.0 55965.0 47707.0 80646.0 85062.0 85132.0 79981.0 106977.0 106513.0 82059.0 84266.0 79678.0 72842.0 0.0 7955.0 65687.0 68190.0 188654.0 182384.0 17561.0 24605.0 321228.0 319120.0 81942.0 73979.0 119603.0 122397.0 205757.0 210910.0 94244.0 91339.0 300591.0 307444.0 70406.0 75774.0 86626.0 79531.0 33214.0 27684.0 24225.0 30701.0 86775.0 82318.0 83809.0 76494.0 153157.0 156573.0 209276.0 208558.0 52756.0 45147.0 30323.0 34382.0 154267.0 161707.0 84183.0 92070.0 57678.0 49934.0 250519.0 243967.0 15984.0 13089.0 72316.0 75912.0 94821.0 97323.0 40150.0 32112.0 121137.0 123625.0 108311.0 155705.0 108311.0 108311.0 155705.0 155705.0
49307.0 41334.0 166327.0 164201.0 33636.0 28213.0 90574.0 84746.0 25632.0 18214.0 63254.0 67137.0 197935.0 198070.0 74489.0 70892.0 78387.0 71115.0 304599.0 296389.0 9620.0 9326.0 59077.0 54903.0 227650.0 228790.0 136979.0 129475.0 69614.0 72009.0 9274.0 15878.0 82118.0 89356.0 49219.0 41067.0 22308.0 17211.0 269033.0 263677.0 91301.0 83705.0 275161.0 276370.0 95368.0 92386.0 70593.0 66675.0 22761.0 20384.0 33283.0 33340.0 81000.0 72833.0 51519.0 44449.0 11617.0 19277.0 64304.0 62527.0 108188.0 107952.0 156124.0 159050.0 270370.0 262203.0 99740.0 98497.0 129602.0 135814.0 277673.0 285238.0 178832.0 178998.0 233219.0 238784.0 63051.0 59801.0 37344.0 29453.0 57024.0 58749.0 151107.0 147517.0 113902.0 110668.0 85159.0 78065.0 132680.0 140705.0 74096.0 81938.0 240888.0 247394.0 85005.0 83232.0 51865.0 58776.0 53022.0 50671.0 110435.0 117779.0 69683.0 62458.0 46097.0 54165.0 142053.0 135622.0 90630.0 88940.0 59040.0 67002.0 56104.0 64185.0 99940.0 103764.0 46666.0 54538.0 109795.0 108348.0 303452.0 301745.0 159895.0 163232.0 221522.0 214065.0 28342.0 36038.0 104356.0 96680.0 54594.0 46290.0 75434.0 80371.0 83632.0 79077.0 104053.0 103023.0 75894.0 78591.0 72949.0 65892.0 7955.0 0.0 73609.0 75989.0 185096.0 179024.0 9627.0 17012.0 316303.0 314349.0 89449.0 81515.0 114531.0 116929.0 200231.0 205559.0 92722.0 90486.0 295486.0 302339.0 68787.0 74772.0 84231.0 76749.0 26231.0 21913.0 16497.0 23458.0 84025.0 78990.0 89639.0 82540.0 149092.0 152835.0 204605.0 204149.0 55139.0 47877.0 22906.0 27860.0 148737.0 156281.0 88880.0 96572.0 57615.0 50189.0 246869.0 240456.0 20301.0 19940.0 67762.0 70668.0 89094.0 91183.0 40648.0 33190.0 115603.0 118462.0 100915.0 149917.0 100915.0 100915.0 149917.0 149917.0
111299.0 104798.0 133436.0 128083.0 77020.0 70153.0 140571.0 132867.0 69451.0 67213.0 64488.0 58991.0 244178.0 242350.0 120429.0 121772.0 128743.0 124472.0 352752.0 344555.0 79333.0 82880.0 35929.0 43077.0 283271.0 282782.0 176928.0 168510.0 4004.0 7946.0 67596.0 69126.0 44697.0 51828.0 105322.0 99895.0 58453.0 58012.0 321256.0 314931.0 133145.0 125293.0 328265.0 330684.0 46449.0 38942.0 19735.0 26995.0 52674.0 53247.0 93817.0 87727.0 7946.0 867.0 71080.0 65697.0 82648.0 86971.0 126726.0 128188.0 35462.0 34362.0 200016.0 200265.0 326384.0 318223.0 153502.0 149332.0 191522.0 196195.0 330586.0 337589.0 126862.0 124314.0 287519.0 294057.0 108777.0 111051.0 107353.0 100422.0 115335.0 120676.0 105919.0 106032.0 151810.0 152572.0 105629.0 97858.0 188501.0 196190.0 116348.0 124584.0 286368.0 293743.0 143987.0 139141.0 100183.0 102114.0 30121.0 26053.0 142516.0 147448.0 100378.0 92556.0 89734.0 93366.0 109998.0 102142.0 127231.0 121303.0 118638.0 125759.0 94098.0 101248.0 161384.0 167127.0 37591.0 36393.0 75592.0 69217.0 357670.0 357141.0 140271.0 146462.0 265554.0 257806.0 79024.0 83264.0 144108.0 136345.0 92330.0 87299.0 137008.0 138909.0 123338.0 115817.0 141802.0 144903.0 137624.0 137147.0 138236.0 132811.0 65687.0 73609.0 0.0 7940.0 231242.0 223953.0 83235.0 90081.0 370136.0 367044.0 36514.0 31472.0 166606.0 171670.0 259729.0 263794.0 122033.0 115360.0 351507.0 358239.0 111830.0 112962.0 129357.0 125138.0 97617.0 90374.0 89824.0 95615.0 123330.0 122865.0 65542.0 58631.0 200091.0 201462.0 258155.0 255861.0 69676.0 65070.0 94227.0 95548.0 209248.0 215961.0 78260.0 85535.0 94609.0 88037.0 292091.0 284762.0 63177.0 57005.0 126627.0 132712.0 147227.0 151860.0 81391.0 75459.0 177072.0 177646.0 169876.0 212006.0 169876.0 169876.0 212006.0 212006.0
116008.0 109245.0 140521.0 134995.0 82368.0 75198.0 138008.0 130212.0 74279.0 71337.0 59751.0 53659.0 250983.0 249272.0 126645.0 127640.0 126416.0 122579.0 359579.0 351373.0 82427.0 85314.0 43350.0 50243.0 289423.0 289080.0 183908.0 175503.0 9542.0 15885.0 69255.0 69891.0 52560.0 59574.0 104215.0 99285.0 59015.0 59656.0 327752.0 321495.0 139756.0 131846.0 334697.0 337016.0 53625.0 45947.0 27671.0 34826.0 56222.0 55659.0 98348.0 92636.0 12001.0 8532.0 67826.0 63135.0 84276.0 87959.0 131566.0 132633.0 36484.0 33588.0 206855.0 207258.0 332523.0 324349.0 151223.0 146748.0 196792.0 201662.0 337036.0 344092.0 132245.0 129340.0 293797.0 300257.0 106392.0 109215.0 110923.0 103738.0 120477.0 125509.0 112287.0 112731.0 147804.0 148959.0 100862.0 93258.0 194405.0 202154.0 122757.0 131064.0 293292.0 300623.0 142513.0 137320.0 105907.0 108232.0 36711.0 31527.0 138079.0 142727.0 96724.0 89138.0 95544.0 99574.0 117296.0 109430.0 123472.0 117254.0 123695.0 130981.0 100401.0 107752.0 160085.0 166089.0 35906.0 33041.0 83128.0 76581.0 364036.0 363401.0 147925.0 154180.0 272533.0 264789.0 83888.0 88591.0 150927.0 143112.0 89695.0 85248.0 142035.0 144273.0 129984.0 122551.0 137915.0 141388.0 136628.0 135705.0 137800.0 132729.0 68190.0 75989.0 7940.0 0.0 238025.0 230795.0 85580.0 92780.0 376546.0 373547.0 43685.0 39119.0 163979.0 169332.0 265450.0 269658.0 117684.0 110749.0 357631.0 364424.0 118128.0 119577.0 135724.0 131233.0 100819.0 93938.0 92414.0 98622.0 119919.0 119937.0 73460.0 66570.0 206445.0 207995.0 264449.0 262301.0 65984.0 62096.0 95608.0 96258.0 214740.0 221565.0 86183.0 93473.0 100986.0 94196.0 299039.0 291754.0 67406.0 60705.0 131847.0 137650.0 145596.0 150539.0 87130.0 80812.0 182341.0 183173.0 169977.0 217317.0 169977.0 169977.0 217317.0 217317.0
136488.0 144401.0 199675.0 205448.0 159761.0 167757.0 245596.0 244425.0 169681.0 176060.0 248236.0 251439.0 13010.0 13949.0 113124.0 114746.0 237834.0 229901.0 121574.0 113360.0 175491.0 179635.0 195820.0 188305.0 62806.0 58446.0 55180.0 63539.0 228547.0 224520.0 194150.0 200832.0 199364.0 198346.0 215833.0 209335.0 206301.0 199013.0 91700.0 84728.0 98453.0 106475.0 99379.0 103180.0 211245.0 216074.0 214353.0 206266.0 190782.0 196845.0 151859.0 153455.0 234548.0 230415.0 236318.0 229514.0 187711.0 192813.0 123291.0 128188.0 251233.0 256330.0 31341.0 32994.0 103285.0 95087.0 245337.0 249274.0 75254.0 67280.0 101430.0 107758.0 244569.0 250725.0 63223.0 71069.0 233565.0 226391.0 153342.0 160494.0 128190.0 127848.0 218495.0 210502.0 276117.0 269310.0 265378.0 259586.0 58385.0 51728.0 115959.0 107494.0 55953.0 62869.0 227808.0 232474.0 135921.0 131443.0 201316.0 207061.0 278906.0 286763.0 248213.0 242883.0 145128.0 139483.0 192297.0 193754.0 260032.0 261992.0 126544.0 118742.0 138349.0 130535.0 229658.0 227021.0 225396.0 233434.0 192957.0 199731.0 129139.0 130072.0 171603.0 166291.0 36588.0 29453.0 161202.0 154236.0 87137.0 94914.0 233467.0 226062.0 112984.0 106241.0 108123.0 115476.0 268911.0 263875.0 218090.0 225534.0 208615.0 202097.0 188654.0 185096.0 231242.0 238025.0 0.0 7996.0 180330.0 173160.0 140943.0 136986.0 215193.0 212049.0 257380.0 253956.0 61164.0 57972.0 266985.0 267782.0 126844.0 132327.0 120976.0 118553.0 103429.0 109542.0 163443.0 163949.0 174455.0 166785.0 252990.0 245380.0 182610.0 184607.0 37782.0 32468.0 37930.0 31140.0 240128.0 232968.0 186136.0 193683.0 62146.0 56622.0 166172.0 163564.0 137553.0 144911.0 61891.0 55362.0 178620.0 186639.0 118069.0 117489.0 231501.0 227217.0 153426.0 161151.0 82126.0 75235.0 213451.0 68145.0 213451.0 213451.0 68145.0 68145.0
130730.0 138593.0 191841.0 197569.0 153070.0 161074.0 241451.0 240062.0 163045.0 169552.0 242054.0 245105.0 20324.0 19050.0 106441.0 108408.0 233417.0 225430.0 128799.0 120605.0 169440.0 173790.0 188442.0 180966.0 70579.0 66381.0 47500.0 55899.0 221301.0 217170.0 188019.0 194812.0 191670.0 190568.0 210872.0 204227.0 200038.0 192666.0 99564.0 92526.0 91438.0 99489.0 107286.0 111144.0 203461.0 208348.0 206919.0 198830.0 184132.0 190332.0 145749.0 147079.0 227158.0 223128.0 230371.0 223470.0 181971.0 187258.0 117932.0 123137.0 243592.0 248752.0 23940.0 25041.0 111265.0 103062.0 241596.0 245351.0 73407.0 65669.0 109315.0 115574.0 236634.0 242771.0 71170.0 78996.0 228607.0 221547.0 147948.0 154960.0 122282.0 122294.0 210513.0 202521.0 271869.0 265194.0 260004.0 254085.0 55033.0 49060.0 109060.0 100581.0 62682.0 69855.0 223966.0 228431.0 129355.0 124654.0 194084.0 199930.0 274342.0 282208.0 242902.0 237417.0 138393.0 132571.0 184326.0 185764.0 255314.0 257083.0 120781.0 113063.0 131388.0 123484.0 226375.0 223734.0 218748.0 226755.0 185008.0 191804.0 137038.0 138031.0 163834.0 158592.0 42561.0 35043.0 154697.0 147631.0 79868.0 87712.0 228064.0 220564.0 107858.0 100865.0 101031.0 108285.0 264484.0 259613.0 214127.0 221494.0 204737.0 198064.0 182384.0 179024.0 223953.0 230795.0 7996.0 0.0 174509.0 167466.0 148788.0 144746.0 207496.0 204433.0 253883.0 250677.0 67063.0 64480.0 262028.0 262632.0 134839.0 140309.0 114138.0 111459.0 96681.0 103039.0 157856.0 158065.0 168775.0 161186.0 248251.0 240714.0 174784.0 176859.0 33908.0 27481.0 45342.0 38881.0 234125.0 226897.0 180761.0 188406.0 62063.0 57363.0 158334.0 155658.0 130552.0 137990.0 68544.0 61675.0 172026.0 180037.0 112418.0 112272.0 227726.0 223641.0 146639.0 154440.0 78999.0 71755.0 210164.0 68493.0 210164.0 210164.0 68493.0 68493.0
43853.0 35930.0 172426.0 170647.0 36035.0 32445.0 86653.0 81414.0 30147.0 24136.0 69221.0 73842.0 193065.0 193520.0 71872.0 67326.0 74800.0 67123.0 298991.0 290800.0 9017.0 1044.0 67628.0 62938.0 221084.0 222489.0 133792.0 126573.0 79240.0 81578.0 17385.0 21545.0 90315.0 97308.0 45806.0 37551.0 30329.0 26406.0 262887.0 257701.0 88839.0 81584.0 268858.0 269873.0 103899.0 101229.0 79887.0 75685.0 31981.0 30008.0 29955.0 32337.0 90617.0 82458.0 56131.0 49782.0 7877.0 15333.0 58035.0 55370.0 117772.0 117577.0 152004.0 155351.0 263700.0 255533.0 94786.0 94188.0 122399.0 128871.0 271395.0 279029.0 186654.0 187061.0 226851.0 232238.0 61324.0 56945.0 29453.0 21464.0 52246.0 52832.0 158540.0 154658.0 111706.0 107822.0 86939.0 80340.0 126654.0 134663.0 72288.0 79678.0 235910.0 242252.0 79203.0 78204.0 50209.0 57733.0 62114.0 60115.0 109345.0 116901.0 70622.0 64061.0 46286.0 54484.0 148379.0 142185.0 89381.0 88535.0 53789.0 61638.0 56498.0 64086.0 93287.0 96623.0 55523.0 63216.0 116924.0 115915.0 296908.0 295089.0 164656.0 167623.0 216869.0 209501.0 29792.0 36829.0 101887.0 94456.0 55380.0 47290.0 69069.0 74634.0 81887.0 78123.0 102144.0 100377.0 69625.0 73056.0 65791.0 58407.0 17561.0 9627.0 83235.0 85580.0 180330.0 174509.0 0.0 8151.0 309793.0 308020.0 98324.0 90441.0 109645.0 111468.0 193105.0 198632.0 92698.0 91304.0 288817.0 295670.0 67109.0 73761.0 81368.0 73490.0 18189.0 16529.0 7295.0 15040.0 82529.0 76789.0 96505.0 89692.0 143797.0 147926.0 198479.0 198334.0 60113.0 53360.0 15349.0 22107.0 141677.0 149331.0 94440.0 101856.0 58081.0 51250.0 241905.0 235664.0 27245.0 28706.0 62341.0 64308.0 83398.0 84849.0 42375.0 36002.0 108618.0 111922.0 92538.0 142547.0 92538.0 92538.0 142547.0 142547.0
36752.0 28996.0 173565.0 172164.0 35272.0 33472.0 88803.0 84128.0 31576.0 27254.0 77135.0 81898.0 185836.0 186445.0 66253.0 61124.0 77362.0 69421.0 291409.0 283227.0 11518.0 7961.0 72134.0 66817.0 213185.0 214673.0 127536.0 120506.0 86106.0 87998.0 25430.0 29626.0 94191.0 100830.0 49023.0 40954.0 38448.0 34177.0 255115.0 249988.0 83200.0 76223.0 261033.0 261987.0 108180.0 105997.0 85549.0 80836.0 37933.0 37127.0 24789.0 28938.0 97305.0 89286.0 63709.0 57599.0 14606.0 20211.0 50398.0 47405.0 124210.0 124338.0 145189.0 148761.0 255770.0 247602.0 95891.0 95921.0 114360.0 120892.0 263577.0 271232.0 189773.0 190501.0 219013.0 224343.0 65539.0 60371.0 21366.0 13402.0 45442.0 45391.0 161219.0 156996.0 115145.0 110757.0 93126.0 86818.0 118980.0 126976.0 67227.0 74235.0 228611.0 234877.0 79555.0 79378.0 45596.0 53431.0 67486.0 66212.0 113624.0 121299.0 76449.0 70307.0 43232.0 51315.0 149819.0 143900.0 93659.0 93401.0 46694.0 54423.0 53345.0 60404.0 92541.0 95244.0 63496.0 71253.0 119363.0 118877.0 289005.0 287158.0 164464.0 167073.0 209730.0 202409.0 28652.0 34663.0 96176.0 88943.0 61281.0 53425.0 61353.0 67174.0 76784.0 73622.0 105855.0 103518.0 69559.0 73765.0 64669.0 56945.0 24605.0 17012.0 90081.0 92780.0 173160.0 167466.0 8151.0 0.0 301899.0 300181.0 103155.0 95383.0 110726.0 111953.0 185067.0 190639.0 97788.0 96924.0 280886.0 287739.0 62198.0 69261.0 75511.0 67434.0 10149.0 10915.0 1363.0 6914.0 86681.0 80466.0 98749.0 92301.0 136413.0 140716.0 190729.0 190699.0 67785.0 61200.0 16374.0 24429.0 133664.0 141343.0 95333.0 102425.0 54952.0 48763.0 234611.0 228451.0 30977.0 34146.0 55091.0 56608.0 83827.0 84547.0 40737.0 35592.0 100639.0 104075.0 89435.0 134468.0 89435.0 89435.0 134468.0 134468.0
267134.0 275048.0 334145.0 340763.0 295707.0 303523.0 361462.0 361378.0 305111.0 310543.0 379013.0 383409.0 128690.0 132540.0 249972.0 249740.0 355166.0 347686.0 38726.0 42065.0 306807.0 309299.0 335312.0 327638.0 88714.0 87755.0 196048.0 204340.0 367200.0 363769.0 325576.0 331249.0 340102.0 339254.0 337211.0 331939.0 338459.0 331937.0 49257.0 56333.0 237113.0 244880.0 41892.0 39932.0 352158.0 356884.0 354059.0 346006.0 325974.0 331000.0 284277.0 287561.0 373979.0 369290.0 365357.0 359496.0 316323.0 319779.0 252006.0 254510.0 391770.0 396618.0 172044.0 173777.0 49264.0 55828.0 359656.0 364195.0 188183.0 181187.0 39645.0 33281.0 380929.0 387638.0 83190.0 77556.0 354485.0 346660.0 280666.0 288530.0 260160.0 257577.0 356640.0 348609.0 392181.0 384848.0 388646.0 384174.0 183896.0 175895.0 253804.0 245553.0 92301.0 84272.0 342590.0 348021.0 271602.0 268451.0 340025.0 345157.0 396555.0 404284.0 371356.0 367573.0 281594.0 277008.0 330138.0 332421.0 378850.0 382041.0 257676.0 249740.0 276147.0 268889.0 343318.0 340667.0 360121.0 368283.0 333545.0 340464.0 12954.0 17418.0 305345.0 298981.0 112594.0 119702.0 295959.0 289755.0 226890.0 234347.0 357864.0 351509.0 240884.0 236169.0 246955.0 254633.0 385918.0 380103.0 333453.0 341145.0 323732.0 317998.0 321228.0 316303.0 370136.0 376546.0 140943.0 148788.0 309793.0 301899.0 0.0 8049.0 355932.0 352537.0 371118.0 367621.0 119290.0 112209.0 387287.0 389450.0 28460.0 20951.0 258426.0 257258.0 240823.0 245577.0 291756.0 294405.0 303048.0 295053.0 372053.0 364098.0 323553.0 325472.0 170111.0 168781.0 112304.0 114280.0 369555.0 363099.0 311889.0 318339.0 168743.0 160874.0 307114.0 304399.0 275568.0 282412.0 88254.0 96259.0 313630.0 321570.0 248934.0 245653.0 346019.0 341162.0 290053.0 297197.0 201390.0 197892.0 327097.0 170417.0 327097.0 327097.0 170417.0 170417.0
265099.0 273041.0 328581.0 335284.0 293087.0 300944.0 360333.0 360250.0 302585.0 308163.0 377232.0 381485.0 124520.0 128027.0 247113.0 247139.0 354038.0 346557.0 30736.0 34444.0 304818.0 307503.0 332041.0 324405.0 87266.0 85560.0 192163.0 200505.0 364163.0 360581.0 323618.0 329422.0 336334.0 335314.0 335990.0 330910.0 336437.0 329806.0 45796.0 52291.0 233920.0 241751.0 39193.0 38674.0 348207.0 353059.0 350736.0 342668.0 323520.0 328702.0 282099.0 285182.0 370747.0 366201.0 363756.0 357775.0 314659.0 318295.0 250105.0 252846.0 388131.0 393100.0 168231.0 169640.0 50233.0 55954.0 358528.0 363066.0 186931.0 179762.0 36710.0 29455.0 375532.0 382312.0 81170.0 76123.0 353356.0 345532.0 279021.0 286842.0 257956.0 255601.0 351541.0 343513.0 391052.0 383719.0 387691.0 383080.0 181736.0 173716.0 250794.0 242487.0 86816.0 78762.0 341462.0 346892.0 268969.0 265611.0 336955.0 342225.0 395427.0 403155.0 370377.0 366435.0 278867.0 274098.0 325019.0 327445.0 377721.0 380912.0 255554.0 247600.0 273187.0 265813.0 342189.0 339538.0 357786.0 365939.0 329114.0 336115.0 14310.0 21292.0 299757.0 293307.0 107439.0 114706.0 293511.0 287186.0 223443.0 230988.0 356733.0 350259.0 239004.0 234072.0 243747.0 251368.0 384790.0 378974.0 332324.0 340017.0 322604.0 316870.0 319120.0 314349.0 367044.0 373547.0 136986.0 144746.0 308020.0 300181.0 8049.0 0.0 352164.0 348917.0 369989.0 366492.0 118287.0 111207.0 386158.0 388321.0 32603.0 26016.0 255492.0 254093.0 237856.0 242824.0 290050.0 292480.0 301348.0 293362.0 370924.0 362970.0 319505.0 321592.0 167264.0 165583.0 109874.0 111300.0 367917.0 361368.0 310503.0 317078.0 167516.0 159588.0 303039.0 300148.0 272567.0 279515.0 82487.0 90537.0 311181.0 319146.0 246804.0 243774.0 344890.0 340033.0 287316.0 294565.0 199887.0 196107.0 325969.0 168223.0 325969.0 325969.0 168223.0 168223.0
112961.0 108345.0 96924.0 91613.0 77931.0 73830.0 169593.0 162243.0 74461.0 76219.0 99207.0 94522.0 227798.0 224991.0 111739.0 115531.0 157324.0 151947.0 335401.0 327316.0 91638.0 97637.0 31152.0 37594.0 271506.0 269978.0 160015.0 151660.0 37885.0 29741.0 86742.0 91109.0 15831.0 18776.0 131052.0 124336.0 82094.0 78330.0 306689.0 299881.0 120720.0 113696.0 314135.0 317281.0 9945.0 3036.0 21764.0 22922.0 66764.0 71617.0 97740.0 90072.0 32474.0 36330.0 103168.0 96593.0 100546.0 106865.0 126786.0 130421.0 36526.0 42823.0 183936.0 182819.0 314613.0 306364.0 181573.0 178295.0 186893.0 190226.0 316303.0 322865.0 93584.0 92219.0 274817.0 281860.0 137904.0 138674.0 115257.0 109985.0 114198.0 121080.0 70242.0 69786.0 184223.0 184086.0 139894.0 131914.0 179779.0 186899.0 106371.0 113618.0 268607.0 276303.0 169868.0 166130.0 96319.0 95302.0 36620.0 41168.0 175898.0 181351.0 132606.0 124435.0 86190.0 86597.0 73616.0 65748.0 159321.0 154074.0 117828.0 123565.0 86533.0 91490.0 186435.0 191261.0 68760.0 70211.0 39880.0 32974.0 343854.0 344096.0 104854.0 111392.0 247481.0 239767.0 82567.0 83565.0 129502.0 122472.0 122472.0 116183.0 135497.0 135227.0 111055.0 103169.0 174034.0 176257.0 162159.0 163058.0 160947.0 154468.0 81942.0 89449.0 36514.0 43685.0 215193.0 207496.0 98324.0 103155.0 355932.0 352164.0 0.0 8004.0 195485.0 199689.0 251154.0 254219.0 155397.0 149271.0 339457.0 345727.0 102999.0 101498.0 119067.0 117102.0 107907.0 99527.0 103379.0 106929.0 154690.0 153084.0 35191.0 30990.0 187900.0 187859.0 245615.0 242258.0 102622.0 96821.0 112253.0 115901.0 202868.0 208741.0 51035.0 56516.0 86414.0 82147.0 274087.0 266424.0 72287.0 69634.0 124400.0 131918.0 173523.0 177136.0 79226.0 76538.0 172779.0 171699.0 190251.0 206726.0 190251.0 190251.0 206726.0 206726.0
106271.0 101404.0 102607.0 97658.0 71043.0 66591.0 161787.0 154470.0 67101.0 68559.0 92475.0 88122.0 224756.0 222179.0 106650.0 110028.0 149496.0 144058.0 332718.0 324599.0 83865.0 89765.0 23651.0 30540.0 267507.0 266195.0 156936.0 148535.0 32177.0 24017.0 78741.0 83115.0 14420.0 20534.0 123106.0 116358.0 74153.0 70329.0 303333.0 296627.0 116437.0 109193.0 310689.0 313679.0 16371.0 11021.0 14433.0 14923.0 58808.0 63613.0 90690.0 83138.0 28944.0 31137.0 95832.0 89115.0 92577.0 98868.0 120380.0 123748.0 39237.0 44441.0 180729.0 179939.0 310654.0 302424.0 173695.0 170477.0 181410.0 184980.0 312893.0 319559.0 101253.0 100052.0 271019.0 277964.0 130140.0 130806.0 107908.0 102474.0 107888.0 114598.0 77229.0 76306.0 176785.0 176516.0 132911.0 124891.0 175003.0 182251.0 101488.0 108986.0 265958.0 273584.0 161903.0 158207.0 90279.0 89738.0 28627.0 33244.0 168648.0 174214.0 125210.0 117004.0 80001.0 80934.0 78812.0 70991.0 151860.0 146734.0 111494.0 117463.0 81009.0 86429.0 178445.0 183260.0 61512.0 63428.0 44148.0 38031.0 340364.0 340440.0 108815.0 115066.0 244881.0 237147.0 75433.0 76815.0 125749.0 118515.0 114829.0 108437.0 129353.0 129412.0 106677.0 98807.0 166578.0 168674.0 154167.0 155097.0 152943.0 146469.0 73979.0 81515.0 31472.0 39119.0 212049.0 204433.0 90441.0 95383.0 352537.0 348917.0 8004.0 0.0 187650.0 191799.0 246497.0 249758.0 148170.0 142178.0 335587.0 341959.0 97868.0 96873.0 114335.0 111928.0 100332.0 92001.0 95581.0 99278.0 147132.0 145398.0 35575.0 29860.0 183837.0 184099.0 241742.0 238608.0 95439.0 89459.0 104296.0 107904.0 197723.0 203758.0 50272.0 56611.0 81002.0 76282.0 271505.0 263916.0 64589.0 61738.0 118307.0 125655.0 165570.0 169153.0 72753.0 69614.0 167202.0 166397.0 182282.0 201399.0 182282.0 182282.0 201399.0 201399.0
138079.0 132953.0 280552.0 278041.0 145513.0 141968.0 26044.0 33769.0 139559.0 132665.0 107640.0 115542.0 268373.0 271326.0 170813.0 163547.0 38165.0 43996.0 364784.0 356850.0 118662.0 110677.0 168988.0 166880.0 282748.0 285464.0 224483.0 219234.0 163205.0 169549.0 112709.0 106368.0 192449.0 200399.0 65863.0 73686.0 113870.0 119062.0 326064.0 321901.0 186538.0 181142.0 331206.0 331415.0 203500.0 198513.0 173926.0 173249.0 133309.0 126220.0 133943.0 139452.0 174373.0 166194.0 96329.0 100947.0 103363.0 95362.0 143778.0 136403.0 200376.0 196359.0 235834.0 241575.0 324862.0 316695.0 14862.0 17281.0 184055.0 192155.0 333828.0 341713.0 288749.0 287697.0 289386.0 293871.0 57890.0 56934.0 119129.0 116083.0 146787.0 142143.0 262840.0 260112.0 33853.0 25792.0 73793.0 78121.0 199027.0 205741.0 173668.0 178959.0 307950.0 312722.0 31958.0 31442.0 154237.0 162285.0 160259.0 154462.0 46195.0 50440.0 69149.0 75643.0 153700.0 161604.0 256106.0 249402.0 45809.0 53745.0 145953.0 151220.0 163620.0 170008.0 28514.0 34156.0 129057.0 130943.0 222768.0 220236.0 358191.0 356250.0 274225.0 277267.0 292467.0 286226.0 139052.0 145387.0 198399.0 192525.0 74315.0 79578.0 150850.0 158966.0 182608.0 181330.0 36719.0 28955.0 42468.0 37042.0 50500.0 58160.0 119603.0 114531.0 166606.0 163979.0 257380.0 253883.0 109645.0 110726.0 371118.0 369989.0 195485.0 187650.0 0.0 8285.0 253357.0 259213.0 56786.0 64892.0 349978.0 356831.0 169329.0 177125.0 178349.0 169963.0 114985.0 121052.0 109586.0 112875.0 46234.0 44279.0 203280.0 195800.0 219997.0 226645.0 263314.0 265514.0 98742.0 101889.0 94774.0 87544.0 202620.0 210612.0 203411.0 211081.0 165227.0 159424.0 313803.0 309216.0 134772.0 132497.0 151455.0 147529.0 27693.0 30325.0 151401.0 145585.0 175277.0 182199.0 65346.0 202490.0 65346.0 65346.0 202490.0 202490.0
137607.0 132864.0 283232.0 280939.0 147042.0 143905.0 31558.0 39479.0 141561.0 134916.0 113908.0 121896.0 264880.0 267889.0 170256.0 162785.0 42937.0 47742.0 361288.0 353353.0 120459.0 112486.0 172562.0 170119.0 279252.0 281967.0 222529.0 217525.0 168188.0 174322.0 115730.0 109731.0 196077.0 203936.0 69097.0 76587.0 117745.0 122537.0 322567.0 318405.0 185668.0 180547.0 327709.0 327918.0 207489.0 202724.0 178260.0 177255.0 136473.0 129658.0 134533.0 140387.0 179494.0 171228.0 101994.0 106200.0 105558.0 97661.0 142438.0 134887.0 205794.0 201997.0 233136.0 239063.0 321365.0 313198.0 18187.0 23060.0 180558.0 188658.0 330331.0 338216.0 292678.0 291828.0 285889.0 290374.0 62947.0 61056.0 118924.0 116406.0 146146.0 141141.0 266372.0 263429.0 42109.0 34077.0 81253.0 85237.0 195702.0 202285.0 173378.0 178353.0 304453.0 309225.0 32399.0 33902.0 154521.0 162555.0 164087.0 158560.0 54476.0 58687.0 75633.0 81739.0 154548.0 162327.0 258887.0 252313.0 53323.0 61284.0 145112.0 150039.0 164328.0 170436.0 24303.0 28492.0 134079.0 136349.0 225931.0 223661.0 354694.0 352754.0 276102.0 278932.0 288969.0 282740.0 140501.0 146566.0 197283.0 191644.0 79676.0 84393.0 149022.0 157183.0 182146.0 181224.0 44884.0 37008.0 42582.0 38419.0 49486.0 57409.0 122397.0 116929.0 171670.0 169332.0 253956.0 250677.0 111468.0 111953.0 367621.0 366492.0 199689.0 191799.0 8285.0 0.0 249860.0 255716.0 64557.0 72585.0 346482.0 353335.0 169196.0 177079.0 177482.0 169141.0 115532.0 122004.0 110871.0 113615.0 53171.0 50408.0 206204.0 198835.0 216769.0 223570.0 259818.0 262017.0 104629.0 107353.0 96343.0 89479.0 199124.0 207115.0 205701.0 213249.0 165928.0 160405.0 310306.0 305719.0 137228.0 135404.0 150229.0 145893.0 28131.0 28618.0 152689.0 147200.0 171836.0 178924.0 60282.0 198994.0 60282.0 60282.0 198994.0 198994.0
151806.0 159509.0 252875.0 257797.0 183176.0 190630.0 243701.0 243617.0 191889.0 196460.0 262108.0 266947.0 59167.0 66595.0 140106.0 137987.0 237406.0 229925.0 117041.0 109680.0 190936.0 192692.0 226693.0 218853.0 32708.0 38419.0 100857.0 107468.0 256445.0 254109.0 209472.0 214649.0 235658.0 236491.0 219450.0 214279.0 222533.0 216497.0 76416.0 73948.0 130631.0 137464.0 80262.0 79626.0 249209.0 252627.0 245552.0 237736.0 212133.0 216321.0 169446.0 173738.0 264519.0 258865.0 247984.0 242462.0 199262.0 202271.0 136246.0 137782.0 285277.0 289077.0 79946.0 86136.0 73021.0 64854.0 241895.0 246434.0 70707.0 64494.0 82938.0 90970.0 295181.0 300610.0 40827.0 42998.0 236724.0 228899.0 163707.0 171667.0 145771.0 142094.0 267273.0 259495.0 274420.0 267087.0 271075.0 266457.0 71547.0 64259.0 145035.0 137552.0 75191.0 76170.0 224829.0 230260.0 159567.0 157931.0 229835.0 233953.0 278794.0 286523.0 253754.0 249830.0 169995.0 166800.0 242074.0 242211.0 261089.0 264280.0 142895.0 135177.0 166334.0 160182.0 225557.0 222906.0 245421.0 253571.0 236271.0 242040.0 106350.0 104410.0 225985.0 221523.0 71600.0 70555.0 182407.0 176998.0 123513.0 129608.0 240124.0 233752.0 125169.0 121612.0 140161.0 148040.0 268157.0 262342.0 215692.0 223384.0 205971.0 200237.0 205757.0 200231.0 259729.0 265450.0 61164.0 67063.0 193105.0 185067.0 119290.0 118287.0 251154.0 246497.0 253357.0 249860.0 0.0 8101.0 269526.0 271689.0 98138.0 104990.0 148891.0 149675.0 132163.0 135041.0 174932.0 178362.0 186149.0 178163.0 254292.0 246337.0 222307.0 222456.0 65785.0 68955.0 28991.0 37007.0 252268.0 246087.0 194242.0 200588.0 51499.0 44114.0 206671.0 206034.0 166082.0 171980.0 79602.0 79023.0 199880.0 207605.0 134329.0 129874.0 228258.0 223401.0 178360.0 184722.0 84639.0 82530.0 209336.0 50865.0 209336.0 209336.0 50865.0 50865.0
156837.0 164619.0 252893.0 258021.0 187545.0 195099.0 249557.0 249474.0 196438.0 201228.0 267753.0 272446.0 54433.0 61902.0 143739.0 142035.0 243262.0 235781.0 109278.0 101845.0 196192.0 198190.0 230361.0 222534.0 24935.0 30346.0 101394.0 108390.0 260573.0 258024.0 214819.0 220162.0 238631.0 239201.0 225307.0 220135.0 227837.0 221653.0 68834.0 66108.0 133515.0 140576.0 72997.0 72546.0 251982.0 255612.0 249239.0 241364.0 216865.0 221270.0 174366.0 178399.0 268413.0 262932.0 253800.0 248144.0 204930.0 208096.0 141382.0 143263.0 288688.0 292670.0 79499.0 85153.0 65941.0 57773.0 247751.0 252290.0 76406.0 69769.0 75664.0 83676.0 295847.0 301436.0 32890.0 35545.0 242580.0 234756.0 169307.0 177238.0 150517.0 147153.0 268271.0 260436.0 280276.0 272943.0 276932.0 272313.0 75298.0 67699.0 148461.0 140782.0 67449.0 68209.0 230685.0 236116.0 163759.0 161780.0 233807.0 238135.0 284651.0 292379.0 259610.0 255687.0 174119.0 170614.0 242821.0 243219.0 266945.0 270136.0 147745.0 139944.0 170064.0 163664.0 231413.0 228762.0 250407.0 258568.0 238179.0 244127.0 99269.0 97329.0 225664.0 220973.0 64916.0 64434.0 187017.0 181405.0 125754.0 132151.0 245980.0 239580.0 130264.0 126335.0 143167.0 151053.0 274014.0 268198.0 221548.0 229241.0 211828.0 206094.0 210910.0 205559.0 263794.0 269658.0 57972.0 64480.0 198632.0 190639.0 112209.0 111207.0 254219.0 249758.0 259213.0 255716.0 8101.0 0.0 275382.0 277545.0 91057.0 97910.0 152493.0 152887.0 135497.0 138797.0 180492.0 183657.0 191747.0 183750.0 260148.0 252194.0 224740.0 225163.0 67343.0 69619.0 22901.0 31176.0 258051.0 251763.0 200095.0 206428.0 57003.0 49302.0 208925.0 207978.0 169744.0 175858.0 71737.0 71411.0 204571.0 212361.0 139106.0 135002.0 234114.0 229257.0 182528.0 189081.0 90016.0 87349.0 215192.0 57106.0 215192.0 215192.0 57106.0 57106.0
133354.0 126142.0 248098.0 244250.0 126313.0 120249.0 37740.0 32115.0 117604.0 109647.0 58008.0 64863.0 279183.0 280687.0 164039.0 158662.0 35632.0 41209.0 380746.0 372734.0 100549.0 93662.0 134088.0 134350.0 298917.0 301633.0 224723.0 217968.0 119269.0 126720.0 86652.0 78776.0 156177.0 164436.0 51159.0 58012.0 81356.0 88826.0 342213.0 338045.0 180977.0 173992.0 347375.0 347584.0 164539.0 158300.0 133764.0 135265.0 103759.0 95434.0 122376.0 124932.0 129183.0 121821.0 52442.0 59691.0 84849.0 77725.0 144396.0 138891.0 152801.0 147613.0 240891.0 245146.0 341031.0 332864.0 50673.0 43380.0 199654.0 207344.0 349997.0 357749.0 248483.0 246258.0 305518.0 310040.0 33423.0 40779.0 114768.0 108562.0 142392.0 140616.0 225380.0 224039.0 30724.0 34118.0 18091.0 24653.0 209869.0 217509.0 164874.0 172017.0 321101.0 326720.0 56256.0 48248.0 142893.0 150421.0 124099.0 116803.0 20518.0 26335.0 23998.0 32241.0 138521.0 146680.0 223491.0 216111.0 11955.0 5358.0 142993.0 150127.0 148655.0 156537.0 70345.0 78341.0 86663.0 85767.0 188533.0 184395.0 374359.0 372419.0 247045.0 251404.0 303435.0 296439.0 121011.0 128618.0 193927.0 186731.0 38285.0 46574.0 154181.0 161382.0 174461.0 170819.0 21864.0 28184.0 60227.0 53103.0 69152.0 72026.0 94244.0 92722.0 122033.0 117684.0 266985.0 262028.0 92698.0 97788.0 387287.0 386158.0 155397.0 148170.0 56786.0 64557.0 269526.0 275382.0 0.0 8242.0 366147.0 373000.0 159747.0 166457.0 173229.0 165058.0 106095.0 108521.0 96426.0 102971.0 16455.0 24377.0 171224.0 163290.0 229342.0 234678.0 279100.0 280512.0 52781.0 58850.0 82453.0 74395.0 218777.0 226771.0 175553.0 183747.0 150195.0 142886.0 327087.0 321552.0 110090.0 104854.0 150655.0 149829.0 55819.0 63430.0 133369.0 125777.0 188051.0 193469.0 100102.0 218659.0 100102.0 100102.0 218659.0 218659.0
133065.0 125650.0 242796.0 238762.0 123856.0 117470.0 44860.0 38598.0 114827.0 106828.0 50999.0 57527.0 280109.0 281398.0 163067.0 158029.0 41171.0 45721.0 382597.0 374547.0 98753.0 92230.0 128943.0 129597.0 301081.0 303757.0 224350.0 217412.0 112720.0 120308.0 83818.0 75895.0 150652.0 158914.0 52363.0 58451.0 77448.0 85161.0 344385.0 340060.0 180037.0 172872.0 349497.0 349747.0 158546.0 152140.0 127748.0 129599.0 99912.0 91522.0 121207.0 123251.0 122370.0 115182.0 46995.0 54607.0 83427.0 76720.0 144750.0 139595.0 145532.0 140185.0 241138.0 245159.0 343194.0 335027.0 58212.0 51032.0 201670.0 209249.0 352128.0 360033.0 242055.0 239669.0 307717.0 312204.0 34976.0 42940.0 114862.0 108301.0 142025.0 140703.0 219405.0 218270.0 38616.0 42335.0 10159.0 17505.0 211117.0 218844.0 163588.0 170946.0 322273.0 328035.0 62449.0 54411.0 141458.0 148816.0 118833.0 111351.0 27458.0 32119.0 20805.0 28383.0 136541.0 144642.0 218235.0 210779.0 19443.0 11616.0 142834.0 150157.0 146588.0 154618.0 77313.0 85293.0 80714.0 79292.0 183164.0 178797.0 376523.0 374583.0 242520.0 247060.0 304308.0 297223.0 118825.0 126520.0 193050.0 185710.0 35992.0 44242.0 154812.0 161801.0 173187.0 169218.0 30056.0 36404.0 65458.0 58704.0 73949.0 76098.0 91339.0 90486.0 115360.0 110749.0 267782.0 262632.0 91304.0 96924.0 389450.0 388321.0 149271.0 142178.0 64892.0 72585.0 271689.0 277545.0 8242.0 0.0 368311.0 375164.0 158392.0 164872.0 172420.0 164356.0 105676.0 107465.0 95562.0 102465.0 22272.0 29482.0 166278.0 158320.0 230266.0 235386.0 280959.0 282136.0 46796.0 53376.0 82180.0 74320.0 220912.0 228899.0 171238.0 179465.0 148101.0 140638.0 328269.0 322588.0 106980.0 101323.0 150721.0 150361.0 62391.0 69971.0 131003.0 123229.0 189721.0 194885.0 105724.0 220823.0 105724.0 105724.0 220823.0 220823.0
246459.0 254328.0 324789.0 330990.0 276028.0 283732.0 340323.0 340239.0 285205.0 290344.0 358019.0 362530.0 115679.0 120759.0 231080.0 230159.0 334027.0 326547.0 54703.0 53717.0 286037.0 288341.0 317315.0 309548.0 68247.0 69542.0 180856.0 188892.0 348413.0 345439.0 304759.0 310307.0 323680.0 323415.0 316072.0 310854.0 317703.0 311321.0 39872.0 47798.0 219305.0 226827.0 31693.0 25269.0 336316.0 340601.0 336169.0 328183.0 305889.0 310631.0 263782.0 267401.0 355759.0 350650.0 344264.0 338466.0 295271.0 298650.0 231189.0 233482.0 374779.0 379233.0 156887.0 159764.0 25228.0 33284.0 338517.0 343055.0 167031.0 160072.0 31096.0 30657.0 370649.0 377022.0 64683.0 57626.0 333345.0 325521.0 259615.0 267503.0 239746.0 236842.0 345139.0 337129.0 371042.0 363709.0 367697.0 363065.0 163643.0 155729.0 235343.0 227303.0 86327.0 78936.0 321451.0 326882.0 252020.0 249417.0 321407.0 326120.0 375416.0 383144.0 350298.0 346449.0 262182.0 258141.0 318823.0 320498.0 357711.0 360902.0 237138.0 229245.0 257429.0 250549.0 322179.0 319528.0 339782.0 347949.0 319479.0 326073.0 18761.0 11333.0 296224.0 290298.0 104152.0 110307.0 275913.0 269975.0 209956.0 217076.0 336741.0 330362.0 220057.0 215634.0 229133.0 236944.0 364779.0 358964.0 312314.0 320006.0 302593.0 296859.0 300591.0 295486.0 351507.0 357631.0 126844.0 134839.0 288817.0 280886.0 28460.0 32603.0 339457.0 335587.0 349978.0 346482.0 98138.0 91057.0 366147.0 368311.0 0.0 8022.0 239712.0 239245.0 222302.0 226402.0 270738.0 273574.0 282022.0 274024.0 350913.0 342959.0 308141.0 309475.0 151827.0 151608.0 93851.0 97502.0 348478.0 342076.0 290742.0 297189.0 147591.0 139727.0 291860.0 289787.0 256973.0 263481.0 83884.0 91195.0 293553.0 301433.0 228424.0 224819.0 324880.0 320022.0 270634.0 277543.0 180298.0 177025.0 305958.0 149265.0 305958.0 305958.0 149265.0 149265.0
253312.0 261181.0 329386.0 335693.0 282879.0 290585.0 347176.0 347092.0 292054.0 297161.0 364872.0 369383.0 120850.0 125641.0 237814.0 236999.0 340880.0 333400.0 51147.0 51322.0 292889.0 295194.0 323904.0 316153.0 75015.0 75764.0 186716.0 194823.0 355177.0 352108.0 311612.0 317159.0 329932.0 329538.0 322925.0 317707.0 324556.0 318174.0 43059.0 51003.0 225799.0 233380.0 34728.0 29390.0 342445.0 346829.0 342742.0 334739.0 312721.0 317484.0 270635.0 274229.0 362408.0 357385.0 351117.0 345319.0 302124.0 305503.0 238042.0 240335.0 381173.0 385713.0 162699.0 165308.0 32458.0 40238.0 345370.0 349908.0 173884.0 166925.0 33550.0 31136.0 375496.0 381954.0 70942.0 64184.0 340198.0 332374.0 266468.0 274355.0 246598.0 243695.0 350269.0 342249.0 377894.0 370562.0 374550.0 369918.0 170489.0 162581.0 241989.0 233899.0 89458.0 81813.0 328304.0 333735.0 258865.0 256192.0 328127.0 332929.0 382269.0 389997.0 357151.0 353302.0 269042.0 264886.0 323894.0 325715.0 364564.0 367755.0 243990.0 236097.0 264143.0 257179.0 329032.0 326381.0 346555.0 354722.0 325198.0 331870.0 13501.0 5638.0 300743.0 294704.0 108085.0 114526.0 282753.0 276828.0 216249.0 223451.0 343594.0 337215.0 226910.0 222487.0 235638.0 243425.0 371632.0 365816.0 319167.0 326859.0 309446.0 303712.0 307444.0 302339.0 358239.0 364424.0 132327.0 140309.0 295670.0 287739.0 20951.0 26016.0 345727.0 341959.0 356831.0 353335.0 104990.0 97910.0 373000.0 375164.0 8022.0 0.0 246415.0 245799.0 228952.0 233193.0 277591.0 280427.0 288875.0 280876.0 357766.0 349812.0 314161.0 315627.0 158349.0 157880.0 100265.0 103529.0 355331.0 348929.0 297595.0 304042.0 154443.0 146580.0 297836.0 295616.0 263660.0 270242.0 86551.0 94124.0 300388.0 308258.0 235277.0 231672.0 331733.0 326875.0 277499.0 284393.0 187151.0 183878.0 312811.0 156118.0 312811.0 312811.0 156118.0 156118.0
32049.0 36377.0 135372.0 136664.0 39141.0 47132.0 149529.0 145540.0 49250.0 56277.0 129846.0 132100.0 133986.0 133026.0 8792.0 14016.0 138686.0 130572.0 242397.0 234167.0 59845.0 66171.0 77868.0 70043.0 171467.0 170967.0 69282.0 61377.0 108812.0 105736.0 76975.0 84507.0 87951.0 90067.0 111049.0 103088.0 87802.0 80010.0 209698.0 203544.0 23100.0 15140.0 216588.0 218892.0 102242.0 104725.0 96746.0 88877.0 70206.0 76850.0 37427.0 35448.0 116077.0 110977.0 119857.0 112361.0 74984.0 82040.0 34674.0 42148.0 136421.0 140203.0 90401.0 92155.0 214598.0 206431.0 154821.0 155953.0 84120.0 87231.0 218938.0 226043.0 165186.0 168457.0 175696.0 182231.0 127737.0 122417.0 50272.0 53601.0 24762.0 32059.0 135138.0 128642.0 177015.0 172218.0 153699.0 146774.0 77345.0 84799.0 5344.0 13675.0 176805.0 183843.0 137396.0 138799.0 16967.0 10588.0 81714.0 86739.0 175819.0 183496.0 137667.0 130863.0 24404.0 18615.0 115443.0 112086.0 155856.0 155480.0 27270.0 27521.0 17734.0 11529.0 147117.0 147717.0 104764.0 112712.0 96248.0 100016.0 245908.0 245315.0 118291.0 118690.0 156546.0 148887.0 41687.0 34141.0 35926.0 28058.0 122427.0 114257.0 38087.0 34649.0 14850.0 12032.0 167901.0 165199.0 126914.0 132514.0 119791.0 111819.0 70406.0 68787.0 111830.0 118128.0 120976.0 114138.0 67109.0 62198.0 258426.0 255492.0 102999.0 97868.0 169329.0 169196.0 148891.0 152493.0 159747.0 158392.0 239712.0 246415.0 0.0 8048.0 17655.0 14108.0 55231.0 51326.0 63545.0 57915.0 148871.0 142547.0 78242.0 76383.0 88318.0 90093.0 146337.0 144208.0 123151.0 115552.0 78271.0 86450.0 99886.0 105896.0 65278.0 68230.0 17275.0 24044.0 182681.0 175749.0 58332.0 66271.0 28053.0 36540.0 141688.0 140676.0 32517.0 40446.0 70263.0 68731.0 136518.0 103757.0 136518.0 136518.0 103757.0 103757.0
40087.0 44216.0 128581.0 130149.0 43530.0 51355.0 157078.0 152956.0 53668.0 61104.0 134715.0 136581.0 131540.0 130157.0 12569.0 20247.0 146116.0 138029.0 240126.0 231910.0 66132.0 72795.0 78121.0 70402.0 171032.0 170138.0 65444.0 57263.0 110140.0 106511.0 82618.0 90299.0 86093.0 87498.0 118243.0 110213.0 92894.0 84965.0 208313.0 201969.0 20184.0 12419.0 215373.0 217936.0 99981.0 103028.0 96945.0 88942.0 74212.0 81295.0 44487.0 41624.0 116729.0 112122.0 125341.0 117709.0 81609.0 88866.0 42167.0 49818.0 135839.0 140037.0 87555.0 88653.0 214192.0 206001.0 162578.0 163602.0 87024.0 89462.0 217675.0 224640.0 159694.0 163235.0 174915.0 181650.0 134737.0 129605.0 58165.0 61219.0 32751.0 39907.0 129713.0 123010.0 184303.0 179638.0 159901.0 152836.0 78290.0 85416.0 6256.0 12123.0 174110.0 181308.0 145211.0 146494.0 23667.0 16056.0 82906.0 88509.0 182837.0 190475.0 144100.0 137128.0 29103.0 21845.0 109230.0 106218.0 162863.0 162280.0 35138.0 34695.0 20341.0 12088.0 155087.0 155735.0 108496.0 116305.0 91781.0 96046.0 244852.0 244518.0 110815.0 111028.0 153591.0 145883.0 46969.0 39224.0 31883.0 23896.0 128881.0 120656.0 44517.0 40089.0 10431.0 4367.0 175098.0 172553.0 134741.0 140258.0 127706.0 119727.0 75774.0 74772.0 112962.0 119577.0 118553.0 111459.0 73761.0 69261.0 257258.0 254093.0 101498.0 96873.0 177125.0 177079.0 149675.0 152887.0 166457.0 164872.0 239245.0 245799.0 8048.0 0.0 17613.0 17909.0 62710.0 58349.0 70594.0 65288.0 155912.0 149717.0 74677.0 73582.0 87450.0 88513.0 145551.0 142983.0 128484.0 120805.0 85472.0 93627.0 101796.0 107389.0 60757.0 62930.0 19296.0 27064.0 179928.0 172827.0 62751.0 70526.0 35141.0 43476.0 149507.0 148584.0 36478.0 44679.0 73616.0 71265.0 144566.0 106109.0 144566.0 144566.0 106109.0 106109.0
40777.0 47290.0 141837.0 144067.0 56394.0 64399.0 160139.0 156787.0 66401.0 73105.0 146330.0 148912.0 116437.0 115624.0 9856.0 14913.0 149907.0 141721.0 224784.0 216553.0 74918.0 80503.0 95054.0 87265.0 154057.0 153428.0 52769.0 45272.0 126382.0 123156.0 92819.0 100096.0 103696.0 105088.0 123361.0 115693.0 104204.0 96580.0 192061.0 185893.0 8190.0 6601.0 198974.0 201329.0 117590.0 120622.0 113928.0 105987.0 87467.0 93833.0 51451.0 51208.0 133460.0 128507.0 135688.0 128385.0 89197.0 95702.0 36012.0 44036.0 153194.0 157226.0 73055.0 75201.0 197202.0 189030.0 164192.0 165996.0 69796.0 71957.0 201317.0 208405.0 175296.0 179171.0 158171.0 164770.0 140561.0 134672.0 60054.0 65064.0 31769.0 36378.0 145476.0 138517.0 188651.0 183339.0 168306.0 161655.0 60713.0 67917.0 13041.0 5674.0 159310.0 166297.0 146443.0 148664.0 32932.0 28020.0 99237.0 104369.0 188391.0 196167.0 151868.0 145429.0 41714.0 36269.0 123863.0 121450.0 168533.0 168745.0 32398.0 28001.0 35332.0 28258.0 154516.0 154256.0 122078.0 130076.0 108608.0 113179.0 228326.0 227796.0 121861.0 121126.0 139159.0 131528.0 58306.0 51045.0 20724.0 14177.0 136650.0 128633.0 33943.0 27331.0 9904.0 16862.0 179909.0 176622.0 135934.0 142105.0 128055.0 120238.0 86626.0 84231.0 129357.0 135724.0 103429.0 96681.0 81368.0 75511.0 240823.0 237856.0 119067.0 114335.0 178349.0 177482.0 132163.0 135497.0 173229.0 172420.0 222302.0 228952.0 17655.0 17613.0 0.0 8419.0 67276.0 64992.0 76874.0 70312.0 161469.0 154752.0 92043.0 91150.0 70737.0 72439.0 128804.0 126583.0 139158.0 131675.0 90895.0 99050.0 84213.0 89776.0 77684.0 79183.0 34751.0 41699.0 165203.0 158336.0 75421.0 83416.0 28015.0 34707.0 150672.0 148867.0 49998.0 57760.0 56746.0 53912.0 141771.0 88619.0 141771.0 141771.0 88619.0 88619.0
32372.0 38998.0 145856.0 147672.0 50419.0 58372.0 151723.0 148390.0 60205.0 66525.0 139275.0 142112.0 122522.0 122060.0 5542.0 6503.0 141510.0 133322.0 230529.0 222294.0 67328.0 72649.0 91652.0 83812.0 158191.0 157952.0 60333.0 53101.0 122014.0 119242.0 85494.0 92627.0 102056.0 104096.0 115056.0 107429.0 97169.0 89686.0 197059.0 191071.0 16588.0 12284.0 203807.0 205916.0 116320.0 118833.0 110511.0 102701.0 81305.0 87310.0 43692.0 44114.0 129623.0 124279.0 128265.0 121073.0 81283.0 87642.0 28216.0 36262.0 150382.0 154046.0 79695.0 82323.0 201291.0 193120.0 155789.0 157579.0 70055.0 73125.0 206193.0 213402.0 177596.0 181141.0 162641.0 169035.0 132306.0 126355.0 51647.0 56754.0 23352.0 28122.0 147620.0 140900.0 180268.0 174933.0 160391.0 153827.0 63537.0 71112.0 11750.0 10180.0 165494.0 172337.0 138050.0 140248.0 26402.0 23024.0 95076.0 99736.0 180086.0 187870.0 143859.0 137521.0 36044.0 31821.0 126953.0 124067.0 160246.0 160540.0 24030.0 20170.0 31293.0 25634.0 146242.0 146077.0 115898.0 123965.0 109519.0 113578.0 232984.0 232211.0 127005.0 126678.0 145595.0 138022.0 51667.0 44738.0 29042.0 22576.0 128659.0 120691.0 27741.0 22395.0 14951.0 19185.0 171552.0 168229.0 127539.0 133693.0 119697.0 111867.0 79531.0 76749.0 125138.0 131233.0 109542.0 103039.0 73490.0 67434.0 245577.0 242824.0 117102.0 111928.0 169963.0 169141.0 135041.0 138797.0 165058.0 164356.0 226402.0 233193.0 14108.0 17909.0 8419.0 0.0 59023.0 57035.0 68795.0 62097.0 153176.0 146420.0 91971.0 90353.0 75568.0 77966.0 133330.0 131540.0 131821.0 124412.0 82664.0 90803.0 85801.0 91875.0 78487.0 80832.0 31065.0 37104.0 171423.0 164704.0 69095.0 77116.0 20301.0 27703.0 142282.0 140523.0 44492.0 51860.0 56292.0 54624.0 133739.0 89649.0 133739.0 133739.0 89649.0 89649.0
27406.0 20049.0 173264.0 172342.0 34696.0 35229.0 94372.0 90310.0 33957.0 31877.0 87284.0 92020.0 176070.0 176801.0 58369.0 52594.0 83455.0 75343.0 281392.0 273215.0 18400.0 17838.0 76756.0 70743.0 203042.0 204550.0 118696.0 111874.0 93687.0 94952.0 35122.0 39729.0 97782.0 103915.0 56141.0 48418.0 48235.0 43392.0 245007.0 239906.0 75167.0 68559.0 250906.0 251845.0 112185.0 110648.0 91510.0 86176.0 44964.0 45498.0 19002.0 25389.0 104587.0 96798.0 73784.0 67740.0 24642.0 29407.0 40415.0 37256.0 131043.0 131635.0 135791.0 139568.0 245622.0 237455.0 100286.0 100996.0 104225.0 110743.0 253453.0 261115.0 191952.0 193095.0 208883.0 214200.0 73287.0 67484.0 11271.0 3279.0 36352.0 35595.0 162910.0 158267.0 121859.0 116988.0 102329.0 96244.0 108928.0 116916.0 60010.0 66492.0 218783.0 224995.0 83276.0 84011.0 39368.0 47404.0 73253.0 72910.0 121150.0 128910.0 85432.0 79617.0 39187.0 46820.0 149981.0 144434.0 101268.0 101533.0 37253.0 44811.0 48812.0 55025.0 94831.0 96728.0 72889.0 80767.0 120942.0 121123.0 278861.0 277010.0 162541.0 164701.0 200027.0 192745.0 28204.0 32309.0 88000.0 81023.0 70389.0 62739.0 51301.0 57302.0 69424.0 67020.0 112875.0 109992.0 72953.0 77963.0 66908.0 58950.0 33214.0 26231.0 97617.0 100819.0 163443.0 157856.0 18189.0 10149.0 291756.0 290050.0 107907.0 100332.0 114985.0 115532.0 174932.0 180492.0 106095.0 105676.0 270738.0 277591.0 55231.0 62710.0 67276.0 59023.0 0.0 8555.0 11298.0 3353.0 94212.0 87604.0 100238.0 94310.0 126545.0 130981.0 180633.0 180658.0 77889.0 71344.0 23651.0 31780.0 123521.0 131195.0 95163.0 101784.0 50408.0 45245.0 224785.0 218687.0 35949.0 40756.0 45442.0 46570.0 87583.0 87455.0 38685.0 35438.0 90490.0 93948.0 88850.0 124359.0 88850.0 88850.0 124359.0 124359.0
27609.0 19625.0 165209.0 164157.0 26479.0 26675.0 99517.0 94962.0 25416.0 23792.0 84905.0 89011.0 176717.0 177087.0 55603.0 50829.0 88176.0 80196.0 282969.0 274767.0 12612.0 15754.0 68389.0 62269.0 205744.0 206921.0 117302.0 110134.0 86487.0 87367.0 31185.0 37098.0 89254.0 95362.0 59933.0 51869.0 44182.0 38330.0 247203.0 241897.0 72572.0 65477.0 253294.0 254472.0 103689.0 102247.0 83489.0 77964.0 37756.0 39350.0 13899.0 18403.0 97164.0 89542.0 72381.0 65745.0 24257.0 30807.0 42399.0 40787.0 123328.0 124171.0 135495.0 138822.0 248458.0 240291.0 106255.0 106509.0 107774.0 113923.0 255812.0 263393.0 183435.0 184552.0 211338.0 216880.0 76422.0 71284.0 16993.0 10482.0 35783.0 36902.0 154439.0 149854.0 126049.0 121610.0 103357.0 96835.0 110861.0 118884.0 56388.0 63518.0 219604.0 226007.0 89629.0 89807.0 34683.0 42520.0 65211.0 65269.0 124515.0 132179.0 86879.0 80487.0 32657.0 40643.0 141792.0 136155.0 104546.0 104190.0 37481.0 45397.0 42669.0 49564.0 101939.0 104184.0 67722.0 75766.0 112474.0 112591.0 281549.0 279832.0 155065.0 157428.0 200464.0 193073.0 19890.0 24737.0 85589.0 78263.0 71658.0 63659.0 53526.0 58615.0 65962.0 62711.0 116770.0 114399.0 79469.0 84025.0 73984.0 66105.0 27684.0 21913.0 90374.0 93938.0 163949.0 158065.0 16529.0 10915.0 294405.0 292480.0 99527.0 92001.0 121052.0 122004.0 178362.0 183657.0 108521.0 107465.0 273574.0 280427.0 51326.0 58349.0 64992.0 57035.0 8555.0 0.0 12245.0 8819.0 97578.0 91381.0 91771.0 85787.0 127594.0 131579.0 182774.0 182419.0 76251.0 69266.0 27229.0 35329.0 126864.0 134387.0 87022.0 93789.0 44278.0 38407.0 225596.0 219299.0 27908.0 33369.0 46128.0 48759.0 93923.0 94253.0 31033.0 27121.0 93725.0 96551.0 96959.0 128140.0 96959.0 96959.0 128140.0 128140.0
38070.0 30333.0 174405.0 172953.0 36265.0 34234.0 87568.0 82855.0 32274.0 27674.0 76012.0 80842.0 187124.0 187750.0 67615.0 62483.0 76096.0 68170.0 292640.0 284460.0 11794.0 7257.0 72405.0 67199.0 214333.0 215848.0 128891.0 121865.0 85842.0 87857.0 24671.0 28608.0 94591.0 101294.0 47708.0 39627.0 37620.0 33572.0 256302.0 251191.0 84563.0 77582.0 262205.0 263139.0 108511.0 106234.0 85590.0 80985.0 37861.0 36756.0 26131.0 30176.0 97095.0 89034.0 62498.0 56448.0 13366.0 18852.0 51634.0 48541.0 124073.0 124112.0 146517.0 150102.0 256905.0 248738.0 94745.0 94721.0 115445.0 122010.0 264751.0 272412.0 190323.0 190998.0 220181.0 225493.0 64192.0 59052.0 22444.0 14519.0 46780.0 46665.0 161836.0 157664.0 113835.0 109475.0 91778.0 85483.0 120197.0 128189.0 68579.0 75596.0 229889.0 236144.0 78475.0 78220.0 46928.0 54752.0 67580.0 66141.0 112279.0 119951.0 75091.0 68963.0 44464.0 52563.0 150615.0 144657.0 92313.0 92042.0 48009.0 55724.0 54593.0 61692.0 91591.0 94375.0 62794.0 70506.0 120008.0 119440.0 290151.0 288294.0 165466.0 168115.0 211027.0 203711.0 29667.0 35804.0 97539.0 90305.0 59926.0 52079.0 62567.0 68438.0 78139.0 74956.0 104532.0 102223.0 68519.0 72648.0 63749.0 56062.0 24225.0 16497.0 89824.0 92414.0 174455.0 168775.0 7295.0 1363.0 303048.0 301348.0 103379.0 95581.0 109586.0 110871.0 186149.0 191747.0 96426.0 95562.0 282022.0 288875.0 63545.0 70594.0 76874.0 68795.0 11298.0 12245.0 0.0 7999.0 85338.0 79141.0 99417.0 92910.0 137681.0 142008.0 191924.0 191921.0 66593.0 60055.0 15109.0 23127.0 134764.0 142455.0 96188.0 103324.0 56199.0 49954.0 235889.0 229740.0 31313.0 34175.0 56387.0 57827.0 82742.0 83541.0 41838.0 36545.0 101758.0 105246.0 88814.0 135524.0 88814.0 88814.0 135524.0 135524.0
30666.0 23194.0 174023.0 172946.0 35285.0 35054.0 91891.0 87668.0 33564.0 30720.0 84010.0 88809.0 179416.0 180135.0 61308.0 55692.0 80829.0 72752.0 284740.0 276564.0 16286.0 14765.0 75787.0 70002.0 206338.0 207869.0 121888.0 115020.0 91665.0 93168.0 32174.0 36540.0 97198.0 103510.0 53237.0 45425.0 45250.0 40667.0 248333.0 243242.0 78158.0 71450.0 254222.0 255145.0 111472.0 109708.0 90087.0 84969.0 43069.0 43113.0 21125.0 26855.0 102686.0 94804.0 70450.0 64445.0 21310.0 26090.0 43768.0 40544.0 129324.0 129740.0 139090.0 142832.0 248907.0 240740.0 98127.0 98652.0 107457.0 114011.0 256770.0 264437.0 191902.0 192905.0 212196.0 217498.0 70265.0 64597.0 14457.0 6522.0 39567.0 38938.0 163013.0 158507.0 119102.0 114350.0 99042.0 92925.0 112272.0 120258.0 62771.0 69402.0 222134.0 228348.0 81287.0 81770.0 41797.0 49798.0 71876.0 71198.0 118199.0 125942.0 82177.0 76311.0 40935.0 48744.0 150581.0 144910.0 98292.0 98443.0 40542.0 48132.0 50755.0 57244.0 93274.0 95418.0 70108.0 77931.0 121058.0 121017.0 282155.0 280295.0 163810.0 166110.0 203368.0 196082.0 28676.0 33460.0 91032.0 83989.0 67110.0 59430.0 54647.0 60653.0 72234.0 69617.0 110040.0 107290.0 71040.0 75833.0 65320.0 57410.0 30701.0 23458.0 95615.0 98622.0 166785.0 161186.0 15040.0 6914.0 295053.0 293362.0 106929.0 99278.0 112875.0 113615.0 178163.0 183750.0 102971.0 102465.0 274024.0 280876.0 57915.0 65288.0 70312.0 62097.0 3353.0 8819.0 7999.0 0.0 91250.0 84728.0 100364.0 94257.0 129897.0 134324.0 183964.0 184004.0 74566.0 68052.0 20587.0 28758.0 126769.0 134458.0 95827.0 102607.0 52360.0 46857.0 228136.0 222033.0 34713.0 38991.0 48769.0 49919.0 85590.0 85706.0 39790.0 35896.0 93759.0 97264.0 88170.0 127556.0 88170.0 88170.0 127556.0 127556.0
121056.0 114183.0 244705.0 241347.0 117547.0 112145.0 23189.0 16390.0 109526.0 101754.0 61910.0 69646.0 265036.0 266770.0 152558.0 146712.0 19196.0 24953.0 365664.0 357688.0 90935.0 83541.0 130932.0 130243.0 283683.0 286361.0 212206.0 205715.0 120200.0 127132.0 79211.0 71636.0 153796.0 161988.0 38131.0 45832.0 76261.0 83015.0 326886.0 322844.0 169379.0 162689.0 332141.0 332350.0 163380.0 157670.0 132926.0 133444.0 98033.0 90004.0 111469.0 114830.0 130869.0 123007.0 52250.0 58162.0 74879.0 67220.0 131189.0 125283.0 155967.0 151473.0 227557.0 232095.0 325797.0 317630.0 37128.0 30433.0 184552.0 192329.0 334763.0 342648.0 248256.0 246555.0 290320.0 294806.0 21207.0 26930.0 102081.0 96424.0 130149.0 127769.0 223871.0 221955.0 30421.0 29401.0 28947.0 32100.0 195473.0 203013.0 153864.0 160650.0 306670.0 312146.0 40193.0 32154.0 132246.0 139998.0 121360.0 114634.0 26955.0 34698.0 23386.0 30795.0 128806.0 137004.0 220059.0 212901.0 7103.0 11212.0 130461.0 137310.0 139015.0 146594.0 55234.0 63189.0 86385.0 87043.0 185544.0 182026.0 359125.0 357185.0 241790.0 245732.0 289324.0 282428.0 111816.0 119190.0 182191.0 175230.0 32589.0 40015.0 140595.0 148026.0 163391.0 160277.0 20253.0 21613.0 43775.0 36711.0 52718.0 55813.0 86775.0 84025.0 123330.0 119919.0 252990.0 248251.0 82529.0 86681.0 372053.0 370924.0 154690.0 147132.0 46234.0 53171.0 254292.0 260148.0 16455.0 22272.0 350913.0 357766.0 148871.0 155912.0 161469.0 153176.0 94212.0 97578.0 85338.0 91250.0 0.0 8072.0 167280.0 159457.0 215255.0 220820.0 264060.0 265679.0 53955.0 58332.0 70691.0 62504.0 203554.0 211547.0 170124.0 178200.0 140591.0 133602.0 312643.0 307258.0 102756.0 98446.0 137787.0 136379.0 40146.0 47712.0 124373.0 117182.0 173276.0 178929.0 83749.0 203425.0 83749.0 83749.0 203425.0 203425.0
114186.0 107473.0 241595.0 238471.0 112264.0 107200.0 18996.0 11157.0 104608.0 96971.0 63503.0 71489.0 257375.0 259182.0 145969.0 139937.0 11738.0 16888.0 357732.0 349765.0 85400.0 77817.0 128253.0 127110.0 275729.0 278390.0 205140.0 198755.0 119576.0 126210.0 74848.0 67525.0 151386.0 159515.0 31500.0 39516.0 73115.0 79420.0 319044.0 314887.0 162718.0 156159.0 324187.0 324396.0 161523.0 156090.0 131360.0 131397.0 94329.0 86520.0 105231.0 108943.0 130548.0 122490.0 52150.0 57200.0 69305.0 61461.0 123932.0 117880.0 156254.0 152123.0 220181.0 224819.0 317843.0 309676.0 33135.0 27357.0 176631.0 184429.0 326809.0 334694.0 246648.0 245202.0 282366.0 286852.0 16121.0 20133.0 95094.0 89693.0 123282.0 120660.0 221688.0 219502.0 34958.0 32042.0 34833.0 36536.0 187751.0 195258.0 147473.0 154096.0 298916.0 304349.0 33313.0 25339.0 126059.0 133890.0 118938.0 112535.0 33823.0 41680.0 25370.0 31382.0 123045.0 131237.0 216970.0 209930.0 14764.0 19049.0 123475.0 130198.0 133257.0 140682.0 49326.0 57165.0 85491.0 86903.0 182741.0 179527.0 351171.0 349231.0 237819.0 241565.0 281670.0 274807.0 106360.0 113595.0 175458.0 168601.0 30688.0 37114.0 133184.0 140693.0 156958.0 154075.0 25396.0 24221.0 36032.0 29230.0 44794.0 47749.0 82318.0 78990.0 122865.0 119937.0 245380.0 240714.0 76789.0 80466.0 364098.0 362970.0 153084.0 145398.0 44279.0 50408.0 246337.0 252194.0 24377.0 29482.0 342959.0 349812.0 142547.0 149717.0 154752.0 146420.0 87604.0 91381.0 79141.0 84728.0 8072.0 0.0 164075.0 156330.0 207626.0 213265.0 256144.0 257816.0 54467.0 57872.0 64276.0 56101.0 195601.0 203592.0 166211.0 174211.0 134846.0 128021.0 304884.0 299545.0 98235.0 94405.0 130654.0 129023.0 33806.0 41218.0 118956.0 111982.0 165447.0 171169.0 76242.0 195471.0 76242.0 76242.0 195471.0 195471.0
96609.0 94201.0 77528.0 74762.0 65852.0 65403.0 178340.0 171725.0 67177.0 72369.0 119700.0 116899.0 194985.0 191779.0 86430.0 91985.0 165920.0 159341.0 301820.0 293792.0 88060.0 95582.0 37521.0 37039.0 240665.0 238605.0 127569.0 119369.0 65220.0 57626.0 90572.0 97097.0 21210.0 16551.0 137417.0 129669.0 91044.0 84728.0 274305.0 267309.0 92030.0 85970.0 281920.0 285391.0 29028.0 35117.0 45986.0 40146.0 70060.0 77587.0 85210.0 77146.0 64274.0 65032.0 119321.0 111684.0 101226.0 108849.0 107881.0 113204.0 71431.0 77992.0 151612.0 149867.0 283560.0 275283.0 188658.0 186683.0 161700.0 163985.0 284012.0 290356.0 91924.0 93633.0 243469.0 250731.0 148069.0 146885.0 104535.0 101388.0 95195.0 102898.0 62672.0 58248.0 197655.0 196053.0 157865.0 149754.0 151847.0 158450.0 80395.0 86380.0 235054.0 242843.0 174554.0 172336.0 76659.0 73072.0 47826.0 55781.0 191228.0 197558.0 147366.0 139052.0 68238.0 65520.0 52931.0 46124.0 172890.0 168917.0 98816.0 102910.0 64720.0 67050.0 189539.0 193110.0 87257.0 91519.0 20705.0 22142.0 311682.0 312281.0 77090.0 82506.0 213889.0 206218.0 72108.0 69772.0 99004.0 92699.0 134791.0 127294.0 114685.0 112606.0 82959.0 75283.0 187414.0 188177.0 165532.0 168045.0 162266.0 154909.0 83809.0 89639.0 65542.0 73460.0 182610.0 174784.0 96505.0 98749.0 323553.0 319505.0 35191.0 35575.0 203280.0 206204.0 222307.0 224740.0 171224.0 166278.0 308141.0 314161.0 78242.0 74677.0 92043.0 91971.0 100238.0 91771.0 99417.0 100364.0 167280.0 164075.0 0.0 7971.0 157629.0 156782.0 214541.0 210660.0 120032.0 112985.0 111784.0 117489.0 176092.0 181291.0 16497.0 21327.0 64030.0 62607.0 240429.0 232672.0 69479.0 70812.0 103660.0 111932.0 178590.0 180821.0 63858.0 64930.0 148205.0 145917.0 188170.0 180652.0 188170.0 188170.0 180652.0 180652.0
92422.0 89480.0 85273.0 82289.0 60338.0 59203.0 170758.0 164083.0 60820.0 65586.0 111766.0 109034.0 197135.0 194197.0 84839.0 89815.0 158332.0 151832.0 304526.0 296454.0 81409.0 88793.0 29556.0 29228.0 241732.0 239941.0 129439.0 121132.0 58067.0 50687.0 83126.0 89516.0 15586.0 14039.0 129943.0 122261.0 83255.0 77056.0 276216.0 269331.0 91846.0 85332.0 283734.0 287023.0 26868.0 31551.0 38931.0 32651.0 62503.0 69901.0 80055.0 71978.0 57928.0 58077.0 111358.0 103730.0 94151.0 101677.0 104429.0 109347.0 67510.0 73588.0 153429.0 152087.0 284753.0 276486.0 181219.0 179138.0 160373.0 163036.0 285871.0 292346.0 97651.0 98877.0 244795.0 251948.0 140351.0 139291.0 99189.0 95628.0 91679.0 99221.0 68927.0 64998.0 189817.0 188285.0 149896.0 141784.0 151523.0 158352.0 79010.0 85541.0 237730.0 245451.0 167308.0 164947.0 73144.0 70294.0 39868.0 47847.0 183316.0 189625.0 139446.0 131131.0 64138.0 62276.0 60640.0 53669.0 165030.0 161009.0 95330.0 99914.0 61697.0 64957.0 182480.0 186197.0 79316.0 83659.0 27261.0 26843.0 313479.0 313880.0 85004.0 90338.0 216590.0 208885.0 66378.0 64686.0 99716.0 93025.0 126944.0 119490.0 111805.0 110262.0 82463.0 74644.0 179572.0 180406.0 158400.0 160759.0 155351.0 148079.0 76494.0 82540.0 58631.0 66570.0 184607.0 176859.0 89692.0 92301.0 325472.0 321592.0 30990.0 29860.0 195800.0 198835.0 222456.0 225163.0 163290.0 158320.0 309475.0 315627.0 76383.0 73582.0 91150.0 90353.0 94310.0 85787.0 92910.0 94257.0 159457.0 156330.0 7971.0 0.0 158346.0 157902.0 215709.0 212101.0 112062.0 105019.0 104900.0 110398.0 175363.0 180827.0 20413.0 27019.0 61182.0 58856.0 243186.0 235502.0 62525.0 63443.0 100694.0 108801.0 171315.0 173686.0 59033.0 59306.0 146632.0 144759.0 181724.0 179673.0 181724.0 181724.0 179673.0 179673.0
99995.0 107971.0 188052.0 192661.0 125904.0 133804.0 207853.0 206645.0 135518.0 141379.0 212347.0 215947.0 49849.0 51665.0 79869.0 80042.0 200051.0 192120.0 155600.0 147376.0 139474.0 143151.0 165562.0 157821.0 83673.0 82715.0 36140.0 41956.0 197116.0 193838.0 158262.0 164659.0 172185.0 172365.0 178207.0 171816.0 170722.0 163701.0 121493.0 115534.0 67479.0 75032.0 128290.0 130593.0 185209.0 189152.0 184394.0 176390.0 156547.0 162077.0 116101.0 118472.0 204109.0 199242.0 199919.0 193334.0 151011.0 155804.0 86183.0 90712.0 222995.0 227406.0 22372.0 30444.0 126830.0 118613.0 207777.0 211614.0 41056.0 34066.0 130657.0 137837.0 229574.0 234909.0 87478.0 94213.0 195931.0 188700.0 116188.0 123520.0 92079.0 91022.0 201516.0 193757.0 238352.0 231577.0 228072.0 222431.0 21188.0 16205.0 83746.0 75578.0 92263.0 98465.0 190186.0 194762.0 101793.0 98359.0 169972.0 175045.0 241131.0 248987.0 210852.0 205697.0 111612.0 106897.0 176440.0 176455.0 222290.0 224324.0 90120.0 82199.0 106045.0 98892.0 192467.0 189826.0 191004.0 199127.0 170836.0 176810.0 157592.0 157097.0 161878.0 157971.0 74095.0 67183.0 126607.0 120073.0 58657.0 65432.0 196215.0 188932.0 75623.0 69247.0 77306.0 85119.0 231129.0 226107.0 180409.0 187823.0 170972.0 164385.0 153157.0 149092.0 200091.0 206445.0 37782.0 33908.0 143797.0 136413.0 170111.0 167264.0 187900.0 183837.0 219997.0 216769.0 65785.0 67343.0 229342.0 230266.0 151827.0 158349.0 88318.0 87450.0 70737.0 75568.0 126545.0 127594.0 137681.0 129897.0 215255.0 207626.0 157629.0 158346.0 0.0 8049.0 58108.0 55972.0 203838.0 196841.0 148900.0 156329.0 35058.0 34068.0 141696.0 140639.0 105488.0 112301.0 98267.0 92352.0 144239.0 152241.0 81477.0 80218.0 193918.0 189769.0 120057.0 127368.0 45165.0 37848.0 176257.0 42206.0 176257.0 176257.0 42206.0 42206.0
104074.0 112004.0 183986.0 188847.0 128375.0 136337.0 213987.0 212580.0 138162.0 144309.0 216038.0 219392.0 45140.0 46017.0 81903.0 82873.0 205937.0 197952.0 152565.0 144331.0 143221.0 147241.0 166532.0 158864.0 83884.0 82120.0 31902.0 38783.0 198595.0 195016.0 161931.0 168526.0 172075.0 171868.0 183519.0 176951.0 174199.0 167012.0 119799.0 113502.0 68347.0 76170.0 126889.0 129627.0 184758.0 188992.0 185283.0 177235.0 159254.0 165075.0 119655.0 121545.0 205207.0 200620.0 203959.0 197216.0 155278.0 160346.0 90828.0 95814.0 223325.0 227978.0 14598.0 22661.0 126851.0 118584.0 214246.0 217936.0 49018.0 42107.0 129175.0 136128.0 226317.0 231845.0 86958.0 94047.0 201255.0 194147.0 120878.0 128027.0 95857.0 95386.0 198652.0 190820.0 244391.0 237733.0 232922.0 227118.0 28591.0 24207.0 85289.0 76936.0 88054.0 94622.0 196581.0 200987.0 104357.0 100378.0 171379.0 176739.0 246876.0 254740.0 215768.0 210416.0 113882.0 108705.0 173250.0 173600.0 227878.0 229712.0 94137.0 86309.0 107720.0 100245.0 199278.0 196684.0 193823.0 201908.0 169198.0 175412.0 156439.0 156348.0 157355.0 153169.0 69056.0 61855.0 129471.0 122693.0 58370.0 65639.0 201006.0 193594.0 80574.0 73775.0 78183.0 85853.0 237004.0 232135.0 186705.0 194051.0 177344.0 170627.0 156573.0 152835.0 201462.0 207995.0 32468.0 27481.0 147926.0 140716.0 168781.0 165583.0 187859.0 184099.0 226645.0 223570.0 68955.0 69619.0 234678.0 235386.0 151608.0 157880.0 90093.0 88513.0 72439.0 77966.0 130981.0 131579.0 142008.0 134324.0 220820.0 213265.0 156782.0 157902.0 8049.0 0.0 57807.0 54561.0 207800.0 200687.0 153676.0 161242.0 42748.0 41104.0 140643.0 139125.0 107053.0 114136.0 94037.0 87741.0 147009.0 155029.0 85629.0 85052.0 200365.0 196371.0 122273.0 129804.0 52424.0 44864.0 183114.0 49871.0 183114.0 183114.0 49871.0 49871.0
155315.0 163274.0 236799.0 242346.0 183404.0 191219.0 253659.0 253575.0 192815.0 198310.0 267628.0 271738.0 32136.0 39554.0 137808.0 137437.0 247351.0 239827.0 101650.0 93637.0 195049.0 197931.0 223668.0 215930.0 26241.0 24631.0 87919.0 95684.0 255149.0 251937.0 213865.0 219794.0 229844.0 229674.0 228606.0 223019.0 226634.0 219951.0 64430.0 59330.0 125535.0 133135.0 70701.0 72587.0 242565.0 246774.0 242495.0 234486.0 213702.0 218831.0 172237.0 175327.0 262214.0 257304.0 254415.0 248262.0 205273.0 209238.0 140467.0 143579.0 280941.0 285449.0 64393.0 68623.0 69044.0 60777.0 251853.0 256391.0 79514.0 71756.0 73165.0 80647.0 281018.0 286952.0 29371.0 36247.0 246068.0 238368.0 169726.0 177458.0 148090.0 145873.0 254276.0 246337.0 284377.0 277045.0 279849.0 274838.0 71927.0 63901.0 141828.0 133685.0 48826.0 51548.0 234787.0 240218.0 159302.0 156257.0 228035.0 233004.0 288745.0 296479.0 262508.0 258109.0 169321.0 164875.0 228349.0 229346.0 270906.0 273893.0 145719.0 137759.0 164071.0 156991.0 235515.0 232864.0 247922.0 256078.0 226524.0 232906.0 99663.0 98995.0 208977.0 203848.0 42682.0 41635.0 183687.0 177451.0 116115.0 123228.0 248452.0 241676.0 129410.0 124262.0 135374.0 143160.0 278113.0 272243.0 225650.0 233342.0 215929.0 210178.0 209276.0 204605.0 258155.0 264449.0 37930.0 45342.0 198479.0 190729.0 112304.0 109874.0 245615.0 241742.0 263314.0 259818.0 28991.0 22901.0 279100.0 280959.0 93851.0 100265.0 146337.0 145551.0 128804.0 133330.0 180633.0 182774.0 191924.0 183964.0 264060.0 256144.0 214541.0 215709.0 58108.0 57807.0 0.0 8300.0 258514.0 251837.0 201682.0 208554.0 60798.0 52885.0 198347.0 196593.0 163546.0 170260.0 53969.0 51924.0 201359.0 209312.0 136968.0 134172.0 238216.0 233358.0 177782.0 184895.0 91318.0 86812.0 219294.0 63526.0 219294.0 219294.0 63526.0 63526.0
154852.0 162835.0 230715.0 236408.0 181853.0 189737.0 255840.0 255592.0 191421.0 197157.0 267324.0 271216.0 24084.0 31437.0 135814.0 135944.0 249277.0 241650.0 100780.0 92635.0 194555.0 197750.0 221059.0 213372.0 31698.0 28060.0 83393.0 91393.0 252939.0 249492.0 213381.0 219507.0 226452.0 226009.0 229778.0 223974.0 226026.0 219179.0 65521.0 59655.0 122848.0 130601.0 72404.0 75076.0 238916.0 243331.0 239828.0 231784.0 212414.0 217792.0 171470.0 174202.0 259709.0 255016.0 254404.0 248083.0 205286.0 209529.0 140314.0 143854.0 277842.0 282535.0 59505.0 63021.0 73199.0 64927.0 254053.0 258562.0 81500.0 73522.0 74735.0 81865.0 275346.0 281399.0 32927.0 40505.0 247337.0 239739.0 169899.0 177525.0 147336.0 145552.0 248935.0 240967.0 286559.0 279244.0 280730.0 275532.0 71735.0 63769.0 139545.0 131278.0 43700.0 47485.0 236958.0 242412.0 157737.0 154311.0 225754.0 230947.0 290670.0 298441.0 263402.0 258782.0 167584.0 162809.0 222868.0 224082.0 272579.0 275345.0 145126.0 137158.0 161915.0 154613.0 237714.0 235064.0 246799.0 254937.0 222081.0 228612.0 101886.0 101843.0 202710.0 197427.0 35143.0 33554.0 182434.0 175993.0 112860.0 120196.0 249163.0 242229.0 129358.0 123804.0 132693.0 140395.0 280160.0 274459.0 227847.0 235530.0 218129.0 212325.0 208558.0 204149.0 255861.0 262301.0 31140.0 38881.0 198334.0 190699.0 114280.0 111300.0 242258.0 238608.0 265514.0 262017.0 37007.0 31176.0 280512.0 282136.0 97502.0 103529.0 144208.0 142983.0 126583.0 131540.0 180658.0 182419.0 191921.0 184004.0 265679.0 257816.0 210660.0 212101.0 55972.0 54561.0 8300.0 0.0 258441.0 251636.0 202156.0 209203.0 63494.0 55805.0 194364.0 192314.0 161315.0 168223.0 49217.0 46193.0 200089.0 208078.0 136391.0 134094.0 240415.0 235558.0 176030.0 183323.0 92462.0 87365.0 221494.0 67000.0 221494.0 221494.0 67000.0 67000.0
103843.0 95869.0 196134.0 192009.0 85229.0 77819.0 73074.0 65163.0 75302.0 67532.0 11595.0 19362.0 252930.0 253167.0 129354.0 126020.0 62245.0 59989.0 359104.0 350911.0 64694.0 60719.0 82549.0 83791.0 280847.0 282434.0 191926.0 184298.0 66731.0 74027.0 46342.0 39313.0 103910.0 112168.0 46883.0 45962.0 35731.0 43794.0 322895.0 317770.0 146000.0 138238.0 328784.0 329662.0 111810.0 105521.0 81019.0 82817.0 57022.0 48782.0 88416.0 87977.0 77077.0 69406.0 4510.0 10790.0 53260.0 50151.0 118129.0 115072.0 102030.0 97696.0 211263.0 214143.0 323362.0 315194.0 86815.0 81693.0 181653.0 188411.0 331334.0 339003.0 195748.0 193635.0 286755.0 292010.0 42605.0 47523.0 88900.0 81082.0 111946.0 112939.0 172667.0 171476.0 82151.0 82994.0 37892.0 29781.0 186743.0 194746.0 128494.0 136572.0 295842.0 302259.0 80908.0 74544.0 106444.0 112806.0 72331.0 64694.0 73291.0 78777.0 30752.0 23237.0 99382.0 106968.0 171617.0 164111.0 57569.0 51695.0 113732.0 121640.0 108741.0 117139.0 98712.0 105632.0 33936.0 33284.0 136487.0 132020.0 356646.0 354750.0 196732.0 201564.0 276597.0 269162.0 81559.0 89269.0 159001.0 151199.0 25859.0 25081.0 129127.0 134736.0 137888.0 132661.0 72126.0 75404.0 77379.0 74462.0 81411.0 78762.0 52756.0 55139.0 69676.0 65984.0 240128.0 234125.0 60113.0 67785.0 369555.0 367917.0 102622.0 95439.0 98742.0 104629.0 252268.0 258051.0 52781.0 46796.0 348478.0 355331.0 123151.0 128484.0 139158.0 131821.0 77889.0 76251.0 66593.0 74566.0 53955.0 54467.0 120032.0 112062.0 203838.0 207800.0 258514.0 258441.0 0.0 7807.0 58543.0 53567.0 201049.0 208813.0 126033.0 134287.0 110100.0 102249.0 301830.0 295489.0 66499.0 59507.0 122362.0 124375.0 83300.0 89320.0 92465.0 84260.0 168180.0 171829.0 114021.0 201470.0 114021.0 114021.0 201470.0 201470.0
96875.0 88889.0 189428.0 185458.0 77494.0 70048.0 75943.0 68126.0 67541.0 59799.0 16065.0 22189.0 245799.0 245945.0 121855.0 118672.0 64522.0 61320.0 352230.0 344029.0 57477.0 53908.0 75586.0 76518.0 274385.0 275845.0 184432.0 176763.0 61882.0 68822.0 38928.0 32182.0 97358.0 105619.0 45763.0 43489.0 27974.0 36022.0 316247.0 311045.0 138448.0 130655.0 322211.0 323187.0 105811.0 99762.0 75100.0 76415.0 49231.0 40979.0 81149.0 80471.0 72700.0 64724.0 6409.0 3633.0 46834.0 44493.0 111379.0 108596.0 98492.0 94668.0 203945.0 206731.0 316959.0 308792.0 89312.0 84671.0 175410.0 182050.0 324750.0 332388.0 190235.0 188353.0 280199.0 285543.0 44525.0 48268.0 82469.0 74574.0 104840.0 106084.0 166607.0 165192.0 87431.0 87670.0 44915.0 36819.0 179991.0 188005.0 120896.0 129010.0 288740.0 295212.0 81912.0 76061.0 98898.0 105174.0 65457.0 58008.0 79258.0 85078.0 35792.0 27689.0 91703.0 99248.0 164861.0 157415.0 62581.0 57275.0 106723.0 114656.0 101010.0 109416.0 99711.0 106309.0 28141.0 29056.0 129807.0 125557.0 350204.0 348348.0 189505.0 194247.0 269399.0 261940.0 73917.0 81606.0 151430.0 143608.0 27681.0 24465.0 122428.0 127855.0 130263.0 124968.0 77273.0 79937.0 77429.0 75268.0 80565.0 77197.0 45147.0 47877.0 65070.0 62096.0 232968.0 226897.0 53360.0 61200.0 363099.0 361368.0 96821.0 89459.0 101889.0 107353.0 246087.0 251763.0 58850.0 53376.0 342076.0 348929.0 115552.0 120805.0 131675.0 124412.0 71344.0 69266.0 60055.0 68052.0 58332.0 57872.0 112985.0 105019.0 196841.0 200687.0 251837.0 251636.0 7807.0 0.0 53101.0 48876.0 194766.0 202485.0 118611.0 126864.0 102360.0 94501.0 294724.0 288329.0 58714.0 51701.0 115392.0 117665.0 84627.0 90210.0 84722.0 76510.0 161801.0 165262.0 112529.0 195359.0 112529.0 112529.0 195359.0 195359.0
50932.0 43700.0 187772.0 185991.0 50752.0 47701.0 72475.0 67755.0 45453.0 39434.0 69095.0 75039.0 198634.0 199627.0 81884.0 76242.0 60989.0 53062.0 302930.0 294791.0 24205.0 16322.0 81982.0 77719.0 223274.0 225240.0 142294.0 135516.0 90229.0 93482.0 26677.0 26221.0 104994.0 112164.0 32781.0 24859.0 37055.0 36220.0 265843.0 261011.0 98744.0 91999.0 271476.0 272075.0 118271.0 115205.0 92990.0 89415.0 45489.0 41647.0 40995.0 45283.0 101896.0 93502.0 54144.0 49496.0 11809.0 8746.0 62851.0 58364.0 129391.0 128508.0 159014.0 162978.0 265625.0 257458.0 79916.0 79698.0 123724.0 130745.0 274057.0 281817.0 201607.0 201857.0 229448.0 234435.0 49678.0 44148.0 32813.0 26140.0 59948.0 58575.0 173676.0 169890.0 98845.0 94388.0 79250.0 73542.0 130524.0 138425.0 83211.0 89963.0 241144.0 247176.0 64009.0 63352.0 61835.0 69726.0 75722.0 72812.0 97645.0 105375.0 62156.0 56800.0 59566.0 67671.0 163727.0 157518.0 77721.0 77882.0 60659.0 67994.0 69702.0 76773.0 77938.0 81327.0 62600.0 69503.0 132150.0 130985.0 298954.0 297014.0 179767.0 182608.0 222718.0 215523.0 44279.0 50762.0 111617.0 104570.0 47332.0 40095.0 73280.0 79914.0 92717.0 89825.0 89639.0 87171.0 54323.0 57979.0 50482.0 43191.0 30323.0 22906.0 94227.0 95608.0 186136.0 180761.0 15349.0 16374.0 311889.0 310503.0 112253.0 104296.0 94774.0 96343.0 194242.0 200095.0 82453.0 82180.0 290742.0 297595.0 78271.0 85472.0 90895.0 82664.0 23651.0 27229.0 15109.0 20587.0 70691.0 64276.0 111784.0 104900.0 148900.0 153676.0 201682.0 202156.0 58543.0 53101.0 0.0 8189.0 143163.0 151016.0 109758.0 117131.0 71308.0 65002.0 247148.0 241222.0 42378.0 42846.0 68571.0 68689.0 68233.0 69524.0 56672.0 50868.0 110632.0 114893.0 78028.0 143376.0 78028.0 78028.0 143376.0 143376.0
58959.0 51818.0 194005.0 191993.0 58085.0 54460.0 64713.0 59779.0 52090.0 45512.0 64579.0 71051.0 206120.0 207229.0 90064.0 84370.0 53057.0 45223.0 309944.0 301823.0 31124.0 23142.0 86250.0 82547.0 229817.0 231956.0 150328.0 143600.0 91586.0 95475.0 29196.0 26432.0 109557.0 116962.0 24616.0 16672.0 37247.0 38178.0 272590.0 267867.0 106914.0 100185.0 278116.0 278582.0 122395.0 118892.0 95958.0 92981.0 49436.0 44415.0 49142.0 53221.0 103361.0 94867.0 49080.0 45373.0 16264.0 9037.0 70478.0 65647.0 130952.0 129565.0 166818.0 170880.0 272073.0 263906.0 72686.0 72127.0 130169.0 137342.0 280708.0 288503.0 206437.0 206420.0 236112.0 240970.0 41512.0 35979.0 40542.0 34170.0 68003.0 66386.0 178901.0 175369.0 90719.0 86368.0 71745.0 66329.0 137687.0 145543.0 91398.0 98148.0 248524.0 254478.0 57331.0 56105.0 69979.0 77848.0 79283.0 75628.0 89457.0 97190.0 54532.0 49580.0 67472.0 75611.0 169806.0 163436.0 69537.0 69777.0 68619.0 75854.0 77641.0 84816.0 72083.0 76025.0 61940.0 68249.0 137652.0 136119.0 305394.0 303461.0 186718.0 189724.0 230250.0 223097.0 51732.0 58464.0 119773.0 112747.0 39973.0 33181.0 80723.0 87542.0 100906.0 97983.0 81473.0 79097.0 48052.0 51062.0 45297.0 38573.0 34382.0 27860.0 95548.0 96258.0 193683.0 188406.0 22107.0 24429.0 318339.0 317078.0 115901.0 107904.0 87544.0 89479.0 200588.0 206428.0 74395.0 74320.0 297189.0 304042.0 86450.0 93627.0 99050.0 90803.0 31780.0 35329.0 23127.0 28758.0 62504.0 56101.0 117489.0 110398.0 156329.0 161242.0 208554.0 209203.0 53567.0 48876.0 8189.0 0.0 149605.0 157503.0 116249.0 123771.0 79244.0 72791.0 254528.0 248678.0 48055.0 47388.0 76410.0 76194.0 61479.0 63339.0 64242.0 58093.0 117336.0 121857.0 74759.0 149722.0 74759.0 74759.0 149722.0 149722.0
100373.0 108040.0 216227.0 220096.0 132373.0 139672.0 192965.0 192881.0 140829.0 145173.0 210763.0 215511.0 70330.0 75135.0 91131.0 87993.0 186669.0 179188.0 162168.0 154244.0 139437.0 141249.0 177042.0 169203.0 80254.0 82861.0 68158.0 71795.0 205868.0 203898.0 157982.0 163216.0 187699.0 189294.0 168653.0 163424.0 171037.0 165006.0 123475.0 119291.0 84281.0 90135.0 128674.0 128981.0 201751.0 204549.0 195803.0 188134.0 160864.0 164901.0 118066.0 122581.0 214325.0 208381.0 196802.0 191146.0 147932.0 151117.0 84777.0 86323.0 236025.0 239423.0 57329.0 65403.0 122474.0 114307.0 191159.0 195697.0 19441.0 13099.0 131290.0 139160.0 255101.0 259800.0 86809.0 91394.0 185951.0 178139.0 112321.0 120263.0 94573.0 90654.0 226040.0 218583.0 223683.0 216351.0 220238.0 215565.0 25448.0 21799.0 96579.0 89830.0 106678.0 110953.0 174093.0 179524.0 109139.0 108227.0 179571.0 183328.0 228058.0 235786.0 202911.0 198919.0 119645.0 117113.0 202205.0 201207.0 210352.0 213534.0 91601.0 83982.0 116845.0 111381.0 174821.0 172170.0 193976.0 202120.0 191768.0 196841.0 155801.0 153863.0 191472.0 188292.0 93181.0 87963.0 131292.0 126154.0 80048.0 84613.0 189216.0 182781.0 73724.0 70516.0 93134.0 100833.0 217421.0 211605.0 164956.0 172648.0 155235.0 149501.0 154267.0 148737.0 209248.0 214740.0 62146.0 62063.0 141677.0 133664.0 168743.0 167516.0 202868.0 197723.0 202620.0 199124.0 51499.0 57003.0 218777.0 220912.0 147591.0 154443.0 99886.0 101796.0 84213.0 85801.0 123521.0 126864.0 134764.0 126769.0 203554.0 195601.0 176092.0 175363.0 35058.0 42748.0 60798.0 63494.0 201049.0 194766.0 143163.0 149605.0 0.0 7995.0 161224.0 161729.0 116760.0 122118.0 112405.0 108441.0 148659.0 156320.0 83126.0 78411.0 177522.0 172664.0 127897.0 133928.0 33140.0 31610.0 158600.0 7151.0 158600.0 158600.0 7151.0 7151.0
107708.0 115436.0 219090.0 223203.0 139227.0 146618.0 200956.0 200872.0 147839.0 152351.0 218466.0 223144.0 63927.0 69134.0 97110.0 94404.0 194661.0 187173.0 154187.0 146271.0 146937.0 148888.0 183389.0 175545.0 72322.0 74868.0 69096.0 73559.0 212626.0 210488.0 165537.0 170860.0 193451.0 194806.0 176633.0 171381.0 178568.0 172450.0 115486.0 111298.0 89278.0 95495.0 120714.0 121080.0 207356.0 210353.0 202198.0 194468.0 168028.0 172214.0 125334.0 129655.0 220911.0 215095.0 204580.0 198868.0 155656.0 158931.0 92178.0 93961.0 242249.0 245798.0 55609.0 63584.0 114611.0 106444.0 199150.0 203689.0 27343.0 20470.0 123327.0 131188.0 258809.0 263687.0 78827.0 83470.0 193940.0 186131.0 120020.0 127944.0 101673.0 98001.0 229985.0 222439.0 231675.0 224342.0 228202.0 223504.0 29526.0 23958.0 102370.0 95329.0 99180.0 103290.0 182084.0 187515.0 115783.0 114538.0 186176.0 190104.0 236050.0 243778.0 210872.0 206850.0 126259.0 123427.0 205781.0 205055.0 218343.0 221529.0 98783.0 91078.0 123076.0 117334.0 182812.0 180161.0 201322.0 209475.0 196503.0 201775.0 147938.0 145999.0 193807.0 190342.0 86271.0 81340.0 138338.0 133029.0 84094.0 89168.0 197149.0 190683.0 81083.0 77531.0 98401.0 106188.0 225413.0 219597.0 172947.0 180639.0 163227.0 157493.0 161707.0 156281.0 215961.0 221565.0 56622.0 57363.0 149331.0 141343.0 160874.0 159588.0 208741.0 203758.0 210612.0 207115.0 44114.0 49302.0 226771.0 228899.0 139727.0 146580.0 105896.0 107389.0 89776.0 91875.0 131195.0 134387.0 142455.0 134458.0 211547.0 203592.0 181291.0 180827.0 34068.0 41104.0 52885.0 55805.0 208813.0 202485.0 151016.0 157503.0 7995.0 0.0 166174.0 166356.0 122924.0 128512.0 104859.0 101088.0 155784.0 163497.0 90228.0 85801.0 185513.0 180656.0 134571.0 140777.0 40714.0 38453.0 166591.0 11757.0 166591.0 166591.0 11757.0 11757.0
87342.0 86134.0 78244.0 77190.0 60543.0 62098.0 179213.0 173036.0 64305.0 70791.0 127118.0 125243.0 178520.0 175288.0 72976.0 79265.0 166900.0 159861.0 285327.0 277297.0 85566.0 93448.0 45826.0 42537.0 224505.0 222338.0 111180.0 103016.0 77336.0 70333.0 91479.0 98686.0 35972.0 32794.0 137884.0 129841.0 94273.0 87145.0 257872.0 250857.0 76952.0 71388.0 265506.0 269022.0 45476.0 51249.0 58540.0 51563.0 72110.0 80270.0 78364.0 70543.0 78079.0 77651.0 124766.0 116863.0 100148.0 108088.0 97042.0 103055.0 87509.0 93815.0 135224.0 133399.0 267337.0 259057.0 188617.0 187281.0 147478.0 149357.0 267588.0 273908.0 100686.0 103485.0 227204.0 234506.0 150091.0 148015.0 97799.0 95812.0 84642.0 92534.0 70666.0 64820.0 200528.0 198242.0 163403.0 155354.0 136664.0 143070.0 66754.0 72014.0 218559.0 226347.0 173569.0 172096.0 66467.0 61647.0 55882.0 64053.0 195082.0 201772.0 151556.0 143333.0 59471.0 55149.0 54841.0 49634.0 176120.0 172808.0 88154.0 91340.0 53972.0 54674.0 187618.0 190563.0 94836.0 100117.0 31032.0 35617.0 295270.0 295917.0 71667.0 75852.0 197394.0 189722.0 67156.0 63205.0 83189.0 77185.0 138092.0 130214.0 102805.0 99926.0 68258.0 60822.0 190374.0 190431.0 164066.0 167297.0 159889.0 152247.0 84183.0 88880.0 78260.0 86183.0 166172.0 158334.0 94440.0 95333.0 307114.0 303039.0 51035.0 50272.0 203411.0 205701.0 206671.0 208925.0 175553.0 171238.0 291860.0 297836.0 65278.0 60757.0 77684.0 78487.0 95163.0 87022.0 96188.0 95827.0 170124.0 166211.0 16497.0 20413.0 141696.0 140643.0 198347.0 194364.0 126033.0 118611.0 109758.0 116249.0 161224.0 166174.0 0.0 8254.0 52992.0 53334.0 223938.0 216185.0 68664.0 71807.0 92033.0 100491.0 177728.0 179282.0 56892.0 59962.0 134308.0 131558.0 183973.0 166018.0 183973.0 183973.0 166018.0 166018.0
92359.0 91713.0 71500.0 71011.0 67365.0 69430.0 187027.0 180921.0 71714.0 78417.0 135340.0 133406.0 175711.0 172187.0 75410.0 82234.0 174741.0 167636.0 281789.0 273810.0 92926.0 100853.0 53849.0 50760.0 222812.0 220352.0 108932.0 100950.0 84790.0 77591.0 99419.0 106695.0 42191.0 37821.0 145675.0 137596.0 102442.0 95260.0 255209.0 248082.0 77598.0 72709.0 262940.0 266650.0 49933.0 56372.0 65803.0 59095.0 80224.0 88418.0 84495.0 76834.0 84941.0 84957.0 133015.0 125108.0 107745.0 115722.0 101134.0 107502.0 92662.0 99303.0 132921.0 130635.0 265445.0 257163.0 196268.0 195044.0 148731.0 150172.0 264972.0 271145.0 96957.0 100317.0 225222.0 232632.0 158089.0 155896.0 103834.0 102268.0 88999.0 96933.0 66908.0 60494.0 208594.0 206230.0 171649.0 163602.0 136837.0 142946.0 69100.0 73568.0 215109.0 222962.0 181049.0 179725.0 71228.0 65758.0 63977.0 72151.0 203238.0 209953.0 159749.0 151535.0 65037.0 59996.0 48827.0 44380.0 184231.0 180974.0 92418.0 95019.0 58631.0 58263.0 194874.0 197661.0 103034.0 108240.0 30242.0 36314.0 292696.0 293555.0 63611.0 67661.0 193941.0 186319.0 74013.0 69591.0 82620.0 77192.0 146229.0 138323.0 106193.0 102753.0 69479.0 62428.0 198452.0 198431.0 171454.0 174832.0 167072.0 159371.0 92070.0 96572.0 85535.0 93473.0 163564.0 155658.0 101856.0 102425.0 304399.0 300148.0 56516.0 56611.0 211081.0 213249.0 206034.0 207978.0 183747.0 179465.0 289787.0 295616.0 68230.0 62930.0 79183.0 80832.0 101784.0 93789.0 103324.0 102607.0 178200.0 174211.0 21327.0 27019.0 140639.0 139125.0 196593.0 192314.0 134287.0 126864.0 117131.0 123771.0 161729.0 166356.0 8254.0 0.0 57502.0 58774.0 220394.0 212570.0 76435.0 79814.0 95668.0 104186.0 185229.0 186635.0 63223.0 66890.0 135924.0 132722.0 190633.0 166783.0 190633.0 190633.0 166783.0 166783.0
35046.0 35615.0 127715.0 128060.0 24872.0 32440.0 143751.0 139022.0 34867.0 42569.0 115916.0 117544.0 150555.0 149317.0 26005.0 29124.0 132283.0 124369.0 259091.0 250867.0 49731.0 57061.0 60624.0 52792.0 188726.0 188173.0 84738.0 76558.0 91633.0 88468.0 64825.0 72661.0 71699.0 74466.0 103655.0 95452.0 74387.0 66369.0 226771.0 220551.0 39115.0 31077.0 233713.0 236079.0 86259.0 88270.0 79498.0 71655.0 55060.0 62337.0 31416.0 26028.0 98805.0 93759.0 107130.0 99369.0 65720.0 73412.0 44110.0 50088.0 119325.0 122996.0 106687.0 107927.0 231858.0 223693.0 150461.0 150787.0 100483.0 103982.0 236050.0 243113.0 153677.0 156356.0 192911.0 199476.0 119393.0 114910.0 49038.0 49762.0 31650.0 39549.0 123656.0 117686.0 169725.0 165602.0 142616.0 135336.0 94550.0 102046.0 21773.0 30134.0 193228.0 200371.0 133634.0 134053.0 13809.0 9113.0 64489.0 69687.0 167353.0 174854.0 127297.0 120025.0 11801.0 3638.0 106137.0 101877.0 147409.0 146254.0 35170.0 38881.0 1610.0 7250.0 145088.0 146617.0 89231.0 97020.0 83234.0 86133.0 263076.0 262534.0 113816.0 115334.0 172781.0 165084.0 29283.0 21588.0 51169.0 43174.0 112185.0 103890.0 50690.0 49195.0 29618.0 23061.0 160216.0 158269.0 123346.0 128185.0 117227.0 109243.0 57678.0 57615.0 94609.0 100986.0 137553.0 130552.0 58081.0 54952.0 275568.0 272567.0 86414.0 81002.0 165227.0 165928.0 166082.0 169744.0 150195.0 148101.0 256973.0 263660.0 17275.0 19296.0 34751.0 31065.0 50408.0 44278.0 56199.0 52360.0 140591.0 134846.0 64030.0 61182.0 105488.0 107053.0 163546.0 161315.0 110100.0 102360.0 71308.0 79244.0 116760.0 122924.0 52992.0 57502.0 0.0 7905.0 199066.0 192013.0 43868.0 51501.0 39635.0 47914.0 137939.0 137849.0 17639.0 25865.0 86374.0 85395.0 137159.0 120399.0 137159.0 137159.0 120399.0 120399.0
34155.0 32939.0 129911.0 129766.0 17052.0 24540.0 137465.0 132525.0 26981.0 34731.0 108013.0 109647.0 157920.0 156812.0 32452.0 34127.0 125837.0 118007.0 266390.0 258162.0 42668.0 50216.0 54927.0 47092.0 195255.0 194891.0 92442.0 84305.0 84936.0 82166.0 57157.0 65026.0 68010.0 71544.0 97010.0 88770.0 66527.0 58497.0 233723.0 227585.0 46594.0 38526.0 240588.0 242835.0 82805.0 84187.0 73695.0 66023.0 47184.0 54432.0 26609.0 20020.0 92561.0 87179.0 99314.0 91530.0 58746.0 66564.0 45594.0 50605.0 113991.0 117309.0 114171.0 115575.0 238366.0 230197.0 144609.0 144675.0 105285.0 109207.0 242946.0 250069.0 153590.0 155875.0 199604.0 206069.0 112432.0 108191.0 45429.0 45020.0 32837.0 40378.0 123713.0 118108.0 162951.0 159022.0 135010.0 127676.0 100567.0 108196.0 28953.0 37419.0 200672.0 207764.0 128035.0 128123.0 14367.0 14083.0 57973.0 62749.0 160278.0 167728.0 119843.0 112487.0 6326.0 5435.0 107599.0 102857.0 140365.0 139024.0 36494.0 41544.0 6723.0 15120.0 140063.0 141932.0 81434.0 89260.0 82535.0 84724.0 269871.0 269206.0 117552.0 119518.0 180302.0 172617.0 21878.0 14426.0 58864.0 50865.0 104781.0 96475.0 53501.0 53132.0 37272.0 30926.0 153350.0 151613.0 117855.0 122412.0 112124.0 104180.0 49934.0 50189.0 88037.0 94196.0 144911.0 137990.0 51250.0 48763.0 282412.0 279515.0 82147.0 76282.0 159424.0 160405.0 171980.0 175858.0 142886.0 140638.0 263481.0 270242.0 24044.0 27064.0 41699.0 37104.0 45245.0 38407.0 49954.0 46857.0 133602.0 128021.0 62607.0 58856.0 112301.0 114136.0 170260.0 168223.0 102249.0 94501.0 65002.0 72791.0 122118.0 128512.0 53334.0 58774.0 7905.0 0.0 206528.0 199525.0 35967.0 43598.0 42363.0 50183.0 132329.0 132562.0 9797.0 17992.0 90999.0 90579.0 133236.0 125451.0 133236.0 133236.0 125451.0 125451.0
198055.0 206003.0 246101.0 252833.0 221579.0 229580.0 303774.0 303189.0 231527.0 237945.0 310056.0 313317.0 48957.0 49785.0 174940.0 176634.0 296755.0 288989.0 61399.0 53428.0 237256.0 241234.0 256414.0 249036.0 52757.0 44441.0 115168.0 123593.0 289524.0 285181.0 255954.0 262563.0 258328.0 256595.0 276053.0 269855.0 268161.0 260896.0 44034.0 36180.0 159960.0 168017.0 52203.0 58849.0 269391.0 274734.0 274715.0 266629.0 252623.0 258730.0 213669.0 215344.0 295058.0 291276.0 297975.0 291253.0 249197.0 254068.0 184448.0 188882.0 310458.0 315937.0 92381.0 91854.0 67941.0 62160.0 302341.0 306805.0 129756.0 121650.0 53055.0 56317.0 293124.0 299957.0 45194.0 50118.0 293735.0 286341.0 214454.0 221775.0 189892.0 189225.0 269474.0 261454.0 334467.0 327315.0 326272.0 320687.0 117218.0 109630.0 177603.0 169124.0 6004.0 5370.0 285208.0 290427.0 197790.0 193191.0 262346.0 268324.0 338077.0 345893.0 309022.0 303947.0 206917.0 201111.0 242937.0 245607.0 319619.0 322001.0 188132.0 180267.0 199917.0 191976.0 286003.0 283353.0 287241.0 295263.0 248656.0 255897.0 78765.0 82508.0 217274.0 210824.0 26625.0 34366.0 223087.0 216094.0 148209.0 156113.0 294447.0 287195.0 173868.0 167484.0 169509.0 176671.0 327761.0 322301.0 275894.0 283514.0 266234.0 260183.0 250519.0 246869.0 292091.0 299039.0 61891.0 68544.0 241905.0 234611.0 88254.0 82487.0 274087.0 271505.0 313803.0 310306.0 79602.0 71737.0 327087.0 328269.0 83884.0 86551.0 182681.0 179928.0 165203.0 171423.0 224785.0 225596.0 235889.0 228136.0 312643.0 304884.0 240429.0 243186.0 98267.0 94037.0 53969.0 49217.0 301830.0 294724.0 247148.0 254528.0 112405.0 104859.0 223938.0 220394.0 199066.0 206528.0 0.0 8065.0 240484.0 248501.0 179570.0 178479.0 288684.0 283822.0 215176.0 222957.0 139615.0 133717.0 269783.0 116178.0 269783.0 269783.0 116178.0 116178.0
191814.0 199739.0 238045.0 244771.0 214730.0 222735.0 298825.0 298074.0 224716.0 231223.0 303581.0 306727.0 42617.0 42722.0 168109.0 170017.0 291591.0 283771.0 69235.0 61327.0 230852.0 234975.0 249036.0 241693.0 54678.0 46250.0 107846.0 116256.0 282231.0 277807.0 249503.0 256193.0 250680.0 248870.0 270457.0 264144.0 261618.0 254291.0 51331.0 43397.0 152933.0 161000.0 59589.0 66024.0 261649.0 267044.0 267278.0 259196.0 245798.0 252004.0 207213.0 208712.0 287645.0 283950.0 291674.0 284876.0 243017.0 248023.0 178430.0 183062.0 302824.0 308354.0 85358.0 84499.0 74217.0 67989.0 297696.0 302030.0 125257.0 117117.0 60579.0 64144.0 285059.0 291892.0 47802.0 53622.0 288164.0 280845.0 208470.0 215709.0 183548.0 183098.0 261421.0 253402.0 329486.0 322426.0 320418.0 314733.0 111794.0 104360.0 170633.0 162152.0 5370.0 12310.0 280451.0 285530.0 191029.0 186284.0 255079.0 261133.0 332856.0 340687.0 303203.0 298009.0 200041.0 194118.0 234884.0 237572.0 314258.0 316497.0 181875.0 174050.0 192891.0 184893.0 281416.0 278765.0 280412.0 288411.0 240748.0 248012.0 86631.0 90198.0 209220.0 202780.0 19238.0 26969.0 216367.0 209306.0 141041.0 148973.0 288547.0 281219.0 167962.0 161417.0 162421.0 169509.0 322633.0 317293.0 271026.0 278605.0 261405.0 255227.0 243967.0 240456.0 284762.0 291754.0 55362.0 61675.0 235664.0 228451.0 96259.0 90537.0 266424.0 263916.0 309216.0 305719.0 79023.0 71411.0 321552.0 322588.0 91195.0 94124.0 175749.0 172827.0 158336.0 164704.0 218687.0 219299.0 229740.0 222033.0 307258.0 299545.0 232672.0 235502.0 92352.0 87741.0 51924.0 46193.0 295489.0 288329.0 241222.0 248678.0 108441.0 101088.0 216185.0 212570.0 192013.0 199525.0 8065.0 0.0 233700.0 241711.0 173368.0 172533.0 283984.0 279260.0 208262.0 216094.0 134584.0 128441.0 265195.0 112592.0 265195.0 265195.0 112592.0 112592.0
48804.0 41852.0 146027.0 143940.0 19251.0 11428.0 110594.0 104554.0 9099.0 4124.0 72048.0 73855.0 191607.0 191007.0 65608.0 64211.0 98322.0 91207.0 299566.0 291332.0 19520.0 26386.0 41194.0 35901.0 225479.0 225874.0 127604.0 119637.0 59389.0 59687.0 23574.0 31346.0 63304.0 70138.0 69241.0 61178.0 30803.0 22718.0 265516.0 259730.0 81430.0 73428.0 272044.0 273790.0 77206.0 75098.0 55594.0 50264.0 12345.0 18555.0 31028.0 26175.0 69662.0 62327.0 63767.0 55865.0 31799.0 39577.0 64470.0 65230.0 95494.0 96566.0 148473.0 150466.0 268437.0 260270.0 119999.0 118622.0 130228.0 135563.0 274483.0 281833.0 159419.0 159893.0 230463.0 236499.0 82150.0 79535.0 44616.0 38339.0 54111.0 58432.0 131316.0 127520.0 132958.0 130143.0 100564.0 92954.0 129916.0 137862.0 63615.0 72003.0 234564.0 241431.0 105294.0 103511.0 42700.0 47750.0 37321.0 37593.0 128651.0 135763.0 86395.0 78599.0 33946.0 40942.0 121769.0 115381.0 109117.0 106716.0 57068.0 64706.0 42595.0 51035.0 120064.0 123676.0 46814.0 54908.0 89780.0 88671.0 300912.0 299730.0 139897.0 143417.0 214547.0 206932.0 17672.0 24395.0 94143.0 86185.0 71841.0 63613.0 75203.0 78272.0 72630.0 66773.0 122952.0 122410.0 96106.0 98891.0 92829.0 85565.0 15984.0 20301.0 63177.0 67406.0 178620.0 172026.0 27245.0 30977.0 313630.0 311181.0 72287.0 64589.0 134772.0 137228.0 199880.0 204571.0 110090.0 106980.0 293553.0 300388.0 58332.0 62751.0 75421.0 69095.0 35949.0 27908.0 31313.0 34713.0 102756.0 98235.0 69479.0 62525.0 144239.0 147009.0 201359.0 200089.0 66499.0 58714.0 42378.0 48055.0 148659.0 155784.0 68664.0 76435.0 43868.0 35967.0 240484.0 233700.0 0.0 8022.0 65557.0 70680.0 109390.0 111392.0 26295.0 18072.0 115828.0 117351.0 119700.0 150783.0 119700.0 119700.0 150783.0 150783.0
56199.0 48990.0 148080.0 145569.0 27139.0 19190.0 107758.0 101373.0 17027.0 11147.0 64525.0 66061.0 199627.0 199014.0 73610.0 72221.0 95374.0 88610.0 307585.0 299351.0 22811.0 28049.0 39137.0 35164.0 233373.0 233815.0 135522.0 127526.0 53119.0 54203.0 19825.0 26882.0 62234.0 69576.0 66647.0 58858.0 24159.0 16199.0 273492.0 267722.0 89362.0 81344.0 280003.0 281720.0 75431.0 72550.0 51415.0 46983.0 4579.0 10884.0 38386.0 34033.0 63855.0 56175.0 57023.0 49030.0 31379.0 38479.0 71895.0 72248.0 90336.0 90893.0 156471.0 158422.0 276316.0 268149.0 117852.0 116002.0 137782.0 143230.0 282445.0 289807.0 159056.0 159122.0 238396.0 244403.0 78285.0 76392.0 50353.0 43471.0 61851.0 65885.0 131587.0 128236.0 128811.0 126435.0 94490.0 86737.0 137809.0 145766.0 71539.0 79946.0 242582.0 249452.0 103898.0 101527.0 50720.0 55684.0 33455.0 32207.0 123858.0 130796.0 80965.0 72978.0 41870.0 48685.0 123609.0 116933.0 104589.0 101728.0 64723.0 72437.0 50279.0 58711.0 119339.0 123413.0 38794.0 46893.0 90605.0 88788.0 308843.0 307627.0 143425.0 147287.0 222554.0 214936.0 25644.0 32408.0 102030.0 94060.0 66820.0 58744.0 82737.0 86031.0 80486.0 74495.0 118697.0 118626.0 95145.0 97325.0 92662.0 85729.0 13089.0 19940.0 57005.0 60705.0 186639.0 180037.0 28706.0 34146.0 321570.0 319146.0 69634.0 61738.0 132497.0 135404.0 207605.0 212361.0 104854.0 101323.0 301433.0 308258.0 66271.0 70526.0 83416.0 77116.0 40756.0 33369.0 34175.0 38991.0 98446.0 94405.0 70812.0 63443.0 152241.0 155029.0 209312.0 208078.0 59507.0 51701.0 42846.0 47388.0 156320.0 163497.0 71807.0 79814.0 51501.0 43598.0 248501.0 241711.0 8022.0 0.0 73281.0 78161.0 107885.0 110411.0 34050.0 25888.0 123411.0 125088.0 120848.0 158330.0 120848.0 120848.0 158330.0 158330.0
18521.0 26503.0 163424.0 164685.0 49612.0 56658.0 134417.0 131657.0 57729.0 62139.0 130978.0 134834.0 130757.0 131375.0 23619.0 15185.0 124807.0 116625.0 236861.0 228655.0 58164.0 61681.0 96108.0 88403.0 160449.0 161273.0 74515.0 68403.0 123137.0 121681.0 76990.0 83216.0 110373.0 113735.0 99786.0 92643.0 89677.0 83009.0 201376.0 195946.0 36012.0 32578.0 207612.0 209018.0 125153.0 126496.0 114442.0 107146.0 77804.0 82222.0 35361.0 39454.0 132086.0 125759.0 118447.0 111873.0 69649.0 74848.0 8000.0 16024.0 155199.0 157898.0 90444.0 94495.0 203308.0 195140.0 137556.0 139802.0 64946.0 70028.0 210104.0 217615.0 192526.0 195512.0 165763.0 171537.0 117400.0 110858.0 35893.0 42583.0 11448.0 10039.0 162460.0 156162.0 163699.0 157926.0 147703.0 141684.0 65069.0 73088.0 29199.0 30445.0 173573.0 179916.0 119698.0 122440.0 28084.0 30600.0 97414.0 100598.0 164474.0 172323.0 130703.0 125041.0 38317.0 38440.0 143363.0 139810.0 144889.0 145893.0 8750.0 867.0 39015.0 37433.0 126975.0 126467.0 111374.0 119540.0 122662.0 125751.0 236133.0 234682.0 145930.0 145994.0 154640.0 147330.0 48172.0 43368.0 47070.0 41868.0 115752.0 108172.0 11145.0 12792.0 35101.0 37822.0 155394.0 151527.0 109235.0 115732.0 100987.0 93304.0 72316.0 67762.0 126627.0 131847.0 118069.0 112418.0 62341.0 55091.0 248934.0 246804.0 124400.0 118307.0 151455.0 150229.0 134329.0 139106.0 150655.0 150721.0 228424.0 235277.0 28053.0 35141.0 28015.0 20301.0 45442.0 46128.0 56387.0 48769.0 137787.0 130654.0 103660.0 100694.0 81477.0 85629.0 136968.0 136391.0 122362.0 115392.0 68571.0 76410.0 83126.0 90228.0 92033.0 95668.0 39635.0 42363.0 179570.0 173368.0 65557.0 73281.0 0.0 8532.0 123869.0 121662.0 45970.0 51174.0 50495.0 51806.0 113808.0 85477.0 113808.0 113808.0 85477.0 85477.0
21998.0 29636.0 171894.0 173195.0 55956.0 62560.0 131612.0 129316.0 63372.0 67041.0 133474.0 137756.0 129949.0 131050.0 31617.0 23308.0 122522.0 114388.0 234821.0 226645.0 61226.0 63761.0 103135.0 95512.0 156985.0 158223.0 77143.0 71705.0 129134.0 128057.0 79942.0 85651.0 118128.0 121704.0 98705.0 91959.0 92891.0 86655.0 198585.0 193399.0 42326.0 39909.0 204597.0 205721.0 132960.0 134081.0 121241.0 114106.0 82729.0 86506.0 39783.0 45020.0 138421.0 131847.0 120317.0 114090.0 71193.0 75643.0 6380.0 11266.0 162074.0 164519.0 91179.0 95848.0 199703.0 191536.0 133932.0 136580.0 59647.0 65379.0 207125.0 214739.0 201025.0 203976.0 162615.0 168122.0 116428.0 109534.0 35985.0 43459.0 17782.0 12281.0 170960.0 164680.0 161363.0 155276.0 147903.0 142214.0 62372.0 70371.0 37434.0 37861.0 172475.0 178573.0 116031.0 119261.0 35819.0 38949.0 103907.0 106660.0 162812.0 170680.0 130725.0 125481.0 45729.0 46531.0 151892.0 148341.0 143471.0 144934.0 14235.0 9169.0 47220.0 45938.0 122296.0 121341.0 115565.0 123709.0 131059.0 134046.0 232794.0 231082.0 154164.0 154100.0 154059.0 146906.0 53763.0 49757.0 52282.0 47949.0 116015.0 108716.0 4770.0 11698.0 42654.0 45967.0 153383.0 149130.0 105663.0 112449.0 97047.0 89567.0 75912.0 70668.0 132712.0 137650.0 117489.0 112272.0 64308.0 56608.0 245653.0 243774.0 131918.0 125655.0 147529.0 145893.0 129874.0 135002.0 149829.0 150361.0 224819.0 231672.0 36540.0 43476.0 34707.0 27703.0 46570.0 48759.0 57827.0 49919.0 136379.0 129023.0 111932.0 108801.0 80218.0 85052.0 134172.0 134094.0 124375.0 117665.0 68689.0 76194.0 78411.0 85801.0 100491.0 104186.0 47914.0 50183.0 178479.0 172533.0 70680.0 78161.0 8532.0 0.0 120124.0 117466.0 52984.0 57507.0 45338.0 47794.0 108260.0 80183.0 108260.0 108260.0 80183.0 80183.0
110388.0 105312.0 255415.0 253260.0 118913.0 115843.0 18777.0 23799.0 113519.0 106976.0 93744.0 101896.0 242769.0 245447.0 143121.0 135862.0 22537.0 23343.0 339686.0 331751.0 92376.0 84412.0 145614.0 142821.0 257650.0 260365.0 197191.0 191808.0 143586.0 149247.0 88378.0 82783.0 169143.0 176886.0 42481.0 49403.0 91436.0 95650.0 300965.0 296803.0 158861.0 153449.0 306107.0 306316.0 180991.0 176558.0 152365.0 150856.0 109185.0 102691.0 106577.0 112317.0 155142.0 146722.0 80004.0 82904.0 77639.0 69819.0 116238.0 108950.0 182031.0 178831.0 209128.0 214690.0 299763.0 291596.0 13903.0 18404.0 158956.0 167042.0 308729.0 316614.0 265985.0 265403.0 264287.0 268773.0 40750.0 36449.0 91461.0 88571.0 119095.0 114500.0 239243.0 236091.0 47583.0 39551.0 68600.0 70131.0 173120.0 180059.0 145998.0 151266.0 282812.0 287619.0 4308.0 8891.0 126727.0 134771.0 137482.0 132363.0 55327.0 62179.0 57865.0 61981.0 126506.0 134329.0 231141.0 224656.0 44000.0 51001.0 118279.0 123619.0 136335.0 142568.0 15748.0 23411.0 109819.0 113028.0 198489.0 196465.0 333092.0 331152.0 247999.0 250805.0 266971.0 260558.0 112370.0 118451.0 170763.0 164849.0 57462.0 60482.0 123552.0 131630.0 154920.0 153698.0 43917.0 36469.0 14782.0 10567.0 23163.0 30581.0 94821.0 89094.0 147227.0 145596.0 231501.0 227726.0 83398.0 83827.0 346019.0 344890.0 173523.0 165570.0 27693.0 28131.0 228258.0 234114.0 55819.0 62391.0 324880.0 331733.0 141688.0 149507.0 150672.0 142282.0 87583.0 93923.0 82742.0 85590.0 40146.0 33806.0 178590.0 171315.0 193918.0 200365.0 238216.0 240415.0 83300.0 84627.0 68233.0 61479.0 177522.0 185513.0 177728.0 185229.0 137939.0 132329.0 288684.0 283984.0 109390.0 107885.0 123869.0 120124.0 0.0 7611.0 124564.0 119078.0 149603.0 156269.0 45843.0 177392.0 45843.0 45843.0 177392.0 177392.0
109017.0 104386.0 257246.0 255320.0 119806.0 117213.0 26267.0 31391.0 114977.0 108757.0 99999.0 108150.0 238309.0 241166.0 141648.0 134167.0 29754.0 29454.0 334828.0 326894.0 93722.0 85836.0 148662.0 145518.0 252792.0 255508.0 194292.0 189150.0 148153.0 153563.0 91209.0 86080.0 172156.0 179777.0 46580.0 52809.0 95213.0 98929.0 296108.0 291945.0 157053.0 151934.0 301250.0 301459.0 184350.0 180166.0 156200.0 154347.0 111993.0 105861.0 106434.0 112555.0 159796.0 151327.0 85856.0 88295.0 79603.0 72012.0 113898.0 106404.0 186885.0 183923.0 205509.0 211256.0 294906.0 286739.0 18831.0 24764.0 154099.0 162199.0 303872.0 311757.0 269096.0 268723.0 259430.0 263915.0 47041.0 41961.0 90419.0 88168.0 117533.0 112534.0 241984.0 238613.0 54146.0 45892.0 76046.0 77360.0 168842.0 175632.0 144814.0 149739.0 277978.0 282766.0 8458.0 15949.0 126192.0 134210.0 140848.0 136049.0 62510.0 69185.0 64844.0 68560.0 126604.0 134271.0 233112.0 226773.0 51609.0 58602.0 116494.0 121462.0 136256.0 142169.0 9548.0 16438.0 114661.0 118242.0 200924.0 199182.0 328235.0 326294.0 249007.0 251591.0 262450.0 256141.0 113198.0 118949.0 168701.0 163030.0 63468.0 65845.0 120693.0 128832.0 153548.0 152708.0 51110.0 43460.0 15289.0 14943.0 20893.0 28857.0 97323.0 91183.0 151860.0 150539.0 227217.0 223641.0 84849.0 84547.0 341162.0 340033.0 177136.0 169153.0 30325.0 28618.0 223401.0 229257.0 63430.0 69971.0 320022.0 326875.0 140676.0 148584.0 148867.0 140523.0 87455.0 94253.0 83541.0 85706.0 47712.0 41218.0 180821.0 173686.0 189769.0 196371.0 233358.0 235558.0 89320.0 90210.0 69524.0 63339.0 172664.0 180656.0 179282.0 186635.0 137849.0 132562.0 283822.0 279260.0 111392.0 110411.0 121662.0 117466.0 7611.0 0.0 125163.0 120068.0 145159.0 152002.0 38771.0 172534.0 38771.0 38771.0 172534.0 172534.0
33917.0 30448.0 134722.0 134036.0 7256.0 14880.0 128946.0 123789.0 17247.0 24938.0 98327.0 100103.0 166435.0 165540.0 40376.0 40534.0 117164.0 109436.0 274748.0 266515.0 33574.0 41333.0 50175.0 42529.0 202484.0 202394.0 101585.0 93534.0 78085.0 76030.0 47409.0 55294.0 66125.0 70670.0 88172.0 79913.0 56749.0 48731.0 241550.0 235539.0 55504.0 47449.0 248295.0 250363.0 81038.0 81510.0 68479.0 61188.0 37806.0 44823.0 21542.0 13650.0 86456.0 80525.0 89518.0 81740.0 49660.0 57591.0 47626.0 51291.0 109230.0 111985.0 122918.0 124596.0 245552.0 237365.0 136552.0 136333.0 110424.0 114867.0 250684.0 257893.0 155687.0 157487.0 207066.0 213382.0 103248.0 99257.0 40999.0 39049.0 35202.0 41863.0 126112.0 120967.0 153911.0 150177.0 125282.0 117920.0 107288.0 115064.0 37692.0 46157.0 209292.0 216295.0 120290.0 120006.0 18794.0 21986.0 51701.0 55609.0 150957.0 158359.0 110218.0 102805.0 8462.0 14649.0 111710.0 106457.0 131082.0 129575.0 38777.0 45110.0 16317.0 24753.0 132948.0 135206.0 72282.0 80205.0 84356.0 85642.0 277444.0 276595.0 124033.0 126439.0 189062.0 181404.0 12604.0 6381.0 68044.0 60060.0 95202.0 86892.0 56847.0 57800.0 46469.0 40479.0 144226.0 142697.0 110259.0 114485.0 104997.0 97132.0 40150.0 40648.0 81391.0 87130.0 153426.0 146639.0 42375.0 40737.0 290053.0 287316.0 79226.0 72753.0 151401.0 152689.0 178360.0 182528.0 133369.0 131003.0 270634.0 277499.0 32517.0 36478.0 49998.0 44492.0 38685.0 31033.0 41838.0 39790.0 124373.0 118956.0 63858.0 59033.0 120057.0 122273.0 177782.0 176030.0 92465.0 84722.0 56672.0 64242.0 127897.0 134571.0 56892.0 63223.0 17639.0 9797.0 215176.0 208262.0 26295.0 34050.0 45970.0 52984.0 124564.0 125163.0 0.0 8237.0 96005.0 96287.0 127471.0 130820.0 127471.0 127471.0 130820.0 130820.0
36889.0 31809.0 138194.0 137051.0 1561.0 6700.0 122612.0 117209.0 9010.0 16766.0 90092.0 91911.0 174155.0 173378.0 48027.0 47460.0 110670.0 103077.0 282347.0 274113.0 27007.0 34962.0 46323.0 39074.0 209394.0 209482.0 109651.0 101640.0 71995.0 70574.0 39477.0 47391.0 64507.0 69848.0 81545.0 73286.0 48535.0 40507.0 248827.0 242898.0 63512.0 55479.0 255494.0 257445.0 79322.0 79008.0 63905.0 57050.0 29760.0 36617.0 21314.0 13535.0 80958.0 74591.0 81348.0 73547.0 42888.0 50919.0 51734.0 54325.0 104755.0 107026.0 130783.0 132597.0 252427.0 244215.0 130723.0 130188.0 116068.0 120850.0 257902.0 265164.0 156795.0 158181.0 214125.0 220341.0 96142.0 92480.0 39955.0 36462.0 39936.0 45753.0 127582.0 122848.0 146933.0 143436.0 117342.0 109921.0 113985.0 121837.0 45686.0 54119.0 217059.0 224009.0 114838.0 114144.0 25598.0 29863.0 46401.0 49448.0 143625.0 150959.0 102472.0 94963.0 16060.0 22874.0 114686.0 109035.0 123814.0 122082.0 43320.0 50306.0 24553.0 32989.0 128130.0 130782.0 64336.0 72317.0 85625.0 86146.0 284547.0 283577.0 128962.0 131740.0 196910.0 189269.0 7238.0 7806.0 76144.0 68172.0 87539.0 79230.0 61674.0 63481.0 54598.0 48705.0 137152.0 135878.0 104997.0 108847.0 100259.0 92514.0 32112.0 33190.0 75459.0 80812.0 161151.0 154440.0 36002.0 35592.0 297197.0 294565.0 76538.0 69614.0 145585.0 147200.0 184722.0 189081.0 125777.0 123229.0 277543.0 284393.0 40446.0 44679.0 57760.0 51860.0 35438.0 27121.0 36545.0 35896.0 117182.0 111982.0 64930.0 59306.0 127368.0 129804.0 184895.0 183323.0 84260.0 76510.0 50868.0 58093.0 133928.0 140777.0 59962.0 66890.0 25865.0 17992.0 222957.0 216094.0 18072.0 25888.0 51174.0 57507.0 119078.0 120068.0 8237.0 0.0 101617.0 102367.0 124066.0 136565.0 124066.0 124066.0 136565.0 136565.0
67330.0 74940.0 196200.0 199128.0 100056.0 107153.0 164241.0 163574.0 108191.0 112272.0 177769.0 182431.0 93172.0 96065.0 61822.0 57251.0 157150.0 149418.0 192902.0 184836.0 106297.0 108174.0 145769.0 137969.0 112702.0 114626.0 62399.0 61999.0 173608.0 171989.0 124851.0 130146.0 158018.0 160328.0 137358.0 131703.0 137900.0 131874.0 155254.0 150577.0 59143.0 63223.0 160844.0 161520.0 172441.0 174643.0 164360.0 156862.0 127969.0 131844.0 85079.0 89866.0 182408.0 176205.0 163971.0 158187.0 114982.0 118414.0 51688.0 53248.0 204914.0 207944.0 63979.0 71136.0 155182.0 147014.0 163392.0 167538.0 14452.0 20253.0 163425.0 171192.0 231704.0 235760.0 118816.0 123867.0 154887.0 147277.0 79332.0 87243.0 61892.0 57607.0 202012.0 194925.0 194906.0 187851.0 188532.0 183563.0 23979.0 30473.0 67811.0 62381.0 133677.0 138937.0 145992.0 150957.0 77436.0 77491.0 147675.0 151063.0 198496.0 206302.0 171191.0 166848.0 87949.0 86268.0 179700.0 177731.0 180204.0 182887.0 58783.0 51361.0 86251.0 81746.0 147536.0 144895.0 160889.0 169027.0 165291.0 169662.0 188473.0 186570.0 173765.0 171739.0 117369.0 110986.0 98609.0 93813.0 59318.0 61330.0 157177.0 150500.0 40692.0 38210.0 66473.0 73564.0 188147.0 182720.0 136469.0 144028.0 126882.0 120644.0 121137.0 115603.0 177072.0 182341.0 82126.0 78999.0 108618.0 100639.0 201390.0 199887.0 172779.0 167202.0 175277.0 171836.0 84639.0 90016.0 188051.0 189721.0 180298.0 187151.0 70263.0 73616.0 56746.0 56292.0 90490.0 93725.0 101758.0 93759.0 173276.0 165447.0 148205.0 146632.0 45165.0 52424.0 91318.0 92462.0 168180.0 161801.0 110632.0 117336.0 33140.0 40714.0 134308.0 135924.0 86374.0 90999.0 139615.0 134584.0 115828.0 123411.0 50495.0 45338.0 149603.0 145159.0 96005.0 101617.0 0.0 8000.0 131325.0 34986.0 131325.0 131325.0 34986.0 34986.0
69511.0 77336.0 191302.0 194482.0 100814.0 108173.0 170558.0 169652.0 109386.0 113945.0 181142.0 185530.0 86621.0 89183.0 60056.0 56477.0 163152.0 155331.0 188087.0 179969.0 109014.0 111416.0 145505.0 137670.0 109203.0 110605.0 54637.0 54598.0 174277.0 172289.0 127735.0 133359.0 156680.0 158595.0 142558.0 136636.0 140681.0 134365.0 151100.0 146140.0 55279.0 60173.0 156959.0 157964.0 170905.0 173452.0 164241.0 156601.0 129610.0 133922.0 87018.0 91210.0 182716.0 176780.0 167692.0 161669.0 118569.0 122428.0 54165.0 56792.0 204542.0 207863.0 56086.0 63179.0 151909.0 143742.0 170102.0 174081.0 16043.0 18629.0 159506.0 167178.0 227808.0 232075.0 114938.0 120347.0 160182.0 152698.0 82960.0 90747.0 63244.0 59852.0 198286.0 191069.0 201162.0 194231.0 193368.0 188182.0 16851.0 24092.0 65753.0 59585.0 127748.0 133255.0 152590.0 157358.0 77530.0 76753.0 147961.0 151741.0 204418.0 212247.0 176043.0 171436.0 88037.0 85626.0 175461.0 173790.0 185903.0 188352.0 60409.0 52652.0 85421.0 80259.0 154622.0 151979.0 163058.0 171219.0 162412.0 167085.0 185021.0 183289.0 168274.0 165996.0 110896.0 104336.0 99887.0 94605.0 53959.0 56800.0 161807.0 154927.0 43032.0 39083.0 63333.0 70756.0 194202.0 188944.0 142929.0 150421.0 133415.0 126994.0 123625.0 118462.0 177646.0 183173.0 75235.0 71755.0 111922.0 104075.0 197892.0 196107.0 171699.0 166397.0 182199.0 178924.0 82530.0 87349.0 193469.0 194885.0 177025.0 183878.0 68731.0 71265.0 53912.0 54624.0 93948.0 96551.0 105246.0 97264.0 178929.0 171169.0 145917.0 144759.0 37848.0 44864.0 86812.0 87365.0 171829.0 165262.0 114893.0 121857.0 31610.0 38453.0 131558.0 132722.0 85395.0 90579.0 133717.0 128441.0 117351.0 125088.0 51806.0 47794.0 156269.0 152002.0 96287.0 102367.0 8000.0 0.0 138409.0 35028.0 138409.0 138409.0 35028.0 35028.0
104539.0 101763.0 262112.0 261115.0 123436.0 122800.0 64505.0 68264.0 120994.0 116316.0 125530.0 133371.0 224357.0 227389.0 135822.0 127741.0 64593.0 60608.0 320764.0 312829.0 100394.0 93350.0 159981.0 155476.0 238728.0 241444.0 183483.0 179018.0 165956.0 170149.0 103862.0 100912.0 182844.0 189830.0 67138.0 69266.0 111434.0 112936.0 282043.0 277881.0 149818.0 145762.0 287186.0 287395.0 196277.0 193212.0 170653.0 167380.0 123494.0 119091.0 106667.0 113965.0 177758.0 169228.0 109849.0 109735.0 89706.0 83699.0 105814.0 97865.0 205338.0 203519.0 192960.0 199086.0 280842.0 272674.0 57108.0 63495.0 140034.0 148135.0 289808.0 297692.0 279075.0 279587.0 245365.0 249851.0 76270.0 68795.0 88120.0 88461.0 112043.0 105770.0 250648.0 246410.0 92852.0 84514.0 110171.0 109736.0 155178.0 161762.0 139943.0 143565.0 263929.0 268701.0 44275.0 52073.0 124185.0 131866.0 153675.0 150345.0 101167.0 107939.0 96105.0 97414.0 126955.0 133796.0 238750.0 233058.0 88720.0 94953.0 110237.0 113779.0 135648.0 140215.0 36893.0 31861.0 134550.0 139846.0 208797.0 208225.0 314170.0 312230.0 250760.0 252484.0 248445.0 242216.0 116844.0 121091.0 160498.0 155671.0 89809.0 88942.0 110802.0 118974.0 147836.0 148365.0 89757.0 82210.0 40422.0 47048.0 33292.0 35337.0 108311.0 100915.0 169876.0 169977.0 213451.0 210164.0 92538.0 89435.0 327097.0 325969.0 190251.0 182282.0 65346.0 60282.0 209336.0 215192.0 100102.0 105724.0 305958.0 312811.0 136518.0 144566.0 141771.0 133739.0 88850.0 96959.0 88814.0 88170.0 83749.0 76242.0 188170.0 181724.0 176257.0 183114.0 219294.0 221494.0 114021.0 112529.0 78028.0 74759.0 158600.0 166591.0 183973.0 190633.0 137159.0 133236.0 269783.0 265195.0 119700.0 120848.0 113808.0 108260.0 45843.0 38771.0 127471.0 124066.0 131325.0 138409.0 0.0 158470.0 0.0 0.0 158470.0 158470.0
102177.0 109679.0 222342.0 226086.0 135005.0 142135.0 192835.0 192751.0 143177.0 147199.0 211398.0 216364.0 75676.0 80817.0 95068.0 91411.0 186539.0 179059.0 164164.0 156343.0 140747.0 142168.0 180349.0 172526.0 81174.0 84457.0 75084.0 78498.0 208560.0 206844.0 159119.0 164086.0 191700.0 193544.0 168584.0 163413.0 172222.0 166420.0 124850.0 121060.0 89199.0 94711.0 129679.0 129575.0 205896.0 208479.0 199028.0 191448.0 162894.0 166617.0 119965.0 124850.0 217268.0 211139.0 197172.0 191730.0 148561.0 151405.0 86491.0 87390.0 239442.0 242642.0 64459.0 72531.0 124149.0 115982.0 191029.0 195567.0 20556.0 16669.0 132322.0 140267.0 260732.0 265317.0 88159.0 92214.0 185857.0 178033.0 113104.0 121085.0 96878.0 92464.0 231534.0 224138.0 223554.0 216221.0 220209.0 215591.0 31579.0 28701.0 100704.0 94275.0 110557.0 114448.0 173963.0 179394.0 112154.0 111706.0 182518.0 186013.0 227928.0 235656.0 202888.0 198964.0 122677.0 120562.0 207941.0 206777.0 210223.0 213414.0 93760.0 86341.0 120401.0 115283.0 174691.0 172040.0 195588.0 203707.0 196710.0 201614.0 157477.0 155537.0 197841.0 194778.0 97988.0 93095.0 133594.0 128765.0 85675.0 89876.0 189257.0 182886.0 75595.0 73098.0 97785.0 105378.0 217291.0 211476.0 164826.0 172518.0 155105.0 149371.0 155705.0 149917.0 212006.0 217317.0 68145.0 68493.0 142547.0 134468.0 170417.0 168223.0 206726.0 201399.0 202490.0 198994.0 50865.0 57106.0 218659.0 220823.0 149265.0 156118.0 103757.0 106109.0 88619.0 89649.0 124359.0 128140.0 135524.0 127556.0 203425.0 195471.0 180652.0 179673.0 42206.0 49871.0 63526.0 67000.0 201470.0 195359.0 143376.0 149722.0 7151.0 11757.0 166018.0 166783.0 120399.0 125451.0 116178.0 112592.0 150783.0 158330.0 85477.0 80183.0 177392.0 172534.0 130820.0 136565.0 34986.0 35028.0 158470.0 0.0 158470.0 158470.0 0.0 0.0
104539.0 101763.0 262112.0 261115.0 123436.0 122800.0 64505.0 68264.0 120994.0 116316.0 125530.0 133371.0 224357.0 227389.0 135822.0 127741.0 64593.0 60608.0 320764.0 312829.0 100394.0 93350.0 159981.0 155476.0 238728.0 241444.0 183483.0 179018.0 165956.0 170149.0 103862.0 100912.0 182844.0 189830.0 67138.0 69266.0 111434.0 112936.0 282043.0 277881.0 149818.0 145762.0 287186.0 287395.0 196277.0 193212.0 170653.0 167380.0 123494.0 119091.0 106667.0 113965.0 177758.0 169228.0 109849.0 109735.0 89706.0 83699.0 105814.0 97865.0 205338.0 203519.0 192960.0 199086.0 280842.0 272674.0 57108.0 63495.0 140034.0 148135.0 289808.0 297692.0 279075.0 279587.0 245365.0 249851.0 76270.0 68795.0 88120.0 88461.0 112043.0 105770.0 250648.0 246410.0 92852.0 84514.0 110171.0 109736.0 155178.0 161762.0 139943.0 143565.0 263929.0 268701.0 44275.0 52073.0 124185.0 131866.0 153675.0 150345.0 101167.0 107939.0 96105.0 97414.0 126955.0 133796.0 238750.0 233058.0 88720.0 94953.0 110237.0 113779.0 135648.0 140215.0 36893.0 31861.0 134550.0 139846.0 208797.0 208225.0 314170.0 312230.0 250760.0 252484.0 248445.0 242216.0 116844.0 121091.0 160498.0 155671.0 89809.0 88942.0 110802.0 118974.0 147836.0 148365.0 89757.0 82210.0 40422.0 47048.0 33292.0 35337.0 108311.0 100915.0 169876.0 169977.0 213451.0 210164.0 92538.0 89435.0 327097.0 325969.0 190251.0 182282.0 65346.0 60282.0 209336.0 215192.0 100102.0 105724.0 305958.0 312811.0 136518.0 144566.0 141771.0 133739.0 88850.0 96959.0 88814.0 88170.0 83749.0 76242.0 188170.0 181724.0 176257.0 183114.0 219294.0 221494.0 114021.0 112529.0 78028.0 74759.0 158600.0 166591.0 183973.0 190633.0 137159.0 133236.0 269783.0 265195.0 119700.0 120848.0 113808.0 108260.0 45843.0 38771.0 127471.0 124066.0 131325.0 138409.0 0.0 158470.0 0.0 0.0 158470.0 158470.0
104539.0 101763.0 262112.0 261115.0 123436.0 122800.0 64505.0 68264.0 120994.0 116316.0 125530.0 133371.0 224357.0 227389.0 135822.0 127741.0 64593.0 60608.0 320764.0 312829.0 100394.0 93350.0 159981.0 155476.0 238728.0 241444.0 183483.0 179018.0 165956.0 170149.0 103862.0 100912.0 182844.0 189830.0 67138.0 69266.0 111434.0 112936.0 282043.0 277881.0 149818.0 145762.0 287186.0 287395.0 196277.0 193212.0 170653.0 167380.0 123494.0 119091.0 106667.0 113965.0 177758.0 169228.0 109849.0 109735.0 89706.0 83699.0 105814.0 97865.0 205338.0 203519.0 192960.0 199086.0 280842.0 272674.0 57108.0 63495.0 140034.0 148135.0 289808.0 297692.0 279075.0 279587.0 245365.0 249851.0 76270.0 68795.0 88120.0 88461.0 112043.0 105770.0 250648.0 246410.0 92852.0 84514.0 110171.0 109736.0 155178.0 161762.0 139943.0 143565.0 263929.0 268701.0 44275.0 52073.0 124185.0 131866.0 153675.0 150345.0 101167.0 107939.0 96105.0 97414.0 126955.0 133796.0 238750.0 233058.0 88720.0 94953.0 110237.0 113779.0 135648.0 140215.0 36893.0 31861.0 134550.0 139846.0 208797.0 208225.0 314170.0 312230.0 250760.0 252484.0 248445.0 242216.0 116844.0 121091.0 160498.0 155671.0 89809.0 88942.0 110802.0 118974.0 147836.0 148365.0 89757.0 82210.0 40422.0 47048.0 33292.0 35337.0 108311.0 100915.0 169876.0 169977.0 213451.0 210164.0 92538.0 89435.0 327097.0 325969.0 190251.0 182282.0 65346.0 60282.0 209336.0 215192.0 100102.0 105724.0 305958.0 312811.0 136518.0 144566.0 141771.0 133739.0 88850.0 96959.0 88814.0 88170.0 83749.0 76242.0 188170.0 181724.0 176257.0 183114.0 219294.0 221494.0 114021.0 112529.0 78028.0 74759.0 158600.0 166591.0 183973.0 190633.0 137159.0 133236.0 269783.0 265195.0 119700.0 120848.0 113808.0 108260.0 45843.0 38771.0 127471.0 124066.0 131325.0 138409.0 0.0 158470.0 0.0 0.0 158470.0 158470.0
102177.0 109679.0 222342.0 226086.0 135005.0 142135.0 192835.0 192751.0 143177.0 147199.0 211398.0 216364.0 75676.0 80817.0 95068.0 91411.0 186539.0 179059.0 164164.0 156343.0 140747.0 142168.0 180349.0 172526.0 81174.0 84457.0 75084.0 78498.0 208560.0 206844.0 159119.0 164086.0 191700.0 193544.0 168584.0 163413.0 172222.0 166420.0 124850.0 121060.0 89199.0 94711.0 129679.0 129575.0 205896.0 208479.0 199028.0 191448.0 162894.0 166617.0 119965.0 124850.0 217268.0 211139.0 197172.0 191730.0 148561.0 151405.0 86491.0 87390.0 239442.0 242642.0 64459.0 72531.0 124149.0 115982.0 191029.0 195567.0 20556.0 16669.0 132322.0 140267.0 260732.0 265317.0 88159.0 92214.0 185857.0 178033.0 113104.0 121085.0 96878.0 92464.0 231534.0 224138.0 223554.0 216221.0 220209.0 215591.0 31579.0 28701.0 100704.0 94275.0 110557.0 114448.0 173963.0 179394.0 112154.0 111706.0 182518.0 186013.0 227928.0 235656.0 202888.0 198964.0 122677.0 120562.0 207941.0 206777.0 210223.0 213414.0 93760.0 86341.0 120401.0 115283.0 174691.0 172040.0 195588.0 203707.0 196710.0 201614.0 157477.0 155537.0 197841.0 194778.0 97988.0 93095.0 133594.0 128765.0 85675.0 89876.0 189257.0 182886.0 75595.0 73098.0 97785.0 105378.0 217291.0 211476.0 164826.0 172518.0 155105.0 149371.0 155705.0 149917.0 212006.0 217317.0 68145.0 68493.0 142547.0 134468.0 170417.0 168223.0 206726.0 201399.0 202490.0 198994.0 50865.0 57106.0 218659.0 220823.0 149265.0 156118.0 103757.0 106109.0 88619.0 89649.0 124359.0 128140.0 135524.0 127556.0 203425.0 195471.0 180652.0 179673.0 42206.0 49871.0 63526.0 67000.0 201470.0 195359.0 143376.0 149722.0 7151.0 11757.0 166018.0 166783.0 120399.0 125451.0 116178.0 112592.0 150783.0 158330.0 85477.0 80183.0 177392.0 172534.0 130820.0 136565.0 34986.0 35028.0 158470.0 0.0 158470.0 158470.0 0.0 0.0
102177.0 109679.0 222342.0 226086.0 135005.0 142135.0 192835.0 192751.0 143177.0 147199.0 211398.0 216364.0 75676.0 80817.0 95068.0 91411.0 186539.0 179059.0 164164.0 156343.0 140747.0 142168.0 180349.0 172526.0 81174.0 84457.0 75084.0 78498.0 208560.0 206844.0 159119.0 164086.0 191700.0 193544.0 168584.0 163413.0 172222.0 166420.0 124850.0 121060.0 89199.0 94711.0 129679.0 129575.0 205896.0 208479.0 199028.0 191448.0 162894.0 166617.0 119965.0 124850.0 217268.0 211139.0 197172.0 191730.0 148561.0 151405.0 86491.0 87390.0 239442.0 242642.0 64459.0 72531.0 124149.0 115982.0 191029.0 195567.0 20556.0 16669.0 132322.0 140267.0 260732.0 265317.0 88159.0 92214.0 185857.0 178033.0 113104.0 121085.0 96878.0 92464.0 231534.0 224138.0 223554.0 216221.0 220209.0 215591.0 31579.0 28701.0 100704.0 94275.0 110557.0 114448.0 173963.0 179394.0 112154.0 111706.0 182518.0 186013.0 227928.0 235656.0 202888.0 198964.0 122677.0 120562.0 207941.0 206777.0 210223.0 213414.0 93760.0 86341.0 120401.0 115283.0 174691.0 172040.0 195588.0 203707.0 196710.0 201614.0 157477.0 155537.0 197841.0 194778.0 97988.0 93095.0 133594.0 128765.0 85675.0 89876.0 189257.0 182886.0 75595.0 73098.0 97785.0 105378.0 217291.0 211476.0 164826.0 172518.0 155105.0 149371.0 155705.0 149917.0 212006.0 217317.0 68145.0 68493.0 142547.0 134468.0 170417.0 168223.0 206726.0 201399.0 202490.0 198994.0 50865.0 57106.0 218659.0 220823.0 149265.0 156118.0 103757.0 106109.0 88619.0 89649.0 124359.0 128140.0 135524.0 127556.0 203425.0 195471.0 180652.0 179673.0 42206.0 49871.0 63526.0 67000.0 201470.0 195359.0 143376.0 149722.0 7151.0 11757.0 166018.0 166783.0 120399.0 125451.0 116178.0 112592.0 150783.0 158330.0 85477.0 80183.0 177392.0 172534.0 130820.0 136565.0 34986.0 35028.0 158470.0 0.0 158470.0 158470.0 0.0 0.0
FIXED_EDGES_SECTION
1 2
3 4
5 6
7 8
9 10
11 12
13 14
15 16
17 18
19 20
21 22
23 24
25 26
27 28
29 30
31 32
33 34
35 36
37 38
39 40
41 42
43 44
45 46
47 48
49 50
51 52
53 54
55 56
57 58
59 60
61 62
63 64
65 66
67 68
69 70
71 72
73 74
75 76
77 78
79 80
81 82
83 84
85 86
87 88
89 90
91 92
93 94
95 96
97 98
99 100
101 102
103 104
105 106
107 108
109 110
111 112
113 114
115 116
117 118
119 120
121 122
123 124
125 126
127 128
129 130
131 132
133 134
135 136
137 138
139 140
141 142
143 144
145 146
147 148
149 150
151 152
153 154
155 156
157 158
159 160
161 162
163 164
165 166
167 168
169 170
171 172
173 174
175 176
177 178
179 180
181 182
183 184
185 186
187 188
189 190
191 192
193 194
195 196
197 198
199 200
-1 
DEMAND_SECTION
1 432
2 432
3 234
4 234
5 256
6 256
7 247
8 247
9 541
10 541
11 55
12 55
13 620
14 620
15 119
16 119
17 396
18 396
19 421
20 421
21 119
22 119
23 82
24 82
25 534
26 534
27 68
28 68
29 211
30 211
31 353
32 353
33 74
34 74
35 155
36 155
37 583
38 583
39 322
40 322
41 158
42 158
43 60
44 60
45 72
46 72
47 479
48 479
49 349
50 349
51 114
52 114
53 217
54 217
55 461
56 461
57 207
58 207
59 373
60 373
61 68
62 68
63 84
64 84
65 224
66 224
67 219
68 219
69 235
70 235
71 99
72 99
73 138
74 138
75 184
76 184
77 493
78 493
79 56
80 56
81 214
82 214
83 258
84 258
85 251
86 251
87 265
88 265
89 371
90 371
91 421
92 421
93 350
94 350
95 104
96 104
97 380
98 380
99 211
100 211
101 316
102 316
103 375
104 375
105 94
106 94
107 277
108 277
109 274
110 274
111 80
112 80
113 279
114 279
115 97
116 97
117 247
118 247
119 157
120 157
121 71
122 71
123 321
124 321
125 244
126 244
127 191
128 191
129 130
130 130
131 57
132 57
133 324
134 324
135 291
136 291
137 216
138 216
139 618
140 618
141 485
142 485
143 341
144 341
145 224
146 224
147 319
148 319
149 171
150 171
151 491
152 491
153 186
154 186
155 369
156 369
157 114
158 114
159 500
160 500
161 280
162 280
163 177
164 177
165 223
166 223
167 94
168 94
169 277
170 277
171 379
172 379
173 180
174 180
175 313
176 313
177 563
178 563
179 497
180 497
181 394
182 394
183 37
184 37
185 112
186 112
187 90
188 90
189 268
190 268
191 96
192 96
193 358
194 358
195 341
196 341
197 89
198 89
199 100
200 100
201 0
202 0
203 0
204 0
205 0
206 0
DEPOT_SECTION
201 
-1 
CAPACITIES_SECTION
25000 
27500 
30000 
-1 
EOF