NAME: GFS_20_1
TYPE: GFSP
DIMENSION: 130
VEHICLES: 3
CAPACITY: 7500.0
TRIP_DIST_LIMIT: 900000.0
TOTAL_DIST_LIMIT: 1400000.0
EDGE_WEIGHT_TYPE: EXPLICIT
EDGE_WEIGHT_FORMAT: FULL_MATRIX
EDGE_WEIGHT_SECTION
0.0 8448.0 62577.0 54987.0 113124.0 106441.0 23619.0 31617.0 120429.0 126645.0 152558.0 145969.0 75548.0 78514.0 158631.0 152739.0 145212.0 148979.0 120770.0 112872.0 86430.0 84839.0 56607.0 63258.0 179505.0 187251.0 131558.0 125853.0 61822.0 60056.0 58369.0 55603.0 180095.0 174971.0 210524.0 217674.0 96635.0 98600.0 31199.0 39149.0 48452.0 41220.0 234376.0 226143.0 147193.0 144160.0 237423.0 236758.0 231080.0 237814.0 136481.0 139057.0 25589.0 23314.0 148945.0 141325.0 71872.0 66253.0 201328.0 195244.0 65233.0 70988.0 15200.0 17989.0 94355.0 86724.0 24129.0 30089.0 8792.0 12569.0 76786.0 74489.0 79726.0 86389.0 125908.0 118577.0 56319.0 51753.0 205963.0 197796.0 82867.0 85057.0 41918.0 41384.0 32019.0 27074.0 128347.0 134294.0 119468.0 112940.0 168054.0 160961.0 174940.0 168109.0 170481.0 165656.0 16972.0 10343.0 171214.0 168137.0 79869.0 81903.0 249972.0 247113.0 9856.0 5542.0 86626.0 78796.0 151947.0 148350.0 111739.0 106650.0 117367.0 114410.0 81884.0 90064.0 37719.0 37723.0 140952.0 142631.0 135822.0 95068.0 135822.0 135822.0 135822.0 135822.0 95068.0 95068.0 95068.0 95068.0
8448.0 0.0 66473.0 59384.0 114746.0 108408.0 15185.0 23308.0 121772.0 127640.0 146712.0 139937.0 71388.0 75102.0 156885.0 151301.0 148065.0 151435.0 113325.0 105477.0 91985.0 89815.0 55480.0 61440.0 173615.0 181404.0 125864.0 119879.0 57251.0 56477.0 52594.0 50829.0 173767.0 168431.0 210465.0 217754.0 100798.0 103335.0 22764.0 30739.0 46615.0 40051.0 235389.0 227155.0 153637.0 150323.0 237087.0 236140.0 230159.0 236999.0 133682.0 136710.0 17702.0 14868.0 150966.0 143437.0 67326.0 61124.0 201422.0 195563.0 61401.0 66504.0 22901.0 23529.0 91633.0 84275.0 16859.0 21982.0 14016.0 20247.0 73979.0 70892.0 75085.0 81334.0 122402.0 115298.0 52975.0 48677.0 205042.0 196848.0 85279.0 88186.0 37685.0 38711.0 32098.0 29153.0 121111.0 127232.0 121787.0 115594.0 169167.0 162274.0 176634.0 170017.0 176901.0 172283.0 23057.0 18022.0 165059.0 161727.0 80042.0 82873.0 249740.0 247139.0 14913.0 6503.0 89048.0 81209.0 145227.0 141887.0 115531.0 110028.0 118537.0 116132.0 76242.0 84370.0 39431.0 41062.0 148817.0 150312.0 127741.0 91411.0 127741.0 127741.0 127741.0 127741.0 91411.0 91411.0 91411.0 91411.0
62577.0 66473.0 0.0 8434.0 55180.0 47500.0 74515.0 77143.0 176928.0 183908.0 212206.0 205140.0 66278.0 62168.0 220431.0 214223.0 196092.0 201270.0 174069.0 166669.0 127569.0 129439.0 118514.0 125536.0 238953.0 246794.0 191646.0 185279.0 62399.0 54637.0 118696.0 117302.0 238166.0 232268.0 156469.0 162907.0 144187.0 143206.0 81548.0 88388.0 110848.0 103398.0 176031.0 167868.0 176193.0 175863.0 184121.0 184743.0 180856.0 186716.0 198996.0 201375.0 81777.0 74951.0 88629.0 80883.0 133792.0 127536.0 146791.0 139894.0 127620.0 132962.0 65938.0 74249.0 156885.0 149187.0 82350.0 84484.0 69282.0 65444.0 139348.0 136979.0 141558.0 147733.0 188454.0 181151.0 51883.0 49188.0 156563.0 148284.0 24044.0 23354.0 104023.0 103961.0 93660.0 87115.0 182787.0 189591.0 58889.0 51645.0 110220.0 102577.0 115168.0 107846.0 198361.0 191760.0 46183.0 54178.0 229908.0 225972.0 36140.0 31902.0 196048.0 192163.0 52769.0 60333.0 141254.0 133868.0 208662.0 206112.0 160015.0 156936.0 174385.0 170017.0 142294.0 150328.0 29411.0 25472.0 152154.0 156957.0 183483.0 75084.0 183483.0 183483.0 183483.0 183483.0 75084.0 75084.0 75084.0 75084.0
54987.0 59384.0 8434.0 0.0 63539.0 55899.0 68403.0 71705.0 168510.0 175503.0 205715.0 198755.0 67658.0 64468.0 212357.0 206091.0 187703.0 192857.0 168749.0 161237.0 119369.0 121132.0 110540.0 117654.0 232535.0 240359.0 185023.0 178808.0 61999.0 54598.0 111874.0 110134.0 232068.0 226329.0 164743.0 171224.0 135830.0 134931.0 75717.0 82859.0 103032.0 95518.0 184465.0 176301.0 168853.0 168336.0 192371.0 192912.0 188892.0 194823.0 191203.0 193460.0 75280.0 68777.0 97044.0 89297.0 126573.0 120506.0 155084.0 148226.0 120188.0 125722.0 57677.0 66043.0 149123.0 141372.0 75611.0 78254.0 61377.0 57263.0 131637.0 129475.0 134378.0 140717.0 180883.0 173514.0 51416.0 48097.0 164495.0 156213.0 32296.0 31757.0 96700.0 96325.0 85696.0 79009.0 177298.0 183966.0 67311.0 60027.0 118635.0 111003.0 123593.0 116256.0 191182.0 184693.0 38332.0 46240.0 223661.0 219911.0 41956.0 38783.0 204340.0 200505.0 45272.0 53101.0 132825.0 125447.0 202806.0 200038.0 151660.0 148535.0 165978.0 161589.0 135516.0 143600.0 24618.0 19060.0 146171.0 150713.0 179018.0 78498.0 179018.0 179018.0 179018.0 179018.0 78498.0 78498.0 78498.0 78498.0
113124.0 114746.0 55180.0 63539.0 0.0 7996.0 118069.0 117489.0 231242.0 238025.0 252990.0 245380.0 75254.0 67280.0 271556.0 265807.0 251233.0 256330.0 208615.0 202097.0 182610.0 184607.0 169681.0 176060.0 278906.0 286763.0 233565.0 226391.0 82126.0 75235.0 163443.0 163949.0 276117.0 269310.0 101430.0 107758.0 199364.0 198346.0 123291.0 128188.0 161202.0 154236.0 121574.0 113360.0 228667.0 228982.0 129139.0 130072.0 126844.0 132327.0 248236.0 251439.0 126544.0 118742.0 36588.0 29453.0 180330.0 173160.0 91700.0 84728.0 175491.0 179635.0 119459.0 127351.0 206301.0 199013.0 128190.0 127848.0 120976.0 118553.0 188654.0 185096.0 187711.0 192813.0 236318.0 229514.0 75497.0 76519.0 103285.0 95087.0 31341.0 32994.0 151859.0 153455.0 145128.0 139483.0 218090.0 225534.0 12001.0 14422.0 55350.0 47970.0 61891.0 55362.0 250144.0 243148.0 98453.0 106475.0 268911.0 263875.0 37782.0 32468.0 140943.0 136986.0 103429.0 109542.0 195820.0 188305.0 245596.0 244425.0 215193.0 212049.0 228547.0 224520.0 186136.0 193683.0 75511.0 76024.0 199675.0 205448.0 213451.0 68145.0 213451.0 213451.0 213451.0 213451.0 68145.0 68145.0 68145.0 68145.0
106441.0 108408.0 47500.0 55899.0 7996.0 0.0 112418.0 112272.0 223953.0 230795.0 248251.0 240714.0 73407.0 65669.0 265027.0 259180.0 243592.0 248752.0 204737.0 198064.0 174784.0 176859.0 163045.0 169552.0 274342.0 282208.0 228607.0 221547.0 78999.0 71755.0 157856.0 158065.0 271869.0 265194.0 109315.0 115574.0 191670.0 190568.0 117932.0 123137.0 154697.0 147631.0 128799.0 120605.0 220673.0 220989.0 137038.0 138031.0 134839.0 140309.0 242054.0 245105.0 120781.0 113063.0 42561.0 35043.0 174509.0 167466.0 99564.0 92526.0 169440.0 173790.0 112286.0 120276.0 200038.0 192666.0 122282.0 122294.0 114138.0 111459.0 182384.0 179024.0 181971.0 187258.0 230371.0 223470.0 71629.0 72212.0 111265.0 103062.0 23940.0 25041.0 145749.0 147079.0 138393.0 132571.0 214127.0 221494.0 14091.0 11601.0 62761.0 55209.0 68544.0 61675.0 242160.0 235171.0 91438.0 99489.0 264484.0 259613.0 33908.0 27481.0 148788.0 144746.0 96681.0 103039.0 188442.0 180966.0 241451.0 240062.0 207496.0 204433.0 221301.0 217170.0 180761.0 188406.0 69021.0 69063.0 191841.0 197569.0 210164.0 68493.0 210164.0 210164.0 210164.0 210164.0 68493.0 68493.0 68493.0 68493.0
23619.0 15185.0 74515.0 68403.0 118069.0 112418.0 0.0 8532.0 126627.0 131847.0 137787.0 130654.0 64946.0 70028.0 155965.0 150990.0 155199.0 157898.0 100987.0 93304.0 103660.0 100694.0 57729.0 62139.0 164474.0 172323.0 117400.0 110858.0 50495.0 51806.0 45442.0 46128.0 163699.0 157926.0 210104.0 217615.0 110373.0 113735.0 8000.0 16024.0 48172.0 43368.0 236861.0 228655.0 166293.0 162578.0 236133.0 234682.0 228424.0 235277.0 130978.0 134834.0 8750.0 867.0 154640.0 147330.0 62341.0 55091.0 201376.0 195946.0 58164.0 61681.0 37761.0 36857.0 89677.0 83009.0 11448.0 10039.0 28053.0 35141.0 72316.0 67762.0 69649.0 74848.0 118447.0 111873.0 48980.0 45509.0 203308.0 195140.0 90444.0 94495.0 35361.0 39454.0 38317.0 38440.0 109235.0 115732.0 126243.0 120699.0 171111.0 164618.0 179570.0 173368.0 189474.0 185166.0 36012.0 32578.0 155394.0 151527.0 81477.0 85629.0 248934.0 246804.0 28015.0 20301.0 96108.0 88403.0 134417.0 131657.0 124400.0 118307.0 123137.0 121681.0 68571.0 76410.0 45465.0 49363.0 163424.0 164685.0 113808.0 85477.0 113808.0 113808.0 113808.0 113808.0 85477.0 85477.0 85477.0 85477.0
31617.0 23308.0 77143.0 71705.0 117489.0 112272.0 8532.0 0.0 132712.0 137650.0 136379.0 129023.0 59647.0 65379.0 159295.0 154648.0 162074.0 164519.0 97047.0 89567.0 111932.0 108801.0 63372.0 67041.0 162812.0 170680.0 116428.0 109534.0 45338.0 47794.0 46570.0 48759.0 161363.0 155276.0 207125.0 214739.0 118128.0 121704.0 6380.0 11266.0 53763.0 49757.0 234821.0 226645.0 174706.0 170923.0 232794.0 231082.0 224819.0 231672.0 133474.0 137756.0 14235.0 9169.0 154059.0 146906.0 64308.0 56608.0 198585.0 193399.0 61226.0 63761.0 46114.0 45389.0 92891.0 86655.0 17782.0 12281.0 36540.0 43476.0 75912.0 70668.0 71193.0 75643.0 120317.0 114090.0 45452.0 42604.0 199703.0 191536.0 91179.0 95848.0 39783.0 45020.0 45729.0 46531.0 105663.0 112449.0 126257.0 121125.0 169492.0 163244.0 178479.0 172533.0 197868.0 193609.0 42326.0 39909.0 153383.0 149130.0 80218.0 85052.0 245653.0 243774.0 34707.0 27703.0 103135.0 95512.0 131612.0 129316.0 131918.0 125655.0 129134.0 128057.0 68689.0 76194.0 47737.0 52714.0 171894.0 173195.0 108260.0 80183.0 108260.0 108260.0 108260.0 108260.0 80183.0 80183.0 80183.0 80183.0
120429.0 121772.0 176928.0 168510.0 231242.0 223953.0 126627.0 132712.0 0.0 7940.0 123330.0 122865.0 191522.0 196195.0 62453.0 54327.0 35462.0 34362.0 138236.0 132811.0 65542.0 58631.0 69451.0 67213.0 142516.0 147448.0 108777.0 111051.0 177072.0 177646.0 97617.0 90374.0 151810.0 152572.0 330586.0 337589.0 44697.0 51828.0 126726.0 128188.0 79024.0 83264.0 352752.0 344555.0 98046.0 90149.0 357670.0 357141.0 351507.0 358239.0 64488.0 58991.0 118638.0 125759.0 265554.0 257806.0 83235.0 90081.0 321256.0 314931.0 79333.0 82880.0 111870.0 104297.0 58453.0 58012.0 115335.0 120676.0 111830.0 112962.0 65687.0 73609.0 82648.0 86971.0 71080.0 65697.0 174381.0 170278.0 326384.0 318223.0 200016.0 200265.0 93817.0 87727.0 89734.0 93366.0 137624.0 137147.0 235817.0 228502.0 286592.0 279149.0 292091.0 284762.0 112937.0 114245.0 133145.0 125293.0 141802.0 144903.0 200091.0 201462.0 370136.0 367044.0 129357.0 125138.0 35929.0 43077.0 140571.0 132867.0 36514.0 31472.0 4004.0 7946.0 94227.0 95548.0 157451.0 155508.0 133436.0 128083.0 169876.0 212006.0 169876.0 169876.0 169876.0 169876.0 212006.0 212006.0 212006.0 212006.0
126645.0 127640.0 183908.0 175503.0 238025.0 230795.0 131847.0 137650.0 7940.0 0.0 119919.0 119937.0 196792.0 201662.0 55272.0 47164.0 36484.0 33588.0 137800.0 132729.0 73460.0 66570.0 74279.0 71337.0 138079.0 142727.0 106392.0 109215.0 182341.0 183173.0 100819.0 93938.0 147804.0 148959.0 337036.0 344092.0 52560.0 59574.0 131566.0 132633.0 83888.0 88591.0 359579.0 351373.0 103867.0 95883.0 364036.0 363401.0 357631.0 364424.0 59751.0 53659.0 123695.0 130981.0 272533.0 264789.0 85580.0 92780.0 327752.0 321495.0 82427.0 85314.0 118576.0 110851.0 59015.0 59656.0 120477.0 125509.0 118128.0 119577.0 68190.0 75989.0 84276.0 87959.0 67826.0 63135.0 179984.0 175962.0 332523.0 324349.0 206855.0 207258.0 98348.0 92636.0 95544.0 99574.0 136628.0 135705.0 242785.0 235523.0 293363.0 285965.0 299039.0 291754.0 117761.0 119491.0 139756.0 131846.0 137915.0 141388.0 206445.0 207995.0 376546.0 373547.0 135724.0 131233.0 43350.0 50243.0 138008.0 130212.0 43685.0 39119.0 9542.0 15885.0 95608.0 96258.0 163890.0 162164.0 140521.0 134995.0 169977.0 217317.0 169977.0 169977.0 169977.0 169977.0 217317.0 217317.0 217317.0 217317.0
152558.0 146712.0 212206.0 205715.0 252990.0 248251.0 137787.0 136379.0 123330.0 119919.0 0.0 8072.0 184552.0 192329.0 84717.0 88184.0 155967.0 151473.0 52718.0 55813.0 167280.0 159457.0 109526.0 101754.0 26955.0 34698.0 21207.0 26930.0 173276.0 178929.0 94212.0 97578.0 30421.0 29401.0 334763.0 342648.0 153796.0 161988.0 131189.0 125283.0 111816.0 119190.0 365664.0 357688.0 218544.0 211082.0 359125.0 357185.0 350913.0 357766.0 61910.0 69646.0 130461.0 137310.0 289324.0 282428.0 82529.0 86681.0 326886.0 322844.0 90935.0 83541.0 157127.0 149358.0 76261.0 83015.0 130149.0 127769.0 148871.0 155912.0 86775.0 84025.0 74879.0 67220.0 52250.0 58162.0 177981.0 176533.0 325797.0 317630.0 227557.0 232095.0 111469.0 114830.0 128806.0 137004.0 43775.0 36711.0 262311.0 257425.0 302448.0 296901.0 312643.0 307258.0 235586.0 236108.0 169379.0 162689.0 20253.0 21613.0 215255.0 220820.0 372053.0 370924.0 161469.0 153176.0 130932.0 130243.0 23189.0 16390.0 154690.0 147132.0 120200.0 127132.0 70691.0 62504.0 183247.0 186847.0 244705.0 241347.0 83749.0 203425.0 83749.0 83749.0 83749.0 83749.0 203425.0 203425.0 203425.0 203425.0
145969.0 139937.0 205140.0 198755.0 245380.0 240714.0 130654.0 129023.0 122865.0 119937.0 8072.0 0.0 176631.0 184429.0 88136.0 90968.0 156254.0 152123.0 44794.0 47749.0 164075.0 156330.0 104608.0 96971.0 33823.0 41680.0 16121.0 20133.0 165447.0 171169.0 87604.0 91381.0 34958.0 32042.0 326809.0 334694.0 151386.0 159515.0 123932.0 117880.0 106360.0 113595.0 357732.0 349765.0 216822.0 209482.0 351171.0 349231.0 342959.0 349812.0 63503.0 71489.0 123475.0 130198.0 281670.0 274807.0 76789.0 80466.0 319044.0 314887.0 85400.0 77817.0 151012.0 143377.0 73115.0 79420.0 123282.0 120660.0 142547.0 149717.0 82318.0 78990.0 69305.0 61461.0 52150.0 57200.0 170272.0 168890.0 317843.0 309676.0 220181.0 224819.0 105231.0 108943.0 123045.0 131237.0 36032.0 29230.0 254784.0 249973.0 294623.0 289116.0 304884.0 299545.0 234412.0 234659.0 162718.0 156159.0 25396.0 24221.0 207626.0 213265.0 364098.0 362970.0 154752.0 146420.0 128253.0 127110.0 18996.0 11157.0 153084.0 145398.0 119576.0 126210.0 64276.0 56101.0 176086.0 179834.0 241595.0 238471.0 76242.0 195471.0 76242.0 76242.0 76242.0 76242.0 195471.0 195471.0 195471.0 195471.0
75548.0 71388.0 66278.0 67658.0 75254.0 73407.0 64946.0 59647.0 191522.0 196792.0 184552.0 176631.0 0.0 8150.0 218164.0 213831.0 219247.0 222333.0 136643.0 130833.0 161700.0 160373.0 122630.0 126648.0 209277.0 217027.0 166728.0 158962.0 14452.0 16043.0 104225.0 107774.0 205059.0 197759.0 150656.0 158504.0 172024.0 174148.0 65968.0 67101.0 113043.0 108265.0 181118.0 173136.0 220716.0 218357.0 175242.0 173303.0 167031.0 173884.0 191420.0 196241.0 73205.0 65811.0 108925.0 103054.0 122399.0 114360.0 142747.0 138407.0 120371.0 121991.0 89304.0 93535.0 151910.0 146010.0 76335.0 71927.0 84120.0 87024.0 135284.0 129602.0 128577.0 131692.0 177396.0 171786.0 20052.0 24843.0 141915.0 133747.0 62433.0 70226.0 99423.0 104298.0 102338.0 100489.0 146352.0 154031.0 86680.0 84739.0 118612.0 113692.0 129756.0 125257.0 243936.0 238523.0 71321.0 76120.0 198704.0 192961.0 41056.0 49018.0 188183.0 186931.0 69796.0 70055.0 160115.0 152305.0 174340.0 174146.0 186893.0 181410.0 188060.0 186422.0 123724.0 130169.0 51250.0 58768.0 207083.0 210360.0 140034.0 20556.0 140034.0 140034.0 140034.0 140034.0 20556.0 20556.0 20556.0 20556.0
78514.0 75102.0 62168.0 64468.0 67280.0 65669.0 70028.0 65379.0 196195.0 201662.0 192329.0 184429.0 8150.0 0.0 224458.0 219960.0 223166.0 226490.0 144680.0 138810.0 163985.0 163036.0 127731.0 132083.0 217172.0 224935.0 174335.0 166617.0 20253.0 18629.0 110743.0 113923.0 213061.0 205793.0 143367.0 151171.0 175145.0 176920.0 71752.0 73501.0 118193.0 113073.0 173403.0 165392.0 221952.0 219877.0 168264.0 166344.0 160072.0 166925.0 198022.0 202678.0 78509.0 70884.0 100782.0 94937.0 128871.0 120892.0 135316.0 130822.0 126479.0 128424.0 91614.0 96452.0 158104.0 152011.0 81475.0 77605.0 87231.0 89462.0 141269.0 135814.0 135227.0 138593.0 184193.0 178435.0 22208.0 26780.0 134956.0 126789.0 55986.0 63925.0 104993.0 109482.0 106639.0 104247.0 154378.0 162043.0 78792.0 77083.0 110587.0 105600.0 121650.0 117117.0 245095.0 239483.0 72576.0 78042.0 206640.0 200948.0 34066.0 42107.0 181187.0 179762.0 71957.0 73125.0 164133.0 156299.0 182344.0 182074.0 190226.0 184980.0 192805.0 190884.0 130745.0 137342.0 50715.0 57786.0 206549.0 210119.0 148135.0 16669.0 148135.0 148135.0 148135.0 148135.0 16669.0 16669.0 16669.0 16669.0
158631.0 156885.0 220431.0 212357.0 271556.0 265027.0 155965.0 159295.0 62453.0 55272.0 84717.0 88136.0 218164.0 224458.0 0.0 8126.0 83725.0 77010.0 121595.0 119490.0 126212.0 118693.0 102055.0 95496.0 94648.0 97329.0 80265.0 86600.0 204234.0 207086.0 114049.0 110563.0 106609.0 110230.0 366068.0 373571.0 106259.0 113847.0 152921.0 151064.0 110354.0 117412.0 392183.0 383953.0 158004.0 149933.0 392011.0 390374.0 384108.0 390961.0 29522.0 22637.0 147215.0 155171.0 307561.0 299952.0 95864.0 103979.0 357318.0 351794.0 98071.0 96223.0 154942.0 146438.0 66405.0 72989.0 144860.0 147280.0 151262.0 155144.0 83651.0 88653.0 90261.0 88942.0 45521.0 48315.0 204623.0 201407.0 358991.0 350824.0 241497.0 243415.0 120712.0 118212.0 126861.0 133349.0 116637.0 112701.0 278095.0 271489.0 326026.0 319159.0 333441.0 326701.0 169728.0 172411.0 174327.0 166285.0 98037.0 103749.0 236615.0 239751.0 404841.0 402768.0 168445.0 162018.0 90959.0 95488.0 107044.0 99290.0 98901.0 93802.0 61690.0 69797.0 97643.0 93676.0 196056.0 196277.0 195789.0 190251.0 154576.0 238386.0 154576.0 154576.0 154576.0 154576.0 238386.0 238386.0 238386.0 238386.0
152739.0 151301.0 214223.0 206091.0 265807.0 259180.0 150990.0 154648.0 54327.0 47164.0 88184.0 90968.0 213831.0 219960.0 8126.0 0.0 76301.0 69807.0 122064.0 119445.0 118208.0 110723.0 96137.0 89864.0 99948.0 103071.0 81840.0 87647.0 199783.0 202386.0 110035.0 106065.0 111530.0 114681.0 361016.0 368468.0 98182.0 105747.0 148268.0 146767.0 104691.0 111571.0 386689.0 378456.0 150094.0 142031.0 387123.0 385617.0 379346.0 386199.0 29260.0 21351.0 142253.0 150182.0 301675.0 294041.0 91922.0 100071.0 352187.0 346561.0 93486.0 92205.0 148543.0 140082.0 61935.0 68026.0 139776.0 142534.0 145201.0 148833.0 78762.0 84239.0 86774.0 86136.0 44899.0 46348.0 199822.0 196492.0 354230.0 346063.0 235558.0 237296.0 115646.0 112743.0 120836.0 127108.0 117688.0 114230.0 272136.0 265440.0 320461.0 313518.0 327663.0 320848.0 162113.0 164674.0 168210.0 160150.0 102620.0 107929.0 231214.0 234161.0 399922.0 397725.0 162516.0 156283.0 83200.0 87919.0 109961.0 102108.0 90780.0 85681.0 53581.0 61679.0 94881.0 91514.0 190298.0 190289.0 187674.0 182153.0 154719.0 234156.0 154719.0 154719.0 154719.0 154719.0 234156.0 234156.0 234156.0 234156.0
145212.0 148065.0 196092.0 187703.0 251233.0 243592.0 155199.0 162074.0 35462.0 36484.0 155967.0 156254.0 219247.0 223166.0 83725.0 76301.0 0.0 8160.0 173638.0 168266.0 71431.0 67510.0 100339.0 99617.0 172984.0 177161.0 142862.0 145677.0 204914.0 204542.0 131043.0 123328.0 183241.0 184793.0 352126.0 358782.0 52157.0 54881.0 156444.0 158925.0 109553.0 112397.0 371732.0 363630.0 76898.0 68870.0 379601.0 379670.0 374779.0 381173.0 94859.0 88005.0 147839.0 154339.0 283841.0 276118.0 117772.0 124210.0 342561.0 335840.0 113096.0 117336.0 134240.0 127772.0 93910.0 93191.0 144332.0 150492.0 136421.0 135839.0 100233.0 108188.0 117715.0 122312.0 104104.0 99607.0 201014.0 196629.0 349823.0 341599.0 219924.0 219028.0 124828.0 117924.0 117041.0 118919.0 172827.0 172087.0 254417.0 246750.0 306275.0 298565.0 310458.0 302824.0 86211.0 89417.0 155548.0 148208.0 173508.0 177318.0 222995.0 223325.0 391770.0 388131.0 153194.0 150382.0 59153.0 66945.0 174433.0 166617.0 36526.0 39237.0 39388.0 36216.0 129391.0 130952.0 180401.0 177226.0 120518.0 113709.0 205338.0 239442.0 205338.0 205338.0 205338.0 205338.0 239442.0 239442.0 239442.0 239442.0
148979.0 151435.0 201270.0 192857.0 256330.0 248752.0 157898.0 164519.0 34362.0 33588.0 151473.0 152123.0 222333.0 226490.0 77010.0 69807.0 8160.0 0.0 171387.0 166296.0 77992.0 73588.0 102023.0 100666.0 167637.0 171577.0 139182.0 142394.0 207944.0 207863.0 131635.0 124171.0 178191.0 180044.0 356975.0 363711.0 58057.0 61489.0 158750.0 160848.0 111416.0 114762.0 377131.0 369006.0 84889.0 76884.0 384376.0 384306.0 379233.0 385713.0 89906.0 82753.0 150308.0 157033.0 289312.0 281576.0 117577.0 124338.0 347456.0 340818.0 113457.0 117208.0 138547.0 131791.0 92337.0 92319.0 146860.0 152749.0 140203.0 140037.0 100021.0 107952.0 116974.0 121112.0 100042.0 96038.0 204407.0 200097.0 354211.0 346009.0 224994.0 224326.0 126561.0 119944.0 119996.0 122371.0 170135.0 169050.0 259796.0 252187.0 311489.0 303827.0 315937.0 308354.0 93535.0 97009.0 159928.0 152445.0 168584.0 172668.0 227406.0 227978.0 396618.0 393100.0 157226.0 154046.0 62411.0 70254.0 170525.0 162660.0 42823.0 44441.0 38364.0 36891.0 128508.0 129565.0 184722.0 181823.0 128678.0 121866.0 203519.0 242642.0 203519.0 203519.0 203519.0 203519.0 242642.0 242642.0 242642.0 242642.0
120770.0 113325.0 174069.0 168749.0 208615.0 204737.0 100987.0 97047.0 138236.0 137800.0 52718.0 44794.0 136643.0 144680.0 121595.0 122064.0 173638.0 171387.0 0.0 8000.0 162266.0 155351.0 95688.0 89912.0 74009.0 81486.0 43029.0 35505.0 126882.0 133415.0 66908.0 73984.0 68525.0 61116.0 286443.0 294328.0 154854.0 162236.0 93285.0 85906.0 93263.0 98720.0 317399.0 309464.0 221902.0 215415.0 310805.0 308865.0 302593.0 309446.0 92809.0 100765.0 95667.0 100765.0 244231.0 237746.0 65791.0 64669.0 278678.0 274516.0 74447.0 66734.0 129597.0 123410.0 80163.0 82718.0 96663.0 91759.0 119791.0 127706.0 79678.0 72949.0 61349.0 54290.0 77378.0 78026.0 133166.0 132588.0 277477.0 269310.0 185994.0 191532.0 85830.0 92160.0 106094.0 113667.0 9783.0 17574.0 218801.0 214766.0 255254.0 250235.0 266234.0 261405.0 242108.0 240848.0 136244.0 131063.0 62922.0 56574.0 170972.0 177344.0 323732.0 322604.0 128055.0 119697.0 131534.0 127802.0 37857.0 38942.0 160947.0 152943.0 134385.0 139106.0 50482.0 45297.0 144670.0 149737.0 238053.0 236407.0 33292.0 155105.0 33292.0 33292.0 33292.0 33292.0 155105.0 155105.0 155105.0 155105.0
112872.0 105477.0 166669.0 161237.0 202097.0 198064.0 93304.0 89567.0 132811.0 132729.0 55813.0 47749.0 130833.0 138810.0 119490.0 119445.0 168266.0 166296.0 8000.0 0.0 154909.0 148079.0 88136.0 82542.0 78764.0 86413.0 43208.0 35168.0 120644.0 126994.0 58950.0 66105.0 74285.0 67236.0 280709.0 288594.0 147962.0 155247.0 85658.0 78379.0 85480.0 90839.0 311665.0 303730.0 214960.0 208565.0 305071.0 303131.0 296859.0 303712.0 90303.0 98094.0 87842.0 93063.0 237884.0 231315.0 58407.0 56945.0 272944.0 268782.0 66942.0 59327.0 121610.0 115410.0 74456.0 76485.0 88779.0 83989.0 111819.0 119727.0 72842.0 65892.0 54351.0 47611.0 74554.0 74427.0 126602.0 125860.0 271743.0 263576.0 179003.0 184420.0 77854.0 84234.0 98135.0 105687.0 16165.0 23438.0 212144.0 207969.0 249386.0 244233.0 260183.0 255227.0 235373.0 233972.0 128428.0 123175.0 67963.0 62142.0 164385.0 170627.0 317998.0 316870.0 120238.0 111867.0 124747.0 120795.0 43598.0 43503.0 154468.0 146469.0 128915.0 133347.0 43191.0 38573.0 137259.0 142204.0 230449.0 228894.0 35337.0 149371.0 35337.0 35337.0 35337.0 35337.0 149371.0 149371.0 149371.0 149371.0
86430.0 91985.0 127569.0 119369.0 182610.0 174784.0 103660.0 111932.0 65542.0 73460.0 167280.0 164075.0 161700.0 163985.0 126212.0 118208.0 71431.0 77992.0 162266.0 154909.0 0.0 7971.0 67177.0 72369.0 191228.0 197558.0 148069.0 146885.0 148205.0 145917.0 100238.0 91771.0 197655.0 196053.0 284012.0 290356.0 21210.0 16551.0 107881.0 113204.0 72108.0 69772.0 301820.0 293792.0 63636.0 59170.0 311682.0 312281.0 308141.0 314161.0 119700.0 116899.0 98816.0 102910.0 213889.0 206218.0 96505.0 98749.0 274305.0 267309.0 88060.0 95582.0 72422.0 68639.0 91044.0 84728.0 95195.0 102898.0 78242.0 74677.0 83809.0 89639.0 101226.0 108849.0 119321.0 111684.0 142036.0 137316.0 283560.0 275283.0 151612.0 149867.0 85210.0 77146.0 68238.0 65520.0 165532.0 168045.0 184819.0 177001.0 237032.0 229192.0 240429.0 232672.0 86422.0 82912.0 92030.0 85970.0 187414.0 188177.0 157629.0 156782.0 323553.0 319505.0 92043.0 91971.0 37521.0 37039.0 178340.0 171725.0 35191.0 35575.0 65220.0 57626.0 111784.0 117489.0 116370.0 111747.0 77528.0 74762.0 188170.0 180652.0 188170.0 188170.0 188170.0 188170.0 180652.0 180652.0 180652.0 180652.0
84839.0 89815.0 129439.0 121132.0 184607.0 176859.0 100694.0 108801.0 58631.0 66570.0 159457.0 156330.0 160373.0 163036.0 118693.0 110723.0 67510.0 73588.0 155351.0 148079.0 7971.0 0.0 60820.0 65586.0 183316.0 189625.0 140351.0 139291.0 146632.0 144759.0 94310.0 85787.0 189817.0 188285.0 285871.0 292346.0 15586.0 14039.0 104429.0 109347.0 66378.0 64686.0 304526.0 296454.0 68712.0 63592.0 313479.0 313880.0 309475.0 315627.0 111766.0 109034.0 95330.0 99914.0 216590.0 208885.0 89692.0 92301.0 276216.0 269331.0 81409.0 88793.0 71493.0 66869.0 83255.0 77056.0 91679.0 99221.0 76383.0 73582.0 76494.0 82540.0 94151.0 101677.0 111358.0 103730.0 140941.0 136275.0 284753.0 276486.0 153429.0 152087.0 80055.0 71978.0 64138.0 62276.0 158400.0 160759.0 187303.0 179564.0 239363.0 231584.0 243186.0 235502.0 91022.0 88050.0 91846.0 85332.0 179572.0 180406.0 158346.0 157902.0 325472.0 321592.0 91150.0 90353.0 29556.0 29228.0 170758.0 164083.0 30990.0 29860.0 58067.0 50687.0 104900.0 110398.0 116507.0 112342.0 85273.0 82289.0 181724.0 179673.0 181724.0 181724.0 181724.0 181724.0 179673.0 179673.0 179673.0 179673.0
56607.0 55480.0 118514.0 110540.0 169681.0 163045.0 57729.0 63372.0 69451.0 74279.0 109526.0 104608.0 122630.0 127731.0 102055.0 96137.0 100339.0 102023.0 95688.0 88136.0 67177.0 60820.0 0.0 8006.0 135761.0 143006.0 88636.0 85410.0 108191.0 109386.0 33957.0 25416.0 139500.0 136298.0 265899.0 273214.0 63842.0 69981.0 57312.0 58859.0 9609.0 15469.0 290727.0 282493.0 129175.0 123490.0 292421.0 291329.0 285205.0 292054.0 81084.0 82953.0 49449.0 56868.0 205551.0 197927.0 30147.0 31576.0 256887.0 251043.0 21268.0 29148.0 53825.0 45255.0 39571.0 31524.0 46303.0 51257.0 49250.0 53668.0 23503.0 25632.0 36237.0 44285.0 72441.0 64608.0 106364.0 102557.0 260088.0 251921.0 139456.0 141396.0 24539.0 18360.0 24855.0 31880.0 99767.0 103142.0 176049.0 169437.0 224445.0 217440.0 231527.0 224716.0 150849.0 148471.0 72345.0 64336.0 129614.0 128655.0 135518.0 138162.0 305111.0 302585.0 66401.0 60205.0 43455.0 36989.0 116010.0 110317.0 74461.0 67101.0 65814.0 65214.0 45453.0 52090.0 94182.0 94223.0 142375.0 140761.0 120994.0 143177.0 120994.0 120994.0 120994.0 120994.0 143177.0 143177.0 143177.0 143177.0
63258.0 61440.0 125536.0 117654.0 176060.0 169552.0 62139.0 67041.0 67213.0 71337.0 101754.0 96971.0 126648.0 132083.0 95496.0 89864.0 99617.0 100666.0 89912.0 82542.0 72369.0 65586.0 8006.0 0.0 127897.0 135109.0 80949.0 77960.0 112272.0 113945.0 31877.0 23792.0 131814.0 128758.0 271457.0 278841.0 66937.0 73626.0 60791.0 61344.0 14858.0 22139.0 296825.0 288592.0 133245.0 127255.0 297804.0 296552.0 290344.0 297161.0 73642.0 75846.0 53576.0 61296.0 212099.0 204508.0 24136.0 27254.0 262534.0 256809.0 15938.0 23219.0 61390.0 52842.0 31833.0 23863.0 50713.0 54771.0 56277.0 61104.0 15497.0 18214.0 29358.0 37308.0 64586.0 56802.0 111085.0 107460.0 265228.0 257060.0 146094.0 148268.0 27289.0 22983.0 32055.0 39454.0 93490.0 96522.0 182695.0 176198.0 230605.0 223691.0 237945.0 231223.0 154470.0 152455.0 79359.0 71414.0 121883.0 121077.0 141379.0 144309.0 310543.0 308163.0 73105.0 66525.0 45090.0 39568.0 108788.0 102933.0 76219.0 68559.0 63407.0 63793.0 39434.0 45512.0 100563.0 100975.0 148505.0 146594.0 116316.0 147199.0 116316.0 116316.0 116316.0 116316.0 147199.0 147199.0 147199.0 147199.0
179505.0 173615.0 238953.0 232535.0 278906.0 274342.0 164474.0 162812.0 142516.0 138079.0 26955.0 33823.0 209277.0 217172.0 94648.0 99948.0 172984.0 167637.0 74009.0 78764.0 191228.0 183316.0 135761.0 127897.0 0.0 7871.0 48100.0 53744.0 198496.0 204418.0 121150.0 124515.0 13306.0 20429.0 359266.0 367151.0 176502.0 184756.0 157750.0 151650.0 138442.0 145889.0 390186.0 382275.0 239628.0 231952.0 383628.0 381688.0 375416.0 382269.0 78344.0 84980.0 157259.0 164015.0 315110.0 308308.0 109345.0 113624.0 351501.0 347339.0 117641.0 110349.0 184032.0 176220.0 100812.0 108036.0 157012.0 154477.0 175819.0 182837.0 112688.0 110435.0 101638.0 94068.0 72858.0 79962.0 203644.0 202389.0 350300.0 342133.0 253949.0 258627.0 138410.0 141673.0 155583.0 163780.0 64297.0 56518.0 288422.0 283685.0 327607.0 322238.0 338077.0 332856.0 255451.0 256560.0 196315.0 189642.0 11410.0 19257.0 241131.0 246876.0 396555.0 395427.0 188391.0 180086.0 154244.0 154267.0 36858.0 35263.0 175898.0 168648.0 139774.0 147237.0 97645.0 89457.0 209908.0 213632.0 268280.0 264529.0 101167.0 227928.0 101167.0 101167.0 101167.0 101167.0 227928.0 227928.0 227928.0 227928.0
187251.0 181404.0 246794.0 240359.0 286763.0 282208.0 172323.0 170680.0 147448.0 142727.0 34698.0 41680.0 217027.0 224935.0 97329.0 103071.0 177161.0 171577.0 81486.0 86413.0 197558.0 189625.0 143006.0 135109.0 7871.0 0.0 55760.0 61555.0 206302.0 212247.0 128910.0 132179.0 16595.0 24950.0 366994.0 374879.0 182435.0 190696.0 165612.0 159520.0 145873.0 153358.0 397890.0 389988.0 244941.0 237205.0 391357.0 389416.0 383144.0 389997.0 83016.0 89267.0 165087.0 171862.0 322958.0 316162.0 116901.0 121299.0 359230.0 355067.0 125126.0 117900.0 191645.0 183794.0 107517.0 114871.0 164820.0 162323.0 183496.0 190475.0 119828.0 117779.0 109162.0 101654.0 78669.0 86004.0 211487.0 210245.0 358028.0 349861.0 261820.0 266493.0 146077.0 149237.0 163098.0 171291.0 71739.0 63944.0 296288.0 291555.0 335395.0 330045.0 345893.0 340687.0 260350.0 261649.0 204077.0 197372.0 18572.0 25729.0 248987.0 254740.0 404284.0 403155.0 196167.0 187870.0 160415.0 160673.0 44010.0 42921.0 181351.0 174214.0 144832.0 152426.0 105375.0 97190.0 217762.0 221465.0 274414.0 270528.0 107939.0 235656.0 107939.0 107939.0 107939.0 107939.0 235656.0 235656.0 235656.0 235656.0
131558.0 125864.0 191646.0 185023.0 233565.0 228607.0 117400.0 116428.0 108777.0 106392.0 21207.0 16121.0 166728.0 174335.0 80265.0 81840.0 142862.0 139182.0 43029.0 43208.0 148069.0 140351.0 88636.0 80949.0 48100.0 55760.0 0.0 8219.0 154887.0 160182.0 73287.0 76422.0 50867.0 48153.0 317155.0 325061.0 135706.0 143795.0 111038.0 105472.0 90674.0 98014.0 347715.0 339678.0 201492.0 194239.0 341557.0 339617.0 333345.0 340198.0 53008.0 61161.0 109870.0 116891.0 270021.0 263018.0 61324.0 65539.0 309425.0 305129.0 69765.0 62338.0 135936.0 128153.0 57224.0 63368.0 109413.0 107363.0 127737.0 134737.0 66217.0 63051.0 53694.0 46013.0 39487.0 43257.0 159011.0 157314.0 308229.0 300062.0 207529.0 211862.0 90319.0 93622.0 107605.0 115804.0 36698.0 32446.0 242630.0 237552.0 283865.0 278120.0 293735.0 288164.0 219463.0 219503.0 148422.0 141647.0 41011.0 40342.0 195931.0 201255.0 354485.0 353356.0 140561.0 132306.0 112466.0 111144.0 31851.0 24343.0 137904.0 130140.0 105341.0 111661.0 49678.0 41512.0 162851.0 166231.0 225596.0 222547.0 76270.0 185857.0 76270.0 76270.0 76270.0 76270.0 185857.0 185857.0 185857.0 185857.0
125853.0 119879.0 185279.0 178808.0 226391.0 221547.0 110858.0 109534.0 111051.0 109215.0 26930.0 20133.0 158962.0 166617.0 86600.0 87647.0 145677.0 142394.0 35505.0 35168.0 146885.0 139291.0 85410.0 77960.0 53744.0 61555.0 8219.0 0.0 147277.0 152698.0 67484.0 71284.0 54824.0 50956.0 309287.0 317204.0 135540.0 143516.0 104291.0 98479.0 86654.0 93774.0 340018.0 331996.0 201893.0 194794.0 333733.0 331793.0 325521.0 332374.0 58491.0 66604.0 103543.0 110380.0 262793.0 255840.0 56945.0 60371.0 301606.0 297368.0 65686.0 57981.0 130918.0 123327.0 56937.0 62307.0 103268.0 100840.0 122417.0 129605.0 63833.0 59801.0 49626.0 41667.0 43936.0 46462.0 151612.0 150023.0 300405.0 292238.0 200706.0 205193.0 85119.0 88954.0 103110.0 111291.0 30063.0 27031.0 235593.0 230629.0 276351.0 270676.0 286341.0 280845.0 220426.0 220164.0 142621.0 136035.0 45493.0 43440.0 188700.0 194147.0 346660.0 345532.0 134672.0 126355.0 112106.0 110220.0 31470.0 25025.0 138674.0 130806.0 107474.0 113397.0 44148.0 35979.0 156320.0 159926.0 224349.0 221580.0 68795.0 178033.0 68795.0 68795.0 68795.0 68795.0 178033.0 178033.0 178033.0 178033.0
61822.0 57251.0 62399.0 61999.0 82126.0 78999.0 50495.0 45338.0 177072.0 182341.0 173276.0 165447.0 14452.0 20253.0 204234.0 199783.0 204914.0 207944.0 126882.0 120644.0 148205.0 146632.0 108191.0 112272.0 198496.0 206302.0 154887.0 147277.0 0.0 8000.0 90490.0 93725.0 194906.0 187851.0 163425.0 171192.0 158018.0 160328.0 51688.0 53248.0 98609.0 93813.0 192902.0 184836.0 207974.0 205377.0 188473.0 186570.0 180298.0 187151.0 177769.0 182431.0 58783.0 51361.0 117369.0 110986.0 108618.0 100639.0 155254.0 150577.0 106297.0 108174.0 75984.0 79765.0 137900.0 131874.0 61892.0 57607.0 70263.0 73616.0 121137.0 115603.0 114982.0 118414.0 163971.0 158187.0 10588.0 14329.0 155182.0 147014.0 63979.0 71136.0 85079.0 89866.0 87949.0 86268.0 136469.0 144028.0 92857.0 89770.0 129176.0 123744.0 139615.0 134584.0 231239.0 226010.0 59143.0 63223.0 188147.0 182720.0 45165.0 52424.0 201390.0 199887.0 56746.0 56292.0 145769.0 137969.0 164241.0 163574.0 172779.0 167202.0 173608.0 171989.0 110632.0 117336.0 41911.0 49787.0 196200.0 199128.0 131325.0 34986.0 131325.0 131325.0 131325.0 131325.0 34986.0 34986.0 34986.0 34986.0
60056.0 56477.0 54637.0 54598.0 75235.0 71755.0 51806.0 47794.0 177646.0 183173.0 178929.0 171169.0 16043.0 18629.0 207086.0 202386.0 204542.0 207863.0 133415.0 126994.0 145917.0 144759.0 109386.0 113945.0 204418.0 212247.0 160182.0 152698.0 8000.0 0.0 93948.0 96551.0 201162.0 194231.0 159506.0 167178.0 156680.0 158595.0 54165.0 56792.0 99887.0 94605.0 188087.0 179969.0 204691.0 202370.0 185021.0 183289.0 177025.0 183878.0 181142.0 185530.0 60409.0 52652.0 110896.0 104336.0 111922.0 104075.0 151100.0 146140.0 109014.0 111416.0 73495.0 78030.0 140681.0 134365.0 63244.0 59852.0 68731.0 71265.0 123625.0 118462.0 118569.0 122428.0 167692.0 161669.0 4016.0 8801.0 151909.0 143742.0 56086.0 63179.0 87018.0 91210.0 88037.0 85626.0 142929.0 150421.0 85709.0 82347.0 123686.0 117987.0 133717.0 128441.0 227905.0 222481.0 55279.0 60173.0 194202.0 188944.0 37848.0 44864.0 197892.0 196107.0 53912.0 54624.0 145505.0 137670.0 170558.0 169652.0 171699.0 166397.0 174277.0 172289.0 114893.0 121857.0 35838.0 43570.0 191302.0 194482.0 138409.0 35028.0 138409.0 138409.0 138409.0 138409.0 35028.0 35028.0 35028.0 35028.0
58369.0 52594.0 118696.0 111874.0 163443.0 157856.0 45442.0 46570.0 97617.0 100819.0 94212.0 87604.0 104225.0 110743.0 114049.0 110035.0 131043.0 131635.0 66908.0 58950.0 100238.0 94310.0 33957.0 31877.0 121150.0 128910.0 73287.0 67484.0 90490.0 93948.0 0.0 8555.0 121859.0 116988.0 253453.0 261115.0 97782.0 103915.0 40415.0 37256.0 28204.0 32309.0 281392.0 273215.0 162911.0 157356.0 278861.0 277010.0 270738.0 277591.0 87284.0 92020.0 37253.0 44811.0 200027.0 192745.0 18189.0 10149.0 245007.0 239906.0 18400.0 17838.0 64263.0 57301.0 48235.0 43392.0 36352.0 35595.0 55231.0 62710.0 33214.0 26231.0 24642.0 29407.0 73784.0 67740.0 91862.0 89164.0 245622.0 237455.0 135791.0 139568.0 19002.0 25389.0 39187.0 46820.0 72953.0 77963.0 171684.0 166091.0 216001.0 209674.0 224785.0 218687.0 184744.0 182233.0 75167.0 68559.0 112875.0 109992.0 126545.0 130981.0 291756.0 290050.0 67276.0 59023.0 76756.0 70743.0 94372.0 90310.0 107907.0 100332.0 93687.0 94952.0 23651.0 31780.0 90357.0 93228.0 173264.0 172342.0 88850.0 124359.0 88850.0 88850.0 88850.0 88850.0 124359.0 124359.0 124359.0 124359.0
55603.0 50829.0 117302.0 110134.0 163949.0 158065.0 46128.0 48759.0 90374.0 93938.0 97578.0 91381.0 107774.0 113923.0 110563.0 106065.0 123328.0 124171.0 73984.0 66105.0 91771.0 85787.0 25416.0 23792.0 124515.0 132179.0 76422.0 71284.0 93725.0 96551.0 8555.0 0.0 126049.0 121610.0 255812.0 263393.0 89254.0 95362.0 42399.0 40787.0 19890.0 24737.0 282969.0 274767.0 154368.0 148802.0 281549.0 279832.0 273574.0 280427.0 84905.0 89011.0 37481.0 45397.0 200464.0 193073.0 16529.0 10915.0 247203.0 241897.0 12612.0 15754.0 59634.0 52121.0 44182.0 38330.0 35783.0 36902.0 51326.0 58349.0 27684.0 21913.0 24257.0 30807.0 72381.0 65745.0 94175.0 91130.0 248458.0 240291.0 135495.0 138822.0 13899.0 18403.0 32657.0 40643.0 79469.0 84025.0 171733.0 165857.0 217237.0 210718.0 225596.0 219299.0 176189.0 173687.0 72572.0 65477.0 116770.0 114399.0 127594.0 131579.0 294405.0 292480.0 64992.0 57035.0 68389.0 62269.0 99517.0 94962.0 99527.0 92001.0 86487.0 87367.0 27229.0 35329.0 89707.0 91880.0 165209.0 164157.0 96959.0 128140.0 96959.0 96959.0 96959.0 96959.0 128140.0 128140.0 128140.0 128140.0
180095.0 173767.0 238166.0 232068.0 276117.0 271869.0 163699.0 161363.0 151810.0 147804.0 30421.0 34958.0 205059.0 213061.0 106609.0 111530.0 183241.0 178191.0 68525.0 74285.0 197655.0 189817.0 139500.0 131814.0 13306.0 16595.0 50867.0 54824.0 194906.0 201162.0 121859.0 126049.0 0.0 8543.0 354891.0 362776.0 183884.0 192100.0 156640.0 150112.0 141313.0 148526.0 385848.0 377913.0 248082.0 240522.0 379254.0 377313.0 371042.0 377894.0 88382.0 95450.0 156919.0 163302.0 312053.0 305412.0 111706.0 115145.0 347127.0 342964.0 120350.0 112737.0 185665.0 178132.0 106664.0 113434.0 156982.0 153813.0 177015.0 184303.0 116996.0 113902.0 104256.0 96387.0 81132.0 87674.0 200641.0 199687.0 345925.0 337758.0 252128.0 257140.0 139838.0 143778.0 157924.0 166109.0 58761.0 51038.0 285960.0 281526.0 323647.0 318518.0 334467.0 329486.0 264570.0 265376.0 196699.0 190354.0 10258.0 12261.0 238352.0 244391.0 392181.0 391052.0 188651.0 180268.0 161167.0 160615.0 30719.0 32058.0 184223.0 176785.0 148881.0 156104.0 98845.0 90719.0 208898.0 213052.0 275041.0 271602.0 92852.0 223554.0 92852.0 92852.0 92852.0 92852.0 223554.0 223554.0 223554.0 223554.0
174971.0 168431.0 232268.0 226329.0 269310.0 265194.0 157926.0 155276.0 152572.0 148959.0 29401.0 32042.0 197759.0 205793.0 110230.0 114681.0 184793.0 180044.0 61116.0 67236.0 196053.0 188285.0 136298.0 128758.0 20429.0 24950.0 48153.0 50956.0 187851.0 194231.0 116988.0 121610.0 8543.0 0.0 347559.0 355443.0 183013.0 191182.0 150724.0 144011.0 137577.0 144624.0 378515.0 370580.0 247936.0 240481.0 371921.0 369981.0 363709.0 370562.0 90155.0 97558.0 151377.0 157560.0 305120.0 298546.0 107822.0 110757.0 339794.0 335632.0 116619.0 108861.0 181088.0 173727.0 105034.0 111445.0 151596.0 148120.0 172218.0 179638.0 114268.0 110668.0 100576.0 92594.0 81523.0 87559.0 193812.0 192983.0 338592.0 330425.0 245746.0 250902.0 135281.0 139586.0 153818.0 161971.0 51422.0 43823.0 279281.0 274976.0 316370.0 311330.0 327315.0 322426.0 264963.0 265508.0 191436.0 185272.0 12311.0 7888.0 231577.0 237733.0 384848.0 383719.0 183339.0 174933.0 160021.0 159058.0 23756.0 26682.0 184086.0 176516.0 149494.0 156490.0 94388.0 86368.0 202931.0 207284.0 273558.0 270352.0 84514.0 216221.0 84514.0 84514.0 84514.0 84514.0 216221.0 216221.0 216221.0 216221.0
210524.0 210465.0 156469.0 164743.0 101430.0 109315.0 210104.0 207125.0 330586.0 337036.0 334763.0 326809.0 150656.0 143367.0 366068.0 361016.0 352126.0 356975.0 286443.0 280709.0 284012.0 285871.0 265899.0 271457.0 359266.0 366994.0 317155.0 309287.0 163425.0 159506.0 253453.0 255812.0 354891.0 347559.0 0.0 8039.0 300475.0 299670.0 213450.0 216275.0 256812.0 250507.0 37325.0 32114.0 328881.0 329614.0 27746.0 29861.0 31096.0 33550.0 340596.0 344810.0 218854.0 210898.0 74872.0 81556.0 271395.0 263577.0 9862.0 17613.0 268135.0 270870.0 218894.0 226294.0 299747.0 293102.0 221249.0 218925.0 218938.0 217675.0 282419.0 277673.0 278073.0 281792.0 327188.0 321162.0 161674.0 164705.0 24271.0 25194.0 132449.0 134339.0 245393.0 248476.0 242231.0 237535.0 296163.0 303856.0 100656.0 108669.0 49406.0 57380.0 53055.0 60579.0 349770.0 342511.0 197519.0 205307.0 348629.0 342813.0 130657.0 129175.0 39645.0 36710.0 201317.0 206193.0 295703.0 288039.0 324172.0 324089.0 316303.0 312893.0 327672.0 324185.0 274057.0 280708.0 173149.0 175301.0 296530.0 302954.0 289808.0 132322.0 289808.0 289808.0 289808.0 289808.0 132322.0 132322.0 132322.0 132322.0
217674.0 217754.0 162907.0 171224.0 107758.0 115574.0 217615.0 214739.0 337589.0 344092.0 342648.0 334694.0 158504.0 151171.0 373571.0 368468.0 358782.0 363711.0 294328.0 288594.0 290356.0 292346.0 273214.0 278841.0 367151.0 374879.0 325061.0 317204.0 171192.0 167178.0 261115.0 263393.0 362776.0 355443.0 8039.0 0.0 307034.0 306101.0 221053.0 223963.0 264166.0 257804.0 30334.0 26140.0 334431.0 335303.0 22520.0 26510.0 30657.0 31136.0 348213.0 352375.0 226365.0 218405.0 79640.0 86612.0 279029.0 271232.0 16346.0 23063.0 275688.0 278495.0 225816.0 233292.0 307280.0 300591.0 228724.0 226497.0 226043.0 224640.0 289920.0 285238.0 285744.0 289521.0 334870.0 328804.0 169296.0 172267.0 30237.0 32462.0 138933.0 140539.0 252872.0 255865.0 249447.0 244651.0 304048.0 311740.0 106373.0 114373.0 54438.0 62470.0 56317.0 64144.0 355138.0 347818.0 204468.0 212296.0 356514.0 350698.0 137837.0 136128.0 33281.0 29455.0 208405.0 213402.0 302599.0 294959.0 332057.0 331973.0 322865.0 319559.0 334708.0 331131.0 281817.0 288503.0 180208.0 182187.0 301377.0 307909.0 297692.0 140267.0 297692.0 297692.0 297692.0 297692.0 140267.0 140267.0 140267.0 140267.0
96635.0 100798.0 144187.0 135830.0 199364.0 191670.0 110373.0 118128.0 44697.0 52560.0 153796.0 151386.0 172024.0 175145.0 106259.0 98182.0 52157.0 58057.0 154854.0 147962.0 21210.0 15586.0 63842.0 66937.0 176502.0 182435.0 135706.0 135540.0 158018.0 156680.0 97782.0 89254.0 183884.0 183013.0 300475.0 307034.0 0.0 8262.0 113255.0 117387.0 71050.0 71010.0 319626.0 311534.0 67066.0 60613.0 328029.0 328286.0 323680.0 329932.0 102234.0 98647.0 104206.0 109554.0 231716.0 223998.0 90315.0 94191.0 290859.0 284050.0 82809.0 89521.0 84209.0 78702.0 78639.0 73552.0 100550.0 107708.0 87951.0 86093.0 75176.0 82118.0 93613.0 100582.0 103766.0 96543.0 152954.0 148375.0 298855.0 290603.0 168106.0 167007.0 85814.0 77901.0 72511.0 72166.0 156964.0 158588.0 202335.0 194642.0 254283.0 246542.0 258328.0 250680.0 87626.0 86009.0 105116.0 98203.0 173630.0 175130.0 172185.0 172075.0 340102.0 336334.0 103696.0 102056.0 23531.0 27405.0 166896.0 159860.0 15831.0 14420.0 44722.0 36865.0 104994.0 109557.0 129947.0 126207.0 92305.0 88110.0 182844.0 191700.0 182844.0 182844.0 182844.0 182844.0 191700.0 191700.0 191700.0 191700.0
98600.0 103335.0 143206.0 134931.0 198346.0 190568.0 113735.0 121704.0 51828.0 59574.0 161988.0 159515.0 174148.0 176920.0 113847.0 105747.0 54881.0 61489.0 162236.0 155247.0 16551.0 14039.0 69981.0 73626.0 184756.0 190696.0 143795.0 143516.0 160328.0 158595.0 103915.0 95362.0 192100.0 191182.0 299670.0 306101.0 8262.0 0.0 117099.0 121648.0 76638.0 75925.0 317968.0 309918.0 59734.0 53630.0 327300.0 327758.0 323415.0 329538.0 110421.0 106736.0 108006.0 112937.0 230025.0 222337.0 97308.0 100830.0 289997.0 283073.0 89557.0 96483.0 85445.0 80613.0 86664.0 81401.0 104345.0 111721.0 90067.0 87498.0 82601.0 89356.0 100913.0 108027.0 112027.0 104795.0 154796.0 150148.0 298718.0 290449.0 167221.0 165732.0 91035.0 83021.0 76475.0 75308.0 164555.0 166324.0 200841.0 193062.0 252978.0 245171.0 256595.0 248870.0 80904.0 78862.0 105875.0 99318.0 181845.0 183297.0 172365.0 171868.0 339254.0 335314.0 105088.0 104096.0 31411.0 34453.0 174906.0 167913.0 18776.0 20534.0 52174.0 44151.0 112164.0 116962.0 130545.0 126365.0 84076.0 79848.0 189830.0 193544.0 189830.0 189830.0 189830.0 189830.0 193544.0 193544.0 193544.0 193544.0
31199.0 22764.0 81548.0 75717.0 123291.0 117932.0 8000.0 6380.0 126726.0 131566.0 131189.0 123932.0 65968.0 71752.0 152921.0 148268.0 156444.0 158750.0 93285.0 85658.0 107881.0 104429.0 57312.0 60791.0 157750.0 165612.0 111038.0 104291.0 51688.0 54165.0 40415.0 42399.0 156640.0 150724.0 213450.0 221053.0 113255.0 117099.0 0.0 8047.0 47714.0 44048.0 241011.0 232829.0 170996.0 167001.0 239150.0 237453.0 231189.0 238042.0 127164.0 131405.0 9100.0 8047.0 159876.0 152673.0 58035.0 50398.0 204887.0 199668.0 54851.0 57471.0 44732.0 42858.0 86517.0 80276.0 12758.0 6057.0 34674.0 42167.0 69533.0 64304.0 64998.0 69620.0 114093.0 107810.0 51785.0 48854.0 206073.0 197906.0 96495.0 100906.0 33509.0 39000.0 40743.0 42364.0 101654.0 108256.0 131870.0 126585.0 175587.0 169281.0 184448.0 178430.0 194080.0 190009.0 44011.0 40463.0 148489.0 144436.0 86183.0 90828.0 252006.0 250105.0 36012.0 28216.0 97648.0 90093.0 127140.0 124583.0 126786.0 120380.0 123118.0 122191.0 62851.0 70478.0 52260.0 56657.0 169788.0 170805.0 105814.0 86491.0 105814.0 105814.0 105814.0 105814.0 86491.0 86491.0 86491.0 86491.0
39149.0 30739.0 88388.0 82859.0 128188.0 123137.0 16024.0 11266.0 128188.0 132633.0 125283.0 117880.0 67101.0 73501.0 151064.0 146767.0 158925.0 160848.0 85906.0 78379.0 113204.0 109347.0 58859.0 61344.0 151650.0 159520.0 105472.0 98479.0 53248.0 56792.0 37256.0 40787.0 150112.0 144011.0 216275.0 223963.0 117387.0 121648.0 8047.0 0.0 49435.0 46939.0 244634.0 236483.0 176608.0 172374.0 241611.0 239754.0 233482.0 240335.0 124540.0 129191.0 15218.0 16094.0 164715.0 157633.0 55370.0 47405.0 207892.0 202895.0 53399.0 54930.0 52341.0 49893.0 84833.0 79113.0 18511.0 10574.0 42148.0 49818.0 68435.0 62527.0 61819.0 65687.0 110914.0 104988.0 54881.0 52510.0 208366.0 200199.0 102302.0 107065.0 34374.0 41004.0 45225.0 47969.0 94454.0 101205.0 137159.0 132151.0 179620.0 173516.0 188882.0 183062.0 199583.0 195721.0 52002.0 48504.0 142167.0 137877.0 90712.0 95814.0 254510.0 252846.0 44036.0 36262.0 100629.0 93262.0 120347.0 118069.0 130421.0 123748.0 124477.0 124071.0 58364.0 65647.0 58988.0 63833.0 176781.0 177602.0 97865.0 87390.0 97865.0 97865.0 97865.0 97865.0 87390.0 87390.0 87390.0 87390.0
48452.0 46615.0 110848.0 103032.0 161202.0 154697.0 48172.0 53763.0 79024.0 83888.0 111816.0 106360.0 113043.0 118193.0 110354.0 104691.0 109553.0 111416.0 93263.0 85480.0 72108.0 66378.0 9609.0 14858.0 138442.0 145873.0 90674.0 86654.0 98609.0 99887.0 28204.0 19890.0 141313.0 137577.0 256812.0 264166.0 71050.0 76638.0 47714.0 49435.0 0.0 7778.0 282003.0 273770.0 135079.0 129735.0 283243.0 282076.0 275913.0 282753.0 88171.0 90606.0 39850.0 47313.0 197246.0 189658.0 29792.0 28652.0 247850.0 242080.0 20970.0 28749.0 47496.0 39072.0 46116.0 38342.0 36734.0 41660.0 41687.0 46969.0 28814.0 28342.0 37059.0 44987.0 78375.0 70774.0 96905.0 93153.0 250796.0 242629.0 131257.0 133497.0 15340.0 8753.0 17932.0 25871.0 98186.0 102210.0 167856.0 161385.0 215770.0 208843.0 223087.0 216367.0 157167.0 154416.0 64704.0 56821.0 131641.0 130093.0 126607.0 129471.0 295959.0 293511.0 58306.0 51667.0 51901.0 44976.0 116410.0 111203.0 82567.0 75433.0 75405.0 74669.0 44279.0 51732.0 85705.0 86176.0 145371.0 144271.0 116844.0 133594.0 116844.0 116844.0 116844.0 116844.0 133594.0 133594.0 133594.0 133594.0
41220.0 40051.0 103398.0 95518.0 154236.0 147631.0 43368.0 49757.0 83264.0 88591.0 119190.0 113595.0 108265.0 113073.0 117412.0 111571.0 112397.0 114762.0 98720.0 90839.0 69772.0 64686.0 15469.0 22139.0 145889.0 153358.0 98014.0 93774.0 93813.0 94605.0 32309.0 24737.0 148526.0 144624.0 250507.0 257804.0 71010.0 75925.0 44048.0 46939.0 7778.0 0.0 275258.0 267023.0 133262.0 128277.0 277082.0 276051.0 269975.0 276828.0 95726.0 97979.0 35552.0 42500.0 190153.0 182541.0 36829.0 34663.0 241473.0 235604.0 28256.0 35795.0 39722.0 31295.0 53745.0 45894.0 32145.0 38101.0 34141.0 39224.0 36551.0 36038.0 44324.0 52139.0 86119.0 78490.0 91471.0 87548.0 244858.0 236634.0 124087.0 126159.0 15440.0 7401.0 10156.0 18128.0 104091.0 108426.0 160688.0 154132.0 208977.0 201979.0 216094.0 209306.0 155707.0 152584.0 57220.0 49280.0 138925.0 137201.0 120073.0 122693.0 289755.0 287186.0 51045.0 44738.0 53735.0 46323.0 123169.0 118152.0 83565.0 76815.0 79796.0 78361.0 50762.0 58464.0 78729.0 78903.0 141091.0 140370.0 121091.0 128765.0 121091.0 121091.0 121091.0 121091.0 128765.0 128765.0 128765.0 128765.0
234376.0 235389.0 176031.0 184465.0 121574.0 128799.0 236861.0 234821.0 352752.0 359579.0 365664.0 357732.0 181118.0 173403.0 392183.0 386689.0 371732.0 377131.0 317399.0 311665.0 301820.0 304526.0 290727.0 296825.0 390186.0 397890.0 347715.0 340018.0 192902.0 188087.0 281392.0 282969.0 385848.0 378515.0 37325.0 30334.0 319626.0 317968.0 241011.0 244634.0 282003.0 275258.0 0.0 8235.0 341524.0 343091.0 37772.0 45511.0 54703.0 51147.0 367838.0 371536.0 245564.0 237610.0 87943.0 95641.0 298991.0 291409.0 41035.0 43250.0 294987.0 298389.0 241027.0 248920.0 326312.0 319298.0 247633.0 246168.0 242397.0 240126.0 308756.0 304599.0 306006.0 310306.0 355098.0 348694.0 189764.0 192242.0 60542.0 62504.0 152736.0 152836.0 271692.0 273987.0 266389.0 260956.0 327120.0 334812.0 117335.0 124984.0 66330.0 73615.0 61399.0 69235.0 361249.0 353661.0 220012.0 228019.0 379468.0 373770.0 155600.0 152565.0 38726.0 30736.0 224784.0 230529.0 317217.0 309759.0 355129.0 354969.0 335401.0 332718.0 350091.0 345957.0 302930.0 309944.0 196658.0 197576.0 305284.0 312277.0 320764.0 164164.0 320764.0 320764.0 320764.0 320764.0 164164.0 164164.0 164164.0 164164.0
226143.0 227155.0 167868.0 176301.0 113360.0 120605.0 228655.0 226645.0 344555.0 351373.0 357688.0 349765.0 173136.0 165392.0 383953.0 378456.0 363630.0 369006.0 309464.0 303730.0 293792.0 296454.0 282493.0 288592.0 382275.0 389988.0 339678.0 331996.0 184836.0 179969.0 273215.0 274767.0 377913.0 370580.0 32114.0 26140.0 311534.0 309918.0 232829.0 236483.0 273770.0 267023.0 8235.0 0.0 333880.0 335377.0 38521.0 45743.0 53717.0 51322.0 359630.0 363317.0 237356.0 229402.0 79904.0 87582.0 290800.0 283227.0 34353.0 35737.0 286776.0 290195.0 232817.0 240702.0 318092.0 311072.0 239417.0 237974.0 234167.0 231910.0 300534.0 296389.0 297825.0 302149.0 346911.0 340495.0 181620.0 184074.0 56123.0 57170.0 144539.0 144693.0 263472.0 265756.0 258155.0 252728.0 319185.0 326877.0 109217.0 116895.0 58100.0 65409.0 53428.0 61327.0 353718.0 346158.0 211791.0 219797.0 371580.0 365835.0 147376.0 144331.0 42065.0 34444.0 216553.0 222294.0 309034.0 301569.0 347194.0 347070.0 327316.0 324599.0 341888.0 337770.0 294791.0 301823.0 188425.0 189355.0 297994.0 304932.0 312829.0 156343.0 312829.0 312829.0 312829.0 312829.0 156343.0 156343.0 156343.0 156343.0
147193.0 153637.0 176193.0 168853.0 228667.0 220673.0 166293.0 174706.0 98046.0 103867.0 218544.0 216822.0 220716.0 221952.0 158004.0 150094.0 76898.0 84889.0 221902.0 214960.0 63636.0 68712.0 129175.0 133245.0 239628.0 244941.0 201492.0 201893.0 207974.0 204691.0 162911.0 154368.0 248082.0 247936.0 328881.0 334431.0 67066.0 59734.0 170996.0 176608.0 135079.0 133262.0 341524.0 333880.0 0.0 8092.0 356563.0 358214.0 355480.0 360769.0 162315.0 157036.0 161995.0 165583.0 255256.0 247987.0 157027.0 160366.0 319023.0 311521.0 149182.0 156194.0 132315.0 130117.0 144996.0 140385.0 158413.0 166209.0 139640.0 134817.0 142228.0 149074.0 160613.0 167643.0 166997.0 160460.0 200702.0 195910.0 331860.0 323622.0 199517.0 195880.0 148676.0 140599.0 131830.0 128704.0 224004.0 225496.0 228234.0 220221.0 280033.0 272006.0 280860.0 272824.0 23290.0 19338.0 149462.0 144756.0 237899.0 240099.0 210088.0 207627.0 367632.0 362682.0 151233.0 152670.0 90517.0 94179.0 233044.0 225801.0 63868.0 71436.0 100314.0 92551.0 171896.0 176609.0 172032.0 166062.0 48697.0 40690.0 249526.0 238506.0 249526.0 249526.0 249526.0 249526.0 238506.0 238506.0 238506.0 238506.0
144160.0 150323.0 175863.0 168336.0 228982.0 220989.0 162578.0 170923.0 90149.0 95883.0 211082.0 209482.0 218357.0 219877.0 149933.0 142031.0 68870.0 76884.0 215415.0 208565.0 59170.0 63592.0 123490.0 127255.0 231952.0 237205.0 194239.0 194794.0 205377.0 202370.0 157356.0 148802.0 240522.0 240481.0 329614.0 335303.0 60613.0 53630.0 167001.0 172374.0 129735.0 128277.0 343091.0 335377.0 8092.0 0.0 357332.0 358807.0 355825.0 361249.0 154493.0 149137.0 157951.0 161847.0 256394.0 249042.0 150864.0 154459.0 319765.0 312334.0 143183.0 150053.0 129474.0 126801.0 137963.0 133554.0 154339.0 162062.0 136381.0 131921.0 135748.0 142731.0 154219.0 161126.0 159406.0 152957.0 198402.0 193618.0 332003.0 323746.0 199418.0 196078.0 143635.0 135561.0 127354.0 124639.0 217312.0 218650.0 228973.0 220962.0 280979.0 272963.0 282204.0 274191.0 27441.0 25463.0 147302.0 142255.0 230355.0 232658.0 209201.0 207038.0 368548.0 363738.0 148656.0 149672.0 83892.0 87929.0 225861.0 218566.0 56409.0 64101.0 92482.0 84782.0 165604.0 170121.0 170360.0 164641.0 55110.0 47339.0 243402.0 236487.0 243402.0 243402.0 243402.0 243402.0 236487.0 236487.0 236487.0 236487.0
237423.0 237087.0 184121.0 192371.0 129139.0 137038.0 236133.0 232794.0 357670.0 364036.0 359125.0 351171.0 175242.0 168264.0 392011.0 387123.0 379601.0 384376.0 310805.0 305071.0 311682.0 313479.0 292421.0 297804.0 383628.0 391357.0 341557.0 333733.0 188473.0 185021.0 278861.0 281549.0 379254.0 371921.0 27746.0 22520.0 328029.0 327300.0 239150.0 241611.0 283243.0 277082.0 37772.0 38521.0 356563.0 357332.0 0.0 7961.0 18761.0 13501.0 366126.0 370547.0 244871.0 236942.0 102077.0 108962.0 296908.0 289005.0 37573.0 45060.0 293964.0 296418.0 246127.0 253423.0 325621.0 319126.0 247377.0 244737.0 245908.0 244852.0 308412.0 303452.0 303420.0 306852.0 352443.0 346599.0 187394.0 190634.0 36574.0 42924.0 160087.0 162068.0 271483.0 274826.0 268983.0 264475.0 320526.0 328218.0 128362.0 136374.0 76763.0 84784.0 78765.0 86631.0 377384.0 370097.0 224730.0 232460.0 372991.0 367176.0 157592.0 156439.0 12954.0 14310.0 228326.0 232984.0 322942.0 315249.0 348535.0 348451.0 343854.0 340364.0 354707.0 351350.0 298954.0 305394.0 200227.0 202601.0 323832.0 330333.0 314170.0 157477.0 314170.0 314170.0 314170.0 314170.0 157477.0 157477.0 157477.0 157477.0
236758.0 236140.0 184743.0 192912.0 130072.0 138031.0 234682.0 231082.0 357141.0 363401.0 357185.0 349231.0 173303.0 166344.0 390374.0 385617.0 379670.0 384306.0 308865.0 303131.0 312281.0 313880.0 291329.0 296552.0 381688.0 389416.0 339617.0 331793.0 186570.0 183289.0 277010.0 279832.0 377313.0 369981.0 29861.0 26510.0 328286.0 327758.0 237453.0 239754.0 282076.0 276051.0 45511.0 45743.0 358214.0 358807.0 7961.0 0.0 11333.0 5638.0 364291.0 368768.0 243400.0 235500.0 104720.0 111336.0 295089.0 287158.0 39616.0 47469.0 292303.0 294555.0 245868.0 253017.0 323969.0 317593.0 245990.0 243113.0 245315.0 244518.0 306863.0 301745.0 301543.0 304922.0 350536.0 344738.0 185796.0 189179.0 32798.0 40042.0 160702.0 163065.0 270041.0 273594.0 268134.0 263831.0 318586.0 326278.0 130024.0 138030.0 79236.0 87184.0 82508.0 90198.0 379251.0 372040.0 224461.0 232106.0 371051.0 365236.0 157097.0 156348.0 17418.0 21292.0 227796.0 232211.0 322639.0 314910.0 346595.0 346511.0 344096.0 340440.0 354119.0 350932.0 297014.0 303461.0 199815.0 202486.0 326304.0 332687.0 312230.0 155537.0 312230.0 312230.0 312230.0 312230.0 155537.0 155537.0 155537.0 155537.0
231080.0 230159.0 180856.0 188892.0 126844.0 134839.0 228424.0 224819.0 351507.0 357631.0 350913.0 342959.0 167031.0 160072.0 384108.0 379346.0 374779.0 379233.0 302593.0 296859.0 308141.0 309475.0 285205.0 290344.0 375416.0 383144.0 333345.0 325521.0 180298.0 177025.0 270738.0 273574.0 371042.0 363709.0 31096.0 30657.0 323680.0 323415.0 231189.0 233482.0 275913.0 269975.0 54703.0 53717.0 355480.0 355825.0 18761.0 11333.0 0.0 8022.0 358019.0 362530.0 237138.0 229245.0 104152.0 110307.0 288817.0 280886.0 39872.0 47798.0 286037.0 288341.0 240689.0 247639.0 317703.0 311321.0 239746.0 236842.0 239712.0 239245.0 300591.0 295486.0 295271.0 298650.0 344264.0 338466.0 179525.0 182930.0 25228.0 33284.0 156887.0 159764.0 263782.0 267401.0 262182.0 258141.0 312314.0 320006.0 127821.0 135771.0 78747.0 86463.0 83884.0 91195.0 376808.0 369709.0 219305.0 226827.0 364779.0 358964.0 151827.0 151608.0 28460.0 32603.0 222302.0 226402.0 317315.0 309548.0 340323.0 340239.0 339457.0 335587.0 348413.0 345439.0 290742.0 297189.0 194528.0 197574.0 324789.0 330990.0 305958.0 149265.0 305958.0 305958.0 305958.0 305958.0 149265.0 149265.0 149265.0 149265.0
237814.0 236999.0 186716.0 194823.0 132327.0 140309.0 235277.0 231672.0 358239.0 364424.0 357766.0 349812.0 173884.0 166925.0 390961.0 386199.0 381173.0 385713.0 309446.0 303712.0 314161.0 315627.0 292054.0 297161.0 382269.0 389997.0 340198.0 332374.0 187151.0 183878.0 277591.0 280427.0 377894.0 370562.0 33550.0 31136.0 329932.0 329538.0 238042.0 240335.0 282753.0 276828.0 51147.0 51322.0 360769.0 361249.0 13501.0 5638.0 8022.0 0.0 364872.0 369383.0 243990.0 236097.0 108085.0 114526.0 295670.0 287739.0 43059.0 51003.0 292889.0 295194.0 247199.0 254242.0 324556.0 318174.0 246598.0 243695.0 246415.0 245799.0 307444.0 302339.0 302124.0 305503.0 351117.0 345319.0 186377.0 189783.0 32458.0 40238.0 162699.0 165308.0 270635.0 274229.0 269042.0 264886.0 319167.0 326859.0 132740.0 140729.0 82585.0 90459.0 86551.0 94124.0 381939.0 374777.0 225799.0 233380.0 371632.0 365816.0 158349.0 157880.0 20951.0 26016.0 228952.0 233193.0 323904.0 316153.0 347176.0 347092.0 345727.0 341959.0 355177.0 352108.0 297595.0 304042.0 201076.0 203947.0 329386.0 335693.0 312811.0 156118.0 312811.0 312811.0 312811.0 312811.0 156118.0 156118.0 156118.0 156118.0
136481.0 133682.0 198996.0 191203.0 248236.0 242054.0 130978.0 133474.0 64488.0 59751.0 61910.0 63503.0 191420.0 198022.0 29522.0 29260.0 94859.0 89906.0 92809.0 90303.0 119700.0 111766.0 81084.0 73642.0 78344.0 83016.0 53008.0 58491.0 177769.0 181142.0 87284.0 84905.0 88382.0 90155.0 340596.0 348213.0 102234.0 110421.0 127164.0 124540.0 88171.0 95726.0 367838.0 359630.0 162315.0 154493.0 366126.0 364291.0 358019.0 364872.0 0.0 8154.0 122274.0 130228.0 284592.0 277094.0 69221.0 77135.0 332051.0 326791.0 72873.0 69729.0 134909.0 126337.0 42128.0 49836.0 120275.0 121791.0 129846.0 134715.0 59745.0 63254.0 62847.0 60525.0 16000.0 19698.0 178922.0 175992.0 332903.0 324736.0 218939.0 221508.0 96387.0 95181.0 105696.0 112962.0 88493.0 85241.0 255468.0 249209.0 301996.0 295371.0 310056.0 303581.0 177340.0 178732.0 152874.0 144985.0 78692.0 82844.0 212347.0 216038.0 379013.0 377232.0 146330.0 139275.0 82275.0 84581.0 82408.0 74484.0 99207.0 92475.0 62011.0 69799.0 69095.0 64579.0 173112.0 174148.0 194468.0 189927.0 125530.0 211398.0 125530.0 125530.0 125530.0 125530.0 211398.0 211398.0 211398.0 211398.0
139057.0 136710.0 201375.0 193460.0 251439.0 245105.0 134834.0 137756.0 58991.0 53659.0 69646.0 71489.0 196241.0 202678.0 22637.0 21351.0 88005.0 82753.0 100765.0 98094.0 116899.0 109034.0 82953.0 75846.0 84980.0 89267.0 61161.0 66604.0 182431.0 185530.0 92020.0 89011.0 95450.0 97558.0 344810.0 352375.0 98647.0 106736.0 131405.0 129191.0 90606.0 97979.0 371536.0 363317.0 157036.0 149137.0 370547.0 368768.0 362530.0 369383.0 8154.0 0.0 126094.0 134062.0 287666.0 280117.0 73842.0 81898.0 336165.0 330780.0 76692.0 74262.0 136619.0 128050.0 45225.0 52439.0 123917.0 125885.0 132100.0 136581.0 62821.0 67137.0 67940.0 66353.0 23552.0 25682.0 183185.0 180109.0 337413.0 329246.0 221798.0 224101.0 99846.0 98027.0 107770.0 114744.0 96581.0 93385.0 258383.0 251976.0 305534.0 298801.0 313317.0 306727.0 171420.0 173073.0 155194.0 147226.0 85921.0 90360.0 215947.0 219392.0 383409.0 381485.0 148912.0 142112.0 79803.0 82814.0 90428.0 82510.0 94522.0 88122.0 56847.0 64850.0 75039.0 71051.0 176089.0 176780.0 190567.0 185773.0 133371.0 216364.0 133371.0 133371.0 133371.0 133371.0 216364.0 216364.0 216364.0 216364.0
25589.0 17702.0 81777.0 75280.0 126544.0 120781.0 8750.0 14235.0 118638.0 123695.0 130461.0 123475.0 73205.0 78509.0 147215.0 142253.0 147839.0 150308.0 95667.0 87842.0 98816.0 95330.0 49449.0 53576.0 157259.0 165087.0 109870.0 103543.0 58783.0 60409.0 37253.0 37481.0 156919.0 151377.0 218854.0 226365.0 104206.0 108006.0 9100.0 15218.0 39850.0 35552.0 245564.0 237356.0 161995.0 157951.0 244871.0 243400.0 237138.0 243990.0 122274.0 126094.0 0.0 7968.0 163092.0 155744.0 53789.0 46694.0 210126.0 204689.0 49436.0 53105.0 37576.0 34698.0 80930.0 74264.0 3661.0 4795.0 27270.0 35138.0 63567.0 59040.0 61192.0 66624.0 109847.0 103214.0 57655.0 54240.0 212021.0 203854.0 98550.0 102338.0 26648.0 31099.0 31702.0 33315.0 103548.0 109776.0 134544.0 128867.0 179769.0 173238.0 188132.0 181875.0 185057.0 181036.0 40587.0 35653.0 148411.0 144808.0 90120.0 94137.0 257676.0 255554.0 32398.0 24030.0 88909.0 81300.0 128029.0 124940.0 117828.0 111494.0 115093.0 113891.0 60659.0 68619.0 53143.0 56386.0 161564.0 162398.0 110237.0 93760.0 110237.0 110237.0 110237.0 110237.0 93760.0 93760.0 93760.0 93760.0
23314.0 14868.0 74951.0 68777.0 118742.0 113063.0 867.0 9169.0 125759.0 130981.0 137310.0 130198.0 65811.0 70884.0 155171.0 150182.0 154339.0 157033.0 100765.0 93063.0 102910.0 99914.0 56868.0 61296.0 164015.0 171862.0 116891.0 110380.0 51361.0 52652.0 44811.0 45397.0 163302.0 157560.0 210898.0 218405.0 109554.0 112937.0 8047.0 16094.0 47313.0 42500.0 237610.0 229402.0 165583.0 161847.0 236942.0 235500.0 229245.0 236097.0 130228.0 134062.0 7968.0 0.0 155307.0 147988.0 61638.0 54423.0 202163.0 196721.0 57401.0 60973.0 37306.0 36245.0 88896.0 82209.0 10596.0 9541.0 27521.0 34695.0 71521.0 67002.0 68970.0 74218.0 117734.0 111141.0 49813.0 46323.0 204128.0 195961.0 91033.0 95033.0 34546.0 38598.0 37469.0 37651.0 108971.0 115436.0 126875.0 121302.0 171840.0 165333.0 180267.0 174050.0 188757.0 184467.0 36044.0 32426.0 154968.0 151137.0 82199.0 86309.0 249740.0 247600.0 28001.0 20170.0 95251.0 87548.0 134069.0 131265.0 123565.0 117463.0 122270.0 120814.0 67994.0 75854.0 45961.0 49750.0 162890.0 164117.0 113779.0 86341.0 113779.0 113779.0 113779.0 113779.0 86341.0 86341.0 86341.0 86341.0
148945.0 150966.0 88629.0 97044.0 36588.0 42561.0 154640.0 154059.0 265554.0 272533.0 289324.0 281670.0 108925.0 100782.0 307561.0 301675.0 283841.0 289312.0 244231.0 237884.0 213889.0 216590.0 205551.0 212099.0 315110.0 322958.0 270021.0 262793.0 117369.0 110896.0 200027.0 200464.0 312053.0 305120.0 74872.0 79640.0 231716.0 230025.0 159876.0 164715.0 197246.0 190153.0 87943.0 79904.0 255256.0 256394.0 102077.0 104720.0 104152.0 108085.0 284592.0 287666.0 163092.0 155307.0 0.0 7751.0 216869.0 209730.0 65112.0 57260.0 211928.0 216166.0 154293.0 162421.0 242591.0 235227.0 164689.0 164432.0 156546.0 153591.0 224938.0 221522.0 224272.0 229400.0 272813.0 265960.0 111481.0 112791.0 84170.0 76892.0 66146.0 65290.0 188258.0 189640.0 180854.0 174897.0 253787.0 261304.0 29752.0 37139.0 25501.0 17690.0 26625.0 19238.0 275705.0 268326.0 133708.0 141776.0 305011.0 299831.0 74095.0 69056.0 112594.0 107439.0 139159.0 145595.0 229846.0 222489.0 281454.0 280485.0 247481.0 244881.0 263012.0 258616.0 222718.0 230250.0 111581.0 111433.0 221755.0 228269.0 248445.0 97988.0 248445.0 248445.0 248445.0 248445.0 97988.0 97988.0 97988.0 97988.0
141325.0 143437.0 80883.0 89297.0 29453.0 35043.0 147330.0 146906.0 257806.0 264789.0 282428.0 274807.0 103054.0 94937.0 299952.0 294041.0 276118.0 281576.0 237746.0 231315.0 206218.0 208885.0 197927.0 204508.0 308308.0 316162.0 263018.0 255840.0 110986.0 104336.0 192745.0 193073.0 305412.0 298546.0 81556.0 86612.0 223998.0 222337.0 152673.0 157633.0 189658.0 182541.0 95641.0 87582.0 247987.0 249042.0 108962.0 111336.0 110307.0 114526.0 277094.0 280117.0 155744.0 147988.0 7751.0 0.0 209501.0 202409.0 71733.0 63976.0 204479.0 208789.0 146572.0 154713.0 235070.0 227680.0 157292.0 157158.0 148887.0 145883.0 217416.0 214065.0 216934.0 222134.0 265398.0 258511.0 104773.0 105924.0 89529.0 81997.0 58488.0 57541.0 180791.0 182091.0 173211.0 167216.0 247265.0 254747.0 22018.0 29395.0 32199.0 24186.0 34366.0 26969.0 268555.0 261215.0 126023.0 134092.0 298275.0 293178.0 67183.0 61855.0 119702.0 114706.0 131528.0 138022.0 222096.0 214740.0 274853.0 273772.0 239767.0 237147.0 255267.0 250865.0 215523.0 223097.0 104029.0 103773.0 214976.0 221406.0 242216.0 93095.0 242216.0 242216.0 242216.0 242216.0 93095.0 93095.0 93095.0 93095.0
71872.0 67326.0 133792.0 126573.0 180330.0 174509.0 62341.0 64308.0 83235.0 85580.0 82529.0 76789.0 122399.0 128871.0 95864.0 91922.0 117772.0 117577.0 65791.0 58407.0 96505.0 89692.0 30147.0 24136.0 109345.0 116901.0 61324.0 56945.0 108618.0 111922.0 18189.0 16529.0 111706.0 107822.0 271395.0 279029.0 90315.0 97308.0 58035.0 55370.0 29792.0 36829.0 298991.0 290800.0 157027.0 150864.0 296908.0 295089.0 288817.0 295670.0 69221.0 73842.0 53789.0 61638.0 216869.0 209501.0 0.0 8151.0 262887.0 257701.0 9017.0 1044.0 74821.0 66896.0 30329.0 26406.0 52246.0 52832.0 67109.0 73761.0 17561.0 9627.0 7877.0 15333.0 56131.0 49782.0 109733.0 106888.0 263700.0 255533.0 152004.0 155351.0 29955.0 32337.0 46286.0 54484.0 69625.0 73056.0 188207.0 182364.0 233397.0 226949.0 241905.0 235664.0 177939.0 176167.0 88839.0 81584.0 102144.0 100377.0 143797.0 147926.0 309793.0 308020.0 81368.0 73490.0 67628.0 62938.0 86653.0 81414.0 98324.0 90441.0 79240.0 81578.0 15349.0 22107.0 106231.0 108386.0 172426.0 170647.0 92538.0 142547.0 92538.0 92538.0 92538.0 92538.0 142547.0 142547.0 142547.0 142547.0
66253.0 61124.0 127536.0 120506.0 173160.0 167466.0 55091.0 56608.0 90081.0 92780.0 86681.0 80466.0 114360.0 120892.0 103979.0 100071.0 124210.0 124338.0 64669.0 56945.0 98749.0 92301.0 31576.0 27254.0 113624.0 121299.0 65539.0 60371.0 100639.0 104075.0 10149.0 10915.0 115145.0 110757.0 263577.0 271232.0 94191.0 100830.0 50398.0 47405.0 28652.0 34663.0 291409.0 283227.0 160366.0 154459.0 289005.0 287158.0 280886.0 287739.0 77135.0 81898.0 46694.0 54423.0 209730.0 202409.0 8151.0 0.0 255115.0 249988.0 11518.0 7961.0 70548.0 63001.0 38448.0 34177.0 45442.0 45391.0 62198.0 69261.0 24605.0 17012.0 14606.0 20211.0 63709.0 57599.0 101960.0 99212.0 255770.0 247602.0 145189.0 148761.0 24789.0 28938.0 43232.0 51315.0 69559.0 73765.0 181238.0 175528.0 225938.0 219562.0 234611.0 228451.0 181704.0 179609.0 83200.0 76223.0 105855.0 103518.0 136413.0 140716.0 301899.0 300181.0 75511.0 67434.0 72134.0 66817.0 88803.0 84128.0 103155.0 95383.0 86106.0 87998.0 16374.0 24429.0 99560.0 102074.0 173565.0 172164.0 89435.0 134468.0 89435.0 89435.0 89435.0 89435.0 134468.0 134468.0 134468.0 134468.0
201328.0 201422.0 146791.0 155084.0 91700.0 99564.0 201376.0 198585.0 321256.0 327752.0 326886.0 319044.0 142747.0 135316.0 357318.0 352187.0 342561.0 347456.0 278678.0 272944.0 274305.0 276216.0 256887.0 262534.0 351501.0 359230.0 309425.0 301606.0 155254.0 151100.0 245007.0 247203.0 347127.0 339794.0 9862.0 16346.0 290859.0 289997.0 204887.0 207892.0 247850.0 241473.0 41035.0 34353.0 319023.0 319765.0 37573.0 39616.0 39872.0 43059.0 332051.0 336165.0 210126.0 202163.0 65112.0 71733.0 262887.0 255115.0 0.0 7962.0 259475.0 262346.0 209498.0 216959.0 291050.0 284333.0 212462.0 210302.0 209698.0 208313.0 273670.0 269033.0 269643.0 273496.0 318778.0 312668.0 153158.0 156073.0 27211.0 24960.0 122787.0 124575.0 236611.0 239560.0 233104.0 228305.0 288399.0 296091.0 90801.0 98814.0 39621.0 47570.0 44034.0 51331.0 339908.0 332650.0 188143.0 195964.0 340864.0 335049.0 121493.0 119799.0 49257.0 45796.0 192061.0 197059.0 286290.0 278643.0 316408.0 316324.0 306689.0 303333.0 318370.0 314810.0 265843.0 272590.0 163865.0 165876.0 286709.0 293119.0 282043.0 124850.0 282043.0 282043.0 282043.0 282043.0 124850.0 124850.0 124850.0 124850.0
195244.0 195563.0 139894.0 148226.0 84728.0 92526.0 195946.0 193399.0 314931.0 321495.0 322844.0 314887.0 138407.0 130822.0 351794.0 346561.0 335840.0 340818.0 274516.0 268782.0 267309.0 269331.0 251043.0 256809.0 347339.0 355067.0 305129.0 297368.0 150577.0 146140.0 239906.0 241897.0 342964.0 335632.0 17613.0 23063.0 284050.0 283073.0 199668.0 202895.0 242080.0 235604.0 43250.0 35737.0 311521.0 312334.0 45060.0 47469.0 47798.0 51003.0 326791.0 330780.0 204689.0 196721.0 57260.0 63976.0 257701.0 249988.0 7962.0 0.0 254097.0 257138.0 203099.0 210655.0 285613.0 278806.0 206946.0 205002.0 203544.0 201969.0 268172.0 263677.0 264548.0 268563.0 313689.0 307478.0 148054.0 150815.0 33350.0 29523.0 115945.0 117480.0 231089.0 233856.0 227106.0 222159.0 284237.0 291929.0 83370.0 91377.0 31803.0 39792.0 36180.0 43397.0 332325.0 325041.0 181786.0 189656.0 336702.0 330886.0 115534.0 113502.0 56333.0 52291.0 185893.0 191071.0 279838.0 272221.0 312246.0 312162.0 299881.0 296627.0 312088.0 308415.0 261011.0 267867.0 157672.0 159453.0 278939.0 285382.0 277881.0 121060.0 277881.0 277881.0 277881.0 277881.0 121060.0 121060.0 121060.0 121060.0
65233.0 61401.0 127620.0 120188.0 175491.0 169440.0 58164.0 61226.0 79333.0 82427.0 90935.0 85400.0 120371.0 126479.0 98071.0 93486.0 113096.0 113457.0 74447.0 66942.0 88060.0 81409.0 21268.0 15938.0 117641.0 125126.0 69765.0 65686.0 106297.0 109014.0 18400.0 12612.0 120350.0 116619.0 268135.0 275688.0 82809.0 89557.0 54851.0 53399.0 20970.0 28256.0 294987.0 286776.0 149182.0 143183.0 293964.0 292303.0 286037.0 292889.0 72873.0 76692.0 49436.0 57401.0 211928.0 204479.0 9017.0 11518.0 259475.0 254097.0 0.0 7986.0 67028.0 58906.0 31667.0 25727.0 47404.0 49230.0 59845.0 66132.0 15137.0 9620.0 16095.0 24024.0 61013.0 54032.0 106570.0 103431.0 260920.0 252753.0 146585.0 149583.0 23735.0 24509.0 37997.0 46179.0 78528.0 82053.0 182988.0 176932.0 229123.0 222512.0 237256.0 230852.0 170380.0 168391.0 82116.0 74625.0 110701.0 109125.0 139474.0 143221.0 306807.0 304818.0 74918.0 67328.0 60629.0 55412.0 95612.0 90286.0 91638.0 83865.0 75387.0 76917.0 24205.0 31124.0 100711.0 102358.0 163637.0 161966.0 100394.0 140747.0 100394.0 100394.0 100394.0 100394.0 140747.0 140747.0 140747.0 140747.0
70988.0 66504.0 132962.0 125722.0 179635.0 173790.0 61681.0 63761.0 82880.0 85314.0 83541.0 77817.0 121991.0 128424.0 96223.0 92205.0 117336.0 117208.0 66734.0 59327.0 95582.0 88793.0 29148.0 23219.0 110349.0 117900.0 62338.0 57981.0 108174.0 111416.0 17838.0 15754.0 112737.0 108861.0 270870.0 278495.0 89521.0 96483.0 57471.0 54930.0 28749.0 35795.0 298389.0 290195.0 156194.0 150053.0 296418.0 294555.0 288341.0 295194.0 69729.0 74262.0 53105.0 60973.0 216166.0 208789.0 1044.0 7961.0 262346.0 257138.0 7986.0 0.0 73842.0 65902.0 30499.0 26318.0 51514.0 52221.0 66171.0 72795.0 17193.0 9326.0 8818.0 16358.0 56768.0 50341.0 109200.0 106323.0 263225.0 255057.0 151249.0 154561.0 29071.0 31342.0 45269.0 53467.0 70619.0 74076.0 187474.0 181610.0 232763.0 226298.0 241234.0 234975.0 177146.0 175344.0 87952.0 80675.0 103169.0 101414.0 143151.0 147241.0 309299.0 307503.0 80503.0 72649.0 66892.0 62134.0 87696.0 82457.0 97637.0 89765.0 78888.0 81132.0 16322.0 23142.0 105458.0 107566.0 171451.0 169691.0 93350.0 142168.0 93350.0 93350.0 93350.0 93350.0 142168.0 142168.0 142168.0 142168.0
15200.0 22901.0 65938.0 57677.0 119459.0 112286.0 37761.0 46114.0 111870.0 118576.0 157127.0 151012.0 89304.0 91614.0 154942.0 148543.0 134240.0 138547.0 129597.0 121610.0 72422.0 71493.0 53825.0 61390.0 184032.0 191645.0 135936.0 130918.0 75984.0 73495.0 64263.0 59634.0 185665.0 181088.0 218894.0 225816.0 84209.0 85445.0 44732.0 52341.0 47496.0 39722.0 241027.0 232817.0 132315.0 129474.0 246127.0 245868.0 240689.0 247199.0 134909.0 136619.0 37576.0 37306.0 154293.0 146572.0 74821.0 70548.0 209498.0 203099.0 67028.0 73842.0 0.0 8574.0 93219.0 85246.0 35100.0 42357.0 10339.0 2658.0 76242.0 75511.0 82644.0 89997.0 125800.0 118114.0 69617.0 64904.0 215666.0 207462.0 88356.0 89222.0 45831.0 42557.0 29566.0 21950.0 136533.0 141969.0 124555.0 117512.0 174790.0 167413.0 180687.0 173532.0 155605.0 150666.0 21407.0 14012.0 176403.0 173960.0 88864.0 89719.0 258498.0 255265.0 19666.0 20491.0 76816.0 69146.0 158627.0 154410.0 99686.0 95196.0 109111.0 105318.0 86820.0 94954.0 46180.0 43648.0 125923.0 127493.0 146755.0 108273.0 146755.0 146755.0 146755.0 146755.0 108273.0 108273.0 108273.0 108273.0
17989.0 23529.0 74249.0 66043.0 127351.0 120276.0 36857.0 45389.0 104297.0 110851.0 149358.0 143377.0 93535.0 96452.0 146438.0 140082.0 127772.0 131791.0 123410.0 115410.0 68639.0 66869.0 45255.0 52842.0 176220.0 183794.0 128153.0 123327.0 79765.0 78030.0 57301.0 52121.0 178132.0 173727.0 226294.0 233292.0 78702.0 80613.0 42858.0 49893.0 39072.0 31295.0 248920.0 240702.0 130117.0 126801.0 253423.0 253017.0 247639.0 254242.0 126337.0 128050.0 34698.0 36245.0 162421.0 154713.0 66896.0 63001.0 216959.0 210655.0 58906.0 65902.0 8574.0 0.0 84674.0 76692.0 31671.0 39449.0 9609.0 8830.0 67758.0 67217.0 74672.0 82153.0 117299.0 109593.0 74272.0 69676.0 222552.0 214377.0 96377.0 97475.0 38517.0 34560.0 21150.0 13389.0 130032.0 135240.0 132706.0 125741.0 182634.0 175321.0 188753.0 181657.0 153377.0 148798.0 28923.0 20999.0 168773.0 166517.0 95921.0 97168.0 265859.0 262748.0 25437.0 23487.0 69676.0 61912.0 151488.0 147071.0 93897.0 88986.0 101433.0 97931.0 79349.0 87428.0 53207.0 51358.0 126943.0 127966.0 141709.0 113029.0 141709.0 141709.0 141709.0 141709.0 113029.0 113029.0 113029.0 113029.0
94355.0 91633.0 156885.0 149123.0 206301.0 200038.0 89677.0 92891.0 58453.0 59015.0 76261.0 73115.0 151910.0 158104.0 66405.0 61935.0 93910.0 92337.0 80163.0 74456.0 91044.0 83255.0 39571.0 31833.0 100812.0 107517.0 57224.0 56937.0 137900.0 140681.0 48235.0 44182.0 106664.0 105034.0 299747.0 307280.0 78639.0 86664.0 86517.0 84833.0 46116.0 53745.0 326312.0 318092.0 144996.0 137963.0 325621.0 323969.0 317703.0 324556.0 42128.0 45225.0 80930.0 88896.0 242591.0 235070.0 30329.0 38448.0 291050.0 285613.0 31667.0 30499.0 93219.0 84674.0 0.0 8087.0 78704.0 80884.0 87802.0 92894.0 17654.0 22308.0 26525.0 29032.0 32976.0 25063.0 138228.0 135051.0 292587.0 284419.0 176851.0 179381.0 54620.0 53062.0 63801.0 71287.0 80421.0 80991.0 213401.0 207103.0 260314.0 253597.0 268161.0 261618.0 163862.0 163374.0 110790.0 102932.0 96441.0 97153.0 170722.0 174199.0 338459.0 336437.0 104204.0 97169.0 55283.0 54028.0 88258.0 81254.0 82094.0 74153.0 54524.0 58946.0 37055.0 37247.0 131055.0 132021.0 168528.0 165357.0 111434.0 172222.0 111434.0 111434.0 111434.0 111434.0 172222.0 172222.0 172222.0 172222.0
86724.0 84275.0 149187.0 141372.0 199013.0 192666.0 83009.0 86655.0 58012.0 59656.0 83015.0 79420.0 146010.0 152011.0 72989.0 68026.0 93191.0 92319.0 82718.0 76485.0 84728.0 77056.0 31524.0 23863.0 108036.0 114871.0 63368.0 62307.0 131874.0 134365.0 43392.0 38330.0 113434.0 111445.0 293102.0 300591.0 73552.0 81401.0 80276.0 79113.0 38342.0 45894.0 319298.0 311072.0 140385.0 133554.0 319126.0 317593.0 311321.0 318174.0 49836.0 52439.0 74264.0 82209.0 235227.0 227680.0 26406.0 34177.0 284333.0 278806.0 25727.0 26318.0 85246.0 76692.0 8087.0 0.0 71872.0 74513.0 80010.0 84965.0 10743.0 17211.0 24666.0 29297.0 41062.0 33147.0 131797.0 128493.0 286205.0 278038.0 169379.0 171780.0 47723.0 45589.0 55897.0 63302.0 83872.0 85112.0 205956.0 199585.0 253215.0 246432.0 260896.0 254291.0 159847.0 159012.0 103046.0 95150.0 103255.0 103588.0 163701.0 167012.0 331937.0 329806.0 96580.0 89686.0 50028.0 47922.0 93772.0 87029.0 78330.0 70329.0 54013.0 57409.0 36220.0 38178.0 123651.0 124431.0 162253.0 159327.0 112936.0 166420.0 112936.0 112936.0 112936.0 112936.0 166420.0 166420.0 166420.0 166420.0
24129.0 16859.0 82350.0 75611.0 128190.0 122282.0 11448.0 17782.0 115335.0 120477.0 130149.0 123282.0 76335.0 81475.0 144860.0 139776.0 144332.0 146860.0 96663.0 88779.0 95195.0 91679.0 46303.0 50713.0 157012.0 164820.0 109413.0 103268.0 61892.0 63244.0 36352.0 35783.0 156982.0 151596.0 221249.0 228724.0 100550.0 104345.0 12758.0 18511.0 36734.0 32145.0 247633.0 239417.0 158413.0 154339.0 247377.0 245990.0 239746.0 246598.0 120275.0 123917.0 3661.0 10596.0 164689.0 157292.0 52246.0 45442.0 212462.0 206946.0 47404.0 51514.0 35100.0 31671.0 78704.0 71872.0 0.0 7938.0 24762.0 32751.0 61226.0 57024.0 59795.0 65544.0 108129.0 101361.0 60376.0 56816.0 214629.0 206462.0 99787.0 103326.0 24149.0 28009.0 28052.0 29715.0 104332.0 110399.0 135961.0 130141.0 181722.0 175110.0 189892.0 183548.0 181461.0 177470.0 39914.0 34401.0 148339.0 144921.0 92079.0 95857.0 260160.0 257956.0 31769.0 23352.0 85360.0 77731.0 128371.0 125072.0 114198.0 107888.0 111816.0 110506.0 59948.0 68003.0 54119.0 56887.0 158375.0 159122.0 112043.0 96878.0 112043.0 112043.0 112043.0 112043.0 96878.0 96878.0 96878.0 96878.0
30089.0 21982.0 84484.0 78254.0 127848.0 122294.0 10039.0 12281.0 120676.0 125509.0 127769.0 120660.0 71927.0 77605.0 147280.0 142534.0 150492.0 152749.0 91759.0 83989.0 102898.0 99221.0 51257.0 54771.0 154477.0 162323.0 107363.0 100840.0 57607.0 59852.0 35595.0 36902.0 153813.0 148120.0 218925.0 226497.0 107708.0 111721.0 6057.0 10574.0 41660.0 38101.0 246168.0 237974.0 166209.0 162062.0 244737.0 243113.0 236842.0 243695.0 121791.0 125885.0 4795.0 9541.0 164432.0 157158.0 52832.0 45391.0 210302.0 205002.0 49230.0 52221.0 42357.0 39449.0 80884.0 74513.0 7938.0 0.0 32059.0 39907.0 63774.0 58749.0 59989.0 64976.0 108960.0 102536.0 57344.0 54230.0 211725.0 203558.0 100443.0 104532.0 27504.0 32950.0 35255.0 37514.0 99807.0 106171.0 136155.0 130673.0 180579.0 174174.0 189225.0 183098.0 189225.0 185292.0 44550.0 40002.0 145448.0 141660.0 91022.0 95386.0 257577.0 255601.0 36378.0 28122.0 91768.0 84250.0 124669.0 121786.0 121080.0 114598.0 117064.0 116164.0 58575.0 66386.0 55495.0 59248.0 166263.0 167044.0 105770.0 92464.0 105770.0 105770.0 105770.0 105770.0 92464.0 92464.0 92464.0 92464.0
8792.0 14016.0 69282.0 61377.0 120976.0 114138.0 28053.0 36540.0 111830.0 118128.0 148871.0 142547.0 84120.0 87231.0 151262.0 145201.0 136421.0 140203.0 119791.0 111819.0 78242.0 76383.0 49250.0 56277.0 175819.0 183496.0 127737.0 122417.0 70263.0 68731.0 55231.0 51326.0 177015.0 172218.0 218938.0 226043.0 87951.0 90067.0 34674.0 42148.0 41687.0 34141.0 242397.0 234167.0 139640.0 136381.0 245908.0 245315.0 239712.0 246415.0 129846.0 132100.0 27270.0 27521.0 156546.0 148887.0 67109.0 62198.0 209698.0 203544.0 59845.0 66171.0 10339.0 9609.0 87802.0 80010.0 24762.0 32059.0 0.0 8048.0 70406.0 68787.0 74984.0 82040.0 119857.0 112361.0 65026.0 60489.0 214598.0 206431.0 90401.0 92155.0 37427.0 35448.0 24404.0 18615.0 126914.0 132514.0 126951.0 120244.0 176068.0 168894.0 182681.0 175749.0 162909.0 158270.0 23100.0 15140.0 167901.0 165199.0 88318.0 90093.0 258426.0 255492.0 17655.0 14108.0 77868.0 70043.0 149529.0 145540.0 102999.0 97868.0 108812.0 105736.0 78271.0 86450.0 45879.0 45114.0 135372.0 136664.0 136518.0 103757.0 136518.0 136518.0 136518.0 136518.0 103757.0 103757.0 103757.0 103757.0
12569.0 20247.0 65444.0 57263.0 118553.0 111459.0 35141.0 43476.0 112962.0 119577.0 155912.0 149717.0 87024.0 89462.0 155144.0 148833.0 135839.0 140037.0 127706.0 119727.0 74677.0 73582.0 53668.0 61104.0 182837.0 190475.0 134737.0 129605.0 73616.0 71265.0 62710.0 58349.0 184303.0 179638.0 217675.0 224640.0 86093.0 87498.0 42167.0 49818.0 46969.0 39224.0 240126.0 231910.0 134817.0 131921.0 244852.0 244518.0 239245.0 245799.0 134715.0 136581.0 35138.0 34695.0 153591.0 145883.0 73761.0 69261.0 208313.0 201969.0 66132.0 72795.0 2658.0 8830.0 92894.0 84965.0 32751.0 39907.0 8048.0 0.0 75774.0 74772.0 81609.0 88866.0 125341.0 117709.0 67409.0 62718.0 214192.0 206001.0 87555.0 88653.0 44487.0 41624.0 29103.0 21845.0 134741.0 140258.0 123876.0 116915.0 173851.0 166522.0 179928.0 172827.0 158108.0 153204.0 20184.0 12419.0 175098.0 172553.0 87450.0 88513.0 257258.0 254093.0 17613.0 17909.0 78121.0 70402.0 157078.0 152956.0 101498.0 96873.0 110140.0 106511.0 85472.0 93627.0 44723.0 42591.0 128581.0 130149.0 144566.0 106109.0 144566.0 144566.0 144566.0 144566.0 106109.0 106109.0 106109.0 106109.0
76786.0 73979.0 139348.0 131637.0 188654.0 182384.0 72316.0 75912.0 65687.0 68190.0 86775.0 82318.0 135284.0 141269.0 83651.0 78762.0 100233.0 100021.0 79678.0 72842.0 83809.0 76494.0 23503.0 15497.0 112688.0 119828.0 66217.0 63833.0 121137.0 123625.0 33214.0 27684.0 116996.0 114268.0 282419.0 289920.0 75176.0 82601.0 69533.0 68435.0 28814.0 36551.0 308756.0 300534.0 142228.0 135748.0 308412.0 306863.0 300591.0 307444.0 59745.0 62821.0 63567.0 71521.0 224938.0 217416.0 17561.0 24605.0 273670.0 268172.0 15137.0 17193.0 76242.0 67758.0 17654.0 10743.0 61226.0 63774.0 70406.0 75774.0 0.0 7955.0 18611.0 25426.0 49569.0 41969.0 121068.0 117783.0 275475.0 267307.0 159205.0 161777.0 37090.0 35441.0 46691.0 54427.0 82059.0 84266.0 195750.0 189466.0 242721.0 235980.0 250519.0 243967.0 162533.0 161174.0 93314.0 85509.0 106977.0 106513.0 153157.0 156573.0 321228.0 319120.0 86626.0 79531.0 51905.0 48227.0 95068.0 88856.0 81942.0 73979.0 61695.0 64057.0 30323.0 34382.0 113402.0 114417.0 160950.0 158545.0 108311.0 155705.0 108311.0 108311.0 108311.0 108311.0 155705.0 155705.0 155705.0 155705.0
74489.0 70892.0 136979.0 129475.0 185096.0 179024.0 67762.0 70668.0 73609.0 75989.0 84025.0 78990.0 129602.0 135814.0 88653.0 84239.0 108188.0 107952.0 72949.0 65892.0 89639.0 82540.0 25632.0 18214.0 110435.0 117779.0 63051.0 59801.0 115603.0 118462.0 26231.0 21913.0 113902.0 110668.0 277673.0 285238.0 82118.0 89356.0 64304.0 62527.0 28342.0 36038.0 304599.0 296389.0 149074.0 142731.0 303452.0 301745.0 295486.0 302339.0 63254.0 67137.0 59040.0 67002.0 221522.0 214065.0 9627.0 17012.0 269033.0 263677.0 9620.0 9326.0 75511.0 67217.0 22308.0 17211.0 57024.0 58749.0 68787.0 74772.0 7955.0 0.0 11617.0 19277.0 51519.0 44449.0 116066.0 112972.0 270370.0 262203.0 156124.0 159050.0 33283.0 33340.0 46097.0 54165.0 75894.0 78591.0 192553.0 186463.0 238742.0 232131.0 246869.0 240456.0 169652.0 168113.0 91301.0 83705.0 104053.0 103023.0 149092.0 152835.0 316303.0 314349.0 84231.0 76749.0 59077.0 54903.0 90574.0 84746.0 89449.0 81515.0 69614.0 72009.0 22906.0 27860.0 110249.0 111778.0 166327.0 164201.0 100915.0 149917.0 100915.0 100915.0 100915.0 100915.0 149917.0 149917.0 149917.0 149917.0
79726.0 75085.0 141558.0 134378.0 187711.0 181971.0 69649.0 71193.0 82648.0 84276.0 74879.0 69305.0 128577.0 135227.0 90261.0 86774.0 117715.0 116974.0 61349.0 54351.0 101226.0 94151.0 36237.0 29358.0 101638.0 109162.0 53694.0 49626.0 114982.0 118569.0 24642.0 24257.0 104256.0 100576.0 278073.0 285744.0 93613.0 100913.0 64998.0 61819.0 37059.0 44324.0 306006.0 297825.0 160613.0 154219.0 303420.0 301543.0 295271.0 302124.0 62847.0 67940.0 61192.0 68970.0 224272.0 216934.0 7877.0 14606.0 269643.0 264548.0 16095.0 8818.0 82644.0 74672.0 26525.0 24666.0 59795.0 59989.0 74984.0 81609.0 18611.0 11617.0 0.0 8061.0 49142.0 43214.0 116503.0 113794.0 270155.0 261988.0 159583.0 163021.0 37814.0 40118.0 53946.0 62143.0 64315.0 67169.0 195711.0 189936.0 240544.0 234163.0 249197.0 243017.0 181075.0 179621.0 96695.0 89457.0 94609.0 93056.0 151011.0 155278.0 316323.0 314659.0 89197.0 81283.0 70452.0 66466.0 79829.0 74324.0 100546.0 92577.0 78646.0 81741.0 11809.0 16264.0 113862.0 116133.0 177789.0 175739.0 89706.0 148561.0 89706.0 89706.0 89706.0 89706.0 148561.0 148561.0 148561.0 148561.0
86389.0 81334.0 147733.0 140717.0 192813.0 187258.0 74848.0 75643.0 86971.0 87959.0 67220.0 61461.0 131692.0 138593.0 88942.0 86136.0 122312.0 121112.0 54290.0 47611.0 108849.0 101677.0 44285.0 37308.0 94068.0 101654.0 46013.0 41667.0 118414.0 122428.0 29407.0 30807.0 96387.0 92594.0 281792.0 289521.0 100582.0 108027.0 69620.0 65687.0 44987.0 52139.0 310306.0 302149.0 167643.0 161126.0 306852.0 304922.0 298650.0 305503.0 60525.0 66353.0 66624.0 74218.0 229400.0 222134.0 15333.0 20211.0 273496.0 268563.0 24024.0 16358.0 89997.0 82153.0 29032.0 29297.0 65544.0 64976.0 82040.0 88866.0 25426.0 19277.0 8061.0 0.0 45805.0 40876.0 120568.0 118096.0 273534.0 265366.0 165175.0 168864.0 44652.0 47611.0 61615.0 69813.0 56728.0 59314.0 201091.0 195486.0 245127.0 238882.0 254068.0 248023.0 187832.0 186563.0 103351.0 96284.0 86812.0 85107.0 155804.0 160346.0 319779.0 318295.0 95702.0 87642.0 77244.0 73641.0 71769.0 66292.0 106865.0 98868.0 82993.0 86683.0 8746.0 9037.0 119650.0 122267.0 185604.0 183459.0 83699.0 151405.0 83699.0 83699.0 83699.0 83699.0 151405.0 151405.0 151405.0 151405.0
125908.0 122402.0 188454.0 180883.0 236318.0 230371.0 118447.0 120317.0 71080.0 67826.0 52250.0 52150.0 177396.0 184193.0 45521.0 44899.0 104104.0 100042.0 77378.0 74554.0 119321.0 111358.0 72441.0 64586.0 72858.0 78669.0 39487.0 43936.0 163971.0 167692.0 73784.0 72381.0 81132.0 81523.0 327188.0 334870.0 103766.0 112027.0 114093.0 110914.0 78375.0 86119.0 355098.0 346911.0 166997.0 159406.0 352443.0 350536.0 344264.0 351117.0 16000.0 23552.0 109847.0 117734.0 272813.0 265398.0 56131.0 63709.0 318778.0 313689.0 61013.0 56768.0 125800.0 117299.0 32976.0 41062.0 108129.0 108960.0 119857.0 125341.0 49569.0 51519.0 49142.0 45805.0 0.0 8042.0 165645.0 162921.0 319148.0 310981.0 207592.0 210568.0 84747.0 84568.0 96259.0 103942.0 73606.0 70951.0 243967.0 237943.0 289527.0 283065.0 297975.0 291674.0 183517.0 184246.0 142622.0 134909.0 70998.0 73828.0 199919.0 203959.0 365357.0 363756.0 135688.0 128265.0 81951.0 82777.0 70489.0 62618.0 103168.0 95832.0 67971.0 75023.0 54144.0 49080.0 161721.0 163291.0 195823.0 191865.0 109849.0 197172.0 109849.0 109849.0 109849.0 109849.0 197172.0 197172.0 197172.0 197172.0
118577.0 115298.0 181151.0 173514.0 229514.0 223470.0 111873.0 114090.0 65697.0 63135.0 58162.0 57200.0 171786.0 178435.0 48315.0 46348.0 99607.0 96038.0 78026.0 74427.0 111684.0 103730.0 64608.0 56802.0 79962.0 86004.0 43257.0 46462.0 158187.0 161669.0 67740.0 65745.0 87674.0 87559.0 321162.0 328804.0 96543.0 104795.0 107810.0 104988.0 70774.0 78490.0 348694.0 340495.0 160460.0 152957.0 346599.0 344738.0 338466.0 345319.0 19698.0 25682.0 103214.0 111141.0 265960.0 258511.0 49782.0 57599.0 312668.0 307478.0 54032.0 50341.0 118114.0 109593.0 25063.0 33147.0 101361.0 102536.0 112361.0 117709.0 41969.0 44449.0 43214.0 40876.0 8042.0 0.0 159512.0 156663.0 313350.0 305182.0 200559.0 203396.0 77732.0 77196.0 88609.0 96219.0 75219.0 73356.0 237000.0 230889.0 282980.0 276441.0 291253.0 284876.0 177450.0 177949.0 135213.0 127448.0 77463.0 79766.0 193334.0 197216.0 359496.0 357775.0 128385.0 121073.0 74423.0 75005.0 74932.0 67189.0 96593.0 89115.0 62378.0 69068.0 49496.0 45373.0 154685.0 156072.0 188411.0 184577.0 109735.0 191730.0 109735.0 109735.0 109735.0 109735.0 191730.0 191730.0 191730.0 191730.0
56319.0 52975.0 51883.0 51416.0 75497.0 71629.0 48980.0 45452.0 174381.0 179984.0 177981.0 170272.0 20052.0 22208.0 204623.0 199822.0 201014.0 204407.0 133166.0 126602.0 142036.0 140941.0 106364.0 111085.0 203644.0 211487.0 159011.0 151612.0 10588.0 4016.0 91862.0 94175.0 200641.0 193812.0 161674.0 169296.0 152954.0 154796.0 51785.0 54881.0 96905.0 91471.0 189764.0 181620.0 200702.0 198402.0 187394.0 185796.0 179525.0 186377.0 178922.0 183185.0 57655.0 49813.0 111481.0 104773.0 109733.0 101960.0 153158.0 148054.0 106570.0 109200.0 69617.0 74272.0 138228.0 131797.0 60376.0 57344.0 65026.0 67409.0 121068.0 116066.0 116503.0 120568.0 165645.0 159512.0 0.0 4794.0 154408.0 146241.0 54855.0 61685.0 84300.0 88265.0 84699.0 82098.0 142610.0 150040.0 85665.0 81959.0 124996.0 119121.0 134732.0 129278.0 223912.0 218478.0 51276.0 56234.0 193531.0 188405.0 37806.0 44405.0 200238.0 198322.0 50007.0 50919.0 142023.0 134184.0 170102.0 169011.0 168020.0 162779.0 171041.0 168947.0 113173.0 120267.0 31987.0 39768.0 187316.0 190480.0 138719.0 38758.0 138719.0 138719.0 138719.0 138719.0 38758.0 38758.0 38758.0 38758.0
51753.0 48677.0 49188.0 48097.0 76519.0 72212.0 45509.0 42604.0 170278.0 175962.0 176533.0 168890.0 24843.0 26780.0 201407.0 196492.0 196629.0 200097.0 132588.0 125860.0 137316.0 136275.0 102557.0 107460.0 202389.0 210245.0 157314.0 150023.0 14329.0 8801.0 89164.0 91130.0 199687.0 192983.0 164705.0 172267.0 148375.0 150148.0 48854.0 52510.0 93153.0 87548.0 192242.0 184074.0 195910.0 193618.0 190634.0 189179.0 182930.0 189783.0 175992.0 180109.0 54240.0 46323.0 112791.0 105924.0 106888.0 99212.0 156073.0 150815.0 103431.0 106323.0 64904.0 69676.0 135051.0 128493.0 56816.0 54230.0 60489.0 62718.0 117783.0 112972.0 113794.0 118096.0 162921.0 156663.0 4794.0 0.0 157814.0 149646.0 54180.0 60636.0 80869.0 84564.0 80552.0 77740.0 141938.0 149286.0 86298.0 82194.0 127110.0 121045.0 136503.0 130851.0 219119.0 213684.0 46483.0 51474.0 192403.0 187436.0 38742.0 44768.0 203445.0 201389.0 45275.0 46392.0 137695.0 129853.0 169242.0 167935.0 163486.0 158306.0 166971.0 164762.0 110874.0 118114.0 27628.0 35482.0 182637.0 185762.0 138832.0 43398.0 138832.0 138832.0 138832.0 138832.0 43398.0 43398.0 43398.0 43398.0
205963.0 205042.0 156563.0 164495.0 103285.0 111265.0 203308.0 199703.0 326384.0 332523.0 325797.0 317843.0 141915.0 134956.0 358991.0 354230.0 349823.0 354211.0 277477.0 271743.0 283560.0 284753.0 260088.0 265228.0 350300.0 358028.0 308229.0 300405.0 155182.0 151909.0 245622.0 248458.0 345925.0 338592.0 24271.0 30237.0 298855.0 298718.0 206073.0 208366.0 250796.0 244858.0 60542.0 56123.0 331860.0 332003.0 36574.0 32798.0 25228.0 32458.0 332903.0 337413.0 212021.0 204128.0 84170.0 89529.0 263700.0 255770.0 27211.0 33350.0 260920.0 263225.0 215666.0 222552.0 292587.0 286205.0 214629.0 211725.0 214598.0 214192.0 275475.0 270370.0 270155.0 273534.0 319148.0 313350.0 154408.0 157814.0 0.0 8282.0 132704.0 135981.0 238665.0 242285.0 237097.0 233024.0 287197.0 294890.0 105318.0 113139.0 59713.0 66740.0 67941.0 74217.0 353423.0 346432.0 194300.0 201777.0 339663.0 333847.0 126830.0 126851.0 49264.0 50233.0 197202.0 201291.0 292227.0 284450.0 315206.0 315123.0 314613.0 310654.0 323299.0 320304.0 265625.0 272073.0 169490.0 172679.0 302363.0 308365.0 280842.0 124149.0 280842.0 280842.0 280842.0 280842.0 124149.0 124149.0 124149.0 124149.0
197796.0 196848.0 148284.0 156213.0 95087.0 103062.0 195140.0 191536.0 318223.0 324349.0 317630.0 309676.0 133747.0 126789.0 350824.0 346063.0 341599.0 346009.0 269310.0 263576.0 275283.0 276486.0 251921.0 257060.0 342133.0 349861.0 300062.0 292238.0 147014.0 143742.0 237455.0 240291.0 337758.0 330425.0 25194.0 32462.0 290603.0 290449.0 197906.0 200199.0 242629.0 236634.0 62504.0 57170.0 323622.0 323746.0 42924.0 40042.0 33284.0 40238.0 324736.0 329246.0 203854.0 195961.0 76892.0 81997.0 255533.0 247602.0 24960.0 29523.0 252753.0 255057.0 207462.0 214377.0 284419.0 278038.0 206462.0 203558.0 206431.0 206001.0 267307.0 262203.0 261988.0 265366.0 310981.0 305182.0 146241.0 149646.0 8282.0 0.0 124431.0 127743.0 230498.0 234117.0 228911.0 224856.0 279030.0 286722.0 97317.0 105102.0 52958.0 59666.0 62160.0 67989.0 345210.0 338233.0 186089.0 193584.0 331496.0 325680.0 118613.0 118584.0 55828.0 55954.0 189030.0 193120.0 284053.0 276282.0 307039.0 306955.0 306364.0 302424.0 315129.0 312160.0 257458.0 263906.0 161291.0 164437.0 294295.0 300263.0 272674.0 115982.0 272674.0 272674.0 272674.0 272674.0 115982.0 115982.0 115982.0 115982.0
82867.0 85279.0 24044.0 32296.0 31341.0 23940.0 90444.0 91179.0 200016.0 206855.0 227557.0 220181.0 62433.0 55986.0 241497.0 235558.0 219924.0 224994.0 185994.0 179003.0 151612.0 153429.0 139456.0 146094.0 253949.0 261820.0 207529.0 200706.0 63979.0 56086.0 135791.0 135495.0 252128.0 245746.0 132449.0 138933.0 168106.0 167221.0 96495.0 102302.0 131257.0 124087.0 152736.0 144539.0 199517.0 199418.0 160087.0 160702.0 156887.0 162699.0 218939.0 221798.0 98550.0 91033.0 66146.0 58488.0 152004.0 145189.0 122787.0 115945.0 146585.0 151249.0 88356.0 96377.0 176851.0 169379.0 99787.0 100443.0 90401.0 87555.0 159205.0 156124.0 159583.0 165175.0 207592.0 200559.0 54855.0 54180.0 132704.0 124431.0 0.0 8078.0 122852.0 123807.0 114725.0 108762.0 195156.0 202327.0 36602.0 30363.0 86635.0 79135.0 92381.0 85358.0 221448.0 214690.0 67587.0 75649.0 244386.0 239870.0 22372.0 14598.0 172044.0 168231.0 73055.0 79695.0 164528.0 157038.0 221997.0 220150.0 183936.0 180729.0 197361.0 193247.0 159014.0 166818.0 45875.0 45288.0 173423.0 178654.0 192960.0 64459.0 192960.0 192960.0 192960.0 192960.0 64459.0 64459.0 64459.0 64459.0
85057.0 88186.0 23354.0 31757.0 32994.0 25041.0 94495.0 95848.0 200265.0 207258.0 232095.0 224819.0 70226.0 63925.0 243415.0 237296.0 219028.0 224326.0 191532.0 184420.0 149867.0 152087.0 141396.0 148268.0 258627.0 266493.0 211862.0 205193.0 71136.0 63179.0 139568.0 138822.0 257140.0 250902.0 134339.0 140539.0 167007.0 165732.0 100906.0 107065.0 133497.0 126159.0 152836.0 144693.0 195880.0 196078.0 162068.0 163065.0 159764.0 165308.0 221508.0 224101.0 102338.0 95033.0 65290.0 57541.0 155351.0 148761.0 124575.0 117480.0 149583.0 154561.0 89222.0 97475.0 179381.0 171780.0 103326.0 104532.0 92155.0 88653.0 161777.0 159050.0 163021.0 168864.0 210568.0 203396.0 61685.0 60636.0 135981.0 127743.0 8078.0 0.0 125871.0 126336.0 116559.0 110216.0 200584.0 207660.0 35570.0 28300.0 87282.0 79539.0 91854.0 84499.0 217529.0 210628.0 69093.0 77147.0 249229.0 244893.0 30444.0 22661.0 173777.0 169640.0 75201.0 82323.0 164562.0 157199.0 227176.0 225113.0 182819.0 179939.0 197734.0 193330.0 162978.0 170880.0 49215.0 47361.0 168290.0 173749.0 199086.0 72531.0 199086.0 199086.0 199086.0 199086.0 72531.0 72531.0 72531.0 72531.0
41918.0 37685.0 104023.0 96700.0 151859.0 145749.0 35361.0 39783.0 93817.0 98348.0 111469.0 105231.0 99423.0 104993.0 120712.0 115646.0 124828.0 126561.0 85830.0 77854.0 85210.0 80055.0 24539.0 27289.0 138410.0 146077.0 90319.0 85119.0 85079.0 87018.0 19002.0 13899.0 139838.0 135281.0 245393.0 252872.0 85814.0 91035.0 33509.0 34374.0 15340.0 15440.0 271692.0 263472.0 148676.0 143635.0 271483.0 270041.0 263782.0 270635.0 96387.0 99846.0 26648.0 34546.0 188258.0 180791.0 29955.0 24789.0 236611.0 231089.0 23735.0 29071.0 45831.0 38517.0 54620.0 47723.0 24149.0 27504.0 37427.0 44487.0 37090.0 33283.0 37814.0 44652.0 84747.0 77732.0 84300.0 80869.0 238665.0 230498.0 122852.0 125871.0 0.0 8078.0 20395.0 27840.0 91954.0 96909.0 159270.0 153198.0 205704.0 199018.0 213669.0 207213.0 171072.0 168003.0 58884.0 51668.0 130612.0 128132.0 116101.0 119655.0 284277.0 282099.0 51451.0 43692.0 67206.0 60182.0 112971.0 108610.0 97740.0 90690.0 90116.0 89740.0 40995.0 49142.0 76978.0 78696.0 155940.0 155431.0 106667.0 119965.0 106667.0 106667.0 106667.0 106667.0 119965.0 119965.0 119965.0 119965.0
41384.0 38711.0 103961.0 96325.0 153455.0 147079.0 39454.0 45020.0 87727.0 92636.0 114830.0 108943.0 104298.0 109482.0 118212.0 112743.0 117924.0 119944.0 92160.0 84234.0 77146.0 71978.0 18360.0 22983.0 141673.0 149237.0 93622.0 88954.0 89866.0 91210.0 25389.0 18403.0 143778.0 139586.0 248476.0 255865.0 77901.0 83021.0 39000.0 41004.0 8753.0 7401.0 273987.0 265756.0 140599.0 135561.0 274826.0 273594.0 267401.0 274229.0 95181.0 98027.0 31099.0 38598.0 189640.0 182091.0 32337.0 28938.0 239560.0 233856.0 24509.0 31342.0 42557.0 34560.0 53062.0 45589.0 28009.0 32950.0 35448.0 41624.0 35441.0 33340.0 40118.0 47611.0 84568.0 77196.0 88265.0 84564.0 242285.0 234117.0 123807.0 126336.0 8078.0 0.0 14296.0 22393.0 97835.0 102427.0 160375.0 154043.0 207814.0 200962.0 215344.0 208712.0 162996.0 159926.0 58055.0 50388.0 134331.0 132274.0 118472.0 121545.0 287561.0 285182.0 51208.0 44114.0 59789.0 52598.0 117740.0 112997.0 90072.0 83138.0 84125.0 83266.0 45283.0 53221.0 78062.0 78977.0 148326.0 147682.0 113965.0 124850.0 113965.0 113965.0 113965.0 113965.0 124850.0 124850.0 124850.0 124850.0
32019.0 32098.0 93660.0 85696.0 145128.0 138393.0 38317.0 45729.0 89734.0 95544.0 128806.0 123045.0 102338.0 106639.0 126861.0 120836.0 117041.0 119996.0 106094.0 98135.0 68238.0 64138.0 24855.0 32055.0 155583.0 163098.0 107605.0 103110.0 87949.0 88037.0 39187.0 32657.0 157924.0 153818.0 242231.0 249447.0 72511.0 76475.0 40743.0 45225.0 17932.0 10156.0 266389.0 258155.0 131830.0 127354.0 268983.0 268134.0 262182.0 269042.0 105696.0 107770.0 31702.0 37469.0 180854.0 173211.0 46286.0 43232.0 233104.0 227106.0 37997.0 45269.0 29566.0 21150.0 63801.0 55897.0 28052.0 35255.0 24404.0 29103.0 46691.0 46097.0 53946.0 61615.0 96259.0 88609.0 84699.0 80552.0 237097.0 228911.0 114725.0 116559.0 20395.0 14296.0 0.0 8199.0 111975.0 116666.0 151300.0 144634.0 200069.0 192979.0 206917.0 200041.0 154657.0 151049.0 47493.0 39482.0 148416.0 146476.0 111612.0 113882.0 281594.0 278867.0 41714.0 36044.0 57895.0 50143.0 132032.0 127251.0 86190.0 80001.0 86463.0 84254.0 59566.0 67472.0 69731.0 69453.0 136224.0 136041.0 126955.0 122677.0 126955.0 126955.0 126955.0 126955.0 122677.0 122677.0 122677.0 122677.0
27074.0 29153.0 87115.0 79009.0 139483.0 132571.0 38440.0 46531.0 93366.0 99574.0 137004.0 131237.0 100489.0 104247.0 133349.0 127108.0 118919.0 122371.0 113667.0 105687.0 65520.0 62276.0 31880.0 39454.0 163780.0 171291.0 115804.0 111291.0 86268.0 85626.0 46820.0 40643.0 166109.0 161971.0 237535.0 244651.0 72166.0 75308.0 42364.0 47969.0 25871.0 18128.0 260956.0 252728.0 128704.0 124639.0 264475.0 263831.0 258141.0 264886.0 112962.0 114744.0 33315.0 37651.0 174897.0 167216.0 54484.0 51315.0 228305.0 222159.0 46179.0 53467.0 21950.0 13389.0 71287.0 63302.0 29715.0 37514.0 18615.0 21845.0 54427.0 54165.0 62143.0 69813.0 103942.0 96219.0 82098.0 77740.0 233024.0 224856.0 108762.0 110216.0 27840.0 22393.0 8199.0 0.0 119746.0 124563.0 145243.0 138414.0 194630.0 187424.0 201111.0 194118.0 151746.0 147778.0 41196.0 33126.0 156610.0 154644.0 106897.0 108705.0 277008.0 274098.0 36269.0 31821.0 59962.0 52118.0 140113.0 135389.0 86597.0 80934.0 90293.0 87421.0 67671.0 75611.0 64493.0 63508.0 130563.0 130758.0 133796.0 120562.0 133796.0 133796.0 133796.0 133796.0 120562.0 120562.0 120562.0 120562.0
128347.0 121111.0 182787.0 177298.0 218090.0 214127.0 109235.0 105663.0 137624.0 136628.0 43775.0 36032.0 146352.0 154378.0 116637.0 117688.0 172827.0 170135.0 9783.0 16165.0 165532.0 158400.0 99767.0 93490.0 64297.0 71739.0 36698.0 30063.0 136469.0 142929.0 72953.0 79469.0 58761.0 51422.0 296163.0 304048.0 156964.0 164555.0 101654.0 94454.0 98186.0 104091.0 327120.0 319185.0 224004.0 217312.0 320526.0 318586.0 312314.0 319167.0 88493.0 96581.0 103548.0 108971.0 253787.0 247265.0 69625.0 69559.0 288399.0 284237.0 78528.0 70619.0 136533.0 130032.0 80421.0 83872.0 104332.0 99807.0 126914.0 134741.0 82059.0 75894.0 64315.0 56728.0 73606.0 75219.0 142610.0 141938.0 287197.0 279030.0 195156.0 200584.0 91954.0 97835.0 111975.0 119746.0 0.0 7799.0 228201.0 224077.0 264960.0 259908.0 275894.0 271026.0 243715.0 242774.0 144121.0 138676.0 53170.0 46792.0 180409.0 186705.0 333453.0 332324.0 135934.0 127539.0 133487.0 130267.0 28077.0 29373.0 162159.0 154167.0 133862.0 139049.0 54323.0 48052.0 153376.0 158254.0 241989.0 240039.0 40422.0 164826.0 40422.0 40422.0 40422.0 40422.0 164826.0 164826.0 164826.0 164826.0
134294.0 127232.0 189591.0 183966.0 225534.0 221494.0 115732.0 112449.0 137147.0 135705.0 36711.0 29230.0 154031.0 162043.0 112701.0 114230.0 172087.0 169050.0 17574.0 23438.0 168045.0 160759.0 103142.0 96522.0 56518.0 63944.0 32446.0 27031.0 144028.0 150421.0 77963.0 84025.0 51038.0 43823.0 303856.0 311740.0 158588.0 166324.0 108256.0 101205.0 102210.0 108426.0 334812.0 326877.0 225496.0 218650.0 328218.0 326278.0 320006.0 326859.0 85241.0 93385.0 109776.0 115436.0 261304.0 254747.0 73056.0 73765.0 296091.0 291929.0 82053.0 74076.0 141969.0 135240.0 80991.0 85112.0 110399.0 106171.0 132514.0 140258.0 84266.0 78591.0 67169.0 59314.0 70951.0 73356.0 150040.0 149286.0 294890.0 286722.0 202327.0 207660.0 96909.0 102427.0 116666.0 124563.0 7799.0 0.0 235575.0 231372.0 272629.0 267542.0 283514.0 278605.0 244788.0 244103.0 150280.0 144636.0 45373.0 39022.0 187823.0 194051.0 341145.0 340017.0 142105.0 133693.0 135060.0 132254.0 20325.0 21744.0 163058.0 155097.0 133469.0 139010.0 57979.0 51062.0 160185.0 164908.0 244918.0 242729.0 47048.0 172518.0 47048.0 47048.0 47048.0 47048.0 172518.0 172518.0 172518.0 172518.0
119468.0 121787.0 58889.0 67311.0 12001.0 14091.0 126243.0 126257.0 235817.0 242785.0 262311.0 254784.0 86680.0 78792.0 278095.0 272136.0 254417.0 259796.0 218801.0 212144.0 184819.0 187303.0 176049.0 182695.0 288422.0 296288.0 242630.0 235593.0 92857.0 85709.0 171684.0 171733.0 285960.0 279281.0 100656.0 106373.0 202335.0 200841.0 131870.0 137159.0 167856.0 160688.0 117335.0 109217.0 228234.0 228973.0 128362.0 130024.0 127821.0 132740.0 255468.0 258383.0 134544.0 126875.0 29752.0 22018.0 188207.0 181238.0 90801.0 83370.0 182988.0 187474.0 124555.0 132706.0 213401.0 205956.0 135961.0 136155.0 126951.0 123876.0 195750.0 192553.0 195711.0 201091.0 243967.0 237000.0 85665.0 86298.0 105318.0 97317.0 36602.0 35570.0 159270.0 160375.0 151300.0 145243.0 228201.0 235575.0 0.0 8013.0 52316.0 44405.0 56284.0 48986.0 249232.0 242043.0 104047.0 112117.0 278572.0 273705.0 47890.0 41572.0 139646.0 135100.0 109651.0 116271.0 200130.0 192757.0 255539.0 254152.0 218127.0 215384.0 233266.0 228897.0 194670.0 202347.0 82356.0 81848.0 197100.0 203205.0 224102.0 80125.0 224102.0 224102.0 224102.0 224102.0 80125.0 80125.0 80125.0 80125.0
112940.0 115594.0 51645.0 60027.0 14422.0 11601.0 120699.0 121125.0 228502.0 235523.0 257425.0 249973.0 84739.0 77083.0 271489.0 265440.0 246750.0 252187.0 214766.0 207969.0 177001.0 179564.0 169437.0 176198.0 283685.0 291555.0 237552.0 230629.0 89770.0 82347.0 166091.0 165857.0 281526.0 274976.0 108669.0 114373.0 194642.0 193062.0 126585.0 132151.0 161385.0 154132.0 124984.0 116895.0 220221.0 220962.0 136374.0 138030.0 135771.0 140729.0 249209.0 251976.0 128867.0 121302.0 37139.0 29395.0 182364.0 175528.0 98814.0 91377.0 176932.0 181610.0 117512.0 125741.0 207103.0 199585.0 130141.0 130673.0 120244.0 116915.0 189466.0 186463.0 189936.0 195486.0 237943.0 230889.0 81959.0 82194.0 113139.0 105102.0 30363.0 28300.0 153198.0 154043.0 144634.0 138414.0 224077.0 231372.0 8013.0 0.0 60256.0 52316.0 63761.0 56284.0 241231.0 234050.0 97241.0 105308.0 273972.0 269265.0 44614.0 37555.0 147643.0 143065.0 103095.0 109935.0 192757.0 185429.0 251221.0 249629.0 210421.0 207761.0 225995.0 221528.0 189245.0 197005.0 76222.0 75230.0 189233.0 195299.0 220667.0 80081.0 220667.0 220667.0 220667.0 220667.0 80081.0 80081.0 80081.0 80081.0
168054.0 169167.0 110220.0 118635.0 55350.0 62761.0 171111.0 169492.0 286592.0 293363.0 302448.0 294623.0 118612.0 110587.0 326026.0 320461.0 306275.0 311489.0 255254.0 249386.0 237032.0 239363.0 224445.0 230605.0 327607.0 335395.0 283865.0 276351.0 129176.0 123686.0 216001.0 217237.0 323647.0 316370.0 49406.0 54438.0 254283.0 252978.0 175587.0 179620.0 215770.0 208977.0 66330.0 58100.0 280033.0 280979.0 76763.0 79236.0 78747.0 82585.0 301996.0 305534.0 179769.0 171840.0 25501.0 32199.0 233397.0 225938.0 39621.0 31803.0 229123.0 232763.0 174790.0 182634.0 260314.0 253215.0 181722.0 180579.0 176068.0 173851.0 242721.0 238742.0 240544.0 245127.0 289527.0 282980.0 124996.0 127110.0 59713.0 52958.0 86635.0 87282.0 205704.0 207814.0 200069.0 194630.0 264960.0 272629.0 52316.0 60256.0 0.0 8032.0 14001.0 16149.0 300701.0 293381.0 153717.0 161714.0 317158.0 311527.0 89653.0 86300.0 87599.0 82828.0 158455.0 164240.0 251158.0 243651.0 292930.0 292584.0 270098.0 267145.0 283889.0 279865.0 237982.0 245203.0 130338.0 131280.0 247138.0 253594.0 258629.0 104040.0 258629.0 258629.0 258629.0 258629.0 104040.0 104040.0 104040.0 104040.0
160961.0 162274.0 102577.0 111003.0 47970.0 55209.0 164618.0 163244.0 279149.0 285965.0 296901.0 289116.0 113692.0 105600.0 319159.0 313518.0 298565.0 303827.0 250235.0 244233.0 229192.0 231584.0 217440.0 223691.0 322238.0 330045.0 278120.0 270676.0 123744.0 117987.0 209674.0 210718.0 318518.0 311330.0 57380.0 62470.0 246542.0 245171.0 169281.0 173516.0 208843.0 201979.0 73615.0 65409.0 272006.0 272963.0 84784.0 87184.0 86463.0 90459.0 295371.0 298801.0 173238.0 165333.0 17690.0 24186.0 226949.0 219562.0 47570.0 39792.0 222512.0 226298.0 167413.0 175321.0 253597.0 246432.0 175110.0 174174.0 168894.0 166522.0 235980.0 232131.0 234163.0 238882.0 283065.0 276441.0 119121.0 121045.0 66740.0 59666.0 79135.0 79539.0 199018.0 200962.0 192979.0 187424.0 259908.0 267542.0 44405.0 52316.0 8032.0 0.0 16149.0 14001.0 292669.0 285350.0 146422.0 154441.0 311877.0 306364.0 83154.0 79422.0 95627.0 90817.0 151313.0 157244.0 243651.0 236173.0 287816.0 287302.0 262351.0 259460.0 276479.0 272378.0 231847.0 239151.0 123272.0 123991.0 239151.0 245590.0 253719.0 100037.0 253719.0 253719.0 253719.0 253719.0 100037.0 100037.0 100037.0 100037.0
174940.0 176634.0 115168.0 123593.0 61891.0 68544.0 179570.0 178479.0 292091.0 299039.0 312643.0 304884.0 129756.0 121650.0 333441.0 327663.0 310458.0 315937.0 266234.0 260183.0 240429.0 243186.0 231527.0 237945.0 338077.0 345893.0 293735.0 286341.0 139615.0 133717.0 224785.0 225596.0 334467.0 327315.0 53055.0 56317.0 258328.0 256595.0 184448.0 188882.0 223087.0 216094.0 61399.0 53428.0 280860.0 282204.0 78765.0 82508.0 83884.0 86551.0 310056.0 313317.0 188132.0 180267.0 26625.0 34366.0 241905.0 234611.0 44034.0 36180.0 237256.0 241234.0 180687.0 188753.0 268161.0 260896.0 189892.0 189225.0 182681.0 179928.0 250519.0 246869.0 249197.0 254068.0 297975.0 291253.0 134732.0 136503.0 67941.0 62160.0 92381.0 91854.0 213669.0 215344.0 206917.0 201111.0 275894.0 283514.0 56284.0 63761.0 14001.0 16149.0 0.0 8065.0 300987.0 293510.0 159960.0 168017.0 327761.0 322301.0 98267.0 94037.0 88254.0 82487.0 165203.0 171423.0 256414.0 249036.0 303774.0 303189.0 274087.0 271505.0 289524.0 285181.0 247148.0 254528.0 137386.0 137604.0 246101.0 252833.0 269783.0 116178.0 269783.0 269783.0 269783.0 269783.0 116178.0 116178.0 116178.0 116178.0
168109.0 170017.0 107846.0 116256.0 55362.0 61675.0 173368.0 172533.0 284762.0 291754.0 307258.0 299545.0 125257.0 117117.0 326701.0 320848.0 302824.0 308354.0 261405.0 255227.0 232672.0 235502.0 224716.0 231223.0 332856.0 340687.0 288164.0 280845.0 134584.0 128441.0 218687.0 219299.0 329486.0 322426.0 60579.0 64144.0 250680.0 248870.0 178430.0 183062.0 216367.0 209306.0 69235.0 61327.0 272824.0 274191.0 86631.0 90198.0 91195.0 94124.0 303581.0 306727.0 181875.0 174050.0 19238.0 26969.0 235664.0 228451.0 51331.0 43397.0 230852.0 234975.0 173532.0 181657.0 261618.0 254291.0 183548.0 183098.0 175749.0 172827.0 243967.0 240456.0 243017.0 248023.0 291674.0 284876.0 129278.0 130851.0 74217.0 67989.0 85358.0 84499.0 207213.0 208712.0 200041.0 194118.0 271026.0 278605.0 48986.0 56284.0 16149.0 14001.0 8065.0 0.0 292930.0 285449.0 152933.0 161000.0 322633.0 317293.0 92352.0 87741.0 96259.0 90537.0 158336.0 164704.0 249036.0 241693.0 298825.0 298074.0 266424.0 263916.0 282231.0 277807.0 241222.0 248678.0 130673.0 130639.0 238045.0 244771.0 265195.0 112592.0 265195.0 265195.0 265195.0 265195.0 112592.0 112592.0 112592.0 112592.0
170481.0 176901.0 198361.0 191182.0 250144.0 242160.0 189474.0 197868.0 112937.0 117761.0 235586.0 234412.0 243936.0 245095.0 169728.0 162113.0 86211.0 93535.0 242108.0 235373.0 86422.0 91022.0 150849.0 154470.0 255451.0 260350.0 219463.0 220426.0 231239.0 227905.0 184744.0 176189.0 264570.0 264963.0 349770.0 355138.0 87626.0 80904.0 194080.0 199583.0 157167.0 155707.0 361249.0 353718.0 23290.0 27441.0 377384.0 379251.0 376808.0 381939.0 177340.0 171420.0 185057.0 188757.0 275705.0 268555.0 177939.0 181704.0 339908.0 332325.0 170380.0 177146.0 155605.0 153377.0 163862.0 159847.0 181461.0 189225.0 162909.0 158108.0 162533.0 169652.0 181075.0 187832.0 183517.0 177450.0 223912.0 219119.0 353423.0 345210.0 221448.0 217529.0 171072.0 162996.0 154657.0 151746.0 243715.0 244788.0 249232.0 241231.0 300701.0 292669.0 300987.0 292930.0 0.0 8118.0 172654.0 168017.0 254489.0 257199.0 232639.0 229962.0 388256.0 383122.0 174503.0 175959.0 110629.0 115021.0 251231.0 243803.0 81782.0 89709.0 115720.0 108494.0 192552.0 196852.0 195047.0 188966.0 60045.0 51925.0 270462.0 261626.0 270462.0 270462.0 270462.0 270462.0 261626.0 261626.0 261626.0 261626.0
165656.0 172283.0 191760.0 184693.0 243148.0 235171.0 185166.0 193609.0 114245.0 119491.0 236108.0 234659.0 238523.0 239483.0 172411.0 164674.0 89417.0 97009.0 240848.0 233972.0 82912.0 88050.0 148471.0 152455.0 256560.0 261649.0 219503.0 220164.0 226010.0 222481.0 182233.0 173687.0 265376.0 265508.0 342511.0 347818.0 86009.0 78862.0 190009.0 195721.0 154416.0 152584.0 353661.0 346158.0 19338.0 25463.0 370097.0 372040.0 369709.0 374777.0 178732.0 173073.0 181036.0 184467.0 268326.0 261215.0 176167.0 179609.0 332650.0 325041.0 168391.0 175344.0 150666.0 148798.0 163374.0 159012.0 177470.0 185292.0 158270.0 153204.0 161174.0 168113.0 179621.0 186563.0 184246.0 177949.0 218478.0 213684.0 346432.0 338233.0 214690.0 210628.0 168003.0 159926.0 151049.0 147778.0 242774.0 244103.0 242043.0 234050.0 293381.0 285350.0 293510.0 285449.0 8118.0 0.0 167202.0 162809.0 255241.0 257704.0 226293.0 223452.0 380903.0 375715.0 169336.0 171098.0 109341.0 113259.0 251173.0 243840.0 81600.0 89387.0 116820.0 109337.0 190969.0 195552.0 189233.0 183005.0 51929.0 43817.0 268692.0 255959.0 268692.0 268692.0 268692.0 268692.0 255959.0 255959.0 255959.0 255959.0
16972.0 23057.0 46183.0 38332.0 98453.0 91438.0 36012.0 42326.0 133145.0 139756.0 169379.0 162718.0 71321.0 72576.0 174327.0 168210.0 155548.0 159928.0 136244.0 128428.0 92030.0 91846.0 72345.0 79359.0 196315.0 204077.0 148422.0 142621.0 59143.0 55279.0 75167.0 72572.0 196699.0 191436.0 197519.0 204468.0 105116.0 105875.0 44011.0 52002.0 64704.0 57220.0 220012.0 211791.0 149462.0 147302.0 224730.0 224461.0 219305.0 225799.0 152874.0 155194.0 40587.0 36044.0 133708.0 126023.0 88839.0 83200.0 188143.0 181786.0 82116.0 87952.0 21407.0 28923.0 110790.0 103046.0 39914.0 44550.0 23100.0 20184.0 93314.0 91301.0 96695.0 103351.0 142622.0 135213.0 51276.0 46483.0 194300.0 186089.0 67587.0 69093.0 58884.0 58055.0 47493.0 41196.0 144121.0 150280.0 104047.0 97241.0 153717.0 146422.0 159960.0 152933.0 172654.0 167202.0 0.0 8071.0 187910.0 184689.0 67479.0 68347.0 237113.0 233920.0 8190.0 16588.0 98213.0 90525.0 168268.0 164865.0 120720.0 116437.0 130323.0 126669.0 98744.0 106914.0 24870.0 22438.0 137575.0 140201.0 149818.0 89199.0 149818.0 149818.0 149818.0 149818.0 89199.0 89199.0 89199.0 89199.0
10343.0 18022.0 54178.0 46240.0 106475.0 99489.0 32578.0 39909.0 125293.0 131846.0 162689.0 156159.0 76120.0 78042.0 166285.0 160150.0 148208.0 152445.0 131063.0 123175.0 85970.0 85332.0 64336.0 71414.0 189642.0 197372.0 141647.0 136035.0 63223.0 60173.0 68559.0 65477.0 190354.0 185272.0 205307.0 212296.0 98203.0 99318.0 40463.0 48504.0 56821.0 49280.0 228019.0 219797.0 144756.0 142255.0 232460.0 232106.0 226827.0 233380.0 144985.0 147226.0 35653.0 32426.0 141776.0 134092.0 81584.0 76223.0 195964.0 189656.0 74625.0 80675.0 14012.0 20999.0 102932.0 95150.0 34401.0 40002.0 15140.0 12419.0 85509.0 83705.0 89457.0 96284.0 134909.0 127448.0 56234.0 51474.0 201777.0 193584.0 75649.0 77147.0 51668.0 50388.0 39482.0 33126.0 138676.0 144636.0 112117.0 105308.0 161714.0 154441.0 168017.0 161000.0 168017.0 162809.0 8071.0 0.0 181431.0 178414.0 75032.0 76170.0 244880.0 241751.0 6601.0 12284.0 90534.0 82807.0 162274.0 158641.0 113696.0 109193.0 122432.0 118892.0 91999.0 100185.0 32305.0 30451.0 135301.0 137489.0 145762.0 94711.0 145762.0 145762.0 145762.0 145762.0 94711.0 94711.0 94711.0 94711.0
171214.0 165059.0 229908.0 223661.0 268911.0 264484.0 155394.0 153383.0 141802.0 137915.0 20253.0 25396.0 198704.0 206640.0 98037.0 102620.0 173508.0 168584.0 62922.0 67963.0 187414.0 179572.0 129614.0 121883.0 11410.0 18572.0 41011.0 45493.0 188147.0 194202.0 112875.0 116770.0 10258.0 12311.0 348629.0 356514.0 173630.0 181845.0 148489.0 142167.0 131641.0 138925.0 379468.0 371580.0 237899.0 230355.0 372991.0 371051.0 364779.0 371632.0 78692.0 85921.0 148411.0 154968.0 305011.0 298275.0 102144.0 105855.0 340864.0 336702.0 110701.0 103169.0 176403.0 168773.0 96441.0 103255.0 148339.0 145448.0 167901.0 175098.0 106977.0 104053.0 94609.0 86812.0 70998.0 77463.0 193531.0 192403.0 339663.0 331496.0 244386.0 249229.0 130612.0 134331.0 148416.0 156610.0 53170.0 45373.0 278572.0 273972.0 317158.0 311877.0 327761.0 322633.0 254489.0 255241.0 187910.0 181431.0 0.0 8198.0 231129.0 237004.0 385918.0 384790.0 179909.0 171552.0 150909.0 150375.0 25501.0 24576.0 174034.0 166578.0 138833.0 146005.0 89639.0 81473.0 200733.0 204688.0 264790.0 261344.0 89757.0 217291.0 89757.0 89757.0 89757.0 89757.0 217291.0 217291.0 217291.0 217291.0
168137.0 161727.0 225972.0 219911.0 263875.0 259613.0 151527.0 149130.0 144903.0 141388.0 21613.0 24221.0 192961.0 200948.0 103749.0 107929.0 177318.0 172668.0 56574.0 62142.0 188177.0 180406.0 128655.0 121077.0 19257.0 25729.0 40342.0 43440.0 182720.0 188944.0 109992.0 114399.0 12261.0 7888.0 342813.0 350698.0 175130.0 183297.0 144436.0 137877.0 130093.0 137201.0 373770.0 365835.0 240099.0 232658.0 367176.0 365236.0 358964.0 365816.0 82844.0 90360.0 144808.0 151137.0 299831.0 293178.0 100377.0 103518.0 335049.0 330886.0 109125.0 101414.0 173960.0 166517.0 97153.0 103588.0 144921.0 141660.0 165199.0 172553.0 106513.0 103023.0 93056.0 85107.0 73828.0 79766.0 188405.0 187436.0 333847.0 325680.0 239870.0 244893.0 128132.0 132274.0 146476.0 154644.0 46792.0 39022.0 273705.0 269265.0 311527.0 306364.0 322301.0 317293.0 257199.0 257704.0 184689.0 178414.0 8198.0 0.0 226107.0 232135.0 380103.0 378974.0 176622.0 168229.0 152133.0 151178.0 18722.0 19874.0 176257.0 168674.0 141793.0 148744.0 87171.0 79097.0 196689.0 200887.0 265678.0 262466.0 82210.0 211476.0 82210.0 82210.0 82210.0 82210.0 211476.0 211476.0 211476.0 211476.0
79869.0 80042.0 36140.0 41956.0 37782.0 33908.0 81477.0 80218.0 200091.0 206445.0 215255.0 207626.0 41056.0 34066.0 236615.0 231214.0 222995.0 227406.0 170972.0 164385.0 157629.0 158346.0 135518.0 141379.0 241131.0 248987.0 195931.0 188700.0 45165.0 37848.0 126545.0 127594.0 238352.0 231577.0 130657.0 137837.0 172185.0 172365.0 86183.0 90712.0 126607.0 120073.0 155600.0 147376.0 210088.0 209201.0 157592.0 157097.0 151827.0 158349.0 212347.0 215947.0 90120.0 82199.0 74095.0 67183.0 143797.0 136413.0 121493.0 115534.0 139474.0 143151.0 88864.0 95921.0 170722.0 163701.0 92079.0 91022.0 88318.0 87450.0 153157.0 149092.0 151011.0 155804.0 199919.0 193334.0 37806.0 38742.0 126830.0 118613.0 22372.0 30444.0 116101.0 118472.0 111612.0 106897.0 180409.0 187823.0 47890.0 44614.0 89653.0 83154.0 98267.0 92352.0 232639.0 226293.0 67479.0 75032.0 231129.0 226107.0 0.0 8049.0 170111.0 167264.0 70737.0 75568.0 165562.0 157821.0 207853.0 206645.0 187900.0 183837.0 197116.0 193838.0 148900.0 156329.0 42728.0 46009.0 188052.0 192661.0 176257.0 42206.0 176257.0 176257.0 176257.0 176257.0 42206.0 42206.0 42206.0 42206.0
81903.0 82873.0 31902.0 38783.0 32468.0 27481.0 85629.0 85052.0 201462.0 207995.0 220820.0 213265.0 49018.0 42107.0 239751.0 234161.0 223325.0 227978.0 177344.0 170627.0 156782.0 157902.0 138162.0 144309.0 246876.0 254740.0 201255.0 194147.0 52424.0 44864.0 130981.0 131579.0 244391.0 237733.0 129175.0 136128.0 172075.0 171868.0 90828.0 95814.0 129471.0 122693.0 152565.0 144331.0 207627.0 207038.0 156439.0 156348.0 151608.0 157880.0 216038.0 219392.0 94137.0 86309.0 69056.0 61855.0 147926.0 140716.0 119799.0 113502.0 143221.0 147241.0 89719.0 97168.0 174199.0 167012.0 95857.0 95386.0 90093.0 88513.0 156573.0 152835.0 155278.0 160346.0 203959.0 197216.0 44405.0 44768.0 126851.0 118584.0 14598.0 22661.0 119655.0 121545.0 113882.0 108705.0 186705.0 194051.0 41572.0 37555.0 86300.0 79422.0 94037.0 87741.0 229962.0 223452.0 68347.0 76170.0 237004.0 232135.0 8049.0 0.0 168781.0 165583.0 72439.0 77966.0 166532.0 158864.0 213987.0 212580.0 187859.0 184099.0 198595.0 195016.0 153676.0 161242.0 44219.0 46165.0 183986.0 188847.0 183114.0 49871.0 183114.0 183114.0 183114.0 183114.0 49871.0 49871.0 49871.0 49871.0
249972.0 249740.0 196048.0 204340.0 140943.0 148788.0 248934.0 245653.0 370136.0 376546.0 372053.0 364098.0 188183.0 181187.0 404841.0 399922.0 391770.0 396618.0 323732.0 317998.0 323553.0 325472.0 305111.0 310543.0 396555.0 404284.0 354485.0 346660.0 201390.0 197892.0 291756.0 294405.0 392181.0 384848.0 39645.0 33281.0 340102.0 339254.0 252006.0 254510.0 295959.0 289755.0 38726.0 42065.0 367632.0 368548.0 12954.0 17418.0 28460.0 20951.0 379013.0 383409.0 257676.0 249740.0 112594.0 119702.0 309793.0 301899.0 49257.0 56333.0 306807.0 309299.0 258498.0 265859.0 338459.0 331937.0 260160.0 257577.0 258426.0 257258.0 321228.0 316303.0 316323.0 319779.0 365357.0 359496.0 200238.0 203445.0 49264.0 55828.0 172044.0 173777.0 284277.0 287561.0 281594.0 277008.0 333453.0 341145.0 139646.0 147643.0 87599.0 95627.0 88254.0 96259.0 388256.0 380903.0 237113.0 244880.0 385918.0 380103.0 170111.0 168781.0 0.0 8049.0 240823.0 245577.0 335312.0 327638.0 361462.0 361378.0 355932.0 352537.0 367200.0 363769.0 311889.0 318339.0 212685.0 214922.0 334145.0 340763.0 327097.0 170417.0 327097.0 327097.0 327097.0 327097.0 170417.0 170417.0 170417.0 170417.0
247113.0 247139.0 192163.0 200505.0 136986.0 144746.0 246804.0 243774.0 367044.0 373547.0 370924.0 362970.0 186931.0 179762.0 402768.0 397725.0 388131.0 393100.0 322604.0 316870.0 319505.0 321592.0 302585.0 308163.0 395427.0 403155.0 353356.0 345532.0 199887.0 196107.0 290050.0 292480.0 391052.0 383719.0 36710.0 29455.0 336334.0 335314.0 250105.0 252846.0 293511.0 287186.0 30736.0 34444.0 362682.0 363738.0 14310.0 21292.0 32603.0 26016.0 377232.0 381485.0 255554.0 247600.0 107439.0 114706.0 308020.0 300181.0 45796.0 52291.0 304818.0 307503.0 255265.0 262748.0 336437.0 329806.0 257956.0 255601.0 255492.0 254093.0 319120.0 314349.0 314659.0 318295.0 363756.0 357775.0 198322.0 201389.0 50233.0 55954.0 168231.0 169640.0 282099.0 285182.0 278867.0 274098.0 332324.0 340017.0 135100.0 143065.0 82828.0 90817.0 82487.0 90537.0 383122.0 375715.0 233920.0 241751.0 384790.0 378974.0 167264.0 165583.0 8049.0 0.0 237856.0 242824.0 332041.0 324405.0 360333.0 360250.0 352164.0 348917.0 364163.0 360581.0 310503.0 317078.0 209661.0 211632.0 328581.0 335284.0 325969.0 168223.0 325969.0 325969.0 325969.0 325969.0 168223.0 168223.0 168223.0 168223.0
9856.0 14913.0 52769.0 45272.0 103429.0 96681.0 28015.0 34707.0 129357.0 135724.0 161469.0 154752.0 69796.0 71957.0 168445.0 162516.0 153194.0 157226.0 128055.0 120238.0 92043.0 91150.0 66401.0 73105.0 188391.0 196167.0 140561.0 134672.0 56746.0 53912.0 67276.0 64992.0 188651.0 183339.0 201317.0 208405.0 103696.0 105088.0 36012.0 44036.0 58306.0 51045.0 224784.0 216553.0 151233.0 148656.0 228326.0 227796.0 222302.0 228952.0 146330.0 148912.0 32398.0 28001.0 139159.0 131528.0 81368.0 75511.0 192061.0 185893.0 74918.0 80503.0 19666.0 25437.0 104204.0 96580.0 31769.0 36378.0 17655.0 17613.0 86626.0 84231.0 89197.0 95702.0 135688.0 128385.0 50007.0 45275.0 197202.0 189030.0 73055.0 75201.0 51451.0 51208.0 41714.0 36269.0 135934.0 142105.0 109651.0 103095.0 158455.0 151313.0 165203.0 158336.0 174503.0 169336.0 8190.0 6601.0 179909.0 176622.0 70737.0 72439.0 240823.0 237856.0 0.0 8419.0 95054.0 87265.0 160139.0 156787.0 119067.0 114335.0 126382.0 123156.0 90895.0 99050.0 28224.0 27871.0 141837.0 144067.0 141771.0 88619.0 141771.0 141771.0 141771.0 141771.0 88619.0 88619.0 88619.0 88619.0
5542.0 6503.0 60333.0 53101.0 109542.0 103039.0 20301.0 27703.0 125138.0 131233.0 153176.0 146420.0 70055.0 73125.0 162018.0 156283.0 150382.0 154046.0 119697.0 111867.0 91971.0 90353.0 60205.0 66525.0 180086.0 187870.0 132306.0 126355.0 56292.0 54624.0 59023.0 57035.0 180268.0 174933.0 206193.0 213402.0 102056.0 104096.0 28216.0 36262.0 51667.0 44738.0 230529.0 222294.0 152670.0 149672.0 232984.0 232211.0 226402.0 233193.0 139275.0 142112.0 24030.0 20170.0 145595.0 138022.0 73490.0 67434.0 197059.0 191071.0 67328.0 72649.0 20491.0 23487.0 97169.0 89686.0 23352.0 28122.0 14108.0 17909.0 79531.0 76749.0 81283.0 87642.0 128265.0 121073.0 50919.0 46392.0 201291.0 193120.0 79695.0 82323.0 43692.0 44114.0 36044.0 31821.0 127539.0 133693.0 116271.0 109935.0 164240.0 157244.0 171423.0 164704.0 175959.0 171098.0 16588.0 12284.0 171552.0 168229.0 75568.0 77966.0 245577.0 242824.0 8419.0 0.0 91652.0 83812.0 151723.0 148390.0 117102.0 111928.0 122014.0 119242.0 82664.0 90803.0 34038.0 35031.0 145856.0 147672.0 133739.0 89649.0 133739.0 133739.0 133739.0 133739.0 89649.0 89649.0 89649.0 89649.0
86626.0 89048.0 141254.0 132825.0 195820.0 188442.0 96108.0 103135.0 35929.0 43350.0 130932.0 128253.0 160115.0 164133.0 90959.0 83200.0 59153.0 62411.0 131534.0 124747.0 37521.0 29556.0 43455.0 45090.0 154244.0 160415.0 112466.0 112106.0 145769.0 145505.0 76756.0 68389.0 161167.0 160021.0 295703.0 302599.0 23531.0 31411.0 97648.0 100629.0 51901.0 53735.0 317217.0 309034.0 90517.0 83892.0 322942.0 322639.0 317315.0 323904.0 82275.0 79803.0 88909.0 95251.0 229846.0 222096.0 67628.0 72134.0 286290.0 279838.0 60629.0 66892.0 76816.0 69676.0 55283.0 50028.0 85360.0 91768.0 77868.0 78121.0 51905.0 59077.0 70452.0 77244.0 81951.0 74423.0 142023.0 137695.0 292227.0 284053.0 164528.0 164562.0 67206.0 59789.0 57895.0 59962.0 133487.0 135060.0 200130.0 192757.0 251158.0 243651.0 256414.0 249036.0 110629.0 109341.0 98213.0 90534.0 150909.0 152133.0 165562.0 166532.0 335312.0 332041.0 95054.0 91652.0 0.0 7844.0 143503.0 136537.0 31152.0 23651.0 33864.0 28771.0 81982.0 86250.0 122833.0 120413.0 114036.0 110436.0 159981.0 180349.0 159981.0 159981.0 159981.0 159981.0 180349.0 180349.0 180349.0 180349.0
78796.0 81209.0 133868.0 125447.0 188305.0 180966.0 88403.0 95512.0 43077.0 50243.0 130243.0 127110.0 152305.0 156299.0 95488.0 87919.0 66945.0 70254.0 127802.0 120795.0 37039.0 29228.0 36989.0 39568.0 154267.0 160673.0 111144.0 110220.0 137969.0 137670.0 70743.0 62269.0 160615.0 159058.0 288039.0 294959.0 27405.0 34453.0 90093.0 93262.0 44976.0 46323.0 309759.0 301569.0 94179.0 87929.0 315249.0 314910.0 309548.0 316153.0 84581.0 82814.0 81300.0 87548.0 222489.0 214740.0 62938.0 66817.0 278643.0 272221.0 55412.0 62134.0 69146.0 61912.0 54028.0 47922.0 77731.0 84250.0 70043.0 70402.0 48227.0 54903.0 66466.0 73641.0 82777.0 75005.0 134184.0 129853.0 284450.0 276282.0 157038.0 157199.0 60182.0 52598.0 50143.0 52118.0 130267.0 132254.0 192757.0 185429.0 243651.0 236173.0 249036.0 241693.0 115021.0 113259.0 90525.0 82807.0 150375.0 151178.0 157821.0 158864.0 327638.0 324405.0 87265.0 83812.0 7844.0 0.0 141689.0 134941.0 37594.0 30540.0 40703.0 36217.0 77719.0 82547.0 115096.0 112775.0 114500.0 111422.0 155476.0 172526.0 155476.0 155476.0 155476.0 155476.0 172526.0 172526.0 172526.0 172526.0
151947.0 145227.0 208662.0 202806.0 245596.0 241451.0 134417.0 131612.0 140571.0 138008.0 23189.0 18996.0 174340.0 182344.0 107044.0 109961.0 174433.0 170525.0 37857.0 43598.0 178340.0 170758.0 116010.0 108788.0 36858.0 44010.0 31851.0 31470.0 164241.0 170558.0 94372.0 99517.0 30719.0 23756.0 324172.0 332057.0 166896.0 174906.0 127140.0 120347.0 116410.0 123169.0 355129.0 347194.0 233044.0 225861.0 348535.0 346595.0 340323.0 347176.0 82408.0 90428.0 128029.0 134069.0 281454.0 274853.0 86653.0 88803.0 316408.0 312246.0 95612.0 87696.0 158627.0 151488.0 88258.0 93772.0 128371.0 124669.0 149529.0 157078.0 95068.0 90574.0 79829.0 71769.0 70489.0 74932.0 170102.0 169242.0 315206.0 307039.0 221997.0 227176.0 112971.0 117740.0 132032.0 140113.0 28077.0 20325.0 255539.0 251221.0 292930.0 287816.0 303774.0 298825.0 251231.0 251173.0 168268.0 162274.0 25501.0 18722.0 207853.0 213987.0 361462.0 360333.0 160139.0 151723.0 143503.0 141689.0 0.0 7927.0 169593.0 161787.0 137163.0 143512.0 72475.0 64713.0 179301.0 183752.0 255783.0 253047.0 64505.0 192835.0 64505.0 64505.0 64505.0 64505.0 192835.0 192835.0 192835.0 192835.0
148350.0 141887.0 206112.0 200038.0 244425.0 240062.0 131657.0 129316.0 132867.0 130212.0 16390.0 11157.0 174146.0 182074.0 99290.0 102108.0 166617.0 162660.0 38942.0 43503.0 171725.0 164083.0 110317.0 102933.0 35263.0 42921.0 24343.0 25025.0 163574.0 169652.0 90310.0 94962.0 32058.0 26682.0 324089.0 331973.0 159860.0 167913.0 124583.0 118069.0 111203.0 118152.0 354969.0 347070.0 225801.0 218566.0 348451.0 346511.0 340239.0 347092.0 74484.0 82510.0 124940.0 131265.0 280485.0 273772.0 81414.0 84128.0 316324.0 312162.0 90286.0 82457.0 154410.0 147071.0 81254.0 87029.0 125072.0 121786.0 145540.0 152956.0 88856.0 84746.0 74324.0 66292.0 62618.0 67189.0 169011.0 167935.0 315123.0 306955.0 220150.0 225113.0 108610.0 112997.0 127251.0 135389.0 29373.0 21744.0 254152.0 249629.0 292584.0 287302.0 303189.0 298074.0 243803.0 243840.0 164865.0 158641.0 24576.0 19874.0 206645.0 212580.0 361378.0 360250.0 156787.0 148390.0 136537.0 134941.0 7927.0 0.0 162243.0 154470.0 129490.0 135919.0 67755.0 59779.0 176840.0 181015.0 249227.0 246356.0 68264.0 192751.0 68264.0 68264.0 68264.0 68264.0 192751.0 192751.0 192751.0 192751.0
111739.0 115531.0 160015.0 151660.0 215193.0 207496.0 124400.0 131918.0 36514.0 43685.0 154690.0 153084.0 186893.0 190226.0 98901.0 90780.0 36526.0 42823.0 160947.0 154468.0 35191.0 30990.0 74461.0 76219.0 175898.0 181351.0 137904.0 138674.0 172779.0 171699.0 107907.0 99527.0 184223.0 184086.0 316303.0 322865.0 15831.0 18776.0 126786.0 130421.0 82567.0 83565.0 335401.0 327316.0 63868.0 56409.0 343854.0 344096.0 339457.0 345727.0 99207.0 94522.0 117828.0 123565.0 247481.0 239767.0 98324.0 103155.0 306689.0 299881.0 91638.0 97637.0 99686.0 93897.0 82094.0 78330.0 114198.0 121080.0 102999.0 101498.0 81942.0 89449.0 100546.0 106865.0 103168.0 96593.0 168020.0 163486.0 314613.0 306364.0 183936.0 182819.0 97740.0 90072.0 86190.0 86597.0 162159.0 163058.0 218127.0 210421.0 270098.0 262351.0 274087.0 266424.0 81782.0 81600.0 120720.0 113696.0 174034.0 176257.0 187900.0 187859.0 355932.0 352164.0 119067.0 117102.0 31152.0 37594.0 169593.0 162243.0 0.0 8004.0 37885.0 29741.0 112253.0 115901.0 145574.0 141944.0 96924.0 91613.0 190251.0 206726.0 190251.0 190251.0 190251.0 190251.0 206726.0 206726.0 206726.0 206726.0
106650.0 110028.0 156936.0 148535.0 212049.0 204433.0 118307.0 125655.0 31472.0 39119.0 147132.0 145398.0 181410.0 184980.0 93802.0 85681.0 39237.0 44441.0 152943.0 146469.0 35575.0 29860.0 67101.0 68559.0 168648.0 174214.0 130140.0 130806.0 167202.0 166397.0 100332.0 92001.0 176785.0 176516.0 312893.0 319559.0 14420.0 20534.0 120380.0 123748.0 75433.0 76815.0 332718.0 324599.0 71436.0 64101.0 340364.0 340440.0 335587.0 341959.0 92475.0 88122.0 111494.0 117463.0 244881.0 237147.0 90441.0 95383.0 303333.0 296627.0 83865.0 89765.0 95196.0 88986.0 74153.0 70329.0 107888.0 114598.0 97868.0 96873.0 73979.0 81515.0 92577.0 98868.0 95832.0 89115.0 162779.0 158306.0 310654.0 302424.0 180729.0 179939.0 90690.0 83138.0 80001.0 80934.0 154167.0 155097.0 215384.0 207761.0 267145.0 259460.0 271505.0 263916.0 89709.0 89387.0 116437.0 109193.0 166578.0 168674.0 183837.0 184099.0 352537.0 348917.0 114335.0 111928.0 23651.0 30540.0 161787.0 154470.0 8004.0 0.0 32177.0 24017.0 104296.0 107904.0 141304.0 138019.0 102607.0 97658.0 182282.0 201399.0 182282.0 182282.0 182282.0 182282.0 201399.0 201399.0 201399.0 201399.0
117367.0 118537.0 174385.0 165978.0 228547.0 221301.0 123137.0 129134.0 4004.0 9542.0 120200.0 119576.0 188060.0 192805.0 61690.0 53581.0 39388.0 38364.0 134385.0 128915.0 65220.0 58067.0 65814.0 63407.0 139774.0 144832.0 105341.0 107474.0 173608.0 174277.0 93687.0 86487.0 148881.0 149494.0 327672.0 334708.0 44722.0 52174.0 123118.0 124477.0 75405.0 79796.0 350091.0 341888.0 100314.0 92482.0 354707.0 354119.0 348413.0 355177.0 62011.0 56847.0 115093.0 122270.0 263012.0 255267.0 79240.0 86106.0 318370.0 312088.0 75387.0 78888.0 109111.0 101433.0 54524.0 54013.0 111816.0 117064.0 108812.0 110140.0 61695.0 69614.0 78646.0 82993.0 67971.0 62378.0 171041.0 166971.0 323299.0 315129.0 197361.0 197734.0 90116.0 84125.0 86463.0 90293.0 133862.0 133469.0 233266.0 225995.0 283889.0 276479.0 289524.0 282231.0 115720.0 116820.0 130323.0 122432.0 138833.0 141793.0 197116.0 198595.0 367200.0 364163.0 126382.0 122014.0 33864.0 40703.0 137163.0 129490.0 37885.0 32177.0 0.0 8186.0 90229.0 91586.0 154523.0 152719.0 134643.0 129473.0 165956.0 208560.0 165956.0 165956.0 165956.0 165956.0 208560.0 208560.0 208560.0 208560.0
114410.0 116132.0 170017.0 161589.0 224520.0 217170.0 121681.0 128057.0 7946.0 15885.0 127132.0 126210.0 186422.0 190884.0 69797.0 61679.0 36216.0 36891.0 139106.0 133347.0 57626.0 50687.0 65214.0 63793.0 147237.0 152426.0 111661.0 113397.0 171989.0 172289.0 94952.0 87367.0 156104.0 156490.0 324185.0 331131.0 36865.0 44151.0 122191.0 124071.0 74669.0 78361.0 345957.0 337770.0 92551.0 84782.0 351350.0 350932.0 345439.0 352108.0 69799.0 64850.0 113891.0 120814.0 258616.0 250865.0 81578.0 87998.0 314810.0 308415.0 76917.0 81132.0 105318.0 97931.0 58946.0 57409.0 110506.0 116164.0 105736.0 106511.0 64057.0 72009.0 81741.0 86683.0 75023.0 69068.0 168947.0 164762.0 320304.0 312160.0 193247.0 193330.0 89740.0 83266.0 84254.0 87421.0 139049.0 139010.0 228897.0 221528.0 279865.0 272378.0 285181.0 277807.0 108494.0 109337.0 126669.0 118892.0 146005.0 148744.0 193838.0 195016.0 363769.0 360581.0 123156.0 119242.0 28771.0 36217.0 143512.0 135919.0 29741.0 24017.0 8186.0 0.0 93482.0 95475.0 151137.0 148962.0 126457.0 121302.0 170149.0 206844.0 170149.0 170149.0 170149.0 170149.0 206844.0 206844.0 206844.0 206844.0
81884.0 76242.0 142294.0 135516.0 186136.0 180761.0 68571.0 68689.0 94227.0 95608.0 70691.0 64276.0 123724.0 130745.0 97643.0 94881.0 129391.0 128508.0 50482.0 43191.0 111784.0 104900.0 45453.0 39434.0 97645.0 105375.0 49678.0 44148.0 110632.0 114893.0 23651.0 27229.0 98845.0 94388.0 274057.0 281817.0 104994.0 112164.0 62851.0 58364.0 44279.0 50762.0 302930.0 294791.0 171896.0 165604.0 298954.0 297014.0 290742.0 297595.0 69095.0 75039.0 60659.0 67994.0 222718.0 215523.0 15349.0 16374.0 265843.0 261011.0 24205.0 16322.0 86820.0 79349.0 37055.0 36220.0 59948.0 58575.0 78271.0 85472.0 30323.0 22906.0 11809.0 8746.0 54144.0 49496.0 113173.0 110874.0 265625.0 257458.0 159014.0 162978.0 40995.0 45283.0 59566.0 67671.0 54323.0 57979.0 194670.0 189245.0 237982.0 231847.0 247148.0 241222.0 192552.0 190969.0 98744.0 91999.0 89639.0 87171.0 148900.0 153676.0 311889.0 310503.0 90895.0 82664.0 81982.0 77719.0 72475.0 67755.0 112253.0 104296.0 90229.0 93482.0 0.0 8189.0 113800.0 116834.0 187772.0 185991.0 78028.0 143376.0 78028.0 78028.0 78028.0 78028.0 143376.0 143376.0 143376.0 143376.0
90064.0 84370.0 150328.0 143600.0 193683.0 188406.0 76410.0 76194.0 95548.0 96258.0 62504.0 56101.0 130169.0 137342.0 93676.0 91514.0 130952.0 129565.0 45297.0 38573.0 117489.0 110398.0 52090.0 45512.0 89457.0 97190.0 41512.0 35979.0 117336.0 121857.0 31780.0 35329.0 90719.0 86368.0 280708.0 288503.0 109557.0 116962.0 70478.0 65647.0 51732.0 58464.0 309944.0 301823.0 176609.0 170121.0 305394.0 303461.0 297189.0 304042.0 64579.0 71051.0 68619.0 75854.0 230250.0 223097.0 22107.0 24429.0 272590.0 267867.0 31124.0 23142.0 94954.0 87428.0 37247.0 38178.0 68003.0 66386.0 86450.0 93627.0 34382.0 27860.0 16264.0 9037.0 49080.0 45373.0 120267.0 118114.0 272073.0 263906.0 166818.0 170880.0 49142.0 53221.0 67472.0 75611.0 48052.0 51062.0 202347.0 197005.0 245203.0 239151.0 254528.0 248678.0 196852.0 195552.0 106914.0 100185.0 81473.0 79097.0 156329.0 161242.0 318339.0 317078.0 99050.0 90803.0 86250.0 82547.0 64713.0 59779.0 115901.0 107904.0 91586.0 95475.0 8189.0 0.0 121735.0 124879.0 194005.0 191993.0 74759.0 149722.0 74759.0 74759.0 74759.0 74759.0 149722.0 149722.0 149722.0 149722.0
37719.0 39431.0 29411.0 24618.0 75511.0 69021.0 45465.0 47737.0 157451.0 163890.0 183247.0 176086.0 51250.0 50715.0 196056.0 190298.0 180401.0 184722.0 144670.0 137259.0 116370.0 116507.0 94182.0 100563.0 209908.0 217762.0 162851.0 156320.0 41911.0 35838.0 90357.0 89707.0 208898.0 202931.0 173149.0 180208.0 129947.0 130545.0 52260.0 58988.0 85705.0 78729.0 196658.0 188425.0 172032.0 170360.0 200227.0 199815.0 194528.0 201076.0 173112.0 176089.0 53143.0 45961.0 111581.0 104029.0 106231.0 99560.0 163865.0 157672.0 100711.0 105458.0 46180.0 53207.0 131055.0 123651.0 54119.0 55495.0 45879.0 44723.0 113402.0 110249.0 113862.0 119650.0 161721.0 154685.0 31987.0 27628.0 169490.0 161291.0 45875.0 49215.0 76978.0 78062.0 69731.0 64493.0 153376.0 160185.0 82356.0 76222.0 130338.0 123272.0 137386.0 130673.0 195047.0 189233.0 24870.0 32305.0 200733.0 196689.0 42728.0 44219.0 212685.0 209661.0 28224.0 34038.0 122833.0 115096.0 179301.0 176840.0 145574.0 141304.0 154523.0 151137.0 113800.0 121735.0 0.0 7909.0 155956.0 159424.0 154464.0 66901.0 154464.0 154464.0 154464.0 154464.0 66901.0 66901.0 66901.0 66901.0
37723.0 41062.0 25472.0 19060.0 76024.0 69063.0 49363.0 52714.0 155508.0 162164.0 186847.0 179834.0 58768.0 57786.0 196277.0 190289.0 177226.0 181823.0 149737.0 142204.0 111747.0 112342.0 94223.0 100975.0 213632.0 221465.0 166231.0 159926.0 49787.0 43570.0 93228.0 91880.0 213052.0 207284.0 175301.0 182187.0 126207.0 126365.0 56657.0 63833.0 86176.0 78903.0 197576.0 189355.0 166062.0 164641.0 202601.0 202486.0 197574.0 203947.0 174148.0 176780.0 56386.0 49750.0 111433.0 103773.0 108386.0 102074.0 165876.0 159453.0 102358.0 107566.0 43648.0 51358.0 132021.0 124431.0 56887.0 59248.0 45114.0 42591.0 114417.0 111778.0 116133.0 122267.0 163291.0 156072.0 39768.0 35482.0 172679.0 164437.0 45288.0 47361.0 78696.0 78977.0 69453.0 63508.0 158254.0 164908.0 81848.0 75230.0 131280.0 123991.0 137604.0 130639.0 188966.0 183005.0 22438.0 30451.0 204688.0 200887.0 46009.0 46165.0 214922.0 211632.0 27871.0 35031.0 120413.0 112775.0 183752.0 181015.0 141944.0 138019.0 152719.0 148962.0 116834.0 124879.0 7909.0 0.0 148764.0 152400.0 160365.0 73696.0 160365.0 160365.0 160365.0 160365.0 73696.0 73696.0 73696.0 73696.0
140952.0 148817.0 152154.0 146171.0 199675.0 191841.0 163424.0 171894.0 133436.0 140521.0 244705.0 241595.0 207083.0 206549.0 195789.0 187674.0 120518.0 128678.0 238053.0 230449.0 77528.0 85273.0 142375.0 148505.0 268280.0 274414.0 225596.0 224349.0 196200.0 191302.0 173264.0 165209.0 275041.0 273558.0 296530.0 301377.0 92305.0 84076.0 169788.0 176781.0 145371.0 141091.0 305284.0 297994.0 48697.0 55110.0 323832.0 326304.0 324789.0 329386.0 194468.0 190567.0 161564.0 162890.0 221755.0 214976.0 172426.0 173565.0 286709.0 278939.0 163637.0 171451.0 125923.0 126943.0 168528.0 162253.0 158375.0 166263.0 135372.0 128581.0 160950.0 166327.0 177789.0 185604.0 195823.0 188411.0 187316.0 182637.0 302363.0 294295.0 173423.0 168290.0 155940.0 148326.0 136224.0 130563.0 241989.0 244918.0 197100.0 189233.0 247138.0 239151.0 246101.0 238045.0 60045.0 51929.0 137575.0 135301.0 264790.0 265678.0 188052.0 183986.0 334145.0 328581.0 141837.0 145856.0 114036.0 114500.0 255783.0 249227.0 96924.0 102607.0 134643.0 126457.0 187772.0 194005.0 155956.0 148764.0 0.0 8242.0 262112.0 222342.0 262112.0 262112.0 262112.0 262112.0 222342.0 222342.0 222342.0 222342.0
142631.0 150312.0 156957.0 150713.0 205448.0 197569.0 164685.0 173195.0 128083.0 134995.0 241347.0 238471.0 210360.0 210119.0 190251.0 182153.0 113709.0 121866.0 236407.0 228894.0 74762.0 82289.0 140761.0 146594.0 264529.0 270528.0 222547.0 221580.0 199128.0 194482.0 172342.0 164157.0 271602.0 270352.0 302954.0 307909.0 88110.0 79848.0 170805.0 177602.0 144271.0 140370.0 312277.0 304932.0 40690.0 47339.0 330333.0 332687.0 330990.0 335693.0 189927.0 185773.0 162398.0 164117.0 228269.0 221406.0 170647.0 172164.0 293119.0 285382.0 161966.0 169691.0 127493.0 127966.0 165357.0 159327.0 159122.0 167044.0 136664.0 130149.0 158545.0 164201.0 175739.0 183459.0 191865.0 184577.0 190480.0 185762.0 308365.0 300263.0 178654.0 173749.0 155431.0 147682.0 136041.0 130758.0 240039.0 242729.0 203205.0 195299.0 253594.0 245590.0 252833.0 244771.0 51925.0 43817.0 140201.0 137489.0 261344.0 262466.0 192661.0 188847.0 340763.0 335284.0 144067.0 147672.0 110436.0 111422.0 253047.0 246356.0 91613.0 97658.0 129473.0 121302.0 185991.0 191993.0 159424.0 152400.0 8242.0 0.0 261115.0 226086.0 261115.0 261115.0 261115.0 261115.0 226086.0 226086.0 226086.0 226086.0
135822.0 127741.0 183483.0 179018.0 213451.0 210164.0 113808.0 108260.0 169876.0 169977.0 83749.0 76242.0 140034.0 148135.0 154576.0 154719.0 205338.0 203519.0 33292.0 35337.0 188170.0 181724.0 120994.0 116316.0 101167.0 107939.0 76270.0 68795.0 131325.0 138409.0 88850.0 96959.0 92852.0 84514.0 289808.0 297692.0 182844.0 189830.0 105814.0 97865.0 116844.0 121091.0 320764.0 312829.0 249526.0 243402.0 314170.0 312230.0 305958.0 312811.0 125530.0 133371.0 110237.0 113779.0 248445.0 242216.0 92538.0 89435.0 282043.0 277881.0 100394.0 93350.0 146755.0 141709.0 111434.0 112936.0 112043.0 105770.0 136518.0 144566.0 108311.0 100915.0 89706.0 83699.0 109849.0 109735.0 138719.0 138832.0 280842.0 272674.0 192960.0 199086.0 106667.0 113965.0 126955.0 133796.0 40422.0 47048.0 224102.0 220667.0 258629.0 253719.0 269783.0 265195.0 270462.0 268692.0 149818.0 145762.0 89757.0 82210.0 176257.0 183114.0 327097.0 325969.0 141771.0 133739.0 159981.0 155476.0 64505.0 68264.0 190251.0 182282.0 165956.0 170149.0 78028.0 74759.0 154464.0 160365.0 262112.0 261115.0 0.0 158470.0 0.0 0.0 0.0 0.0 158470.0 158470.0 158470.0 158470.0
95068.0 91411.0 75084.0 78498.0 68145.0 68493.0 85477.0 80183.0 212006.0 217317.0 203425.0 195471.0 20556.0 16669.0 238386.0 234156.0 239442.0 242642.0 155105.0 149371.0 180652.0 179673.0 143177.0 147199.0 227928.0 235656.0 185857.0 178033.0 34986.0 35028.0 124359.0 128140.0 223554.0 216221.0 132322.0 140267.0 191700.0 193544.0 86491.0 87390.0 133594.0 128765.0 164164.0 156343.0 238506.0 236487.0 157477.0 155537.0 149265.0 156118.0 211398.0 216364.0 93760.0 86341.0 97988.0 93095.0 142547.0 134468.0 124850.0 121060.0 140747.0 142168.0 108273.0 113029.0 172222.0 166420.0 96878.0 92464.0 103757.0 106109.0 155705.0 149917.0 148561.0 151405.0 197172.0 191730.0 38758.0 43398.0 124149.0 115982.0 64459.0 72531.0 119965.0 124850.0 122677.0 120562.0 164826.0 172518.0 80125.0 80081.0 104040.0 100037.0 116178.0 112592.0 261626.0 255959.0 89199.0 94711.0 217291.0 211476.0 42206.0 49871.0 170417.0 168223.0 88619.0 89649.0 180349.0 172526.0 192835.0 192751.0 206726.0 201399.0 208560.0 206844.0 143376.0 149722.0 66901.0 73696.0 222342.0 226086.0 158470.0 0.0 158470.0 158470.0 158470.0 158470.0 0.0 0.0 0.0 0.0
135822.0 127741.0 183483.0 179018.0 213451.0 210164.0 113808.0 108260.0 169876.0 169977.0 83749.0 76242.0 140034.0 148135.0 154576.0 154719.0 205338.0 203519.0 33292.0 35337.0 188170.0 181724.0 120994.0 116316.0 101167.0 107939.0 76270.0 68795.0 131325.0 138409.0 88850.0 96959.0 92852.0 84514.0 289808.0 297692.0 182844.0 189830.0 105814.0 97865.0 116844.0 121091.0 320764.0 312829.0 249526.0 243402.0 314170.0 312230.0 305958.0 312811.0 125530.0 133371.0 110237.0 113779.0 248445.0 242216.0 92538.0 89435.0 282043.0 277881.0 100394.0 93350.0 146755.0 141709.0 111434.0 112936.0 112043.0 105770.0 136518.0 144566.0 108311.0 100915.0 89706.0 83699.0 109849.0 109735.0 138719.0 138832.0 280842.0 272674.0 192960.0 199086.0 106667.0 113965.0 126955.0 133796.0 40422.0 47048.0 224102.0 220667.0 258629.0 253719.0 269783.0 265195.0 270462.0 268692.0 149818.0 145762.0 89757.0 82210.0 176257.0 183114.0 327097.0 325969.0 141771.0 133739.0 159981.0 155476.0 64505.0 68264.0 190251.0 182282.0 165956.0 170149.0 78028.0 74759.0 154464.0 160365.0 262112.0 261115.0 0.0 158470.0 0.0 0.0 0.0 0.0 158470.0 158470.0 158470.0 158470.0
135822.0 127741.0 183483.0 179018.0 213451.0 210164.0 113808.0 108260.0 169876.0 169977.0 83749.0 76242.0 140034.0 148135.0 154576.0 154719.0 205338.0 203519.0 33292.0 35337.0 188170.0 181724.0 120994.0 116316.0 101167.0 107939.0 76270.0 68795.0 131325.0 138409.0 88850.0 96959.0 92852.0 84514.0 289808.0 297692.0 182844.0 189830.0 105814.0 97865.0 116844.0 121091.0 320764.0 312829.0 249526.0 243402.0 314170.0 312230.0 305958.0 312811.0 125530.0 133371.0 110237.0 113779.0 248445.0 242216.0 92538.0 89435.0 282043.0 277881.0 100394.0 93350.0 146755.0 141709.0 111434.0 112936.0 112043.0 105770.0 136518.0 144566.0 108311.0 100915.0 89706.0 83699.0 109849.0 109735.0 138719.0 138832.0 280842.0 272674.0 192960.0 199086.0 106667.0 113965.0 126955.0 133796.0 40422.0 47048.0 224102.0 220667.0 258629.0 253719.0 269783.0 265195.0 270462.0 268692.0 149818.0 145762.0 89757.0 82210.0 176257.0 183114.0 327097.0 325969.0 141771.0 133739.0 159981.0 155476.0 64505.0 68264.0 190251.0 182282.0 165956.0 170149.0 78028.0 74759.0 154464.0 160365.0 262112.0 261115.0 0.0 158470.0 0.0 0.0 0.0 0.0 158470.0 158470.0 158470.0 158470.0
135822.0 127741.0 183483.0 179018.0 213451.0 210164.0 113808.0 108260.0 169876.0 169977.0 83749.0 76242.0 140034.0 148135.0 154576.0 154719.0 205338.0 203519.0 33292.0 35337.0 188170.0 181724.0 120994.0 116316.0 101167.0 107939.0 76270.0 68795.0 131325.0 138409.0 88850.0 96959.0 92852.0 84514.0 289808.0 297692.0 182844.0 189830.0 105814.0 97865.0 116844.0 121091.0 320764.0 312829.0 249526.0 243402.0 314170.0 312230.0 305958.0 312811.0 125530.0 133371.0 110237.0 113779.0 248445.0 242216.0 92538.0 89435.0 282043.0 277881.0 100394.0 93350.0 146755.0 141709.0 111434.0 112936.0 112043.0 105770.0 136518.0 144566.0 108311.0 100915.0 89706.0 83699.0 109849.0 109735.0 138719.0 138832.0 280842.0 272674.0 192960.0 199086.0 106667.0 113965.0 126955.0 133796.0 40422.0 47048.0 224102.0 220667.0 258629.0 253719.0 269783.0 265195.0 270462.0 268692.0 149818.0 145762.0 89757.0 82210.0 176257.0 183114.0 327097.0 325969.0 141771.0 133739.0 159981.0 155476.0 64505.0 68264.0 190251.0 182282.0 165956.0 170149.0 78028.0 74759.0 154464.0 160365.0 262112.0 261115.0 0.0 158470.0 0.0 0.0 0.0 0.0 158470.0 158470.0 158470.0 158470.0
135822.0 127741.0 183483.0 179018.0 213451.0 210164.0 113808.0 108260.0 169876.0 169977.0 83749.0 76242.0 140034.0 148135.0 154576.0 154719.0 205338.0 203519.0 33292.0 35337.0 188170.0 181724.0 120994.0 116316.0 101167.0 107939.0 76270.0 68795.0 131325.0 138409.0 88850.0 96959.0 92852.0 84514.0 289808.0 297692.0 182844.0 189830.0 105814.0 97865.0 116844.0 121091.0 320764.0 312829.0 249526.0 243402.0 314170.0 312230.0 305958.0 312811.0 125530.0 133371.0 110237.0 113779.0 248445.0 242216.0 92538.0 89435.0 282043.0 277881.0 100394.0 93350.0 146755.0 141709.0 111434.0 112936.0 112043.0 105770.0 136518.0 144566.0 108311.0 100915.0 89706.0 83699.0 109849.0 109735.0 138719.0 138832.0 280842.0 272674.0 192960.0 199086.0 106667.0 113965.0 126955.0 133796.0 40422.0 47048.0 224102.0 220667.0 258629.0 253719.0 269783.0 265195.0 270462.0 268692.0 149818.0 145762.0 89757.0 82210.0 176257.0 183114.0 327097.0 325969.0 141771.0 133739.0 159981.0 155476.0 64505.0 68264.0 190251.0 182282.0 165956.0 170149.0 78028.0 74759.0 154464.0 160365.0 262112.0 261115.0 0.0 158470.0 0.0 0.0 0.0 0.0 158470.0 158470.0 158470.0 158470.0
95068.0 91411.0 75084.0 78498.0 68145.0 68493.0 85477.0 80183.0 212006.0 217317.0 203425.0 195471.0 20556.0 16669.0 238386.0 234156.0 239442.0 242642.0 155105.0 149371.0 180652.0 179673.0 143177.0 147199.0 227928.0 235656.0 185857.0 178033.0 34986.0 35028.0 124359.0 128140.0 223554.0 216221.0 132322.0 140267.0 191700.0 193544.0 86491.0 87390.0 133594.0 128765.0 164164.0 156343.0 238506.0 236487.0 157477.0 155537.0 149265.0 156118.0 211398.0 216364.0 93760.0 86341.0 97988.0 93095.0 142547.0 134468.0 124850.0 121060.0 140747.0 142168.0 108273.0 113029.0 172222.0 166420.0 96878.0 92464.0 103757.0 106109.0 155705.0 149917.0 148561.0 151405.0 197172.0 191730.0 38758.0 43398.0 124149.0 115982.0 64459.0 72531.0 119965.0 124850.0 122677.0 120562.0 164826.0 172518.0 80125.0 80081.0 104040.0 100037.0 116178.0 112592.0 261626.0 255959.0 89199.0 94711.0 217291.0 211476.0 42206.0 49871.0 170417.0 168223.0 88619.0 89649.0 180349.0 172526.0 192835.0 192751.0 206726.0 201399.0 208560.0 206844.0 143376.0 149722.0 66901.0 73696.0 222342.0 226086.0 158470.0 0.0 158470.0 158470.0 158470.0 158470.0 0.0 0.0 0.0 0.0
95068.0 91411.0 75084.0 78498.0 68145.0 68493.0 85477.0 80183.0 212006.0 217317.0 203425.0 195471.0 20556.0 16669.0 238386.0 234156.0 239442.0 242642.0 155105.0 149371.0 180652.0 179673.0 143177.0 147199.0 227928.0 235656.0 185857.0 178033.0 34986.0 35028.0 124359.0 128140.0 223554.0 216221.0 132322.0 140267.0 191700.0 193544.0 86491.0 87390.0 133594.0 128765.0 164164.0 156343.0 238506.0 236487.0 157477.0 155537.0 149265.0 156118.0 211398.0 216364.0 93760.0 86341.0 97988.0 93095.0 142547.0 134468.0 124850.0 121060.0 140747.0 142168.0 108273.0 113029.0 172222.0 166420.0 96878.0 92464.0 103757.0 106109.0 155705.0 149917.0 148561.0 151405.0 197172.0 191730.0 38758.0 43398.0 124149.0 115982.0 64459.0 72531.0 119965.0 124850.0 122677.0 120562.0 164826.0 172518.0 80125.0 80081.0 104040.0 100037.0 116178.0 112592.0 261626.0 255959.0 89199.0 94711.0 217291.0 211476.0 42206.0 49871.0 170417.0 168223.0 88619.0 89649.0 180349.0 172526.0 192835.0 192751.0 206726.0 201399.0 208560.0 206844.0 143376.0 149722.0 66901.0 73696.0 222342.0 226086.0 158470.0 0.0 158470.0 158470.0 158470.0 158470.0 0.0 0.0 0.0 0.0
95068.0 91411.0 75084.0 78498.0 68145.0 68493.0 85477.0 80183.0 212006.0 217317.0 203425.0 195471.0 20556.0 16669.0 238386.0 234156.0 239442.0 242642.0 155105.0 149371.0 180652.0 179673.0 143177.0 147199.0 227928.0 235656.0 185857.0 178033.0 34986.0 35028.0 124359.0 128140.0 223554.0 216221.0 132322.0 140267.0 191700.0 193544.0 86491.0 87390.0 133594.0 128765.0 164164.0 156343.0 238506.0 236487.0 157477.0 155537.0 149265.0 156118.0 211398.0 216364.0 93760.0 86341.0 97988.0 93095.0 142547.0 134468.0 124850.0 121060.0 140747.0 142168.0 108273.0 113029.0 172222.0 166420.0 96878.0 92464.0 103757.0 106109.0 155705.0 149917.0 148561.0 151405.0 197172.0 191730.0 38758.0 43398.0 124149.0 115982.0 64459.0 72531.0 119965.0 124850.0 122677.0 120562.0 164826.0 172518.0 80125.0 80081.0 104040.0 100037.0 116178.0 112592.0 261626.0 255959.0 89199.0 94711.0 217291.0 211476.0 42206.0 49871.0 170417.0 168223.0 88619.0 89649.0 180349.0 172526.0 192835.0 192751.0 206726.0 201399.0 208560.0 206844.0 143376.0 149722.0 66901.0 73696.0 222342.0 226086.0 158470.0 0.0 158470.0 158470.0 158470.0 158470.0 0.0 0.0 0.0 0.0
95068.0 91411.0 75084.0 78498.0 68145.0 68493.0 85477.0 80183.0 212006.0 217317.0 203425.0 195471.0 20556.0 16669.0 238386.0 234156.0 239442.0 242642.0 155105.0 149371.0 180652.0 179673.0 143177.0 147199.0 227928.0 235656.0 185857.0 178033.0 34986.0 35028.0 124359.0 128140.0 223554.0 216221.0 132322.0 140267.0 191700.0 193544.0 86491.0 87390.0 133594.0 128765.0 164164.0 156343.0 238506.0 236487.0 157477.0 155537.0 149265.0 156118.0 211398.0 216364.0 93760.0 86341.0 97988.0 93095.0 142547.0 134468.0 124850.0 121060.0 140747.0 142168.0 108273.0 113029.0 172222.0 166420.0 96878.0 92464.0 103757.0 106109.0 155705.0 149917.0 148561.0 151405.0 197172.0 191730.0 38758.0 43398.0 124149.0 115982.0 64459.0 72531.0 119965.0 124850.0 122677.0 120562.0 164826.0 172518.0 80125.0 80081.0 104040.0 100037.0 116178.0 112592.0 261626.0 255959.0 89199.0 94711.0 217291.0 211476.0 42206.0 49871.0 170417.0 168223.0 88619.0 89649.0 180349.0 172526.0 192835.0 192751.0 206726.0 201399.0 208560.0 206844.0 143376.0 149722.0 66901.0 73696.0 222342.0 226086.0 158470.0 0.0 158470.0 158470.0 158470.0 158470.0 0.0 0.0 0.0 0.0
FIXED_EDGES_SECTION
1 2
3 4
5 6
7 8
9 10
11 12
13 14
15 16
17 18
19 20
21 22
23 24
25 26
27 28
29 30
31 32
33 34
35 36
37 38
39 40
41 42
43 44
45 46
47 48
49 50
51 52
53 54
55 56
57 58
59 60
61 62
63 64
65 66
67 68
69 70
71 72
73 74
75 76
77 78
79 80
81 82
83 84
85 86
87 88
89 90
91 92
93 94
95 96
97 98
99 100
101 102
103 104
105 106
107 108
109 110
111 112
113 114
115 116
117 118
119 120
-1 
DEMAND_SECTION
1 119
2 119
3 68
4 68
5 319
6 319
7 358
8 358
9 224
10 224
11 379
12 379
13 235
14 235
15 497
16 497
17 68
18 68
19 485
20 485
21 180
22 180
23 541
24 541
25 316
26 316
27 493
28 493
29 100
30 100
31 94
32 94
33 251
34 251
35 99
36 99
37 74
38 74
39 373
40 373
41 191
42 191
43 421
44 421
45 380
46 380
47 71
48 71
49 280
50 280
51 55
52 55
53 80
54 80
55 244
56 244
57 171
58 171
59 322
60 322
61 119
62 119
63 271
64 271
65 583
66 583
67 214
68 214
69 177
70 177
71 341
72 341
73 207
74 207
75 461
76 461
77 399
78 399
79 224
80 224
81 84
82 84
83 114
84 114
85 94
86 94
87 618
88 618
89 336
90 336
91 341
92 341
93 268
94 268
95 542
96 542
97 158
98 158
99 216
100 216
101 313
102 313
103 491
104 491
105 223
106 223
107 82
108 82
109 247
110 247
111 186
112 186
113 211
114 211
115 394
116 394
117 342
118 342
119 234
120 234
121 0
122 0
123 0
124 0
125 0
126 0
127 0
128 0
129 0
130 0
DEPOT_SECTION
121 
-1 
CAPACITIES_SECTION
7500 
8250 
9000 
-1 
EOF