NAME: GFS_20_1
TYPE: GFSP
DIMENSION: 86
VEHICLES: 3
CAPACITY: 10000.0
TRIP_DIST_LIMIT: 750000.0
TOTAL_DIST_LIMIT: 1400000.0
EDGE_WEIGHT_TYPE: EXPLICIT
EDGE_WEIGHT_FORMAT: FULL_MATRIX
EDGE_WEIGHT_SECTION
0.0 7871.0 163727.0 169806.0 149981.0 141792.0 123863.0 126953.0 203145.0 198274.0 242582.0 234550.0 151364.0 150330.0 24648.0 22365.0 141428.0 134606.0 319271.0 321170.0 113959.0 107864.0 303349.0 295771.0 171251.0 163809.0 122273.0 118663.0 109690.0 113183.0 242074.0 242821.0 217594.0 210437.0 191164.0 183168.0 289912.0 294522.0 187516.0 180115.0 113853.0 108746.0 240141.0 241043.0 231141.0 233112.0 164080.0 159855.0 200982.0 199803.0 202205.0 205781.0 255483.0 263268.0 190255.0 182444.0 35042.0 42716.0 220059.0 216970.0 153563.0 161324.0 241660.0 244893.0 201255.0 205417.0 133133.0 125359.0 153507.0 149296.0 140737.0 142768.0 209504.0 201395.0 291665.0 297019.0 143363.0 151892.0 121769.0 123609.0 238750.0 207941.0 238750.0 238750.0 207941.0 207941.0
7871.0 0.0 157518.0 163436.0 144434.0 136155.0 121450.0 124067.0 204872.0 200220.0 244823.0 236794.0 144613.0 143809.0 32023.0 28638.0 141932.0 134839.0 321393.0 323109.0 111560.0 105139.0 306293.0 298639.0 163812.0 156420.0 121160.0 117096.0 102056.0 105437.0 242211.0 243219.0 220014.0 212758.0 193099.0 185088.0 291922.0 296377.0 180335.0 173004.0 109046.0 104323.0 232944.0 233960.0 224656.0 226773.0 164968.0 161079.0 193981.0 192956.0 201207.0 205055.0 256827.0 264555.0 183539.0 175792.0 41985.0 49488.0 212901.0 209930.0 147176.0 154869.0 235405.0 238786.0 194735.0 199060.0 127966.0 120098.0 150165.0 146296.0 136775.0 139184.0 201988.0 193883.0 293727.0 299233.0 139810.0 148341.0 115381.0 116933.0 233058.0 206777.0 233058.0 233058.0 206777.0 206777.0
163727.0 157518.0 0.0 8189.0 23651.0 27229.0 90895.0 82664.0 198634.0 199627.0 237982.0 231847.0 22633.0 17065.0 187772.0 185991.0 142294.0 135516.0 298954.0 297014.0 92717.0 89825.0 302930.0 294791.0 54144.0 49496.0 111617.0 104570.0 76770.0 81521.0 194242.0 200095.0 222718.0 215523.0 194670.0 189245.0 271476.0 272075.0 47332.0 40095.0 59566.0 67671.0 89639.0 87171.0 68233.0 69524.0 159014.0 162978.0 49678.0 44148.0 143163.0 151016.0 229448.0 234435.0 32781.0 24859.0 179767.0 182608.0 70691.0 64276.0 11809.0 8746.0 77938.0 81327.0 39247.0 41999.0 40995.0 45283.0 73280.0 79914.0 60659.0 67994.0 79250.0 73542.0 274057.0 281817.0 68571.0 68689.0 42378.0 42846.0 78028.0 143376.0 78028.0 78028.0 143376.0 143376.0
169806.0 163436.0 8189.0 0.0 31780.0 35329.0 99050.0 90803.0 206120.0 207229.0 245203.0 239151.0 23178.0 20240.0 194005.0 191993.0 150328.0 143600.0 305394.0 303461.0 100906.0 97983.0 309944.0 301823.0 49080.0 45373.0 119773.0 112747.0 78919.0 83006.0 200588.0 206428.0 230250.0 223097.0 202347.0 197005.0 278116.0 278582.0 39973.0 33181.0 67472.0 75611.0 81473.0 79097.0 61479.0 63339.0 166818.0 170880.0 41512.0 35979.0 149605.0 157503.0 236112.0 240970.0 24616.0 16672.0 186718.0 189724.0 62504.0 56101.0 16264.0 9037.0 72083.0 76025.0 31946.0 35624.0 49142.0 53221.0 80723.0 87542.0 68619.0 75854.0 71745.0 66329.0 280708.0 288503.0 76410.0 76194.0 48055.0 47388.0 74759.0 149722.0 74759.0 74759.0 149722.0 149722.0
149981.0 144434.0 23651.0 31780.0 0.0 8555.0 67276.0 59023.0 176070.0 176801.0 216001.0 209674.0 36609.0 28533.0 173264.0 172342.0 118696.0 111874.0 278861.0 277010.0 69424.0 67020.0 281392.0 273215.0 73784.0 67740.0 88000.0 81023.0 78626.0 85031.0 174932.0 180492.0 200027.0 192745.0 171684.0 166091.0 250906.0 251845.0 70389.0 62739.0 39187.0 46820.0 112875.0 109992.0 87583.0 87455.0 135791.0 139568.0 73287.0 67484.0 123521.0 131195.0 208883.0 214200.0 56141.0 48418.0 162541.0 164701.0 94212.0 87604.0 24642.0 29407.0 94831.0 96728.0 60599.0 61406.0 19002.0 25389.0 51301.0 57302.0 37253.0 44811.0 102329.0 96244.0 253453.0 261115.0 45442.0 46570.0 35949.0 40756.0 88850.0 124359.0 88850.0 88850.0 124359.0 124359.0
141792.0 136155.0 27229.0 35329.0 8555.0 0.0 64992.0 57035.0 176717.0 177087.0 217237.0 210718.0 34458.0 26678.0 165209.0 164157.0 117302.0 110134.0 281549.0 279832.0 65962.0 62711.0 282969.0 274767.0 72381.0 65745.0 85589.0 78263.0 71247.0 77920.0 178362.0 183657.0 200464.0 193073.0 171733.0 165857.0 253294.0 254472.0 71658.0 63659.0 32657.0 40643.0 116770.0 114399.0 93923.0 94253.0 135495.0 138822.0 76422.0 71284.0 126864.0 134387.0 211338.0 216880.0 59933.0 51869.0 155065.0 157428.0 97578.0 91381.0 24257.0 30807.0 101939.0 104184.0 65963.0 67584.0 13899.0 18403.0 53526.0 58615.0 37481.0 45397.0 103357.0 96835.0 255812.0 263393.0 46128.0 48759.0 27908.0 33369.0 96959.0 128140.0 96959.0 96959.0 128140.0 128140.0
123863.0 121450.0 90895.0 99050.0 67276.0 64992.0 0.0 8419.0 116437.0 115624.0 158455.0 151313.0 98130.0 90974.0 141837.0 144067.0 52769.0 45272.0 228326.0 227796.0 9904.0 16862.0 224784.0 216553.0 135688.0 128385.0 20724.0 14177.0 111805.0 119791.0 132163.0 135497.0 139159.0 131528.0 109651.0 103095.0 198974.0 201329.0 136650.0 128633.0 41714.0 36269.0 179909.0 176622.0 150672.0 148867.0 73055.0 75201.0 140561.0 134672.0 84213.0 89776.0 158171.0 164770.0 123361.0 115693.0 121861.0 121126.0 161469.0 154752.0 89197.0 95702.0 154516.0 154256.0 126522.0 125754.0 51451.0 51208.0 33943.0 27331.0 32398.0 28001.0 168306.0 161655.0 201317.0 208405.0 28015.0 34707.0 75421.0 83416.0 141771.0 88619.0 141771.0 141771.0 88619.0 88619.0
126953.0 124067.0 82664.0 90803.0 59023.0 57035.0 8419.0 0.0 122522.0 122060.0 164240.0 157244.0 90543.0 83248.0 145856.0 147672.0 60333.0 53101.0 232984.0 232211.0 14951.0 19185.0 230529.0 222294.0 128265.0 121073.0 29042.0 22576.0 107141.0 115095.0 135041.0 138797.0 145595.0 138022.0 116271.0 109935.0 203807.0 205916.0 128659.0 120691.0 36044.0 31821.0 171552.0 168229.0 142282.0 140523.0 79695.0 82323.0 132306.0 126355.0 85801.0 91875.0 162641.0 169035.0 115056.0 107429.0 127005.0 126678.0 153176.0 146420.0 81283.0 87642.0 146242.0 146077.0 118113.0 117337.0 43692.0 44114.0 27741.0 22395.0 24030.0 20170.0 160391.0 153827.0 206193.0 213402.0 20301.0 27703.0 69095.0 77116.0 133739.0 89649.0 133739.0 133739.0 89649.0 89649.0
203145.0 204872.0 198634.0 206120.0 176070.0 176717.0 116437.0 122522.0 0.0 7469.0 42452.0 34985.0 211156.0 203380.0 209604.0 215606.0 67821.0 76222.0 117085.0 118355.0 121110.0 128439.0 108600.0 100391.0 249097.0 242335.0 100071.0 107872.0 227473.0 235455.0 59167.0 54433.0 24302.0 17897.0 13028.0 20470.0 87382.0 91543.0 245964.0 238616.0 158134.0 152492.0 280710.0 275541.0 242769.0 238309.0 44185.0 45121.0 245775.0 238524.0 70330.0 63927.0 53379.0 61356.0 228054.0 221658.0 181263.0 175665.0 265036.0 257375.0 200405.0 205409.0 240577.0 237927.0 226561.0 222840.0 164722.0 166399.0 125397.0 118804.0 139277.0 131442.0 277849.0 272132.0 89340.0 95434.0 130757.0 129949.0 191607.0 199627.0 224357.0 75676.0 224357.0 224357.0 75676.0 75676.0
198274.0 200220.0 199627.0 207229.0 176801.0 177087.0 115624.0 122060.0 7469.0 0.0 45282.0 37412.0 211458.0 203764.0 204104.0 210243.0 65473.0 73906.0 121241.0 122907.0 119742.0 126887.0 110584.0 102439.0 249406.0 242516.0 98424.0 106330.0 225949.0 233915.0 66595.0 61902.0 23540.0 15995.0 7123.0 15136.0 91704.0 96258.0 246947.0 239483.0 157323.0 151402.0 282776.0 277772.0 245447.0 241166.0 42641.0 42254.0 247263.0 240132.0 75135.0 69134.0 59599.0 67585.0 229529.0 222966.0 175634.0 169888.0 266770.0 259182.0 200963.0 206195.0 243592.0 240959.0 228487.0 225005.0 164797.0 166115.0 126587.0 119714.0 139772.0 132028.0 278877.0 273008.0 93533.0 99264.0 131375.0 131050.0 191007.0 199014.0 227389.0 80817.0 227389.0 227389.0 80817.0 80817.0
242582.0 244823.0 237982.0 245203.0 216001.0 217237.0 158455.0 164240.0 42452.0 45282.0 0.0 8032.0 251682.0 243795.0 247138.0 253594.0 110220.0 118635.0 76763.0 79236.0 163424.0 170813.0 66330.0 58100.0 289527.0 282980.0 142487.0 150257.0 269791.0 277777.0 65726.0 57816.0 25501.0 32199.0 52316.0 60256.0 47916.0 53519.0 285172.0 278075.0 200069.0 194630.0 317158.0 311527.0 277514.0 272694.0 86635.0 87282.0 283865.0 276351.0 100688.0 92968.0 31804.0 37473.0 266243.0 260255.0 218418.0 212268.0 302448.0 294623.0 240544.0 245127.0 274850.0 272199.0 263627.0 259265.0 205704.0 207814.0 164814.0 158777.0 179769.0 171840.0 316882.0 311494.0 49406.0 54438.0 171111.0 169492.0 233306.0 241327.0 258629.0 104040.0 258629.0 258629.0 104040.0 104040.0
234550.0 236794.0 231847.0 239151.0 209674.0 210718.0 151313.0 157244.0 34985.0 37412.0 8032.0 0.0 245175.0 237323.0 239151.0 245590.0 102577.0 111003.0 84784.0 87184.0 156091.0 163424.0 73615.0 65409.0 283065.0 276441.0 135047.0 142856.0 262457.0 270439.0 65027.0 57412.0 17690.0 24186.0 44405.0 52316.0 55842.0 61291.0 279102.0 271925.0 192979.0 187424.0 311877.0 306364.0 272641.0 267744.0 79135.0 79539.0 278120.0 270676.0 96261.0 88710.0 35399.0 42028.0 260461.0 254353.0 210441.0 204314.0 296901.0 289116.0 234163.0 238882.0 269940.0 267289.0 258150.0 253953.0 199018.0 200962.0 158597.0 152390.0 173238.0 165333.0 310876.0 305386.0 57380.0 62470.0 164618.0 163244.0 226336.0 234358.0 253719.0 100037.0 253719.0 253719.0 100037.0 100037.0
151364.0 144613.0 22633.0 23178.0 36609.0 34458.0 98130.0 90543.0 211156.0 211458.0 251682.0 245175.0 0.0 8076.0 175867.0 173251.0 150839.0 143395.0 315403.0 313580.0 97681.0 93134.0 317363.0 309166.0 37951.0 31337.0 118341.0 110693.0 55825.0 59831.0 211534.0 217098.0 234863.0 227449.0 206034.0 200047.0 287347.0 288368.0 40899.0 32592.0 60099.0 68124.0 91506.0 91053.0 80736.0 83793.0 169690.0 172770.0 50743.0 48568.0 160129.0 167800.0 245343.0 250733.0 38938.0 31374.0 171032.0 174718.0 71314.0 66850.0 12777.0 14648.0 92975.0 97654.0 50880.0 56473.0 46900.0 47387.0 87541.0 92983.0 71938.0 79848.0 71128.0 64004.0 289882.0 297510.0 80572.0 82776.0 31447.0 27827.0 97835.0 160920.0 97835.0 97835.0 160920.0 160920.0
150330.0 143809.0 17065.0 20240.0 28533.0 26678.0 90974.0 83248.0 203380.0 203764.0 243795.0 237323.0 8076.0 0.0 174672.0 172418.0 143580.0 136240.0 307342.0 305513.0 90957.0 86745.0 309421.0 301228.0 45742.0 39330.0 111342.0 103786.0 59714.0 64484.0 203459.0 209023.0 227140.0 219751.0 198398.0 192485.0 279308.0 280312.0 46520.0 38263.0 54093.0 62236.0 95397.0 94310.0 80848.0 83207.0 162123.0 165336.0 54388.0 51082.0 152054.0 159725.0 237299.0 242674.0 40545.0 32430.0 168547.0 171922.0 75412.0 70294.0 5523.0 11261.0 92111.0 96226.0 50930.0 55526.0 39558.0 40788.0 79521.0 85051.0 64112.0 71993.0 77586.0 70733.0 281845.0 289480.0 72705.0 74760.0 28764.0 27229.0 94554.0 152851.0 94554.0 94554.0 152851.0 152851.0
24648.0 32023.0 187772.0 194005.0 173264.0 165209.0 141837.0 145856.0 209604.0 204104.0 247138.0 239151.0 175867.0 174672.0 0.0 8242.0 152154.0 146171.0 323832.0 326304.0 132035.0 126678.0 305284.0 297994.0 195823.0 188411.0 137397.0 134884.0 134040.0 137266.0 252875.0 252893.0 221755.0 214976.0 197100.0 189233.0 294950.0 300024.0 212165.0 204757.0 136224.0 130563.0 264790.0 265678.0 255415.0 257246.0 173423.0 168290.0 225596.0 224349.0 216227.0 219090.0 262741.0 270654.0 214723.0 206871.0 28841.0 35717.0 244705.0 241595.0 177789.0 185604.0 265703.0 268770.0 225570.0 229582.0 155940.0 148326.0 173097.0 168234.0 161564.0 162890.0 234010.0 225906.0 296530.0 301377.0 163424.0 171894.0 146027.0 148080.0 262112.0 222342.0 262112.0 262112.0 222342.0 222342.0
22365.0 28638.0 185991.0 191993.0 172342.0 164157.0 144067.0 147672.0 215606.0 210243.0 253594.0 245590.0 173251.0 172418.0 8242.0 0.0 156957.0 150713.0 330333.0 332687.0 134199.0 128497.0 312277.0 304932.0 191865.0 184577.0 140746.0 137817.0 129659.0 132504.0 257797.0 258021.0 228269.0 221406.0 203205.0 195299.0 301337.0 306314.0 208765.0 201500.0 136041.0 130758.0 261344.0 262466.0 253260.0 255320.0 178654.0 173749.0 222547.0 221580.0 220096.0 223203.0 268605.0 276493.0 212178.0 204427.0 35963.0 43197.0 241347.0 238471.0 175739.0 183459.0 263910.0 267199.0 223348.0 227614.0 155431.0 147682.0 174613.0 170065.0 162398.0 164117.0 229826.0 221739.0 302954.0 307909.0 164685.0 173195.0 143940.0 145569.0 261115.0 226086.0 261115.0 261115.0 226086.0 226086.0
141428.0 141932.0 142294.0 150328.0 118696.0 117302.0 52769.0 60333.0 67821.0 65473.0 110220.0 102577.0 150839.0 143580.0 152154.0 156957.0 0.0 8434.0 184121.0 184743.0 55172.0 61903.0 176031.0 167868.0 188454.0 181151.0 33578.0 41577.0 160747.0 168690.0 100857.0 101394.0 88629.0 80883.0 58889.0 51645.0 154361.0 157845.0 188816.0 180915.0 93660.0 87115.0 229908.0 225972.0 197191.0 194292.0 24044.0 23354.0 191646.0 185279.0 68158.0 69096.0 116313.0 123779.0 174130.0 166794.0 125767.0 121832.0 212206.0 205140.0 141558.0 147733.0 198626.0 197005.0 175701.0 173797.0 104023.0 103961.0 73643.0 65567.0 81777.0 74951.0 220627.0 214131.0 156469.0 162907.0 74515.0 77143.0 127604.0 135522.0 183483.0 75084.0 183483.0 183483.0 75084.0 75084.0
134606.0 134839.0 135516.0 143600.0 111874.0 110134.0 45272.0 53101.0 76222.0 73906.0 118635.0 111003.0 143395.0 136240.0 146171.0 150713.0 8434.0 0.0 192371.0 192912.0 47070.0 53643.0 184465.0 176301.0 180883.0 173514.0 25497.0 33475.0 152379.0 160317.0 107468.0 108390.0 97044.0 89297.0 67311.0 60027.0 162617.0 166022.0 181755.0 173792.0 85696.0 79009.0 223661.0 219911.0 191808.0 189150.0 32296.0 31757.0 185023.0 178808.0 71795.0 73559.0 124283.0 131682.0 167596.0 160144.0 120344.0 116784.0 205715.0 198755.0 134378.0 140717.0 193780.0 192441.0 169627.0 168007.0 96700.0 96325.0 68513.0 60343.0 75280.0 68777.0 213490.0 206895.0 164743.0 171224.0 68403.0 71705.0 119637.0 127526.0 179018.0 78498.0 179018.0 179018.0 78498.0 78498.0
319271.0 321393.0 298954.0 305394.0 278861.0 281549.0 228326.0 232984.0 117085.0 121241.0 76763.0 84784.0 315403.0 307342.0 323832.0 330333.0 184121.0 192371.0 0.0 7961.0 234575.0 242281.0 37772.0 38521.0 352443.0 346599.0 214654.0 222055.0 340046.0 348018.0 106350.0 99269.0 102077.0 108962.0 128362.0 136374.0 29764.0 27124.0 344912.0 338563.0 268983.0 264475.0 372991.0 367176.0 333092.0 328235.0 160087.0 162068.0 341557.0 333733.0 155801.0 147938.0 70449.0 64675.0 324284.0 319066.0 295078.0 288839.0 359125.0 351171.0 303420.0 306852.0 330391.0 327740.0 320192.0 315280.0 271483.0 274826.0 228025.0 223361.0 244871.0 236942.0 375909.0 371221.0 27746.0 22520.0 236133.0 232794.0 300912.0 308843.0 314170.0 157477.0 314170.0 314170.0 157477.0 157477.0
321170.0 323109.0 297014.0 303461.0 277010.0 279832.0 227796.0 232211.0 118355.0 122907.0 79236.0 87184.0 313580.0 305513.0 326304.0 332687.0 184743.0 192912.0 7961.0 0.0 234306.0 242063.0 45511.0 45743.0 350536.0 344738.0 214693.0 221979.0 339346.0 347304.0 104410.0 97329.0 104720.0 111336.0 130024.0 138030.0 31355.0 26905.0 343013.0 336634.0 268134.0 263831.0 371051.0 365236.0 331152.0 326294.0 160702.0 163065.0 339617.0 331793.0 153863.0 145999.0 69625.0 63242.0 322344.0 317126.0 297614.0 291498.0 357185.0 349231.0 301543.0 304922.0 328451.0 325800.0 318251.0 313339.0 270041.0 273594.0 226321.0 221893.0 243400.0 235500.0 373969.0 369337.0 29861.0 26510.0 234682.0 231082.0 299730.0 307627.0 312230.0 155537.0 312230.0 312230.0 155537.0 155537.0
113959.0 111560.0 92717.0 100906.0 69424.0 65962.0 9904.0 14951.0 121110.0 119742.0 163424.0 156091.0 97681.0 90957.0 132035.0 134199.0 55172.0 47070.0 234575.0 234306.0 0.0 7886.0 229697.0 221480.0 134634.0 127100.0 21597.0 13601.0 106369.0 114354.0 140161.0 143167.0 143187.0 135482.0 113480.0 106556.0 205066.0 207687.0 137235.0 129077.0 38736.0 31946.0 182273.0 179391.0 154920.0 153548.0 77131.0 78317.0 142298.0 136825.0 93134.0 98401.0 164726.0 171519.0 125461.0 117570.0 112428.0 111915.0 163391.0 156958.0 89763.0 96737.0 159618.0 159784.0 129659.0 129496.0 52086.0 50294.0 42562.0 36584.0 37608.0 34895.0 168542.0 161624.0 207357.0 214296.0 35101.0 42654.0 72630.0 80486.0 147836.0 97785.0 147836.0 147836.0 97785.0 97785.0
107864.0 105139.0 89825.0 97983.0 67020.0 62711.0 16862.0 19185.0 128439.0 126887.0 170813.0 163424.0 93134.0 86745.0 126678.0 128497.0 61903.0 53643.0 242281.0 242063.0 7886.0 0.0 237039.0 228830.0 129549.0 121892.0 28468.0 20573.0 99073.0 107046.0 148040.0 151053.0 150270.0 142548.0 120531.0 113480.0 212741.0 215419.0 133227.0 124998.0 33290.0 25832.0 179455.0 176893.0 153698.0 152708.0 84352.0 85189.0 139103.0 133962.0 100833.0 106188.0 172502.0 179324.0 122599.0 114573.0 108204.0 108174.0 160277.0 154075.0 85970.0 93232.0 159142.0 159702.0 127594.0 127929.0 48845.0 45967.0 46622.0 41578.0 38559.0 37448.0 164218.0 157135.0 215021.0 221923.0 37822.0 45967.0 66773.0 74495.0 148365.0 105378.0 148365.0 148365.0 105378.0 105378.0
303349.0 306293.0 302930.0 309944.0 281392.0 282969.0 224784.0 230529.0 108600.0 110584.0 66330.0 73615.0 317363.0 309421.0 305284.0 312277.0 176031.0 184465.0 37772.0 45511.0 229697.0 237039.0 0.0 8235.0 355098.0 348694.0 208657.0 216470.0 336065.0 344049.0 117041.0 109278.0 87943.0 95641.0 117335.0 124984.0 39744.0 44580.0 349891.0 342996.0 266389.0 260956.0 379468.0 373770.0 339686.0 334828.0 152736.0 152836.0 347715.0 340018.0 162168.0 154187.0 76524.0 74284.0 330239.0 324586.0 276458.0 269716.0 365664.0 357732.0 306006.0 310306.0 336985.0 334334.0 326732.0 321865.0 271692.0 273987.0 230097.0 224380.0 245564.0 237610.0 381390.0 376268.0 37325.0 30334.0 236861.0 234821.0 299566.0 307585.0 320764.0 164164.0 320764.0 320764.0 164164.0 164164.0
295771.0 298639.0 294791.0 301823.0 273215.0 274767.0 216553.0 222294.0 100391.0 102439.0 58100.0 65409.0 309166.0 301228.0 297994.0 304932.0 167868.0 176301.0 38521.0 45743.0 221480.0 228830.0 8235.0 0.0 346911.0 340495.0 200455.0 208263.0 327850.0 335833.0 109680.0 101845.0 79904.0 87582.0 109217.0 116895.0 34295.0 40002.0 341776.0 334862.0 258155.0 252728.0 371580.0 365835.0 331751.0 326894.0 144539.0 144693.0 339678.0 331996.0 154244.0 146271.0 68999.0 67162.0 322186.0 316503.0 269158.0 262473.0 357688.0 349765.0 297825.0 302149.0 329050.0 326399.0 318760.0 313938.0 263472.0 265756.0 221923.0 216183.0 237356.0 229402.0 373296.0 368150.0 32114.0 26140.0 228655.0 226645.0 291332.0 299351.0 312829.0 156343.0 312829.0 312829.0 156343.0 156343.0
171251.0 163812.0 54144.0 49080.0 73784.0 72381.0 135688.0 128265.0 249097.0 249406.0 289527.0 283065.0 37951.0 45742.0 195823.0 191865.0 188454.0 180883.0 352443.0 350536.0 134634.0 129549.0 355098.0 346911.0 0.0 8042.0 155646.0 147881.0 62735.0 61829.0 247984.0 253800.0 272813.0 265398.0 243967.0 237943.0 324634.0 325473.0 22592.0 20944.0 96259.0 103942.0 70998.0 73828.0 80004.0 85856.0 207592.0 210568.0 39487.0 43936.0 196802.0 204580.0 282600.0 287819.0 42730.0 41556.0 195764.0 200460.0 52250.0 52150.0 49142.0 45805.0 95298.0 102101.0 56453.0 64679.0 84747.0 84568.0 125062.0 130763.0 109847.0 117734.0 38659.0 30590.0 327188.0 334870.0 118447.0 120317.0 63767.0 57023.0 109849.0 197172.0 109849.0 109849.0 197172.0 197172.0
163809.0 156420.0 49496.0 45373.0 67740.0 65745.0 128385.0 121073.0 242335.0 242516.0 282980.0 276441.0 31337.0 39330.0 188411.0 184577.0 181151.0 173514.0 346599.0 344738.0 127100.0 121892.0 348694.0 340495.0 8042.0 0.0 148212.0 140409.0 55964.0 55705.0 242462.0 248144.0 265960.0 258511.0 237000.0 230889.0 318621.0 319585.0 26639.0 22454.0 88609.0 96219.0 77463.0 79766.0 82904.0 88295.0 200559.0 203396.0 43257.0 46462.0 191146.0 198868.0 276606.0 281940.0 43259.0 40549.0 187968.0 192604.0 58162.0 57200.0 43214.0 40876.0 97822.0 104281.0 57390.0 65362.0 77732.0 77196.0 118851.0 124315.0 103214.0 111141.0 46542.0 38513.0 321162.0 328804.0 111873.0 114090.0 55865.0 49030.0 109735.0 191730.0 109735.0 109735.0 191730.0 191730.0
122273.0 121160.0 111617.0 119773.0 88000.0 85589.0 20724.0 29042.0 100071.0 98424.0 142487.0 135047.0 118341.0 111342.0 137397.0 140746.0 33578.0 25497.0 214654.0 214693.0 21597.0 28468.0 208657.0 200455.0 155646.0 148212.0 0.0 7999.0 127527.0 135495.0 123513.0 125754.0 121802.0 114081.0 92064.0 85046.0 185014.0 187932.0 157230.0 149175.0 60205.0 53543.0 200594.0 197240.0 170763.0 168701.0 55928.0 56773.0 161285.0 155386.0 80048.0 84094.0 145324.0 152361.0 144080.0 136417.0 114453.0 112465.0 182191.0 175458.0 109738.0 116348.0 174037.0 173414.0 147082.0 146117.0 71933.0 71088.0 50224.0 42326.0 52631.0 47244.0 188809.0 182071.0 187248.0 194026.0 47070.0 52282.0 94143.0 102030.0 160498.0 85675.0 160498.0 160498.0 85675.0 85675.0
118663.0 117096.0 104570.0 112747.0 81023.0 78263.0 14177.0 22576.0 107872.0 106330.0 150257.0 142856.0 110693.0 103786.0 134884.0 137817.0 41577.0 33475.0 222055.0 221979.0 13601.0 20573.0 216470.0 208263.0 147881.0 140409.0 7999.0 0.0 119644.0 127618.0 129608.0 132151.0 129735.0 122019.0 100006.0 93021.0 192459.0 195266.0 149832.0 141738.0 52259.0 45547.0 193813.0 190627.0 164849.0 163030.0 63779.0 64758.0 154247.0 148496.0 84613.0 89168.0 152509.0 159455.0 137161.0 129413.0 113073.0 111621.0 175230.0 168601.0 102322.0 109062.0 168634.0 168292.0 140586.0 139902.0 64511.0 63366.0 46515.0 39069.0 46574.0 41926.0 181322.0 174517.0 194715.0 201554.0 41868.0 47949.0 86185.0 94060.0 155671.0 89876.0 155671.0 155671.0 89876.0 89876.0
109690.0 102056.0 76770.0 78919.0 78626.0 71247.0 111805.0 107141.0 227473.0 225949.0 269791.0 262457.0 55825.0 59714.0 134040.0 129659.0 160747.0 152379.0 340046.0 339346.0 106369.0 99073.0 336065.0 327850.0 62735.0 55964.0 127527.0 119644.0 0.0 7991.0 241253.0 245473.0 249298.0 241565.0 219548.0 212392.0 310758.0 313005.0 81794.0 75620.0 71372.0 75579.0 133427.0 135572.0 133875.0 137914.0 183423.0 184096.0 97360.0 98469.0 190558.0 197371.0 269759.0 276176.0 91445.0 85226.0 136867.0 142369.0 114012.0 112427.0 65017.0 70073.0 147339.0 152607.0 104918.0 111412.0 74610.0 68636.0 117993.0 120110.0 99634.0 106856.0 100209.0 92140.0 313111.0 320211.0 107723.0 113652.0 43941.0 37907.0 153652.0 193176.0 153652.0 153652.0 193176.0 193176.0
113183.0 105437.0 81521.0 83006.0 85031.0 77920.0 119791.0 115095.0 235455.0 233915.0 277777.0 270439.0 59831.0 64484.0 137266.0 132504.0 168690.0 160317.0 348018.0 347304.0 114354.0 107046.0 344049.0 335833.0 61829.0 55705.0 135495.0 127618.0 7991.0 0.0 249092.0 253353.0 257255.0 249521.0 227504.0 220336.0 318738.0 320974.0 82123.0 76541.0 79282.0 83558.0 132826.0 135438.0 135881.0 140275.0 191398.0 192041.0 98214.0 99972.0 198328.0 205178.0 277722.0 284127.0 93695.0 87959.0 141537.0 147283.0 113825.0 112803.0 69913.0 74359.0 149768.0 155331.0 107473.0 114310.0 81948.0 76187.0 125585.0 127847.0 107245.0 114539.0 98168.0 90195.0 321093.0 328197.0 115404.0 121203.0 51065.0 44575.0 157491.0 200878.0 157491.0 157491.0 200878.0 200878.0
242074.0 242211.0 194242.0 200588.0 174932.0 178362.0 132163.0 135041.0 59167.0 66595.0 65726.0 65027.0 211534.0 203459.0 252875.0 257797.0 100857.0 107468.0 106350.0 104410.0 140161.0 148040.0 117041.0 109680.0 247984.0 242462.0 123513.0 129608.0 241253.0 249092.0 0.0 8101.0 71600.0 70555.0 70507.0 75457.0 80262.0 79626.0 240124.0 233752.0 169995.0 166800.0 268157.0 262342.0 228258.0 223401.0 79946.0 86136.0 236724.0 228899.0 51499.0 44114.0 40827.0 42998.0 219450.0 214279.0 225985.0 221523.0 254292.0 246337.0 199262.0 202271.0 225557.0 222906.0 215358.0 210446.0 169446.0 173738.0 125169.0 121612.0 142895.0 135177.0 271075.0 266457.0 82938.0 90970.0 134329.0 129874.0 199880.0 207605.0 209336.0 50865.0 209336.0 209336.0 50865.0 50865.0
242821.0 243219.0 200095.0 206428.0 180492.0 183657.0 135497.0 138797.0 54433.0 61902.0 57816.0 57412.0 217098.0 209023.0 252893.0 258021.0 101394.0 108390.0 99269.0 97329.0 143167.0 151053.0 109278.0 101845.0 253800.0 248144.0 125754.0 132151.0 245473.0 253353.0 8101.0 0.0 64916.0 64434.0 66403.0 71962.0 72997.0 72546.0 245980.0 239580.0 174119.0 170614.0 274014.0 268198.0 234114.0 229257.0 79499.0 85153.0 242580.0 234756.0 57003.0 49302.0 32890.0 35545.0 225307.0 220135.0 225664.0 220973.0 260148.0 252194.0 204930.0 208096.0 231413.0 228762.0 221214.0 216302.0 174366.0 178399.0 130264.0 126335.0 147745.0 139944.0 276932.0 272313.0 75664.0 83676.0 139106.0 135002.0 204571.0 212361.0 215192.0 57106.0 215192.0 215192.0 57106.0 57106.0
217594.0 220014.0 222718.0 230250.0 200027.0 200464.0 139159.0 145595.0 24302.0 23540.0 25501.0 17690.0 234863.0 227140.0 221755.0 228269.0 88629.0 97044.0 102077.0 104720.0 143187.0 150270.0 87943.0 79904.0 272813.0 265960.0 121802.0 129735.0 249298.0 257255.0 71600.0 64916.0 0.0 7751.0 29752.0 37139.0 73415.0 78967.0 270050.0 262650.0 180854.0 174897.0 305011.0 299831.0 266971.0 262450.0 66146.0 65290.0 270021.0 262793.0 93181.0 86271.0 50080.0 57474.0 252296.0 245857.0 193009.0 186814.0 289324.0 281670.0 224272.0 229400.0 264666.0 262015.0 250862.0 247137.0 188258.0 189640.0 149537.0 142829.0 163092.0 155307.0 301956.0 296174.0 74872.0 79640.0 154640.0 154059.0 214547.0 222554.0 248445.0 97988.0 248445.0 248445.0 97988.0 97988.0
210437.0 212758.0 215523.0 223097.0 192745.0 193073.0 131528.0 138022.0 17897.0 15995.0 32199.0 24186.0 227449.0 219751.0 214976.0 221406.0 80883.0 89297.0 108962.0 111336.0 135482.0 142548.0 95641.0 87582.0 265398.0 258511.0 114081.0 122019.0 241565.0 249521.0 70555.0 64434.0 7751.0 0.0 22018.0 29395.0 79983.0 85255.0 262850.0 255410.0 173211.0 167216.0 298275.0 293178.0 260558.0 256141.0 58488.0 57541.0 263018.0 255840.0 87963.0 81340.0 53568.0 61277.0 245286.0 238780.0 186279.0 180186.0 282428.0 274807.0 216934.0 222134.0 258437.0 255786.0 244052.0 240444.0 180791.0 182091.0 142416.0 135613.0 155744.0 147988.0 294772.0 288935.0 81556.0 86612.0 147330.0 146906.0 206932.0 214936.0 242216.0 93095.0 242216.0 242216.0 93095.0 93095.0
191164.0 193099.0 194670.0 202347.0 171684.0 171733.0 109651.0 116271.0 13028.0 7123.0 52316.0 44405.0 206034.0 198398.0 197100.0 203205.0 58889.0 67311.0 128362.0 130024.0 113480.0 120531.0 117335.0 109217.0 243967.0 237000.0 92064.0 100006.0 219548.0 227504.0 70507.0 66403.0 29752.0 22018.0 0.0 8013.0 98826.0 103361.0 241951.0 234413.0 151300.0 145243.0 278572.0 273705.0 241777.0 237658.0 36602.0 35570.0 242630.0 235593.0 74070.0 68620.0 66258.0 74243.0 224896.0 218216.0 168664.0 162968.0 262311.0 254784.0 195711.0 201091.0 240324.0 237672.0 224202.0 220916.0 159270.0 160375.0 121869.0 114808.0 134544.0 126875.0 273898.0 267927.0 100656.0 106373.0 126243.0 126257.0 185071.0 193067.0 224102.0 80125.0 224102.0 224102.0 80125.0 80125.0
183168.0 185088.0 189245.0 197005.0 166091.0 165857.0 103095.0 109935.0 20470.0 15136.0 60256.0 52316.0 200047.0 192485.0 189233.0 195299.0 51645.0 60027.0 136374.0 138030.0 106556.0 113480.0 124984.0 116895.0 237943.0 230889.0 85046.0 93021.0 212392.0 220336.0 75457.0 71962.0 37139.0 29395.0 8013.0 0.0 106838.0 111353.0 236449.0 228827.0 144634.0 138414.0 273972.0 269265.0 237821.0 233892.0 30363.0 28300.0 237552.0 230629.0 73664.0 68904.0 73847.0 81822.0 219831.0 213016.0 160843.0 155209.0 257425.0 249973.0 189936.0 195486.0 236833.0 234236.0 219543.0 216488.0 153198.0 154043.0 116838.0 109567.0 128867.0 121302.0 268399.0 262311.0 108669.0 114373.0 120699.0 121125.0 178487.0 186464.0 220667.0 80081.0 220667.0 220667.0 80081.0 80081.0
289912.0 291922.0 271476.0 278116.0 250906.0 253294.0 198974.0 203807.0 87382.0 91704.0 47916.0 55842.0 287347.0 279308.0 294950.0 301337.0 154361.0 162617.0 29764.0 31355.0 205066.0 212741.0 39744.0 34295.0 324634.0 318621.0 185014.0 192459.0 310758.0 318738.0 80262.0 72997.0 73415.0 79983.0 98826.0 106838.0 0.0 7469.0 317839.0 311295.0 239840.0 235180.0 346007.0 340191.0 306107.0 301250.0 130329.0 132321.0 314523.0 306749.0 128674.0 120714.0 42039.0 37500.0 297295.0 292095.0 266261.0 260155.0 332141.0 324187.0 275524.0 279223.0 303406.0 300755.0 293207.0 288295.0 242910.0 246025.0 199828.0 194879.0 216361.0 208408.0 348912.0 344204.0 2678.0 10717.0 207612.0 204597.0 272044.0 280003.0 287186.0 129679.0 287186.0 287186.0 129679.0 129679.0
294522.0 296377.0 272075.0 278582.0 251845.0 254472.0 201329.0 205916.0 91543.0 96258.0 53519.0 61291.0 288368.0 280312.0 300024.0 306314.0 157845.0 166022.0 27124.0 26905.0 207687.0 215419.0 44580.0 40002.0 325473.0 319585.0 187932.0 195266.0 313005.0 320974.0 79626.0 72546.0 78967.0 85255.0 103361.0 111353.0 7469.0 0.0 318181.0 311760.0 241902.0 237445.0 346216.0 340400.0 306316.0 301459.0 133802.0 136174.0 314782.0 306958.0 128981.0 121080.0 43330.0 37654.0 297509.0 292319.0 271398.0 265391.0 332350.0 324396.0 276422.0 279928.0 303615.0 300964.0 293416.0 288504.0 244366.0 247702.0 200952.0 196249.0 217757.0 209826.0 349080.0 344515.0 8434.0 14253.0 209018.0 205721.0 273790.0 281720.0 287395.0 129575.0 287395.0 287395.0 129575.0 129575.0
187516.0 180335.0 47332.0 39973.0 70389.0 71658.0 136650.0 128659.0 245964.0 246947.0 285172.0 279102.0 40899.0 46520.0 212165.0 208765.0 188816.0 181755.0 344912.0 343013.0 137235.0 133227.0 349891.0 341776.0 22592.0 26639.0 157230.0 149832.0 81794.0 82123.0 240124.0 245980.0 270050.0 262850.0 241951.0 236449.0 317839.0 318181.0 0.0 8311.0 100588.0 108707.0 52628.0 53932.0 57462.0 63468.0 206168.0 209938.0 16906.0 21829.0 189216.0 197149.0 275867.0 280610.0 23734.0 26252.0 209735.0 213864.0 32589.0 30688.0 47510.0 41095.0 72853.0 79801.0 35870.0 44211.0 85322.0 87260.0 120591.0 127237.0 107643.0 115147.0 31951.0 26387.0 320441.0 328262.0 115752.0 116015.0 71841.0 66820.0 89809.0 189257.0 89809.0 89809.0 189257.0 189257.0
180115.0 173004.0 40095.0 33181.0 62739.0 63659.0 128633.0 120691.0 238616.0 239483.0 278075.0 271925.0 32592.0 38263.0 204757.0 201500.0 180915.0 173792.0 338563.0 336634.0 129077.0 124998.0 342996.0 334862.0 20944.0 22454.0 149175.0 141738.0 75620.0 76541.0 233752.0 239580.0 262650.0 255410.0 234413.0 228827.0 311295.0 311760.0 8311.0 0.0 92306.0 100418.0 60223.0 60967.0 60482.0 65845.0 198516.0 202177.0 21742.0 24033.0 182781.0 190683.0 269289.0 274151.0 21804.0 21648.0 201877.0 205924.0 40015.0 37114.0 39439.0 33341.0 75370.0 81873.0 35541.0 43742.0 77244.0 79032.0 113336.0 119823.0 99965.0 107548.0 39712.0 33525.0 313887.0 321678.0 108172.0 108716.0 63613.0 58744.0 88942.0 182886.0 88942.0 88942.0 182886.0 182886.0
113853.0 109046.0 59566.0 67472.0 39187.0 32657.0 41714.0 36044.0 158134.0 157323.0 200069.0 192979.0 60099.0 54093.0 136224.0 136041.0 93660.0 85696.0 268983.0 268134.0 38736.0 33290.0 266389.0 258155.0 96259.0 88609.0 60205.0 52259.0 71372.0 79282.0 169995.0 174119.0 180854.0 173211.0 151300.0 144634.0 239840.0 241902.0 100588.0 92306.0 0.0 8199.0 148416.0 146476.0 126506.0 126604.0 114725.0 116559.0 107605.0 103110.0 119645.0 126259.0 198605.0 204923.0 91860.0 83653.0 123814.0 125712.0 128806.0 123045.0 53946.0 61615.0 134015.0 135790.0 98582.0 100196.0 20395.0 14296.0 49353.0 49794.0 31702.0 37469.0 131225.0 124034.0 242231.0 249447.0 38317.0 45729.0 33946.0 41870.0 126955.0 122677.0 126955.0 126955.0 122677.0 122677.0
108746.0 104323.0 67671.0 75611.0 46820.0 40643.0 36269.0 31821.0 152492.0 151402.0 194630.0 187424.0 68124.0 62236.0 130563.0 130758.0 87115.0 79009.0 264475.0 263831.0 31946.0 25832.0 260956.0 252728.0 103942.0 96219.0 53543.0 45547.0 75579.0 83558.0 166800.0 170614.0 174897.0 167216.0 145243.0 138414.0 235180.0 237445.0 108707.0 100418.0 8199.0 0.0 156610.0 154644.0 134329.0 134271.0 108762.0 110216.0 115804.0 111291.0 117113.0 123427.0 194224.0 200708.0 100032.0 91832.0 117070.0 118689.0 137004.0 131237.0 62143.0 69813.0 141542.0 143121.0 106605.0 108058.0 27840.0 22393.0 49572.0 48655.0 33315.0 37651.0 139230.0 131986.0 237535.0 244651.0 38440.0 46531.0 40942.0 48685.0 133796.0 120562.0 133796.0 133796.0 120562.0 120562.0
240141.0 232944.0 89639.0 81473.0 112875.0 116770.0 179909.0 171552.0 280710.0 282776.0 317158.0 311877.0 91506.0 95397.0 264790.0 261344.0 229908.0 223661.0 372991.0 371051.0 182273.0 179455.0 379468.0 371580.0 70998.0 77463.0 200594.0 193813.0 133427.0 132826.0 268157.0 274014.0 305011.0 298275.0 278572.0 273972.0 346007.0 346216.0 52628.0 60223.0 148416.0 156610.0 0.0 8198.0 43917.0 51110.0 244386.0 249229.0 41011.0 45493.0 217421.0 225413.0 304186.0 308672.0 56858.0 64910.0 262040.0 265984.0 20253.0 25396.0 94609.0 86812.0 55855.0 63619.0 54450.0 57930.0 130612.0 134331.0 157417.0 165078.0 148411.0 154968.0 39926.0 45991.0 348629.0 356514.0 155394.0 153383.0 122952.0 118697.0 89757.0 217291.0 89757.0 89757.0 217291.0 217291.0
241043.0 233960.0 87171.0 79097.0 109992.0 114399.0 176622.0 168229.0 275541.0 277772.0 311527.0 306364.0 91053.0 94310.0 265678.0 262466.0 225972.0 219911.0 367176.0 365236.0 179391.0 176893.0 373770.0 365835.0 73828.0 79766.0 197240.0 190627.0 135572.0 135438.0 262342.0 268198.0 299831.0 293178.0 273705.0 269265.0 340191.0 340400.0 53932.0 60967.0 146476.0 154644.0 8198.0 0.0 36469.0 43460.0 239870.0 244893.0 40342.0 43440.0 211605.0 219597.0 298371.0 302856.0 54618.0 62844.0 262039.0 265771.0 21613.0 24221.0 93056.0 85107.0 47817.0 55527.0 50285.0 52789.0 128132.0 132274.0 153045.0 160825.0 144808.0 151137.0 45825.0 51120.0 342813.0 350698.0 151527.0 149130.0 122410.0 118626.0 82210.0 211476.0 82210.0 82210.0 211476.0 211476.0
231141.0 224656.0 68233.0 61479.0 87583.0 93923.0 150672.0 142282.0 242769.0 245447.0 277514.0 272641.0 80736.0 80848.0 255415.0 253260.0 197191.0 191808.0 333092.0 331152.0 154920.0 153698.0 339686.0 331751.0 80004.0 82904.0 170763.0 164849.0 133875.0 135881.0 228258.0 234114.0 266971.0 260558.0 241777.0 237821.0 306107.0 306316.0 57462.0 60482.0 126506.0 134329.0 43917.0 36469.0 0.0 7611.0 209128.0 214690.0 40750.0 36449.0 177522.0 185513.0 264287.0 268773.0 42481.0 49403.0 247999.0 250805.0 40146.0 33806.0 77639.0 69819.0 15748.0 23411.0 29951.0 26362.0 106577.0 112317.0 123552.0 131630.0 118279.0 123619.0 68600.0 70131.0 308729.0 316614.0 123869.0 120124.0 109390.0 107885.0 45843.0 177392.0 45843.0 45843.0 177392.0 177392.0
233112.0 226773.0 69524.0 63339.0 87455.0 94253.0 148867.0 140523.0 238309.0 241166.0 272694.0 267744.0 83793.0 83207.0 257246.0 255320.0 194292.0 189150.0 328235.0 326294.0 153548.0 152708.0 334828.0 326894.0 85856.0 88295.0 168701.0 163030.0 137914.0 140275.0 223401.0 229257.0 262450.0 256141.0 237658.0 233892.0 301250.0 301459.0 63468.0 65845.0 126604.0 134271.0 51110.0 43460.0 7611.0 0.0 205509.0 211256.0 47041.0 41961.0 172664.0 180656.0 259430.0 263915.0 46580.0 52809.0 249007.0 251591.0 47712.0 41218.0 79603.0 72012.0 9548.0 16438.0 33059.0 27718.0 106434.0 112555.0 120693.0 128832.0 116494.0 121462.0 76046.0 77360.0 303872.0 311757.0 121662.0 117466.0 111392.0 110411.0 38771.0 172534.0 38771.0 38771.0 172534.0 172534.0
164080.0 164968.0 159014.0 166818.0 135791.0 135495.0 73055.0 79695.0 44185.0 42641.0 86635.0 79135.0 169690.0 162123.0 173423.0 178654.0 24044.0 32296.0 160087.0 160702.0 77131.0 84352.0 152736.0 144539.0 207592.0 200559.0 55928.0 63779.0 183423.0 191398.0 79946.0 79499.0 66146.0 58488.0 36602.0 30363.0 130329.0 133802.0 206168.0 198516.0 114725.0 108762.0 244386.0 239870.0 209128.0 205509.0 0.0 8078.0 207529.0 200706.0 57329.0 55609.0 92430.0 99974.0 189828.0 182914.0 146184.0 141601.0 227557.0 220181.0 159583.0 165175.0 208913.0 206530.0 189936.0 187163.0 122852.0 123807.0 87005.0 79547.0 98550.0 91033.0 238115.0 231987.0 132449.0 138933.0 90444.0 91179.0 148473.0 156471.0 192960.0 64459.0 192960.0 192960.0 64459.0 64459.0
159855.0 161079.0 162978.0 170880.0 139568.0 138822.0 75201.0 82323.0 45121.0 42254.0 87282.0 79539.0 172770.0 165336.0 168290.0 173749.0 23354.0 31757.0 162068.0 163065.0 78317.0 85189.0 152836.0 144693.0 210568.0 203396.0 56773.0 64758.0 184096.0 192041.0 86136.0 85153.0 65290.0 57541.0 35570.0 28300.0 132321.0 136174.0 209938.0 202177.0 116559.0 110216.0 249229.0 244893.0 214690.0 211256.0 8078.0 0.0 211862.0 205193.0 65403.0 63584.0 95757.0 103476.0 194208.0 187135.0 140702.0 135863.0 232095.0 224819.0 163021.0 168864.0 214895.0 212656.0 194806.0 192296.0 125871.0 126336.0 91850.0 84155.0 102338.0 95033.0 241853.0 235566.0 134339.0 140539.0 94495.0 95848.0 150466.0 158422.0 199086.0 72531.0 199086.0 199086.0 72531.0 72531.0
200982.0 193981.0 49678.0 41512.0 73287.0 76422.0 140561.0 132306.0 245775.0 247263.0 283865.0 278120.0 50743.0 54388.0 225596.0 222547.0 191646.0 185023.0 341557.0 339617.0 142298.0 139103.0 347715.0 339678.0 39487.0 43257.0 161285.0 154247.0 97360.0 98214.0 236724.0 242580.0 270021.0 263018.0 242630.0 237552.0 314523.0 314782.0 16906.0 21742.0 107605.0 115804.0 41011.0 40342.0 40750.0 47041.0 207529.0 211862.0 0.0 8219.0 185951.0 193940.0 272752.0 277238.0 17736.0 24884.0 221697.0 225450.0 21207.0 16121.0 53694.0 46013.0 56298.0 63462.0 23743.0 31510.0 90319.0 93622.0 120765.0 127999.0 109870.0 116891.0 35806.0 33803.0 317155.0 325061.0 117400.0 116428.0 82150.0 78285.0 76270.0 185857.0 76270.0 76270.0 185857.0 185857.0
199803.0 192956.0 44148.0 35979.0 67484.0 71284.0 134672.0 126355.0 238524.0 240132.0 276351.0 270676.0 48568.0 51082.0 224349.0 221580.0 185279.0 178808.0 333733.0 331793.0 136825.0 133962.0 340018.0 331996.0 43936.0 46462.0 155386.0 148496.0 98469.0 99972.0 228899.0 234756.0 262793.0 255840.0 235593.0 230629.0 306749.0 306958.0 21829.0 24033.0 103110.0 111291.0 45493.0 43440.0 36449.0 41961.0 200706.0 205193.0 8219.0 0.0 178139.0 186131.0 264922.0 269414.0 11368.0 19464.0 219422.0 222931.0 26930.0 20133.0 49626.0 41667.0 51447.0 58165.0 15610.0 23577.0 85119.0 88954.0 113792.0 121162.0 103543.0 110380.0 44024.0 41838.0 309287.0 317204.0 110858.0 109534.0 79535.0 76392.0 68795.0 178033.0 68795.0 68795.0 178033.0 178033.0
202205.0 201207.0 143163.0 149605.0 123521.0 126864.0 84213.0 85801.0 70330.0 75135.0 100688.0 96261.0 160129.0 152054.0 216227.0 220096.0 68158.0 71795.0 155801.0 153863.0 93134.0 100833.0 162168.0 154244.0 196802.0 191146.0 80048.0 84613.0 190558.0 198328.0 51499.0 57003.0 93181.0 87963.0 74070.0 73664.0 128674.0 128981.0 189216.0 182781.0 119645.0 117113.0 217421.0 211605.0 177522.0 172664.0 57329.0 65403.0 185951.0 178139.0 0.0 7995.0 86809.0 91394.0 168653.0 163424.0 191472.0 188292.0 203554.0 195601.0 147932.0 151117.0 174821.0 172170.0 164620.0 159709.0 118066.0 122581.0 73724.0 70516.0 91601.0 83982.0 220238.0 215565.0 131290.0 139160.0 83126.0 78411.0 148659.0 156320.0 158600.0 7151.0 158600.0 158600.0 7151.0 7151.0
205781.0 205055.0 151016.0 157503.0 131195.0 134387.0 89776.0 91875.0 63927.0 69134.0 92968.0 88710.0 167800.0 159725.0 219090.0 223203.0 69096.0 73559.0 147938.0 145999.0 98401.0 106188.0 154187.0 146271.0 204580.0 198868.0 84094.0 89168.0 197371.0 205178.0 44114.0 49302.0 86271.0 81340.0 68620.0 68904.0 120714.0 121080.0 197149.0 190683.0 126259.0 123427.0 225413.0 219597.0 185513.0 180656.0 55609.0 63584.0 193940.0 186131.0 7995.0 0.0 78827.0 83470.0 176633.0 171381.0 193807.0 190342.0 211547.0 203592.0 155656.0 158931.0 182812.0 180161.0 172613.0 167701.0 125334.0 129655.0 81083.0 77531.0 98783.0 91078.0 228202.0 223504.0 123327.0 131188.0 90228.0 85801.0 155784.0 163497.0 166591.0 11757.0 166591.0 166591.0 11757.0 11757.0
255483.0 256827.0 229448.0 236112.0 208883.0 211338.0 158171.0 162641.0 53379.0 59599.0 31804.0 35399.0 245343.0 237299.0 262741.0 268605.0 116313.0 124283.0 70449.0 69625.0 164726.0 172502.0 76524.0 68999.0 282600.0 276606.0 145324.0 152509.0 269759.0 277722.0 40827.0 32890.0 50080.0 53568.0 66258.0 73847.0 42039.0 43330.0 275867.0 269289.0 198605.0 194224.0 304186.0 298371.0 264287.0 259430.0 92430.0 95757.0 272752.0 264922.0 86809.0 78827.0 0.0 7987.0 255461.0 250175.0 234512.0 228995.0 290320.0 282366.0 233495.0 237185.0 261586.0 258935.0 251387.0 246475.0 201097.0 204381.0 157846.0 153007.0 174508.0 166567.0 307008.0 302240.0 44610.0 52395.0 165763.0 162615.0 230463.0 238396.0 245365.0 88159.0 245365.0 245365.0 88159.0 88159.0
263268.0 264555.0 234435.0 240970.0 214200.0 216880.0 164770.0 169035.0 61356.0 67585.0 37473.0 42028.0 250733.0 242674.0 270654.0 276493.0 123779.0 131682.0 64675.0 63242.0 171519.0 179324.0 74284.0 67162.0 287819.0 281940.0 152361.0 159455.0 276176.0 284127.0 42998.0 35545.0 57474.0 61277.0 74243.0 81822.0 37500.0 37654.0 280610.0 274151.0 204923.0 200708.0 308672.0 302856.0 268773.0 263915.0 99974.0 103476.0 277238.0 269414.0 91394.0 83470.0 7987.0 0.0 259914.0 254794.0 242448.0 236950.0 294806.0 286852.0 238772.0 242277.0 266072.0 263421.0 255872.0 250960.0 206896.0 210372.0 163354.0 158755.0 180267.0 172350.0 311585.0 306957.0 40158.0 48151.0 171537.0 168122.0 236499.0 244403.0 249851.0 92214.0 249851.0 249851.0 92214.0 92214.0
190255.0 183539.0 32781.0 24616.0 56141.0 59933.0 123361.0 115056.0 228054.0 229529.0 266243.0 260461.0 38938.0 40545.0 214723.0 212178.0 174130.0 167596.0 324284.0 322344.0 125461.0 122599.0 330239.0 322186.0 42730.0 43259.0 144080.0 137161.0 91445.0 93695.0 219450.0 225307.0 252296.0 245286.0 224896.0 219831.0 297295.0 297509.0 23734.0 21804.0 91860.0 100032.0 56858.0 54618.0 42481.0 46580.0 189828.0 194208.0 17736.0 11368.0 168653.0 176633.0 255461.0 259914.0 0.0 8263.0 209090.0 212449.0 38131.0 31500.0 38659.0 30629.0 56080.0 61878.0 14198.0 22113.0 73758.0 77672.0 103033.0 110289.0 92362.0 99291.0 51885.0 48256.0 299920.0 307806.0 99786.0 98705.0 69241.0 66647.0 67138.0 168584.0 67138.0 67138.0 168584.0 168584.0
182444.0 175792.0 24859.0 16672.0 48418.0 51869.0 115693.0 107429.0 221658.0 222966.0 260255.0 254353.0 31374.0 32430.0 206871.0 204427.0 166794.0 160144.0 319066.0 317126.0 117570.0 114573.0 324586.0 316503.0 41556.0 40549.0 136417.0 129413.0 85226.0 87959.0 214279.0 220135.0 245857.0 238780.0 218216.0 213016.0 292095.0 292319.0 26252.0 21648.0 83653.0 91832.0 64910.0 62844.0 49403.0 52809.0 182914.0 187135.0 24884.0 19464.0 163424.0 171381.0 250175.0 254794.0 8263.0 0.0 200961.0 204275.0 45832.0 39516.0 30404.0 22368.0 62164.0 67413.0 19750.0 26378.0 65730.0 69490.0 96381.0 103453.0 85027.0 92118.0 56844.0 52287.0 294708.0 302559.0 92643.0 91959.0 61178.0 58858.0 69266.0 163413.0 69266.0 69266.0 163413.0 163413.0
35042.0 41985.0 179767.0 186718.0 162541.0 155065.0 121861.0 127005.0 181263.0 175634.0 218418.0 210441.0 171032.0 168547.0 28841.0 35963.0 125767.0 120344.0 295078.0 297614.0 112428.0 108204.0 276458.0 269158.0 195764.0 187968.0 114453.0 113073.0 136867.0 141537.0 225985.0 225664.0 193009.0 186279.0 168664.0 160843.0 266261.0 271398.0 209735.0 201877.0 123814.0 117070.0 262040.0 262039.0 247999.0 249007.0 146184.0 140702.0 221697.0 219422.0 191472.0 193807.0 234512.0 242448.0 209090.0 200961.0 0.0 7817.0 241790.0 237819.0 170883.0 178911.0 256941.0 259223.0 218659.0 221730.0 144157.0 137154.0 154721.0 149010.0 145388.0 145503.0 234414.0 226323.0 267820.0 272612.0 145930.0 154164.0 139897.0 143425.0 250760.0 197841.0 250760.0 250760.0 197841.0 197841.0
42716.0 49488.0 182608.0 189724.0 164701.0 157428.0 121126.0 126678.0 175665.0 169888.0 212268.0 204314.0 174718.0 171922.0 35717.0 43197.0 121832.0 116784.0 288839.0 291498.0 111915.0 108174.0 269716.0 262473.0 200460.0 192604.0 112465.0 111621.0 142369.0 147283.0 221523.0 220973.0 186814.0 180186.0 162968.0 155209.0 260155.0 265391.0 213864.0 205924.0 125712.0 118689.0 265984.0 265771.0 250805.0 251591.0 141601.0 135863.0 225450.0 222931.0 188292.0 190342.0 228995.0 236950.0 212449.0 204275.0 7817.0 0.0 245732.0 241565.0 174049.0 182100.0 259367.0 261427.0 221666.0 224480.0 146104.0 139326.0 154417.0 148412.0 145921.0 145608.0 239118.0 231046.0 261673.0 266350.0 145994.0 154100.0 143417.0 147287.0 252484.0 194778.0 252484.0 252484.0 194778.0 194778.0
220059.0 212901.0 70691.0 62504.0 94212.0 97578.0 161469.0 153176.0 265036.0 266770.0 302448.0 296901.0 71314.0 75412.0 244705.0 241347.0 212206.0 205715.0 359125.0 357185.0 163391.0 160277.0 365664.0 357688.0 52250.0 58162.0 182191.0 175230.0 114012.0 113825.0 254292.0 260148.0 289324.0 282428.0 262311.0 257425.0 332141.0 332350.0 32589.0 40015.0 128806.0 137004.0 20253.0 21613.0 40146.0 47712.0 227557.0 232095.0 21207.0 26930.0 203554.0 211547.0 290320.0 294806.0 38131.0 45832.0 241790.0 245732.0 0.0 8072.0 74879.0 67220.0 55234.0 63189.0 38935.0 44455.0 111469.0 114830.0 140595.0 148026.0 130461.0 137310.0 28947.0 32100.0 334763.0 342648.0 137787.0 136379.0 102756.0 98446.0 83749.0 203425.0 83749.0 83749.0 203425.0 203425.0
216970.0 209930.0 64276.0 56101.0 87604.0 91381.0 154752.0 146420.0 257375.0 259182.0 294623.0 289116.0 66850.0 70294.0 241595.0 238471.0 205140.0 198755.0 351171.0 349231.0 156958.0 154075.0 357732.0 349765.0 52150.0 57200.0 175458.0 168601.0 112427.0 112803.0 246337.0 252194.0 281670.0 274807.0 254784.0 249973.0 324187.0 324396.0 30688.0 37114.0 123045.0 131237.0 25396.0 24221.0 33806.0 41218.0 220181.0 224819.0 16121.0 20133.0 195601.0 203592.0 282366.0 286852.0 31500.0 39516.0 237819.0 241565.0 8072.0 0.0 69305.0 61461.0 49326.0 57165.0 31015.0 36386.0 105231.0 108943.0 133184.0 140693.0 123475.0 130198.0 34833.0 36536.0 326809.0 334694.0 130654.0 129023.0 98235.0 94405.0 76242.0 195471.0 76242.0 76242.0 195471.0 195471.0
153563.0 147176.0 11809.0 16264.0 24642.0 24257.0 89197.0 81283.0 200405.0 200963.0 240544.0 234163.0 12777.0 5523.0 177789.0 175739.0 141558.0 134378.0 303420.0 301543.0 89763.0 85970.0 306006.0 297825.0 49142.0 43214.0 109738.0 102322.0 65017.0 69913.0 199262.0 204930.0 224272.0 216934.0 195711.0 189936.0 275524.0 276422.0 47510.0 39439.0 53946.0 62143.0 94609.0 93056.0 77639.0 79603.0 159583.0 163021.0 53694.0 49626.0 147932.0 155656.0 233495.0 238772.0 38659.0 30404.0 170883.0 174049.0 74879.0 69305.0 0.0 8061.0 88331.0 92154.0 47900.0 51886.0 37814.0 40118.0 75931.0 81777.0 61192.0 68970.0 79115.0 72584.0 278073.0 285744.0 69649.0 71193.0 31799.0 31379.0 89706.0 148561.0 89706.0 89706.0 148561.0 148561.0
161324.0 154869.0 8746.0 9037.0 29407.0 30807.0 95702.0 87642.0 205409.0 206195.0 245127.0 238882.0 14648.0 11261.0 185604.0 183459.0 147733.0 140717.0 306852.0 304922.0 96737.0 93232.0 310306.0 302149.0 45805.0 40876.0 116348.0 109062.0 70073.0 74359.0 202271.0 208096.0 229400.0 222134.0 201091.0 195486.0 279223.0 279928.0 41095.0 33341.0 61615.0 69813.0 86812.0 85107.0 69819.0 72012.0 165175.0 168864.0 46013.0 41667.0 151117.0 158931.0 237185.0 242277.0 30629.0 22368.0 178911.0 182100.0 67220.0 61461.0 8061.0 0.0 80874.0 84967.0 39985.0 44309.0 44652.0 47611.0 80314.0 86607.0 66624.0 74218.0 72989.0 66837.0 281792.0 289521.0 74848.0 75643.0 39577.0 38479.0 83699.0 151405.0 83699.0 83699.0 151405.0 151405.0
241660.0 235405.0 77938.0 72083.0 94831.0 101939.0 154516.0 146242.0 240577.0 243592.0 274850.0 269940.0 92975.0 92111.0 265703.0 263910.0 198626.0 193780.0 330391.0 328451.0 159618.0 159142.0 336985.0 329050.0 95298.0 97822.0 174037.0 168634.0 147339.0 149768.0 225557.0 231413.0 264666.0 258437.0 240324.0 236833.0 303406.0 303615.0 72853.0 75370.0 134015.0 141542.0 55855.0 47817.0 15748.0 9548.0 208913.0 214895.0 56298.0 51447.0 174821.0 182812.0 261586.0 266072.0 56080.0 62164.0 256941.0 259367.0 55234.0 49326.0 88331.0 80874.0 0.0 7995.0 42429.0 36608.0 113718.0 120110.0 125275.0 133454.0 122268.0 126829.0 83978.0 85778.0 306028.0 313913.0 126975.0 122296.0 120064.0 119339.0 36893.0 174691.0 36893.0 36893.0 174691.0 174691.0
244893.0 238786.0 81327.0 76025.0 96728.0 104184.0 154256.0 146077.0 237927.0 240959.0 272199.0 267289.0 97654.0 96226.0 268770.0 267199.0 197005.0 192441.0 327740.0 325800.0 159784.0 159702.0 334334.0 326399.0 102101.0 104281.0 173414.0 168292.0 152607.0 155331.0 222906.0 228762.0 262015.0 255786.0 237672.0 234236.0 300755.0 300964.0 79801.0 81873.0 135790.0 143121.0 63619.0 55527.0 23411.0 16438.0 206530.0 212656.0 63462.0 58165.0 172170.0 180161.0 258935.0 263421.0 61878.0 67413.0 259223.0 261427.0 63189.0 57165.0 92154.0 84967.0 7995.0 0.0 47880.0 41240.0 115407.0 122112.0 124074.0 132259.0 122243.0 126376.0 91881.0 93542.0 303378.0 311262.0 126467.0 121341.0 123676.0 123413.0 31861.0 172040.0 31861.0 31861.0 172040.0 172040.0
201255.0 194735.0 39247.0 31946.0 60599.0 65963.0 126522.0 118113.0 226561.0 228487.0 263627.0 258150.0 50880.0 50930.0 225570.0 223348.0 175701.0 169627.0 320192.0 318251.0 129659.0 127594.0 326732.0 318760.0 56453.0 57390.0 147082.0 140586.0 104918.0 107473.0 215358.0 221214.0 250862.0 244052.0 224202.0 219543.0 293207.0 293416.0 35870.0 35541.0 98582.0 106605.0 54450.0 50285.0 29951.0 33059.0 189936.0 194806.0 23743.0 15610.0 164620.0 172613.0 251387.0 255872.0 14198.0 19750.0 218659.0 221666.0 38935.0 31015.0 47900.0 39985.0 42429.0 47880.0 0.0 8344.0 79278.0 84289.0 102976.0 110671.0 94569.0 100852.0 59467.0 57447.0 295829.0 303714.0 101243.0 98972.0 79554.0 77935.0 53939.0 164492.0 53939.0 53939.0 164492.0 164492.0
205417.0 199060.0 41999.0 35624.0 61406.0 67584.0 125754.0 117337.0 222840.0 225005.0 259265.0 253953.0 56473.0 55526.0 229582.0 227614.0 173797.0 168007.0 315280.0 313339.0 129496.0 127929.0 321865.0 313938.0 64679.0 65362.0 146117.0 139902.0 111412.0 114310.0 210446.0 216302.0 247137.0 240444.0 220916.0 216488.0 288295.0 288504.0 44211.0 43742.0 100196.0 108058.0 57930.0 52789.0 26362.0 27718.0 187163.0 192296.0 31510.0 23577.0 159709.0 167701.0 246475.0 250960.0 22113.0 26378.0 221730.0 224480.0 44455.0 36386.0 51886.0 44309.0 36608.0 41240.0 8344.0 0.0 80366.0 85984.0 100504.0 108389.0 93486.0 99331.0 66916.0 65312.0 290917.0 298802.0 99657.0 96722.0 83679.0 82748.0 45598.0 159580.0 45598.0 45598.0 159580.0 159580.0
133133.0 127966.0 40995.0 49142.0 19002.0 13899.0 51451.0 43692.0 164722.0 164797.0 205704.0 199018.0 46900.0 39558.0 155940.0 155431.0 104023.0 96700.0 271483.0 270041.0 52086.0 48845.0 271692.0 263472.0 84747.0 77732.0 71933.0 64511.0 74610.0 81948.0 169446.0 174366.0 188258.0 180791.0 159270.0 153198.0 242910.0 244366.0 85322.0 77244.0 20395.0 27840.0 130612.0 128132.0 106577.0 106434.0 122852.0 125871.0 90319.0 85119.0 118066.0 125334.0 201097.0 206896.0 73758.0 65730.0 144157.0 146104.0 111469.0 105231.0 37814.0 44652.0 113718.0 115407.0 79278.0 80366.0 0.0 8078.0 44387.0 48149.0 26648.0 34546.0 116880.0 110203.0 245393.0 252872.0 35361.0 39783.0 31028.0 38386.0 106667.0 119965.0 106667.0 106667.0 119965.0 119965.0
125359.0 120098.0 45283.0 53221.0 25389.0 18403.0 51208.0 44114.0 166399.0 166115.0 207814.0 200962.0 47387.0 40788.0 148326.0 147682.0 103961.0 96325.0 274826.0 273594.0 50294.0 45967.0 273987.0 265756.0 84568.0 77196.0 71088.0 63366.0 68636.0 76187.0 173738.0 178399.0 189640.0 182091.0 160375.0 154043.0 246025.0 247702.0 87260.0 79032.0 14296.0 22393.0 134331.0 132274.0 112317.0 112555.0 123807.0 126336.0 93622.0 88954.0 122581.0 129655.0 204381.0 210372.0 77672.0 69490.0 137154.0 139326.0 114830.0 108943.0 40118.0 47611.0 120110.0 122112.0 84289.0 85984.0 8078.0 0.0 49405.0 52126.0 31099.0 38598.0 118330.0 111347.0 248476.0 255865.0 39454.0 45020.0 26175.0 34033.0 113965.0 124850.0 113965.0 113965.0 124850.0 124850.0
153507.0 150165.0 73280.0 80723.0 51301.0 53526.0 33943.0 27741.0 125397.0 126587.0 164814.0 158597.0 87541.0 79521.0 173097.0 174613.0 73643.0 68513.0 228025.0 226321.0 42562.0 46622.0 230097.0 221923.0 125062.0 118851.0 50224.0 46515.0 117993.0 125585.0 125169.0 130264.0 149537.0 142416.0 121869.0 116838.0 199828.0 200952.0 120591.0 113336.0 49353.0 49572.0 157417.0 153045.0 123552.0 120693.0 87005.0 91850.0 120765.0 113792.0 73724.0 81083.0 157846.0 163354.0 103033.0 96381.0 154721.0 154417.0 140595.0 133184.0 75931.0 80314.0 125275.0 124074.0 102976.0 100504.0 44387.0 49405.0 0.0 8186.0 18371.0 11958.0 152456.0 146820.0 202357.0 209972.0 11145.0 4770.0 75203.0 82737.0 110802.0 75595.0 110802.0 110802.0 75595.0 75595.0
149296.0 146296.0 79914.0 87542.0 57302.0 58615.0 27331.0 22395.0 118804.0 119714.0 158777.0 152390.0 92983.0 85051.0 168234.0 170065.0 65567.0 60343.0 223361.0 221893.0 36584.0 41578.0 224380.0 216183.0 130763.0 124315.0 42326.0 39069.0 120110.0 127847.0 121612.0 126335.0 142829.0 135613.0 114808.0 109567.0 194879.0 196249.0 127237.0 119823.0 49794.0 48655.0 165078.0 160825.0 131630.0 128832.0 79547.0 84155.0 127999.0 121162.0 70516.0 77531.0 153007.0 158755.0 110289.0 103453.0 149010.0 148412.0 148026.0 140693.0 81777.0 86607.0 133454.0 132259.0 110671.0 108389.0 48149.0 52126.0 8186.0 0.0 21511.0 13619.0 159164.0 153346.0 197377.0 204907.0 12792.0 11698.0 78272.0 86031.0 118974.0 73098.0 118974.0 118974.0 73098.0 73098.0
140737.0 136775.0 60659.0 68619.0 37253.0 37481.0 32398.0 24030.0 139277.0 139772.0 179769.0 173238.0 71938.0 64112.0 161564.0 162398.0 81777.0 75280.0 244871.0 243400.0 37608.0 38559.0 245564.0 237356.0 109847.0 103214.0 52631.0 46574.0 99634.0 107245.0 142895.0 147745.0 163092.0 155744.0 134544.0 128867.0 216361.0 217757.0 107643.0 99965.0 31702.0 33315.0 148411.0 144808.0 118279.0 116494.0 98550.0 102338.0 109870.0 103543.0 91601.0 98783.0 174508.0 180267.0 92362.0 85027.0 145388.0 145921.0 130461.0 123475.0 61192.0 66624.0 122268.0 122243.0 94569.0 93486.0 26648.0 31099.0 18371.0 21511.0 0.0 7968.0 139581.0 133443.0 218854.0 226365.0 8750.0 14235.0 57068.0 64723.0 110237.0 93760.0 110237.0 110237.0 93760.0 93760.0
142768.0 139184.0 67994.0 75854.0 44811.0 45397.0 28001.0 20170.0 131442.0 132028.0 171840.0 165333.0 79848.0 71993.0 162890.0 164117.0 74951.0 68777.0 236942.0 235500.0 34895.0 37448.0 237610.0 229402.0 117734.0 111141.0 47244.0 41926.0 106856.0 114539.0 135177.0 139944.0 155307.0 147988.0 126875.0 121302.0 208408.0 209826.0 115147.0 107548.0 37469.0 37651.0 154968.0 151137.0 123619.0 121462.0 91033.0 95033.0 116891.0 110380.0 83982.0 91078.0 166567.0 172350.0 99291.0 92118.0 145503.0 145608.0 137310.0 130198.0 68970.0 74218.0 126829.0 126376.0 100852.0 99331.0 34546.0 38598.0 11958.0 13619.0 7968.0 0.0 147097.0 141055.0 210898.0 218405.0 867.0 9169.0 64706.0 72437.0 113779.0 86341.0 113779.0 113779.0 86341.0 86341.0
209504.0 201988.0 79250.0 71745.0 102329.0 103357.0 168306.0 160391.0 277849.0 278877.0 316882.0 310876.0 71128.0 77586.0 234010.0 229826.0 220627.0 213490.0 375909.0 373969.0 168542.0 164218.0 381390.0 373296.0 38659.0 46542.0 188809.0 181322.0 100209.0 98168.0 271075.0 276932.0 301956.0 294772.0 273898.0 268399.0 348912.0 349080.0 31951.0 39712.0 131225.0 139230.0 39926.0 45825.0 68600.0 76046.0 238115.0 241853.0 35806.0 44024.0 220238.0 228202.0 307008.0 311585.0 51885.0 56844.0 234414.0 239118.0 28947.0 34833.0 79115.0 72989.0 83978.0 91881.0 59467.0 66916.0 116880.0 118330.0 152456.0 159164.0 139581.0 147097.0 0.0 8114.0 351528.0 359387.0 147703.0 147903.0 100564.0 94490.0 110171.0 220209.0 110171.0 110171.0 220209.0 220209.0
201395.0 193883.0 73542.0 66329.0 96244.0 96835.0 161655.0 153827.0 272132.0 273008.0 311494.0 305386.0 64004.0 70733.0 225906.0 221739.0 214131.0 206895.0 371221.0 369337.0 161624.0 157135.0 376268.0 368150.0 30590.0 38513.0 182071.0 174517.0 92140.0 90195.0 266457.0 272313.0 296174.0 288935.0 267927.0 262311.0 344204.0 344515.0 26387.0 33525.0 124034.0 131986.0 45991.0 51120.0 70131.0 77360.0 231987.0 235566.0 33803.0 41838.0 215565.0 223504.0 302240.0 306957.0 48256.0 52287.0 226323.0 231046.0 32100.0 36536.0 72584.0 66837.0 85778.0 93542.0 57447.0 65312.0 110203.0 111347.0 146820.0 153346.0 133443.0 141055.0 8114.0 0.0 346808.0 354635.0 141684.0 142214.0 92954.0 86737.0 109736.0 215591.0 109736.0 109736.0 215591.0 215591.0
291665.0 293727.0 274057.0 280708.0 253453.0 255812.0 201317.0 206193.0 89340.0 93533.0 49406.0 57380.0 289882.0 281845.0 296530.0 302954.0 156469.0 164743.0 27746.0 29861.0 207357.0 215021.0 37325.0 32114.0 327188.0 321162.0 187248.0 194715.0 313111.0 321093.0 82938.0 75664.0 74872.0 81556.0 100656.0 108669.0 2678.0 8434.0 320441.0 313887.0 242231.0 237535.0 348629.0 342813.0 308729.0 303872.0 132449.0 134339.0 317155.0 309287.0 131290.0 123327.0 44610.0 40158.0 299920.0 294708.0 267820.0 261673.0 334763.0 326809.0 278073.0 281792.0 306028.0 303378.0 295829.0 290917.0 245393.0 248476.0 202357.0 197377.0 218854.0 210898.0 351528.0 346808.0 0.0 8039.0 210104.0 207125.0 274483.0 282445.0 289808.0 132322.0 289808.0 289808.0 132322.0 132322.0
297019.0 299233.0 281817.0 288503.0 261115.0 263393.0 208405.0 213402.0 95434.0 99264.0 54438.0 62470.0 297510.0 289480.0 301377.0 307909.0 162907.0 171224.0 22520.0 26510.0 214296.0 221923.0 30334.0 26140.0 334870.0 328804.0 194026.0 201554.0 320211.0 328197.0 90970.0 83676.0 79640.0 86612.0 106373.0 114373.0 10717.0 14253.0 328262.0 321678.0 249447.0 244651.0 356514.0 350698.0 316614.0 311757.0 138933.0 140539.0 325061.0 317204.0 139160.0 131188.0 52395.0 48151.0 307806.0 302559.0 272612.0 266350.0 342648.0 334694.0 285744.0 289521.0 313913.0 311262.0 303714.0 298802.0 252872.0 255865.0 209972.0 204907.0 226365.0 218405.0 359387.0 354635.0 8039.0 0.0 217615.0 214739.0 281833.0 289807.0 297692.0 140267.0 297692.0 297692.0 140267.0 140267.0
143363.0 139810.0 68571.0 76410.0 45442.0 46128.0 28015.0 20301.0 130757.0 131375.0 171111.0 164618.0 80572.0 72705.0 163424.0 164685.0 74515.0 68403.0 236133.0 234682.0 35101.0 37822.0 236861.0 228655.0 118447.0 111873.0 47070.0 41868.0 107723.0 115404.0 134329.0 139106.0 154640.0 147330.0 126243.0 120699.0 207612.0 209018.0 115752.0 108172.0 38317.0 38440.0 155394.0 151527.0 123869.0 121662.0 90444.0 94495.0 117400.0 110858.0 83126.0 90228.0 165763.0 171537.0 99786.0 92643.0 145930.0 145994.0 137787.0 130654.0 69649.0 74848.0 126975.0 126467.0 101243.0 99657.0 35361.0 39454.0 11145.0 12792.0 8750.0 867.0 147703.0 141684.0 210104.0 217615.0 0.0 8532.0 65557.0 73281.0 113808.0 85477.0 113808.0 113808.0 85477.0 85477.0
151892.0 148341.0 68689.0 76194.0 46570.0 48759.0 34707.0 27703.0 129949.0 131050.0 169492.0 163244.0 82776.0 74760.0 171894.0 173195.0 77143.0 71705.0 232794.0 231082.0 42654.0 45967.0 234821.0 226645.0 120317.0 114090.0 52282.0 47949.0 113652.0 121203.0 129874.0 135002.0 154059.0 146906.0 126257.0 121125.0 204597.0 205721.0 116015.0 108716.0 45729.0 46531.0 153383.0 149130.0 120124.0 117466.0 91179.0 95848.0 116428.0 109534.0 78411.0 85801.0 162615.0 168122.0 98705.0 91959.0 154164.0 154100.0 136379.0 129023.0 71193.0 75643.0 122296.0 121341.0 98972.0 96722.0 39783.0 45020.0 4770.0 11698.0 14235.0 9169.0 147903.0 142214.0 207125.0 214739.0 8532.0 0.0 70680.0 78161.0 108260.0 80183.0 108260.0 108260.0 80183.0 80183.0
121769.0 115381.0 42378.0 48055.0 35949.0 27908.0 75421.0 69095.0 191607.0 191007.0 233306.0 226336.0 31447.0 28764.0 146027.0 143940.0 127604.0 119637.0 300912.0 299730.0 72630.0 66773.0 299566.0 291332.0 63767.0 55865.0 94143.0 86185.0 43941.0 51065.0 199880.0 204571.0 214547.0 206932.0 185071.0 178487.0 272044.0 273790.0 71841.0 63613.0 33946.0 40942.0 122952.0 122410.0 109390.0 111392.0 148473.0 150466.0 82150.0 79535.0 148659.0 155784.0 230463.0 236499.0 69241.0 61178.0 139897.0 143417.0 102756.0 98235.0 31799.0 39577.0 120064.0 123676.0 79554.0 83679.0 31028.0 26175.0 75203.0 78272.0 57068.0 64706.0 100564.0 92954.0 274483.0 281833.0 65557.0 70680.0 0.0 8022.0 119700.0 150783.0 119700.0 119700.0 150783.0 150783.0
123609.0 116933.0 42846.0 47388.0 40756.0 33369.0 83416.0 77116.0 199627.0 199014.0 241327.0 234358.0 27827.0 27229.0 148080.0 145569.0 135522.0 127526.0 308843.0 307627.0 80486.0 74495.0 307585.0 299351.0 57023.0 49030.0 102030.0 94060.0 37907.0 44575.0 207605.0 212361.0 222554.0 214936.0 193067.0 186464.0 280003.0 281720.0 66820.0 58744.0 41870.0 48685.0 118697.0 118626.0 107885.0 110411.0 156471.0 158422.0 78285.0 76392.0 156320.0 163497.0 238396.0 244403.0 66647.0 58858.0 143425.0 147287.0 98446.0 94405.0 31379.0 38479.0 119339.0 123413.0 77935.0 82748.0 38386.0 34033.0 82737.0 86031.0 64723.0 72437.0 94490.0 86737.0 282445.0 289807.0 73281.0 78161.0 8022.0 0.0 120848.0 158330.0 120848.0 120848.0 158330.0 158330.0
238750.0 233058.0 78028.0 74759.0 88850.0 96959.0 141771.0 133739.0 224357.0 227389.0 258629.0 253719.0 97835.0 94554.0 262112.0 261115.0 183483.0 179018.0 314170.0 312230.0 147836.0 148365.0 320764.0 312829.0 109849.0 109735.0 160498.0 155671.0 153652.0 157491.0 209336.0 215192.0 248445.0 242216.0 224102.0 220667.0 287186.0 287395.0 89809.0 88942.0 126955.0 133796.0 89757.0 82210.0 45843.0 38771.0 192960.0 199086.0 76270.0 68795.0 158600.0 166591.0 245365.0 249851.0 67138.0 69266.0 250760.0 252484.0 83749.0 76242.0 89706.0 83699.0 36893.0 31861.0 53939.0 45598.0 106667.0 113965.0 110802.0 118974.0 110237.0 113779.0 110171.0 109736.0 289808.0 297692.0 113808.0 108260.0 119700.0 120848.0 0.0 158470.0 0.0 0.0 158470.0 158470.0
207941.0 206777.0 143376.0 149722.0 124359.0 128140.0 88619.0 89649.0 75676.0 80817.0 104040.0 100037.0 160920.0 152851.0 222342.0 226086.0 75084.0 78498.0 157477.0 155537.0 97785.0 105378.0 164164.0 156343.0 197172.0 191730.0 85675.0 89876.0 193176.0 200878.0 50865.0 57106.0 97988.0 93095.0 80125.0 80081.0 129679.0 129575.0 189257.0 182886.0 122677.0 120562.0 217291.0 211476.0 177392.0 172534.0 64459.0 72531.0 185857.0 178033.0 7151.0 11757.0 88159.0 92214.0 168584.0 163413.0 197841.0 194778.0 203425.0 195471.0 148561.0 151405.0 174691.0 172040.0 164492.0 159580.0 119965.0 124850.0 75595.0 73098.0 93760.0 86341.0 220209.0 215591.0 132322.0 140267.0 85477.0 80183.0 150783.0 158330.0 158470.0 0.0 158470.0 158470.0 0.0 0.0
238750.0 233058.0 78028.0 74759.0 88850.0 96959.0 141771.0 133739.0 224357.0 227389.0 258629.0 253719.0 97835.0 94554.0 262112.0 261115.0 183483.0 179018.0 314170.0 312230.0 147836.0 148365.0 320764.0 312829.0 109849.0 109735.0 160498.0 155671.0 153652.0 157491.0 209336.0 215192.0 248445.0 242216.0 224102.0 220667.0 287186.0 287395.0 89809.0 88942.0 126955.0 133796.0 89757.0 82210.0 45843.0 38771.0 192960.0 199086.0 76270.0 68795.0 158600.0 166591.0 245365.0 249851.0 67138.0 69266.0 250760.0 252484.0 83749.0 76242.0 89706.0 83699.0 36893.0 31861.0 53939.0 45598.0 106667.0 113965.0 110802.0 118974.0 110237.0 113779.0 110171.0 109736.0 289808.0 297692.0 113808.0 108260.0 119700.0 120848.0 0.0 158470.0 0.0 0.0 158470.0 158470.0
238750.0 233058.0 78028.0 74759.0 88850.0 96959.0 141771.0 133739.0 224357.0 227389.0 258629.0 253719.0 97835.0 94554.0 262112.0 261115.0 183483.0 179018.0 314170.0 312230.0 147836.0 148365.0 320764.0 312829.0 109849.0 109735.0 160498.0 155671.0 153652.0 157491.0 209336.0 215192.0 248445.0 242216.0 224102.0 220667.0 287186.0 287395.0 89809.0 88942.0 126955.0 133796.0 89757.0 82210.0 45843.0 38771.0 192960.0 199086.0 76270.0 68795.0 158600.0 166591.0 245365.0 249851.0 67138.0 69266.0 250760.0 252484.0 83749.0 76242.0 89706.0 83699.0 36893.0 31861.0 53939.0 45598.0 106667.0 113965.0 110802.0 118974.0 110237.0 113779.0 110171.0 109736.0 289808.0 297692.0 113808.0 108260.0 119700.0 120848.0 0.0 158470.0 0.0 0.0 158470.0 158470.0
207941.0 206777.0 143376.0 149722.0 124359.0 128140.0 88619.0 89649.0 75676.0 80817.0 104040.0 100037.0 160920.0 152851.0 222342.0 226086.0 75084.0 78498.0 157477.0 155537.0 97785.0 105378.0 164164.0 156343.0 197172.0 191730.0 85675.0 89876.0 193176.0 200878.0 50865.0 57106.0 97988.0 93095.0 80125.0 80081.0 129679.0 129575.0 189257.0 182886.0 122677.0 120562.0 217291.0 211476.0 177392.0 172534.0 64459.0 72531.0 185857.0 178033.0 7151.0 11757.0 88159.0 92214.0 168584.0 163413.0 197841.0 194778.0 203425.0 195471.0 148561.0 151405.0 174691.0 172040.0 164492.0 159580.0 119965.0 124850.0 75595.0 73098.0 93760.0 86341.0 220209.0 215591.0 132322.0 140267.0 85477.0 80183.0 150783.0 158330.0 158470.0 0.0 158470.0 158470.0 0.0 0.0
207941.0 206777.0 143376.0 149722.0 124359.0 128140.0 88619.0 89649.0 75676.0 80817.0 104040.0 100037.0 160920.0 152851.0 222342.0 226086.0 75084.0 78498.0 157477.0 155537.0 97785.0 105378.0 164164.0 156343.0 197172.0 191730.0 85675.0 89876.0 193176.0 200878.0 50865.0 57106.0 97988.0 93095.0 80125.0 80081.0 129679.0 129575.0 189257.0 182886.0 122677.0 120562.0 217291.0 211476.0 177392.0 172534.0 64459.0 72531.0 185857.0 178033.0 7151.0 11757.0 88159.0 92214.0 168584.0 163413.0 197841.0 194778.0 203425.0 195471.0 148561.0 151405.0 174691.0 172040.0 164492.0 159580.0 119965.0 124850.0 75595.0 73098.0 93760.0 86341.0 220209.0 215591.0 132322.0 140267.0 85477.0 80183.0 150783.0 158330.0 158470.0 0.0 158470.0 158470.0 0.0 0.0
FIXED_EDGES_SECTION
1 2
3 4
5 6
7 8
9 10
11 12
13 14
15 16
17 18
19 20
21 22
23 24
25 26
27 28
29 30
31 32
33 34
35 36
37 38
39 40
41 42
43 44
45 46
47 48
49 50
51 52
53 54
55 56
57 58
59 60
61 62
63 64
65 66
67 68
69 70
71 72
73 74
75 76
77 78
79 80
-1 
DEMAND_SECTION
1 277
2 277
3 394
4 394
5 94
6 94
7 223
8 223
9 620
10 620
11 341
12 341
13 293
14 293
15 234
16 234
17 68
18 68
19 71
20 71
21 291
22 291
23 421
24 421
25 461
26 461
27 130
28 130
29 90
30 90
31 114
32 114
33 244
34 244
35 336
36 336
37 60
38 60
39 57
40 57
41 94
42 94
43 216
44 216
45 341
46 341
47 84
48 84
49 493
50 493
51 37
52 37
53 184
54 184
55 155
56 155
57 321
58 321
59 379
60 379
61 207
62 207
63 97
64 97
65 100
66 100
67 114
68 114
69 324
70 324
71 80
72 80
73 265
74 265
75 99
76 99
77 358
78 358
79 96
80 96
81 0
82 0
83 0
84 0
85 0
86 0
DEPOT_SECTION
81 
-1 
CAPACITIES_SECTION
10000 
11000 
12000 
-1 
EOF