NAME: GFS_20_1
TYPE: GFSP
DIMENSION: 86
VEHICLES: 3
CAPACITY: 10000.0
TRIP_DIST_LIMIT: 750000.0
TOTAL_DIST_LIMIT: 1400000.0
EDGE_WEIGHT_TYPE: EXPLICIT
EDGE_WEIGHT_FORMAT: FULL_MATRIX
EDGE_WEIGHT_SECTION
0.0 7469.0 238390.0 246431.0 115679.0 120850.0 203145.0 204872.0 166435.0 174155.0 59167.0 54433.0 207010.0 213647.0 211974.0 210819.0 32136.0 24084.0 239920.0 240453.0 132428.0 140342.0 13028.0 20470.0 280710.0 275541.0 194985.0 197135.0 132361.0 126157.0 148907.0 144453.0 111451.0 119478.0 121110.0 128439.0 165870.0 173094.0 198634.0 206120.0 69817.0 62710.0 116437.0 122522.0 263911.0 269076.0 88498.0 89026.0 208713.0 201217.0 130757.0 129949.0 252930.0 245799.0 172762.0 180758.0 245775.0 238524.0 219204.0 211943.0 287766.0 280851.0 128690.0 124520.0 240577.0 237927.0 93172.0 86621.0 174174.0 167226.0 135825.0 140536.0 233074.0 238263.0 257176.0 256185.0 149212.0 157144.0 48957.0 42617.0 224357.0 75676.0 224357.0 224357.0 75676.0 75676.0
7469.0 0.0 237701.0 245695.0 120759.0 125641.0 198274.0 200220.0 165540.0 173378.0 66595.0 61902.0 207068.0 213855.0 209190.0 207767.0 39554.0 31437.0 235356.0 236093.0 130903.0 138984.0 7123.0 15136.0 282776.0 277772.0 191779.0 194197.0 133946.0 127956.0 148353.0 143563.0 110225.0 118289.0 119742.0 126887.0 166817.0 173885.0 199627.0 207229.0 72334.0 65648.0 115624.0 122060.0 261246.0 266575.0 88054.0 87918.0 206719.0 199309.0 131375.0 131050.0 253167.0 245945.0 172017.0 180022.0 247263.0 240132.0 219084.0 211704.0 290017.0 283229.0 132540.0 128027.0 243592.0 240959.0 96065.0 89183.0 173707.0 166613.0 136779.0 141830.0 227343.0 232661.0 259511.0 258303.0 149721.0 157598.0 49785.0 42722.0 227389.0 80817.0 227389.0 227389.0 80817.0 80817.0
238390.0 237701.0 0.0 8167.0 339782.0 346555.0 138094.0 130514.0 72282.0 64336.0 245421.0 250407.0 38148.0 36383.0 70221.0 78462.0 247922.0 246799.0 132565.0 124968.0 108275.0 99777.0 231695.0 225007.0 105413.0 107998.0 87257.0 79316.0 118136.0 125291.0 89497.0 94190.0 127786.0 119730.0 118672.0 112277.0 83926.0 76095.0 62600.0 61940.0 176254.0 184240.0 122078.0 115898.0 72234.0 69428.0 149895.0 149848.0 49815.0 52325.0 111374.0 115565.0 33936.0 28141.0 65685.0 57679.0 71199.0 73531.0 25702.0 29516.0 115563.0 115760.0 360121.0 357786.0 124204.0 130183.0 160889.0 163058.0 64400.0 71167.0 109203.0 108437.0 178638.0 174711.0 103015.0 95343.0 93615.0 85949.0 287241.0 280412.0 134550.0 195588.0 134550.0 134550.0 195588.0 195588.0
246431.0 245695.0 8167.0 0.0 347949.0 354722.0 141291.0 133604.0 80205.0 72317.0 253571.0 258568.0 45835.0 43420.0 73408.0 81548.0 256078.0 254937.0 133554.0 125797.0 116026.0 107557.0 239661.0 232937.0 105410.0 108581.0 91519.0 83659.0 126214.0 133376.0 97563.0 102149.0 135700.0 127637.0 126524.0 120038.0 91858.0 83990.0 69503.0 68249.0 184419.0 192404.0 130076.0 123965.0 69452.0 65831.0 157943.0 157815.0 54506.0 57879.0 119540.0 123709.0 33284.0 29056.0 73686.0 65683.0 73436.0 76581.0 33062.0 37479.0 115422.0 116221.0 368283.0 365939.0 127786.0 134054.0 169027.0 171219.0 72520.0 79227.0 117345.0 116512.0 180731.0 176493.0 104983.0 97178.0 101767.0 94087.0 295263.0 288411.0 139846.0 203707.0 139846.0 139846.0 203707.0 203707.0
115679.0 120759.0 339782.0 347949.0 0.0 8022.0 318823.0 320498.0 270634.0 277543.0 98138.0 91057.0 304759.0 310307.0 323680.0 323415.0 93851.0 97502.0 355480.0 355825.0 240689.0 247639.0 127821.0 135771.0 364779.0 358964.0 308141.0 309475.0 224007.0 216900.0 252020.0 249417.0 219305.0 226827.0 229133.0 236944.0 259615.0 267503.0 290742.0 297189.0 163643.0 155729.0 222302.0 226402.0 374779.0 379233.0 194528.0 197574.0 317315.0 309548.0 228424.0 224819.0 348478.0 342076.0 276028.0 283732.0 333345.0 325521.0 317703.0 311321.0 371042.0 363709.0 28460.0 32603.0 322179.0 319528.0 180298.0 177025.0 275913.0 269975.0 231189.0 233482.0 347760.0 353243.0 340323.0 340239.0 246459.0 254328.0 83884.0 91195.0 305958.0 149265.0 305958.0 305958.0 149265.0 149265.0
120850.0 125641.0 346555.0 354722.0 8022.0 0.0 323894.0 325715.0 277499.0 284393.0 104990.0 97910.0 311612.0 317159.0 329932.0 329538.0 100265.0 103529.0 360769.0 361249.0 247199.0 254242.0 132740.0 140729.0 371632.0 365816.0 314161.0 315627.0 230860.0 223753.0 258865.0 256192.0 225799.0 233380.0 235638.0 243425.0 266468.0 274355.0 297595.0 304042.0 170489.0 162581.0 228952.0 233193.0 381173.0 385713.0 201076.0 203947.0 323904.0 316153.0 235277.0 231672.0 355331.0 348929.0 282879.0 290585.0 340198.0 332374.0 324556.0 318174.0 377894.0 370562.0 20951.0 26016.0 329032.0 326381.0 187151.0 183878.0 282753.0 276828.0 238042.0 240335.0 352135.0 357730.0 347176.0 347092.0 253312.0 261181.0 86551.0 94124.0 312811.0 156118.0 312811.0 312811.0 156118.0 156118.0
203145.0 198274.0 138094.0 141291.0 318823.0 323894.0 0.0 7871.0 111710.0 114686.0 242074.0 242821.0 143411.0 150016.0 67926.0 59746.0 228349.0 222868.0 38714.0 42115.0 106586.0 106532.0 191164.0 183168.0 240141.0 241043.0 52931.0 60640.0 160679.0 164054.0 119918.0 114115.0 120565.0 117262.0 113959.0 107864.0 152534.0 150652.0 163727.0 169806.0 176782.0 181847.0 123863.0 126953.0 100271.0 108358.0 141046.0 134371.0 89411.0 89866.0 143363.0 151892.0 171617.0 164861.0 115320.0 116389.0 200982.0 199803.0 143891.0 137655.0 250392.0 248924.0 330138.0 325019.0 241660.0 244893.0 179700.0 175461.0 121905.0 118036.0 149268.0 155909.0 45960.0 45856.0 231251.0 224655.0 141106.0 140536.0 242937.0 234884.0 238750.0 207941.0 238750.0 238750.0 207941.0 207941.0
204872.0 200220.0 130514.0 133604.0 320498.0 325715.0 7871.0 0.0 106457.0 109035.0 242211.0 243219.0 136695.0 143176.0 60302.0 52090.0 229346.0 224082.0 35253.0 37323.0 103599.0 102960.0 193099.0 185088.0 232944.0 233960.0 46124.0 53669.0 157013.0 160663.0 115583.0 110113.0 118627.0 114858.0 111560.0 105139.0 147412.0 145227.0 157518.0 163436.0 175853.0 181185.0 121450.0 124067.0 92695.0 100758.0 139911.0 133489.0 82091.0 82839.0 139810.0 148341.0 164111.0 157415.0 109738.0 110430.0 193981.0 192956.0 136820.0 130722.0 243199.0 241844.0 332421.0 327445.0 235405.0 238786.0 177731.0 173790.0 116270.0 112731.0 145448.0 151877.0 51607.0 50515.0 224421.0 217750.0 136667.0 135731.0 245607.0 237572.0 233058.0 206777.0 233058.0 233058.0 206777.0 206777.0
166435.0 165540.0 72282.0 80205.0 270634.0 277499.0 111710.0 106457.0 0.0 8237.0 178360.0 182528.0 47409.0 55294.0 66125.0 70670.0 177782.0 176030.0 127441.0 122595.0 36583.0 28010.0 159467.0 152733.0 144226.0 142697.0 63858.0 59033.0 59348.0 65353.0 18794.0 21986.0 55504.0 47449.0 46469.0 40479.0 40999.0 39049.0 56672.0 64242.0 107288.0 115064.0 49998.0 44492.0 109230.0 111985.0 78094.0 77631.0 50175.0 42529.0 45970.0 52984.0 92465.0 84722.0 7256.0 14880.0 103248.0 99257.0 56749.0 48731.0 153911.0 150177.0 290053.0 287316.0 132948.0 135206.0 96005.0 96287.0 12604.0 6381.0 47626.0 51291.0 157666.0 156971.0 128946.0 123789.0 33917.0 30448.0 215176.0 208262.0 127471.0 130820.0 127471.0 127471.0 130820.0 130820.0
174155.0 173378.0 64336.0 72317.0 277543.0 284393.0 114686.0 109035.0 8237.0 0.0 184722.0 189081.0 39477.0 47391.0 64507.0 69848.0 184895.0 183323.0 128018.0 122757.0 44816.0 36245.0 167360.0 160688.0 137152.0 135878.0 64930.0 59306.0 63026.0 69440.0 25598.0 29863.0 63512.0 55479.0 54598.0 48705.0 39955.0 36462.0 50868.0 58093.0 113985.0 121837.0 57760.0 51860.0 104755.0 107026.0 85708.0 85513.0 46323.0 39074.0 51174.0 57507.0 84260.0 76510.0 1561.0 6700.0 96142.0 92480.0 48535.0 40507.0 146933.0 143436.0 297197.0 294565.0 128130.0 130782.0 101617.0 102367.0 7238.0 7806.0 51734.0 54325.0 160533.0 159443.0 122612.0 117209.0 36889.0 31809.0 222957.0 216094.0 124066.0 136565.0 124066.0 124066.0 136565.0 136565.0
59167.0 66595.0 245421.0 253571.0 98138.0 104990.0 242074.0 242211.0 178360.0 184722.0 0.0 8101.0 209472.0 214649.0 235658.0 236491.0 28991.0 37007.0 275863.0 274900.0 151470.0 157533.0 70507.0 75457.0 268157.0 262342.0 222307.0 222456.0 128155.0 120973.0 159567.0 157931.0 130631.0 137464.0 140161.0 148040.0 163707.0 171667.0 194242.0 200588.0 71547.0 64259.0 132163.0 135041.0 285277.0 289077.0 105975.0 110725.0 226693.0 218853.0 134329.0 129874.0 252268.0 246087.0 183176.0 190630.0 236724.0 228899.0 222533.0 216497.0 274420.0 267087.0 119290.0 118287.0 225557.0 222906.0 84639.0 82530.0 182407.0 176998.0 136246.0 137782.0 277659.0 281835.0 243701.0 243617.0 151806.0 159509.0 79602.0 79023.0 209336.0 50865.0 209336.0 209336.0 50865.0 50865.0
54433.0 61902.0 250407.0 258568.0 91057.0 97910.0 242821.0 243219.0 182528.0 189081.0 8101.0 0.0 214819.0 220162.0 238631.0 239201.0 22901.0 31176.0 277180.0 276450.0 154584.0 160928.0 66403.0 71962.0 274014.0 268198.0 224740.0 225163.0 133698.0 126545.0 163759.0 161780.0 133515.0 140576.0 143167.0 151053.0 169307.0 177238.0 200095.0 206428.0 75298.0 67699.0 135497.0 138797.0 288688.0 292670.0 108701.0 112995.0 230361.0 222534.0 139106.0 135002.0 258051.0 251763.0 187545.0 195099.0 242580.0 234756.0 227837.0 221653.0 280276.0 272943.0 112209.0 111207.0 231413.0 228762.0 90016.0 87349.0 187017.0 181405.0 141382.0 143263.0 277480.0 281856.0 249557.0 249474.0 156837.0 164619.0 71737.0 71411.0 215192.0 57106.0 215192.0 215192.0 57106.0 57106.0
207010.0 207068.0 38148.0 45835.0 304759.0 311612.0 143411.0 136695.0 47409.0 39477.0 209472.0 214819.0 0.0 7924.0 80952.0 88579.0 213865.0 213381.0 147995.0 141346.0 83191.0 74764.0 201498.0 195340.0 99426.0 99059.0 90572.0 83126.0 81416.0 88611.0 60171.0 66754.0 99717.0 92009.0 91774.0 86869.0 46338.0 38382.0 26677.0 29196.0 141938.0 149964.0 92819.0 85494.0 102715.0 101917.0 119156.0 120491.0 57481.0 54444.0 76990.0 79942.0 46342.0 38928.0 40189.0 33657.0 58734.0 56589.0 13130.0 9610.0 109464.0 106834.0 325576.0 323618.0 100295.0 104738.0 124851.0 127735.0 35697.0 43474.0 73578.0 71736.0 187867.0 185447.0 87935.0 81589.0 58556.0 50591.0 255954.0 249503.0 103862.0 159119.0 103862.0 103862.0 159119.0 159119.0
213647.0 213855.0 36383.0 43420.0 310307.0 317159.0 150016.0 143176.0 55294.0 47391.0 214649.0 220162.0 7924.0 0.0 86394.0 94210.0 219794.0 219507.0 153253.0 146422.0 90927.0 82533.0 208372.0 202313.0 91878.0 91746.0 97097.0 89516.0 86497.0 93676.0 67630.0 74376.0 107122.0 99483.0 99334.0 94571.0 50984.0 43001.0 26221.0 26432.0 147907.0 155927.0 100096.0 92627.0 104549.0 103140.0 126093.0 127656.0 62865.0 60513.0 83216.0 85651.0 39313.0 32182.0 48086.0 41577.0 51406.0 49787.0 10919.0 12870.0 101966.0 99559.0 331249.0 329422.0 95339.0 100194.0 130146.0 133359.0 43464.0 51240.0 79333.0 76900.0 194133.0 191512.0 81246.0 74670.0 64702.0 56715.0 262563.0 256193.0 100912.0 164086.0 100912.0 100912.0 164086.0 164086.0
211974.0 209190.0 70221.0 73408.0 323680.0 329932.0 67926.0 60302.0 66125.0 64507.0 235658.0 238631.0 80952.0 86394.0 0.0 8262.0 229844.0 226452.0 67066.0 60613.0 84209.0 78702.0 202335.0 194642.0 173630.0 175130.0 21210.0 15586.0 125155.0 130780.0 82336.0 80709.0 105116.0 98203.0 95504.0 87621.0 104144.0 99553.0 104994.0 109557.0 164376.0 171421.0 103696.0 102056.0 52157.0 58057.0 129947.0 126207.0 23531.0 27405.0 110373.0 118128.0 103910.0 97358.0 65784.0 62789.0 135706.0 135540.0 78639.0 73552.0 183884.0 183013.0 340102.0 336334.0 181242.0 185544.0 158018.0 156680.0 71050.0 71010.0 113255.0 117387.0 109123.0 105813.0 166896.0 159860.0 100042.0 96044.0 258328.0 250680.0 182844.0 191700.0 182844.0 182844.0 191700.0 191700.0
210819.0 207767.0 78462.0 81548.0 323415.0 329538.0 59746.0 52090.0 70670.0 69848.0 236491.0 239201.0 88579.0 94210.0 8262.0 0.0 229674.0 226009.0 59734.0 53630.0 85445.0 80613.0 200841.0 193062.0 181845.0 183297.0 16551.0 14039.0 129063.0 134425.0 85907.0 83567.0 105875.0 99318.0 96469.0 88638.0 109747.0 105531.0 112164.0 116962.0 165526.0 172376.0 105088.0 104096.0 54881.0 61489.0 130545.0 126365.0 31411.0 34453.0 113735.0 121704.0 112168.0 105619.0 71036.0 68724.0 143795.0 143516.0 86664.0 81401.0 192100.0 191182.0 339254.0 335314.0 188808.0 192985.0 160328.0 158595.0 76638.0 75925.0 117099.0 121648.0 100910.0 97687.0 174906.0 167913.0 104473.0 100953.0 256595.0 248870.0 189830.0 193544.0 189830.0 189830.0 193544.0 193544.0
32136.0 39554.0 247922.0 256078.0 93851.0 100265.0 228349.0 229346.0 177782.0 184895.0 28991.0 22901.0 213865.0 219794.0 229844.0 229674.0 0.0 8300.0 263906.0 263740.0 146936.0 154028.0 44674.0 51001.0 278113.0 272243.0 214541.0 215709.0 134416.0 127508.0 159302.0 156257.0 125535.0 133135.0 135374.0 143160.0 169726.0 177458.0 201682.0 208554.0 71927.0 63901.0 128804.0 133330.0 280941.0 285449.0 100835.0 103725.0 223668.0 215930.0 136968.0 134172.0 258514.0 251837.0 183404.0 191219.0 246068.0 238368.0 226634.0 219951.0 284377.0 277045.0 112304.0 109874.0 235515.0 232864.0 91318.0 86812.0 183687.0 177451.0 140467.0 143579.0 260916.0 265685.0 253659.0 253575.0 155315.0 163274.0 53969.0 51924.0 219294.0 63526.0 219294.0 219294.0 63526.0 63526.0
24084.0 31437.0 246799.0 254937.0 97502.0 103529.0 222868.0 224082.0 176030.0 183323.0 37007.0 31176.0 213381.0 219507.0 226452.0 226009.0 8300.0 0.0 258815.0 258854.0 144243.0 151579.0 36841.0 43507.0 280160.0 274459.0 210660.0 212101.0 134898.0 128131.0 157737.0 154311.0 122848.0 130601.0 132693.0 140395.0 169899.0 177525.0 202156.0 209203.0 71735.0 63769.0 126583.0 131540.0 277842.0 282535.0 98417.0 100726.0 221059.0 213372.0 136391.0 134094.0 258441.0 251636.0 181853.0 189737.0 247337.0 239739.0 226026.0 219179.0 286559.0 279244.0 114280.0 111300.0 237714.0 235064.0 92462.0 87365.0 182434.0 175993.0 140314.0 143854.0 254638.0 259545.0 255840.0 255592.0 154852.0 162835.0 49217.0 46193.0 221494.0 67000.0 221494.0 221494.0 67000.0 67000.0
239920.0 235356.0 132565.0 133554.0 355480.0 360769.0 38714.0 35253.0 127441.0 128018.0 275863.0 277180.0 147995.0 153253.0 67066.0 59734.0 263906.0 258815.0 0.0 8092.0 132315.0 130117.0 228234.0 220221.0 237899.0 240099.0 63636.0 68712.0 182898.0 187361.0 139959.0 135767.0 149462.0 144756.0 141519.0 134464.0 167883.0 164304.0 171896.0 176609.0 208119.0 213862.0 151233.0 152670.0 76898.0 84889.0 172032.0 166062.0 90517.0 94179.0 166293.0 174706.0 166338.0 160664.0 129045.0 127709.0 201492.0 201893.0 144996.0 140385.0 248082.0 247936.0 367632.0 362682.0 248289.0 252608.0 207974.0 204691.0 135079.0 133262.0 170996.0 176608.0 51266.0 45137.0 233044.0 225801.0 160189.0 157826.0 280860.0 272824.0 249526.0 238506.0 249526.0 249526.0 238506.0 238506.0
240453.0 236093.0 124968.0 125797.0 355825.0 361249.0 42115.0 37323.0 122595.0 122757.0 274900.0 276450.0 141346.0 146422.0 60613.0 53630.0 263740.0 258854.0 8092.0 0.0 129474.0 126801.0 228973.0 220962.0 230355.0 232658.0 59170.0 63592.0 178949.0 183628.0 135815.0 131985.0 147302.0 142255.0 139058.0 131816.0 162701.0 158857.0 165604.0 170121.0 206425.0 212376.0 148656.0 149672.0 68870.0 76884.0 170360.0 164641.0 83892.0 87929.0 162578.0 170923.0 158673.0 153092.0 123841.0 122128.0 194239.0 194794.0 137963.0 133554.0 240522.0 240481.0 368548.0 363738.0 241609.0 246053.0 205377.0 202370.0 129735.0 128277.0 167001.0 172374.0 59230.0 53206.0 225861.0 218566.0 155722.0 153038.0 282204.0 274191.0 243402.0 236487.0 243402.0 243402.0 236487.0 236487.0
132428.0 130903.0 108275.0 116026.0 240689.0 247199.0 106586.0 103599.0 36583.0 44816.0 151470.0 154584.0 83191.0 90927.0 84209.0 85445.0 146936.0 144243.0 132315.0 129474.0 0.0 8574.0 124555.0 117512.0 176403.0 173960.0 72422.0 71493.0 55161.0 57754.0 24996.0 17130.0 21407.0 14012.0 11562.0 4035.0 60059.0 62871.0 86820.0 94954.0 80181.0 87220.0 19666.0 20491.0 134240.0 138547.0 46180.0 43648.0 76816.0 69146.0 37761.0 46114.0 128875.0 121168.0 43732.0 51451.0 135936.0 130918.0 93219.0 85246.0 185665.0 181088.0 258498.0 255265.0 157049.0 157785.0 75984.0 73495.0 47496.0 39722.0 44732.0 52341.0 150922.0 152119.0 158627.0 154410.0 42227.0 46076.0 180687.0 173532.0 146755.0 108273.0 146755.0 146755.0 108273.0 108273.0
140342.0 138984.0 99777.0 107557.0 247639.0 254242.0 106532.0 102960.0 28010.0 36245.0 157533.0 160928.0 74764.0 82533.0 78702.0 80613.0 154028.0 151579.0 130117.0 126801.0 8574.0 0.0 132706.0 125741.0 168773.0 166517.0 68639.0 66869.0 54148.0 57730.0 18022.0 10000.0 28923.0 20999.0 19246.0 12518.0 54114.0 56170.0 79349.0 87428.0 86018.0 93314.0 25437.0 23487.0 127772.0 131791.0 53207.0 51358.0 69676.0 61912.0 36857.0 45389.0 120347.0 112632.0 35171.0 42877.0 128153.0 123327.0 84674.0 76692.0 178132.0 173727.0 265859.0 262748.0 151065.0 152125.0 79765.0 78030.0 39072.0 31295.0 42858.0 49893.0 151584.0 152328.0 151488.0 147071.0 37483.0 40153.0 188753.0 181657.0 141709.0 113029.0 141709.0 141709.0 113029.0 113029.0
13028.0 7123.0 231695.0 239661.0 127821.0 132740.0 191164.0 193099.0 159467.0 167360.0 70507.0 66403.0 201498.0 208372.0 202335.0 200841.0 44674.0 36841.0 228234.0 228973.0 124555.0 132706.0 0.0 8013.0 278572.0 273705.0 184819.0 187303.0 129510.0 123700.0 142477.0 137513.0 104047.0 112117.0 113480.0 120531.0 161861.0 168813.0 194670.0 202347.0 68931.0 62695.0 109651.0 116271.0 254417.0 259796.0 82356.0 81848.0 200130.0 192757.0 126243.0 126257.0 247682.0 240406.0 166017.0 174022.0 242630.0 235593.0 213401.0 205956.0 285960.0 279281.0 139646.0 135100.0 240324.0 237672.0 92857.0 85709.0 167856.0 160688.0 131870.0 137159.0 220411.0 225686.0 255539.0 254152.0 144488.0 152318.0 56284.0 48986.0 224102.0 80125.0 224102.0 224102.0 80125.0 80125.0
20470.0 15136.0 225007.0 232937.0 135771.0 140729.0 183168.0 185088.0 152733.0 160688.0 75457.0 71962.0 195340.0 202313.0 194642.0 193062.0 51001.0 43507.0 220221.0 220962.0 117512.0 125741.0 8013.0 0.0 273972.0 269265.0 177001.0 179564.0 124802.0 119224.0 135998.0 130825.0 97241.0 105308.0 106556.0 113480.0 156471.0 163276.0 189245.0 197005.0 65800.0 60195.0 103095.0 109935.0 246750.0 252187.0 76222.0 75230.0 192757.0 185429.0 120699.0 121125.0 241601.0 234267.0 159367.0 167366.0 237552.0 230629.0 207103.0 199585.0 281526.0 274976.0 147643.0 143065.0 236833.0 234236.0 89770.0 82347.0 161385.0 154132.0 126585.0 132151.0 212631.0 217856.0 251221.0 249629.0 138789.0 146553.0 63761.0 56284.0 220667.0 80081.0 220667.0 220667.0 80081.0 80081.0
280710.0 282776.0 105413.0 105410.0 364779.0 371632.0 240141.0 232944.0 144226.0 137152.0 268157.0 274014.0 99426.0 91878.0 173630.0 181845.0 278113.0 280160.0 237899.0 230355.0 176403.0 168773.0 278572.0 273972.0 0.0 8198.0 187414.0 179572.0 149171.0 154874.0 151444.0 159283.0 187910.0 181431.0 182273.0 179455.0 120070.0 114892.0 89639.0 81473.0 210925.0 218274.0 179909.0 171552.0 173508.0 168584.0 200733.0 204688.0 150909.0 150375.0 155394.0 153383.0 72126.0 77273.0 137474.0 132224.0 41011.0 45493.0 96441.0 103255.0 10258.0 12311.0 385918.0 384790.0 55855.0 63619.0 188147.0 194202.0 131641.0 138925.0 148489.0 142167.0 282752.0 279304.0 25501.0 24576.0 139248.0 132667.0 327761.0 322633.0 89757.0 217291.0 89757.0 89757.0 217291.0 217291.0
275541.0 277772.0 107998.0 108581.0 358964.0 365816.0 241043.0 233960.0 142697.0 135878.0 262342.0 268198.0 99059.0 91746.0 175130.0 183297.0 272243.0 274459.0 240099.0 232658.0 173960.0 166517.0 273705.0 269265.0 8198.0 0.0 188177.0 180406.0 144550.0 150051.0 148965.0 156886.0 184689.0 178414.0 179391.0 176893.0 116601.0 111829.0 87171.0 79097.0 205725.0 212975.0 176622.0 168229.0 177318.0 172668.0 196689.0 200887.0 152133.0 151178.0 151527.0 149130.0 75404.0 79937.0 136109.0 131233.0 40342.0 43440.0 97153.0 103588.0 12261.0 7888.0 380103.0 378974.0 47817.0 55527.0 182720.0 188944.0 130093.0 137201.0 144436.0 137877.0 284169.0 280931.0 18722.0 19874.0 135861.0 129544.0 322301.0 317293.0 82210.0 211476.0 82210.0 82210.0 211476.0 211476.0
194985.0 191779.0 87257.0 91519.0 308141.0 314161.0 52931.0 46124.0 63858.0 64930.0 222307.0 224740.0 90572.0 97097.0 21210.0 16551.0 214541.0 210660.0 63636.0 59170.0 72422.0 68639.0 184819.0 177001.0 187414.0 188177.0 0.0 7971.0 119845.0 124664.0 76659.0 73072.0 92030.0 85970.0 82959.0 75283.0 104535.0 101388.0 111784.0 117489.0 151847.0 158450.0 92043.0 91971.0 71431.0 77992.0 116370.0 111747.0 37521.0 37039.0 103660.0 111932.0 120032.0 112985.0 65852.0 65403.0 148069.0 146885.0 91044.0 84728.0 197655.0 196053.0 323553.0 319505.0 189539.0 193110.0 148205.0 145917.0 72108.0 69772.0 107881.0 113204.0 97463.0 95516.0 178340.0 171725.0 96609.0 94201.0 240429.0 232672.0 188170.0 180652.0 188170.0 188170.0 180652.0 180652.0
197135.0 194197.0 79316.0 83659.0 309475.0 315627.0 60640.0 53669.0 59033.0 59306.0 222456.0 225163.0 83126.0 89516.0 15586.0 14039.0 215709.0 212101.0 68712.0 63592.0 71493.0 66869.0 187303.0 179564.0 179572.0 180406.0 7971.0 0.0 116413.0 121545.0 73144.0 70294.0 91846.0 85332.0 82463.0 74644.0 99189.0 95628.0 104900.0 110398.0 151523.0 158352.0 91150.0 90353.0 67510.0 73588.0 116507.0 112342.0 29556.0 29228.0 100694.0 108801.0 112062.0 105019.0 60338.0 59203.0 140351.0 139291.0 83255.0 77056.0 189817.0 188285.0 325472.0 321592.0 182480.0 186197.0 146632.0 144759.0 66378.0 64686.0 104429.0 109347.0 104749.0 102528.0 170758.0 164083.0 92422.0 89480.0 243186.0 235502.0 181724.0 179673.0 181724.0 181724.0 179673.0 179673.0
132361.0 133946.0 118136.0 126214.0 224007.0 230860.0 160679.0 157013.0 59348.0 63026.0 128155.0 133698.0 81416.0 86497.0 125155.0 129063.0 134416.0 134898.0 182898.0 178949.0 55161.0 54148.0 129510.0 124802.0 149171.0 144550.0 119845.0 116413.0 0.0 7195.0 43273.0 47201.0 50910.0 48880.0 51677.0 55059.0 35617.0 43541.0 67283.0 74321.0 63387.0 71224.0 43495.0 36729.0 167773.0 169878.0 53755.0 59442.0 109179.0 101695.0 17433.0 9094.0 124479.0 118086.0 61508.0 67521.0 113414.0 106198.0 94520.0 88819.0 156809.0 150430.0 245077.0 243490.0 115629.0 114275.0 43716.0 47612.0 58515.0 55458.0 11984.0 9706.0 205647.0 206472.0 126688.0 124857.0 26233.0 32820.0 180439.0 174773.0 100929.0 77703.0 100929.0 100929.0 77703.0 77703.0
126157.0 127956.0 125291.0 133376.0 216900.0 223753.0 164054.0 160663.0 65353.0 69440.0 120973.0 126545.0 88611.0 93676.0 130780.0 134425.0 127508.0 128131.0 187361.0 183628.0 57754.0 57730.0 123700.0 119224.0 154874.0 150051.0 124664.0 121545.0 7195.0 0.0 48522.0 51644.0 50772.0 49879.0 52894.0 57166.0 42763.0 50704.0 74179.0 81086.0 56826.0 64578.0 43972.0 38190.0 174177.0 176425.0 50259.0 56551.0 115399.0 107839.0 21068.0 12746.0 131578.0 125223.0 67906.0 74151.0 119727.0 112390.0 101715.0 95995.0 162311.0 155763.0 237989.0 236447.0 119599.0 117834.0 36602.0 40772.0 65197.0 61781.0 17751.0 16891.0 208660.0 209736.0 132007.0 130458.0 32911.0 39792.0 174012.0 168457.0 104309.0 70508.0 104309.0 104309.0 70508.0 70508.0
148907.0 148353.0 89497.0 97563.0 252020.0 258865.0 119918.0 115583.0 18794.0 25598.0 159567.0 163759.0 60171.0 67630.0 82336.0 85907.0 159302.0 157737.0 139959.0 135815.0 24996.0 18022.0 142477.0 135998.0 151444.0 148965.0 76659.0 73144.0 43273.0 48522.0 0.0 8048.0 39556.0 31853.0 31813.0 28032.0 36260.0 38159.0 61835.0 69979.0 88549.0 96356.0 32932.0 26402.0 127520.0 130514.0 60410.0 60795.0 68368.0 60594.0 28084.0 35819.0 106444.0 98898.0 24118.0 32016.0 111074.0 105953.0 71309.0 63652.0 160679.0 156095.0 271602.0 268969.0 133093.0 134255.0 77436.0 77530.0 25388.0 18337.0 31289.0 36668.0 165592.0 165741.0 133683.0 129418.0 21239.0 22424.0 197790.0 191029.0 124185.0 112154.0 124185.0 124185.0 112154.0 112154.0
144453.0 143563.0 94190.0 102149.0 249417.0 256192.0 114115.0 110113.0 21986.0 29863.0 157931.0 161780.0 66754.0 74376.0 80709.0 83567.0 156257.0 154311.0 135767.0 131985.0 17130.0 10000.0 137513.0 130825.0 159283.0 156886.0 73072.0 70294.0 47201.0 51644.0 8048.0 0.0 33681.0 25686.0 25090.0 20407.0 44138.0 46205.0 69726.0 77848.0 86493.0 94114.0 28020.0 23024.0 127800.0 131260.0 56169.0 55667.0 68851.0 61008.0 30600.0 38949.0 112806.0 105174.0 28553.0 36545.0 118808.0 113802.0 77359.0 69524.0 168565.0 164045.0 268451.0 265611.0 141067.0 142153.0 77491.0 76753.0 31259.0 23631.0 35423.0 41798.0 159551.0 159971.0 141689.0 137374.0 28011.0 30201.0 193191.0 186284.0 131866.0 111706.0 131866.0 131866.0 111706.0 111706.0
111451.0 110225.0 127786.0 135700.0 219305.0 225799.0 120565.0 118627.0 55504.0 63512.0 130631.0 133515.0 99717.0 107122.0 105116.0 105875.0 125535.0 122848.0 149462.0 147302.0 21407.0 28923.0 104047.0 97241.0 187910.0 184689.0 92030.0 91846.0 50910.0 50772.0 39556.0 33681.0 0.0 8071.0 9847.0 17644.0 68162.0 73028.0 98744.0 106914.0 59816.0 66512.0 8190.0 16588.0 155548.0 159928.0 24870.0 22438.0 98213.0 90525.0 36012.0 42326.0 146000.0 138448.0 62226.0 70206.0 148422.0 142621.0 110790.0 103046.0 196699.0 191436.0 237113.0 233920.0 162681.0 162379.0 59143.0 55279.0 64704.0 57220.0 44011.0 52002.0 163005.0 165074.0 168268.0 164865.0 48887.0 55247.0 159960.0 152933.0 149818.0 89199.0 149818.0 149818.0 89199.0 89199.0
119478.0 118289.0 119730.0 127637.0 226827.0 233380.0 117262.0 114858.0 47449.0 55479.0 137464.0 140576.0 92009.0 99483.0 98203.0 99318.0 133135.0 130601.0 144756.0 142255.0 14012.0 20999.0 112117.0 105308.0 181431.0 178414.0 85970.0 85332.0 48880.0 49879.0 31853.0 25686.0 8071.0 0.0 3303.0 10701.0 62227.0 66592.0 91999.0 100185.0 66227.0 73219.0 6601.0 12284.0 148208.0 152445.0 32305.0 30451.0 90534.0 82807.0 32578.0 39909.0 138238.0 130655.0 54206.0 62176.0 141647.0 136035.0 102932.0 95150.0 190354.0 185272.0 244880.0 241751.0 157869.0 157896.0 63223.0 60173.0 56821.0 49280.0 40463.0 48504.0 160598.0 162298.0 162274.0 158641.0 43079.0 48880.0 168017.0 161000.0 145762.0 94711.0 145762.0 145762.0 94711.0 94711.0
121110.0 119742.0 118672.0 126524.0 229133.0 235638.0 113959.0 111560.0 46469.0 54598.0 140161.0 143167.0 91774.0 99334.0 95504.0 96469.0 135374.0 132693.0 141519.0 139058.0 11562.0 19246.0 113480.0 106556.0 182273.0 179391.0 82959.0 82463.0 51677.0 52894.0 31813.0 25090.0 9847.0 3303.0 0.0 7886.0 63540.0 67580.0 92717.0 100906.0 69059.0 75951.0 9904.0 14951.0 145758.0 150101.0 34643.0 32180.0 88367.0 80683.0 35101.0 42654.0 137888.0 130263.0 53379.0 61296.0 142298.0 136825.0 102445.0 94594.0 191281.0 186315.0 246955.0 243747.0 159618.0 159784.0 66473.0 63333.0 56349.0 48705.0 42895.0 50909.0 157321.0 159005.0 163427.0 159658.0 44550.0 49980.0 169509.0 162421.0 147836.0 97785.0 147836.0 147836.0 97785.0 97785.0
128439.0 126887.0 112277.0 120038.0 236944.0 243425.0 107864.0 105139.0 40479.0 48705.0 148040.0 151053.0 86869.0 94571.0 87621.0 88638.0 143160.0 140395.0 134464.0 131816.0 4035.0 12518.0 120531.0 113480.0 179455.0 176893.0 75283.0 74644.0 55059.0 57166.0 28032.0 20407.0 17644.0 10701.0 7886.0 0.0 62300.0 65492.0 89825.0 97983.0 76891.0 83821.0 16862.0 19185.0 137906.0 142293.0 42499.0 39737.0 80683.0 73038.0 37822.0 45967.0 132661.0 124968.0 47594.0 55357.0 139103.0 133962.0 97035.0 89082.0 188652.0 183967.0 254633.0 251368.0 159142.0 159702.0 73564.0 70756.0 51194.0 43434.0 45143.0 52941.0 151810.0 153213.0 161379.0 157285.0 44011.0 48387.0 176671.0 169509.0 148365.0 105378.0 148365.0 148365.0 105378.0 105378.0
165870.0 166817.0 83926.0 91858.0 259615.0 266468.0 152534.0 147412.0 40999.0 39955.0 163707.0 169307.0 46338.0 50984.0 104144.0 109747.0 169726.0 169899.0 167883.0 162701.0 60059.0 54114.0 161861.0 156471.0 120070.0 116601.0 104535.0 99189.0 35617.0 42763.0 36260.0 44138.0 68162.0 62227.0 63540.0 62300.0 0.0 7992.0 32813.0 40542.0 98171.0 106131.0 60054.0 51647.0 140110.0 141086.0 81307.0 84767.0 84259.0 77721.0 35893.0 35985.0 88900.0 82469.0 38861.0 41484.0 81553.0 75160.0 59463.0 54410.0 128667.0 123286.0 280666.0 279021.0 97024.0 98015.0 79332.0 82960.0 33122.0 34839.0 30051.0 26176.0 198490.0 197925.0 100117.0 96752.0 19278.0 14001.0 214454.0 208470.0 88120.0 113104.0 88120.0 88120.0 113104.0 113104.0
173094.0 173885.0 76095.0 83990.0 267503.0 274355.0 150652.0 145227.0 39049.0 36462.0 171667.0 177238.0 38382.0 43001.0 99553.0 105531.0 177458.0 177525.0 164304.0 158857.0 62871.0 56170.0 168813.0 163276.0 114892.0 111829.0 101388.0 95628.0 43541.0 50704.0 38159.0 46205.0 73028.0 66592.0 67580.0 65492.0 7992.0 0.0 26140.0 34170.0 105791.0 113772.0 65064.0 56754.0 133652.0 134361.0 87677.0 90711.0 78855.0 72671.0 42583.0 43459.0 81082.0 74574.0 35602.0 36812.0 75604.0 69608.0 51500.0 46587.0 123763.0 118735.0 288530.0 286842.0 95326.0 96958.0 87243.0 90747.0 29285.0 32677.0 37350.0 34022.0 196587.0 195707.0 95932.0 92079.0 24796.0 17781.0 221775.0 215709.0 88461.0 121085.0 88461.0 88461.0 121085.0 121085.0
198634.0 199627.0 62600.0 69503.0 290742.0 297595.0 163727.0 157518.0 56672.0 50868.0 194242.0 200095.0 26677.0 26221.0 104994.0 112164.0 201682.0 202156.0 171896.0 165604.0 86820.0 79349.0 194670.0 189245.0 89639.0 87171.0 111784.0 104900.0 67283.0 74179.0 61835.0 69726.0 98744.0 91999.0 92717.0 89825.0 32813.0 26140.0 0.0 8189.0 130524.0 138425.0 90895.0 82664.0 129391.0 128508.0 113800.0 116834.0 81982.0 77719.0 68571.0 68689.0 58543.0 53101.0 50752.0 47701.0 49678.0 44148.0 37055.0 36220.0 98845.0 94388.0 311889.0 310503.0 77938.0 81327.0 110632.0 114893.0 44279.0 50762.0 62851.0 58364.0 209095.0 207299.0 72475.0 67755.0 50932.0 43700.0 247148.0 241222.0 78028.0 143376.0 78028.0 78028.0 143376.0 143376.0
206120.0 207229.0 61940.0 68249.0 297189.0 304042.0 169806.0 163436.0 64242.0 58093.0 200588.0 206428.0 29196.0 26432.0 109557.0 116962.0 208554.0 209203.0 176609.0 170121.0 94954.0 87428.0 202347.0 197005.0 81473.0 79097.0 117489.0 110398.0 74321.0 81086.0 69979.0 77848.0 106914.0 100185.0 100906.0 97983.0 40542.0 34170.0 8189.0 0.0 137687.0 145543.0 99050.0 90803.0 130952.0 129565.0 121735.0 124879.0 86250.0 82547.0 76410.0 76194.0 53567.0 48876.0 58085.0 54460.0 41512.0 35979.0 37247.0 38178.0 90719.0 86368.0 318339.0 317078.0 72083.0 76025.0 117336.0 121857.0 51732.0 58464.0 70478.0 65647.0 214935.0 212921.0 64713.0 59779.0 58959.0 51818.0 254528.0 248678.0 74759.0 149722.0 74759.0 74759.0 149722.0 149722.0
69817.0 72334.0 176254.0 184419.0 163643.0 170489.0 176782.0 175853.0 107288.0 113985.0 71547.0 75298.0 141938.0 147907.0 164376.0 165526.0 71927.0 71735.0 208119.0 206425.0 80181.0 86018.0 68931.0 65800.0 210925.0 205725.0 151847.0 151523.0 63387.0 56826.0 88549.0 86493.0 59816.0 66227.0 69059.0 76891.0 98171.0 105791.0 130524.0 137687.0 0.0 8025.0 60713.0 63537.0 213734.0 217541.0 36088.0 42411.0 155171.0 147335.0 65069.0 62372.0 186743.0 179991.0 112460.0 120119.0 176525.0 169124.0 154713.0 148076.0 217949.0 211049.0 183896.0 181736.0 171398.0 168748.0 23979.0 16851.0 112271.0 106374.0 68620.0 72173.0 216239.0 219370.0 187364.0 186388.0 83388.0 91348.0 117218.0 111794.0 155178.0 31579.0 155178.0 155178.0 31579.0 31579.0
62710.0 65648.0 184240.0 192404.0 155729.0 162581.0 181847.0 181185.0 115064.0 121837.0 64259.0 67699.0 149964.0 155927.0 171421.0 172376.0 63901.0 63769.0 213862.0 212376.0 87220.0 93314.0 62695.0 60195.0 218274.0 212975.0 158450.0 158352.0 71224.0 64578.0 96356.0 94114.0 66512.0 73219.0 75951.0 83821.0 106131.0 113772.0 138425.0 145543.0 8025.0 0.0 67917.0 71112.0 221083.0 224992.0 42171.0 47804.0 162665.0 154837.0 73088.0 70371.0 194746.0 188005.0 120317.0 128005.0 184195.0 176746.0 162738.0 156093.0 225183.0 218201.0 175895.0 173716.0 177982.0 175331.0 30473.0 24092.0 120208.0 114251.0 76629.0 80095.0 220506.0 223863.0 194553.0 193718.0 91414.0 99373.0 109630.0 104360.0 161762.0 28701.0 161762.0 161762.0 28701.0 28701.0
116437.0 115624.0 122078.0 130076.0 222302.0 228952.0 123863.0 121450.0 49998.0 57760.0 132163.0 135497.0 92819.0 100096.0 103696.0 105088.0 128804.0 126583.0 151233.0 148656.0 19666.0 25437.0 109651.0 103095.0 179909.0 176622.0 92043.0 91150.0 43495.0 43972.0 32932.0 28020.0 8190.0 6601.0 9904.0 16862.0 60054.0 65064.0 90895.0 99050.0 60713.0 67917.0 0.0 8419.0 153194.0 157226.0 28224.0 27871.0 95054.0 87265.0 28015.0 34707.0 139158.0 131675.0 56394.0 64399.0 140561.0 134672.0 104204.0 96580.0 188651.0 183339.0 240823.0 237856.0 154516.0 154256.0 56746.0 53912.0 58306.0 51045.0 36012.0 44036.0 167152.0 168882.0 160139.0 156787.0 40777.0 47290.0 165203.0 158336.0 141771.0 88619.0 141771.0 141771.0 88619.0 88619.0
122522.0 122060.0 115898.0 123965.0 226402.0 233193.0 126953.0 124067.0 44492.0 51860.0 135041.0 138797.0 85494.0 92627.0 102056.0 104096.0 133330.0 131540.0 152670.0 149672.0 20491.0 23487.0 116271.0 109935.0 171552.0 168229.0 91971.0 90353.0 36729.0 38190.0 26402.0 23024.0 16588.0 12284.0 14951.0 19185.0 51647.0 56754.0 82664.0 90803.0 63537.0 71112.0 8419.0 0.0 150382.0 154046.0 34038.0 35031.0 91652.0 83812.0 20301.0 27703.0 131821.0 124412.0 50419.0 58372.0 132306.0 126355.0 97169.0 89686.0 180268.0 174933.0 245577.0 242824.0 146242.0 146077.0 56292.0 54624.0 51667.0 44738.0 28216.0 36262.0 170995.0 172371.0 151723.0 148390.0 32372.0 38998.0 171423.0 164704.0 133739.0 89649.0 133739.0 133739.0 89649.0 89649.0
263911.0 261246.0 72234.0 69452.0 374779.0 381173.0 100271.0 92695.0 109230.0 104755.0 285277.0 288688.0 102715.0 104549.0 52157.0 54881.0 280941.0 277842.0 76898.0 68870.0 134240.0 127772.0 254417.0 246750.0 173508.0 177318.0 71431.0 67510.0 167773.0 174177.0 127520.0 127800.0 155548.0 148208.0 145758.0 137906.0 140110.0 133652.0 129391.0 130952.0 213734.0 221083.0 153194.0 150382.0 0.0 8160.0 180401.0 177226.0 59153.0 66945.0 155199.0 162074.0 102030.0 98492.0 106281.0 100483.0 142862.0 145677.0 93910.0 93191.0 183241.0 184793.0 391770.0 388131.0 196426.0 202318.0 204914.0 204542.0 109553.0 112397.0 156444.0 158925.0 128083.0 122015.0 174433.0 166617.0 141584.0 135826.0 310458.0 302824.0 205338.0 239442.0 205338.0 205338.0 239442.0 239442.0
269076.0 266575.0 69428.0 65831.0 379233.0 385713.0 108358.0 100758.0 111985.0 107026.0 289077.0 292670.0 101917.0 103140.0 58057.0 61489.0 285449.0 282535.0 84889.0 76884.0 138547.0 131791.0 259796.0 252187.0 168584.0 172668.0 77992.0 73588.0 169878.0 176425.0 130514.0 131260.0 159928.0 152445.0 150101.0 142293.0 141086.0 134361.0 128508.0 129565.0 217541.0 224992.0 157226.0 154046.0 8160.0 0.0 184722.0 181823.0 62411.0 70254.0 157898.0 164519.0 97696.0 94668.0 108572.0 102374.0 139182.0 142394.0 92337.0 92319.0 178191.0 180044.0 396618.0 393100.0 193471.0 199568.0 207944.0 207863.0 111416.0 114762.0 158750.0 160848.0 136112.0 129977.0 170525.0 162660.0 143646.0 137582.0 315937.0 308354.0 203519.0 242642.0 203519.0 203519.0 242642.0 242642.0
88498.0 88054.0 149895.0 157943.0 194528.0 201076.0 141046.0 139911.0 78094.0 85708.0 105975.0 108701.0 119156.0 126093.0 129947.0 130545.0 100835.0 98417.0 172032.0 170360.0 46180.0 53207.0 82356.0 76222.0 200733.0 196689.0 116370.0 116507.0 53755.0 50259.0 60410.0 56169.0 24870.0 32305.0 34643.0 42499.0 81307.0 87677.0 113800.0 121735.0 36088.0 42171.0 28224.0 34038.0 180401.0 184722.0 0.0 7909.0 122833.0 115096.0 45465.0 47737.0 165388.0 158075.0 84300.0 92286.0 162851.0 156320.0 131055.0 123651.0 208898.0 202931.0 212685.0 209661.0 169382.0 167923.0 41911.0 35838.0 85705.0 78729.0 52260.0 58988.0 181445.0 184239.0 179301.0 176840.0 62953.0 70567.0 137386.0 130673.0 154464.0 66901.0 154464.0 154464.0 66901.0 66901.0
89026.0 87918.0 149848.0 157815.0 197574.0 203947.0 134371.0 133489.0 77631.0 85513.0 110725.0 112995.0 120491.0 127656.0 126207.0 126365.0 103725.0 100726.0 166062.0 164641.0 43648.0 51358.0 81848.0 75230.0 204688.0 200887.0 111747.0 112342.0 59442.0 56551.0 60795.0 55667.0 22438.0 30451.0 32180.0 39737.0 84767.0 90711.0 116834.0 124879.0 42411.0 47804.0 27871.0 35031.0 177226.0 181823.0 7909.0 0.0 120413.0 112775.0 49363.0 52714.0 166829.0 159394.0 84174.0 92178.0 166231.0 159926.0 132021.0 124431.0 213052.0 207284.0 214922.0 211632.0 174914.0 173709.0 49787.0 43570.0 86176.0 78903.0 56657.0 63833.0 174232.0 177170.0 183752.0 181015.0 65920.0 73228.0 137604.0 130639.0 160365.0 73696.0 160365.0 160365.0 73696.0 73696.0
208713.0 206719.0 49815.0 54506.0 317315.0 323904.0 89411.0 82091.0 50175.0 46323.0 226693.0 230361.0 57481.0 62865.0 23531.0 31411.0 223668.0 221059.0 90517.0 83892.0 76816.0 69676.0 200130.0 192757.0 150909.0 152133.0 37521.0 29556.0 109179.0 115399.0 68368.0 68851.0 98213.0 90534.0 88367.0 80683.0 84259.0 78855.0 81982.0 86250.0 155171.0 162665.0 95054.0 91652.0 59153.0 62411.0 122833.0 120413.0 0.0 7844.0 96108.0 103135.0 82549.0 75586.0 47795.0 42994.0 112466.0 112106.0 55283.0 50028.0 161167.0 160021.0 335312.0 332041.0 157774.0 162162.0 145769.0 145505.0 51901.0 53735.0 97648.0 100629.0 132057.0 129033.0 143503.0 136537.0 83168.0 78010.0 256414.0 249036.0 159981.0 180349.0 159981.0 159981.0 180349.0 180349.0
201217.0 199309.0 52325.0 57879.0 309548.0 316153.0 89866.0 82839.0 42529.0 39074.0 218853.0 222534.0 54444.0 60513.0 27405.0 34453.0 215930.0 213372.0 94179.0 87929.0 69146.0 61912.0 192757.0 185429.0 150375.0 151178.0 37039.0 29228.0 101695.0 107839.0 60594.0 61008.0 90525.0 82807.0 80683.0 73038.0 77721.0 72671.0 77719.0 82547.0 147335.0 154837.0 87265.0 83812.0 66945.0 70254.0 115096.0 112775.0 7844.0 0.0 88403.0 95512.0 83791.0 76518.0 40507.0 36255.0 111144.0 110220.0 54028.0 47922.0 160615.0 159058.0 327638.0 324405.0 154485.0 158571.0 137969.0 137670.0 44976.0 46323.0 90093.0 93262.0 133623.0 131040.0 141689.0 134941.0 75786.0 70866.0 249036.0 241693.0 155476.0 172526.0 155476.0 155476.0 172526.0 172526.0
130757.0 131375.0 111374.0 119540.0 228424.0 235277.0 143363.0 139810.0 45970.0 51174.0 134329.0 139106.0 76990.0 83216.0 110373.0 113735.0 136968.0 136391.0 166293.0 162578.0 37761.0 36857.0 126243.0 120699.0 155394.0 151527.0 103660.0 100694.0 17433.0 21068.0 28084.0 30600.0 36012.0 32578.0 35101.0 37822.0 35893.0 42583.0 68571.0 76410.0 65069.0 73088.0 28015.0 20301.0 155199.0 157898.0 45465.0 49363.0 96108.0 88403.0 0.0 8532.0 122362.0 115392.0 49612.0 56658.0 117400.0 110858.0 89677.0 83009.0 163699.0 157926.0 248934.0 246804.0 126975.0 126467.0 50495.0 51806.0 48172.0 43368.0 8000.0 16024.0 188245.0 189128.0 134417.0 131657.0 18521.0 26503.0 179570.0 173368.0 113808.0 85477.0 113808.0 113808.0 85477.0 85477.0
129949.0 131050.0 115565.0 123709.0 224819.0 231672.0 151892.0 148341.0 52984.0 57507.0 129874.0 135002.0 79942.0 85651.0 118128.0 121704.0 134172.0 134094.0 174706.0 170923.0 46114.0 45389.0 126257.0 121125.0 153383.0 149130.0 111932.0 108801.0 9094.0 12746.0 35819.0 38949.0 42326.0 39909.0 42654.0 45967.0 35985.0 43459.0 68689.0 76194.0 62372.0 70371.0 34707.0 27703.0 162074.0 164519.0 47737.0 52714.0 103135.0 95512.0 8532.0 0.0 124375.0 117665.0 55956.0 62560.0 116428.0 109534.0 92891.0 86655.0 161363.0 155276.0 245653.0 243774.0 122296.0 121341.0 45338.0 47794.0 53763.0 49757.0 6380.0 11266.0 196744.0 197650.0 131612.0 129316.0 21998.0 29636.0 178479.0 172533.0 108260.0 80183.0 108260.0 108260.0 80183.0 80183.0
252930.0 253167.0 33936.0 33284.0 348478.0 355331.0 171617.0 164111.0 92465.0 84260.0 252268.0 258051.0 46342.0 39313.0 103910.0 112168.0 258514.0 258441.0 166338.0 158673.0 128875.0 120347.0 247682.0 241601.0 72126.0 75404.0 120032.0 112062.0 124479.0 131578.0 106444.0 112806.0 146000.0 138238.0 137888.0 132661.0 88900.0 81082.0 58543.0 53567.0 186743.0 194746.0 139158.0 131821.0 102030.0 97696.0 165388.0 166829.0 82549.0 83791.0 122362.0 124375.0 0.0 7807.0 85229.0 77819.0 42605.0 47523.0 35731.0 43794.0 82151.0 82994.0 369555.0 367917.0 98712.0 105632.0 168180.0 171829.0 81559.0 89269.0 118129.0 115072.0 212555.0 208647.0 73074.0 65163.0 103843.0 95869.0 301830.0 295489.0 114021.0 201470.0 114021.0 114021.0 201470.0 201470.0
245799.0 245945.0 28141.0 29056.0 342076.0 348929.0 164861.0 157415.0 84722.0 76510.0 246087.0 251763.0 38928.0 32182.0 97358.0 105619.0 251837.0 251636.0 160664.0 153092.0 121168.0 112632.0 240406.0 234267.0 77273.0 79937.0 112985.0 105019.0 118086.0 125223.0 98898.0 105174.0 138448.0 130655.0 130263.0 124968.0 82469.0 74574.0 53101.0 48876.0 179991.0 188005.0 131675.0 124412.0 98492.0 94668.0 158075.0 159394.0 75586.0 76518.0 115392.0 117665.0 7807.0 0.0 77494.0 70048.0 44525.0 48268.0 27974.0 36022.0 87431.0 87670.0 363099.0 361368.0 99711.0 106309.0 161801.0 165262.0 73917.0 81606.0 111379.0 108596.0 206264.0 202519.0 75943.0 68126.0 96875.0 88889.0 294724.0 288329.0 112529.0 195359.0 112529.0 112529.0 195359.0 195359.0
172762.0 172017.0 65685.0 73686.0 276028.0 282879.0 115320.0 109738.0 7256.0 1561.0 183176.0 187545.0 40189.0 48086.0 65784.0 71036.0 183404.0 181853.0 129045.0 123841.0 43732.0 35171.0 166017.0 159367.0 137474.0 136109.0 65852.0 60338.0 61508.0 67906.0 24118.0 28553.0 62226.0 54206.0 53379.0 47594.0 38861.0 35602.0 50752.0 58085.0 112460.0 120317.0 56394.0 50419.0 106281.0 108572.0 84300.0 84174.0 47795.0 40507.0 49612.0 55956.0 85229.0 77494.0 0.0 8006.0 96470.0 92689.0 49524.0 41524.0 147221.0 143642.0 295707.0 293087.0 127804.0 130367.0 100056.0 100814.0 6654.0 6245.0 50194.0 52838.0 161198.0 160178.0 122685.0 117358.0 35391.0 30418.0 221579.0 214730.0 123436.0 135005.0 123436.0 123436.0 135005.0 135005.0
180758.0 180022.0 57679.0 65683.0 283732.0 290585.0 116389.0 110430.0 14880.0 6700.0 190630.0 195099.0 33657.0 41577.0 62789.0 68724.0 191219.0 189737.0 127709.0 122128.0 51451.0 42877.0 174022.0 167366.0 132224.0 131233.0 65403.0 59203.0 67521.0 74151.0 32016.0 36545.0 70206.0 62176.0 61296.0 55357.0 41484.0 36812.0 47701.0 54460.0 120119.0 128005.0 64399.0 58372.0 100483.0 102374.0 92286.0 92178.0 42994.0 36255.0 56658.0 62560.0 77819.0 70048.0 8006.0 0.0 91239.0 87964.0 42090.0 34027.0 142101.0 138867.0 303523.0 300944.0 125520.0 128536.0 107153.0 108173.0 9070.0 13770.0 56590.0 58489.0 162030.0 160614.0 118506.0 112852.0 41291.0 35352.0 229580.0 222735.0 122800.0 142135.0 122800.0 122800.0 142135.0 142135.0
245775.0 247263.0 71199.0 73436.0 333345.0 340198.0 200982.0 193981.0 103248.0 96142.0 236724.0 242580.0 58734.0 51406.0 135706.0 143795.0 246068.0 247337.0 201492.0 194239.0 135936.0 128153.0 242630.0 237552.0 41011.0 40342.0 148069.0 140351.0 113414.0 119727.0 111074.0 118808.0 148422.0 141647.0 142298.0 139103.0 81553.0 75604.0 49678.0 41512.0 176525.0 184195.0 140561.0 132306.0 142862.0 139182.0 162851.0 166231.0 112466.0 111144.0 117400.0 116428.0 42605.0 44525.0 96470.0 91239.0 0.0 8219.0 57224.0 63368.0 50867.0 48153.0 354485.0 353356.0 56298.0 63462.0 154887.0 160182.0 90674.0 98014.0 111038.0 105472.0 244492.0 241479.0 31851.0 24343.0 100338.0 93312.0 293735.0 288164.0 76270.0 185857.0 76270.0 76270.0 185857.0 185857.0
238524.0 240132.0 73531.0 76581.0 325521.0 332374.0 199803.0 192956.0 99257.0 92480.0 228899.0 234756.0 56589.0 49787.0 135540.0 143516.0 238368.0 239739.0 201893.0 194794.0 130918.0 123327.0 235593.0 230629.0 45493.0 43440.0 146885.0 139291.0 106198.0 112390.0 105953.0 113802.0 142621.0 136035.0 136825.0 133962.0 75160.0 69608.0 44148.0 35979.0 169124.0 176746.0 134672.0 126355.0 145677.0 142394.0 156320.0 159926.0 112106.0 110220.0 110858.0 109534.0 47523.0 48268.0 92689.0 87964.0 8219.0 0.0 56937.0 62307.0 54824.0 50956.0 346660.0 345532.0 51447.0 58165.0 147277.0 152698.0 86654.0 93774.0 104291.0 98479.0 243829.0 241071.0 31470.0 25025.0 94173.0 87385.0 286341.0 280845.0 68795.0 178033.0 68795.0 68795.0 178033.0 178033.0
219204.0 219084.0 25702.0 33062.0 317703.0 324556.0 143891.0 136820.0 56749.0 48535.0 222533.0 227837.0 13130.0 10919.0 78639.0 86664.0 226634.0 226026.0 144996.0 137963.0 93219.0 84674.0 213401.0 207103.0 96441.0 97153.0 91044.0 83255.0 94520.0 101715.0 71309.0 77359.0 110790.0 102932.0 102445.0 97035.0 59463.0 51500.0 37055.0 37247.0 154713.0 162738.0 104204.0 97169.0 93910.0 92337.0 131055.0 132021.0 55283.0 54028.0 89677.0 92891.0 35731.0 27974.0 49524.0 42090.0 57224.0 56937.0 0.0 8087.0 106664.0 105034.0 338459.0 336437.0 104598.0 109788.0 137900.0 140681.0 46116.0 53745.0 86517.0 84833.0 187272.0 184315.0 88258.0 81254.0 71339.0 63412.0 268161.0 261618.0 111434.0 172222.0 111434.0 111434.0 172222.0 172222.0
211943.0 211704.0 29516.0 37479.0 311321.0 318174.0 137655.0 130722.0 48731.0 40507.0 216497.0 221653.0 9610.0 12870.0 73552.0 81401.0 219951.0 219179.0 140385.0 133554.0 85246.0 76692.0 205956.0 199585.0 103255.0 103588.0 84728.0 77056.0 88819.0 95995.0 63652.0 69524.0 103046.0 95150.0 94594.0 89082.0 54410.0 46587.0 36220.0 38178.0 148076.0 156093.0 96580.0 89686.0 93191.0 92319.0 123651.0 124431.0 50028.0 47922.0 83009.0 86655.0 43794.0 36022.0 41524.0 34027.0 63368.0 62307.0 8087.0 0.0 113434.0 111445.0 331937.0 329806.0 108166.0 112933.0 131874.0 134365.0 38342.0 45894.0 80276.0 79113.0 181523.0 178807.0 93772.0 87029.0 64866.0 57036.0 260896.0 254291.0 112936.0 166420.0 112936.0 112936.0 166420.0 166420.0
287766.0 290017.0 115563.0 115422.0 371042.0 377894.0 250392.0 243199.0 153911.0 146933.0 274420.0 280276.0 109464.0 101966.0 183884.0 192100.0 284377.0 286559.0 248082.0 240522.0 185665.0 178132.0 285960.0 281526.0 10258.0 12261.0 197655.0 189817.0 156809.0 162311.0 160679.0 168565.0 196699.0 190354.0 191281.0 188652.0 128667.0 123763.0 98845.0 90719.0 217949.0 225183.0 188651.0 180268.0 183241.0 178191.0 208898.0 213052.0 161167.0 160615.0 163699.0 161363.0 82151.0 87431.0 147221.0 142101.0 50867.0 54824.0 106664.0 113434.0 0.0 8543.0 392181.0 391052.0 57298.0 64628.0 194906.0 201162.0 141313.0 148526.0 156640.0 150112.0 293006.0 289548.0 30719.0 32058.0 147910.0 141507.0 334467.0 329486.0 92852.0 223554.0 92852.0 92852.0 223554.0 223554.0
280851.0 283229.0 115760.0 116221.0 363709.0 370562.0 248924.0 241844.0 150177.0 143436.0 267087.0 272943.0 106834.0 99559.0 183013.0 191182.0 277045.0 279244.0 247936.0 240481.0 181088.0 173727.0 279281.0 274976.0 12311.0 7888.0 196053.0 188285.0 150430.0 155763.0 156095.0 164045.0 191436.0 185272.0 186315.0 183967.0 123286.0 118735.0 94388.0 86368.0 211049.0 218201.0 183339.0 174933.0 184793.0 180044.0 202931.0 207284.0 160021.0 159058.0 157926.0 155276.0 82994.0 87670.0 143642.0 138867.0 48153.0 50956.0 105034.0 111445.0 8543.0 0.0 384848.0 383719.0 48785.0 56088.0 187851.0 194231.0 137577.0 144624.0 150724.0 144011.0 292056.0 288812.0 23756.0 26682.0 142562.0 136393.0 327315.0 322426.0 84514.0 216221.0 84514.0 84514.0 216221.0 216221.0
128690.0 132540.0 360121.0 368283.0 28460.0 20951.0 330138.0 332421.0 290053.0 297197.0 119290.0 112209.0 325576.0 331249.0 340102.0 339254.0 112304.0 114280.0 367632.0 368548.0 258498.0 265859.0 139646.0 147643.0 385918.0 380103.0 323553.0 325472.0 245077.0 237989.0 271602.0 268451.0 237113.0 244880.0 246955.0 254633.0 280666.0 288530.0 311889.0 318339.0 183896.0 175895.0 240823.0 245577.0 391770.0 396618.0 212685.0 214922.0 335312.0 327638.0 248934.0 245653.0 369555.0 363099.0 295707.0 303523.0 354485.0 346660.0 338459.0 331937.0 392181.0 384848.0 0.0 8049.0 343318.0 340667.0 201390.0 197892.0 295959.0 289755.0 252006.0 254510.0 356165.0 362087.0 361462.0 361378.0 267134.0 275048.0 88254.0 96259.0 327097.0 170417.0 327097.0 327097.0 170417.0 170417.0
124520.0 128027.0 357786.0 365939.0 32603.0 26016.0 325019.0 327445.0 287316.0 294565.0 118287.0 111207.0 323618.0 329422.0 336334.0 335314.0 109874.0 111300.0 362682.0 363738.0 255265.0 262748.0 135100.0 143065.0 384790.0 378974.0 319505.0 321592.0 243490.0 236447.0 268969.0 265611.0 233920.0 241751.0 243747.0 251368.0 279021.0 286842.0 310503.0 317078.0 181736.0 173716.0 237856.0 242824.0 388131.0 393100.0 209661.0 211632.0 332041.0 324405.0 246804.0 243774.0 367917.0 361368.0 293087.0 300944.0 353356.0 345532.0 336437.0 329806.0 391052.0 383719.0 8049.0 0.0 342189.0 339538.0 199887.0 196107.0 293511.0 287186.0 250105.0 252846.0 350383.0 356391.0 360333.0 360250.0 265099.0 273041.0 82487.0 90537.0 325969.0 168223.0 325969.0 325969.0 168223.0 168223.0
240577.0 243592.0 124204.0 127786.0 322179.0 329032.0 241660.0 235405.0 132948.0 128130.0 225557.0 231413.0 100295.0 95339.0 181242.0 188808.0 235515.0 237714.0 248289.0 241609.0 157049.0 151065.0 240324.0 236833.0 55855.0 47817.0 189539.0 182480.0 115629.0 119599.0 133093.0 141067.0 162681.0 157869.0 159618.0 159142.0 97024.0 95326.0 77938.0 72083.0 171398.0 177982.0 154516.0 146242.0 196426.0 193471.0 169382.0 174914.0 157774.0 154485.0 126975.0 122296.0 98712.0 99711.0 127804.0 125520.0 56298.0 51447.0 104598.0 108166.0 57298.0 48785.0 343318.0 342189.0 0.0 7995.0 147536.0 154622.0 121168.0 126675.0 119100.0 111416.0 286951.0 284999.0 32612.0 38864.0 115228.0 111025.0 286003.0 281416.0 36893.0 174691.0 36893.0 36893.0 174691.0 174691.0
237927.0 240959.0 130183.0 134054.0 319528.0 326381.0 244893.0 238786.0 135206.0 130782.0 222906.0 228762.0 104738.0 100194.0 185544.0 192985.0 232864.0 235064.0 252608.0 246053.0 157785.0 152125.0 237672.0 234236.0 63619.0 55527.0 193110.0 186197.0 114275.0 117834.0 134255.0 142153.0 162379.0 157896.0 159784.0 159702.0 98015.0 96958.0 81327.0 76025.0 168748.0 175331.0 154256.0 146077.0 202318.0 199568.0 167923.0 173709.0 162162.0 158571.0 126467.0 121341.0 105632.0 106309.0 130367.0 128536.0 63462.0 58165.0 109788.0 112933.0 64628.0 56088.0 340667.0 339538.0 7995.0 0.0 144895.0 151979.0 123714.0 128876.0 118517.0 110686.0 290382.0 288626.0 40607.0 46807.0 115692.0 111976.0 283353.0 278765.0 31861.0 172040.0 31861.0 31861.0 172040.0 172040.0
93172.0 96065.0 160889.0 169027.0 180298.0 187151.0 179700.0 177731.0 96005.0 101617.0 84639.0 90016.0 124851.0 130146.0 158018.0 160328.0 91318.0 92462.0 207974.0 205377.0 75984.0 79765.0 92857.0 89770.0 188147.0 182720.0 148205.0 146632.0 43716.0 36602.0 77436.0 77491.0 59143.0 63223.0 66473.0 73564.0 79332.0 87243.0 110632.0 117336.0 23979.0 30473.0 56746.0 56292.0 204914.0 207944.0 41911.0 49787.0 145769.0 137969.0 50495.0 45338.0 168180.0 161801.0 100056.0 107153.0 154887.0 147277.0 137900.0 131874.0 194906.0 187851.0 201390.0 199887.0 147536.0 144895.0 0.0 8000.0 98609.0 93813.0 51688.0 53248.0 221688.0 224008.0 164241.0 163574.0 67330.0 74940.0 139615.0 134584.0 131325.0 34986.0 131325.0 131325.0 34986.0 34986.0
86621.0 89183.0 163058.0 171219.0 177025.0 183878.0 175461.0 173790.0 96287.0 102367.0 82530.0 87349.0 127735.0 133359.0 156680.0 158595.0 86812.0 87365.0 204691.0 202370.0 73495.0 78030.0 85709.0 82347.0 194202.0 188944.0 145917.0 144759.0 47612.0 40772.0 77530.0 76753.0 55279.0 60173.0 63333.0 70756.0 82960.0 90747.0 114893.0 121857.0 16851.0 24092.0 53912.0 54624.0 204542.0 207863.0 35838.0 43570.0 145505.0 137670.0 51806.0 47794.0 171829.0 165262.0 100814.0 108173.0 160182.0 152698.0 140681.0 134365.0 201162.0 194231.0 197892.0 196107.0 154622.0 151979.0 8000.0 0.0 99887.0 94605.0 54165.0 56792.0 216803.0 219348.0 170558.0 169652.0 69511.0 77336.0 133717.0 128441.0 138409.0 35028.0 138409.0 138409.0 35028.0 35028.0
174174.0 173707.0 64400.0 72520.0 275913.0 282753.0 121905.0 116270.0 12604.0 7238.0 182407.0 187017.0 35697.0 43464.0 71050.0 76638.0 183687.0 182434.0 135079.0 129735.0 47496.0 39072.0 167856.0 161385.0 131641.0 130093.0 72108.0 66378.0 58515.0 65197.0 25388.0 31259.0 64704.0 56821.0 56349.0 51194.0 33122.0 29285.0 44279.0 51732.0 112271.0 120208.0 58306.0 51667.0 109553.0 111416.0 85705.0 86176.0 51901.0 44976.0 48172.0 53763.0 81559.0 73917.0 6654.0 9070.0 90674.0 86654.0 46116.0 38342.0 141313.0 137577.0 295959.0 293511.0 121168.0 123714.0 98609.0 99887.0 0.0 7778.0 47714.0 49435.0 167762.0 166681.0 116410.0 111203.0 32300.0 26285.0 223087.0 216367.0 116844.0 133594.0 116844.0 116844.0 133594.0 133594.0
167226.0 166613.0 71167.0 79227.0 269975.0 276828.0 118036.0 112731.0 6381.0 7806.0 176998.0 181405.0 43474.0 51240.0 71010.0 75925.0 177451.0 175993.0 133262.0 128277.0 39722.0 31295.0 160688.0 154132.0 138925.0 137201.0 69772.0 64686.0 55458.0 61781.0 18337.0 23631.0 57220.0 49280.0 48705.0 43434.0 34839.0 32677.0 50762.0 58464.0 106374.0 114251.0 51045.0 44738.0 112397.0 114762.0 78729.0 78903.0 53735.0 46323.0 43368.0 49757.0 89269.0 81606.0 6245.0 13770.0 98014.0 93774.0 53745.0 45894.0 148526.0 144624.0 289755.0 287186.0 126675.0 128876.0 93813.0 94605.0 7778.0 0.0 44048.0 46939.0 163987.0 163241.0 123169.0 118152.0 29463.0 25050.0 216094.0 209306.0 121091.0 128765.0 121091.0 121091.0 128765.0 128765.0
135825.0 136779.0 109203.0 117345.0 231189.0 238042.0 149268.0 145448.0 47626.0 51734.0 136246.0 141382.0 73578.0 79333.0 113255.0 117099.0 140467.0 140314.0 170996.0 167001.0 44732.0 42858.0 131870.0 126585.0 148489.0 144436.0 107881.0 104429.0 11984.0 17751.0 31289.0 35423.0 44011.0 40463.0 42895.0 45143.0 30051.0 37350.0 62851.0 70478.0 68620.0 76629.0 36012.0 28216.0 156444.0 158750.0 52260.0 56657.0 97648.0 90093.0 8000.0 6380.0 118129.0 111379.0 50194.0 56590.0 111038.0 104291.0 86517.0 80276.0 156640.0 150724.0 252006.0 250105.0 119100.0 118517.0 51688.0 54165.0 47714.0 44048.0 0.0 8047.0 194437.0 195101.0 127140.0 124583.0 15698.0 23263.0 184448.0 178430.0 105814.0 86491.0 105814.0 105814.0 86491.0 86491.0
140536.0 141830.0 108437.0 116512.0 233482.0 240335.0 155909.0 151877.0 51291.0 54325.0 137782.0 143263.0 71736.0 76900.0 117387.0 121648.0 143579.0 143854.0 176608.0 172374.0 52341.0 49893.0 137159.0 132151.0 142167.0 137877.0 113204.0 109347.0 9706.0 16891.0 36668.0 41798.0 52002.0 48504.0 50909.0 52941.0 26176.0 34022.0 58364.0 65647.0 72173.0 80095.0 44036.0 36262.0 158925.0 160848.0 58988.0 63833.0 100629.0 93262.0 16024.0 11266.0 115072.0 108596.0 52838.0 58489.0 105472.0 98479.0 84833.0 79113.0 150112.0 144011.0 254510.0 252846.0 111416.0 110686.0 53248.0 56792.0 49435.0 46939.0 8047.0 0.0 201279.0 201765.0 120347.0 118069.0 17477.0 23398.0 188882.0 183062.0 97865.0 87390.0 97865.0 97865.0 87390.0 87390.0
233074.0 227343.0 178638.0 180731.0 347760.0 352135.0 45960.0 51607.0 157666.0 160533.0 277659.0 277480.0 187867.0 194133.0 109123.0 100910.0 260916.0 254638.0 51266.0 59230.0 150922.0 151584.0 220411.0 212631.0 282752.0 284169.0 97463.0 104749.0 205647.0 208660.0 165592.0 159551.0 163005.0 160598.0 157321.0 151810.0 198490.0 196587.0 209095.0 214935.0 216239.0 220506.0 167152.0 170995.0 128083.0 136112.0 181445.0 174232.0 132057.0 133623.0 188245.0 196744.0 212555.0 206264.0 161198.0 162030.0 244492.0 243829.0 187272.0 181523.0 293006.0 292056.0 356165.0 350383.0 286951.0 290382.0 221688.0 216803.0 167762.0 163987.0 194437.0 201279.0 0.0 8088.0 275293.0 268468.0 186817.0 186426.0 267939.0 259915.0 284593.0 247775.0 284593.0 284593.0 247775.0 247775.0
238263.0 232661.0 174711.0 176493.0 353243.0 357730.0 45856.0 50515.0 156971.0 159443.0 281835.0 281856.0 185447.0 191512.0 105813.0 97687.0 265685.0 259545.0 45137.0 53206.0 152119.0 152328.0 225686.0 217856.0 279304.0 280931.0 95516.0 102528.0 206472.0 209736.0 165741.0 159971.0 165074.0 162298.0 159005.0 153213.0 197925.0 195707.0 207299.0 212921.0 219370.0 223863.0 168882.0 172371.0 122015.0 129977.0 184239.0 177170.0 129033.0 131040.0 189128.0 197650.0 208647.0 202519.0 160178.0 160614.0 241479.0 241071.0 184315.0 178807.0 289548.0 288812.0 362087.0 356391.0 284999.0 288626.0 224008.0 219348.0 166681.0 163241.0 195101.0 201765.0 8088.0 0.0 272504.0 265569.0 186907.0 186171.0 273914.0 265874.0 283373.0 250835.0 283373.0 283373.0 250835.0 250835.0
257176.0 259511.0 103015.0 104983.0 340323.0 347176.0 231251.0 224421.0 128946.0 122612.0 243701.0 249557.0 87935.0 81246.0 166896.0 174906.0 253659.0 255840.0 233044.0 225861.0 158627.0 151488.0 255539.0 251221.0 25501.0 18722.0 178340.0 170758.0 126688.0 132007.0 133683.0 141689.0 168268.0 162274.0 163427.0 161379.0 100117.0 95932.0 72475.0 64713.0 187364.0 194553.0 160139.0 151723.0 174433.0 170525.0 179301.0 183752.0 143503.0 141689.0 134417.0 131612.0 73074.0 75943.0 122685.0 118506.0 31851.0 31470.0 88258.0 93772.0 30719.0 23756.0 361462.0 360333.0 32612.0 40607.0 164241.0 170558.0 116410.0 123169.0 127140.0 120347.0 275293.0 272504.0 0.0 7927.0 119385.0 113448.0 303774.0 298825.0 64505.0 192835.0 64505.0 64505.0 192835.0 192835.0
256185.0 258303.0 95343.0 97178.0 340239.0 347092.0 224655.0 217750.0 123789.0 117209.0 243617.0 249474.0 81589.0 74670.0 159860.0 167913.0 253575.0 255592.0 225801.0 218566.0 154410.0 147071.0 254152.0 249629.0 24576.0 19874.0 171725.0 164083.0 124857.0 130458.0 129418.0 137374.0 164865.0 158641.0 159658.0 157285.0 96752.0 92079.0 67755.0 59779.0 186388.0 193718.0 156787.0 148390.0 166617.0 162660.0 176840.0 181015.0 136537.0 134941.0 131657.0 129316.0 65163.0 68126.0 117358.0 112852.0 24343.0 25025.0 81254.0 87029.0 32058.0 26682.0 361378.0 360250.0 38864.0 46807.0 163574.0 169652.0 111203.0 118152.0 124583.0 118069.0 268468.0 265569.0 7927.0 0.0 116018.0 109762.0 303189.0 298074.0 68264.0 192751.0 68264.0 68264.0 192751.0 192751.0
149212.0 149721.0 93615.0 101767.0 246459.0 253312.0 141106.0 136667.0 33917.0 36889.0 151806.0 156837.0 58556.0 64702.0 100042.0 104473.0 155315.0 154852.0 160189.0 155722.0 42227.0 37483.0 144488.0 138789.0 139248.0 135861.0 96609.0 92422.0 26233.0 32911.0 21239.0 28011.0 48887.0 43079.0 44550.0 44011.0 19278.0 24796.0 50932.0 58959.0 83388.0 91414.0 40777.0 32372.0 141584.0 143646.0 62953.0 65920.0 83168.0 75786.0 18521.0 21998.0 103843.0 96875.0 35391.0 41291.0 100338.0 94173.0 71339.0 64866.0 147910.0 142562.0 267134.0 265099.0 115228.0 115692.0 67330.0 69511.0 32300.0 29463.0 15698.0 17477.0 186817.0 186907.0 119385.0 116018.0 0.0 7988.0 198055.0 191814.0 104539.0 102177.0 104539.0 104539.0 102177.0 102177.0
157144.0 157598.0 85949.0 94087.0 254328.0 261181.0 140536.0 135731.0 30448.0 31809.0 159509.0 164619.0 50591.0 56715.0 96044.0 100953.0 163274.0 162835.0 157826.0 153038.0 46076.0 40153.0 152318.0 146553.0 132667.0 129544.0 94201.0 89480.0 32820.0 39792.0 22424.0 30201.0 55247.0 48880.0 49980.0 48387.0 14001.0 17781.0 43700.0 51818.0 91348.0 99373.0 47290.0 38998.0 135826.0 137582.0 70567.0 73228.0 78010.0 70866.0 26503.0 29636.0 95869.0 88889.0 30418.0 35352.0 93312.0 87385.0 63412.0 57036.0 141507.0 136393.0 275048.0 273041.0 111025.0 111976.0 74940.0 77336.0 26285.0 25050.0 23263.0 23398.0 186426.0 186171.0 113448.0 109762.0 7988.0 0.0 206003.0 199739.0 101763.0 109679.0 101763.0 101763.0 109679.0 109679.0
48957.0 49785.0 287241.0 295263.0 83884.0 86551.0 242937.0 245607.0 215176.0 222957.0 79602.0 71737.0 255954.0 262563.0 258328.0 256595.0 53969.0 49217.0 280860.0 282204.0 180687.0 188753.0 56284.0 63761.0 327761.0 322301.0 240429.0 243186.0 180439.0 174012.0 197790.0 193191.0 159960.0 168017.0 169509.0 176671.0 214454.0 221775.0 247148.0 254528.0 117218.0 109630.0 165203.0 171423.0 310458.0 315937.0 137386.0 137604.0 256414.0 249036.0 179570.0 178479.0 301830.0 294724.0 221579.0 229580.0 293735.0 286341.0 268161.0 260896.0 334467.0 327315.0 88254.0 82487.0 286003.0 283353.0 139615.0 133717.0 223087.0 216094.0 184448.0 188882.0 267939.0 273914.0 303774.0 303189.0 198055.0 206003.0 0.0 8065.0 269783.0 116178.0 269783.0 269783.0 116178.0 116178.0
42617.0 42722.0 280412.0 288411.0 91195.0 94124.0 234884.0 237572.0 208262.0 216094.0 79023.0 71411.0 249503.0 256193.0 250680.0 248870.0 51924.0 46193.0 272824.0 274191.0 173532.0 181657.0 48986.0 56284.0 322633.0 317293.0 232672.0 235502.0 174773.0 168457.0 191029.0 186284.0 152933.0 161000.0 162421.0 169509.0 208470.0 215709.0 241222.0 248678.0 111794.0 104360.0 158336.0 164704.0 302824.0 308354.0 130673.0 130639.0 249036.0 241693.0 173368.0 172533.0 295489.0 288329.0 214730.0 222735.0 288164.0 280845.0 261618.0 254291.0 329486.0 322426.0 96259.0 90537.0 281416.0 278765.0 134584.0 128441.0 216367.0 209306.0 178430.0 183062.0 259915.0 265874.0 298825.0 298074.0 191814.0 199739.0 8065.0 0.0 265195.0 112592.0 265195.0 265195.0 112592.0 112592.0
224357.0 227389.0 134550.0 139846.0 305958.0 312811.0 238750.0 233058.0 127471.0 124066.0 209336.0 215192.0 103862.0 100912.0 182844.0 189830.0 219294.0 221494.0 249526.0 243402.0 146755.0 141709.0 224102.0 220667.0 89757.0 82210.0 188170.0 181724.0 100929.0 104309.0 124185.0 131866.0 149818.0 145762.0 147836.0 148365.0 88120.0 88461.0 78028.0 74759.0 155178.0 161762.0 141771.0 133739.0 205338.0 203519.0 154464.0 160365.0 159981.0 155476.0 113808.0 108260.0 114021.0 112529.0 123436.0 122800.0 76270.0 68795.0 111434.0 112936.0 92852.0 84514.0 327097.0 325969.0 36893.0 31861.0 131325.0 138409.0 116844.0 121091.0 105814.0 97865.0 284593.0 283373.0 64505.0 68264.0 104539.0 101763.0 269783.0 265195.0 0.0 158470.0 0.0 0.0 158470.0 158470.0
75676.0 80817.0 195588.0 203707.0 149265.0 156118.0 207941.0 206777.0 130820.0 136565.0 50865.0 57106.0 159119.0 164086.0 191700.0 193544.0 63526.0 67000.0 238506.0 236487.0 108273.0 113029.0 80125.0 80081.0 217291.0 211476.0 180652.0 179673.0 77703.0 70508.0 112154.0 111706.0 89199.0 94711.0 97785.0 105378.0 113104.0 121085.0 143376.0 149722.0 31579.0 28701.0 88619.0 89649.0 239442.0 242642.0 66901.0 73696.0 180349.0 172526.0 85477.0 80183.0 201470.0 195359.0 135005.0 142135.0 185857.0 178033.0 172222.0 166420.0 223554.0 216221.0 170417.0 168223.0 174691.0 172040.0 34986.0 35028.0 133594.0 128765.0 86491.0 87390.0 247775.0 250835.0 192835.0 192751.0 102177.0 109679.0 116178.0 112592.0 158470.0 0.0 158470.0 158470.0 0.0 0.0
224357.0 227389.0 134550.0 139846.0 305958.0 312811.0 238750.0 233058.0 127471.0 124066.0 209336.0 215192.0 103862.0 100912.0 182844.0 189830.0 219294.0 221494.0 249526.0 243402.0 146755.0 141709.0 224102.0 220667.0 89757.0 82210.0 188170.0 181724.0 100929.0 104309.0 124185.0 131866.0 149818.0 145762.0 147836.0 148365.0 88120.0 88461.0 78028.0 74759.0 155178.0 161762.0 141771.0 133739.0 205338.0 203519.0 154464.0 160365.0 159981.0 155476.0 113808.0 108260.0 114021.0 112529.0 123436.0 122800.0 76270.0 68795.0 111434.0 112936.0 92852.0 84514.0 327097.0 325969.0 36893.0 31861.0 131325.0 138409.0 116844.0 121091.0 105814.0 97865.0 284593.0 283373.0 64505.0 68264.0 104539.0 101763.0 269783.0 265195.0 0.0 158470.0 0.0 0.0 158470.0 158470.0
224357.0 227389.0 134550.0 139846.0 305958.0 312811.0 238750.0 233058.0 127471.0 124066.0 209336.0 215192.0 103862.0 100912.0 182844.0 189830.0 219294.0 221494.0 249526.0 243402.0 146755.0 141709.0 224102.0 220667.0 89757.0 82210.0 188170.0 181724.0 100929.0 104309.0 124185.0 131866.0 149818.0 145762.0 147836.0 148365.0 88120.0 88461.0 78028.0 74759.0 155178.0 161762.0 141771.0 133739.0 205338.0 203519.0 154464.0 160365.0 159981.0 155476.0 113808.0 108260.0 114021.0 112529.0 123436.0 122800.0 76270.0 68795.0 111434.0 112936.0 92852.0 84514.0 327097.0 325969.0 36893.0 31861.0 131325.0 138409.0 116844.0 121091.0 105814.0 97865.0 284593.0 283373.0 64505.0 68264.0 104539.0 101763.0 269783.0 265195.0 0.0 158470.0 0.0 0.0 158470.0 158470.0
75676.0 80817.0 195588.0 203707.0 149265.0 156118.0 207941.0 206777.0 130820.0 136565.0 50865.0 57106.0 159119.0 164086.0 191700.0 193544.0 63526.0 67000.0 238506.0 236487.0 108273.0 113029.0 80125.0 80081.0 217291.0 211476.0 180652.0 179673.0 77703.0 70508.0 112154.0 111706.0 89199.0 94711.0 97785.0 105378.0 113104.0 121085.0 143376.0 149722.0 31579.0 28701.0 88619.0 89649.0 239442.0 242642.0 66901.0 73696.0 180349.0 172526.0 85477.0 80183.0 201470.0 195359.0 135005.0 142135.0 185857.0 178033.0 172222.0 166420.0 223554.0 216221.0 170417.0 168223.0 174691.0 172040.0 34986.0 35028.0 133594.0 128765.0 86491.0 87390.0 247775.0 250835.0 192835.0 192751.0 102177.0 109679.0 116178.0 112592.0 158470.0 0.0 158470.0 158470.0 0.0 0.0
75676.0 80817.0 195588.0 203707.0 149265.0 156118.0 207941.0 206777.0 130820.0 136565.0 50865.0 57106.0 159119.0 164086.0 191700.0 193544.0 63526.0 67000.0 238506.0 236487.0 108273.0 113029.0 80125.0 80081.0 217291.0 211476.0 180652.0 179673.0 77703.0 70508.0 112154.0 111706.0 89199.0 94711.0 97785.0 105378.0 113104.0 121085.0 143376.0 149722.0 31579.0 28701.0 88619.0 89649.0 239442.0 242642.0 66901.0 73696.0 180349.0 172526.0 85477.0 80183.0 201470.0 195359.0 135005.0 142135.0 185857.0 178033.0 172222.0 166420.0 223554.0 216221.0 170417.0 168223.0 174691.0 172040.0 34986.0 35028.0 133594.0 128765.0 86491.0 87390.0 247775.0 250835.0 192835.0 192751.0 102177.0 109679.0 116178.0 112592.0 158470.0 0.0 158470.0 158470.0 0.0 0.0
FIXED_EDGES_SECTION
1 2
3 4
5 6
7 8
9 10
11 12
13 14
15 16
17 18
19 20
21 22
23 24
25 26
27 28
29 30
31 32
33 34
35 36
37 38
39 40
41 42
43 44
45 46
47 48
49 50
51 52
53 54
55 56
57 58
59 60
61 62
63 64
65 66
67 68
69 70
71 72
73 74
75 76
77 78
79 80
-1 
DEMAND_SECTION
1 620
2 620
3 247
4 247
5 280
6 280
7 277
8 277
9 89
10 89
11 114
12 114
13 353
14 353
15 74
16 74
17 563
18 563
19 380
20 380
21 271
22 271
23 336
24 336
25 216
26 216
27 180
28 180
29 75
30 75
31 380
32 380
33 158
34 158
35 291
36 291
37 56
38 56
39 394
40 394
41 371
42 371
43 223
44 223
45 68
46 68
47 342
48 342
49 82
50 82
51 358
52 358
53 497
54 497
55 256
56 256
57 493
58 493
59 583
60 583
61 251
62 251
63 491
64 491
65 97
66 97
67 100
68 100
69 191
70 191
71 373
72 373
73 120
74 120
75 247
76 247
77 432
78 432
79 268
80 268
81 0
82 0
83 0
84 0
85 0
86 0
DEPOT_SECTION
81 
-1 
CAPACITIES_SECTION
10000 
11000 
12000 
-1 
EOF