NAME: GFS_20_1
TYPE: GFSP
DIMENSION: 96
VEHICLES: 3
CAPACITY: 2500.0
TRIP_DIST_LIMIT: 750000.0
TOTAL_DIST_LIMIT: 1400000.0
EDGE_WEIGHT_TYPE: EXPLICIT
EDGE_WEIGHT_FORMAT: FULL_MATRIX
EDGE_WEIGHT_SECTION
0.0 8118.0 59719.0 67004.0 339908.0 332325.0 122106.0 121761.0 182143.0 184399.0 298423.0 299570.0 164209.0 168890.0 86422.0 91022.0 164775.0 157743.0 66812.0 64390.0 150017.0 149012.0 242108.0 235373.0 181461.0 189225.0 182437.0 177307.0 263331.0 259954.0 51844.0 43951.0 18123.0 12134.0 234961.0 228282.0 239841.0 234129.0 171072.0 162996.0 177340.0 171420.0 235586.0 234412.0 264570.0 264963.0 243715.0 244788.0 249232.0 241231.0 232639.0 229962.0 268011.0 272639.0 206003.0 210540.0 86211.0 93535.0 184744.0 176189.0 313261.0 321004.0 190141.0 186270.0 177939.0 181704.0 189474.0 197868.0 31671.0 39691.0 115720.0 108494.0 162909.0 158108.0 256317.0 260513.0 58119.0 56481.0 192552.0 196852.0 270462.0 261626.0 270462.0 270462.0 270462.0 270462.0 270462.0 270462.0 270462.0 261626.0 261626.0 261626.0 261626.0 261626.0 261626.0 261626.0
8118.0 0.0 61167.0 68919.0 332650.0 325041.0 122232.0 122418.0 180104.0 182029.0 292058.0 293070.0 159357.0 163758.0 82912.0 88050.0 159545.0 152660.0 62750.0 61216.0 145900.0 145273.0 240848.0 233972.0 177470.0 185292.0 183360.0 177971.0 263034.0 259864.0 44542.0 36825.0 13011.0 10896.0 236046.0 229539.0 240553.0 235033.0 168003.0 159926.0 178732.0 173073.0 236108.0 234659.0 265376.0 265508.0 242774.0 244103.0 242043.0 234050.0 226293.0 223452.0 267071.0 271502.0 201881.0 206228.0 89417.0 97009.0 182233.0 173687.0 306312.0 314080.0 187219.0 183636.0 176167.0 179609.0 185166.0 193609.0 24800.0 32697.0 116820.0 109337.0 158270.0 153204.0 250543.0 254588.0 50887.0 49855.0 190969.0 195552.0 268692.0 255959.0 268692.0 268692.0 268692.0 268692.0 268692.0 268692.0 268692.0 255959.0 255959.0 255959.0 255959.0 255959.0 255959.0 255959.0
59719.0 61167.0 0.0 8425.0 324527.0 317487.0 63372.0 62289.0 128868.0 132483.0 272107.0 274741.0 128444.0 135160.0 50320.0 49677.0 132136.0 124309.0 43323.0 35375.0 109576.0 106027.0 185563.0 179269.0 138537.0 145635.0 122737.0 117717.0 204655.0 200985.0 96856.0 91183.0 73937.0 71104.0 175242.0 168588.0 180190.0 174423.0 122986.0 115222.0 117683.0 111920.0 176040.0 175090.0 204883.0 205387.0 186351.0 186859.0 234771.0 226903.0 207776.0 207065.0 210553.0 215632.0 163101.0 168779.0 31984.0 40144.0 133458.0 125069.0 293787.0 301040.0 140717.0 135522.0 123703.0 128664.0 148388.0 156137.0 56380.0 58724.0 56009.0 48914.0 125539.0 123150.0 224945.0 230477.0 68714.0 61312.0 137419.0 140763.0 215326.0 229147.0 215326.0 215326.0 215326.0 215326.0 215326.0 215326.0 215326.0 229147.0 229147.0 229147.0 229147.0 229147.0 229147.0 229147.0
67004.0 68919.0 8425.0 0.0 327808.0 320860.0 57914.0 56037.0 125469.0 129508.0 273911.0 276773.0 129508.0 136537.0 53651.0 51785.0 133756.0 125882.0 49458.0 41420.0 109921.0 105831.0 180699.0 174600.0 137941.0 144817.0 115840.0 111082.0 198714.0 194855.0 105255.0 99530.0 81787.0 78614.0 168141.0 161362.0 173384.0 167466.0 121237.0 113647.0 110385.0 104417.0 169403.0 168702.0 197976.0 198690.0 181128.0 181360.0 238467.0 230651.0 210089.0 209687.0 205243.0 210514.0 162303.0 168198.0 23725.0 31873.0 130675.0 122407.0 296571.0 303732.0 138432.0 132888.0 119998.0 125348.0 148118.0 155658.0 64804.0 67094.0 49203.0 42588.0 126315.0 124446.0 226084.0 231823.0 76632.0 69120.0 133291.0 136235.0 210954.0 230070.0 210954.0 210954.0 210954.0 210954.0 210954.0 210954.0 210954.0 230070.0 230070.0 230070.0 230070.0 230070.0 230070.0 230070.0
339908.0 332650.0 324527.0 327808.0 0.0 7962.0 303867.0 311852.0 256302.0 248333.0 76416.0 68834.0 204998.0 196694.0 274305.0 276216.0 197974.0 205610.0 284442.0 291314.0 226771.0 233723.0 278678.0 272944.0 212462.0 210302.0 322895.0 316247.0 314602.0 319140.0 309277.0 314951.0 333070.0 339631.0 342213.0 344385.0 333796.0 336957.0 236611.0 239560.0 332051.0 336165.0 326886.0 319044.0 347127.0 339794.0 288399.0 296091.0 90801.0 98814.0 121493.0 119799.0 298264.0 295613.0 198647.0 191675.0 342561.0 347456.0 245007.0 247203.0 36701.0 33444.0 234058.0 241821.0 262887.0 255115.0 201376.0 198585.0 308253.0 300225.0 318370.0 314810.0 209698.0 208313.0 123475.0 115486.0 281803.0 283866.0 265843.0 272590.0 282043.0 124850.0 282043.0 282043.0 282043.0 282043.0 282043.0 282043.0 282043.0 124850.0 124850.0 124850.0 124850.0 124850.0 124850.0 124850.0
332325.0 325041.0 317487.0 320860.0 7962.0 0.0 297674.0 305664.0 251191.0 243242.0 73948.0 66108.0 198783.0 190438.0 267309.0 269331.0 191600.0 199187.0 277212.0 284133.0 220551.0 227585.0 274516.0 268782.0 206946.0 205002.0 317770.0 311045.0 310440.0 314978.0 301443.0 307144.0 325374.0 331965.0 338045.0 340060.0 329635.0 332811.0 231089.0 233856.0 326791.0 330780.0 322844.0 314887.0 342964.0 335632.0 284237.0 291929.0 83370.0 91377.0 115534.0 113502.0 294102.0 291451.0 193746.0 186836.0 335840.0 340818.0 239906.0 241897.0 33285.0 31726.0 229030.0 236741.0 257701.0 249988.0 195946.0 193399.0 300679.0 292649.0 312088.0 308415.0 203544.0 201969.0 119291.0 111298.0 274212.0 276343.0 261011.0 267867.0 277881.0 121060.0 277881.0 277881.0 277881.0 277881.0 277881.0 277881.0 277881.0 121060.0 121060.0 121060.0 121060.0 121060.0 121060.0 121060.0
122106.0 122232.0 63372.0 57914.0 303867.0 297674.0 0.0 7991.0 71235.0 76730.0 241253.0 245473.0 98891.0 107254.0 59863.0 52068.0 106369.0 99073.0 74480.0 69625.0 77126.0 70176.0 122910.0 116986.0 96378.0 101567.0 62507.0 56347.0 141359.0 137857.0 150048.0 146192.0 134271.0 132786.0 115135.0 109301.0 118709.0 113615.0 74610.0 68636.0 60473.0 57127.0 114012.0 112427.0 143634.0 143404.0 123214.0 123525.0 219548.0 212392.0 182475.0 184179.0 147339.0 152607.0 118272.0 125053.0 52891.0 53014.0 78626.0 71247.0 269759.0 276176.0 88207.0 81375.0 64882.0 71412.0 107723.0 113652.0 110261.0 108970.0 15509.0 16737.0 94173.0 95941.0 190558.0 197371.0 109690.0 102056.0 76770.0 78919.0 153652.0 193176.0 153652.0 153652.0 153652.0 153652.0 153652.0 153652.0 153652.0 193176.0 193176.0 193176.0 193176.0 193176.0 193176.0 193176.0
121761.0 122418.0 62289.0 56037.0 311852.0 305664.0 7991.0 0.0 77095.0 82972.0 249092.0 253353.0 106881.0 115245.0 64956.0 57375.0 114354.0 107046.0 78084.0 72621.0 85116.0 78152.0 126122.0 120529.0 104030.0 109069.0 61030.0 55571.0 142692.0 138824.0 152209.0 147989.0 134741.0 132782.0 113803.0 107574.0 118146.0 112643.0 81948.0 76187.0 57563.0 53303.0 113825.0 112803.0 142958.0 143204.0 125843.0 125676.0 227504.0 220336.0 190453.0 192169.0 149768.0 155331.0 125634.0 132472.0 47954.0 47125.0 85031.0 77920.0 277722.0 284127.0 94912.0 87877.0 70479.0 77369.0 115404.0 121203.0 111952.0 111219.0 8763.0 13449.0 102156.0 103926.0 198328.0 205178.0 113183.0 105437.0 81521.0 83006.0 157491.0 200878.0 157491.0 157491.0 157491.0 157491.0 157491.0 157491.0 157491.0 200878.0 200878.0 200878.0 200878.0 200878.0 200878.0 200878.0
182143.0 180104.0 128868.0 125469.0 256302.0 251191.0 71235.0 77095.0 0.0 7999.0 186149.0 191747.0 68579.0 75596.0 99417.0 92910.0 78139.0 74956.0 120008.0 119440.0 56199.0 49954.0 63749.0 56062.0 46780.0 46665.0 66593.0 60055.0 94745.0 94721.0 196260.0 194787.0 190323.0 190998.0 96426.0 95562.0 92313.0 92042.0 26131.0 30176.0 76012.0 80842.0 85338.0 79141.0 113835.0 109475.0 68519.0 72648.0 182552.0 176853.0 137681.0 142008.0 91591.0 94375.0 58050.0 65205.0 124073.0 124112.0 11298.0 12245.0 220181.0 225493.0 22444.0 14519.0 7295.0 1363.0 56387.0 57827.0 161836.0 157664.0 85842.0 87857.0 63545.0 70594.0 134764.0 142455.0 150615.0 144657.0 15109.0 23127.0 88814.0 135524.0 88814.0 88814.0 88814.0 88814.0 88814.0 88814.0 88814.0 135524.0 135524.0 135524.0 135524.0 135524.0 135524.0 135524.0
184399.0 182029.0 132483.0 129508.0 248333.0 243242.0 76730.0 82972.0 7999.0 0.0 178163.0 183750.0 62771.0 69402.0 100364.0 94257.0 72234.0 69617.0 121058.0 121017.0 52360.0 46857.0 65320.0 57410.0 39567.0 38938.0 74566.0 68052.0 98127.0 98652.0 196426.0 195279.0 191902.0 192905.0 102971.0 102465.0 98292.0 98443.0 21125.0 26855.0 84010.0 88809.0 91250.0 84728.0 119102.0 114350.0 71040.0 75833.0 175007.0 169397.0 129897.0 134324.0 93274.0 95418.0 50053.0 57210.0 129324.0 129740.0 3353.0 8819.0 212196.0 217498.0 14457.0 6522.0 15040.0 6914.0 48769.0 49919.0 163013.0 158507.0 91665.0 93168.0 57915.0 65288.0 126769.0 134458.0 150581.0 144910.0 20587.0 28758.0 88170.0 127556.0 88170.0 88170.0 88170.0 88170.0 88170.0 88170.0 88170.0 127556.0 127556.0 127556.0 127556.0 127556.0 127556.0 127556.0
298423.0 292058.0 272107.0 273911.0 76416.0 73948.0 241253.0 249092.0 186149.0 178163.0 0.0 8101.0 145035.0 137552.0 222307.0 222456.0 140161.0 148040.0 236271.0 242040.0 166082.0 171980.0 205971.0 200237.0 145771.0 142094.0 252268.0 246087.0 241895.0 246434.0 277659.0 281835.0 295181.0 300610.0 269526.0 271689.0 261089.0 264280.0 169446.0 173738.0 262108.0 266947.0 254292.0 246337.0 274420.0 267087.0 215692.0 223384.0 70507.0 75457.0 65785.0 68955.0 225557.0 222906.0 128155.0 120973.0 285277.0 289077.0 174932.0 178362.0 40827.0 42998.0 163707.0 171667.0 193105.0 185067.0 134329.0 129874.0 267273.0 259495.0 256445.0 254109.0 148891.0 149675.0 51499.0 44114.0 242074.0 242211.0 194242.0 200588.0 209336.0 50865.0 209336.0 209336.0 209336.0 209336.0 209336.0 209336.0 209336.0 50865.0 50865.0 50865.0 50865.0 50865.0 50865.0 50865.0
299570.0 293070.0 274741.0 276773.0 68834.0 66108.0 245473.0 253353.0 191747.0 183750.0 8101.0 0.0 148461.0 140782.0 224740.0 225163.0 143167.0 151053.0 238179.0 244127.0 169744.0 175858.0 211828.0 206094.0 150517.0 147153.0 258051.0 251763.0 247751.0 252290.0 277480.0 281856.0 295847.0 301436.0 275382.0 277545.0 266945.0 270136.0 174366.0 178399.0 267753.0 272446.0 260148.0 252194.0 280276.0 272943.0 221548.0 229241.0 66403.0 71962.0 67343.0 69619.0 231413.0 228762.0 133698.0 126545.0 288688.0 292670.0 180492.0 183657.0 32890.0 35545.0 169307.0 177238.0 198632.0 190639.0 139106.0 135002.0 268271.0 260436.0 260573.0 258024.0 152493.0 152887.0 57003.0 49302.0 242821.0 243219.0 200095.0 206428.0 215192.0 57106.0 215192.0 215192.0 215192.0 215192.0 215192.0 215192.0 215192.0 57106.0 57106.0 57106.0 57106.0 57106.0 57106.0 57106.0
164209.0 159357.0 128444.0 129508.0 204998.0 198783.0 98891.0 106881.0 68579.0 62771.0 145035.0 148461.0 0.0 8481.0 80395.0 79010.0 9599.0 8694.0 97786.0 101912.0 21773.0 28953.0 123921.0 115972.0 27900.0 34638.0 128494.0 120896.0 159223.0 160491.0 159802.0 161019.0 165912.0 169415.0 164874.0 163588.0 160864.0 160575.0 42504.0 40756.0 135182.0 137409.0 153864.0 147473.0 181859.0 176970.0 131217.0 136943.0 121795.0 115041.0 83746.0 85289.0 151086.0 151489.0 46513.0 48905.0 140257.0 144225.0 60010.0 56388.0 171197.0 177808.0 54539.0 58256.0 72288.0 67227.0 29199.0 37434.0 135919.0 129239.0 113396.0 110120.0 5344.0 6256.0 96579.0 102370.0 115485.0 112465.0 83211.0 91398.0 139943.0 100704.0 139943.0 139943.0 139943.0 139943.0 139943.0 139943.0 139943.0 100704.0 100704.0 100704.0 100704.0 100704.0 100704.0 100704.0
168890.0 163758.0 135160.0 136537.0 196694.0 190438.0 107254.0 115245.0 75596.0 69402.0 137552.0 140782.0 8481.0 0.0 86380.0 85541.0 4886.0 11195.0 102946.0 107505.0 30134.0 37419.0 128870.0 120984.0 32207.0 37802.0 136572.0 129010.0 164661.0 166216.0 162051.0 163668.0 169801.0 173622.0 172017.0 170946.0 167684.0 167631.0 49740.0 48654.0 143419.0 145746.0 160650.0 154096.0 188259.0 183154.0 136495.0 142467.0 113319.0 106581.0 75578.0 76936.0 155667.0 155692.0 46859.0 48009.0 147923.0 152058.0 66492.0 63518.0 163055.0 169730.0 60071.0 64496.0 79678.0 74235.0 30445.0 37861.0 139949.0 133030.0 121676.0 118265.0 13675.0 12123.0 89830.0 95329.0 118526.0 116004.0 89963.0 98148.0 143565.0 94275.0 143565.0 143565.0 143565.0 143565.0 143565.0 143565.0 143565.0 94275.0 94275.0 94275.0 94275.0 94275.0 94275.0 94275.0
86422.0 82912.0 50320.0 53651.0 274305.0 267309.0 59863.0 64956.0 99417.0 100364.0 222307.0 224740.0 80395.0 86380.0 0.0 7971.0 82959.0 75283.0 20705.0 22142.0 64030.0 62607.0 162266.0 154909.0 95195.0 102898.0 120032.0 112985.0 188658.0 186683.0 97463.0 95516.0 91924.0 93633.0 171224.0 166278.0 172890.0 168917.0 85210.0 77146.0 119700.0 116899.0 167280.0 164075.0 197655.0 196053.0 165532.0 168045.0 184819.0 177001.0 157629.0 156782.0 189539.0 193110.0 119845.0 124664.0 71431.0 77992.0 100238.0 91771.0 243469.0 250731.0 104535.0 101388.0 96505.0 98749.0 103660.0 111932.0 62672.0 58248.0 65220.0 57626.0 78242.0 74677.0 176092.0 181291.0 52931.0 46124.0 111784.0 117489.0 188170.0 180652.0 188170.0 188170.0 188170.0 188170.0 188170.0 188170.0 188170.0 180652.0 180652.0 180652.0 180652.0 180652.0 180652.0 180652.0
91022.0 88050.0 49677.0 51785.0 276216.0 269331.0 52068.0 57375.0 92910.0 94257.0 222456.0 225163.0 79010.0 85541.0 7971.0 0.0 82463.0 74644.0 27261.0 26843.0 61182.0 58856.0 155351.0 148079.0 91679.0 99221.0 112062.0 105019.0 181219.0 179138.0 104749.0 102528.0 97651.0 98877.0 163290.0 158320.0 165030.0 161009.0 80055.0 71978.0 111766.0 109034.0 159457.0 156330.0 189817.0 188285.0 158400.0 160759.0 187303.0 179564.0 158346.0 157902.0 182480.0 186197.0 116413.0 121545.0 67510.0 73588.0 94310.0 85787.0 244795.0 251948.0 99189.0 95628.0 89692.0 92301.0 100694.0 108801.0 68927.0 64998.0 58067.0 50687.0 76383.0 73582.0 175363.0 180827.0 60640.0 53669.0 104900.0 110398.0 181724.0 179673.0 181724.0 181724.0 181724.0 181724.0 181724.0 181724.0 181724.0 179673.0 179673.0 179673.0 179673.0 179673.0 179673.0 179673.0
164775.0 159545.0 132136.0 133756.0 197974.0 191600.0 106369.0 114354.0 78139.0 72234.0 140161.0 143167.0 9599.0 4886.0 82959.0 82463.0 0.0 7886.0 99079.0 103835.0 29618.0 37272.0 132661.0 124745.0 36096.0 42083.0 137888.0 130263.0 168235.0 169642.0 157321.0 159005.0 165425.0 169342.0 174461.0 173187.0 170399.0 170152.0 52086.0 50294.0 144416.0 146482.0 163391.0 156958.0 191281.0 186315.0 140140.0 145993.0 113480.0 106556.0 77306.0 78183.0 159618.0 159784.0 51677.0 52894.0 145758.0 150101.0 69424.0 65962.0 164726.0 171519.0 63540.0 67580.0 81887.0 76784.0 35101.0 42654.0 135629.0 128644.0 120539.0 116836.0 14850.0 10431.0 93134.0 98401.0 113959.0 111560.0 92717.0 100906.0 147836.0 97785.0 147836.0 147836.0 147836.0 147836.0 147836.0 147836.0 147836.0 97785.0 97785.0 97785.0 97785.0 97785.0 97785.0 97785.0
157743.0 152660.0 124309.0 125882.0 205610.0 199187.0 99073.0 107046.0 74956.0 69617.0 148040.0 151053.0 8694.0 11195.0 75283.0 74644.0 7886.0 0.0 91752.0 96329.0 23061.0 30926.0 131823.0 123851.0 36379.0 43282.0 132661.0 124968.0 166803.0 167873.0 151810.0 153213.0 158837.0 162571.0 170819.0 169218.0 167229.0 166645.0 48845.0 45967.0 138787.0 140555.0 160277.0 154075.0 188652.0 183967.0 138926.0 144489.0 120531.0 113480.0 85119.0 85853.0 159142.0 159702.0 55059.0 57166.0 137906.0 142293.0 67020.0 62711.0 172502.0 179324.0 62300.0 65492.0 78123.0 73622.0 37822.0 45967.0 128936.0 122087.0 113078.0 109229.0 12032.0 4367.0 100833.0 106188.0 107864.0 105139.0 89825.0 97983.0 148365.0 105378.0 148365.0 148365.0 148365.0 148365.0 148365.0 148365.0 148365.0 105378.0 105378.0 105378.0 105378.0 105378.0 105378.0 105378.0
66812.0 62750.0 43323.0 49458.0 284442.0 277212.0 74480.0 78084.0 120008.0 121058.0 236271.0 238179.0 97786.0 102946.0 20705.0 27261.0 99079.0 91752.0 0.0 8039.0 83234.0 82535.0 182608.0 175321.0 114751.0 122557.0 136487.0 129807.0 208244.0 206012.0 77729.0 75296.0 71331.0 73343.0 188533.0 183164.0 190903.0 186532.0 105787.0 97736.0 134949.0 131286.0 185544.0 182741.0 215791.0 214583.0 185640.0 187928.0 194015.0 186060.0 170836.0 169198.0 209734.0 213455.0 139229.0 143728.0 71470.0 79108.0 120942.0 112474.0 255006.0 262476.0 125153.0 122085.0 116924.0 119363.0 122662.0 131059.0 41968.0 37740.0 76280.0 68149.0 96248.0 91781.0 191768.0 196503.0 35210.0 27625.0 132150.0 137652.0 208797.0 196710.0 208797.0 208797.0 208797.0 208797.0 208797.0 208797.0 208797.0 196710.0 196710.0 196710.0 196710.0 196710.0 196710.0 196710.0
64390.0 61216.0 35375.0 41420.0 291314.0 284133.0 69625.0 72621.0 119440.0 121017.0 242040.0 244127.0 101912.0 107505.0 22142.0 26843.0 103835.0 96329.0 8039.0 0.0 86133.0 84724.0 181297.0 174164.0 117337.0 125036.0 132020.0 125557.0 205834.0 203340.0 80873.0 77705.0 70908.0 72035.0 184395.0 178797.0 187201.0 182581.0 106815.0 98737.0 129925.0 125924.0 182026.0 179527.0 212135.0 211214.0 183925.0 185898.0 201040.0 193106.0 176810.0 175412.0 208127.0 212110.0 141984.0 146772.0 63517.0 71208.0 121123.0 112591.0 261524.0 268943.0 126005.0 122467.0 115915.0 118877.0 125751.0 134046.0 42802.0 39976.0 70179.0 61999.0 100016.0 96046.0 196841.0 201775.0 40800.0 32965.0 130985.0 136119.0 208225.0 201614.0 208225.0 208225.0 208225.0 208225.0 208225.0 208225.0 208225.0 201614.0 201614.0 201614.0 201614.0 201614.0 201614.0 201614.0
150017.0 145900.0 109576.0 109921.0 226771.0 220551.0 77126.0 85116.0 56199.0 52360.0 166082.0 169744.0 21773.0 30134.0 64030.0 61182.0 29618.0 23061.0 83234.0 86133.0 0.0 7905.0 117227.0 109243.0 31650.0 39549.0 110100.0 102360.0 150461.0 150787.0 151788.0 151970.0 153677.0 156356.0 150195.0 148101.0 147409.0 146254.0 31416.0 26028.0 115916.0 117544.0 140591.0 134846.0 169725.0 165602.0 123346.0 128185.0 143087.0 136174.0 105488.0 107053.0 145088.0 146617.0 55995.0 60638.0 119325.0 122996.0 50408.0 44278.0 192911.0 199476.0 49038.0 49762.0 58081.0 54952.0 39635.0 47914.0 123656.0 117686.0 91633.0 88468.0 17275.0 19296.0 116760.0 122924.0 106137.0 101877.0 71308.0 79244.0 137159.0 120399.0 137159.0 137159.0 137159.0 137159.0 137159.0 137159.0 137159.0 120399.0 120399.0 120399.0 120399.0 120399.0 120399.0 120399.0
149012.0 145273.0 106027.0 105831.0 233723.0 227585.0 70176.0 78152.0 49954.0 46857.0 171980.0 175858.0 28953.0 37419.0 62607.0 58856.0 37272.0 30926.0 82535.0 84724.0 7905.0 0.0 112124.0 104180.0 32837.0 40378.0 102249.0 94501.0 144609.0 144675.0 153488.0 153259.0 153590.0 155875.0 142886.0 140638.0 140365.0 139024.0 26609.0 20020.0 108013.0 109647.0 133602.0 128021.0 162951.0 159022.0 117855.0 122412.0 150639.0 143789.0 112301.0 114136.0 140063.0 141932.0 57574.0 62889.0 113991.0 117309.0 45245.0 38407.0 199604.0 206069.0 45429.0 45020.0 51250.0 48763.0 42363.0 50183.0 123713.0 118108.0 84936.0 82166.0 24044.0 27064.0 122118.0 128512.0 107599.0 102857.0 65002.0 72791.0 133236.0 125451.0 133236.0 133236.0 133236.0 133236.0 133236.0 133236.0 133236.0 125451.0 125451.0 125451.0 125451.0 125451.0 125451.0 125451.0
242108.0 240848.0 185563.0 180699.0 278678.0 274516.0 122910.0 126122.0 63749.0 65320.0 205971.0 211828.0 123921.0 128870.0 162266.0 155351.0 132661.0 131823.0 182608.0 181297.0 117227.0 112124.0 0.0 8000.0 96663.0 91759.0 81411.0 80565.0 37057.0 40667.0 259559.0 257780.0 251718.0 251715.0 69152.0 73949.0 58555.0 63839.0 85830.0 92160.0 92809.0 100765.0 52718.0 44794.0 68525.0 61116.0 9783.0 17574.0 218801.0 214766.0 170972.0 177344.0 27956.0 30848.0 91176.0 95921.0 173638.0 171387.0 66908.0 73984.0 242000.0 246486.0 69544.0 67481.0 65791.0 64669.0 100987.0 97047.0 224045.0 220348.0 134385.0 139106.0 119791.0 127706.0 155235.0 163227.0 214115.0 207970.0 50482.0 45297.0 33292.0 155105.0 33292.0 33292.0 33292.0 33292.0 33292.0 33292.0 33292.0 155105.0 155105.0 155105.0 155105.0 155105.0 155105.0 155105.0
235373.0 233972.0 179269.0 174600.0 272944.0 268782.0 116986.0 120529.0 56062.0 57410.0 200237.0 206094.0 115972.0 120984.0 154909.0 148079.0 124745.0 123851.0 175321.0 174164.0 109243.0 104180.0 8000.0 0.0 88779.0 83989.0 78762.0 77197.0 44365.0 47369.0 252105.0 250420.0 244723.0 244851.0 72026.0 76098.0 62117.0 66670.0 77854.0 84234.0 90303.0 98094.0 55813.0 47749.0 74285.0 67236.0 16165.0 23438.0 212144.0 207969.0 164385.0 170627.0 35883.0 38321.0 83940.0 88899.0 168266.0 166296.0 58950.0 66105.0 236266.0 240752.0 61562.0 59491.0 58407.0 56945.0 93304.0 89567.0 216867.0 213059.0 128915.0 133347.0 111819.0 119727.0 149501.0 157493.0 206581.0 200503.0 43191.0 38573.0 35337.0 149371.0 35337.0 35337.0 35337.0 35337.0 35337.0 35337.0 35337.0 149371.0 149371.0 149371.0 149371.0 149371.0 149371.0 149371.0
181461.0 177470.0 138537.0 137941.0 212462.0 206946.0 96378.0 104030.0 46780.0 39567.0 145771.0 150517.0 27900.0 32207.0 95195.0 91679.0 36096.0 36379.0 114751.0 117337.0 31650.0 32837.0 96663.0 88779.0 0.0 7938.0 111946.0 104840.0 132540.0 134249.0 182809.0 183259.0 185326.0 187962.0 142392.0 142025.0 137235.0 137774.0 24149.0 28009.0 120275.0 123917.0 130149.0 123282.0 156982.0 151596.0 104332.0 110399.0 135961.0 130141.0 92079.0 95857.0 123525.0 123722.0 24737.0 30262.0 144332.0 146860.0 36352.0 35783.0 176975.0 182815.0 28320.0 33833.0 52246.0 45442.0 11448.0 17782.0 155306.0 149308.0 111816.0 110506.0 24762.0 32751.0 94573.0 101673.0 137403.0 133371.0 59948.0 68003.0 112043.0 96878.0 112043.0 112043.0 112043.0 112043.0 112043.0 112043.0 112043.0 96878.0 96878.0 96878.0 96878.0 96878.0 96878.0 96878.0
189225.0 185292.0 145635.0 144817.0 210302.0 205002.0 101567.0 109069.0 46665.0 38938.0 142094.0 147153.0 34638.0 37802.0 102898.0 99221.0 42083.0 43282.0 122557.0 125036.0 39549.0 40378.0 91759.0 83989.0 7938.0 0.0 112939.0 106084.0 128113.0 130191.0 190727.0 191194.0 193211.0 195804.0 140616.0 140703.0 134872.0 135854.0 27504.0 32950.0 121791.0 125885.0 127769.0 120660.0 153813.0 148120.0 99807.0 106171.0 136155.0 130673.0 91022.0 95386.0 118140.0 117962.0 17487.0 23688.0 150492.0 152749.0 35595.0 36902.0 174474.0 180081.0 25859.0 32666.0 52832.0 45391.0 10039.0 12281.0 163200.0 157226.0 117064.0 116164.0 32059.0 39907.0 90654.0 98001.0 145338.0 141306.0 58575.0 66386.0 105770.0 92464.0 105770.0 105770.0 105770.0 105770.0 105770.0 105770.0 105770.0 92464.0 92464.0 92464.0 92464.0 92464.0 92464.0 92464.0
182437.0 183360.0 122737.0 115840.0 322895.0 317770.0 62507.0 61030.0 66593.0 74566.0 252268.0 258051.0 128494.0 136572.0 120032.0 112062.0 137888.0 132661.0 136487.0 132020.0 110100.0 102249.0 81411.0 78762.0 111946.0 112939.0 0.0 7807.0 86815.0 81693.0 212555.0 208647.0 195748.0 193635.0 52781.0 46796.0 57569.0 51695.0 88416.0 87977.0 11595.0 19362.0 53955.0 54467.0 82151.0 82994.0 77379.0 74462.0 247682.0 241601.0 203838.0 207800.0 98712.0 105632.0 124479.0 131578.0 102030.0 97696.0 77889.0 76251.0 286755.0 292010.0 88900.0 81082.0 60113.0 67785.0 122362.0 124375.0 172667.0 171476.0 66731.0 74027.0 123151.0 128484.0 201049.0 208813.0 171617.0 164111.0 58543.0 53567.0 114021.0 201470.0 114021.0 114021.0 114021.0 114021.0 114021.0 114021.0 114021.0 201470.0 201470.0 201470.0 201470.0 201470.0 201470.0 201470.0
177307.0 177971.0 117717.0 111082.0 316247.0 311045.0 56347.0 55571.0 60055.0 68052.0 246087.0 251763.0 120896.0 129010.0 112985.0 105019.0 130263.0 124968.0 129807.0 125557.0 102360.0 94501.0 80565.0 77197.0 104840.0 106084.0 7807.0 0.0 89312.0 84671.0 206264.0 202519.0 190235.0 188353.0 58850.0 53376.0 62581.0 57275.0 81149.0 80471.0 16065.0 22189.0 58332.0 57872.0 87431.0 87670.0 77429.0 75268.0 240406.0 234267.0 196841.0 200687.0 99711.0 106309.0 118086.0 125223.0 98492.0 94668.0 71344.0 69266.0 280199.0 285543.0 82469.0 74574.0 53360.0 61200.0 115392.0 117665.0 166607.0 165192.0 61882.0 68822.0 115552.0 120805.0 194766.0 202485.0 164861.0 157415.0 53101.0 48876.0 112529.0 195359.0 112529.0 112529.0 112529.0 112529.0 112529.0 112529.0 112529.0 195359.0 195359.0 195359.0 195359.0 195359.0 195359.0 195359.0
263331.0 263034.0 204655.0 198714.0 314602.0 310440.0 141359.0 142692.0 94745.0 98127.0 241895.0 247751.0 159223.0 164661.0 188658.0 181219.0 168235.0 166803.0 208244.0 205834.0 150461.0 144609.0 37057.0 44365.0 132540.0 128113.0 86815.0 89312.0 0.0 7456.0 285945.0 283407.0 274649.0 273738.0 50673.0 58212.0 38813.0 46609.0 119218.0 124650.0 96383.0 104437.0 37128.0 33135.0 35920.0 27475.0 28321.0 22332.0 255644.0 251710.0 207777.0 214246.0 21521.0 29168.0 128212.0 132974.0 187695.0 183978.0 100286.0 106255.0 277924.0 282410.0 104705.0 101452.0 94786.0 95891.0 137556.0 133932.0 248499.0 245662.0 150012.0 156135.0 154821.0 162578.0 191159.0 199150.0 241443.0 234782.0 79916.0 72686.0 57108.0 191029.0 57108.0 57108.0 57108.0 57108.0 57108.0 57108.0 57108.0 191029.0 191029.0 191029.0 191029.0 191029.0 191029.0 191029.0
259954.0 259864.0 200985.0 194855.0 319140.0 314978.0 137857.0 138824.0 94721.0 98652.0 246434.0 252290.0 160491.0 166216.0 186683.0 179138.0 169642.0 167873.0 206012.0 203340.0 150787.0 144675.0 40667.0 47369.0 134249.0 130191.0 81693.0 84671.0 7456.0 0.0 283741.0 281013.0 271624.0 270513.0 43380.0 51032.0 31594.0 39463.0 119775.0 124832.0 90860.0 98839.0 30433.0 27357.0 29382.0 21190.0 31237.0 24133.0 259422.0 255313.0 211614.0 217936.0 28723.0 36493.0 131236.0 136267.0 183164.0 179218.0 100996.0 106509.0 282462.0 286948.0 106146.0 102383.0 94188.0 95921.0 139802.0 136580.0 245878.0 243256.0 145926.0 152272.0 155953.0 163602.0 195697.0 203689.0 239571.0 232786.0 79698.0 72127.0 63495.0 195567.0 63495.0 63495.0 63495.0 63495.0 63495.0 63495.0 63495.0 195567.0 195567.0 195567.0 195567.0 195567.0 195567.0 195567.0
51844.0 44542.0 96856.0 105255.0 309277.0 301443.0 150048.0 152209.0 196260.0 196426.0 277659.0 277480.0 159802.0 162051.0 97463.0 104749.0 157321.0 151810.0 77729.0 80873.0 151788.0 153488.0 259559.0 252105.0 182809.0 190727.0 212555.0 206264.0 285945.0 283741.0 0.0 8088.0 34815.0 42858.0 265113.0 259348.0 268070.0 263393.0 179092.0 171316.0 209770.0 205151.0 262893.0 260309.0 293006.0 292056.0 262985.0 265488.0 220411.0 212631.0 213113.0 208869.0 286951.0 290382.0 205647.0 208660.0 128083.0 136112.0 195880.0 187652.0 286371.0 294316.0 198490.0 196587.0 193769.0 195498.0 188245.0 196744.0 40799.0 41079.0 148385.0 140314.0 160204.0 153580.0 241626.0 244402.0 45960.0 51607.0 209095.0 214935.0 284593.0 247775.0 284593.0 284593.0 284593.0 284593.0 284593.0 284593.0 284593.0 247775.0 247775.0 247775.0 247775.0 247775.0 247775.0 247775.0
43951.0 36825.0 91183.0 99530.0 314951.0 307144.0 146192.0 147989.0 194787.0 195279.0 281835.0 281856.0 161019.0 163668.0 95516.0 102528.0 159005.0 153213.0 75296.0 77705.0 151970.0 153259.0 257780.0 250420.0 183259.0 191194.0 208647.0 202519.0 283407.0 281013.0 8088.0 0.0 26743.0 34774.0 261327.0 255404.0 264600.0 259747.0 178480.0 170611.0 205488.0 200649.0 259560.0 257196.0 289548.0 288812.0 260928.0 263211.0 225686.0 217856.0 216952.0 212937.0 284999.0 288626.0 206472.0 209736.0 122015.0 129977.0 194869.0 186550.0 291473.0 299400.0 197925.0 195707.0 192019.0 194072.0 189128.0 197650.0 36042.0 37756.0 143808.0 135811.0 161155.0 154772.0 244800.0 247801.0 45856.0 50515.0 207299.0 212921.0 283373.0 250835.0 283373.0 283373.0 283373.0 283373.0 283373.0 283373.0 283373.0 250835.0 250835.0 250835.0 250835.0 250835.0 250835.0 250835.0
18123.0 13011.0 73937.0 81787.0 333070.0 325374.0 134271.0 134741.0 190323.0 191902.0 295181.0 295847.0 165912.0 169801.0 91924.0 97651.0 165425.0 158837.0 71331.0 70908.0 153677.0 153590.0 251718.0 244723.0 185326.0 193211.0 195748.0 190235.0 274649.0 271624.0 34815.0 26743.0 0.0 8111.0 248483.0 242055.0 252803.0 247384.0 177111.0 169055.0 191327.0 185767.0 248256.0 246648.0 277664.0 277656.0 253912.0 255443.0 242830.0 234878.0 229574.0 226317.0 278191.0 282454.0 209484.0 213531.0 102427.0 110016.0 191952.0 183435.0 307791.0 315630.0 196457.0 193216.0 186654.0 189773.0 192526.0 201025.0 30066.0 36784.0 129351.0 121770.0 165186.0 159694.0 255101.0 258809.0 53141.0 54019.0 201607.0 206437.0 279075.0 260732.0 279075.0 279075.0 279075.0 279075.0 279075.0 279075.0 279075.0 260732.0 260732.0 260732.0 260732.0 260732.0 260732.0 260732.0
12134.0 10896.0 71104.0 78614.0 339631.0 331965.0 132786.0 132782.0 190998.0 192905.0 300610.0 301436.0 169415.0 173622.0 93633.0 98877.0 169342.0 162571.0 73343.0 72035.0 156356.0 155875.0 251715.0 244851.0 187962.0 195804.0 193635.0 188353.0 273738.0 270513.0 42858.0 34774.0 8111.0 0.0 246258.0 239669.0 250927.0 245326.0 178780.0 170705.0 188784.0 182986.0 246555.0 245202.0 275715.0 275950.0 253603.0 254889.0 249233.0 241263.0 234909.0 231845.0 277901.0 282358.0 212307.0 216563.0 98245.0 105619.0 193095.0 184552.0 313941.0 321753.0 198020.0 194484.0 187061.0 190501.0 195512.0 203976.0 33796.0 41251.0 126990.0 119617.0 168457.0 163235.0 259800.0 263687.0 58642.0 58633.0 201857.0 206420.0 279587.0 265317.0 279587.0 279587.0 279587.0 279587.0 279587.0 279587.0 279587.0 265317.0 265317.0 265317.0 265317.0 265317.0 265317.0 265317.0
234961.0 236046.0 175242.0 168141.0 342213.0 338045.0 115135.0 113803.0 96426.0 102971.0 269526.0 275382.0 164874.0 172017.0 171224.0 163290.0 174461.0 170819.0 188533.0 184395.0 150195.0 142886.0 69152.0 72026.0 142392.0 140616.0 52781.0 58850.0 50673.0 43380.0 265113.0 261327.0 248483.0 246258.0 0.0 8242.0 11955.0 5358.0 122376.0 124932.0 58008.0 64863.0 16455.0 24377.0 30724.0 34118.0 60227.0 53103.0 276048.0 270945.0 229342.0 234678.0 70345.0 78341.0 146824.0 153098.0 152801.0 147613.0 106095.0 108521.0 305518.0 310040.0 114768.0 108562.0 92698.0 97788.0 150655.0 149829.0 225380.0 224039.0 119269.0 126720.0 159747.0 166457.0 218777.0 226771.0 223491.0 216111.0 82453.0 74395.0 100102.0 218659.0 100102.0 100102.0 100102.0 100102.0 100102.0 100102.0 100102.0 218659.0 218659.0 218659.0 218659.0 218659.0 218659.0 218659.0
228282.0 229539.0 168588.0 161362.0 344385.0 340060.0 109301.0 107574.0 95562.0 102465.0 271689.0 277545.0 163588.0 170946.0 166278.0 158320.0 173187.0 169218.0 183164.0 178797.0 148101.0 140638.0 73949.0 76098.0 142025.0 140703.0 46796.0 53376.0 58212.0 51032.0 259348.0 255404.0 242055.0 239669.0 8242.0 0.0 19443.0 11616.0 121207.0 123251.0 50999.0 57527.0 22272.0 29482.0 38616.0 42335.0 65458.0 58704.0 276603.0 271316.0 230266.0 235386.0 77313.0 85293.0 147834.0 154291.0 145532.0 140185.0 105676.0 107465.0 307717.0 312204.0 114862.0 108301.0 91304.0 96924.0 150721.0 150361.0 219405.0 218270.0 112720.0 120308.0 158392.0 164872.0 220912.0 228899.0 218235.0 210779.0 82180.0 74320.0 105724.0 220823.0 105724.0 105724.0 105724.0 105724.0 105724.0 105724.0 105724.0 220823.0 220823.0 220823.0 220823.0 220823.0 220823.0 220823.0
239841.0 240553.0 180190.0 173384.0 333796.0 329635.0 118709.0 118146.0 92313.0 98292.0 261089.0 266945.0 160864.0 167684.0 172890.0 165030.0 170399.0 167229.0 190903.0 187201.0 147409.0 140365.0 58555.0 62117.0 137235.0 134872.0 57569.0 62581.0 38813.0 31594.0 268070.0 264600.0 252803.0 250927.0 11955.0 19443.0 0.0 7962.0 118442.0 121704.0 64576.0 72019.0 7103.0 14764.0 24949.0 25582.0 49312.0 41930.0 269377.0 264506.0 222290.0 227878.0 58400.0 66395.0 139885.0 145914.0 159232.0 154462.0 101268.0 104546.0 297118.0 301604.0 109179.0 103497.0 89381.0 93659.0 144889.0 143471.0 228814.0 227072.0 124223.0 131349.0 155856.0 162863.0 210352.0 218343.0 225564.0 218340.0 77721.0 69537.0 88720.0 210223.0 88720.0 88720.0 88720.0 88720.0 88720.0 88720.0 88720.0 210223.0 210223.0 210223.0 210223.0 210223.0 210223.0 210223.0
234129.0 235033.0 174423.0 167466.0 336957.0 332811.0 113615.0 112643.0 92042.0 98443.0 264280.0 270136.0 160575.0 167631.0 168917.0 161009.0 170152.0 166645.0 186532.0 182581.0 146254.0 139024.0 63839.0 66670.0 137774.0 135854.0 51695.0 57275.0 46609.0 39463.0 263393.0 259747.0 247384.0 245326.0 5358.0 11616.0 7962.0 0.0 118071.0 120836.0 57898.0 65112.0 11212.0 19049.0 30550.0 32605.0 54972.0 47920.0 271114.0 266059.0 224324.0 229712.0 65773.0 73761.0 141809.0 148040.0 152738.0 147778.0 101533.0 104190.0 300260.0 304794.0 110026.0 103942.0 88535.0 93401.0 145893.0 144934.0 223863.0 222341.0 118414.0 125712.0 155480.0 162280.0 213534.0 221529.0 221377.0 214061.0 77882.0 69777.0 94953.0 213414.0 94953.0 94953.0 94953.0 94953.0 94953.0 94953.0 94953.0 213414.0 213414.0 213414.0 213414.0 213414.0 213414.0 213414.0
171072.0 168003.0 122986.0 121237.0 236611.0 231089.0 74610.0 81948.0 26131.0 21125.0 169446.0 174366.0 42504.0 49740.0 85210.0 80055.0 52086.0 48845.0 105787.0 106815.0 31416.0 26609.0 85830.0 77854.0 24149.0 27504.0 88416.0 81149.0 119218.0 119775.0 179092.0 178480.0 177111.0 178780.0 122376.0 121207.0 118442.0 118071.0 0.0 8078.0 96387.0 99846.0 111469.0 105231.0 139838.0 135281.0 91954.0 96909.0 159270.0 153198.0 116101.0 119655.0 113718.0 115407.0 43686.0 50558.0 124828.0 126561.0 19002.0 13899.0 201097.0 206896.0 19458.0 18449.0 29955.0 24789.0 35361.0 39783.0 147605.0 142504.0 90116.0 89740.0 37427.0 44487.0 118066.0 125334.0 133133.0 127966.0 40995.0 49142.0 106667.0 119965.0 106667.0 106667.0 106667.0 106667.0 106667.0 106667.0 106667.0 119965.0 119965.0 119965.0 119965.0 119965.0 119965.0 119965.0
162996.0 159926.0 115222.0 113647.0 239560.0 233856.0 68636.0 76187.0 30176.0 26855.0 173738.0 178399.0 40756.0 48654.0 77146.0 71978.0 50294.0 45967.0 97736.0 98737.0 26028.0 20020.0 92160.0 84234.0 28009.0 32950.0 87977.0 80471.0 124650.0 124832.0 171316.0 170611.0 169055.0 170705.0 124932.0 123251.0 121704.0 120836.0 8078.0 0.0 95181.0 98027.0 114830.0 108943.0 143778.0 139586.0 97835.0 102427.0 160375.0 154043.0 118472.0 121545.0 120110.0 122112.0 49935.0 56543.0 117924.0 119944.0 25389.0 18403.0 204381.0 210372.0 27438.0 25504.0 32337.0 28938.0 39454.0 45020.0 139577.0 134523.0 84125.0 83266.0 35448.0 41624.0 122581.0 129655.0 125359.0 120098.0 45283.0 53221.0 113965.0 124850.0 113965.0 113965.0 113965.0 113965.0 113965.0 113965.0 113965.0 124850.0 124850.0 124850.0 124850.0 124850.0 124850.0 124850.0
177340.0 178732.0 117683.0 110385.0 332051.0 326791.0 60473.0 57563.0 76012.0 84010.0 262108.0 267753.0 135182.0 143419.0 119700.0 111766.0 144416.0 138787.0 134949.0 129925.0 115916.0 108013.0 92809.0 90303.0 120275.0 121791.0 11595.0 16065.0 96383.0 90860.0 209770.0 205488.0 191327.0 188784.0 58008.0 50999.0 64576.0 57898.0 96387.0 95181.0 0.0 8154.0 61910.0 63503.0 88382.0 90155.0 88493.0 85241.0 255468.0 249209.0 212347.0 216038.0 109301.0 116384.0 134060.0 141209.0 94859.0 89906.0 87284.0 84905.0 296064.0 301457.0 98446.0 90527.0 69221.0 77135.0 130978.0 133474.0 169446.0 168780.0 62011.0 69799.0 129846.0 134715.0 210763.0 218466.0 170158.0 162508.0 69095.0 64579.0 125530.0 211398.0 125530.0 125530.0 125530.0 125530.0 125530.0 125530.0 125530.0 211398.0 211398.0 211398.0 211398.0 211398.0 211398.0 211398.0
171420.0 173073.0 111920.0 104417.0 336165.0 330780.0 57127.0 53303.0 80842.0 88809.0 266947.0 272446.0 137409.0 145746.0 116899.0 109034.0 146482.0 140555.0 131286.0 125924.0 117544.0 109647.0 100765.0 98094.0 123917.0 125885.0 19362.0 22189.0 104437.0 98839.0 205151.0 200649.0 185767.0 182986.0 64863.0 57527.0 72019.0 65112.0 99846.0 98027.0 8154.0 0.0 69646.0 71489.0 95450.0 97558.0 96581.0 93385.0 258383.0 251976.0 215947.0 219392.0 117454.0 124532.0 138795.0 145974.0 88005.0 82753.0 92020.0 89011.0 300348.0 305874.0 103263.0 95289.0 73842.0 81898.0 134834.0 137756.0 164631.0 164286.0 56847.0 64850.0 132100.0 136581.0 215511.0 223144.0 166440.0 158716.0 75039.0 71051.0 133371.0 216364.0 133371.0 133371.0 133371.0 133371.0 133371.0 133371.0 133371.0 216364.0 216364.0 216364.0 216364.0 216364.0 216364.0 216364.0
235586.0 236108.0 176040.0 169403.0 326886.0 322844.0 114012.0 113825.0 85338.0 91250.0 254292.0 260148.0 153864.0 160650.0 167280.0 159457.0 163391.0 160277.0 185544.0 182026.0 140591.0 133602.0 52718.0 55813.0 130149.0 127769.0 53955.0 58332.0 37128.0 30433.0 262893.0 259560.0 248256.0 246555.0 16455.0 22272.0 7103.0 11212.0 111469.0 114830.0 61910.0 69646.0 0.0 8072.0 30421.0 29401.0 43775.0 36711.0 262311.0 257425.0 215255.0 220820.0 55234.0 63189.0 132829.0 138884.0 155967.0 151473.0 94212.0 97578.0 290320.0 294806.0 102081.0 96424.0 82529.0 86681.0 137787.0 136379.0 223871.0 221955.0 120200.0 127132.0 148871.0 155912.0 203554.0 211547.0 220059.0 212901.0 70691.0 62504.0 83749.0 203425.0 83749.0 83749.0 83749.0 83749.0 83749.0 83749.0 83749.0 203425.0 203425.0 203425.0 203425.0 203425.0 203425.0 203425.0
234412.0 234659.0 175090.0 168702.0 319044.0 314887.0 112427.0 112803.0 79141.0 84728.0 246337.0 252194.0 147473.0 154096.0 164075.0 156330.0 156958.0 154075.0 182741.0 179527.0 134846.0 128021.0 44794.0 47749.0 123282.0 120660.0 54467.0 57872.0 33135.0 27357.0 260309.0 257196.0 246648.0 245202.0 24377.0 29482.0 14764.0 19049.0 105231.0 108943.0 63503.0 71489.0 8072.0 0.0 34958.0 32042.0 36032.0 29230.0 254784.0 249973.0 207626.0 213265.0 49326.0 57165.0 125276.0 131249.0 156254.0 152123.0 87604.0 91381.0 282366.0 286852.0 95094.0 89693.0 76789.0 80466.0 130654.0 129023.0 221688.0 219502.0 119576.0 126210.0 142547.0 149717.0 195601.0 203592.0 216970.0 209930.0 64276.0 56101.0 76242.0 195471.0 76242.0 76242.0 76242.0 76242.0 76242.0 76242.0 76242.0 195471.0 195471.0 195471.0 195471.0 195471.0 195471.0 195471.0
264570.0 265376.0 204883.0 197976.0 347127.0 342964.0 143634.0 142958.0 113835.0 119102.0 274420.0 280276.0 181859.0 188259.0 197655.0 189817.0 191281.0 188652.0 215791.0 212135.0 169725.0 162951.0 68525.0 74285.0 156982.0 153813.0 82151.0 87431.0 35920.0 29382.0 293006.0 289548.0 277664.0 275715.0 30724.0 38616.0 24949.0 30550.0 139838.0 143778.0 88382.0 95450.0 30421.0 34958.0 0.0 8543.0 58761.0 51038.0 285960.0 281526.0 238352.0 244391.0 57298.0 64628.0 156809.0 162311.0 183241.0 178191.0 121859.0 126049.0 310449.0 314934.0 128667.0 123763.0 111706.0 115145.0 163699.0 161363.0 253761.0 252015.0 148881.0 156104.0 177015.0 184303.0 223683.0 231675.0 250392.0 243199.0 98845.0 90719.0 92852.0 223554.0 92852.0 92852.0 92852.0 92852.0 92852.0 92852.0 92852.0 223554.0 223554.0 223554.0 223554.0 223554.0 223554.0 223554.0
264963.0 265508.0 205387.0 198690.0 339794.0 335632.0 143404.0 143204.0 109475.0 114350.0 267087.0 272943.0 176970.0 183154.0 196053.0 188285.0 186315.0 183967.0 214583.0 211214.0 165602.0 159022.0 61116.0 67236.0 151596.0 148120.0 82994.0 87670.0 27475.0 21190.0 292056.0 288812.0 277656.0 275950.0 34118.0 42335.0 25582.0 32605.0 135281.0 139586.0 90155.0 97558.0 29401.0 32042.0 8543.0 0.0 51422.0 43823.0 279281.0 274976.0 231577.0 237733.0 48785.0 56088.0 150430.0 155763.0 184793.0 180044.0 116988.0 121610.0 303116.0 307602.0 123286.0 118735.0 107822.0 110757.0 157926.0 155276.0 253178.0 251169.0 149494.0 156490.0 172218.0 179638.0 216351.0 224342.0 248924.0 241844.0 94388.0 86368.0 84514.0 216221.0 84514.0 84514.0 84514.0 84514.0 84514.0 84514.0 84514.0 216221.0 216221.0 216221.0 216221.0 216221.0 216221.0 216221.0
243715.0 242774.0 186351.0 181128.0 288399.0 284237.0 123214.0 125843.0 68519.0 71040.0 215692.0 221548.0 131217.0 136495.0 165532.0 158400.0 140140.0 138926.0 185640.0 183925.0 123346.0 117855.0 9783.0 16165.0 104332.0 99807.0 77379.0 77429.0 28321.0 31237.0 262985.0 260928.0 253912.0 253603.0 60227.0 65458.0 49312.0 54972.0 91954.0 97835.0 88493.0 96581.0 43775.0 36032.0 58761.0 51422.0 0.0 7799.0 228201.0 224077.0 180409.0 186705.0 24300.0 29503.0 100102.0 105052.0 172827.0 170135.0 72953.0 79469.0 251721.0 256207.0 76680.0 73869.0 69625.0 69559.0 109235.0 105663.0 226727.0 223332.0 133862.0 139049.0 126914.0 134741.0 164956.0 172947.0 217837.0 211488.0 54323.0 48052.0 40422.0 164826.0 40422.0 40422.0 40422.0 40422.0 40422.0 40422.0 40422.0 164826.0 164826.0 164826.0 164826.0 164826.0 164826.0 164826.0
244788.0 244103.0 186859.0 181360.0 296091.0 291929.0 123525.0 125676.0 72648.0 75833.0 223384.0 229241.0 136943.0 142467.0 168045.0 160759.0 145993.0 144489.0 187928.0 185898.0 128185.0 122412.0 17574.0 23438.0 110399.0 106171.0 74462.0 75268.0 22332.0 24133.0 265488.0 263211.0 255443.0 254889.0 53103.0 58704.0 41930.0 47920.0 96909.0 102427.0 85241.0 93385.0 36711.0 29230.0 51038.0 43823.0 7799.0 0.0 235575.0 231372.0 187823.0 194051.0 24466.0 31170.0 107135.0 112240.0 172087.0 169050.0 77963.0 84025.0 259413.0 263899.0 82453.0 79120.0 73056.0 73765.0 115732.0 112449.0 228677.0 225526.0 133469.0 139010.0 132514.0 140258.0 172648.0 180639.0 220623.0 214120.0 57979.0 51062.0 47048.0 172518.0 47048.0 47048.0 47048.0 47048.0 47048.0 47048.0 47048.0 172518.0 172518.0 172518.0 172518.0 172518.0 172518.0 172518.0
249232.0 242043.0 234771.0 238467.0 90801.0 83370.0 219548.0 227504.0 182552.0 175007.0 70507.0 66403.0 121795.0 113319.0 184819.0 187303.0 113480.0 120531.0 194015.0 201040.0 143087.0 150639.0 218801.0 212144.0 135961.0 136155.0 247682.0 240406.0 255644.0 259422.0 220411.0 225686.0 242830.0 249233.0 276048.0 276603.0 269377.0 271114.0 159270.0 160375.0 255468.0 258383.0 262311.0 254784.0 285960.0 279281.0 228201.0 235575.0 0.0 8013.0 47890.0 41572.0 240324.0 237672.0 129510.0 123700.0 254417.0 259796.0 171684.0 171733.0 66258.0 74243.0 161861.0 168813.0 188207.0 181238.0 126243.0 126257.0 217565.0 209541.0 233266.0 228897.0 126951.0 123876.0 74070.0 68620.0 191164.0 193099.0 194670.0 202347.0 224102.0 80125.0 224102.0 224102.0 224102.0 224102.0 224102.0 224102.0 224102.0 80125.0 80125.0 80125.0 80125.0 80125.0 80125.0 80125.0
241231.0 234050.0 226903.0 230651.0 98814.0 91377.0 212392.0 220336.0 176853.0 169397.0 75457.0 71962.0 115041.0 106581.0 177001.0 179564.0 106556.0 113480.0 186060.0 193106.0 136174.0 143789.0 214766.0 207969.0 130141.0 130673.0 241601.0 234267.0 251710.0 255313.0 212631.0 217856.0 234878.0 241263.0 270945.0 271316.0 264506.0 266059.0 153198.0 154043.0 249209.0 251976.0 257425.0 249973.0 281526.0 274976.0 224077.0 231372.0 8013.0 0.0 44614.0 37555.0 236833.0 234236.0 124802.0 119224.0 246750.0 252187.0 166091.0 165857.0 73847.0 81822.0 156471.0 163276.0 182364.0 175528.0 120699.0 121125.0 209562.0 201539.0 225995.0 221528.0 120244.0 116915.0 73664.0 68904.0 183168.0 185088.0 189245.0 197005.0 220667.0 80081.0 220667.0 220667.0 220667.0 220667.0 220667.0 220667.0 220667.0 80081.0 80081.0 80081.0 80081.0 80081.0 80081.0 80081.0
232639.0 226293.0 207776.0 210089.0 121493.0 115534.0 182475.0 190453.0 137681.0 129897.0 65785.0 67343.0 83746.0 75578.0 157629.0 158346.0 77306.0 85119.0 170836.0 176810.0 105488.0 112301.0 170972.0 164385.0 92079.0 91022.0 203838.0 196841.0 207777.0 211614.0 213113.0 216952.0 229574.0 234909.0 229342.0 230266.0 222290.0 224324.0 116101.0 118472.0 212347.0 215947.0 215255.0 207626.0 238352.0 231577.0 180409.0 187823.0 47890.0 44614.0 0.0 8049.0 192467.0 189826.0 82518.0 76377.0 222995.0 227406.0 126545.0 127594.0 87478.0 94213.0 116188.0 123520.0 143797.0 136413.0 81477.0 80218.0 201516.0 193757.0 197116.0 193838.0 88318.0 87450.0 35058.0 34068.0 176440.0 176455.0 148900.0 156329.0 176257.0 42206.0 176257.0 176257.0 176257.0 176257.0 176257.0 176257.0 176257.0 42206.0 42206.0 42206.0 42206.0 42206.0 42206.0 42206.0
229962.0 223452.0 207065.0 209687.0 119799.0 113502.0 184179.0 192169.0 142008.0 134324.0 68955.0 69619.0 85289.0 76936.0 156782.0 157902.0 78183.0 85853.0 169198.0 175412.0 107053.0 114136.0 177344.0 170627.0 95857.0 95386.0 207800.0 200687.0 214246.0 217936.0 208869.0 212937.0 226317.0 231845.0 234678.0 235386.0 227878.0 229712.0 119655.0 121545.0 216038.0 219392.0 220820.0 213265.0 244391.0 237733.0 186705.0 194051.0 41572.0 37555.0 8049.0 0.0 199278.0 196684.0 87993.0 82130.0 223325.0 227978.0 130981.0 131579.0 86958.0 94047.0 120878.0 128027.0 147926.0 140716.0 85629.0 85052.0 198652.0 190820.0 198595.0 195016.0 90093.0 88513.0 42748.0 41104.0 173250.0 173600.0 153676.0 161242.0 183114.0 49871.0 183114.0 183114.0 183114.0 183114.0 183114.0 183114.0 183114.0 49871.0 49871.0 49871.0 49871.0 49871.0 49871.0 49871.0
268011.0 267071.0 210553.0 205243.0 298264.0 294102.0 147339.0 149768.0 91591.0 93274.0 225557.0 231413.0 151086.0 155667.0 189539.0 182480.0 159618.0 159142.0 209734.0 208127.0 145088.0 140063.0 27956.0 35883.0 123525.0 118140.0 98712.0 99711.0 21521.0 28723.0 286951.0 284999.0 278191.0 277901.0 70345.0 77313.0 58400.0 65773.0 113718.0 120110.0 109301.0 117454.0 55234.0 49326.0 57298.0 48785.0 24300.0 24466.0 240324.0 236833.0 192467.0 199278.0 0.0 7995.0 115629.0 119599.0 196426.0 193471.0 94831.0 101939.0 261586.0 266072.0 97024.0 95326.0 93287.0 92541.0 126975.0 122296.0 250925.0 247450.0 157670.0 163041.0 147117.0 155087.0 174821.0 182812.0 241660.0 235405.0 77938.0 72083.0 36893.0 174691.0 36893.0 36893.0 36893.0 36893.0 36893.0 36893.0 36893.0 174691.0 174691.0 174691.0 174691.0 174691.0 174691.0 174691.0
272639.0 271502.0 215632.0 210514.0 295613.0 291451.0 152607.0 155331.0 94375.0 95418.0 222906.0 228762.0 151489.0 155692.0 193110.0 186197.0 159784.0 159702.0 213455.0 212110.0 146617.0 141932.0 30848.0 38321.0 123722.0 117962.0 105632.0 106309.0 29168.0 36493.0 290382.0 288626.0 282454.0 282358.0 78341.0 85293.0 66395.0 73761.0 115407.0 122112.0 116384.0 124532.0 63189.0 57165.0 64628.0 56088.0 29503.0 31170.0 237672.0 234236.0 189826.0 196684.0 7995.0 0.0 114275.0 117834.0 202318.0 199568.0 96728.0 104184.0 258935.0 263421.0 98015.0 96958.0 96623.0 95244.0 126467.0 121341.0 254870.0 251195.0 163364.0 168516.0 147717.0 155735.0 172170.0 180161.0 244893.0 238786.0 81327.0 76025.0 31861.0 172040.0 31861.0 31861.0 31861.0 31861.0 31861.0 31861.0 31861.0 172040.0 172040.0 172040.0 172040.0 172040.0 172040.0 172040.0
206003.0 201881.0 163101.0 162303.0 198647.0 193746.0 118272.0 125634.0 58050.0 50053.0 128155.0 133698.0 46513.0 46859.0 119845.0 116413.0 51677.0 55059.0 139229.0 141984.0 55995.0 57574.0 91176.0 83940.0 24737.0 17487.0 124479.0 118086.0 128212.0 131236.0 205647.0 206472.0 209484.0 212307.0 146824.0 147834.0 139885.0 141809.0 43686.0 49935.0 134060.0 138795.0 132829.0 125276.0 156809.0 150430.0 100102.0 107135.0 129510.0 124802.0 82518.0 87993.0 115629.0 114275.0 0.0 7195.0 167773.0 169878.0 46797.0 50493.0 162355.0 167535.0 35617.0 43541.0 64955.0 56942.0 17433.0 9094.0 179428.0 173243.0 133780.0 133180.0 45479.0 52530.0 76725.0 84406.0 160679.0 157013.0 67283.0 74321.0 100929.0 77703.0 100929.0 100929.0 100929.0 100929.0 100929.0 100929.0 100929.0 77703.0 77703.0 77703.0 77703.0 77703.0 77703.0 77703.0
210540.0 206228.0 168779.0 168198.0 191675.0 186836.0 125053.0 132472.0 65205.0 57210.0 120973.0 126545.0 48905.0 48009.0 124664.0 121545.0 52894.0 57166.0 143728.0 146772.0 60638.0 62889.0 95921.0 88899.0 30262.0 23688.0 131578.0 125223.0 132974.0 136267.0 208660.0 209736.0 213531.0 216563.0 153098.0 154291.0 145914.0 148040.0 50558.0 56543.0 141209.0 145974.0 138884.0 131249.0 162311.0 155763.0 105052.0 112240.0 123700.0 119224.0 76377.0 82130.0 119599.0 117834.0 7195.0 0.0 174177.0 176425.0 53965.0 57675.0 155332.0 160458.0 42763.0 50704.0 72132.0 64106.0 21068.0 12746.0 183465.0 177111.0 140560.0 139804.0 48615.0 55096.0 69560.0 77262.0 164054.0 160663.0 74179.0 81086.0 104309.0 70508.0 104309.0 104309.0 104309.0 104309.0 104309.0 104309.0 104309.0 70508.0 70508.0 70508.0 70508.0 70508.0 70508.0 70508.0
86211.0 89417.0 31984.0 23725.0 342561.0 335840.0 52891.0 47954.0 124073.0 129324.0 285277.0 288688.0 140257.0 147923.0 71431.0 67510.0 145758.0 137906.0 71470.0 63517.0 119325.0 113991.0 173638.0 168266.0 144332.0 150492.0 102030.0 98492.0 187695.0 183164.0 128083.0 122015.0 102427.0 98245.0 152801.0 145532.0 159232.0 152738.0 124828.0 117924.0 94859.0 88005.0 155967.0 156254.0 183241.0 184793.0 172827.0 172087.0 254417.0 246750.0 222995.0 223325.0 196426.0 202318.0 167773.0 174177.0 0.0 8160.0 131043.0 123328.0 310231.0 317154.0 140110.0 133652.0 117772.0 124210.0 155199.0 162074.0 88027.0 90684.0 39388.0 36216.0 136421.0 135839.0 236025.0 242249.0 100271.0 92695.0 129391.0 130952.0 205338.0 239442.0 205338.0 205338.0 205338.0 205338.0 205338.0 205338.0 205338.0 239442.0 239442.0 239442.0 239442.0 239442.0 239442.0 239442.0
93535.0 97009.0 40144.0 31873.0 347456.0 340818.0 53014.0 47125.0 124112.0 129740.0 289077.0 292670.0 144225.0 152058.0 77992.0 73588.0 150101.0 142293.0 79108.0 71208.0 122996.0 117309.0 171387.0 166296.0 146860.0 152749.0 97696.0 94668.0 183978.0 179218.0 136112.0 129977.0 110016.0 105619.0 147613.0 140185.0 154462.0 147778.0 126561.0 119944.0 89906.0 82753.0 151473.0 152123.0 178191.0 180044.0 170135.0 169050.0 259796.0 252187.0 227406.0 227978.0 193471.0 199568.0 169878.0 176425.0 8160.0 0.0 131635.0 124171.0 314781.0 321616.0 141086.0 134361.0 117577.0 124338.0 157898.0 164519.0 96140.0 98842.0 38364.0 36891.0 140203.0 140037.0 239423.0 245798.0 108358.0 100758.0 128508.0 129565.0 203519.0 242642.0 203519.0 203519.0 203519.0 203519.0 203519.0 203519.0 203519.0 242642.0 242642.0 242642.0 242642.0 242642.0 242642.0 242642.0
184744.0 182233.0 133458.0 130675.0 245007.0 239906.0 78626.0 85031.0 11298.0 3353.0 174932.0 180492.0 60010.0 66492.0 100238.0 94310.0 69424.0 67020.0 120942.0 121123.0 50408.0 45245.0 66908.0 58950.0 36352.0 35595.0 77889.0 71344.0 100286.0 100996.0 195880.0 194869.0 191952.0 193095.0 106095.0 105676.0 101268.0 101533.0 19002.0 25389.0 87284.0 92020.0 94212.0 87604.0 121859.0 116988.0 72953.0 77963.0 171684.0 166091.0 126545.0 130981.0 94831.0 96728.0 46797.0 53965.0 131043.0 131635.0 0.0 8555.0 208883.0 214200.0 11271.0 3279.0 18189.0 10149.0 45442.0 46570.0 162910.0 158267.0 93687.0 94952.0 55231.0 62710.0 123521.0 131195.0 149981.0 144434.0 23651.0 31780.0 88850.0 124359.0 88850.0 88850.0 88850.0 88850.0 88850.0 88850.0 88850.0 124359.0 124359.0 124359.0 124359.0 124359.0 124359.0 124359.0
176189.0 173687.0 125069.0 122407.0 247203.0 241897.0 71247.0 77920.0 12245.0 8819.0 178362.0 183657.0 56388.0 63518.0 91771.0 85787.0 65962.0 62711.0 112474.0 112591.0 44278.0 38407.0 73984.0 66105.0 35783.0 36902.0 76251.0 69266.0 106255.0 106509.0 187652.0 186550.0 183435.0 184552.0 108521.0 107465.0 104546.0 104190.0 13899.0 18403.0 84905.0 89011.0 97578.0 91381.0 126049.0 121610.0 79469.0 84025.0 171733.0 165857.0 127594.0 131579.0 101939.0 104184.0 50493.0 57675.0 123328.0 124171.0 8555.0 0.0 211338.0 216880.0 16993.0 10482.0 16529.0 10915.0 46128.0 48759.0 154439.0 149854.0 86487.0 87367.0 51326.0 58349.0 126864.0 134387.0 141792.0 136155.0 27229.0 35329.0 96959.0 128140.0 96959.0 96959.0 96959.0 96959.0 96959.0 96959.0 96959.0 128140.0 128140.0 128140.0 128140.0 128140.0 128140.0 128140.0
313261.0 306312.0 293787.0 296571.0 36701.0 33285.0 269759.0 277722.0 220181.0 212196.0 40827.0 32890.0 171197.0 163055.0 243469.0 244795.0 164726.0 172502.0 255006.0 261524.0 192911.0 199604.0 242000.0 236266.0 176975.0 174474.0 286755.0 280199.0 277924.0 282462.0 286371.0 291473.0 307791.0 313941.0 305518.0 307717.0 297118.0 300260.0 201097.0 204381.0 296064.0 300348.0 290320.0 282366.0 310449.0 303116.0 251721.0 259413.0 66258.0 73847.0 87478.0 86958.0 261586.0 258935.0 162355.0 155332.0 310231.0 314781.0 208883.0 211338.0 0.0 7987.0 197863.0 205676.0 226851.0 219013.0 165763.0 162615.0 281630.0 273648.0 284505.0 281308.0 175696.0 174915.0 86809.0 78827.0 255483.0 256827.0 229448.0 236112.0 245365.0 88159.0 245365.0 245365.0 245365.0 245365.0 245365.0 245365.0 245365.0 88159.0 88159.0 88159.0 88159.0 88159.0 88159.0 88159.0
321004.0 314080.0 301040.0 303732.0 33444.0 31726.0 276176.0 284127.0 225493.0 217498.0 42998.0 35545.0 177808.0 169730.0 250731.0 251948.0 171519.0 179324.0 262476.0 268943.0 199476.0 206069.0 246486.0 240752.0 182815.0 180081.0 292010.0 285543.0 282410.0 286948.0 294316.0 299400.0 315630.0 321753.0 310040.0 312204.0 301604.0 304794.0 206896.0 210372.0 301457.0 305874.0 294806.0 286852.0 314934.0 307602.0 256207.0 263899.0 74243.0 81822.0 94213.0 94047.0 266072.0 263421.0 167535.0 160458.0 317154.0 321616.0 214200.0 216880.0 7987.0 0.0 203116.0 210976.0 232238.0 224343.0 171537.0 168122.0 289383.0 281407.0 291001.0 287925.0 182231.0 181650.0 91394.0 83470.0 263268.0 264555.0 234435.0 240970.0 249851.0 92214.0 249851.0 249851.0 249851.0 249851.0 249851.0 249851.0 249851.0 92214.0 92214.0 92214.0 92214.0 92214.0 92214.0 92214.0
190141.0 187219.0 140717.0 138432.0 234058.0 229030.0 88207.0 94912.0 22444.0 14457.0 163707.0 169307.0 54539.0 60071.0 104535.0 99189.0 63540.0 62300.0 125153.0 126005.0 49038.0 45429.0 69544.0 61562.0 28320.0 25859.0 88900.0 82469.0 104705.0 106146.0 198490.0 197925.0 196457.0 198020.0 114768.0 114862.0 109179.0 110026.0 19458.0 27438.0 98446.0 103263.0 102081.0 95094.0 128667.0 123286.0 76680.0 82453.0 161861.0 156471.0 116188.0 120878.0 97024.0 98015.0 35617.0 42763.0 140110.0 141086.0 11271.0 16993.0 197863.0 203116.0 0.0 7992.0 29453.0 21366.0 35893.0 35985.0 167011.0 161952.0 103473.0 104246.0 50272.0 58165.0 112321.0 120020.0 152534.0 147412.0 32813.0 40542.0 88120.0 113104.0 88120.0 88120.0 88120.0 88120.0 88120.0 88120.0 88120.0 113104.0 113104.0 113104.0 113104.0 113104.0 113104.0 113104.0
186270.0 183636.0 135522.0 132888.0 241821.0 236741.0 81375.0 87877.0 14519.0 6522.0 171667.0 177238.0 58256.0 64496.0 101388.0 95628.0 67580.0 65492.0 122085.0 122467.0 49762.0 45020.0 67481.0 59491.0 33833.0 32666.0 81082.0 74574.0 101452.0 102383.0 196587.0 195707.0 193216.0 194484.0 108562.0 108301.0 103497.0 103942.0 18449.0 25504.0 90527.0 95289.0 96424.0 89693.0 123763.0 118735.0 73869.0 79120.0 168813.0 163276.0 123520.0 128027.0 95326.0 96958.0 43541.0 50704.0 133652.0 134361.0 3279.0 10482.0 205676.0 210976.0 7992.0 0.0 21464.0 13402.0 42583.0 43459.0 164044.0 159276.0 96506.0 97619.0 53601.0 61219.0 120263.0 127944.0 150652.0 145227.0 26140.0 34170.0 88461.0 121085.0 88461.0 88461.0 88461.0 88461.0 88461.0 88461.0 88461.0 121085.0 121085.0 121085.0 121085.0 121085.0 121085.0 121085.0
177939.0 176167.0 123703.0 119998.0 262887.0 257701.0 64882.0 70479.0 7295.0 15040.0 193105.0 198632.0 72288.0 79678.0 96505.0 89692.0 81887.0 78123.0 116924.0 115915.0 58081.0 51250.0 65791.0 58407.0 52246.0 52832.0 60113.0 53360.0 94786.0 94188.0 193769.0 192019.0 186654.0 187061.0 92698.0 91304.0 89381.0 88535.0 29955.0 32337.0 69221.0 73842.0 82529.0 76789.0 111706.0 107822.0 69625.0 73056.0 188207.0 182364.0 143797.0 147926.0 93287.0 96623.0 64955.0 72132.0 117772.0 117577.0 18189.0 16529.0 226851.0 232238.0 29453.0 21464.0 0.0 8151.0 62341.0 64308.0 158540.0 154658.0 79240.0 81578.0 67109.0 73761.0 141677.0 149331.0 148379.0 142185.0 15349.0 22107.0 92538.0 142547.0 92538.0 92538.0 92538.0 92538.0 92538.0 92538.0 92538.0 142547.0 142547.0 142547.0 142547.0 142547.0 142547.0 142547.0
181704.0 179609.0 128664.0 125348.0 255115.0 249988.0 71412.0 77369.0 1363.0 6914.0 185067.0 190639.0 67227.0 74235.0 98749.0 92301.0 76784.0 73622.0 119363.0 118877.0 54952.0 48763.0 64669.0 56945.0 45442.0 45391.0 67785.0 61200.0 95891.0 95921.0 195498.0 194072.0 189773.0 190501.0 97788.0 96924.0 93659.0 93401.0 24789.0 28938.0 77135.0 81898.0 86681.0 80466.0 115145.0 110757.0 69559.0 73765.0 181238.0 175528.0 136413.0 140716.0 92541.0 95244.0 56942.0 64106.0 124210.0 124338.0 10149.0 10915.0 219013.0 224343.0 21366.0 13402.0 8151.0 0.0 55091.0 56608.0 161219.0 156996.0 86106.0 87998.0 62198.0 69261.0 133664.0 141343.0 149819.0 143900.0 16374.0 24429.0 89435.0 134468.0 89435.0 89435.0 89435.0 89435.0 89435.0 89435.0 89435.0 134468.0 134468.0 134468.0 134468.0 134468.0 134468.0 134468.0
189474.0 185166.0 148388.0 148118.0 201376.0 195946.0 107723.0 115404.0 56387.0 48769.0 134329.0 139106.0 29199.0 30445.0 103660.0 100694.0 35101.0 37822.0 122662.0 125751.0 39635.0 42363.0 100987.0 93304.0 11448.0 10039.0 122362.0 115392.0 137556.0 139802.0 188245.0 189128.0 192526.0 195512.0 150655.0 150721.0 144889.0 145893.0 35361.0 39454.0 130978.0 134834.0 137787.0 130654.0 163699.0 157926.0 109235.0 115732.0 126243.0 120699.0 81477.0 85629.0 126975.0 126467.0 17433.0 21068.0 155199.0 157898.0 45442.0 46128.0 165763.0 171537.0 35893.0 42583.0 62341.0 55091.0 0.0 8532.0 162460.0 156162.0 123137.0 121681.0 28053.0 35141.0 83126.0 90228.0 143363.0 139810.0 68571.0 76410.0 113808.0 85477.0 113808.0 113808.0 113808.0 113808.0 113808.0 113808.0 113808.0 85477.0 85477.0 85477.0 85477.0 85477.0 85477.0 85477.0
197868.0 193609.0 156137.0 155658.0 198585.0 193399.0 113652.0 121203.0 57827.0 49919.0 129874.0 135002.0 37434.0 37861.0 111932.0 108801.0 42654.0 45967.0 131059.0 134046.0 47914.0 50183.0 97047.0 89567.0 17782.0 12281.0 124375.0 117665.0 133932.0 136580.0 196744.0 197650.0 201025.0 203976.0 149829.0 150361.0 143471.0 144934.0 39783.0 45020.0 133474.0 137756.0 136379.0 129023.0 161363.0 155276.0 105663.0 112449.0 126257.0 121125.0 80218.0 85052.0 122296.0 121341.0 9094.0 12746.0 162074.0 164519.0 46570.0 48759.0 162615.0 168122.0 35985.0 43459.0 64308.0 56608.0 8532.0 0.0 170960.0 164680.0 129134.0 128057.0 36540.0 43476.0 78411.0 85801.0 151892.0 148341.0 68689.0 76194.0 108260.0 80183.0 108260.0 108260.0 108260.0 108260.0 108260.0 108260.0 108260.0 80183.0 80183.0 80183.0 80183.0 80183.0 80183.0 80183.0
31671.0 24800.0 56380.0 64804.0 308253.0 300679.0 110261.0 111952.0 161836.0 163013.0 267273.0 268271.0 135919.0 139949.0 62672.0 68927.0 135629.0 128936.0 41968.0 42802.0 123656.0 123713.0 224045.0 216867.0 155306.0 163200.0 172667.0 166607.0 248499.0 245878.0 40799.0 36042.0 30066.0 33796.0 225380.0 219405.0 228814.0 223863.0 147605.0 139577.0 169446.0 164631.0 223871.0 221688.0 253761.0 253178.0 226727.0 228677.0 217565.0 209562.0 201516.0 198652.0 250925.0 254870.0 179428.0 183465.0 88027.0 96140.0 162910.0 154439.0 281630.0 289383.0 167011.0 164044.0 158540.0 161219.0 162460.0 170960.0 0.0 8030.0 107800.0 99785.0 135138.0 129713.0 226040.0 229985.0 26537.0 25062.0 173676.0 178901.0 250648.0 231534.0 250648.0 250648.0 250648.0 250648.0 250648.0 250648.0 250648.0 231534.0 231534.0 231534.0 231534.0 231534.0 231534.0 231534.0
39691.0 32697.0 58724.0 67094.0 300225.0 292649.0 108970.0 111219.0 157664.0 158507.0 259495.0 260436.0 129239.0 133030.0 58248.0 64998.0 128644.0 122087.0 37740.0 39976.0 117686.0 118108.0 220348.0 213059.0 149308.0 157226.0 171476.0 165192.0 245662.0 243256.0 41079.0 37756.0 36784.0 41251.0 224039.0 218270.0 227072.0 222341.0 142504.0 134523.0 168780.0 164286.0 221955.0 219502.0 252015.0 251169.0 223332.0 225526.0 209541.0 201539.0 193757.0 190820.0 247450.0 251195.0 173243.0 177111.0 90684.0 98842.0 158267.0 149854.0 273648.0 281407.0 161952.0 159276.0 154658.0 156996.0 156162.0 164680.0 8030.0 0.0 107642.0 99522.0 128642.0 123010.0 218583.0 222439.0 18525.0 17383.0 169890.0 175369.0 246410.0 224138.0 246410.0 246410.0 246410.0 246410.0 246410.0 246410.0 246410.0 224138.0 224138.0 224138.0 224138.0 224138.0 224138.0 224138.0
115720.0 116820.0 56009.0 49203.0 318370.0 312088.0 15509.0 8763.0 85842.0 91665.0 256445.0 260573.0 113396.0 121676.0 65220.0 58067.0 120539.0 113078.0 76280.0 70179.0 91633.0 84936.0 134385.0 128915.0 111816.0 117064.0 66731.0 61882.0 150012.0 145926.0 148385.0 143808.0 129351.0 126990.0 119269.0 112720.0 124223.0 118414.0 90116.0 84125.0 62011.0 56847.0 120200.0 119576.0 148881.0 149494.0 133862.0 133469.0 233266.0 225995.0 197116.0 198595.0 157670.0 163364.0 133780.0 140560.0 39388.0 38364.0 93687.0 86487.0 284505.0 291001.0 103473.0 96506.0 79240.0 86106.0 123137.0 129134.0 107800.0 107642.0 0.0 8186.0 108812.0 110140.0 205868.0 212626.0 110975.0 103143.0 90229.0 91586.0 165956.0 208560.0 165956.0 165956.0 165956.0 165956.0 165956.0 165956.0 165956.0 208560.0 208560.0 208560.0 208560.0 208560.0 208560.0 208560.0
108494.0 109337.0 48914.0 42588.0 314810.0 308415.0 16737.0 13449.0 87857.0 93168.0 254109.0 258024.0 110120.0 118265.0 57626.0 50687.0 116836.0 109229.0 68149.0 61999.0 88468.0 82166.0 139106.0 133347.0 110506.0 116164.0 74027.0 68822.0 156135.0 152272.0 140314.0 135811.0 121770.0 119617.0 126720.0 120308.0 131349.0 125712.0 89740.0 83266.0 69799.0 64850.0 127132.0 126210.0 156104.0 156490.0 139049.0 139010.0 228897.0 221528.0 193838.0 195016.0 163041.0 168516.0 133180.0 139804.0 36216.0 36891.0 94952.0 87367.0 281308.0 287925.0 104246.0 97619.0 81578.0 87998.0 121681.0 128057.0 99785.0 99522.0 8186.0 0.0 105736.0 106511.0 203898.0 210488.0 102797.0 94963.0 93482.0 95475.0 170149.0 206844.0 170149.0 170149.0 170149.0 170149.0 170149.0 170149.0 170149.0 206844.0 206844.0 206844.0 206844.0 206844.0 206844.0 206844.0
162909.0 158270.0 125539.0 126315.0 209698.0 203544.0 94173.0 102156.0 63545.0 57915.0 148891.0 152493.0 5344.0 13675.0 78242.0 76383.0 14850.0 12032.0 96248.0 100016.0 17275.0 24044.0 119791.0 111819.0 24762.0 32059.0 123151.0 115552.0 154821.0 155953.0 160204.0 161155.0 165186.0 168457.0 159747.0 158392.0 155856.0 155480.0 37427.0 35448.0 129846.0 132100.0 148871.0 142547.0 177015.0 172218.0 126914.0 132514.0 126951.0 120244.0 88318.0 90093.0 147117.0 147717.0 45479.0 48615.0 136421.0 140203.0 55231.0 51326.0 175696.0 182231.0 50272.0 53601.0 67109.0 62198.0 28053.0 36540.0 135138.0 128642.0 108812.0 105736.0 0.0 8048.0 99886.0 105896.0 115443.0 112086.0 78271.0 86450.0 136518.0 103757.0 136518.0 136518.0 136518.0 136518.0 136518.0 136518.0 136518.0 103757.0 103757.0 103757.0 103757.0 103757.0 103757.0 103757.0
158108.0 153204.0 123150.0 124446.0 208313.0 201969.0 95941.0 103926.0 70594.0 65288.0 149675.0 152887.0 6256.0 12123.0 74677.0 73582.0 10431.0 4367.0 91781.0 96046.0 19296.0 27064.0 127706.0 119727.0 32751.0 39907.0 128484.0 120805.0 162578.0 163602.0 153580.0 154772.0 159694.0 163235.0 166457.0 164872.0 162863.0 162280.0 44487.0 41624.0 134715.0 136581.0 155912.0 149717.0 184303.0 179638.0 134741.0 140258.0 123876.0 116915.0 87450.0 88513.0 155087.0 155735.0 52530.0 55096.0 135839.0 140037.0 62710.0 58349.0 174915.0 181650.0 58165.0 61219.0 73761.0 69261.0 35141.0 43476.0 129713.0 123010.0 110140.0 106511.0 8048.0 0.0 101796.0 107389.0 109230.0 106218.0 85472.0 93627.0 144566.0 106109.0 144566.0 144566.0 144566.0 144566.0 144566.0 144566.0 144566.0 106109.0 106109.0 106109.0 106109.0 106109.0 106109.0 106109.0
256317.0 250543.0 224945.0 226084.0 123475.0 119291.0 190558.0 198328.0 134764.0 126769.0 51499.0 57003.0 96579.0 89830.0 176092.0 175363.0 93134.0 100833.0 191768.0 196841.0 116760.0 122118.0 155235.0 149501.0 94573.0 90654.0 201049.0 194766.0 191159.0 195697.0 241626.0 244800.0 255101.0 259800.0 218777.0 220912.0 210352.0 213534.0 118066.0 122581.0 210763.0 215511.0 203554.0 195601.0 223683.0 216351.0 164956.0 172648.0 74070.0 73664.0 35058.0 42748.0 174821.0 172170.0 76725.0 69560.0 236025.0 239423.0 123521.0 126864.0 86809.0 91394.0 112321.0 120263.0 141677.0 133664.0 83126.0 78411.0 226040.0 218583.0 205868.0 203898.0 99886.0 101796.0 0.0 7995.0 202205.0 201207.0 143163.0 149605.0 158600.0 7151.0 158600.0 158600.0 158600.0 158600.0 158600.0 158600.0 158600.0 7151.0 7151.0 7151.0 7151.0 7151.0 7151.0 7151.0
260513.0 254588.0 230477.0 231823.0 115486.0 111298.0 197371.0 205178.0 142455.0 134458.0 44114.0 49302.0 102370.0 95329.0 181291.0 180827.0 98401.0 106188.0 196503.0 201775.0 122924.0 128512.0 163227.0 157493.0 101673.0 98001.0 208813.0 202485.0 199150.0 203689.0 244402.0 247801.0 258809.0 263687.0 226771.0 228899.0 218343.0 221529.0 125334.0 129655.0 218466.0 223144.0 211547.0 203592.0 231675.0 224342.0 172947.0 180639.0 68620.0 68904.0 34068.0 41104.0 182812.0 180161.0 84406.0 77262.0 242249.0 245798.0 131195.0 134387.0 78827.0 83470.0 120020.0 127944.0 149331.0 141343.0 90228.0 85801.0 229985.0 222439.0 212626.0 210488.0 105896.0 107389.0 7995.0 0.0 205781.0 205055.0 151016.0 157503.0 166591.0 11757.0 166591.0 166591.0 166591.0 166591.0 166591.0 166591.0 166591.0 11757.0 11757.0 11757.0 11757.0 11757.0 11757.0 11757.0
58119.0 50887.0 68714.0 76632.0 281803.0 274212.0 109690.0 113183.0 150615.0 150581.0 242074.0 242821.0 115485.0 118526.0 52931.0 60640.0 113959.0 107864.0 35210.0 40800.0 106137.0 107599.0 214115.0 206581.0 137403.0 145338.0 171617.0 164861.0 241443.0 239571.0 45960.0 45856.0 53141.0 58642.0 223491.0 218235.0 225564.0 221377.0 133133.0 125359.0 170158.0 166440.0 220059.0 216970.0 250392.0 248924.0 217837.0 220623.0 191164.0 183168.0 176440.0 173250.0 241660.0 244893.0 160679.0 164054.0 100271.0 108358.0 149981.0 141792.0 255483.0 263268.0 152534.0 150652.0 148379.0 149819.0 143363.0 151892.0 26537.0 18525.0 110975.0 102797.0 115443.0 109230.0 202205.0 205781.0 0.0 7871.0 163727.0 169806.0 238750.0 207941.0 238750.0 238750.0 238750.0 238750.0 238750.0 238750.0 238750.0 207941.0 207941.0 207941.0 207941.0 207941.0 207941.0 207941.0
56481.0 49855.0 61312.0 69120.0 283866.0 276343.0 102056.0 105437.0 144657.0 144910.0 242211.0 243219.0 112465.0 116004.0 46124.0 53669.0 111560.0 105139.0 27625.0 32965.0 101877.0 102857.0 207970.0 200503.0 133371.0 141306.0 164111.0 157415.0 234782.0 232786.0 51607.0 50515.0 54019.0 58633.0 216111.0 210779.0 218340.0 214061.0 127966.0 120098.0 162508.0 158716.0 212901.0 209930.0 243199.0 241844.0 211488.0 214120.0 193099.0 185088.0 176455.0 173600.0 235405.0 238786.0 157013.0 160663.0 92695.0 100758.0 144434.0 136155.0 256827.0 264555.0 147412.0 145227.0 142185.0 143900.0 139810.0 148341.0 25062.0 17383.0 103143.0 94963.0 112086.0 106218.0 201207.0 205055.0 7871.0 0.0 157518.0 163436.0 233058.0 206777.0 233058.0 233058.0 233058.0 233058.0 233058.0 233058.0 233058.0 206777.0 206777.0 206777.0 206777.0 206777.0 206777.0 206777.0
192552.0 190969.0 137419.0 133291.0 265843.0 261011.0 76770.0 81521.0 15109.0 20587.0 194242.0 200095.0 83211.0 89963.0 111784.0 104900.0 92717.0 89825.0 132150.0 130985.0 71308.0 65002.0 50482.0 43191.0 59948.0 58575.0 58543.0 53101.0 79916.0 79698.0 209095.0 207299.0 201607.0 201857.0 82453.0 82180.0 77721.0 77882.0 40995.0 45283.0 69095.0 75039.0 70691.0 64276.0 98845.0 94388.0 54323.0 57979.0 194670.0 189245.0 148900.0 153676.0 77938.0 81327.0 67283.0 74179.0 129391.0 128508.0 23651.0 27229.0 229448.0 234435.0 32813.0 26140.0 15349.0 16374.0 68571.0 68689.0 173676.0 169890.0 90229.0 93482.0 78271.0 85472.0 143163.0 151016.0 163727.0 157518.0 0.0 8189.0 78028.0 143376.0 78028.0 78028.0 78028.0 78028.0 78028.0 78028.0 78028.0 143376.0 143376.0 143376.0 143376.0 143376.0 143376.0 143376.0
196852.0 195552.0 140763.0 136235.0 272590.0 267867.0 78919.0 83006.0 23127.0 28758.0 200588.0 206428.0 91398.0 98148.0 117489.0 110398.0 100906.0 97983.0 137652.0 136119.0 79244.0 72791.0 45297.0 38573.0 68003.0 66386.0 53567.0 48876.0 72686.0 72127.0 214935.0 212921.0 206437.0 206420.0 74395.0 74320.0 69537.0 69777.0 49142.0 53221.0 64579.0 71051.0 62504.0 56101.0 90719.0 86368.0 48052.0 51062.0 202347.0 197005.0 156329.0 161242.0 72083.0 76025.0 74321.0 81086.0 130952.0 129565.0 31780.0 35329.0 236112.0 240970.0 40542.0 34170.0 22107.0 24429.0 76410.0 76194.0 178901.0 175369.0 91586.0 95475.0 86450.0 93627.0 149605.0 157503.0 169806.0 163436.0 8189.0 0.0 74759.0 149722.0 74759.0 74759.0 74759.0 74759.0 74759.0 74759.0 74759.0 149722.0 149722.0 149722.0 149722.0 149722.0 149722.0 149722.0
270462.0 268692.0 215326.0 210954.0 282043.0 277881.0 153652.0 157491.0 88814.0 88170.0 209336.0 215192.0 139943.0 143565.0 188170.0 181724.0 147836.0 148365.0 208797.0 208225.0 137159.0 133236.0 33292.0 35337.0 112043.0 105770.0 114021.0 112529.0 57108.0 63495.0 284593.0 283373.0 279075.0 279587.0 100102.0 105724.0 88720.0 94953.0 106667.0 113965.0 125530.0 133371.0 83749.0 76242.0 92852.0 84514.0 40422.0 47048.0 224102.0 220667.0 176257.0 183114.0 36893.0 31861.0 100929.0 104309.0 205338.0 203519.0 88850.0 96959.0 245365.0 249851.0 88120.0 88461.0 92538.0 89435.0 113808.0 108260.0 250648.0 246410.0 165956.0 170149.0 136518.0 144566.0 158600.0 166591.0 238750.0 233058.0 78028.0 74759.0 0.0 158470.0 0.0 0.0 0.0 0.0 0.0 0.0 0.0 158470.0 158470.0 158470.0 158470.0 158470.0 158470.0 158470.0
261626.0 255959.0 229147.0 230070.0 124850.0 121060.0 193176.0 200878.0 135524.0 127556.0 50865.0 57106.0 100704.0 94275.0 180652.0 179673.0 97785.0 105378.0 196710.0 201614.0 120399.0 125451.0 155105.0 149371.0 96878.0 92464.0 201470.0 195359.0 191029.0 195567.0 247775.0 250835.0 260732.0 265317.0 218659.0 220823.0 210223.0 213414.0 119965.0 124850.0 211398.0 216364.0 203425.0 195471.0 223554.0 216221.0 164826.0 172518.0 80125.0 80081.0 42206.0 49871.0 174691.0 172040.0 77703.0 70508.0 239442.0 242642.0 124359.0 128140.0 88159.0 92214.0 113104.0 121085.0 142547.0 134468.0 85477.0 80183.0 231534.0 224138.0 208560.0 206844.0 103757.0 106109.0 7151.0 11757.0 207941.0 206777.0 143376.0 149722.0 158470.0 0.0 158470.0 158470.0 158470.0 158470.0 158470.0 158470.0 158470.0 0.0 0.0 0.0 0.0 0.0 0.0 0.0
270462.0 268692.0 215326.0 210954.0 282043.0 277881.0 153652.0 157491.0 88814.0 88170.0 209336.0 215192.0 139943.0 143565.0 188170.0 181724.0 147836.0 148365.0 208797.0 208225.0 137159.0 133236.0 33292.0 35337.0 112043.0 105770.0 114021.0 112529.0 57108.0 63495.0 284593.0 283373.0 279075.0 279587.0 100102.0 105724.0 88720.0 94953.0 106667.0 113965.0 125530.0 133371.0 83749.0 76242.0 92852.0 84514.0 40422.0 47048.0 224102.0 220667.0 176257.0 183114.0 36893.0 31861.0 100929.0 104309.0 205338.0 203519.0 88850.0 96959.0 245365.0 249851.0 88120.0 88461.0 92538.0 89435.0 113808.0 108260.0 250648.0 246410.0 165956.0 170149.0 136518.0 144566.0 158600.0 166591.0 238750.0 233058.0 78028.0 74759.0 0.0 158470.0 0.0 0.0 0.0 0.0 0.0 0.0 0.0 158470.0 158470.0 158470.0 158470.0 158470.0 158470.0 158470.0
270462.0 268692.0 215326.0 210954.0 282043.0 277881.0 153652.0 157491.0 88814.0 88170.0 209336.0 215192.0 139943.0 143565.0 188170.0 181724.0 147836.0 148365.0 208797.0 208225.0 137159.0 133236.0 33292.0 35337.0 112043.0 105770.0 114021.0 112529.0 57108.0 63495.0 284593.0 283373.0 279075.0 279587.0 100102.0 105724.0 88720.0 94953.0 106667.0 113965.0 125530.0 133371.0 83749.0 76242.0 92852.0 84514.0 40422.0 47048.0 224102.0 220667.0 176257.0 183114.0 36893.0 31861.0 100929.0 104309.0 205338.0 203519.0 88850.0 96959.0 245365.0 249851.0 88120.0 88461.0 92538.0 89435.0 113808.0 108260.0 250648.0 246410.0 165956.0 170149.0 136518.0 144566.0 158600.0 166591.0 238750.0 233058.0 78028.0 74759.0 0.0 158470.0 0.0 0.0 0.0 0.0 0.0 0.0 0.0 158470.0 158470.0 158470.0 158470.0 158470.0 158470.0 158470.0
270462.0 268692.0 215326.0 210954.0 282043.0 277881.0 153652.0 157491.0 88814.0 88170.0 209336.0 215192.0 139943.0 143565.0 188170.0 181724.0 147836.0 148365.0 208797.0 208225.0 137159.0 133236.0 33292.0 35337.0 112043.0 105770.0 114021.0 112529.0 57108.0 63495.0 284593.0 283373.0 279075.0 279587.0 100102.0 105724.0 88720.0 94953.0 106667.0 113965.0 125530.0 133371.0 83749.0 76242.0 92852.0 84514.0 40422.0 47048.0 224102.0 220667.0 176257.0 183114.0 36893.0 31861.0 100929.0 104309.0 205338.0 203519.0 88850.0 96959.0 245365.0 249851.0 88120.0 88461.0 92538.0 89435.0 113808.0 108260.0 250648.0 246410.0 165956.0 170149.0 136518.0 144566.0 158600.0 166591.0 238750.0 233058.0 78028.0 74759.0 0.0 158470.0 0.0 0.0 0.0 0.0 0.0 0.0 0.0 158470.0 158470.0 158470.0 158470.0 158470.0 158470.0 158470.0
270462.0 268692.0 215326.0 210954.0 282043.0 277881.0 153652.0 157491.0 88814.0 88170.0 209336.0 215192.0 139943.0 143565.0 188170.0 181724.0 147836.0 148365.0 208797.0 208225.0 137159.0 133236.0 33292.0 35337.0 112043.0 105770.0 114021.0 112529.0 57108.0 63495.0 284593.0 283373.0 279075.0 279587.0 100102.0 105724.0 88720.0 94953.0 106667.0 113965.0 125530.0 133371.0 83749.0 76242.0 92852.0 84514.0 40422.0 47048.0 224102.0 220667.0 176257.0 183114.0 36893.0 31861.0 100929.0 104309.0 205338.0 203519.0 88850.0 96959.0 245365.0 249851.0 88120.0 88461.0 92538.0 89435.0 113808.0 108260.0 250648.0 246410.0 165956.0 170149.0 136518.0 144566.0 158600.0 166591.0 238750.0 233058.0 78028.0 74759.0 0.0 158470.0 0.0 0.0 0.0 0.0 0.0 0.0 0.0 158470.0 158470.0 158470.0 158470.0 158470.0 158470.0 158470.0
270462.0 268692.0 215326.0 210954.0 282043.0 277881.0 153652.0 157491.0 88814.0 88170.0 209336.0 215192.0 139943.0 143565.0 188170.0 181724.0 147836.0 148365.0 208797.0 208225.0 137159.0 133236.0 33292.0 35337.0 112043.0 105770.0 114021.0 112529.0 57108.0 63495.0 284593.0 283373.0 279075.0 279587.0 100102.0 105724.0 88720.0 94953.0 106667.0 113965.0 125530.0 133371.0 83749.0 76242.0 92852.0 84514.0 40422.0 47048.0 224102.0 220667.0 176257.0 183114.0 36893.0 31861.0 100929.0 104309.0 205338.0 203519.0 88850.0 96959.0 245365.0 249851.0 88120.0 88461.0 92538.0 89435.0 113808.0 108260.0 250648.0 246410.0 165956.0 170149.0 136518.0 144566.0 158600.0 166591.0 238750.0 233058.0 78028.0 74759.0 0.0 158470.0 0.0 0.0 0.0 0.0 0.0 0.0 0.0 158470.0 158470.0 158470.0 158470.0 158470.0 158470.0 158470.0
270462.0 268692.0 215326.0 210954.0 282043.0 277881.0 153652.0 157491.0 88814.0 88170.0 209336.0 215192.0 139943.0 143565.0 188170.0 181724.0 147836.0 148365.0 208797.0 208225.0 137159.0 133236.0 33292.0 35337.0 112043.0 105770.0 114021.0 112529.0 57108.0 63495.0 284593.0 283373.0 279075.0 279587.0 100102.0 105724.0 88720.0 94953.0 106667.0 113965.0 125530.0 133371.0 83749.0 76242.0 92852.0 84514.0 40422.0 47048.0 224102.0 220667.0 176257.0 183114.0 36893.0 31861.0 100929.0 104309.0 205338.0 203519.0 88850.0 96959.0 245365.0 249851.0 88120.0 88461.0 92538.0 89435.0 113808.0 108260.0 250648.0 246410.0 165956.0 170149.0 136518.0 144566.0 158600.0 166591.0 238750.0 233058.0 78028.0 74759.0 0.0 158470.0 0.0 0.0 0.0 0.0 0.0 0.0 0.0 158470.0 158470.0 158470.0 158470.0 158470.0 158470.0 158470.0
270462.0 268692.0 215326.0 210954.0 282043.0 277881.0 153652.0 157491.0 88814.0 88170.0 209336.0 215192.0 139943.0 143565.0 188170.0 181724.0 147836.0 148365.0 208797.0 208225.0 137159.0 133236.0 33292.0 35337.0 112043.0 105770.0 114021.0 112529.0 57108.0 63495.0 284593.0 283373.0 279075.0 279587.0 100102.0 105724.0 88720.0 94953.0 106667.0 113965.0 125530.0 133371.0 83749.0 76242.0 92852.0 84514.0 40422.0 47048.0 224102.0 220667.0 176257.0 183114.0 36893.0 31861.0 100929.0 104309.0 205338.0 203519.0 88850.0 96959.0 245365.0 249851.0 88120.0 88461.0 92538.0 89435.0 113808.0 108260.0 250648.0 246410.0 165956.0 170149.0 136518.0 144566.0 158600.0 166591.0 238750.0 233058.0 78028.0 74759.0 0.0 158470.0 0.0 0.0 0.0 0.0 0.0 0.0 0.0 158470.0 158470.0 158470.0 158470.0 158470.0 158470.0 158470.0
261626.0 255959.0 229147.0 230070.0 124850.0 121060.0 193176.0 200878.0 135524.0 127556.0 50865.0 57106.0 100704.0 94275.0 180652.0 179673.0 97785.0 105378.0 196710.0 201614.0 120399.0 125451.0 155105.0 149371.0 96878.0 92464.0 201470.0 195359.0 191029.0 195567.0 247775.0 250835.0 260732.0 265317.0 218659.0 220823.0 210223.0 213414.0 119965.0 124850.0 211398.0 216364.0 203425.0 195471.0 223554.0 216221.0 164826.0 172518.0 80125.0 80081.0 42206.0 49871.0 174691.0 172040.0 77703.0 70508.0 239442.0 242642.0 124359.0 128140.0 88159.0 92214.0 113104.0 121085.0 142547.0 134468.0 85477.0 80183.0 231534.0 224138.0 208560.0 206844.0 103757.0 106109.0 7151.0 11757.0 207941.0 206777.0 143376.0 149722.0 158470.0 0.0 158470.0 158470.0 158470.0 158470.0 158470.0 158470.0 158470.0 0.0 0.0 0.0 0.0 0.0 0.0 0.0
261626.0 255959.0 229147.0 230070.0 124850.0 121060.0 193176.0 200878.0 135524.0 127556.0 50865.0 57106.0 100704.0 94275.0 180652.0 179673.0 97785.0 105378.0 196710.0 201614.0 120399.0 125451.0 155105.0 149371.0 96878.0 92464.0 201470.0 195359.0 191029.0 195567.0 247775.0 250835.0 260732.0 265317.0 218659.0 220823.0 210223.0 213414.0 119965.0 124850.0 211398.0 216364.0 203425.0 195471.0 223554.0 216221.0 164826.0 172518.0 80125.0 80081.0 42206.0 49871.0 174691.0 172040.0 77703.0 70508.0 239442.0 242642.0 124359.0 128140.0 88159.0 92214.0 113104.0 121085.0 142547.0 134468.0 85477.0 80183.0 231534.0 224138.0 208560.0 206844.0 103757.0 106109.0 7151.0 11757.0 207941.0 206777.0 143376.0 149722.0 158470.0 0.0 158470.0 158470.0 158470.0 158470.0 158470.0 158470.0 158470.0 0.0 0.0 0.0 0.0 0.0 0.0 0.0
261626.0 255959.0 229147.0 230070.0 124850.0 121060.0 193176.0 200878.0 135524.0 127556.0 50865.0 57106.0 100704.0 94275.0 180652.0 179673.0 97785.0 105378.0 196710.0 201614.0 120399.0 125451.0 155105.0 149371.0 96878.0 92464.0 201470.0 195359.0 191029.0 195567.0 247775.0 250835.0 260732.0 265317.0 218659.0 220823.0 210223.0 213414.0 119965.0 124850.0 211398.0 216364.0 203425.0 195471.0 223554.0 216221.0 164826.0 172518.0 80125.0 80081.0 42206.0 49871.0 174691.0 172040.0 77703.0 70508.0 239442.0 242642.0 124359.0 128140.0 88159.0 92214.0 113104.0 121085.0 142547.0 134468.0 85477.0 80183.0 231534.0 224138.0 208560.0 206844.0 103757.0 106109.0 7151.0 11757.0 207941.0 206777.0 143376.0 149722.0 158470.0 0.0 158470.0 158470.0 158470.0 158470.0 158470.0 158470.0 158470.0 0.0 0.0 0.0 0.0 0.0 0.0 0.0
261626.0 255959.0 229147.0 230070.0 124850.0 121060.0 193176.0 200878.0 135524.0 127556.0 50865.0 57106.0 100704.0 94275.0 180652.0 179673.0 97785.0 105378.0 196710.0 201614.0 120399.0 125451.0 155105.0 149371.0 96878.0 92464.0 201470.0 195359.0 191029.0 195567.0 247775.0 250835.0 260732.0 265317.0 218659.0 220823.0 210223.0 213414.0 119965.0 124850.0 211398.0 216364.0 203425.0 195471.0 223554.0 216221.0 164826.0 172518.0 80125.0 80081.0 42206.0 49871.0 174691.0 172040.0 77703.0 70508.0 239442.0 242642.0 124359.0 128140.0 88159.0 92214.0 113104.0 121085.0 142547.0 134468.0 85477.0 80183.0 231534.0 224138.0 208560.0 206844.0 103757.0 106109.0 7151.0 11757.0 207941.0 206777.0 143376.0 149722.0 158470.0 0.0 158470.0 158470.0 158470.0 158470.0 158470.0 158470.0 158470.0 0.0 0.0 0.0 0.0 0.0 0.0 0.0
261626.0 255959.0 229147.0 230070.0 124850.0 121060.0 193176.0 200878.0 135524.0 127556.0 50865.0 57106.0 100704.0 94275.0 180652.0 179673.0 97785.0 105378.0 196710.0 201614.0 120399.0 125451.0 155105.0 149371.0 96878.0 92464.0 201470.0 195359.0 191029.0 195567.0 247775.0 250835.0 260732.0 265317.0 218659.0 220823.0 210223.0 213414.0 119965.0 124850.0 211398.0 216364.0 203425.0 195471.0 223554.0 216221.0 164826.0 172518.0 80125.0 80081.0 42206.0 49871.0 174691.0 172040.0 77703.0 70508.0 239442.0 242642.0 124359.0 128140.0 88159.0 92214.0 113104.0 121085.0 142547.0 134468.0 85477.0 80183.0 231534.0 224138.0 208560.0 206844.0 103757.0 106109.0 7151.0 11757.0 207941.0 206777.0 143376.0 149722.0 158470.0 0.0 158470.0 158470.0 158470.0 158470.0 158470.0 158470.0 158470.0 0.0 0.0 0.0 0.0 0.0 0.0 0.0
261626.0 255959.0 229147.0 230070.0 124850.0 121060.0 193176.0 200878.0 135524.0 127556.0 50865.0 57106.0 100704.0 94275.0 180652.0 179673.0 97785.0 105378.0 196710.0 201614.0 120399.0 125451.0 155105.0 149371.0 96878.0 92464.0 201470.0 195359.0 191029.0 195567.0 247775.0 250835.0 260732.0 265317.0 218659.0 220823.0 210223.0 213414.0 119965.0 124850.0 211398.0 216364.0 203425.0 195471.0 223554.0 216221.0 164826.0 172518.0 80125.0 80081.0 42206.0 49871.0 174691.0 172040.0 77703.0 70508.0 239442.0 242642.0 124359.0 128140.0 88159.0 92214.0 113104.0 121085.0 142547.0 134468.0 85477.0 80183.0 231534.0 224138.0 208560.0 206844.0 103757.0 106109.0 7151.0 11757.0 207941.0 206777.0 143376.0 149722.0 158470.0 0.0 158470.0 158470.0 158470.0 158470.0 158470.0 158470.0 158470.0 0.0 0.0 0.0 0.0 0.0 0.0 0.0
261626.0 255959.0 229147.0 230070.0 124850.0 121060.0 193176.0 200878.0 135524.0 127556.0 50865.0 57106.0 100704.0 94275.0 180652.0 179673.0 97785.0 105378.0 196710.0 201614.0 120399.0 125451.0 155105.0 149371.0 96878.0 92464.0 201470.0 195359.0 191029.0 195567.0 247775.0 250835.0 260732.0 265317.0 218659.0 220823.0 210223.0 213414.0 119965.0 124850.0 211398.0 216364.0 203425.0 195471.0 223554.0 216221.0 164826.0 172518.0 80125.0 80081.0 42206.0 49871.0 174691.0 172040.0 77703.0 70508.0 239442.0 242642.0 124359.0 128140.0 88159.0 92214.0 113104.0 121085.0 142547.0 134468.0 85477.0 80183.0 231534.0 224138.0 208560.0 206844.0 103757.0 106109.0 7151.0 11757.0 207941.0 206777.0 143376.0 149722.0 158470.0 0.0 158470.0 158470.0 158470.0 158470.0 158470.0 158470.0 158470.0 0.0 0.0 0.0 0.0 0.0 0.0 0.0
FIXED_EDGES_SECTION
1 2
3 4
5 6
7 8
9 10
11 12
13 14
15 16
17 18
19 20
21 22
23 24
25 26
27 28
29 30
31 32
33 34
35 36
37 38
39 40
41 42
43 44
45 46
47 48
49 50
51 52
53 54
55 56
57 58
59 60
61 62
63 64
65 66
67 68
69 70
71 72
73 74
75 76
77 78
79 80
-1 
DEMAND_SECTION
1 542
2 542
3 76
4 76
5 322
6 322
7 90
8 90
9 277
10 277
11 114
12 114
13 421
14 421
15 180
16 180
17 291
18 291
19 157
20 157
21 90
22 90
23 485
24 485
25 214
26 214
27 497
28 497
29 219
30 219
31 120
32 120
33 138
34 138
35 500
36 500
37 274
38 274
39 114
40 114
41 55
42 55
43 379
44 379
45 251
46 251
47 618
48 618
49 336
50 336
51 313
52 313
53 97
54 97
55 75
56 75
57 68
58 68
59 94
60 94
61 184
62 184
63 56
64 56
65 171
66 171
67 358
68 358
69 258
70 258
71 211
72 211
73 177
74 177
75 37
76 37
77 277
78 277
79 394
80 394
81 0
82 0
83 0
84 0
85 0
86 0
87 0
88 0
89 0
90 0
91 0
92 0
93 0
94 0
95 0
96 0
DEPOT_SECTION
81 
-1 
CAPACITIES_SECTION
2500 
2750 
3000 
-1 
EOF