NAME: GFS_20_1
TYPE: GFSP
DIMENSION: 98
VEHICLES: 3
CAPACITY: 2500.0
TRIP_DIST_LIMIT: 750000.0
TOTAL_DIST_LIMIT: 1400000.0
EDGE_WEIGHT_TYPE: EXPLICIT
EDGE_WEIGHT_FORMAT: FULL_MATRIX
EDGE_WEIGHT_SECTION
0.0 8088.0 220411.0 212631.0 282752.0 284169.0 285945.0 283741.0 77729.0 80873.0 230311.0 223236.0 198082.0 193388.0 151788.0 153488.0 110635.0 117320.0 300489.0 303585.0 166019.0 173782.0 186817.0 186426.0 141534.0 148447.0 286951.0 290382.0 132057.0 133623.0 131737.0 129852.0 109123.0 100910.0 262985.0 265488.0 268070.0 263393.0 212671.0 205587.0 265113.0 259348.0 259559.0 252105.0 213113.0 208869.0 241768.0 233477.0 182809.0 190727.0 159802.0 162051.0 167185.0 174353.0 241626.0 244402.0 96856.0 105255.0 167152.0 170995.0 150048.0 152209.0 51844.0 44542.0 181227.0 187094.0 326258.0 319152.0 185163.0 192826.0 198490.0 196587.0 160204.0 153580.0 260916.0 254638.0 293006.0 292056.0 205647.0 208660.0 284593.0 247775.0 284593.0 284593.0 284593.0 284593.0 284593.0 284593.0 284593.0 284593.0 247775.0 247775.0 247775.0 247775.0 247775.0 247775.0 247775.0 247775.0
8088.0 0.0 225686.0 217856.0 279304.0 280931.0 283407.0 281013.0 75296.0 77705.0 227014.0 220086.0 199173.0 194756.0 151970.0 153259.0 106284.0 113228.0 297866.0 301157.0 167285.0 174884.0 186907.0 186171.0 138268.0 144948.0 284999.0 288626.0 129033.0 131040.0 127660.0 126211.0 105813.0 97687.0 260928.0 263211.0 264600.0 259747.0 208916.0 201968.0 261327.0 255404.0 257780.0 250420.0 216952.0 212937.0 238151.0 229886.0 183259.0 191194.0 161019.0 163668.0 164684.0 171646.0 244800.0 247801.0 91183.0 99530.0 168882.0 172371.0 146192.0 147989.0 43951.0 36825.0 178971.0 185061.0 332561.0 325391.0 183533.0 191094.0 197925.0 195707.0 161155.0 154772.0 265685.0 259545.0 289548.0 288812.0 206472.0 209736.0 283373.0 250835.0 283373.0 283373.0 283373.0 283373.0 283373.0 283373.0 283373.0 283373.0 250835.0 250835.0 250835.0 250835.0 250835.0 250835.0 250835.0 250835.0
220411.0 225686.0 0.0 8013.0 278572.0 273705.0 255644.0 259422.0 194015.0 201040.0 241951.0 234413.0 121869.0 114808.0 143087.0 150639.0 218127.0 215384.0 267886.0 264627.0 119468.0 121787.0 144488.0 152318.0 206103.0 212147.0 240324.0 237672.0 200130.0 192757.0 218440.0 210353.0 202335.0 200841.0 228201.0 235575.0 269377.0 271114.0 243967.0 237000.0 276048.0 276603.0 218801.0 212144.0 47890.0 41572.0 256822.0 251277.0 135961.0 136155.0 121795.0 113319.0 197100.0 203455.0 74070.0 68620.0 234771.0 238467.0 109651.0 116271.0 219548.0 227504.0 249232.0 242043.0 195750.0 192553.0 117335.0 109217.0 182988.0 187474.0 161861.0 168813.0 126951.0 123876.0 44674.0 36841.0 285960.0 279281.0 129510.0 123700.0 224102.0 80125.0 224102.0 224102.0 224102.0 224102.0 224102.0 224102.0 224102.0 224102.0 80125.0 80125.0 80125.0 80125.0 80125.0 80125.0 80125.0 80125.0
212631.0 217856.0 8013.0 0.0 273972.0 269265.0 251710.0 255313.0 186060.0 193106.0 236449.0 228827.0 116838.0 109567.0 136174.0 143789.0 210421.0 207761.0 264177.0 261125.0 112940.0 115594.0 138789.0 146553.0 198868.0 205006.0 236833.0 234236.0 192757.0 185429.0 210996.0 202913.0 194642.0 193062.0 224077.0 231372.0 264506.0 266059.0 237943.0 230889.0 270945.0 271316.0 214766.0 207969.0 44614.0 37555.0 251394.0 245707.0 130141.0 130673.0 115041.0 106581.0 190446.0 196926.0 73664.0 68904.0 226903.0 230651.0 103095.0 109935.0 212392.0 220336.0 241231.0 234050.0 189466.0 186463.0 124984.0 116895.0 176932.0 181610.0 156471.0 163276.0 120244.0 116915.0 51001.0 43507.0 281526.0 274976.0 124802.0 119224.0 220667.0 80081.0 220667.0 220667.0 220667.0 220667.0 220667.0 220667.0 220667.0 220667.0 80081.0 80081.0 80081.0 80081.0 80081.0 80081.0 80081.0 80081.0
282752.0 279304.0 278572.0 273972.0 0.0 8198.0 34471.0 27135.0 205534.0 201880.0 52628.0 60223.0 157417.0 165078.0 160216.0 153350.0 174034.0 166578.0 36719.0 44884.0 171214.0 165059.0 139248.0 132667.0 141237.0 134359.0 55855.0 63619.0 150909.0 150375.0 152283.0 153107.0 173630.0 181845.0 53170.0 45373.0 14718.0 20811.0 70998.0 77463.0 21864.0 30056.0 62922.0 67963.0 231129.0 237004.0 41511.0 49604.0 148339.0 145448.0 172806.0 179356.0 118278.0 110230.0 217421.0 225413.0 194821.0 187966.0 179909.0 171552.0 133427.0 132826.0 254489.0 255241.0 106977.0 104053.0 379468.0 371580.0 110701.0 103169.0 120070.0 114892.0 167901.0 175098.0 278113.0 280160.0 10258.0 12311.0 149171.0 154874.0 89757.0 217291.0 89757.0 89757.0 89757.0 89757.0 89757.0 89757.0 89757.0 89757.0 217291.0 217291.0 217291.0 217291.0 217291.0 217291.0 217291.0 217291.0
284169.0 280931.0 273705.0 269265.0 8198.0 0.0 26360.0 19108.0 206696.0 203329.0 53932.0 60967.0 153045.0 160825.0 158269.0 151613.0 176257.0 168674.0 28955.0 37008.0 168137.0 161727.0 135861.0 129544.0 142676.0 136067.0 47817.0 55527.0 152133.0 151178.0 154495.0 154901.0 175130.0 183297.0 46792.0 39022.0 18392.0 25889.0 73828.0 79766.0 28184.0 36404.0 56574.0 62142.0 226107.0 232135.0 44676.0 52346.0 144921.0 141660.0 170002.0 176310.0 118523.0 110669.0 211605.0 219597.0 197650.0 190995.0 176622.0 168229.0 135572.0 135438.0 257199.0 257704.0 106513.0 103023.0 373770.0 365835.0 109125.0 101414.0 116601.0 111829.0 165199.0 172553.0 272243.0 274459.0 12261.0 7888.0 144550.0 150051.0 82210.0 211476.0 82210.0 82210.0 82210.0 82210.0 82210.0 82210.0 82210.0 82210.0 211476.0 211476.0 211476.0 211476.0 211476.0 211476.0 211476.0 211476.0
285945.0 283407.0 255644.0 251710.0 34471.0 26360.0 0.0 7456.0 208244.0 205834.0 61632.0 66214.0 137397.0 145461.0 150461.0 144609.0 181573.0 173695.0 14862.0 18187.0 156497.0 149346.0 123757.0 118459.0 146076.0 140464.0 21521.0 29168.0 154655.0 152378.0 160114.0 159188.0 178152.0 186052.0 28321.0 22332.0 38813.0 46609.0 84053.0 88089.0 50673.0 58212.0 37057.0 44365.0 207777.0 214246.0 58504.0 64153.0 132540.0 128113.0 159223.0 164661.0 118764.0 111801.0 191159.0 199150.0 204655.0 198714.0 164192.0 155789.0 141359.0 142692.0 263331.0 263034.0 104915.0 99740.0 353323.0 345388.0 103803.0 95817.0 104705.0 101452.0 154821.0 162578.0 251853.0 254053.0 35920.0 27475.0 128212.0 132974.0 57108.0 191029.0 57108.0 57108.0 57108.0 57108.0 57108.0 57108.0 57108.0 57108.0 191029.0 191029.0 191029.0 191029.0 191029.0 191029.0 191029.0 191029.0
283741.0 281013.0 259422.0 255313.0 27135.0 19108.0 7456.0 0.0 206012.0 203340.0 57063.0 62310.0 140207.0 148193.0 150787.0 144675.0 178295.0 170477.0 17281.0 23060.0 158032.0 151102.0 125347.0 119699.0 143209.0 137316.0 28723.0 36493.0 152047.0 150119.0 156710.0 156126.0 175468.0 183456.0 31237.0 24133.0 31594.0 39463.0 79175.0 83686.0 43380.0 51032.0 40667.0 47369.0 211614.0 217936.0 52582.0 58717.0 134249.0 130191.0 160491.0 166216.0 116638.0 109395.0 195697.0 203689.0 200985.0 194855.0 165996.0 157579.0 137857.0 138824.0 259954.0 259864.0 103224.0 98497.0 357861.0 349926.0 103185.0 95228.0 106146.0 102383.0 155953.0 163602.0 256391.0 258562.0 29382.0 21190.0 131236.0 136267.0 63495.0 195567.0 63495.0 63495.0 63495.0 63495.0 63495.0 63495.0 63495.0 63495.0 195567.0 195567.0 195567.0 195567.0 195567.0 195567.0 195567.0 195567.0
77729.0 75296.0 194015.0 186060.0 205534.0 206696.0 208244.0 206012.0 0.0 8039.0 152960.0 145729.0 133543.0 130880.0 83234.0 82535.0 39880.0 44148.0 222768.0 225931.0 104006.0 110206.0 116671.0 114583.0 64443.0 71814.0 209734.0 213455.0 54625.0 55894.0 57642.0 53964.0 32716.0 24553.0 185640.0 187928.0 190903.0 186532.0 136206.0 128844.0 188533.0 183164.0 182608.0 175321.0 170836.0 169198.0 164901.0 156582.0 114751.0 122557.0 97786.0 102946.0 89480.0 96628.0 191768.0 196503.0 43323.0 49458.0 108608.0 109519.0 74480.0 78084.0 66812.0 62750.0 103677.0 109795.0 309968.0 302072.0 108579.0 116018.0 125153.0 122085.0 96248.0 91781.0 226524.0 222081.0 215791.0 214583.0 139229.0 143728.0 208797.0 196710.0 208797.0 208797.0 208797.0 208797.0 208797.0 208797.0 208797.0 208797.0 196710.0 196710.0 196710.0 196710.0 196710.0 196710.0 196710.0 196710.0
80873.0 77705.0 201040.0 193106.0 201880.0 203329.0 205834.0 203340.0 8039.0 0.0 149449.0 142429.0 136752.0 134513.0 86133.0 84724.0 32974.0 38031.0 220236.0 223661.0 108040.0 113856.0 118667.0 116065.0 60666.0 67621.0 208127.0 212110.0 51328.0 53668.0 52028.0 49204.0 28257.0 20038.0 183925.0 185898.0 187201.0 182581.0 131966.0 124785.0 184395.0 178797.0 181297.0 174164.0 176810.0 175412.0 160948.0 152648.0 117337.0 125036.0 101912.0 107505.0 87280.0 94033.0 196841.0 201775.0 35375.0 41420.0 113179.0 113578.0 69625.0 72621.0 64390.0 61216.0 101870.0 108348.0 317245.0 309322.0 107834.0 115047.0 126005.0 122467.0 100016.0 96046.0 232906.0 228612.0 212135.0 211214.0 141984.0 146772.0 208225.0 201614.0 208225.0 208225.0 208225.0 208225.0 208225.0 208225.0 208225.0 208225.0 201614.0 201614.0 201614.0 201614.0 201614.0 201614.0 201614.0 201614.0
230311.0 227014.0 241951.0 236449.0 52628.0 53932.0 61632.0 57063.0 152960.0 149449.0 0.0 8311.0 120591.0 127237.0 112185.0 104781.0 122472.0 114829.0 74315.0 79676.0 127224.0 122387.0 97776.0 90196.0 88784.0 82135.0 72853.0 79801.0 98345.0 97753.0 100730.0 100974.0 121229.0 129412.0 51870.0 48634.0 38122.0 34918.0 22592.0 26639.0 38285.0 35992.0 56691.0 55079.0 196215.0 201006.0 15243.0 9712.0 106632.0 105802.0 127637.0 135056.0 66016.0 57825.0 189216.0 197149.0 144407.0 138058.0 136650.0 128659.0 81794.0 82123.0 203729.0 204019.0 55965.0 54594.0 349891.0 341776.0 62762.0 56291.0 80131.0 73172.0 122427.0 128881.0 248452.0 249163.0 62876.0 61806.0 114292.0 121035.0 89809.0 189257.0 89809.0 89809.0 89809.0 89809.0 89809.0 89809.0 89809.0 89809.0 189257.0 189257.0 189257.0 189257.0 189257.0 189257.0 189257.0 189257.0
223236.0 220086.0 234413.0 228827.0 60223.0 60967.0 66214.0 62310.0 145729.0 142429.0 8311.0 0.0 113336.0 119823.0 103890.0 96475.0 116183.0 108437.0 79578.0 84393.0 119161.0 114454.0 90063.0 82403.0 81825.0 75463.0 75370.0 81873.0 91183.0 90267.0 94518.0 94326.0 114274.0 122410.0 52973.0 50905.0 45908.0 43104.0 20944.0 22454.0 46574.0 44242.0 56444.0 53685.0 188932.0 193594.0 23447.0 16888.0 98851.0 98270.0 119482.0 126956.0 58104.0 50010.0 182781.0 190683.0 138675.0 132578.0 128633.0 120691.0 75620.0 76541.0 197721.0 197784.0 47707.0 46290.0 342996.0 334862.0 54526.0 48182.0 72750.0 65604.0 114257.0 120656.0 241676.0 242229.0 70430.0 68855.0 107335.0 114174.0 88942.0 182886.0 88942.0 88942.0 88942.0 88942.0 88942.0 88942.0 88942.0 88942.0 182886.0 182886.0 182886.0 182886.0 182886.0 182886.0 182886.0 182886.0
198082.0 199173.0 121869.0 116838.0 157417.0 153045.0 137397.0 140207.0 133543.0 136752.0 120591.0 113336.0 0.0 8186.0 50690.0 53501.0 135497.0 129353.0 150850.0 149022.0 32230.0 24302.0 26650.0 34357.0 108044.0 110956.0 125275.0 124074.0 107021.0 99350.0 125248.0 118031.0 121511.0 124874.0 109185.0 116077.0 147681.0 149257.0 125062.0 118851.0 154181.0 154812.0 100425.0 93049.0 75623.0 80574.0 135254.0 130080.0 21756.0 16929.0 38330.0 37691.0 87300.0 91177.0 73724.0 81083.0 159528.0 159223.0 33943.0 27741.0 117993.0 125585.0 200347.0 195945.0 80646.0 75434.0 230097.0 221923.0 65984.0 68525.0 40643.0 48175.0 38087.0 44517.0 129410.0 129358.0 165290.0 159100.0 10000.0 10579.0 110802.0 75595.0 110802.0 110802.0 110802.0 110802.0 110802.0 110802.0 110802.0 110802.0 75595.0 75595.0 75595.0 75595.0 75595.0 75595.0 75595.0 75595.0
193388.0 194756.0 114808.0 109567.0 165078.0 160825.0 145461.0 148193.0 130880.0 134513.0 127237.0 119823.0 8186.0 0.0 49195.0 53132.0 135227.0 129412.0 158966.0 157183.0 27523.0 20676.0 31064.0 39039.0 109466.0 112925.0 133454.0 132259.0 107673.0 99897.0 126200.0 118756.0 120796.0 123651.0 117222.0 124061.0 155121.0 156512.0 130763.0 124315.0 161382.0 161801.0 108519.0 101102.0 69247.0 73775.0 142040.0 136641.0 24182.0 21803.0 33836.0 31712.0 90544.0 95013.0 70516.0 77531.0 158736.0 158863.0 27331.0 22395.0 120110.0 127847.0 197558.0 192894.0 85062.0 80371.0 224380.0 216183.0 70797.0 74017.0 47107.0 54297.0 34649.0 40089.0 124262.0 123804.0 173059.0 166956.0 18084.0 16824.0 118974.0 73098.0 118974.0 118974.0 118974.0 118974.0 118974.0 118974.0 118974.0 118974.0 73098.0 73098.0 73098.0 73098.0 73098.0 73098.0 73098.0 73098.0
151788.0 151970.0 143087.0 136174.0 160216.0 158269.0 150461.0 150787.0 83234.0 86133.0 112185.0 103890.0 50690.0 49195.0 0.0 7905.0 86414.0 81002.0 165227.0 165928.0 26005.0 29124.0 35046.0 35615.0 64489.0 69687.0 145088.0 146617.0 60624.0 52792.0 79498.0 71655.0 71699.0 74466.0 123346.0 128185.0 147409.0 146254.0 107130.0 99369.0 150195.0 148101.0 117227.0 109243.0 105488.0 107053.0 127297.0 120025.0 31650.0 39549.0 21773.0 30134.0 55060.0 62337.0 116760.0 122924.0 109576.0 109921.0 34751.0 31065.0 77126.0 85116.0 150017.0 145900.0 57678.0 57615.0 259091.0 250867.0 49731.0 57061.0 49038.0 49762.0 17275.0 19296.0 163546.0 161315.0 169725.0 165602.0 55995.0 60638.0 137159.0 120399.0 137159.0 137159.0 137159.0 137159.0 137159.0 137159.0 137159.0 137159.0 120399.0 120399.0 120399.0 120399.0 120399.0 120399.0 120399.0 120399.0
153488.0 153259.0 150639.0 143789.0 153350.0 151613.0 144609.0 144675.0 82535.0 84724.0 104781.0 96475.0 53501.0 53132.0 7905.0 0.0 82147.0 76282.0 159424.0 160405.0 32452.0 34127.0 34155.0 32939.0 57973.0 62749.0 140063.0 141932.0 54927.0 47092.0 73695.0 66023.0 68010.0 71544.0 117855.0 122412.0 140365.0 139024.0 99314.0 91530.0 142886.0 140638.0 112124.0 104180.0 112301.0 114136.0 119843.0 112487.0 32837.0 40378.0 28953.0 37419.0 47184.0 54432.0 122118.0 128512.0 106027.0 105831.0 41699.0 37104.0 70176.0 78152.0 149012.0 145273.0 49934.0 50189.0 266390.0 258162.0 42668.0 50216.0 45429.0 45020.0 24044.0 27064.0 170260.0 168223.0 162951.0 159022.0 57574.0 62889.0 133236.0 125451.0 133236.0 133236.0 133236.0 133236.0 133236.0 133236.0 133236.0 133236.0 125451.0 125451.0 125451.0 125451.0 125451.0 125451.0 125451.0 125451.0
110635.0 106284.0 218127.0 210421.0 174034.0 176257.0 181573.0 178295.0 39880.0 32974.0 122472.0 116183.0 135497.0 135227.0 86414.0 82147.0 0.0 8004.0 195485.0 199689.0 111739.0 115531.0 112961.0 108345.0 36620.0 41168.0 186435.0 191261.0 31152.0 37594.0 21764.0 22922.0 15831.0 18776.0 162159.0 163058.0 159321.0 154074.0 103168.0 96593.0 155397.0 149271.0 160947.0 154468.0 187900.0 187859.0 132606.0 124435.0 114198.0 121080.0 106371.0 113618.0 66764.0 71617.0 202868.0 208741.0 25555.0 23743.0 119067.0 117102.0 40687.0 41727.0 81782.0 81600.0 81942.0 89449.0 335401.0 327316.0 91638.0 97637.0 115257.0 109985.0 102999.0 101498.0 245615.0 242258.0 184223.0 184086.0 138567.0 144455.0 190251.0 206726.0 190251.0 190251.0 190251.0 190251.0 190251.0 190251.0 190251.0 190251.0 206726.0 206726.0 206726.0 206726.0 206726.0 206726.0 206726.0 206726.0
117320.0 113228.0 215384.0 207761.0 166578.0 168674.0 173695.0 170477.0 44148.0 38031.0 114829.0 108437.0 129353.0 129412.0 81002.0 76282.0 8004.0 0.0 187650.0 191799.0 106650.0 110028.0 106271.0 101404.0 28627.0 33244.0 178445.0 183260.0 23651.0 30540.0 14433.0 14923.0 14420.0 20534.0 154167.0 155097.0 151860.0 146734.0 95832.0 89115.0 148170.0 142178.0 152943.0 146469.0 183837.0 184099.0 125210.0 117004.0 107888.0 114598.0 101488.0 108986.0 58808.0 63613.0 197723.0 203758.0 33288.0 30561.0 114335.0 111928.0 33151.0 34920.0 89709.0 89387.0 73979.0 81515.0 332718.0 324599.0 83865.0 89765.0 107908.0 102474.0 97868.0 96873.0 241742.0 238608.0 176785.0 176516.0 132072.0 138099.0 182282.0 201399.0 182282.0 182282.0 182282.0 182282.0 182282.0 182282.0 182282.0 182282.0 201399.0 201399.0 201399.0 201399.0 201399.0 201399.0 201399.0 201399.0
300489.0 297866.0 267886.0 264177.0 36719.0 28955.0 14862.0 17281.0 222768.0 220236.0 74315.0 79578.0 150850.0 158966.0 165227.0 159424.0 195485.0 187650.0 0.0 8285.0 170813.0 163547.0 138079.0 132953.0 160259.0 154462.0 28514.0 34156.0 168988.0 166880.0 173926.0 173249.0 192449.0 200399.0 42468.0 37042.0 45809.0 53745.0 96329.0 100947.0 56786.0 64892.0 50500.0 58160.0 219997.0 226645.0 69149.0 75643.0 146787.0 142143.0 173668.0 178959.0 133309.0 126220.0 202620.0 210612.0 218249.0 212133.0 178349.0 169963.0 155090.0 156101.0 277174.0 277033.0 119603.0 114531.0 364784.0 356850.0 118662.0 110677.0 119129.0 116083.0 169329.0 177125.0 263314.0 265514.0 33853.0 25792.0 141490.0 145972.0 65346.0 202490.0 65346.0 65346.0 65346.0 65346.0 65346.0 65346.0 65346.0 65346.0 202490.0 202490.0 202490.0 202490.0 202490.0 202490.0 202490.0 202490.0
303585.0 301157.0 264627.0 261125.0 44884.0 37008.0 18187.0 23060.0 225931.0 223661.0 79676.0 84393.0 149022.0 157183.0 165928.0 160405.0 199689.0 191799.0 8285.0 0.0 170256.0 162785.0 137607.0 132864.0 164087.0 158560.0 24303.0 28492.0 172562.0 170119.0 178260.0 177255.0 196077.0 203936.0 42582.0 38419.0 53323.0 61284.0 101994.0 106200.0 64557.0 72585.0 49486.0 57409.0 216769.0 223570.0 75633.0 81739.0 146146.0 141141.0 173378.0 178353.0 136473.0 129658.0 199124.0 207115.0 222831.0 216901.0 177482.0 169141.0 159523.0 160879.0 281459.0 281110.0 122397.0 116929.0 361288.0 353353.0 120459.0 112486.0 118924.0 116406.0 169196.0 177079.0 259818.0 262017.0 42109.0 34077.0 139481.0 143640.0 60282.0 198994.0 60282.0 60282.0 60282.0 60282.0 60282.0 60282.0 60282.0 60282.0 198994.0 198994.0 198994.0 198994.0 198994.0 198994.0 198994.0 198994.0
166019.0 167285.0 119468.0 112940.0 171214.0 168137.0 156497.0 158032.0 104006.0 108040.0 127224.0 119161.0 32230.0 27523.0 26005.0 32452.0 111739.0 106650.0 170813.0 170256.0 0.0 8448.0 32741.0 38593.0 90327.0 95199.0 147649.0 147773.0 86626.0 78796.0 105502.0 97646.0 96635.0 98600.0 128347.0 134294.0 159600.0 159620.0 125908.0 118577.0 164039.0 163067.0 120770.0 112872.0 79869.0 81903.0 142457.0 135918.0 24129.0 30089.0 6325.0 8189.0 77691.0 83996.0 91131.0 97110.0 134134.0 135011.0 9856.0 5542.0 102623.0 110596.0 170481.0 165656.0 76786.0 74489.0 234376.0 226143.0 65233.0 70988.0 51886.0 56337.0 8792.0 12569.0 137808.0 135814.0 180095.0 174971.0 40710.0 42786.0 135822.0 95068.0 135822.0 135822.0 135822.0 135822.0 135822.0 135822.0 135822.0 135822.0 95068.0 95068.0 95068.0 95068.0 95068.0 95068.0 95068.0 95068.0
173782.0 174884.0 121787.0 115594.0 165059.0 161727.0 149346.0 151102.0 110206.0 113856.0 122387.0 114454.0 24302.0 20676.0 29124.0 34127.0 115531.0 110028.0 163547.0 162785.0 8448.0 0.0 25870.0 32553.0 91848.0 96113.0 139970.0 139910.0 89048.0 81209.0 107820.0 100141.0 100798.0 103335.0 121111.0 127232.0 153785.0 154124.0 122402.0 115298.0 158662.0 158029.0 113325.0 105477.0 80042.0 82873.0 137570.0 131303.0 16859.0 21982.0 14134.0 15823.0 76508.0 82202.0 87993.0 94404.0 138615.0 139044.0 14913.0 6503.0 103470.0 111377.0 176901.0 172283.0 73979.0 70892.0 235389.0 227155.0 61401.0 66504.0 45145.0 50288.0 14016.0 20247.0 137437.0 135944.0 173767.0 168431.0 32395.0 34878.0 127741.0 91411.0 127741.0 127741.0 127741.0 127741.0 127741.0 127741.0 127741.0 127741.0 91411.0 91411.0 91411.0 91411.0 91411.0 91411.0 91411.0 91411.0
186817.0 186907.0 144488.0 138789.0 139248.0 135861.0 123757.0 125347.0 116671.0 118667.0 97776.0 90063.0 26650.0 31064.0 35046.0 34155.0 112961.0 106271.0 138079.0 137607.0 32741.0 25870.0 0.0 7988.0 83036.0 85287.0 115228.0 115692.0 83168.0 75786.0 100751.0 93938.0 100042.0 104473.0 95611.0 101564.0 128143.0 128717.0 99937.0 93353.0 133354.0 133065.0 88127.0 80200.0 99995.0 104074.0 112837.0 106950.0 9096.0 9723.0 35857.0 40906.0 60772.0 64528.0 100373.0 107708.0 137798.0 136652.0 40777.0 32372.0 92144.0 99582.0 183029.0 179392.0 54132.0 49307.0 255367.0 247163.0 39735.0 43179.0 19278.0 24796.0 32049.0 40087.0 155315.0 154852.0 147910.0 142562.0 26233.0 32911.0 104539.0 102177.0 104539.0 104539.0 104539.0 104539.0 104539.0 104539.0 104539.0 104539.0 102177.0 102177.0 102177.0 102177.0 102177.0 102177.0 102177.0 102177.0
186426.0 186171.0 152318.0 146553.0 132667.0 129544.0 118459.0 119699.0 114583.0 116065.0 90196.0 82403.0 34357.0 39039.0 35615.0 32939.0 108345.0 101404.0 132953.0 132864.0 38593.0 32553.0 7988.0 0.0 77139.0 78891.0 111025.0 111976.0 78010.0 70866.0 95100.0 88567.0 96044.0 100953.0 90540.0 96163.0 121251.0 121581.0 91977.0 85370.0 126142.0 125650.0 83522.0 75534.0 107971.0 112004.0 105312.0 99290.0 16448.0 17487.0 40796.0 46767.0 53569.0 56939.0 108040.0 115436.0 133471.0 131920.0 47290.0 38998.0 85580.0 92869.0 180439.0 177113.0 46294.0 41334.0 263355.0 255151.0 31778.0 35237.0 14001.0 17781.0 36377.0 44216.0 163274.0 162835.0 141507.0 136393.0 32820.0 39792.0 101763.0 109679.0 101763.0 101763.0 101763.0 101763.0 101763.0 101763.0 101763.0 101763.0 109679.0 109679.0 109679.0 109679.0 109679.0 109679.0 109679.0 109679.0
141534.0 138268.0 206103.0 198868.0 141237.0 142676.0 146076.0 143209.0 64443.0 60666.0 88784.0 81825.0 108044.0 109466.0 64489.0 57973.0 36620.0 28627.0 160259.0 164087.0 90327.0 91848.0 83036.0 77139.0 0.0 8174.0 150081.0 154767.0 10336.0 14459.0 18279.0 13709.0 32456.0 40628.0 125785.0 126965.0 126570.0 122096.0 71841.0 64409.0 124099.0 118833.0 124369.0 117852.0 169972.0 171379.0 100463.0 92146.0 86290.0 92112.0 86229.0 94478.0 30266.0 35072.0 179571.0 186176.0 61702.0 57908.0 99237.0 95076.0 14291.0 21812.0 117930.0 117141.0 45399.0 53022.0 322868.0 314663.0 56022.0 61485.0 81749.0 75657.0 81714.0 82906.0 228035.0 225754.0 151494.0 150560.0 109263.0 115789.0 153675.0 182518.0 153675.0 153675.0 153675.0 153675.0 153675.0 153675.0 153675.0 153675.0 182518.0 182518.0 182518.0 182518.0 182518.0 182518.0 182518.0 182518.0
148447.0 144948.0 212147.0 205006.0 134359.0 136067.0 140464.0 137316.0 71814.0 67621.0 82135.0 75463.0 110956.0 112925.0 69687.0 62749.0 41168.0 33244.0 154462.0 158560.0 95199.0 96113.0 85287.0 78891.0 8174.0 0.0 145385.0 150359.0 18434.0 22276.0 20343.0 18863.0 39380.0 47635.0 121139.0 121908.0 119660.0 114961.0 64413.0 57164.0 116803.0 111351.0 120269.0 114042.0 175045.0 176739.0 93329.0 85032.0 89291.0 94635.0 91452.0 99815.0 28282.0 31263.0 183328.0 190104.0 65300.0 60611.0 104369.0 99736.0 7440.0 15430.0 122945.0 122580.0 42780.0 50671.0 328635.0 320419.0 54996.0 59600.0 82140.0 75544.0 86739.0 88509.0 233004.0 230947.0 144607.0 143938.0 111472.0 118192.0 150345.0 186013.0 150345.0 150345.0 150345.0 150345.0 150345.0 150345.0 150345.0 150345.0 186013.0 186013.0 186013.0 186013.0 186013.0 186013.0 186013.0 186013.0
286951.0 284999.0 240324.0 236833.0 55855.0 47817.0 21521.0 28723.0 209734.0 208127.0 72853.0 75370.0 125275.0 133454.0 145088.0 140063.0 186435.0 178445.0 28514.0 24303.0 147649.0 139970.0 115228.0 111025.0 150081.0 145385.0 0.0 7995.0 157774.0 154485.0 165570.0 163616.0 181242.0 188808.0 24300.0 24466.0 58400.0 65773.0 95298.0 97822.0 70345.0 77313.0 27956.0 35883.0 192467.0 199278.0 73610.0 77671.0 123525.0 118140.0 151086.0 155667.0 121040.0 115052.0 174821.0 182812.0 210553.0 205243.0 154516.0 146242.0 147339.0 149768.0 268011.0 267071.0 106261.0 99940.0 336985.0 329050.0 102072.0 94257.0 97024.0 95326.0 147117.0 155087.0 235515.0 237714.0 57298.0 48785.0 115629.0 119599.0 36893.0 174691.0 36893.0 36893.0 36893.0 36893.0 36893.0 36893.0 36893.0 36893.0 174691.0 174691.0 174691.0 174691.0 174691.0 174691.0 174691.0 174691.0
290382.0 288626.0 237672.0 234236.0 63619.0 55527.0 29168.0 36493.0 213455.0 212110.0 79801.0 81873.0 124074.0 132259.0 146617.0 141932.0 191261.0 183260.0 34156.0 28492.0 147773.0 139910.0 115692.0 111976.0 154767.0 150359.0 7995.0 0.0 162162.0 158571.0 170628.0 168379.0 185544.0 192985.0 29503.0 31170.0 66395.0 73761.0 102101.0 104281.0 78341.0 85293.0 30848.0 38321.0 189826.0 196684.0 81202.0 84998.0 123722.0 117962.0 151489.0 155692.0 125348.0 119695.0 172170.0 180161.0 215632.0 210514.0 154256.0 146077.0 152607.0 155331.0 272639.0 271502.0 110390.0 103764.0 334334.0 326399.0 105235.0 97560.0 98015.0 96958.0 147717.0 155735.0 232864.0 235064.0 64628.0 56088.0 114275.0 117834.0 31861.0 172040.0 31861.0 31861.0 31861.0 31861.0 31861.0 31861.0 31861.0 31861.0 172040.0 172040.0 172040.0 172040.0 172040.0 172040.0 172040.0 172040.0
132057.0 129033.0 200130.0 192757.0 150909.0 152133.0 154655.0 152047.0 54625.0 51328.0 98345.0 91183.0 107021.0 107673.0 60624.0 54927.0 31152.0 23651.0 168988.0 172562.0 86626.0 89048.0 83168.0 78010.0 10336.0 18434.0 157774.0 162162.0 0.0 7844.0 18881.0 11099.0 23531.0 31411.0 133487.0 135060.0 136280.0 131975.0 81951.0 74423.0 134088.0 128943.0 131534.0 124747.0 165562.0 166532.0 110358.0 102036.0 85360.0 91768.0 82021.0 90013.0 36822.0 42934.0 177042.0 183389.0 56706.0 54182.0 95054.0 91652.0 23636.0 30310.0 110629.0 109341.0 51905.0 59077.0 317217.0 309034.0 60629.0 66892.0 84259.0 78855.0 77868.0 78121.0 223668.0 221059.0 161167.0 160021.0 109179.0 115399.0 159981.0 180349.0 159981.0 159981.0 159981.0 159981.0 159981.0 159981.0 159981.0 159981.0 180349.0 180349.0 180349.0 180349.0 180349.0 180349.0 180349.0 180349.0
133623.0 131040.0 192757.0 185429.0 150375.0 151178.0 152378.0 150119.0 55894.0 53668.0 97753.0 90267.0 99350.0 99897.0 52792.0 47092.0 37594.0 30540.0 166880.0 170119.0 78796.0 81209.0 75786.0 70866.0 14459.0 22276.0 154485.0 158571.0 7844.0 0.0 26706.0 18932.0 27405.0 34453.0 130267.0 132254.0 135856.0 131950.0 82777.0 75005.0 134350.0 129597.0 127802.0 120795.0 157821.0 158864.0 110439.0 102136.0 77731.0 84250.0 74228.0 82255.0 33652.0 40755.0 169203.0 175545.0 62998.0 61061.0 87265.0 83812.0 28748.0 36135.0 115021.0 113259.0 48227.0 54903.0 309759.0 301569.0 55412.0 62134.0 77721.0 72671.0 70043.0 70402.0 215930.0 213372.0 160615.0 159058.0 101695.0 107839.0 155476.0 172526.0 155476.0 155476.0 155476.0 155476.0 155476.0 155476.0 155476.0 155476.0 172526.0 172526.0 172526.0 172526.0 172526.0 172526.0 172526.0 172526.0
131737.0 127660.0 218440.0 210996.0 152283.0 154495.0 160114.0 156710.0 57642.0 52028.0 100730.0 94518.0 125248.0 126200.0 79498.0 73695.0 21764.0 14433.0 173926.0 178260.0 105502.0 107820.0 100751.0 95100.0 18279.0 20343.0 165570.0 170628.0 18881.0 26706.0 0.0 8090.0 25560.0 33244.0 141355.0 141954.0 137568.0 132369.0 81461.0 74833.0 133764.0 127748.0 140598.0 134385.0 184394.0 185283.0 110873.0 102689.0 103513.0 109639.0 100897.0 108867.0 47905.0 51562.0 195803.0 202198.0 45004.0 40314.0 113928.0 110511.0 18936.0 20607.0 103247.0 103299.0 62792.0 70593.0 335638.0 327468.0 74135.0 79308.0 100016.0 93932.0 96746.0 96945.0 242495.0 239828.0 162478.0 162323.0 126928.0 133324.0 170653.0 199028.0 170653.0 170653.0 170653.0 170653.0 170653.0 170653.0 170653.0 170653.0 199028.0 199028.0 199028.0 199028.0 199028.0 199028.0 199028.0 199028.0
129852.0 126211.0 210353.0 202913.0 153107.0 154901.0 159188.0 156126.0 53964.0 49204.0 100974.0 94326.0 118031.0 118756.0 71655.0 66023.0 22922.0 14923.0 173249.0 177255.0 97646.0 100141.0 93938.0 88567.0 13709.0 18863.0 163616.0 168379.0 11099.0 18932.0 8090.0 0.0 21249.0 29455.0 139328.0 140362.0 138397.0 133565.0 82823.0 75767.0 135265.0 129599.0 138032.0 131546.0 176390.0 177235.0 111953.0 103679.0 96341.0 102655.0 92965.0 100892.0 43938.0 48706.0 188134.0 194468.0 48038.0 44545.0 105987.0 102701.0 20516.0 24825.0 104433.0 103856.0 59092.0 66675.0 327549.0 319378.0 69332.0 75032.0 94198.0 88444.0 88877.0 88942.0 234486.0 231784.0 163346.0 162768.0 120027.0 126313.0 167380.0 191448.0 167380.0 167380.0 167380.0 167380.0 167380.0 167380.0 167380.0 167380.0 191448.0 191448.0 191448.0 191448.0 191448.0 191448.0 191448.0 191448.0
109123.0 105813.0 202335.0 194642.0 173630.0 175130.0 178152.0 175468.0 32716.0 28257.0 121229.0 114274.0 121511.0 120796.0 71699.0 68010.0 15831.0 14420.0 192449.0 196077.0 96635.0 100798.0 100042.0 96044.0 32456.0 39380.0 181242.0 185544.0 23531.0 27405.0 25560.0 21249.0 0.0 8262.0 156964.0 158588.0 158947.0 154332.0 103766.0 96543.0 156177.0 150652.0 154854.0 147962.0 172185.0 172075.0 132698.0 124395.0 100550.0 107708.0 91124.0 98196.0 60214.0 66464.0 187699.0 193451.0 38017.0 38385.0 103696.0 102056.0 41764.0 45604.0 87626.0 86009.0 75176.0 82118.0 319626.0 311534.0 82809.0 89521.0 104144.0 99553.0 87951.0 86093.0 229844.0 226452.0 183884.0 183013.0 125155.0 130780.0 182844.0 191700.0 182844.0 182844.0 182844.0 182844.0 182844.0 182844.0 182844.0 182844.0 191700.0 191700.0 191700.0 191700.0 191700.0 191700.0 191700.0 191700.0
100910.0 97687.0 200841.0 193062.0 181845.0 183297.0 186052.0 183456.0 24553.0 20038.0 129412.0 122410.0 124874.0 123651.0 74466.0 71544.0 18776.0 20534.0 200399.0 203936.0 98600.0 103335.0 104473.0 100953.0 40628.0 47635.0 188808.0 192985.0 31411.0 34453.0 33244.0 29455.0 8262.0 0.0 164555.0 166324.0 167168.0 162579.0 112027.0 104795.0 164436.0 158914.0 162236.0 155247.0 172365.0 171868.0 140944.0 132639.0 104345.0 111721.0 92846.0 99494.0 67784.0 74279.0 189294.0 194806.0 35672.0 37848.0 105088.0 104096.0 49967.0 53570.0 80904.0 78862.0 82601.0 89356.0 317968.0 309918.0 89557.0 96483.0 109747.0 105531.0 90067.0 87498.0 229674.0 226009.0 192100.0 191182.0 129063.0 134425.0 189830.0 193544.0 189830.0 189830.0 189830.0 189830.0 189830.0 189830.0 189830.0 189830.0 193544.0 193544.0 193544.0 193544.0 193544.0 193544.0 193544.0 193544.0
262985.0 260928.0 228201.0 224077.0 53170.0 46792.0 28321.0 31237.0 185640.0 183925.0 51870.0 52973.0 109185.0 117222.0 123346.0 117855.0 162159.0 154167.0 42468.0 42582.0 128347.0 121111.0 95611.0 90540.0 125785.0 121139.0 24300.0 29503.0 133487.0 130267.0 141355.0 139328.0 156964.0 164555.0 0.0 7799.0 49312.0 54972.0 73606.0 75219.0 60227.0 65458.0 9783.0 16165.0 180409.0 186705.0 56137.0 58344.0 104332.0 99807.0 131217.0 136495.0 96776.0 90753.0 164956.0 172947.0 186351.0 181128.0 135934.0 127539.0 123214.0 125843.0 243715.0 242774.0 82059.0 75894.0 327120.0 319185.0 78528.0 70619.0 76680.0 73869.0 126914.0 134741.0 225650.0 227847.0 58761.0 51422.0 100102.0 105052.0 40422.0 164826.0 40422.0 40422.0 40422.0 40422.0 40422.0 40422.0 40422.0 40422.0 164826.0 164826.0 164826.0 164826.0 164826.0 164826.0 164826.0 164826.0
265488.0 263211.0 235575.0 231372.0 45373.0 39022.0 22332.0 24133.0 187928.0 185898.0 48634.0 50905.0 116077.0 124061.0 128185.0 122412.0 163058.0 155097.0 37042.0 38419.0 134294.0 127232.0 101564.0 96163.0 126965.0 121908.0 24466.0 31170.0 135060.0 132254.0 141954.0 140362.0 158588.0 166324.0 7799.0 0.0 41930.0 47920.0 70951.0 73356.0 53103.0 58704.0 17574.0 23438.0 187823.0 194051.0 51019.0 54123.0 110399.0 106171.0 136943.0 142467.0 98619.0 92142.0 172648.0 180639.0 186859.0 181360.0 142105.0 133693.0 123525.0 125676.0 244788.0 244103.0 84266.0 78591.0 334812.0 326877.0 82053.0 74076.0 82453.0 79120.0 132514.0 140258.0 233342.0 235530.0 51038.0 43823.0 107135.0 112240.0 47048.0 172518.0 47048.0 47048.0 47048.0 47048.0 47048.0 47048.0 47048.0 47048.0 172518.0 172518.0 172518.0 172518.0 172518.0 172518.0 172518.0 172518.0
268070.0 264600.0 269377.0 264506.0 14718.0 18392.0 38813.0 31594.0 190903.0 187201.0 38122.0 45908.0 147681.0 155121.0 147409.0 140365.0 159321.0 151860.0 45809.0 53323.0 159600.0 153785.0 128143.0 121251.0 126570.0 119660.0 58400.0 66395.0 136280.0 135856.0 137568.0 138397.0 158947.0 167168.0 49312.0 41930.0 0.0 7962.0 56327.0 62746.0 11955.0 19443.0 58555.0 62117.0 222290.0 227878.0 26864.0 34900.0 137235.0 134872.0 160864.0 167684.0 104011.0 95887.0 210352.0 218343.0 180190.0 173384.0 168533.0 160246.0 118709.0 118146.0 239841.0 240553.0 93135.0 90630.0 372490.0 364525.0 97712.0 90387.0 109179.0 103497.0 155856.0 162863.0 270906.0 272579.0 24949.0 25582.0 139885.0 145914.0 88720.0 210223.0 88720.0 88720.0 88720.0 88720.0 88720.0 88720.0 88720.0 88720.0 210223.0 210223.0 210223.0 210223.0 210223.0 210223.0 210223.0 210223.0
263393.0 259747.0 271114.0 266059.0 20811.0 25889.0 46609.0 39463.0 186532.0 182581.0 34918.0 43104.0 149257.0 156512.0 146254.0 139024.0 154074.0 146734.0 53745.0 61284.0 159620.0 154124.0 128717.0 121581.0 122096.0 114961.0 65773.0 73761.0 131975.0 131950.0 132369.0 133565.0 154332.0 162579.0 54972.0 47920.0 7962.0 0.0 50909.0 57806.0 5358.0 11616.0 63839.0 66670.0 224324.0 229712.0 21636.0 29951.0 137774.0 135854.0 160575.0 167631.0 100826.0 92564.0 213534.0 221529.0 174423.0 167466.0 168745.0 160540.0 113615.0 112643.0 234129.0 235033.0 90797.0 88940.0 375535.0 367530.0 96543.0 89514.0 110026.0 103942.0 155480.0 162280.0 273893.0 275345.0 30550.0 32605.0 141809.0 148040.0 94953.0 213414.0 94953.0 94953.0 94953.0 94953.0 94953.0 94953.0 94953.0 94953.0 213414.0 213414.0 213414.0 213414.0 213414.0 213414.0 213414.0 213414.0
212671.0 208916.0 243967.0 237943.0 70998.0 73828.0 84053.0 79175.0 136206.0 131966.0 22592.0 20944.0 125062.0 130763.0 107130.0 99314.0 103168.0 95832.0 96329.0 101994.0 125908.0 122402.0 99937.0 91977.0 71841.0 64413.0 95298.0 102101.0 81951.0 82777.0 81461.0 82823.0 103766.0 112027.0 73606.0 70951.0 56327.0 50909.0 0.0 8042.0 52442.0 46995.0 77378.0 74554.0 199919.0 203959.0 29490.0 21493.0 108129.0 108960.0 125195.0 133211.0 54803.0 46460.0 196802.0 204580.0 123886.0 117169.0 135688.0 128265.0 62735.0 61829.0 183517.0 184246.0 49569.0 51519.0 355098.0 346911.0 61013.0 56768.0 84738.0 76958.0 119857.0 125341.0 254415.0 254404.0 81132.0 81523.0 120285.0 127369.0 109849.0 197172.0 109849.0 109849.0 109849.0 109849.0 109849.0 109849.0 109849.0 109849.0 197172.0 197172.0 197172.0 197172.0 197172.0 197172.0 197172.0 197172.0
205587.0 201968.0 237000.0 230889.0 77463.0 79766.0 88089.0 83686.0 128844.0 124785.0 26639.0 22454.0 118851.0 124315.0 99369.0 91530.0 96593.0 89115.0 100947.0 106200.0 118577.0 115298.0 93353.0 85370.0 64409.0 57164.0 97822.0 104281.0 74423.0 75005.0 74833.0 75767.0 96543.0 104795.0 75219.0 73356.0 62746.0 57806.0 8042.0 0.0 59691.0 54607.0 78026.0 74427.0 193334.0 197216.0 36187.0 27920.0 101361.0 102536.0 117703.0 125783.0 46765.0 38431.0 191146.0 198868.0 117978.0 111510.0 128385.0 121073.0 55964.0 55705.0 177450.0 177949.0 41969.0 44449.0 348694.0 340495.0 54032.0 50341.0 78855.0 70967.0 112361.0 117709.0 248262.0 248083.0 87674.0 87559.0 114472.0 121606.0 109735.0 191730.0 109735.0 109735.0 109735.0 109735.0 109735.0 109735.0 109735.0 109735.0 191730.0 191730.0 191730.0 191730.0 191730.0 191730.0 191730.0 191730.0
265113.0 261327.0 276048.0 270945.0 21864.0 28184.0 50673.0 43380.0 188533.0 184395.0 38285.0 46574.0 154181.0 161382.0 150195.0 142886.0 155397.0 148170.0 56786.0 64557.0 164039.0 158662.0 133354.0 126142.0 124099.0 116803.0 70345.0 78341.0 134088.0 134350.0 133764.0 135265.0 156177.0 164436.0 60227.0 53103.0 11955.0 5358.0 52442.0 59691.0 0.0 8242.0 69152.0 72026.0 229342.0 234678.0 23998.0 32241.0 142392.0 140616.0 164874.0 172017.0 103759.0 95434.0 218777.0 226771.0 175242.0 168141.0 173229.0 165058.0 115135.0 113803.0 234961.0 236046.0 94244.0 92722.0 380746.0 372734.0 100549.0 93662.0 114768.0 108562.0 159747.0 166457.0 279100.0 280512.0 30724.0 34118.0 146824.0 153098.0 100102.0 218659.0 100102.0 100102.0 100102.0 100102.0 100102.0 100102.0 100102.0 100102.0 218659.0 218659.0 218659.0 218659.0 218659.0 218659.0 218659.0 218659.0
259348.0 255404.0 276603.0 271316.0 30056.0 36404.0 58212.0 51032.0 183164.0 178797.0 35992.0 44242.0 154812.0 161801.0 148101.0 140638.0 149271.0 142178.0 64892.0 72585.0 163067.0 158029.0 133065.0 125650.0 118833.0 111351.0 77313.0 85293.0 128943.0 129597.0 127748.0 129599.0 150652.0 158914.0 65458.0 58704.0 19443.0 11616.0 46995.0 54607.0 8242.0 0.0 73949.0 76098.0 230266.0 235386.0 20805.0 28383.0 142025.0 140703.0 163588.0 170946.0 99912.0 91522.0 220912.0 228899.0 168588.0 161362.0 172420.0 164356.0 109301.0 107574.0 228282.0 229539.0 91339.0 90486.0 382597.0 374547.0 98753.0 92230.0 114862.0 108301.0 158392.0 164872.0 280959.0 282136.0 38616.0 42335.0 147834.0 154291.0 105724.0 220823.0 105724.0 105724.0 105724.0 105724.0 105724.0 105724.0 105724.0 105724.0 220823.0 220823.0 220823.0 220823.0 220823.0 220823.0 220823.0 220823.0
259559.0 257780.0 218801.0 214766.0 62922.0 56574.0 37057.0 40667.0 182608.0 181297.0 56691.0 56444.0 100425.0 108519.0 117227.0 112124.0 160947.0 152943.0 50500.0 49486.0 120770.0 113325.0 88127.0 83522.0 124369.0 120269.0 27956.0 30848.0 131534.0 127802.0 140598.0 138032.0 154854.0 162236.0 9783.0 17574.0 58555.0 63839.0 77378.0 78026.0 69152.0 73949.0 0.0 8000.0 170972.0 177344.0 62932.0 64129.0 96663.0 91759.0 123921.0 128870.0 94713.0 89330.0 155235.0 163227.0 185563.0 180699.0 128055.0 119697.0 122910.0 126122.0 242108.0 240848.0 79678.0 72949.0 317399.0 309464.0 74447.0 66734.0 69544.0 67481.0 119791.0 127706.0 215929.0 218129.0 68525.0 61116.0 91176.0 95921.0 33292.0 155105.0 33292.0 33292.0 33292.0 33292.0 33292.0 33292.0 33292.0 33292.0 155105.0 155105.0 155105.0 155105.0 155105.0 155105.0 155105.0 155105.0
252105.0 250420.0 212144.0 207969.0 67963.0 62142.0 44365.0 47369.0 175321.0 174164.0 55079.0 53685.0 93049.0 101102.0 109243.0 104180.0 154468.0 146469.0 58160.0 57409.0 112872.0 105477.0 80200.0 75534.0 117852.0 114042.0 35883.0 38321.0 124747.0 120795.0 134385.0 131546.0 147962.0 155247.0 16165.0 23438.0 62117.0 66670.0 74554.0 74427.0 72026.0 76098.0 8000.0 0.0 164385.0 170627.0 63128.0 63278.0 88779.0 83989.0 115972.0 120984.0 87966.0 82921.0 149501.0 157493.0 179269.0 174600.0 120238.0 111867.0 116986.0 120529.0 235373.0 233972.0 72842.0 65892.0 311665.0 303730.0 66942.0 59327.0 61562.0 59491.0 111819.0 119727.0 210178.0 212325.0 74285.0 67236.0 83940.0 88899.0 35337.0 149371.0 35337.0 35337.0 35337.0 35337.0 35337.0 35337.0 35337.0 35337.0 149371.0 149371.0 149371.0 149371.0 149371.0 149371.0 149371.0 149371.0
213113.0 216952.0 47890.0 44614.0 231129.0 226107.0 207777.0 211614.0 170836.0 176810.0 196215.0 188932.0 75623.0 69247.0 105488.0 112301.0 187900.0 183837.0 219997.0 216769.0 79869.0 80042.0 99995.0 107971.0 169972.0 175045.0 192467.0 189826.0 165562.0 157821.0 184394.0 176390.0 172185.0 172365.0 180409.0 187823.0 222290.0 224324.0 199919.0 193334.0 229342.0 230266.0 170972.0 164385.0 0.0 8049.0 210852.0 205697.0 92079.0 91022.0 83746.0 75578.0 156547.0 162077.0 35058.0 34068.0 207776.0 210089.0 70737.0 75568.0 182475.0 190453.0 232639.0 226293.0 153157.0 149092.0 155600.0 147376.0 139474.0 143151.0 116188.0 123520.0 88318.0 87450.0 58108.0 55972.0 238352.0 231577.0 82518.0 76377.0 176257.0 42206.0 176257.0 176257.0 176257.0 176257.0 176257.0 176257.0 176257.0 176257.0 42206.0 42206.0 42206.0 42206.0 42206.0 42206.0 42206.0 42206.0
208869.0 212937.0 41572.0 37555.0 237004.0 232135.0 214246.0 217936.0 169198.0 175412.0 201006.0 193594.0 80574.0 73775.0 107053.0 114136.0 187859.0 184099.0 226645.0 223570.0 81903.0 82873.0 104074.0 112004.0 171379.0 176739.0 199278.0 196684.0 166532.0 158864.0 185283.0 177235.0 172075.0 171868.0 186705.0 194051.0 227878.0 229712.0 203959.0 197216.0 234678.0 235386.0 177344.0 170627.0 8049.0 0.0 215768.0 210416.0 95857.0 95386.0 85289.0 76936.0 159254.0 165075.0 42748.0 41104.0 207065.0 209687.0 72439.0 77966.0 184179.0 192169.0 229962.0 223452.0 156573.0 152835.0 152565.0 144331.0 143221.0 147241.0 120878.0 128027.0 90093.0 88513.0 57807.0 54561.0 244391.0 237733.0 87993.0 82130.0 183114.0 49871.0 183114.0 183114.0 183114.0 183114.0 183114.0 183114.0 183114.0 183114.0 49871.0 49871.0 49871.0 49871.0 49871.0 49871.0 49871.0 49871.0
241768.0 238151.0 256822.0 251394.0 41511.0 44676.0 58504.0 52582.0 164901.0 160948.0 15243.0 23447.0 135254.0 142040.0 127297.0 119843.0 132606.0 125210.0 69149.0 75633.0 142457.0 137570.0 112837.0 105312.0 100463.0 93329.0 73610.0 81202.0 110358.0 110439.0 110873.0 111953.0 132698.0 140944.0 56137.0 51019.0 26864.0 21636.0 29490.0 36187.0 23998.0 20805.0 62932.0 63128.0 210852.0 215768.0 0.0 8322.0 121732.0 120722.0 142879.0 150296.0 79788.0 71450.0 202911.0 210872.0 153327.0 146526.0 151868.0 143859.0 92070.0 91320.0 212984.0 213737.0 70662.0 69683.0 364054.0 355962.0 77971.0 71534.0 94961.0 88156.0 137667.0 144100.0 262508.0 263402.0 51643.0 52242.0 128672.0 135304.0 96105.0 202888.0 96105.0 96105.0 96105.0 96105.0 96105.0 96105.0 96105.0 96105.0 202888.0 202888.0 202888.0 202888.0 202888.0 202888.0 202888.0 202888.0
233477.0 229886.0 251277.0 245707.0 49604.0 52346.0 64153.0 58717.0 156582.0 152648.0 9712.0 16888.0 130080.0 136641.0 120025.0 112487.0 124435.0 117004.0 75643.0 81739.0 135918.0 131303.0 106950.0 99290.0 92146.0 85032.0 77671.0 84998.0 102036.0 102136.0 102689.0 103679.0 124395.0 132639.0 58344.0 54123.0 34900.0 29951.0 21493.0 27920.0 32241.0 28383.0 64129.0 63278.0 205697.0 210416.0 8322.0 0.0 115738.0 115126.0 136113.0 143668.0 71678.0 63316.0 198919.0 206850.0 145372.0 138660.0 145429.0 137521.0 83856.0 83260.0 204987.0 205657.0 62997.0 62458.0 359523.0 351403.0 71035.0 64933.0 89546.0 82464.0 130863.0 137128.0 258109.0 258782.0 59788.0 60031.0 123894.0 130664.0 97414.0 198964.0 97414.0 97414.0 97414.0 97414.0 97414.0 97414.0 97414.0 97414.0 198964.0 198964.0 198964.0 198964.0 198964.0 198964.0 198964.0 198964.0
182809.0 183259.0 135961.0 130141.0 148339.0 144921.0 132540.0 134249.0 114751.0 117337.0 106632.0 98851.0 21756.0 24182.0 31650.0 32837.0 114198.0 107888.0 146787.0 146146.0 24129.0 16859.0 9096.0 16448.0 86290.0 89291.0 123525.0 123722.0 85360.0 77731.0 103513.0 96341.0 100550.0 104345.0 104332.0 110399.0 137235.0 137774.0 108129.0 101361.0 142392.0 142025.0 96663.0 88779.0 92079.0 95857.0 121732.0 115738.0 0.0 7938.0 27900.0 32207.0 66367.0 70887.0 94573.0 101673.0 138537.0 137941.0 31769.0 23352.0 96378.0 104030.0 181461.0 177470.0 61226.0 57024.0 247633.0 239417.0 47404.0 51514.0 28320.0 33833.0 24762.0 32751.0 148090.0 147336.0 156982.0 151596.0 24737.0 30262.0 112043.0 96878.0 112043.0 112043.0 112043.0 112043.0 112043.0 112043.0 112043.0 112043.0 96878.0 96878.0 96878.0 96878.0 96878.0 96878.0 96878.0 96878.0
190727.0 191194.0 136155.0 130673.0 145448.0 141660.0 128113.0 130191.0 122557.0 125036.0 105802.0 98270.0 16929.0 21803.0 39549.0 40378.0 121080.0 114598.0 142143.0 141141.0 30089.0 21982.0 9723.0 17487.0 92112.0 94635.0 118140.0 117962.0 91768.0 84250.0 109639.0 102655.0 107708.0 111721.0 99807.0 106171.0 134872.0 135854.0 108960.0 102536.0 140616.0 140703.0 91759.0 83989.0 91022.0 95386.0 120722.0 115126.0 7938.0 0.0 34638.0 37802.0 70455.0 74248.0 90654.0 98001.0 145635.0 144817.0 36378.0 28122.0 101567.0 109069.0 189225.0 185292.0 63774.0 58749.0 246168.0 237974.0 49230.0 52221.0 25859.0 32666.0 32059.0 39907.0 145873.0 145552.0 153813.0 148120.0 17487.0 23688.0 105770.0 92464.0 105770.0 105770.0 105770.0 105770.0 105770.0 105770.0 105770.0 105770.0 92464.0 92464.0 92464.0 92464.0 92464.0 92464.0 92464.0 92464.0
159802.0 161019.0 121795.0 115041.0 172806.0 170002.0 159223.0 160491.0 97786.0 101912.0 127637.0 119482.0 38330.0 33836.0 21773.0 28953.0 106371.0 101488.0 173668.0 173378.0 6325.0 14134.0 35857.0 40796.0 86229.0 91452.0 151086.0 151489.0 82021.0 74228.0 100897.0 92965.0 91124.0 92846.0 131217.0 136943.0 160864.0 160575.0 125195.0 117703.0 164874.0 163588.0 123921.0 115972.0 83746.0 85289.0 142879.0 136113.0 27900.0 34638.0 0.0 8481.0 75441.0 82145.0 96579.0 102370.0 128444.0 129508.0 13041.0 11750.0 98891.0 106881.0 164209.0 159357.0 75749.0 74096.0 237442.0 229215.0 65115.0 71359.0 54539.0 58256.0 5344.0 6256.0 141828.0 139545.0 181859.0 176970.0 46513.0 48905.0 139943.0 100704.0 139943.0 139943.0 139943.0 139943.0 139943.0 139943.0 139943.0 139943.0 100704.0 100704.0 100704.0 100704.0 100704.0 100704.0 100704.0 100704.0
162051.0 163668.0 113319.0 106581.0 179356.0 176310.0 164661.0 166216.0 102946.0 107505.0 135056.0 126956.0 37691.0 31712.0 30134.0 37419.0 113618.0 108986.0 178959.0 178353.0 8189.0 15823.0 40906.0 46767.0 94478.0 99815.0 155667.0 155692.0 90013.0 82255.0 108867.0 100892.0 98196.0 99494.0 136495.0 142467.0 167684.0 167631.0 133211.0 125783.0 172017.0 170946.0 128870.0 120984.0 75578.0 76936.0 150296.0 143668.0 32207.0 37802.0 8481.0 0.0 83878.0 90514.0 89830.0 95329.0 135160.0 136537.0 5674.0 10180.0 107254.0 115245.0 168890.0 163758.0 83871.0 81938.0 228994.0 220768.0 72807.0 78776.0 60071.0 64496.0 13675.0 12123.0 133685.0 131278.0 188259.0 183154.0 46859.0 48009.0 143565.0 94275.0 143565.0 143565.0 143565.0 143565.0 143565.0 143565.0 143565.0 143565.0 94275.0 94275.0 94275.0 94275.0 94275.0 94275.0 94275.0 94275.0
167185.0 164684.0 197100.0 190446.0 118278.0 118523.0 118764.0 116638.0 89480.0 87280.0 66016.0 58104.0 87300.0 90544.0 55060.0 47184.0 66764.0 58808.0 133309.0 136473.0 77691.0 76508.0 60772.0 53569.0 30266.0 28282.0 121040.0 125348.0 36822.0 33652.0 47905.0 43938.0 60214.0 67784.0 96776.0 98619.0 104011.0 100826.0 54803.0 46765.0 103759.0 99912.0 94713.0 87966.0 156547.0 159254.0 79788.0 71678.0 66367.0 70455.0 75441.0 83878.0 0.0 8408.0 160864.0 168028.0 91965.0 88059.0 87467.0 81305.0 33672.0 40166.0 147417.0 146155.0 15185.0 22761.0 311819.0 303584.0 26800.0 31413.0 54749.0 47748.0 70206.0 74212.0 213702.0 212414.0 128449.0 126368.0 86363.0 93361.0 123494.0 162894.0 123494.0 123494.0 123494.0 123494.0 123494.0 123494.0 123494.0 123494.0 162894.0 162894.0 162894.0 162894.0 162894.0 162894.0 162894.0 162894.0
174353.0 171646.0 203455.0 196926.0 110230.0 110669.0 111801.0 109395.0 96628.0 94033.0 57825.0 50010.0 91177.0 95013.0 62337.0 54432.0 71617.0 63613.0 126220.0 129658.0 83996.0 82202.0 64528.0 56939.0 35072.0 31263.0 115052.0 119695.0 42934.0 40755.0 51562.0 48706.0 66464.0 74279.0 90753.0 92142.0 95887.0 92564.0 46460.0 38431.0 95434.0 91522.0 89330.0 82921.0 162077.0 165075.0 71450.0 63316.0 70887.0 74248.0 82145.0 90514.0 8408.0 0.0 164901.0 172214.0 96354.0 91865.0 93833.0 87310.0 35192.0 40485.0 152977.0 152046.0 12531.0 20384.0 317570.0 309338.0 27157.0 29691.0 56077.0 48547.0 76850.0 81295.0 218831.0 217792.0 120426.0 118533.0 89383.0 96498.0 119091.0 166617.0 119091.0 119091.0 119091.0 119091.0 119091.0 119091.0 119091.0 119091.0 166617.0 166617.0 166617.0 166617.0 166617.0 166617.0 166617.0 166617.0
241626.0 244800.0 74070.0 73664.0 217421.0 211605.0 191159.0 195697.0 191768.0 196841.0 189216.0 182781.0 73724.0 70516.0 116760.0 122118.0 202868.0 197723.0 202620.0 199124.0 91131.0 87993.0 100373.0 108040.0 179571.0 183328.0 174821.0 172170.0 177042.0 169203.0 195803.0 188134.0 187699.0 189294.0 164956.0 172648.0 210352.0 213534.0 196802.0 191146.0 218777.0 220912.0 155235.0 149501.0 35058.0 42748.0 202911.0 198919.0 94573.0 90654.0 96579.0 89830.0 160864.0 164901.0 0.0 7995.0 224945.0 226084.0 84213.0 85801.0 190558.0 198328.0 256317.0 250543.0 154267.0 148737.0 162168.0 154244.0 139437.0 141249.0 112321.0 120263.0 99886.0 101796.0 60798.0 63494.0 223683.0 216351.0 76725.0 69560.0 158600.0 7151.0 158600.0 158600.0 158600.0 158600.0 158600.0 158600.0 158600.0 158600.0 7151.0 7151.0 7151.0 7151.0 7151.0 7151.0 7151.0 7151.0
244402.0 247801.0 68620.0 68904.0 225413.0 219597.0 199150.0 203689.0 196503.0 201775.0 197149.0 190683.0 81083.0 77531.0 122924.0 128512.0 208741.0 203758.0 210612.0 207115.0 97110.0 94404.0 107708.0 115436.0 186176.0 190104.0 182812.0 180161.0 183389.0 175545.0 202198.0 194468.0 193451.0 194806.0 172947.0 180639.0 218343.0 221529.0 204580.0 198868.0 226771.0 228899.0 163227.0 157493.0 34068.0 41104.0 210872.0 206850.0 101673.0 98001.0 102370.0 95329.0 168028.0 172214.0 7995.0 0.0 230477.0 231823.0 89776.0 91875.0 197371.0 205178.0 260513.0 254588.0 161707.0 156281.0 154187.0 146271.0 146937.0 148888.0 120020.0 127944.0 105896.0 107389.0 52885.0 55805.0 231675.0 224342.0 84406.0 77262.0 166591.0 11757.0 166591.0 166591.0 166591.0 166591.0 166591.0 166591.0 166591.0 166591.0 11757.0 11757.0 11757.0 11757.0 11757.0 11757.0 11757.0 11757.0
96856.0 91183.0 234771.0 226903.0 194821.0 197650.0 204655.0 200985.0 43323.0 35375.0 144407.0 138675.0 159528.0 158736.0 109576.0 106027.0 25555.0 33288.0 218249.0 222831.0 134134.0 138615.0 137798.0 133471.0 61702.0 65300.0 210553.0 215632.0 56706.0 62998.0 45004.0 48038.0 38017.0 35672.0 186351.0 186859.0 180190.0 174423.0 123886.0 117978.0 175242.0 168588.0 185563.0 179269.0 207776.0 207065.0 153327.0 145372.0 138537.0 145635.0 128444.0 135160.0 91965.0 96354.0 224945.0 230477.0 0.0 8425.0 140748.0 139608.0 63372.0 62289.0 59719.0 61167.0 107098.0 114711.0 351489.0 343509.0 117147.0 123036.0 140717.0 135522.0 125539.0 123150.0 264841.0 260979.0 204883.0 205387.0 163101.0 168779.0 215326.0 229147.0 215326.0 215326.0 215326.0 215326.0 215326.0 215326.0 215326.0 215326.0 229147.0 229147.0 229147.0 229147.0 229147.0 229147.0 229147.0 229147.0
105255.0 99530.0 238467.0 230651.0 187966.0 190995.0 198714.0 194855.0 49458.0 41420.0 138058.0 132578.0 159223.0 158863.0 109921.0 105831.0 23743.0 30561.0 212133.0 216901.0 135011.0 139044.0 136652.0 131920.0 57908.0 60611.0 205243.0 210514.0 54182.0 61061.0 40314.0 44545.0 38385.0 37848.0 181128.0 181360.0 173384.0 167466.0 117169.0 111510.0 168141.0 161362.0 180699.0 174600.0 210089.0 209687.0 146526.0 138660.0 137941.0 144817.0 129508.0 136537.0 88059.0 91865.0 226084.0 231823.0 8425.0 0.0 142055.0 140422.0 57914.0 56037.0 67004.0 68919.0 103052.0 110804.0 355457.0 347435.0 113855.0 119382.0 138432.0 132888.0 126315.0 124446.0 267494.0 263856.0 197976.0 198690.0 162303.0 168198.0 210954.0 230070.0 210954.0 210954.0 210954.0 210954.0 210954.0 210954.0 210954.0 210954.0 230070.0 230070.0 230070.0 230070.0 230070.0 230070.0 230070.0 230070.0
167152.0 168882.0 109651.0 103095.0 179909.0 176622.0 164192.0 165996.0 108608.0 113179.0 136650.0 128633.0 33943.0 27331.0 34751.0 41699.0 119067.0 114335.0 178349.0 177482.0 9856.0 14913.0 40777.0 47290.0 99237.0 104369.0 154516.0 154256.0 95054.0 87265.0 113928.0 105987.0 103696.0 105088.0 135934.0 142105.0 168533.0 168745.0 135688.0 128385.0 173229.0 172420.0 128055.0 120238.0 70737.0 72439.0 151868.0 145429.0 31769.0 36378.0 13041.0 5674.0 87467.0 93833.0 84213.0 89776.0 140748.0 142055.0 0.0 8419.0 111805.0 119791.0 174503.0 169336.0 86626.0 84231.0 224784.0 216553.0 74918.0 80503.0 60054.0 65064.0 17655.0 17613.0 128804.0 126583.0 188651.0 183339.0 43495.0 43972.0 141771.0 88619.0 141771.0 141771.0 141771.0 141771.0 141771.0 141771.0 141771.0 141771.0 88619.0 88619.0 88619.0 88619.0 88619.0 88619.0 88619.0 88619.0
170995.0 172371.0 116271.0 109935.0 171552.0 168229.0 155789.0 157579.0 109519.0 113578.0 128659.0 120691.0 27741.0 22395.0 31065.0 37104.0 117102.0 111928.0 169963.0 169141.0 5542.0 6503.0 32372.0 38998.0 95076.0 99736.0 146242.0 146077.0 91652.0 83812.0 110511.0 102701.0 102056.0 104096.0 127539.0 133693.0 160246.0 160540.0 128265.0 121073.0 165058.0 164356.0 119697.0 111867.0 75568.0 77966.0 143859.0 137521.0 23352.0 28122.0 11750.0 10180.0 81305.0 87310.0 85801.0 91875.0 139608.0 140422.0 8419.0 0.0 107141.0 115095.0 175959.0 171098.0 79531.0 76749.0 230529.0 222294.0 67328.0 72649.0 51647.0 56754.0 14108.0 17909.0 133330.0 131540.0 180268.0 174933.0 36729.0 38190.0 133739.0 89649.0 133739.0 133739.0 133739.0 133739.0 133739.0 133739.0 133739.0 133739.0 89649.0 89649.0 89649.0 89649.0 89649.0 89649.0 89649.0 89649.0
150048.0 146192.0 219548.0 212392.0 133427.0 135572.0 141359.0 137857.0 74480.0 69625.0 81794.0 75620.0 117993.0 120110.0 77126.0 70176.0 40687.0 33151.0 155090.0 159523.0 102623.0 103470.0 92144.0 85580.0 14291.0 7440.0 147339.0 152607.0 23636.0 28748.0 18936.0 20516.0 41764.0 49967.0 123214.0 123525.0 118709.0 113615.0 62735.0 55964.0 115135.0 109301.0 122910.0 116986.0 182475.0 184179.0 92070.0 83856.0 96378.0 101567.0 98891.0 107254.0 33672.0 35192.0 190558.0 197371.0 63372.0 57914.0 111805.0 107141.0 0.0 7991.0 122106.0 122232.0 47343.0 55298.0 336065.0 327850.0 60450.0 64452.0 88207.0 81375.0 94173.0 95941.0 240424.0 238381.0 143634.0 143404.0 118272.0 125053.0 153652.0 193176.0 153652.0 153652.0 153652.0 153652.0 153652.0 153652.0 153652.0 153652.0 193176.0 193176.0 193176.0 193176.0 193176.0 193176.0 193176.0 193176.0
152209.0 147989.0 227504.0 220336.0 132826.0 135438.0 142692.0 138824.0 78084.0 72621.0 82123.0 76541.0 125585.0 127847.0 85116.0 78152.0 41727.0 34920.0 156101.0 160879.0 110596.0 111377.0 99582.0 92869.0 21812.0 15430.0 149768.0 155331.0 30310.0 36135.0 20607.0 24825.0 45604.0 53570.0 125843.0 125676.0 118146.0 112643.0 61829.0 55705.0 113803.0 107574.0 126122.0 120529.0 190453.0 192169.0 91320.0 83260.0 104030.0 109069.0 106881.0 115245.0 40166.0 40485.0 198328.0 205178.0 62289.0 56037.0 119791.0 115095.0 7991.0 0.0 121761.0 122418.0 52937.0 60853.0 344049.0 335833.0 66703.0 70131.0 94912.0 87877.0 102156.0 103926.0 248392.0 246364.0 142958.0 143204.0 125634.0 132472.0 157491.0 200878.0 157491.0 157491.0 157491.0 157491.0 157491.0 157491.0 157491.0 157491.0 200878.0 200878.0 200878.0 200878.0 200878.0 200878.0 200878.0 200878.0
51844.0 43951.0 249232.0 241231.0 254489.0 257199.0 263331.0 259954.0 66812.0 64390.0 203729.0 197721.0 200347.0 197558.0 150017.0 149012.0 81782.0 89709.0 277174.0 281459.0 170481.0 176901.0 183029.0 180439.0 117930.0 122945.0 268011.0 272639.0 110629.0 115021.0 103247.0 104433.0 87626.0 80904.0 243715.0 244788.0 239841.0 234129.0 183517.0 177450.0 234961.0 228282.0 242108.0 235373.0 232639.0 229962.0 212984.0 204987.0 181461.0 189225.0 164209.0 168890.0 147417.0 152977.0 256317.0 260513.0 59719.0 67004.0 174503.0 175959.0 122106.0 121761.0 0.0 8118.0 162533.0 169652.0 361249.0 353718.0 170380.0 177146.0 190141.0 186270.0 162909.0 158108.0 285826.0 280542.0 264570.0 264963.0 206003.0 210540.0 270462.0 261626.0 270462.0 270462.0 270462.0 270462.0 270462.0 270462.0 270462.0 270462.0 261626.0 261626.0 261626.0 261626.0 261626.0 261626.0 261626.0 261626.0
44542.0 36825.0 242043.0 234050.0 255241.0 257704.0 263034.0 259864.0 62750.0 61216.0 204019.0 197784.0 195945.0 192894.0 145900.0 145273.0 81600.0 89387.0 277033.0 281110.0 165656.0 172283.0 179392.0 177113.0 117141.0 122580.0 267071.0 271502.0 109341.0 113259.0 103299.0 103856.0 86009.0 78862.0 242774.0 244103.0 240553.0 235033.0 184246.0 177949.0 236046.0 229539.0 240848.0 233972.0 226293.0 223452.0 213737.0 205657.0 177470.0 185292.0 159357.0 163758.0 146155.0 152046.0 250543.0 254588.0 61167.0 68919.0 169336.0 171098.0 122232.0 122418.0 8118.0 0.0 161174.0 168113.0 353661.0 346158.0 168391.0 175344.0 187219.0 183636.0 158270.0 153204.0 279033.0 273650.0 265376.0 265508.0 201881.0 206228.0 268692.0 255959.0 268692.0 268692.0 268692.0 268692.0 268692.0 268692.0 268692.0 268692.0 255959.0 255959.0 255959.0 255959.0 255959.0 255959.0 255959.0 255959.0
181227.0 178971.0 195750.0 189466.0 106977.0 106513.0 104915.0 103224.0 103677.0 101870.0 55965.0 47707.0 80646.0 85062.0 57678.0 49934.0 81942.0 73979.0 119603.0 122397.0 76786.0 73979.0 54132.0 46294.0 45399.0 42780.0 106261.0 110390.0 51905.0 48227.0 62792.0 59092.0 75176.0 82601.0 82059.0 84266.0 93135.0 90797.0 49569.0 41969.0 94244.0 91339.0 79678.0 72842.0 153157.0 156573.0 70662.0 62997.0 61226.0 63774.0 75749.0 83871.0 15185.0 12531.0 154267.0 161707.0 107098.0 103052.0 86626.0 79531.0 47343.0 52937.0 162533.0 161174.0 0.0 7955.0 308756.0 300534.0 15137.0 17193.0 44032.0 36336.0 70406.0 75774.0 209276.0 208558.0 116996.0 114268.0 78140.0 85309.0 108311.0 155705.0 108311.0 108311.0 108311.0 108311.0 108311.0 108311.0 108311.0 108311.0 155705.0 155705.0 155705.0 155705.0 155705.0 155705.0 155705.0 155705.0
187094.0 185061.0 192553.0 186463.0 104053.0 103023.0 99740.0 98497.0 109795.0 108348.0 54594.0 46290.0 75434.0 80371.0 57615.0 50189.0 89449.0 81515.0 114531.0 116929.0 74489.0 70892.0 49307.0 41334.0 53022.0 50671.0 99940.0 103764.0 59077.0 54903.0 70593.0 66675.0 82118.0 89356.0 75894.0 78591.0 90630.0 88940.0 51519.0 44449.0 92722.0 90486.0 72949.0 65892.0 149092.0 152835.0 69683.0 62458.0 57024.0 58749.0 74096.0 81938.0 22761.0 20384.0 148737.0 156281.0 114711.0 110804.0 84231.0 76749.0 55298.0 60853.0 169652.0 168113.0 7955.0 0.0 304599.0 296389.0 9620.0 9326.0 37344.0 29453.0 68787.0 74772.0 204605.0 204149.0 113902.0 110668.0 72217.0 79411.0 100915.0 149917.0 100915.0 100915.0 100915.0 100915.0 100915.0 100915.0 100915.0 100915.0 149917.0 149917.0 149917.0 149917.0 149917.0 149917.0 149917.0 149917.0
326258.0 332561.0 117335.0 124984.0 379468.0 373770.0 353323.0 357861.0 309968.0 317245.0 349891.0 342996.0 230097.0 224380.0 259091.0 266390.0 335401.0 332718.0 364784.0 361288.0 234376.0 235389.0 255367.0 263355.0 322868.0 328635.0 336985.0 334334.0 317217.0 309759.0 335638.0 327549.0 319626.0 317968.0 327120.0 334812.0 372490.0 375535.0 355098.0 348694.0 380746.0 382597.0 317399.0 311665.0 155600.0 152565.0 364054.0 359523.0 247633.0 246168.0 237442.0 228994.0 311819.0 317570.0 162168.0 154187.0 351489.0 355457.0 224784.0 230529.0 336065.0 344049.0 361249.0 353661.0 308756.0 304599.0 0.0 8235.0 294987.0 298389.0 270668.0 278271.0 242397.0 240126.0 101650.0 100780.0 385848.0 378515.0 235661.0 228859.0 320764.0 164164.0 320764.0 320764.0 320764.0 320764.0 320764.0 320764.0 320764.0 320764.0 164164.0 164164.0 164164.0 164164.0 164164.0 164164.0 164164.0 164164.0
319152.0 325391.0 109217.0 116895.0 371580.0 365835.0 345388.0 349926.0 302072.0 309322.0 341776.0 334862.0 221923.0 216183.0 250867.0 258162.0 327316.0 324599.0 356850.0 353353.0 226143.0 227155.0 247163.0 255151.0 314663.0 320419.0 329050.0 326399.0 309034.0 301569.0 327468.0 319378.0 311534.0 309918.0 319185.0 326877.0 364525.0 367530.0 346911.0 340495.0 372734.0 374547.0 309464.0 303730.0 147376.0 144331.0 355962.0 351403.0 239417.0 237974.0 229215.0 220768.0 303584.0 309338.0 154244.0 146271.0 343509.0 347435.0 216553.0 222294.0 327850.0 335833.0 353718.0 346158.0 300534.0 296389.0 8235.0 0.0 286776.0 290195.0 262504.0 270098.0 234167.0 231910.0 93637.0 92635.0 377913.0 370580.0 227529.0 220741.0 312829.0 156343.0 312829.0 312829.0 312829.0 312829.0 312829.0 312829.0 312829.0 312829.0 156343.0 156343.0 156343.0 156343.0 156343.0 156343.0 156343.0 156343.0
185163.0 183533.0 182988.0 176932.0 110701.0 109125.0 103803.0 103185.0 108579.0 107834.0 62762.0 54526.0 65984.0 70797.0 49731.0 42668.0 91638.0 83865.0 118662.0 120459.0 65233.0 61401.0 39735.0 31778.0 56022.0 54996.0 102072.0 105235.0 60629.0 55412.0 74135.0 69332.0 82809.0 89557.0 78528.0 82053.0 97712.0 96543.0 61013.0 54032.0 100549.0 98753.0 74447.0 66942.0 139474.0 143221.0 77971.0 71035.0 47404.0 49230.0 65115.0 72807.0 26800.0 27157.0 139437.0 146937.0 117147.0 113855.0 74918.0 67328.0 60450.0 66703.0 170380.0 168391.0 15137.0 9620.0 294987.0 286776.0 0.0 7986.0 28952.0 21399.0 59845.0 66132.0 195049.0 194555.0 120350.0 116619.0 63105.0 70287.0 100394.0 140747.0 100394.0 100394.0 100394.0 100394.0 100394.0 100394.0 100394.0 100394.0 140747.0 140747.0 140747.0 140747.0 140747.0 140747.0 140747.0 140747.0
192826.0 191094.0 187474.0 181610.0 103169.0 101414.0 95817.0 95228.0 116018.0 115047.0 56291.0 48182.0 68525.0 74017.0 57061.0 50216.0 97637.0 89765.0 110677.0 112486.0 70988.0 66504.0 43179.0 35237.0 61485.0 59600.0 94257.0 97560.0 66892.0 62134.0 79308.0 75032.0 89521.0 96483.0 70619.0 74076.0 90387.0 89514.0 56768.0 50341.0 93662.0 92230.0 66734.0 59327.0 143151.0 147241.0 71534.0 64933.0 51514.0 52221.0 71359.0 78776.0 31413.0 29691.0 141249.0 148888.0 123036.0 119382.0 80503.0 72649.0 64452.0 70131.0 177146.0 175344.0 17193.0 9326.0 298389.0 290195.0 7986.0 0.0 29109.0 21117.0 66171.0 72795.0 197931.0 197750.0 112737.0 108861.0 64538.0 71722.0 93350.0 142168.0 93350.0 93350.0 93350.0 93350.0 93350.0 93350.0 93350.0 93350.0 142168.0 142168.0 142168.0 142168.0 142168.0 142168.0 142168.0 142168.0
198490.0 197925.0 161861.0 156471.0 120070.0 116601.0 104705.0 106146.0 125153.0 126005.0 80131.0 72750.0 40643.0 47107.0 49038.0 45429.0 115257.0 107908.0 119129.0 118924.0 51886.0 45145.0 19278.0 14001.0 81749.0 82140.0 97024.0 98015.0 84259.0 77721.0 100016.0 94198.0 104144.0 109747.0 76680.0 82453.0 109179.0 110026.0 84738.0 78855.0 114768.0 114862.0 69544.0 61562.0 116188.0 120878.0 94961.0 89546.0 28320.0 25859.0 54539.0 60071.0 54749.0 56077.0 112321.0 120020.0 140717.0 138432.0 60054.0 51647.0 88207.0 94912.0 190141.0 187219.0 44032.0 37344.0 270668.0 262504.0 28952.0 29109.0 0.0 7992.0 50272.0 58165.0 169726.0 169899.0 128667.0 123286.0 35617.0 42763.0 88120.0 113104.0 88120.0 88120.0 88120.0 88120.0 88120.0 88120.0 88120.0 88120.0 113104.0 113104.0 113104.0 113104.0 113104.0 113104.0 113104.0 113104.0
196587.0 195707.0 168813.0 163276.0 114892.0 111829.0 101452.0 102383.0 122085.0 122467.0 73172.0 65604.0 48175.0 54297.0 49762.0 45020.0 109985.0 102474.0 116083.0 116406.0 56337.0 50288.0 24796.0 17781.0 75657.0 75544.0 95326.0 96958.0 78855.0 72671.0 93932.0 88444.0 99553.0 105531.0 73869.0 79120.0 103497.0 103942.0 76958.0 70967.0 108562.0 108301.0 67481.0 59491.0 123520.0 128027.0 88156.0 82464.0 33833.0 32666.0 58256.0 64496.0 47748.0 48547.0 120263.0 127944.0 135522.0 132888.0 65064.0 56754.0 81375.0 87877.0 186270.0 183636.0 36336.0 29453.0 278271.0 270098.0 21399.0 21117.0 7992.0 0.0 53601.0 61219.0 177458.0 177525.0 123763.0 118735.0 43541.0 50704.0 88461.0 121085.0 88461.0 88461.0 88461.0 88461.0 88461.0 88461.0 88461.0 88461.0 121085.0 121085.0 121085.0 121085.0 121085.0 121085.0 121085.0 121085.0
160204.0 161155.0 126951.0 120244.0 167901.0 165199.0 154821.0 155953.0 96248.0 100016.0 122427.0 114257.0 38087.0 34649.0 17275.0 24044.0 102999.0 97868.0 169329.0 169196.0 8792.0 14016.0 32049.0 36377.0 81714.0 86739.0 147117.0 147717.0 77868.0 70043.0 96746.0 88877.0 87951.0 90067.0 126914.0 132514.0 155856.0 155480.0 119857.0 112361.0 159747.0 158392.0 119791.0 111819.0 88318.0 90093.0 137667.0 130863.0 24762.0 32059.0 5344.0 13675.0 70206.0 76850.0 99886.0 105896.0 125539.0 126315.0 17655.0 14108.0 94173.0 102156.0 162909.0 158270.0 70406.0 68787.0 242397.0 234167.0 59845.0 66171.0 50272.0 53601.0 0.0 8048.0 146337.0 144208.0 177015.0 172218.0 45479.0 48615.0 136518.0 103757.0 136518.0 136518.0 136518.0 136518.0 136518.0 136518.0 136518.0 136518.0 103757.0 103757.0 103757.0 103757.0 103757.0 103757.0 103757.0 103757.0
153580.0 154772.0 123876.0 116915.0 175098.0 172553.0 162578.0 163602.0 91781.0 96046.0 128881.0 120656.0 44517.0 40089.0 19296.0 27064.0 101498.0 96873.0 177125.0 177079.0 12569.0 20247.0 40087.0 44216.0 82906.0 88509.0 155087.0 155735.0 78121.0 70402.0 96945.0 88942.0 86093.0 87498.0 134741.0 140258.0 162863.0 162280.0 125341.0 117709.0 166457.0 164872.0 127706.0 119727.0 87450.0 88513.0 144100.0 137128.0 32751.0 39907.0 6256.0 12123.0 74212.0 81295.0 101796.0 107389.0 123150.0 124446.0 17613.0 17909.0 95941.0 103926.0 158108.0 153204.0 75774.0 74772.0 240126.0 231910.0 66132.0 72795.0 58165.0 61219.0 8048.0 0.0 145551.0 142983.0 184303.0 179638.0 52530.0 55096.0 144566.0 106109.0 144566.0 144566.0 144566.0 144566.0 144566.0 144566.0 144566.0 144566.0 106109.0 106109.0 106109.0 106109.0 106109.0 106109.0 106109.0 106109.0
260916.0 265685.0 44674.0 51001.0 278113.0 272243.0 251853.0 256391.0 226524.0 232906.0 248452.0 241676.0 129410.0 124262.0 163546.0 170260.0 245615.0 241742.0 263314.0 259818.0 137808.0 137437.0 155315.0 163274.0 228035.0 233004.0 235515.0 232864.0 223668.0 215930.0 242495.0 234486.0 229844.0 229674.0 225650.0 233342.0 270906.0 273893.0 254415.0 248262.0 279100.0 280959.0 215929.0 210178.0 58108.0 57807.0 262508.0 258109.0 148090.0 145873.0 141828.0 133685.0 213702.0 218831.0 60798.0 52885.0 264841.0 267494.0 128804.0 133330.0 240424.0 248392.0 285826.0 279033.0 209276.0 204605.0 101650.0 93637.0 195049.0 197931.0 169726.0 177458.0 146337.0 145551.0 0.0 8300.0 284377.0 277045.0 134416.0 127508.0 219294.0 63526.0 219294.0 219294.0 219294.0 219294.0 219294.0 219294.0 219294.0 219294.0 63526.0 63526.0 63526.0 63526.0 63526.0 63526.0 63526.0 63526.0
254638.0 259545.0 36841.0 43507.0 280160.0 274459.0 254053.0 258562.0 222081.0 228612.0 249163.0 242229.0 129358.0 123804.0 161315.0 168223.0 242258.0 238608.0 265514.0 262017.0 135814.0 135944.0 154852.0 162835.0 225754.0 230947.0 237714.0 235064.0 221059.0 213372.0 239828.0 231784.0 226452.0 226009.0 227847.0 235530.0 272579.0 275345.0 254404.0 248083.0 280512.0 282136.0 218129.0 212325.0 55972.0 54561.0 263402.0 258782.0 147336.0 145552.0 139545.0 131278.0 212414.0 217792.0 63494.0 55805.0 260979.0 263856.0 126583.0 131540.0 238381.0 246364.0 280542.0 273650.0 208558.0 204149.0 100780.0 92635.0 194555.0 197750.0 169899.0 177525.0 144208.0 142983.0 8300.0 0.0 286559.0 279244.0 134898.0 128131.0 221494.0 67000.0 221494.0 221494.0 221494.0 221494.0 221494.0 221494.0 221494.0 221494.0 67000.0 67000.0 67000.0 67000.0 67000.0 67000.0 67000.0 67000.0
293006.0 289548.0 285960.0 281526.0 10258.0 12261.0 35920.0 29382.0 215791.0 212135.0 62876.0 70430.0 165290.0 173059.0 169725.0 162951.0 184223.0 176785.0 33853.0 42109.0 180095.0 173767.0 147910.0 141507.0 151494.0 144607.0 57298.0 64628.0 161167.0 160615.0 162478.0 163346.0 183884.0 192100.0 58761.0 51038.0 24949.0 30550.0 81132.0 87674.0 30724.0 38616.0 68525.0 74285.0 238352.0 244391.0 51643.0 59788.0 156982.0 153813.0 181859.0 188259.0 128449.0 120426.0 223683.0 231675.0 204883.0 197976.0 188651.0 180268.0 143634.0 142958.0 264570.0 265376.0 116996.0 113902.0 385848.0 377913.0 120350.0 112737.0 128667.0 123763.0 177015.0 184303.0 284377.0 286559.0 0.0 8543.0 156809.0 162311.0 92852.0 223554.0 92852.0 92852.0 92852.0 92852.0 92852.0 92852.0 92852.0 92852.0 223554.0 223554.0 223554.0 223554.0 223554.0 223554.0 223554.0 223554.0
292056.0 288812.0 279281.0 274976.0 12311.0 7888.0 27475.0 21190.0 214583.0 211214.0 61806.0 68855.0 159100.0 166956.0 165602.0 159022.0 184086.0 176516.0 25792.0 34077.0 174971.0 168431.0 142562.0 136393.0 150560.0 143938.0 48785.0 56088.0 160021.0 159058.0 162323.0 162768.0 183013.0 191182.0 51422.0 43823.0 25582.0 32605.0 81523.0 87559.0 34118.0 42335.0 61116.0 67236.0 231577.0 237733.0 52242.0 60031.0 151596.0 148120.0 176970.0 183154.0 126368.0 118533.0 216351.0 224342.0 205387.0 198690.0 183339.0 174933.0 143404.0 143204.0 264963.0 265508.0 114268.0 110668.0 378515.0 370580.0 116619.0 108861.0 123286.0 118735.0 172218.0 179638.0 277045.0 279244.0 8543.0 0.0 150430.0 155763.0 84514.0 216221.0 84514.0 84514.0 84514.0 84514.0 84514.0 84514.0 84514.0 84514.0 216221.0 216221.0 216221.0 216221.0 216221.0 216221.0 216221.0 216221.0
205647.0 206472.0 129510.0 124802.0 149171.0 144550.0 128212.0 131236.0 139229.0 141984.0 114292.0 107335.0 10000.0 18084.0 55995.0 57574.0 138567.0 132072.0 141490.0 139481.0 40710.0 32395.0 26233.0 32820.0 109263.0 111472.0 115629.0 114275.0 109179.0 101695.0 126928.0 120027.0 125155.0 129063.0 100102.0 107135.0 139885.0 141809.0 120285.0 114472.0 146824.0 147834.0 91176.0 83940.0 82518.0 87993.0 128672.0 123894.0 24737.0 17487.0 46513.0 46859.0 86363.0 89383.0 76725.0 84406.0 163101.0 162303.0 43495.0 36729.0 118272.0 125634.0 206003.0 201881.0 78140.0 72217.0 235661.0 227529.0 63105.0 64538.0 35617.0 43541.0 45479.0 52530.0 134416.0 134898.0 156809.0 150430.0 0.0 7195.0 100929.0 77703.0 100929.0 100929.0 100929.0 100929.0 100929.0 100929.0 100929.0 100929.0 77703.0 77703.0 77703.0 77703.0 77703.0 77703.0 77703.0 77703.0
208660.0 209736.0 123700.0 119224.0 154874.0 150051.0 132974.0 136267.0 143728.0 146772.0 121035.0 114174.0 10579.0 16824.0 60638.0 62889.0 144455.0 138099.0 145972.0 143640.0 42786.0 34878.0 32911.0 39792.0 115789.0 118192.0 119599.0 117834.0 115399.0 107839.0 133324.0 126313.0 130780.0 134425.0 105052.0 112240.0 145914.0 148040.0 127369.0 121606.0 153098.0 154291.0 95921.0 88899.0 76377.0 82130.0 135304.0 130664.0 30262.0 23688.0 48905.0 48009.0 93361.0 96498.0 69560.0 77262.0 168779.0 168198.0 43972.0 38190.0 125053.0 132472.0 210540.0 206228.0 85309.0 79411.0 228859.0 220741.0 70287.0 71722.0 42763.0 50704.0 48615.0 55096.0 127508.0 128131.0 162311.0 155763.0 7195.0 0.0 104309.0 70508.0 104309.0 104309.0 104309.0 104309.0 104309.0 104309.0 104309.0 104309.0 70508.0 70508.0 70508.0 70508.0 70508.0 70508.0 70508.0 70508.0
284593.0 283373.0 224102.0 220667.0 89757.0 82210.0 57108.0 63495.0 208797.0 208225.0 89809.0 88942.0 110802.0 118974.0 137159.0 133236.0 190251.0 182282.0 65346.0 60282.0 135822.0 127741.0 104539.0 101763.0 153675.0 150345.0 36893.0 31861.0 159981.0 155476.0 170653.0 167380.0 182844.0 189830.0 40422.0 47048.0 88720.0 94953.0 109849.0 109735.0 100102.0 105724.0 33292.0 35337.0 176257.0 183114.0 96105.0 97414.0 112043.0 105770.0 139943.0 143565.0 123494.0 119091.0 158600.0 166591.0 215326.0 210954.0 141771.0 133739.0 153652.0 157491.0 270462.0 268692.0 108311.0 100915.0 320764.0 312829.0 100394.0 93350.0 88120.0 88461.0 136518.0 144566.0 219294.0 221494.0 92852.0 84514.0 100929.0 104309.0 0.0 158470.0 0.0 0.0 0.0 0.0 0.0 0.0 0.0 0.0 158470.0 158470.0 158470.0 158470.0 158470.0 158470.0 158470.0 158470.0
247775.0 250835.0 80125.0 80081.0 217291.0 211476.0 191029.0 195567.0 196710.0 201614.0 189257.0 182886.0 75595.0 73098.0 120399.0 125451.0 206726.0 201399.0 202490.0 198994.0 95068.0 91411.0 102177.0 109679.0 182518.0 186013.0 174691.0 172040.0 180349.0 172526.0 199028.0 191448.0 191700.0 193544.0 164826.0 172518.0 210223.0 213414.0 197172.0 191730.0 218659.0 220823.0 155105.0 149371.0 42206.0 49871.0 202888.0 198964.0 96878.0 92464.0 100704.0 94275.0 162894.0 166617.0 7151.0 11757.0 229147.0 230070.0 88619.0 89649.0 193176.0 200878.0 261626.0 255959.0 155705.0 149917.0 164164.0 156343.0 140747.0 142168.0 113104.0 121085.0 103757.0 106109.0 63526.0 67000.0 223554.0 216221.0 77703.0 70508.0 158470.0 0.0 158470.0 158470.0 158470.0 158470.0 158470.0 158470.0 158470.0 158470.0 0.0 0.0 0.0 0.0 0.0 0.0 0.0 0.0
284593.0 283373.0 224102.0 220667.0 89757.0 82210.0 57108.0 63495.0 208797.0 208225.0 89809.0 88942.0 110802.0 118974.0 137159.0 133236.0 190251.0 182282.0 65346.0 60282.0 135822.0 127741.0 104539.0 101763.0 153675.0 150345.0 36893.0 31861.0 159981.0 155476.0 170653.0 167380.0 182844.0 189830.0 40422.0 47048.0 88720.0 94953.0 109849.0 109735.0 100102.0 105724.0 33292.0 35337.0 176257.0 183114.0 96105.0 97414.0 112043.0 105770.0 139943.0 143565.0 123494.0 119091.0 158600.0 166591.0 215326.0 210954.0 141771.0 133739.0 153652.0 157491.0 270462.0 268692.0 108311.0 100915.0 320764.0 312829.0 100394.0 93350.0 88120.0 88461.0 136518.0 144566.0 219294.0 221494.0 92852.0 84514.0 100929.0 104309.0 0.0 158470.0 0.0 0.0 0.0 0.0 0.0 0.0 0.0 0.0 158470.0 158470.0 158470.0 158470.0 158470.0 158470.0 158470.0 158470.0
284593.0 283373.0 224102.0 220667.0 89757.0 82210.0 57108.0 63495.0 208797.0 208225.0 89809.0 88942.0 110802.0 118974.0 137159.0 133236.0 190251.0 182282.0 65346.0 60282.0 135822.0 127741.0 104539.0 101763.0 153675.0 150345.0 36893.0 31861.0 159981.0 155476.0 170653.0 167380.0 182844.0 189830.0 40422.0 47048.0 88720.0 94953.0 109849.0 109735.0 100102.0 105724.0 33292.0 35337.0 176257.0 183114.0 96105.0 97414.0 112043.0 105770.0 139943.0 143565.0 123494.0 119091.0 158600.0 166591.0 215326.0 210954.0 141771.0 133739.0 153652.0 157491.0 270462.0 268692.0 108311.0 100915.0 320764.0 312829.0 100394.0 93350.0 88120.0 88461.0 136518.0 144566.0 219294.0 221494.0 92852.0 84514.0 100929.0 104309.0 0.0 158470.0 0.0 0.0 0.0 0.0 0.0 0.0 0.0 0.0 158470.0 158470.0 158470.0 158470.0 158470.0 158470.0 158470.0 158470.0
284593.0 283373.0 224102.0 220667.0 89757.0 82210.0 57108.0 63495.0 208797.0 208225.0 89809.0 88942.0 110802.0 118974.0 137159.0 133236.0 190251.0 182282.0 65346.0 60282.0 135822.0 127741.0 104539.0 101763.0 153675.0 150345.0 36893.0 31861.0 159981.0 155476.0 170653.0 167380.0 182844.0 189830.0 40422.0 47048.0 88720.0 94953.0 109849.0 109735.0 100102.0 105724.0 33292.0 35337.0 176257.0 183114.0 96105.0 97414.0 112043.0 105770.0 139943.0 143565.0 123494.0 119091.0 158600.0 166591.0 215326.0 210954.0 141771.0 133739.0 153652.0 157491.0 270462.0 268692.0 108311.0 100915.0 320764.0 312829.0 100394.0 93350.0 88120.0 88461.0 136518.0 144566.0 219294.0 221494.0 92852.0 84514.0 100929.0 104309.0 0.0 158470.0 0.0 0.0 0.0 0.0 0.0 0.0 0.0 0.0 158470.0 158470.0 158470.0 158470.0 158470.0 158470.0 158470.0 158470.0
284593.0 283373.0 224102.0 220667.0 89757.0 82210.0 57108.0 63495.0 208797.0 208225.0 89809.0 88942.0 110802.0 118974.0 137159.0 133236.0 190251.0 182282.0 65346.0 60282.0 135822.0 127741.0 104539.0 101763.0 153675.0 150345.0 36893.0 31861.0 159981.0 155476.0 170653.0 167380.0 182844.0 189830.0 40422.0 47048.0 88720.0 94953.0 109849.0 109735.0 100102.0 105724.0 33292.0 35337.0 176257.0 183114.0 96105.0 97414.0 112043.0 105770.0 139943.0 143565.0 123494.0 119091.0 158600.0 166591.0 215326.0 210954.0 141771.0 133739.0 153652.0 157491.0 270462.0 268692.0 108311.0 100915.0 320764.0 312829.0 100394.0 93350.0 88120.0 88461.0 136518.0 144566.0 219294.0 221494.0 92852.0 84514.0 100929.0 104309.0 0.0 158470.0 0.0 0.0 0.0 0.0 0.0 0.0 0.0 0.0 158470.0 158470.0 158470.0 158470.0 158470.0 158470.0 158470.0 158470.0
284593.0 283373.0 224102.0 220667.0 89757.0 82210.0 57108.0 63495.0 208797.0 208225.0 89809.0 88942.0 110802.0 118974.0 137159.0 133236.0 190251.0 182282.0 65346.0 60282.0 135822.0 127741.0 104539.0 101763.0 153675.0 150345.0 36893.0 31861.0 159981.0 155476.0 170653.0 167380.0 182844.0 189830.0 40422.0 47048.0 88720.0 94953.0 109849.0 109735.0 100102.0 105724.0 33292.0 35337.0 176257.0 183114.0 96105.0 97414.0 112043.0 105770.0 139943.0 143565.0 123494.0 119091.0 158600.0 166591.0 215326.0 210954.0 141771.0 133739.0 153652.0 157491.0 270462.0 268692.0 108311.0 100915.0 320764.0 312829.0 100394.0 93350.0 88120.0 88461.0 136518.0 144566.0 219294.0 221494.0 92852.0 84514.0 100929.0 104309.0 0.0 158470.0 0.0 0.0 0.0 0.0 0.0 0.0 0.0 0.0 158470.0 158470.0 158470.0 158470.0 158470.0 158470.0 158470.0 158470.0
284593.0 283373.0 224102.0 220667.0 89757.0 82210.0 57108.0 63495.0 208797.0 208225.0 89809.0 88942.0 110802.0 118974.0 137159.0 133236.0 190251.0 182282.0 65346.0 60282.0 135822.0 127741.0 104539.0 101763.0 153675.0 150345.0 36893.0 31861.0 159981.0 155476.0 170653.0 167380.0 182844.0 189830.0 40422.0 47048.0 88720.0 94953.0 109849.0 109735.0 100102.0 105724.0 33292.0 35337.0 176257.0 183114.0 96105.0 97414.0 112043.0 105770.0 139943.0 143565.0 123494.0 119091.0 158600.0 166591.0 215326.0 210954.0 141771.0 133739.0 153652.0 157491.0 270462.0 268692.0 108311.0 100915.0 320764.0 312829.0 100394.0 93350.0 88120.0 88461.0 136518.0 144566.0 219294.0 221494.0 92852.0 84514.0 100929.0 104309.0 0.0 158470.0 0.0 0.0 0.0 0.0 0.0 0.0 0.0 0.0 158470.0 158470.0 158470.0 158470.0 158470.0 158470.0 158470.0 158470.0
284593.0 283373.0 224102.0 220667.0 89757.0 82210.0 57108.0 63495.0 208797.0 208225.0 89809.0 88942.0 110802.0 118974.0 137159.0 133236.0 190251.0 182282.0 65346.0 60282.0 135822.0 127741.0 104539.0 101763.0 153675.0 150345.0 36893.0 31861.0 159981.0 155476.0 170653.0 167380.0 182844.0 189830.0 40422.0 47048.0 88720.0 94953.0 109849.0 109735.0 100102.0 105724.0 33292.0 35337.0 176257.0 183114.0 96105.0 97414.0 112043.0 105770.0 139943.0 143565.0 123494.0 119091.0 158600.0 166591.0 215326.0 210954.0 141771.0 133739.0 153652.0 157491.0 270462.0 268692.0 108311.0 100915.0 320764.0 312829.0 100394.0 93350.0 88120.0 88461.0 136518.0 144566.0 219294.0 221494.0 92852.0 84514.0 100929.0 104309.0 0.0 158470.0 0.0 0.0 0.0 0.0 0.0 0.0 0.0 0.0 158470.0 158470.0 158470.0 158470.0 158470.0 158470.0 158470.0 158470.0
284593.0 283373.0 224102.0 220667.0 89757.0 82210.0 57108.0 63495.0 208797.0 208225.0 89809.0 88942.0 110802.0 118974.0 137159.0 133236.0 190251.0 182282.0 65346.0 60282.0 135822.0 127741.0 104539.0 101763.0 153675.0 150345.0 36893.0 31861.0 159981.0 155476.0 170653.0 167380.0 182844.0 189830.0 40422.0 47048.0 88720.0 94953.0 109849.0 109735.0 100102.0 105724.0 33292.0 35337.0 176257.0 183114.0 96105.0 97414.0 112043.0 105770.0 139943.0 143565.0 123494.0 119091.0 158600.0 166591.0 215326.0 210954.0 141771.0 133739.0 153652.0 157491.0 270462.0 268692.0 108311.0 100915.0 320764.0 312829.0 100394.0 93350.0 88120.0 88461.0 136518.0 144566.0 219294.0 221494.0 92852.0 84514.0 100929.0 104309.0 0.0 158470.0 0.0 0.0 0.0 0.0 0.0 0.0 0.0 0.0 158470.0 158470.0 158470.0 158470.0 158470.0 158470.0 158470.0 158470.0
247775.0 250835.0 80125.0 80081.0 217291.0 211476.0 191029.0 195567.0 196710.0 201614.0 189257.0 182886.0 75595.0 73098.0 120399.0 125451.0 206726.0 201399.0 202490.0 198994.0 95068.0 91411.0 102177.0 109679.0 182518.0 186013.0 174691.0 172040.0 180349.0 172526.0 199028.0 191448.0 191700.0 193544.0 164826.0 172518.0 210223.0 213414.0 197172.0 191730.0 218659.0 220823.0 155105.0 149371.0 42206.0 49871.0 202888.0 198964.0 96878.0 92464.0 100704.0 94275.0 162894.0 166617.0 7151.0 11757.0 229147.0 230070.0 88619.0 89649.0 193176.0 200878.0 261626.0 255959.0 155705.0 149917.0 164164.0 156343.0 140747.0 142168.0 113104.0 121085.0 103757.0 106109.0 63526.0 67000.0 223554.0 216221.0 77703.0 70508.0 158470.0 0.0 158470.0 158470.0 158470.0 158470.0 158470.0 158470.0 158470.0 158470.0 0.0 0.0 0.0 0.0 0.0 0.0 0.0 0.0
247775.0 250835.0 80125.0 80081.0 217291.0 211476.0 191029.0 195567.0 196710.0 201614.0 189257.0 182886.0 75595.0 73098.0 120399.0 125451.0 206726.0 201399.0 202490.0 198994.0 95068.0 91411.0 102177.0 109679.0 182518.0 186013.0 174691.0 172040.0 180349.0 172526.0 199028.0 191448.0 191700.0 193544.0 164826.0 172518.0 210223.0 213414.0 197172.0 191730.0 218659.0 220823.0 155105.0 149371.0 42206.0 49871.0 202888.0 198964.0 96878.0 92464.0 100704.0 94275.0 162894.0 166617.0 7151.0 11757.0 229147.0 230070.0 88619.0 89649.0 193176.0 200878.0 261626.0 255959.0 155705.0 149917.0 164164.0 156343.0 140747.0 142168.0 113104.0 121085.0 103757.0 106109.0 63526.0 67000.0 223554.0 216221.0 77703.0 70508.0 158470.0 0.0 158470.0 158470.0 158470.0 158470.0 158470.0 158470.0 158470.0 158470.0 0.0 0.0 0.0 0.0 0.0 0.0 0.0 0.0
247775.0 250835.0 80125.0 80081.0 217291.0 211476.0 191029.0 195567.0 196710.0 201614.0 189257.0 182886.0 75595.0 73098.0 120399.0 125451.0 206726.0 201399.0 202490.0 198994.0 95068.0 91411.0 102177.0 109679.0 182518.0 186013.0 174691.0 172040.0 180349.0 172526.0 199028.0 191448.0 191700.0 193544.0 164826.0 172518.0 210223.0 213414.0 197172.0 191730.0 218659.0 220823.0 155105.0 149371.0 42206.0 49871.0 202888.0 198964.0 96878.0 92464.0 100704.0 94275.0 162894.0 166617.0 7151.0 11757.0 229147.0 230070.0 88619.0 89649.0 193176.0 200878.0 261626.0 255959.0 155705.0 149917.0 164164.0 156343.0 140747.0 142168.0 113104.0 121085.0 103757.0 106109.0 63526.0 67000.0 223554.0 216221.0 77703.0 70508.0 158470.0 0.0 158470.0 158470.0 158470.0 158470.0 158470.0 158470.0 158470.0 158470.0 0.0 0.0 0.0 0.0 0.0 0.0 0.0 0.0
247775.0 250835.0 80125.0 80081.0 217291.0 211476.0 191029.0 195567.0 196710.0 201614.0 189257.0 182886.0 75595.0 73098.0 120399.0 125451.0 206726.0 201399.0 202490.0 198994.0 95068.0 91411.0 102177.0 109679.0 182518.0 186013.0 174691.0 172040.0 180349.0 172526.0 199028.0 191448.0 191700.0 193544.0 164826.0 172518.0 210223.0 213414.0 197172.0 191730.0 218659.0 220823.0 155105.0 149371.0 42206.0 49871.0 202888.0 198964.0 96878.0 92464.0 100704.0 94275.0 162894.0 166617.0 7151.0 11757.0 229147.0 230070.0 88619.0 89649.0 193176.0 200878.0 261626.0 255959.0 155705.0 149917.0 164164.0 156343.0 140747.0 142168.0 113104.0 121085.0 103757.0 106109.0 63526.0 67000.0 223554.0 216221.0 77703.0 70508.0 158470.0 0.0 158470.0 158470.0 158470.0 158470.0 158470.0 158470.0 158470.0 158470.0 0.0 0.0 0.0 0.0 0.0 0.0 0.0 0.0
247775.0 250835.0 80125.0 80081.0 217291.0 211476.0 191029.0 195567.0 196710.0 201614.0 189257.0 182886.0 75595.0 73098.0 120399.0 125451.0 206726.0 201399.0 202490.0 198994.0 95068.0 91411.0 102177.0 109679.0 182518.0 186013.0 174691.0 172040.0 180349.0 172526.0 199028.0 191448.0 191700.0 193544.0 164826.0 172518.0 210223.0 213414.0 197172.0 191730.0 218659.0 220823.0 155105.0 149371.0 42206.0 49871.0 202888.0 198964.0 96878.0 92464.0 100704.0 94275.0 162894.0 166617.0 7151.0 11757.0 229147.0 230070.0 88619.0 89649.0 193176.0 200878.0 261626.0 255959.0 155705.0 149917.0 164164.0 156343.0 140747.0 142168.0 113104.0 121085.0 103757.0 106109.0 63526.0 67000.0 223554.0 216221.0 77703.0 70508.0 158470.0 0.0 158470.0 158470.0 158470.0 158470.0 158470.0 158470.0 158470.0 158470.0 0.0 0.0 0.0 0.0 0.0 0.0 0.0 0.0
247775.0 250835.0 80125.0 80081.0 217291.0 211476.0 191029.0 195567.0 196710.0 201614.0 189257.0 182886.0 75595.0 73098.0 120399.0 125451.0 206726.0 201399.0 202490.0 198994.0 95068.0 91411.0 102177.0 109679.0 182518.0 186013.0 174691.0 172040.0 180349.0 172526.0 199028.0 191448.0 191700.0 193544.0 164826.0 172518.0 210223.0 213414.0 197172.0 191730.0 218659.0 220823.0 155105.0 149371.0 42206.0 49871.0 202888.0 198964.0 96878.0 92464.0 100704.0 94275.0 162894.0 166617.0 7151.0 11757.0 229147.0 230070.0 88619.0 89649.0 193176.0 200878.0 261626.0 255959.0 155705.0 149917.0 164164.0 156343.0 140747.0 142168.0 113104.0 121085.0 103757.0 106109.0 63526.0 67000.0 223554.0 216221.0 77703.0 70508.0 158470.0 0.0 158470.0 158470.0 158470.0 158470.0 158470.0 158470.0 158470.0 158470.0 0.0 0.0 0.0 0.0 0.0 0.0 0.0 0.0
247775.0 250835.0 80125.0 80081.0 217291.0 211476.0 191029.0 195567.0 196710.0 201614.0 189257.0 182886.0 75595.0 73098.0 120399.0 125451.0 206726.0 201399.0 202490.0 198994.0 95068.0 91411.0 102177.0 109679.0 182518.0 186013.0 174691.0 172040.0 180349.0 172526.0 199028.0 191448.0 191700.0 193544.0 164826.0 172518.0 210223.0 213414.0 197172.0 191730.0 218659.0 220823.0 155105.0 149371.0 42206.0 49871.0 202888.0 198964.0 96878.0 92464.0 100704.0 94275.0 162894.0 166617.0 7151.0 11757.0 229147.0 230070.0 88619.0 89649.0 193176.0 200878.0 261626.0 255959.0 155705.0 149917.0 164164.0 156343.0 140747.0 142168.0 113104.0 121085.0 103757.0 106109.0 63526.0 67000.0 223554.0 216221.0 77703.0 70508.0 158470.0 0.0 158470.0 158470.0 158470.0 158470.0 158470.0 158470.0 158470.0 158470.0 0.0 0.0 0.0 0.0 0.0 0.0 0.0 0.0
247775.0 250835.0 80125.0 80081.0 217291.0 211476.0 191029.0 195567.0 196710.0 201614.0 189257.0 182886.0 75595.0 73098.0 120399.0 125451.0 206726.0 201399.0 202490.0 198994.0 95068.0 91411.0 102177.0 109679.0 182518.0 186013.0 174691.0 172040.0 180349.0 172526.0 199028.0 191448.0 191700.0 193544.0 164826.0 172518.0 210223.0 213414.0 197172.0 191730.0 218659.0 220823.0 155105.0 149371.0 42206.0 49871.0 202888.0 198964.0 96878.0 92464.0 100704.0 94275.0 162894.0 166617.0 7151.0 11757.0 229147.0 230070.0 88619.0 89649.0 193176.0 200878.0 261626.0 255959.0 155705.0 149917.0 164164.0 156343.0 140747.0 142168.0 113104.0 121085.0 103757.0 106109.0 63526.0 67000.0 223554.0 216221.0 77703.0 70508.0 158470.0 0.0 158470.0 158470.0 158470.0 158470.0 158470.0 158470.0 158470.0 158470.0 0.0 0.0 0.0 0.0 0.0 0.0 0.0 0.0
FIXED_EDGES_SECTION
1 2
3 4
5 6
7 8
9 10
11 12
13 14
15 16
17 18
19 20
21 22
23 24
25 26
27 28
29 30
31 32
33 34
35 36
37 38
39 40
41 42
43 44
45 46
47 48
49 50
51 52
53 54
55 56
57 58
59 60
61 62
63 64
65 66
67 68
69 70
71 72
73 74
75 76
77 78
79 80
-1 
DEMAND_SECTION
1 120
2 120
3 336
4 336
5 216
6 216
7 219
8 219
9 157
10 157
11 57
12 57
13 324
14 324
15 90
16 90
17 186
18 186
19 369
20 369
21 119
22 119
23 432
24 432
25 211
26 211
27 97
28 97
29 82
30 82
31 479
32 479
33 74
34 74
35 618
36 618
37 274
38 274
39 461
40 461
41 500
42 500
43 485
44 485
45 313
46 313
47 375
48 375
49 214
50 214
51 421
52 421
53 349
54 349
55 37
56 37
57 76
58 76
59 223
60 223
61 90
62 90
63 542
64 542
65 341
66 341
67 421
68 421
69 119
70 119
71 56
72 56
73 177
74 177
75 563
76 563
77 251
78 251
79 75
80 75
81 0
82 0
83 0
84 0
85 0
86 0
87 0
88 0
89 0
90 0
91 0
92 0
93 0
94 0
95 0
96 0
97 0
98 0
DEPOT_SECTION
81 
-1 
CAPACITIES_SECTION
2500 
2750 
3000 
-1 
EOF