NAME: GFS_20_1
TYPE: GFSP
DIMENSION: 98
VEHICLES: 3
CAPACITY: 2500.0
TRIP_DIST_LIMIT: 750000.0
TOTAL_DIST_LIMIT: 1400000.0
EDGE_WEIGHT_TYPE: EXPLICIT
EDGE_WEIGHT_FORMAT: FULL_MATRIX
EDGE_WEIGHT_SECTION
0.0 8481.0 159223.0 160491.0 60010.0 56388.0 72288.0 67227.0 91124.0 92846.0 141716.0 143289.0 167097.0 166450.0 246581.0 238654.0 165912.0 169415.0 151420.0 143750.0 132755.0 127340.0 135919.0 129239.0 140920.0 137938.0 17827.0 9818.0 253804.0 250794.0 22441.0 15225.0 116745.0 116807.0 128444.0 129508.0 54539.0 58256.0 171118.0 163903.0 237442.0 229215.0 160864.0 160575.0 235343.0 241989.0 80395.0 79010.0 82310.0 89830.0 30592.0 22714.0 113396.0 110120.0 204998.0 198783.0 128969.0 127913.0 159802.0 161019.0 88137.0 81373.0 85276.0 86916.0 120421.0 115499.0 151086.0 151489.0 123921.0 115972.0 115485.0 112465.0 83746.0 85289.0 67811.0 65753.0 125195.0 117703.0 61952.0 57316.0 139943.0 100704.0 139943.0 139943.0 139943.0 139943.0 139943.0 139943.0 139943.0 139943.0 100704.0 100704.0 100704.0 100704.0 100704.0 100704.0 100704.0 100704.0
8481.0 0.0 164661.0 166216.0 66492.0 63518.0 79678.0 74235.0 98196.0 99494.0 147009.0 148933.0 159071.0 158293.0 238146.0 230215.0 169801.0 173622.0 142940.0 135270.0 139623.0 133974.0 139949.0 133030.0 145616.0 143005.0 9456.0 2204.0 245553.0 242487.0 30868.0 23336.0 117305.0 116800.0 135160.0 136537.0 60071.0 64496.0 162674.0 155444.0 228994.0 220768.0 167684.0 167631.0 227303.0 233899.0 86380.0 85541.0 90306.0 97740.0 22435.0 14785.0 121676.0 118265.0 196694.0 190438.0 120502.0 119432.0 162051.0 163668.0 95938.0 89005.0 76795.0 78480.0 128531.0 123738.0 155667.0 155692.0 128870.0 120984.0 118526.0 116004.0 75578.0 76936.0 62381.0 59585.0 133211.0 125783.0 55678.0 50943.0 143565.0 94275.0 143565.0 143565.0 143565.0 143565.0 143565.0 143565.0 143565.0 143565.0 94275.0 94275.0 94275.0 94275.0 94275.0 94275.0 94275.0 94275.0
159223.0 164661.0 0.0 7456.0 100286.0 106255.0 94786.0 95891.0 178152.0 186052.0 17902.0 16582.0 271287.0 274003.0 360918.0 353694.0 274649.0 273738.0 280750.0 274365.0 44834.0 42906.0 248499.0 245662.0 244699.0 237646.0 172375.0 166835.0 359656.0 358528.0 148853.0 155308.0 259380.0 262408.0 204655.0 198714.0 104705.0 101452.0 291188.0 286282.0 353323.0 345388.0 38813.0 46609.0 338517.0 345370.0 188658.0 181219.0 98096.0 91901.0 184372.0 178364.0 150012.0 156135.0 314602.0 310440.0 256564.0 259284.0 285945.0 283407.0 90224.0 91250.0 223032.0 228589.0 161333.0 153057.0 21521.0 29168.0 37057.0 44365.0 241443.0 234782.0 207777.0 214246.0 163392.0 170102.0 84053.0 88089.0 169980.0 169517.0 57108.0 191029.0 57108.0 57108.0 57108.0 57108.0 57108.0 57108.0 57108.0 57108.0 191029.0 191029.0 191029.0 191029.0 191029.0 191029.0 191029.0 191029.0
160491.0 166216.0 7456.0 0.0 100996.0 106509.0 94188.0 95921.0 175468.0 183456.0 21604.0 17363.0 275825.0 278541.0 365456.0 358232.0 271624.0 270513.0 284895.0 278414.0 40611.0 39944.0 245878.0 243256.0 241701.0 234539.0 174158.0 168373.0 364195.0 363066.0 149178.0 155891.0 258383.0 261615.0 200985.0 194855.0 106146.0 102383.0 295721.0 290784.0 357861.0 349926.0 31594.0 39463.0 343055.0 349908.0 186683.0 179138.0 96180.0 89627.0 186354.0 180142.0 145926.0 152272.0 319140.0 314978.0 260661.0 263212.0 283741.0 281013.0 88209.0 89878.0 226370.0 231752.0 157104.0 148918.0 28723.0 36493.0 40667.0 47369.0 239571.0 232786.0 211614.0 217936.0 167538.0 174081.0 79175.0 83686.0 173811.0 173169.0 63495.0 195567.0 63495.0 63495.0 63495.0 63495.0 63495.0 63495.0 63495.0 63495.0 195567.0 195567.0 195567.0 195567.0 195567.0 195567.0 195567.0 195567.0
60010.0 66492.0 100286.0 100996.0 0.0 8555.0 18189.0 10149.0 97782.0 103915.0 83276.0 84011.0 203042.0 204550.0 289814.0 282175.0 191952.0 193095.0 200027.0 192745.0 73287.0 67484.0 162910.0 158267.0 162911.0 157356.0 75167.0 68559.0 291756.0 290050.0 48812.0 55025.0 162541.0 164701.0 133458.0 130675.0 11271.0 3279.0 216001.0 209674.0 281392.0 273215.0 101268.0 101533.0 270738.0 277591.0 100238.0 94310.0 35122.0 39729.0 88000.0 81023.0 93687.0 94952.0 245007.0 239906.0 176070.0 176801.0 195880.0 194869.0 36609.0 28533.0 135791.0 139568.0 104587.0 96798.0 94831.0 96728.0 66908.0 58950.0 149981.0 144434.0 126545.0 130981.0 90490.0 93948.0 73784.0 67740.0 91862.0 89164.0 88850.0 124359.0 88850.0 88850.0 88850.0 88850.0 88850.0 88850.0 88850.0 88850.0 124359.0 124359.0 124359.0 124359.0 124359.0 124359.0 124359.0 124359.0
56388.0 63518.0 106255.0 106509.0 8555.0 0.0 16529.0 10915.0 89254.0 95362.0 89629.0 89807.0 205744.0 206921.0 291541.0 283835.0 183435.0 184552.0 200464.0 193073.0 76422.0 71284.0 154439.0 149854.0 154368.0 148802.0 72572.0 65477.0 294405.0 292480.0 42669.0 49564.0 155065.0 157428.0 125069.0 122407.0 16993.0 10482.0 217237.0 210718.0 282969.0 274767.0 104546.0 104190.0 273574.0 280427.0 91771.0 85787.0 31185.0 37098.0 85589.0 78263.0 86487.0 87367.0 247203.0 241897.0 176717.0 177087.0 187652.0 186550.0 34458.0 26678.0 135495.0 138822.0 97164.0 89542.0 101939.0 104184.0 73984.0 66105.0 141792.0 136155.0 127594.0 131579.0 93725.0 96551.0 72381.0 65745.0 94175.0 91130.0 96959.0 128140.0 96959.0 96959.0 96959.0 96959.0 96959.0 96959.0 96959.0 96959.0 128140.0 128140.0 128140.0 128140.0 128140.0 128140.0 128140.0 128140.0
72288.0 79678.0 94786.0 94188.0 18189.0 16529.0 0.0 8151.0 90315.0 97308.0 79203.0 78204.0 221084.0 222489.0 307491.0 299818.0 186654.0 187061.0 216869.0 209501.0 61324.0 56945.0 158540.0 154658.0 157027.0 150864.0 88839.0 81584.0 309793.0 308020.0 56498.0 64086.0 164656.0 167623.0 123703.0 119998.0 29453.0 21464.0 233397.0 226949.0 298991.0 290800.0 89381.0 88535.0 288817.0 295670.0 96505.0 89692.0 17385.0 21545.0 101887.0 94456.0 79240.0 81578.0 262887.0 257701.0 193065.0 193520.0 193769.0 192019.0 18495.0 10452.0 152004.0 155351.0 90617.0 82458.0 93287.0 96623.0 65791.0 58407.0 148379.0 142185.0 143797.0 147926.0 108618.0 111922.0 56131.0 49782.0 109733.0 106888.0 92538.0 142547.0 92538.0 92538.0 92538.0 92538.0 92538.0 92538.0 92538.0 92538.0 142547.0 142547.0 142547.0 142547.0 142547.0 142547.0 142547.0 142547.0
67227.0 74235.0 95891.0 95921.0 10149.0 10915.0 8151.0 0.0 94191.0 100830.0 79555.0 79378.0 213185.0 214673.0 299859.0 292208.0 189773.0 190501.0 209730.0 202409.0 65539.0 60371.0 161219.0 156996.0 160366.0 154459.0 83200.0 76223.0 301899.0 300181.0 53345.0 60404.0 164464.0 167073.0 128664.0 125348.0 21366.0 13402.0 225938.0 219562.0 291409.0 283227.0 93659.0 93401.0 280886.0 287739.0 98749.0 92301.0 25430.0 29626.0 96176.0 88943.0 86106.0 87998.0 255115.0 249988.0 185836.0 186445.0 195498.0 194072.0 26468.0 18392.0 145189.0 148761.0 97305.0 89286.0 92541.0 95244.0 64669.0 56945.0 149819.0 143900.0 136413.0 140716.0 100639.0 104075.0 63709.0 57599.0 101960.0 99212.0 89435.0 134468.0 89435.0 89435.0 89435.0 89435.0 89435.0 89435.0 89435.0 89435.0 134468.0 134468.0 134468.0 134468.0 134468.0 134468.0 134468.0 134468.0
91124.0 98196.0 178152.0 175468.0 97782.0 89254.0 90315.0 94191.0 0.0 8262.0 165298.0 162230.0 255761.0 254189.0 329211.0 321194.0 96950.0 96889.0 231716.0 223998.0 135706.0 135540.0 70413.0 68160.0 67066.0 60613.0 105116.0 98203.0 340102.0 336334.0 71940.0 76423.0 96087.0 102037.0 38017.0 38385.0 104144.0 99553.0 254283.0 246542.0 319626.0 311534.0 158947.0 154332.0 323680.0 329932.0 21210.0 15586.0 80952.0 86394.0 113730.0 106753.0 44722.0 36865.0 290859.0 284050.0 211974.0 209190.0 109123.0 105813.0 88426.0 89327.0 168106.0 167007.0 43080.0 44241.0 181242.0 185544.0 154854.0 147962.0 67926.0 60302.0 172185.0 172075.0 158018.0 156680.0 103766.0 96543.0 152954.0 148375.0 182844.0 191700.0 182844.0 182844.0 182844.0 182844.0 182844.0 182844.0 182844.0 182844.0 191700.0 191700.0 191700.0 191700.0 191700.0 191700.0 191700.0 191700.0
92846.0 99494.0 186052.0 183456.0 103915.0 95362.0 97308.0 100830.0 8262.0 0.0 173009.0 170065.0 255716.0 253876.0 327615.0 319597.0 89483.0 89758.0 230025.0 222337.0 143795.0 143516.0 62447.0 59992.0 59734.0 53630.0 105875.0 99318.0 339254.0 335314.0 74873.0 78587.0 88504.0 94635.0 35672.0 37848.0 109747.0 105531.0 252978.0 245171.0 317968.0 309918.0 167168.0 162579.0 323415.0 329538.0 16551.0 14039.0 88579.0 94210.0 113724.0 107060.0 52174.0 44151.0 289997.0 283073.0 210819.0 207767.0 100910.0 97687.0 96150.0 96767.0 167221.0 165732.0 49438.0 51437.0 188808.0 192985.0 162236.0 155247.0 59746.0 52090.0 172365.0 171868.0 160328.0 158595.0 112027.0 104795.0 154796.0 150148.0 189830.0 193544.0 189830.0 189830.0 189830.0 189830.0 189830.0 189830.0 189830.0 189830.0 193544.0 193544.0 193544.0 193544.0 193544.0 193544.0 193544.0 193544.0
141716.0 147009.0 17902.0 21604.0 83276.0 89629.0 79203.0 79555.0 165298.0 173009.0 0.0 8039.0 254221.0 256937.0 343852.0 336628.0 262179.0 261661.0 263359.0 256908.0 38585.0 33644.0 235333.0 232127.0 232236.0 225412.0 154631.0 149191.0 342590.0 341462.0 132031.0 138261.0 243773.0 246557.0 193699.0 188210.0 87178.0 84264.0 274116.0 269183.0 336257.0 328322.0 44634.0 51266.0 321451.0 328304.0 174554.0 167308.0 84458.0 78992.0 166562.0 160619.0 140314.0 145862.0 297536.0 293374.0 239138.0 241751.0 272011.0 269793.0 76872.0 76810.0 205232.0 210744.0 151913.0 143468.0 17818.0 24893.0 19247.0 26463.0 227058.0 220601.0 190186.0 196581.0 145992.0 152590.0 77480.0 80062.0 152381.0 151828.0 44275.0 173963.0 44275.0 44275.0 44275.0 44275.0 44275.0 44275.0 44275.0 44275.0 173963.0 173963.0 173963.0 173963.0 173963.0 173963.0 173963.0 173963.0
143289.0 148933.0 16582.0 17363.0 84011.0 89807.0 78204.0 79378.0 162230.0 170065.0 8039.0 0.0 259652.0 262367.0 349283.0 342059.0 258918.0 258174.0 268240.0 261685.0 31951.0 28112.0 232492.0 229527.0 228962.0 222002.0 156830.0 151094.0 348021.0 346892.0 132444.0 139000.0 242806.0 245826.0 189582.0 183866.0 88874.0 85291.0 279520.0 274450.0 341688.0 333753.0 36686.0 43236.0 326882.0 333735.0 172336.0 164947.0 81832.0 75855.0 169002.0 162815.0 135545.0 141368.0 302967.0 298805.0 243976.0 246401.0 269695.0 267256.0 74030.0 74785.0 209236.0 214547.0 147035.0 138654.0 24629.0 32199.0 24339.0 30377.0 225063.0 218453.0 194762.0 200987.0 150957.0 157358.0 71317.0 74442.0 156979.0 156222.0 52073.0 179394.0 52073.0 52073.0 52073.0 52073.0 52073.0 52073.0 52073.0 52073.0 179394.0 179394.0 179394.0 179394.0 179394.0 179394.0 179394.0 179394.0
167097.0 159071.0 271287.0 275825.0 203042.0 205744.0 221084.0 213185.0 255761.0 255716.0 254221.0 259652.0 0.0 8428.0 90958.0 84264.0 306955.0 312958.0 54664.0 57164.0 266115.0 258291.0 280379.0 272427.0 290090.0 289963.0 151139.0 158616.0 88714.0 87266.0 189186.0 182305.0 234402.0 229091.0 290948.0 293515.0 191954.0 199816.0 39024.0 41575.0 84356.0 76973.0 290481.0 293672.0 68247.0 75015.0 240665.0 241732.0 236924.0 242549.0 142055.0 149045.0 280190.0 277192.0 43952.0 41243.0 54303.0 61064.0 286327.0 291243.0 239579.0 231519.0 90576.0 94548.0 287512.0 282415.0 254949.0 252298.0 235363.0 229629.0 254388.0 255475.0 83673.0 83884.0 112702.0 109203.0 276656.0 270781.0 111617.0 114942.0 238728.0 81174.0 238728.0 238728.0 238728.0 238728.0 238728.0 238728.0 238728.0 238728.0 81174.0 81174.0 81174.0 81174.0 81174.0 81174.0 81174.0 81174.0
166450.0 158293.0 274003.0 278541.0 204550.0 206921.0 222489.0 214673.0 254189.0 253876.0 256937.0 262367.0 8428.0 0.0 87037.0 79988.0 303013.0 309147.0 46836.0 49846.0 268802.0 260999.0 276810.0 268830.0 286789.0 286881.0 150093.0 157725.0 87755.0 85560.0 188701.0 181606.0 229827.0 224343.0 288924.0 291716.0 193557.0 201351.0 30639.0 33199.0 79828.0 72147.0 293131.0 296385.0 69542.0 75764.0 238605.0 239941.0 238058.0 243873.0 140489.0 147689.0 279779.0 276552.0 40655.0 36623.0 48806.0 55163.0 281700.0 286774.0 240976.0 232939.0 87564.0 90923.0 286823.0 281931.0 257664.0 255013.0 238079.0 232345.0 250676.0 251998.0 82715.0 82120.0 114626.0 110605.0 278294.0 272256.0 112771.0 115834.0 241444.0 84457.0 241444.0 241444.0 241444.0 241444.0 241444.0 241444.0 241444.0 241444.0 84457.0 84457.0 84457.0 84457.0 84457.0 84457.0 84457.0 84457.0
246581.0 238146.0 360918.0 365456.0 289814.0 291541.0 307491.0 299859.0 329211.0 327615.0 343852.0 349283.0 90958.0 87037.0 0.0 8018.0 362649.0 369669.0 97606.0 105280.0 355569.0 347823.0 339782.0 331782.0 351420.0 352968.0 229214.0 237204.0 32595.0 24611.0 269013.0 261297.0 286377.0 279630.0 361213.0 365137.0 279026.0 286675.0 75502.0 82941.0 9922.0 17704.0 380114.0 383280.0 53086.0 48255.0 311493.0 314142.0 322443.0 328637.0 217965.0 225751.0 359384.0 355317.0 47053.0 50478.0 117896.0 120080.0 336153.0 342466.0 325895.0 317931.0 162071.0 162331.0 365307.0 361246.0 344580.0 341929.0 324994.0 319260.0 313258.0 316187.0 164374.0 161549.0 200905.0 196280.0 363565.0 357232.0 198061.0 200651.0 328359.0 171494.0 328359.0 328359.0 328359.0 328359.0 328359.0 328359.0 328359.0 328359.0 171494.0 171494.0 171494.0 171494.0 171494.0 171494.0 171494.0 171494.0
238654.0 230215.0 353694.0 358232.0 282175.0 283835.0 299818.0 292208.0 321194.0 319597.0 336628.0 342059.0 84264.0 79988.0 8018.0 0.0 354886.0 361884.0 89590.0 97262.0 348216.0 340495.0 331919.0 323915.0 343523.0 345042.0 221268.0 229263.0 35851.0 27857.0 261083.0 253353.0 278651.0 271936.0 353203.0 357121.0 271417.0 279045.0 67550.0 74954.0 2881.0 9697.0 372885.0 375985.0 52321.0 48564.0 303477.0 306124.0 314705.0 320933.0 209991.0 217783.0 351415.0 347332.0 40632.0 43364.0 109920.0 112068.0 328539.0 334815.0 318207.0 310253.0 154088.0 154320.0 357316.0 353271.0 337356.0 334705.0 317770.0 312036.0 305391.0 308285.0 156574.0 153670.0 193464.0 188744.0 355908.0 349542.0 190475.0 193013.0 321135.0 164411.0 321135.0 321135.0 321135.0 321135.0 321135.0 321135.0 321135.0 321135.0 164411.0 164411.0 164411.0 164411.0 164411.0 164411.0 164411.0 164411.0
165912.0 169801.0 274649.0 271624.0 191952.0 183435.0 186654.0 189773.0 96950.0 89483.0 262179.0 258918.0 306955.0 303013.0 362649.0 354886.0 0.0 8111.0 268367.0 261416.0 231373.0 231833.0 30066.0 36784.0 29957.0 37176.0 172627.0 168717.0 380929.0 375532.0 154640.0 155093.0 76466.0 83598.0 73937.0 81787.0 196457.0 193216.0 293615.0 285598.0 352728.0 345356.0 252803.0 247384.0 370649.0 375496.0 91924.0 97651.0 177900.0 183202.0 175075.0 171109.0 129351.0 121770.0 333070.0 325374.0 255067.0 249903.0 34815.0 26743.0 185330.0 186228.0 216894.0 212419.0 120296.0 126982.0 278191.0 282454.0 251718.0 244723.0 53141.0 54019.0 229574.0 226317.0 231704.0 227808.0 196538.0 190125.0 223793.0 219009.0 279075.0 260732.0 279075.0 279075.0 279075.0 279075.0 279075.0 279075.0 279075.0 279075.0 260732.0 260732.0 260732.0 260732.0 260732.0 260732.0 260732.0 260732.0
169415.0 173622.0 273738.0 270513.0 193095.0 184552.0 187061.0 190501.0 96889.0 89758.0 261661.0 258174.0 312958.0 309147.0 369669.0 361884.0 8111.0 0.0 275049.0 268040.0 230110.0 230855.0 33796.0 41251.0 30184.0 36304.0 176813.0 172619.0 387638.0 382312.0 157255.0 158117.0 83788.0 91043.0 71104.0 78614.0 198020.0 194484.0 300235.0 292212.0 359748.0 352334.0 250927.0 245326.0 377022.0 381954.0 93633.0 98877.0 177648.0 182680.0 179754.0 175526.0 126990.0 119617.0 339631.0 331965.0 261379.0 256321.0 42858.0 34774.0 184935.0 186182.0 222713.0 218412.0 117481.0 124486.0 277901.0 282358.0 251715.0 244851.0 58642.0 58633.0 234909.0 231845.0 235760.0 232075.0 194603.0 188394.0 228065.0 223274.0 279587.0 265317.0 279587.0 279587.0 279587.0 279587.0 279587.0 279587.0 279587.0 279587.0 265317.0 265317.0 265317.0 265317.0 265317.0 265317.0 265317.0 265317.0
151420.0 142940.0 280750.0 284895.0 200027.0 200464.0 216869.0 209730.0 231716.0 230025.0 263359.0 268240.0 54664.0 46836.0 97606.0 89590.0 268367.0 275049.0 0.0 7751.0 270021.0 262793.0 244111.0 236082.0 255256.0 256394.0 133708.0 141776.0 112594.0 107439.0 173664.0 165658.0 193009.0 186814.0 263632.0 267531.0 189928.0 197081.0 25501.0 17690.0 87943.0 79904.0 296350.0 298419.0 104152.0 108085.0 213889.0 216590.0 230539.0 237289.0 121802.0 129735.0 263012.0 258616.0 65112.0 57260.0 24302.0 23540.0 244184.0 249904.0 234863.0 227140.0 66146.0 65290.0 268473.0 264741.0 264666.0 262015.0 244231.0 237884.0 217594.0 220014.0 74095.0 69056.0 117369.0 110896.0 272813.0 265960.0 111481.0 112791.0 248445.0 97988.0 248445.0 248445.0 248445.0 248445.0 248445.0 248445.0 248445.0 248445.0 97988.0 97988.0 97988.0 97988.0 97988.0 97988.0 97988.0 97988.0
143750.0 135270.0 274365.0 278414.0 192745.0 193073.0 209501.0 202409.0 223998.0 222337.0 256908.0 261685.0 57164.0 49846.0 105280.0 97262.0 261416.0 268040.0 7751.0 0.0 263018.0 255840.0 236938.0 228908.0 247987.0 249042.0 126023.0 134092.0 119702.0 114706.0 165974.0 157953.0 186279.0 180186.0 256001.0 259865.0 182719.0 189819.0 32199.0 24186.0 95641.0 87582.0 289467.0 291445.0 110307.0 114526.0 206218.0 208885.0 223062.0 229849.0 114081.0 122019.0 255267.0 250865.0 71733.0 63976.0 17897.0 15995.0 237610.0 243235.0 227449.0 219751.0 58488.0 57541.0 260722.0 256993.0 258437.0 255786.0 237746.0 231315.0 210437.0 212758.0 67183.0 61855.0 110986.0 104336.0 265398.0 258511.0 104773.0 105924.0 242216.0 93095.0 242216.0 242216.0 242216.0 242216.0 242216.0 242216.0 242216.0 242216.0 93095.0 93095.0 93095.0 93095.0 93095.0 93095.0 93095.0 93095.0
132755.0 139623.0 44834.0 40611.0 73287.0 76422.0 61324.0 65539.0 135706.0 143795.0 38585.0 31951.0 266115.0 268802.0 355569.0 348216.0 231373.0 230110.0 270021.0 263018.0 0.0 8219.0 206078.0 203756.0 201492.0 194239.0 148422.0 141647.0 354485.0 353356.0 117815.0 125387.0 221697.0 225450.0 160395.0 154243.0 81553.0 75604.0 283865.0 278120.0 347715.0 339678.0 28126.0 28515.0 333345.0 340198.0 148069.0 140351.0 58734.0 51406.0 161285.0 154247.0 105341.0 111661.0 309425.0 305129.0 245775.0 247263.0 244492.0 241479.0 50743.0 54388.0 207529.0 211862.0 116577.0 108350.0 56298.0 63462.0 43029.0 43208.0 200982.0 193981.0 195931.0 201255.0 154887.0 160182.0 39487.0 43257.0 159011.0 157314.0 76270.0 185857.0 76270.0 76270.0 76270.0 76270.0 76270.0 76270.0 76270.0 76270.0 185857.0 185857.0 185857.0 185857.0 185857.0 185857.0 185857.0 185857.0
127340.0 133974.0 42906.0 39944.0 67484.0 71284.0 56945.0 60371.0 135540.0 143516.0 33644.0 28112.0 258291.0 260999.0 347823.0 340495.0 231833.0 230855.0 262793.0 255840.0 8219.0 0.0 205945.0 203316.0 201893.0 194794.0 142621.0 136035.0 346660.0 345532.0 113316.0 120662.0 219422.0 222931.0 161794.0 155944.0 75160.0 69608.0 276351.0 270676.0 340018.0 331996.0 34032.0 35660.0 325521.0 332374.0 146885.0 139291.0 56589.0 49787.0 155386.0 148496.0 107474.0 113397.0 301606.0 297368.0 238524.0 240132.0 243829.0 241071.0 48568.0 51082.0 200706.0 205193.0 118938.0 110571.0 51447.0 58165.0 35505.0 35168.0 199803.0 192956.0 188700.0 194147.0 147277.0 152698.0 43936.0 46462.0 151612.0 150023.0 68795.0 178033.0 68795.0 68795.0 68795.0 68795.0 68795.0 68795.0 68795.0 68795.0 178033.0 178033.0 178033.0 178033.0 178033.0 178033.0 178033.0 178033.0
135919.0 139949.0 248499.0 245878.0 162910.0 154439.0 158540.0 161219.0 70413.0 62447.0 235333.0 232492.0 280379.0 276810.0 339782.0 331919.0 30066.0 33796.0 244111.0 236938.0 206078.0 205945.0 0.0 8030.0 13938.0 20347.0 143031.0 138912.0 356640.0 351541.0 124636.0 125027.0 57995.0 65788.0 56380.0 64804.0 167011.0 164044.0 269071.0 261039.0 329872.0 322301.0 228814.0 223863.0 345139.0 350269.0 62672.0 68927.0 150875.0 156641.0 146002.0 141731.0 107800.0 99785.0 308253.0 300679.0 229470.0 224679.0 40799.0 36042.0 158525.0 158814.0 189920.0 185915.0 100349.0 105878.0 250925.0 254870.0 224045.0 216867.0 26537.0 25062.0 201516.0 198652.0 202012.0 198286.0 172996.0 166123.0 194276.0 189485.0 250648.0 231534.0 250648.0 250648.0 250648.0 250648.0 250648.0 250648.0 250648.0 250648.0 231534.0 231534.0 231534.0 231534.0 231534.0 231534.0 231534.0 231534.0
129239.0 133030.0 245662.0 243256.0 158267.0 149854.0 154658.0 156996.0 68160.0 59992.0 232127.0 229527.0 272427.0 268830.0 331782.0 323915.0 36784.0 41251.0 236082.0 228908.0 203756.0 203316.0 8030.0 0.0 20806.0 25733.0 135862.0 131936.0 348609.0 343513.0 118722.0 118751.0 50890.0 58706.0 58724.0 67094.0 161952.0 159276.0 261040.0 253008.0 321873.0 314296.0 227072.0 222341.0 337129.0 342249.0 58248.0 64998.0 147738.0 153763.0 138535.0 134416.0 107642.0 99522.0 300225.0 292649.0 221457.0 216655.0 41079.0 37756.0 155498.0 155408.0 181994.0 177946.0 100918.0 105925.0 247450.0 251195.0 220348.0 213059.0 18525.0 17383.0 193757.0 190820.0 194925.0 191069.0 171598.0 164537.0 187055.0 182269.0 246410.0 224138.0 246410.0 246410.0 246410.0 246410.0 246410.0 246410.0 246410.0 246410.0 224138.0 224138.0 224138.0 224138.0 224138.0 224138.0 224138.0 224138.0
140920.0 145616.0 244699.0 241701.0 162911.0 154368.0 157027.0 160366.0 67066.0 59734.0 232236.0 228962.0 290090.0 286789.0 351420.0 343523.0 29957.0 30184.0 255256.0 247987.0 201492.0 201893.0 13938.0 20806.0 0.0 8092.0 149462.0 144756.0 367632.0 362682.0 127739.0 129024.0 71642.0 79453.0 46193.0 54478.0 167883.0 164304.0 280033.0 272006.0 341524.0 333880.0 223187.0 217890.0 355480.0 360769.0 63636.0 68712.0 147995.0 153253.0 153462.0 148658.0 100314.0 92551.0 319023.0 311521.0 239920.0 235356.0 51266.0 45137.0 155398.0 156386.0 199517.0 195880.0 91867.0 98104.0 248289.0 252608.0 221902.0 214960.0 38714.0 35253.0 210088.0 207627.0 207974.0 204691.0 166997.0 160460.0 200702.0 195910.0 249526.0 238506.0 249526.0 249526.0 249526.0 249526.0 249526.0 249526.0 249526.0 249526.0 238506.0 238506.0 238506.0 238506.0 238506.0 238506.0 238506.0 238506.0
137938.0 143005.0 237646.0 234539.0 157356.0 148802.0 150864.0 154459.0 60613.0 53630.0 225412.0 222002.0 289963.0 286881.0 352968.0 345042.0 37176.0 36304.0 256394.0 249042.0 194239.0 194794.0 20347.0 25733.0 8092.0 0.0 147302.0 142255.0 368548.0 363738.0 123775.0 125532.0 76306.0 84115.0 38106.0 46386.0 162701.0 158857.0 280979.0 272963.0 343091.0 335377.0 215649.0 210275.0 355825.0 361249.0 59170.0 63592.0 141346.0 146422.0 151948.0 146813.0 92482.0 84782.0 319765.0 312334.0 240453.0 236093.0 59230.0 53206.0 148650.0 149882.0 199418.0 196078.0 83885.0 90223.0 241609.0 246053.0 215415.0 208565.0 42115.0 37323.0 209201.0 207038.0 205377.0 202370.0 159406.0 152957.0 198402.0 193618.0 243402.0 236487.0 243402.0 243402.0 243402.0 243402.0 243402.0 243402.0 243402.0 243402.0 236487.0 236487.0 236487.0 236487.0 236487.0 236487.0 236487.0 236487.0
17827.0 9456.0 172375.0 174158.0 75167.0 72572.0 88839.0 83200.0 105116.0 105875.0 154631.0 156830.0 151139.0 150093.0 229214.0 221268.0 172627.0 176813.0 133708.0 126023.0 148422.0 142621.0 143031.0 135862.0 149462.0 147302.0 0.0 8071.0 237113.0 233920.0 39960.0 32086.0 116555.0 115424.0 141517.0 143299.0 68162.0 73028.0 153717.0 146422.0 220012.0 211791.0 176433.0 176537.0 219305.0 225799.0 92030.0 91846.0 99717.0 107122.0 13067.0 5989.0 130323.0 126669.0 188143.0 181786.0 111451.0 110225.0 163005.0 165074.0 105279.0 98275.0 67587.0 69093.0 136866.0 132305.0 162681.0 162379.0 136244.0 128428.0 120565.0 118627.0 67479.0 68347.0 59143.0 55279.0 142622.0 135213.0 51276.0 46483.0 149818.0 89199.0 149818.0 149818.0 149818.0 149818.0 149818.0 149818.0 149818.0 149818.0 89199.0 89199.0 89199.0 89199.0 89199.0 89199.0 89199.0 89199.0
9818.0 2204.0 166835.0 168373.0 68559.0 65477.0 81584.0 76223.0 98203.0 99318.0 149191.0 151094.0 158616.0 157725.0 237204.0 229263.0 168717.0 172619.0 141776.0 134092.0 141647.0 136035.0 138912.0 131936.0 144756.0 142255.0 8071.0 0.0 244880.0 241751.0 31900.0 24108.0 115563.0 114972.0 134990.0 136501.0 62227.0 66592.0 161714.0 154441.0 228019.0 219797.0 169719.0 169623.0 226827.0 233380.0 85970.0 85332.0 92009.0 99483.0 20788.0 12978.0 122432.0 118892.0 195964.0 189656.0 119478.0 118289.0 160598.0 162298.0 97723.0 90846.0 75649.0 77147.0 129125.0 124451.0 157869.0 157896.0 131063.0 123175.0 117262.0 114858.0 75032.0 76170.0 63223.0 60173.0 134909.0 127448.0 56234.0 51474.0 145762.0 94711.0 145762.0 145762.0 145762.0 145762.0 145762.0 145762.0 145762.0 145762.0 94711.0 94711.0 94711.0 94711.0 94711.0 94711.0 94711.0 94711.0
253804.0 245553.0 359656.0 364195.0 291756.0 294405.0 309793.0 301899.0 340102.0 339254.0 342590.0 348021.0 88714.0 87755.0 32595.0 35851.0 380929.0 387638.0 112594.0 119702.0 354485.0 346660.0 356640.0 348609.0 367632.0 368548.0 237113.0 244880.0 0.0 8049.0 276147.0 268889.0 305345.0 298981.0 373762.0 377064.0 280666.0 288530.0 87599.0 95627.0 38726.0 42065.0 378850.0 382041.0 28460.0 20951.0 323553.0 325472.0 325576.0 331249.0 226890.0 234347.0 367200.0 363769.0 49257.0 56333.0 128690.0 132540.0 356165.0 362087.0 328289.0 320230.0 172044.0 173777.0 373979.0 369290.0 343318.0 340667.0 323732.0 317998.0 330138.0 332421.0 170111.0 168781.0 201390.0 197892.0 365357.0 359496.0 200238.0 203445.0 327097.0 170417.0 327097.0 327097.0 327097.0 327097.0 327097.0 327097.0 327097.0 327097.0 170417.0 170417.0 170417.0 170417.0 170417.0 170417.0 170417.0 170417.0
250794.0 242487.0 358528.0 363066.0 290050.0 292480.0 308020.0 300181.0 336334.0 335314.0 341462.0 346892.0 87266.0 85560.0 24611.0 27857.0 375532.0 382312.0 107439.0 114706.0 353356.0 345532.0 351541.0 343513.0 362682.0 363738.0 233920.0 241751.0 8049.0 0.0 273187.0 265813.0 299757.0 293307.0 369637.0 373083.0 279021.0 286842.0 82828.0 90817.0 30736.0 34444.0 377721.0 380912.0 32603.0 26016.0 319505.0 321592.0 323618.0 329422.0 223443.0 230988.0 364163.0 360581.0 45796.0 52291.0 124520.0 128027.0 350383.0 356391.0 326511.0 318468.0 168231.0 169640.0 370747.0 366201.0 342189.0 339538.0 322604.0 316870.0 325019.0 327445.0 167264.0 165583.0 199887.0 196107.0 363756.0 357775.0 198322.0 201389.0 325969.0 168223.0 325969.0 325969.0 325969.0 325969.0 325969.0 325969.0 325969.0 325969.0 168223.0 168223.0 168223.0 168223.0 168223.0 168223.0 168223.0 168223.0
22441.0 30868.0 148853.0 149178.0 48812.0 42669.0 56498.0 53345.0 71940.0 74873.0 132031.0 132444.0 189186.0 188701.0 269013.0 261083.0 154640.0 157255.0 173664.0 165974.0 117815.0 113316.0 124636.0 118722.0 127739.0 123775.0 39960.0 31900.0 276147.0 273187.0 0.0 8440.0 115278.0 116838.0 109869.0 110092.0 47529.0 48182.0 193542.0 186305.0 259862.0 251636.0 145837.0 144703.0 257429.0 264143.0 64720.0 61697.0 63375.0 71199.0 52157.0 44158.0 91078.0 88043.0 227392.0 221205.0 151355.0 150185.0 153017.0 153143.0 70046.0 64206.0 107547.0 108885.0 98401.0 93245.0 143507.0 145055.0 115640.0 107658.0 107323.0 102992.0 106045.0 107720.0 86251.0 85421.0 105744.0 98001.0 81847.0 77441.0 135648.0 120401.0 135648.0 135648.0 135648.0 135648.0 135648.0 135648.0 135648.0 135648.0 120401.0 120401.0 120401.0 120401.0 120401.0 120401.0 120401.0 120401.0
15225.0 23336.0 155308.0 155891.0 55025.0 49564.0 64086.0 60404.0 76423.0 78587.0 138261.0 139000.0 182305.0 181606.0 261297.0 253353.0 155093.0 158117.0 165658.0 157953.0 125387.0 120662.0 125027.0 118751.0 129024.0 125532.0 32086.0 24108.0 268889.0 265813.0 8440.0 0.0 111712.0 112764.0 114026.0 114788.0 52355.0 54030.0 185802.0 178505.0 252097.0 243877.0 153464.0 152511.0 250549.0 257179.0 67050.0 64957.0 71640.0 79430.0 43970.0 35983.0 98351.0 94946.0 220021.0 213743.0 143531.0 142212.0 151565.0 152134.0 78182.0 72146.0 99596.0 100741.0 105230.0 100403.0 149145.0 150348.0 121415.0 113416.0 106292.0 102502.0 98892.0 100245.0 81746.0 80259.0 114114.0 106391.0 76547.0 71997.0 140215.0 115283.0 140215.0 140215.0 140215.0 140215.0 140215.0 140215.0 140215.0 140215.0 115283.0 115283.0 115283.0 115283.0 115283.0 115283.0 115283.0 115283.0
116745.0 117305.0 259380.0 258383.0 162541.0 155065.0 164656.0 164464.0 96087.0 88504.0 243773.0 242806.0 234402.0 229827.0 286377.0 278651.0 76466.0 83788.0 193009.0 186279.0 221697.0 219422.0 57995.0 50890.0 71642.0 76306.0 116555.0 115563.0 305345.0 299757.0 115278.0 111712.0 0.0 7817.0 103224.0 110901.0 162729.0 162526.0 218418.0 210441.0 276458.0 269158.0 247781.0 244394.0 296224.0 300743.0 77090.0 85004.0 163009.0 170306.0 114453.0 113073.0 140674.0 132650.0 258008.0 250221.0 181263.0 175634.0 51939.0 57028.0 171032.0 168547.0 146184.0 140702.0 137236.0 139906.0 256941.0 259223.0 229004.0 221158.0 35042.0 41985.0 161878.0 157355.0 173765.0 168274.0 195764.0 187968.0 164356.0 159806.0 250760.0 197841.0 250760.0 250760.0 250760.0 250760.0 250760.0 250760.0 250760.0 250760.0 197841.0 197841.0 197841.0 197841.0 197841.0 197841.0 197841.0 197841.0
116807.0 116800.0 262408.0 261615.0 164701.0 157428.0 167623.0 167073.0 102037.0 94635.0 246557.0 245826.0 229091.0 224343.0 279630.0 271936.0 83598.0 91043.0 186814.0 180186.0 225450.0 222931.0 65788.0 58706.0 79453.0 84115.0 115424.0 114972.0 298981.0 293307.0 116838.0 112764.0 7817.0 0.0 110588.0 118177.0 164367.0 164535.0 212268.0 204314.0 269716.0 262473.0 251825.0 248631.0 290298.0 294704.0 82506.0 90338.0 166717.0 174133.0 112465.0 111621.0 146731.0 138768.0 251882.0 244064.0 175665.0 169888.0 57469.0 63110.0 174718.0 171922.0 141601.0 135863.0 143668.0 146072.0 259367.0 261427.0 231411.0 223518.0 42716.0 49488.0 157971.0 153169.0 171739.0 165996.0 200460.0 192604.0 162122.0 157647.0 252484.0 194778.0 252484.0 252484.0 252484.0 252484.0 252484.0 252484.0 252484.0 252484.0 194778.0 194778.0 194778.0 194778.0 194778.0 194778.0 194778.0 194778.0
128444.0 135160.0 204655.0 200985.0 133458.0 125069.0 123703.0 128664.0 38017.0 35672.0 193699.0 189582.0 290948.0 288924.0 361213.0 353203.0 73937.0 71104.0 263632.0 256001.0 160395.0 161794.0 56380.0 58724.0 46193.0 38106.0 141517.0 134990.0 373762.0 369637.0 109869.0 114026.0 103224.0 110588.0 0.0 8425.0 140717.0 135522.0 287049.0 279173.0 351489.0 343509.0 180190.0 174423.0 358460.0 364478.0 50320.0 49677.0 111567.0 115469.0 149120.0 142591.0 56009.0 48914.0 324527.0 317487.0 245130.0 241771.0 96856.0 91183.0 118151.0 120776.0 201894.0 200010.0 46408.0 53423.0 210553.0 215632.0 185563.0 179269.0 68714.0 61312.0 207776.0 207065.0 195754.0 194171.0 123886.0 117978.0 190391.0 185759.0 215326.0 229147.0 215326.0 215326.0 215326.0 215326.0 215326.0 215326.0 215326.0 215326.0 229147.0 229147.0 229147.0 229147.0 229147.0 229147.0 229147.0 229147.0
129508.0 136537.0 198714.0 194855.0 130675.0 122407.0 119998.0 125348.0 38385.0 37848.0 188210.0 183866.0 293515.0 291716.0 365137.0 357121.0 81787.0 78614.0 267531.0 259865.0 154243.0 155944.0 64804.0 67094.0 54478.0 46386.0 143299.0 136501.0 377064.0 373083.0 110092.0 114788.0 110901.0 118177.0 8425.0 0.0 138432.0 132888.0 290665.0 282833.0 355457.0 347435.0 173384.0 167466.0 361253.0 367384.0 53651.0 51785.0 107093.0 110553.0 151483.0 144709.0 49203.0 42588.0 327808.0 320860.0 248570.0 245421.0 105255.0 99530.0 113376.0 116458.0 205045.0 203463.0 38994.0 46438.0 205243.0 210514.0 180699.0 174600.0 76632.0 69120.0 210089.0 209687.0 196291.0 195046.0 117169.0 111510.0 191329.0 186756.0 210954.0 230070.0 210954.0 210954.0 210954.0 210954.0 210954.0 210954.0 210954.0 210954.0 230070.0 230070.0 230070.0 230070.0 230070.0 230070.0 230070.0 230070.0
54539.0 60071.0 104705.0 106146.0 11271.0 16993.0 29453.0 21366.0 104144.0 109747.0 87178.0 88874.0 191954.0 193557.0 279026.0 271417.0 196457.0 198020.0 189928.0 182719.0 81553.0 75160.0 167011.0 161952.0 167883.0 162701.0 68162.0 62227.0 280666.0 279021.0 47529.0 52355.0 162729.0 164367.0 140717.0 138432.0 0.0 7992.0 205457.0 199229.0 270668.0 262504.0 109179.0 110026.0 259615.0 266468.0 104535.0 99189.0 46338.0 50984.0 80640.0 74126.0 103473.0 104246.0 234058.0 229030.0 165870.0 166817.0 198490.0 197925.0 47830.0 39756.0 126276.0 130387.0 114101.0 106520.0 97024.0 98015.0 69544.0 61562.0 152534.0 147412.0 116188.0 120878.0 79332.0 82960.0 84738.0 78855.0 80983.0 78436.0 88120.0 113104.0 88120.0 88120.0 88120.0 88120.0 88120.0 88120.0 88120.0 88120.0 113104.0 113104.0 113104.0 113104.0 113104.0 113104.0 113104.0 113104.0
58256.0 64496.0 101452.0 102383.0 3279.0 10482.0 21464.0 13402.0 99553.0 105531.0 84264.0 85291.0 199816.0 201351.0 286675.0 279045.0 193216.0 194484.0 197081.0 189819.0 75604.0 69608.0 164044.0 159276.0 164304.0 158857.0 73028.0 66592.0 288530.0 286842.0 48182.0 54030.0 162526.0 164535.0 135522.0 132888.0 7992.0 0.0 212930.0 206630.0 278271.0 270098.0 103497.0 103942.0 267503.0 274355.0 101388.0 95628.0 38382.0 43001.0 85779.0 78922.0 96506.0 97619.0 241821.0 236741.0 173094.0 173885.0 196587.0 195707.0 39869.0 31793.0 133001.0 136872.0 107326.0 99598.0 95326.0 96958.0 67481.0 59491.0 150652.0 145227.0 123520.0 128027.0 87243.0 90747.0 76958.0 70967.0 88690.0 86032.0 88461.0 121085.0 88461.0 88461.0 88461.0 88461.0 88461.0 88461.0 88461.0 88461.0 121085.0 121085.0 121085.0 121085.0 121085.0 121085.0 121085.0 121085.0
171118.0 162674.0 291188.0 295721.0 216001.0 217237.0 233397.0 225938.0 254283.0 252978.0 274116.0 279520.0 39024.0 30639.0 75502.0 67550.0 293615.0 300235.0 25501.0 32199.0 283865.0 276351.0 269071.0 261040.0 280033.0 280979.0 153717.0 161714.0 87599.0 82828.0 193542.0 185802.0 218418.0 212268.0 287049.0 290665.0 205457.0 212930.0 0.0 8032.0 66330.0 58100.0 309380.0 311993.0 78747.0 82585.0 237032.0 239363.0 247903.0 254310.0 142487.0 150257.0 283889.0 279865.0 39621.0 31803.0 42452.0 45282.0 269657.0 275344.0 251682.0 243795.0 86635.0 87282.0 289883.0 285763.0 274850.0 272199.0 255254.0 249386.0 242582.0 244823.0 89653.0 86300.0 129176.0 123686.0 289527.0 282980.0 124996.0 127110.0 258629.0 104040.0 258629.0 258629.0 258629.0 258629.0 258629.0 258629.0 258629.0 258629.0 104040.0 104040.0 104040.0 104040.0 104040.0 104040.0 104040.0 104040.0
163903.0 155444.0 286282.0 290784.0 209674.0 210718.0 226949.0 219562.0 246542.0 245171.0 269183.0 274450.0 41575.0 33199.0 82941.0 74954.0 285598.0 292212.0 17690.0 24186.0 278120.0 270676.0 261039.0 253008.0 272006.0 272963.0 146422.0 154441.0 95627.0 90817.0 186305.0 178505.0 210441.0 204314.0 279173.0 282833.0 199229.0 206630.0 8032.0 0.0 73615.0 65409.0 303861.0 306333.0 86463.0 90459.0 229192.0 231584.0 241264.0 247756.0 135047.0 142856.0 276479.0 272378.0 47570.0 39792.0 34985.0 37412.0 261718.0 267381.0 245175.0 237323.0 79135.0 79539.0 282366.0 278324.0 269940.0 267289.0 250235.0 244233.0 234550.0 236794.0 83154.0 79422.0 123744.0 117987.0 283065.0 276441.0 119121.0 121045.0 253719.0 100037.0 253719.0 253719.0 253719.0 253719.0 253719.0 253719.0 253719.0 253719.0 100037.0 100037.0 100037.0 100037.0 100037.0 100037.0 100037.0 100037.0
237442.0 228994.0 353323.0 357861.0 281392.0 282969.0 298991.0 291409.0 319626.0 317968.0 336257.0 341688.0 84356.0 79828.0 9922.0 2881.0 352728.0 359748.0 87943.0 95641.0 347715.0 340018.0 329872.0 321873.0 341524.0 343091.0 220012.0 228019.0 38726.0 30736.0 259862.0 252097.0 276458.0 269716.0 351489.0 355457.0 270668.0 278271.0 66330.0 73615.0 0.0 8235.0 372490.0 375535.0 54703.0 51147.0 301820.0 304526.0 313798.0 320067.0 208657.0 216470.0 350091.0 345957.0 41035.0 43250.0 108600.0 110584.0 326258.0 332561.0 317363.0 309421.0 152736.0 152836.0 355918.0 351927.0 336985.0 334334.0 317399.0 311665.0 303349.0 306293.0 155600.0 152565.0 192902.0 188087.0 355098.0 348694.0 189764.0 192242.0 320764.0 164164.0 320764.0 320764.0 320764.0 320764.0 320764.0 320764.0 320764.0 320764.0 164164.0 164164.0 164164.0 164164.0 164164.0 164164.0 164164.0 164164.0
229215.0 220768.0 345388.0 349926.0 273215.0 274767.0 290800.0 283227.0 311534.0 309918.0 328322.0 333753.0 76973.0 72147.0 17704.0 9697.0 345356.0 352334.0 79904.0 87582.0 339678.0 331996.0 322301.0 314296.0 333880.0 335377.0 211791.0 219797.0 42065.0 34444.0 251636.0 243877.0 269158.0 262473.0 343509.0 347435.0 262504.0 270098.0 58100.0 65409.0 8235.0 0.0 364525.0 367530.0 53717.0 51322.0 293792.0 296454.0 305585.0 311864.0 200455.0 208263.0 341888.0 337770.0 34353.0 35737.0 100391.0 102439.0 319152.0 325391.0 309166.0 301228.0 144539.0 144693.0 347740.0 343730.0 329050.0 326399.0 309464.0 303730.0 295771.0 298639.0 147376.0 144331.0 184836.0 179969.0 346911.0 340495.0 181620.0 184074.0 312829.0 156343.0 312829.0 312829.0 312829.0 312829.0 312829.0 312829.0 312829.0 312829.0 156343.0 156343.0 156343.0 156343.0 156343.0 156343.0 156343.0 156343.0
160864.0 167684.0 38813.0 31594.0 101268.0 104546.0 89381.0 93659.0 158947.0 167168.0 44634.0 36686.0 290481.0 293131.0 380114.0 372885.0 252803.0 250927.0 296350.0 289467.0 28126.0 34032.0 228814.0 227072.0 223187.0 215649.0 176433.0 169719.0 378850.0 377721.0 145837.0 153464.0 247781.0 251825.0 180190.0 173384.0 109179.0 103497.0 309380.0 303861.0 372490.0 364525.0 0.0 7962.0 357711.0 364564.0 172890.0 165030.0 85546.0 77880.0 189256.0 182278.0 124223.0 131349.0 333796.0 329635.0 272060.0 273819.0 268070.0 264600.0 77714.0 82063.0 234649.0 239195.0 134645.0 126947.0 58400.0 66395.0 58555.0 62117.0 225564.0 218340.0 222290.0 227878.0 180204.0 185903.0 56327.0 62746.0 184981.0 183562.0 88720.0 210223.0 88720.0 88720.0 88720.0 88720.0 88720.0 88720.0 88720.0 88720.0 210223.0 210223.0 210223.0 210223.0 210223.0 210223.0 210223.0 210223.0
160575.0 167631.0 46609.0 39463.0 101533.0 104190.0 88535.0 93401.0 154332.0 162579.0 51266.0 43236.0 293672.0 296385.0 383280.0 375985.0 247384.0 245326.0 298419.0 291445.0 28515.0 35660.0 223863.0 222341.0 217890.0 210275.0 176537.0 169623.0 382041.0 380912.0 144703.0 152511.0 244394.0 248631.0 174423.0 167466.0 110026.0 103942.0 311993.0 306333.0 375535.0 367530.0 7962.0 0.0 360902.0 367755.0 168917.0 161009.0 83191.0 75370.0 189457.0 182318.0 118414.0 125712.0 336957.0 332811.0 274158.0 275712.0 263393.0 259747.0 75563.0 80559.0 236044.0 240367.0 128594.0 121055.0 65773.0 73761.0 63839.0 66670.0 221377.0 214061.0 224324.0 229712.0 182887.0 188352.0 50909.0 57806.0 187272.0 185665.0 94953.0 213414.0 94953.0 94953.0 94953.0 94953.0 94953.0 94953.0 94953.0 94953.0 213414.0 213414.0 213414.0 213414.0 213414.0 213414.0 213414.0 213414.0
235343.0 227303.0 338517.0 343055.0 270738.0 273574.0 288817.0 280886.0 323680.0 323415.0 321451.0 326882.0 68247.0 69542.0 53086.0 52321.0 370649.0 377022.0 104152.0 110307.0 333345.0 325521.0 345139.0 337129.0 355480.0 355825.0 219305.0 226827.0 28460.0 32603.0 257429.0 250549.0 296224.0 290298.0 358460.0 361253.0 259615.0 267503.0 78747.0 86463.0 54703.0 53717.0 357711.0 360902.0 0.0 8022.0 308141.0 309475.0 304759.0 310307.0 209956.0 217076.0 348413.0 345439.0 39872.0 47798.0 115679.0 120759.0 347760.0 353243.0 307308.0 299241.0 156887.0 159764.0 355759.0 350650.0 322179.0 319528.0 302593.0 296859.0 318823.0 320498.0 151827.0 151608.0 180298.0 177025.0 344264.0 338466.0 179525.0 182930.0 305958.0 149265.0 305958.0 305958.0 305958.0 305958.0 305958.0 305958.0 305958.0 305958.0 149265.0 149265.0 149265.0 149265.0 149265.0 149265.0 149265.0 149265.0
241989.0 233899.0 345370.0 349908.0 277591.0 280427.0 295670.0 287739.0 329932.0 329538.0 328304.0 333735.0 75015.0 75764.0 48255.0 48564.0 375496.0 381954.0 108085.0 114526.0 340198.0 332374.0 350269.0 342249.0 360769.0 361249.0 225799.0 233380.0 20951.0 26016.0 264143.0 257179.0 300743.0 294704.0 364478.0 367384.0 266468.0 274355.0 82585.0 90459.0 51147.0 51322.0 364564.0 367755.0 8022.0 0.0 314161.0 315627.0 311612.0 317159.0 216249.0 223451.0 355177.0 352108.0 43059.0 51003.0 120850.0 125641.0 352135.0 357730.0 314161.0 306094.0 162699.0 165308.0 362408.0 357385.0 329032.0 326381.0 309446.0 303712.0 323894.0 325715.0 158349.0 157880.0 187151.0 183878.0 351117.0 345319.0 186377.0 189783.0 312811.0 156118.0 312811.0 312811.0 312811.0 312811.0 312811.0 312811.0 312811.0 312811.0 156118.0 156118.0 156118.0 156118.0 156118.0 156118.0 156118.0 156118.0
80395.0 86380.0 188658.0 186683.0 100238.0 91771.0 96505.0 98749.0 21210.0 16551.0 174554.0 172336.0 240665.0 238605.0 311493.0 303477.0 91924.0 93633.0 213889.0 206218.0 148069.0 146885.0 62672.0 58248.0 63636.0 59170.0 92030.0 85970.0 323553.0 319505.0 64720.0 67050.0 77090.0 82506.0 50320.0 53651.0 104535.0 101388.0 237032.0 229192.0 301820.0 293792.0 172890.0 168917.0 308141.0 314161.0 0.0 7971.0 90572.0 97097.0 99004.0 92699.0 65220.0 57626.0 274305.0 267309.0 194985.0 191779.0 97463.0 95516.0 98495.0 97745.0 151612.0 149867.0 64274.0 65032.0 189539.0 193110.0 162266.0 154909.0 52931.0 46124.0 157629.0 156782.0 148205.0 145917.0 119321.0 111684.0 142036.0 137316.0 188170.0 180652.0 188170.0 188170.0 188170.0 188170.0 188170.0 188170.0 188170.0 188170.0 180652.0 180652.0 180652.0 180652.0 180652.0 180652.0 180652.0 180652.0
79010.0 85541.0 181219.0 179138.0 94310.0 85787.0 89692.0 92301.0 15586.0 14039.0 167308.0 164947.0 241732.0 239941.0 314142.0 306124.0 97651.0 98877.0 216590.0 208885.0 140351.0 139291.0 68927.0 64998.0 68712.0 63592.0 91846.0 85332.0 325472.0 321592.0 61697.0 64957.0 85004.0 90338.0 49677.0 51785.0 99189.0 95628.0 239363.0 231584.0 304526.0 296454.0 165030.0 161009.0 309475.0 315627.0 7971.0 0.0 83126.0 89516.0 99716.0 93025.0 58067.0 50687.0 276216.0 269331.0 197135.0 194197.0 104749.0 102528.0 91005.0 90515.0 153429.0 152087.0 57928.0 58077.0 182480.0 186197.0 155351.0 148079.0 60640.0 53669.0 158346.0 157902.0 146632.0 144759.0 111358.0 103730.0 140941.0 136275.0 181724.0 179673.0 181724.0 181724.0 181724.0 181724.0 181724.0 181724.0 181724.0 181724.0 179673.0 179673.0 179673.0 179673.0 179673.0 179673.0 179673.0 179673.0
82310.0 90306.0 98096.0 96180.0 35122.0 31185.0 17385.0 25430.0 80952.0 88579.0 84458.0 81832.0 236924.0 238058.0 322443.0 314705.0 177900.0 177648.0 230539.0 223062.0 58734.0 56589.0 150875.0 147738.0 147995.0 141346.0 99717.0 92009.0 325576.0 323618.0 63375.0 71640.0 163009.0 166717.0 111567.0 107093.0 46338.0 38382.0 247903.0 241264.0 313798.0 305585.0 85546.0 83191.0 304759.0 311612.0 90572.0 83126.0 0.0 7924.0 112741.0 104984.0 63595.0 66826.0 278292.0 272922.0 207010.0 207068.0 187867.0 185447.0 8031.0 9617.0 165022.0 167816.0 75234.0 66863.0 100295.0 104738.0 74242.0 67735.0 143411.0 136695.0 158262.0 161931.0 124851.0 127735.0 42906.0 35581.0 125339.0 122237.0 103862.0 159119.0 103862.0 103862.0 103862.0 103862.0 103862.0 103862.0 103862.0 103862.0 159119.0 159119.0 159119.0 159119.0 159119.0 159119.0 159119.0 159119.0
89830.0 97740.0 91901.0 89627.0 39729.0 37098.0 21545.0 29626.0 86394.0 94210.0 78992.0 75855.0 242549.0 243873.0 328637.0 320933.0 183202.0 182680.0 237289.0 229849.0 51406.0 49787.0 156641.0 153763.0 153253.0 146422.0 107122.0 99483.0 331249.0 329422.0 71199.0 79430.0 170306.0 174133.0 115469.0 110553.0 50984.0 43001.0 254310.0 247756.0 320067.0 311864.0 77880.0 75370.0 310307.0 317159.0 97097.0 89516.0 7924.0 0.0 120169.0 112460.0 65170.0 69249.0 284218.0 278959.0 213647.0 213855.0 194133.0 191512.0 3612.0 11317.0 171967.0 174924.0 76955.0 68450.0 95339.0 100194.0 70148.0 64141.0 150016.0 143176.0 164659.0 168526.0 130146.0 133359.0 35645.0 28690.0 131102.0 128157.0 100912.0 164086.0 100912.0 100912.0 100912.0 100912.0 100912.0 100912.0 100912.0 100912.0 164086.0 164086.0 164086.0 164086.0 164086.0 164086.0 164086.0 164086.0
30592.0 22435.0 184372.0 186354.0 88000.0 85589.0 101887.0 96176.0 113730.0 113724.0 166562.0 169002.0 142055.0 140489.0 217965.0 209991.0 175075.0 179754.0 121802.0 114081.0 161285.0 155386.0 146002.0 138535.0 153462.0 151948.0 13067.0 20788.0 226890.0 223443.0 52157.0 43970.0 114453.0 112465.0 149120.0 151483.0 80640.0 85779.0 142487.0 135047.0 208657.0 200455.0 189256.0 189457.0 209956.0 216249.0 99004.0 99716.0 112741.0 120169.0 0.0 7999.0 141435.0 137393.0 177750.0 171192.0 100071.0 98424.0 162896.0 165581.0 118341.0 111342.0 55928.0 56773.0 147454.0 143281.0 174037.0 173414.0 147979.0 140240.0 122273.0 121160.0 58657.0 58370.0 59318.0 53959.0 155646.0 148212.0 49998.0 45388.0 160498.0 85675.0 160498.0 160498.0 160498.0 160498.0 160498.0 160498.0 160498.0 160498.0 85675.0 85675.0 85675.0 85675.0 85675.0 85675.0 85675.0 85675.0
22714.0 14785.0 178364.0 180142.0 81023.0 78263.0 94456.0 88943.0 106753.0 107060.0 160619.0 162815.0 149045.0 147689.0 225751.0 217783.0 171109.0 175526.0 129735.0 122019.0 154247.0 148496.0 141731.0 134416.0 148658.0 146813.0 5989.0 12978.0 234347.0 230988.0 44158.0 35983.0 113073.0 111621.0 142591.0 144709.0 74126.0 78922.0 150257.0 142856.0 216470.0 208263.0 182278.0 182318.0 217076.0 223451.0 92699.0 93025.0 104984.0 112460.0 7999.0 0.0 133633.0 129695.0 185258.0 178768.0 107872.0 106330.0 160366.0 162695.0 110693.0 103786.0 63779.0 64758.0 139799.0 135515.0 168634.0 168292.0 142225.0 134413.0 118663.0 117096.0 65432.0 65639.0 61330.0 56800.0 147881.0 140409.0 52784.0 48027.0 155671.0 89876.0 155671.0 155671.0 155671.0 155671.0 155671.0 155671.0 155671.0 155671.0 89876.0 89876.0 89876.0 89876.0 89876.0 89876.0 89876.0 89876.0
113396.0 121676.0 150012.0 145926.0 93687.0 86487.0 79240.0 86106.0 44722.0 52174.0 140314.0 135545.0 280190.0 279779.0 359384.0 351415.0 129351.0 126990.0 263012.0 255267.0 105341.0 107474.0 107800.0 107642.0 100314.0 92482.0 130323.0 122432.0 367200.0 364163.0 91078.0 98351.0 140674.0 146731.0 56009.0 49203.0 103473.0 96506.0 283889.0 276479.0 350091.0 341888.0 124223.0 118414.0 348413.0 355177.0 65220.0 58067.0 63595.0 65170.0 141435.0 133633.0 0.0 8186.0 318370.0 312088.0 241499.0 239761.0 148385.0 143808.0 68426.0 73206.0 197361.0 197734.0 11804.0 3281.0 157670.0 163364.0 134385.0 128915.0 110975.0 103143.0 197116.0 198595.0 173608.0 174277.0 67971.0 62378.0 171041.0 166971.0 165956.0 208560.0 165956.0 165956.0 165956.0 165956.0 165956.0 165956.0 165956.0 165956.0 208560.0 208560.0 208560.0 208560.0 208560.0 208560.0 208560.0 208560.0
110120.0 118265.0 156135.0 152272.0 94952.0 87367.0 81578.0 87998.0 36865.0 44151.0 145862.0 141368.0 277192.0 276552.0 355317.0 347332.0 121770.0 119617.0 258616.0 250865.0 111661.0 113397.0 99785.0 99522.0 92551.0 84782.0 126669.0 118892.0 363769.0 360581.0 88043.0 94946.0 132650.0 138768.0 48914.0 42588.0 104246.0 97619.0 279865.0 272378.0 345957.0 337770.0 131349.0 125712.0 345439.0 352108.0 57626.0 50687.0 66826.0 69249.0 137393.0 129695.0 8186.0 0.0 314810.0 308415.0 237428.0 235477.0 140314.0 135811.0 72326.0 76420.0 193247.0 193330.0 10427.0 7406.0 163041.0 168516.0 139106.0 133347.0 102797.0 94963.0 193838.0 195016.0 171989.0 172289.0 75023.0 69068.0 168947.0 164762.0 170149.0 206844.0 170149.0 170149.0 170149.0 170149.0 170149.0 170149.0 170149.0 170149.0 206844.0 206844.0 206844.0 206844.0 206844.0 206844.0 206844.0 206844.0
204998.0 196694.0 314602.0 319140.0 245007.0 247203.0 262887.0 255115.0 290859.0 289997.0 297536.0 302967.0 43952.0 40655.0 47053.0 40632.0 333070.0 339631.0 65112.0 71733.0 309425.0 301606.0 308253.0 300225.0 319023.0 319765.0 188143.0 195964.0 49257.0 45796.0 227392.0 220021.0 258008.0 251882.0 324527.0 327808.0 234058.0 241821.0 39621.0 47570.0 41035.0 34353.0 333796.0 336957.0 39872.0 43059.0 274305.0 276216.0 278292.0 284218.0 177750.0 185258.0 318370.0 314810.0 0.0 7962.0 79539.0 83679.0 309277.0 314951.0 281361.0 273340.0 122787.0 124575.0 324986.0 320413.0 298264.0 295613.0 278678.0 272944.0 281803.0 283866.0 121493.0 119799.0 155254.0 151100.0 318778.0 312668.0 153158.0 156073.0 282043.0 124850.0 282043.0 282043.0 282043.0 282043.0 282043.0 282043.0 282043.0 282043.0 124850.0 124850.0 124850.0 124850.0 124850.0 124850.0 124850.0 124850.0
198783.0 190438.0 310440.0 314978.0 239906.0 241897.0 257701.0 249988.0 284050.0 283073.0 293374.0 298805.0 41243.0 36623.0 50478.0 43364.0 325374.0 331965.0 57260.0 63976.0 305129.0 297368.0 300679.0 292649.0 311521.0 312334.0 181786.0 189656.0 56333.0 52291.0 221205.0 213743.0 250221.0 244064.0 317487.0 320860.0 229030.0 236741.0 31803.0 39792.0 43250.0 35737.0 329635.0 332811.0 47798.0 51003.0 267309.0 269331.0 272922.0 278959.0 171192.0 178768.0 312088.0 308415.0 7962.0 0.0 72372.0 76255.0 301443.0 307144.0 276150.0 268151.0 115945.0 117480.0 318556.0 314091.0 294102.0 291451.0 274516.0 268782.0 274212.0 276343.0 115534.0 113502.0 150577.0 146140.0 313689.0 307478.0 148054.0 150815.0 277881.0 121060.0 277881.0 277881.0 277881.0 277881.0 277881.0 277881.0 277881.0 277881.0 121060.0 121060.0 121060.0 121060.0 121060.0 121060.0 121060.0 121060.0
128969.0 120502.0 256564.0 260661.0 176070.0 176717.0 193065.0 185836.0 211974.0 210819.0 239138.0 243976.0 54303.0 48806.0 117896.0 109920.0 255067.0 261379.0 24302.0 17897.0 245775.0 238524.0 229470.0 221457.0 239920.0 240453.0 111451.0 119478.0 128690.0 124520.0 151355.0 143531.0 181263.0 175665.0 245130.0 248570.0 165870.0 173094.0 42452.0 34985.0 108600.0 100391.0 272060.0 274158.0 115679.0 120850.0 194985.0 197135.0 207010.0 213647.0 100071.0 107872.0 241499.0 237428.0 79539.0 72372.0 0.0 7469.0 233074.0 238263.0 211156.0 203380.0 44185.0 45121.0 247436.0 243351.0 240577.0 237927.0 219994.0 213615.0 203145.0 204872.0 49849.0 45140.0 93172.0 86621.0 249097.0 242335.0 87180.0 88508.0 224357.0 75676.0 224357.0 224357.0 224357.0 224357.0 224357.0 224357.0 224357.0 224357.0 75676.0 75676.0 75676.0 75676.0 75676.0 75676.0 75676.0 75676.0
127913.0 119432.0 259284.0 263212.0 176801.0 177087.0 193520.0 186445.0 209190.0 207767.0 241751.0 246401.0 61064.0 55163.0 120080.0 112068.0 249903.0 256321.0 23540.0 15995.0 247263.0 240132.0 224679.0 216655.0 235356.0 236093.0 110225.0 118289.0 132540.0 128027.0 150185.0 142212.0 175634.0 169888.0 241771.0 245421.0 166817.0 173885.0 45282.0 37412.0 110584.0 102439.0 273819.0 275712.0 120759.0 125641.0 191779.0 194197.0 207068.0 213855.0 98424.0 106330.0 239761.0 235477.0 83679.0 76255.0 7469.0 0.0 227343.0 232661.0 211458.0 203764.0 42641.0 42254.0 245393.0 241532.0 243592.0 240959.0 222555.0 216023.0 198274.0 200220.0 51665.0 46017.0 96065.0 89183.0 249406.0 242516.0 89421.0 90373.0 227389.0 80817.0 227389.0 227389.0 227389.0 227389.0 227389.0 227389.0 227389.0 227389.0 80817.0 80817.0 80817.0 80817.0 80817.0 80817.0 80817.0 80817.0
159802.0 162051.0 285945.0 283741.0 195880.0 187652.0 193769.0 195498.0 109123.0 100910.0 272011.0 269695.0 286327.0 281700.0 336153.0 328539.0 34815.0 42858.0 244184.0 237610.0 244492.0 243829.0 40799.0 41079.0 51266.0 59230.0 163005.0 160598.0 356165.0 350383.0 153017.0 151565.0 51939.0 57469.0 96856.0 105255.0 198490.0 196587.0 269657.0 261718.0 326258.0 319152.0 268070.0 263393.0 347760.0 352135.0 97463.0 104749.0 187867.0 194133.0 162896.0 160366.0 148385.0 140314.0 309277.0 301443.0 233074.0 227343.0 0.0 8088.0 195720.0 195201.0 197982.0 192604.0 141133.0 146543.0 286951.0 290382.0 259559.0 252105.0 45960.0 51607.0 213113.0 208869.0 221688.0 216803.0 212671.0 205587.0 212817.0 208137.0 284593.0 247775.0 284593.0 284593.0 284593.0 284593.0 284593.0 284593.0 284593.0 284593.0 247775.0 247775.0 247775.0 247775.0 247775.0 247775.0 247775.0 247775.0
161019.0 163668.0 283407.0 281013.0 194869.0 186550.0 192019.0 194072.0 105813.0 97687.0 269793.0 267256.0 291243.0 286774.0 342466.0 334815.0 26743.0 34774.0 249904.0 243235.0 241479.0 241071.0 36042.0 37756.0 45137.0 53206.0 165074.0 162298.0 362087.0 356391.0 153143.0 152134.0 57028.0 63110.0 91183.0 99530.0 197925.0 195707.0 275344.0 267381.0 332561.0 325391.0 264600.0 259747.0 353243.0 357730.0 95516.0 102528.0 185447.0 191512.0 165581.0 162695.0 143808.0 135811.0 314951.0 307144.0 238263.0 232661.0 8088.0 0.0 193227.0 193029.0 202382.0 197213.0 136137.0 141844.0 284999.0 288626.0 257780.0 250420.0 45856.0 50515.0 216952.0 212937.0 224008.0 219348.0 208916.0 201968.0 215347.0 210632.0 283373.0 250835.0 283373.0 283373.0 283373.0 283373.0 283373.0 283373.0 283373.0 283373.0 250835.0 250835.0 250835.0 250835.0 250835.0 250835.0 250835.0 250835.0
88137.0 95938.0 90224.0 88209.0 36609.0 34458.0 18495.0 26468.0 88426.0 96150.0 76872.0 74030.0 239579.0 240976.0 325895.0 318207.0 185330.0 184935.0 234863.0 227449.0 50743.0 48568.0 158525.0 155498.0 155398.0 148650.0 105279.0 97723.0 328289.0 326511.0 70046.0 78182.0 171032.0 174718.0 118151.0 113376.0 47830.0 39869.0 251682.0 245175.0 317363.0 309166.0 77714.0 75563.0 307308.0 314161.0 98495.0 91005.0 8031.0 3612.0 118341.0 110693.0 68426.0 72326.0 281361.0 276150.0 211156.0 211458.0 195720.0 193227.0 0.0 8076.0 169690.0 172770.0 80194.0 71708.0 92975.0 97654.0 67413.0 61228.0 151364.0 144613.0 162046.0 166022.0 127091.0 130416.0 37951.0 31337.0 128214.0 125335.0 97835.0 160920.0 97835.0 97835.0 97835.0 97835.0 97835.0 97835.0 97835.0 97835.0 160920.0 160920.0 160920.0 160920.0 160920.0 160920.0 160920.0 160920.0
81373.0 89005.0 91250.0 89878.0 28533.0 26678.0 10452.0 18392.0 89327.0 96767.0 76810.0 74785.0 231519.0 232939.0 317931.0 310253.0 186228.0 186182.0 227140.0 219751.0 54388.0 51082.0 158814.0 155408.0 156386.0 149882.0 98275.0 90846.0 320230.0 318468.0 64206.0 72146.0 168547.0 171922.0 120776.0 116458.0 39756.0 31793.0 243795.0 237323.0 309421.0 301228.0 82063.0 80559.0 299241.0 306094.0 97745.0 90515.0 9617.0 11317.0 111342.0 103786.0 73206.0 76420.0 273340.0 268151.0 203380.0 203764.0 195201.0 193029.0 8076.0 0.0 162123.0 165336.0 84851.0 76475.0 92111.0 96226.0 65533.0 58771.0 150330.0 143809.0 154178.0 158240.0 119017.0 122367.0 45742.0 39330.0 120185.0 117337.0 94554.0 152851.0 94554.0 94554.0 94554.0 94554.0 94554.0 94554.0 94554.0 94554.0 152851.0 152851.0 152851.0 152851.0 152851.0 152851.0 152851.0 152851.0
85276.0 76795.0 223032.0 226370.0 135791.0 135495.0 152004.0 145189.0 168106.0 167221.0 205232.0 209236.0 90576.0 87564.0 162071.0 154088.0 216894.0 222713.0 66146.0 58488.0 207529.0 200706.0 189920.0 181994.0 199517.0 199418.0 67587.0 75649.0 172044.0 168231.0 107547.0 99596.0 146184.0 141601.0 201894.0 205045.0 126276.0 133001.0 86635.0 79135.0 152736.0 144539.0 234649.0 236044.0 156887.0 162699.0 151612.0 153429.0 165022.0 171967.0 55928.0 63779.0 197361.0 193247.0 122787.0 115945.0 44185.0 42641.0 197982.0 202382.0 169690.0 162123.0 0.0 8078.0 203250.0 199192.0 208913.0 206530.0 185994.0 179003.0 164080.0 164968.0 22372.0 14598.0 63979.0 56086.0 207592.0 200559.0 54855.0 54180.0 192960.0 64459.0 192960.0 192960.0 192960.0 192960.0 192960.0 192960.0 192960.0 192960.0 64459.0 64459.0 64459.0 64459.0 64459.0 64459.0 64459.0 64459.0
86916.0 78480.0 228589.0 231752.0 139568.0 138822.0 155351.0 148761.0 167007.0 165732.0 210744.0 214547.0 94548.0 90923.0 162331.0 154320.0 212419.0 218412.0 65290.0 57541.0 211862.0 205193.0 185915.0 177946.0 195880.0 196078.0 69093.0 77147.0 173777.0 169640.0 108885.0 100741.0 140702.0 135863.0 200010.0 203463.0 130387.0 136872.0 87282.0 79539.0 152836.0 144693.0 239195.0 240367.0 159764.0 165308.0 149867.0 152087.0 167816.0 174924.0 56773.0 64758.0 197734.0 193330.0 124575.0 117480.0 45121.0 42254.0 192604.0 197213.0 172770.0 165336.0 8078.0 0.0 203206.0 199452.0 214895.0 212656.0 191532.0 184420.0 159855.0 161079.0 30444.0 22661.0 71136.0 63179.0 210568.0 203396.0 61685.0 60636.0 199086.0 72531.0 199086.0 199086.0 199086.0 199086.0 199086.0 199086.0 199086.0 199086.0 72531.0 72531.0 72531.0 72531.0 72531.0 72531.0 72531.0 72531.0
120421.0 128531.0 161333.0 157104.0 104587.0 97164.0 90617.0 97305.0 43080.0 49438.0 151913.0 147035.0 287512.0 286823.0 365307.0 357316.0 120296.0 117481.0 268473.0 260722.0 116577.0 118938.0 100349.0 100918.0 91867.0 83885.0 136866.0 129125.0 373979.0 370747.0 98401.0 105230.0 137236.0 143668.0 46408.0 38994.0 114101.0 107326.0 289883.0 282366.0 355918.0 347740.0 134645.0 128594.0 355759.0 362408.0 64274.0 57928.0 75234.0 76955.0 147454.0 139799.0 11804.0 10427.0 324986.0 318556.0 247436.0 245393.0 141133.0 136137.0 80194.0 84851.0 203250.0 203206.0 0.0 8540.0 169321.0 175073.0 146169.0 140718.0 105988.0 98117.0 204109.0 205207.0 182408.0 182716.0 78635.0 73432.0 179372.0 175184.0 177758.0 217268.0 177758.0 177758.0 177758.0 177758.0 177758.0 177758.0 177758.0 177758.0 217268.0 217268.0 217268.0 217268.0 217268.0 217268.0 217268.0 217268.0
115499.0 123738.0 153057.0 148918.0 96798.0 89542.0 82458.0 89286.0 44241.0 51437.0 143468.0 138654.0 282415.0 281931.0 361246.0 353271.0 126982.0 124486.0 264741.0 256993.0 108350.0 110571.0 105878.0 105925.0 98104.0 90223.0 132305.0 124451.0 369290.0 366201.0 93245.0 100403.0 139906.0 146072.0 53423.0 46438.0 106520.0 99598.0 285763.0 278324.0 351927.0 343730.0 126947.0 121055.0 350650.0 357385.0 65032.0 58077.0 66863.0 68450.0 143281.0 135515.0 3281.0 7406.0 320413.0 314091.0 243351.0 241532.0 146543.0 141844.0 71708.0 76475.0 199192.0 199452.0 8540.0 0.0 160847.0 166568.0 137631.0 132179.0 109749.0 101898.0 199242.0 200620.0 176205.0 176780.0 70760.0 65308.0 173515.0 169413.0 169228.0 211139.0 169228.0 169228.0 169228.0 169228.0 169228.0 169228.0 169228.0 169228.0 211139.0 211139.0 211139.0 211139.0 211139.0 211139.0 211139.0 211139.0
151086.0 155667.0 21521.0 28723.0 94831.0 101939.0 93287.0 92541.0 181242.0 188808.0 17818.0 24629.0 254949.0 257664.0 344580.0 337356.0 278191.0 277901.0 264666.0 258437.0 56298.0 51447.0 250925.0 247450.0 248289.0 241609.0 162681.0 157869.0 343318.0 342189.0 143507.0 149145.0 256941.0 259367.0 210553.0 205243.0 97024.0 95326.0 274850.0 269940.0 336985.0 329050.0 58400.0 65773.0 322179.0 329032.0 189539.0 182480.0 100295.0 95339.0 174037.0 168634.0 157670.0 163041.0 298264.0 294102.0 240577.0 243592.0 286951.0 284999.0 92975.0 92111.0 208913.0 214895.0 169321.0 160847.0 0.0 7995.0 27956.0 35883.0 241660.0 235405.0 192467.0 199278.0 147536.0 154622.0 95298.0 97822.0 154874.0 154871.0 36893.0 174691.0 36893.0 36893.0 36893.0 36893.0 36893.0 36893.0 36893.0 36893.0 174691.0 174691.0 174691.0 174691.0 174691.0 174691.0 174691.0 174691.0
151489.0 155692.0 29168.0 36493.0 96728.0 104184.0 96623.0 95244.0 185544.0 192985.0 24893.0 32199.0 252298.0 255013.0 341929.0 334705.0 282454.0 282358.0 262015.0 255786.0 63462.0 58165.0 254870.0 251195.0 252608.0 246053.0 162379.0 157896.0 340667.0 339538.0 145055.0 150348.0 259223.0 261427.0 215632.0 210514.0 98015.0 96958.0 272199.0 267289.0 334334.0 326399.0 66395.0 73761.0 319528.0 326381.0 193110.0 186197.0 104738.0 100194.0 173414.0 168292.0 163364.0 168516.0 295613.0 291451.0 237927.0 240959.0 290382.0 288626.0 97654.0 96226.0 206530.0 212656.0 175073.0 166568.0 7995.0 0.0 30848.0 38321.0 244893.0 238786.0 189826.0 196684.0 144895.0 151979.0 102101.0 104281.0 152289.0 152402.0 31861.0 172040.0 31861.0 31861.0 31861.0 31861.0 31861.0 31861.0 31861.0 31861.0 172040.0 172040.0 172040.0 172040.0 172040.0 172040.0 172040.0 172040.0
123921.0 128870.0 37057.0 40667.0 66908.0 73984.0 65791.0 64669.0 154854.0 162236.0 19247.0 24339.0 235363.0 238079.0 324994.0 317770.0 251718.0 251715.0 244231.0 237746.0 43029.0 35505.0 224045.0 220348.0 221902.0 215415.0 136244.0 131063.0 323732.0 322604.0 115640.0 121415.0 229004.0 231411.0 185563.0 180699.0 69544.0 67481.0 255254.0 250235.0 317399.0 309464.0 58555.0 63839.0 302593.0 309446.0 162266.0 155351.0 74242.0 70148.0 147979.0 142225.0 134385.0 139106.0 278678.0 274516.0 219994.0 222555.0 259559.0 257780.0 67413.0 65533.0 185994.0 191532.0 146169.0 137631.0 27956.0 30848.0 0.0 8000.0 214115.0 207970.0 170972.0 177344.0 126882.0 133415.0 77378.0 78026.0 133166.0 132588.0 33292.0 155105.0 33292.0 33292.0 33292.0 33292.0 33292.0 33292.0 33292.0 33292.0 155105.0 155105.0 155105.0 155105.0 155105.0 155105.0 155105.0 155105.0
115972.0 120984.0 44365.0 47369.0 58950.0 66105.0 58407.0 56945.0 147962.0 155247.0 26463.0 30377.0 229629.0 232345.0 319260.0 312036.0 244723.0 244851.0 237884.0 231315.0 43208.0 35168.0 216867.0 213059.0 214960.0 208565.0 128428.0 123175.0 317998.0 316870.0 107658.0 113416.0 221158.0 223518.0 179269.0 174600.0 61562.0 59491.0 249386.0 244233.0 311665.0 303730.0 62117.0 66670.0 296859.0 303712.0 154909.0 148079.0 67735.0 64141.0 140240.0 134413.0 128915.0 133347.0 272944.0 268782.0 213615.0 216023.0 252105.0 250420.0 61228.0 58771.0 179003.0 184420.0 140718.0 132179.0 35883.0 38321.0 8000.0 0.0 206581.0 200503.0 164385.0 170627.0 120644.0 126994.0 74554.0 74427.0 126602.0 125860.0 35337.0 149371.0 35337.0 35337.0 35337.0 35337.0 35337.0 35337.0 35337.0 35337.0 149371.0 149371.0 149371.0 149371.0 149371.0 149371.0 149371.0 149371.0
115485.0 118526.0 241443.0 239571.0 149981.0 141792.0 148379.0 149819.0 67926.0 59746.0 227058.0 225063.0 254388.0 250676.0 313258.0 305391.0 53141.0 58642.0 217594.0 210437.0 200982.0 199803.0 26537.0 18525.0 38714.0 42115.0 120565.0 117262.0 330138.0 325019.0 107323.0 106292.0 35042.0 42716.0 68714.0 76632.0 152534.0 150652.0 242582.0 234550.0 303349.0 295771.0 225564.0 221377.0 318823.0 323894.0 52931.0 60640.0 143411.0 150016.0 122273.0 118663.0 110975.0 102797.0 281803.0 274212.0 203145.0 198274.0 45960.0 45856.0 151364.0 150330.0 164080.0 159855.0 105988.0 109749.0 241660.0 244893.0 214115.0 206581.0 0.0 7871.0 176440.0 173250.0 179700.0 175461.0 171251.0 163809.0 171445.0 166682.0 238750.0 207941.0 238750.0 238750.0 238750.0 238750.0 238750.0 238750.0 238750.0 238750.0 207941.0 207941.0 207941.0 207941.0 207941.0 207941.0 207941.0 207941.0
112465.0 116004.0 234782.0 232786.0 144434.0 136155.0 142185.0 143900.0 60302.0 52090.0 220601.0 218453.0 255475.0 251998.0 316187.0 308285.0 54019.0 58633.0 220014.0 212758.0 193981.0 192956.0 25062.0 17383.0 35253.0 37323.0 118627.0 114858.0 332421.0 327445.0 102992.0 102502.0 41985.0 49488.0 61312.0 69120.0 147412.0 145227.0 244823.0 236794.0 306293.0 298639.0 218340.0 214061.0 320498.0 325715.0 46124.0 53669.0 136695.0 143176.0 121160.0 117096.0 103143.0 94963.0 283866.0 276343.0 204872.0 200220.0 51607.0 50515.0 144613.0 143809.0 164968.0 161079.0 98117.0 101898.0 235405.0 238786.0 207970.0 200503.0 7871.0 0.0 176455.0 173600.0 177731.0 173790.0 163812.0 156420.0 169775.0 164992.0 233058.0 206777.0 233058.0 233058.0 233058.0 233058.0 233058.0 233058.0 233058.0 233058.0 206777.0 206777.0 206777.0 206777.0 206777.0 206777.0 206777.0 206777.0
83746.0 75578.0 207777.0 211614.0 126545.0 127594.0 143797.0 136413.0 172185.0 172365.0 190186.0 194762.0 83673.0 82715.0 164374.0 156574.0 229574.0 234909.0 74095.0 67183.0 195931.0 188700.0 201516.0 193757.0 210088.0 209201.0 67479.0 75032.0 170111.0 167264.0 106045.0 98892.0 161878.0 157971.0 207776.0 210089.0 116188.0 123520.0 89653.0 83154.0 155600.0 147376.0 222290.0 224324.0 151827.0 158349.0 157629.0 158346.0 158262.0 164659.0 58657.0 65432.0 197116.0 193838.0 121493.0 115534.0 49849.0 51665.0 213113.0 216952.0 162046.0 154178.0 22372.0 30444.0 204109.0 199242.0 192467.0 189826.0 170972.0 164385.0 176440.0 176455.0 0.0 8049.0 45165.0 37848.0 199919.0 193334.0 37806.0 38742.0 176257.0 42206.0 176257.0 176257.0 176257.0 176257.0 176257.0 176257.0 176257.0 176257.0 42206.0 42206.0 42206.0 42206.0 42206.0 42206.0 42206.0 42206.0
85289.0 76936.0 214246.0 217936.0 130981.0 131579.0 147926.0 140716.0 172075.0 171868.0 196581.0 200987.0 83884.0 82120.0 161549.0 153670.0 226317.0 231845.0 69056.0 61855.0 201255.0 194147.0 198652.0 190820.0 207627.0 207038.0 68347.0 76170.0 168781.0 165583.0 107720.0 100245.0 157355.0 153169.0 207065.0 209687.0 120878.0 128027.0 86300.0 79422.0 152565.0 144331.0 227878.0 229712.0 151608.0 157880.0 156782.0 157902.0 161931.0 168526.0 58370.0 65639.0 198595.0 195016.0 119799.0 113502.0 45140.0 46017.0 208869.0 212937.0 166022.0 158240.0 14598.0 22661.0 205207.0 200620.0 199278.0 196684.0 177344.0 170627.0 173250.0 173600.0 8049.0 0.0 52424.0 44864.0 203959.0 197216.0 44405.0 44768.0 183114.0 49871.0 183114.0 183114.0 183114.0 183114.0 183114.0 183114.0 183114.0 183114.0 49871.0 49871.0 49871.0 49871.0 49871.0 49871.0 49871.0 49871.0
67811.0 62381.0 163392.0 167538.0 90490.0 93725.0 108618.0 100639.0 158018.0 160328.0 145992.0 150957.0 112702.0 114626.0 200905.0 193464.0 231704.0 235760.0 117369.0 110986.0 154887.0 147277.0 202012.0 194925.0 207974.0 205377.0 59143.0 63223.0 201390.0 199887.0 86251.0 81746.0 173765.0 171739.0 195754.0 196291.0 79332.0 87243.0 129176.0 123744.0 192902.0 184836.0 180204.0 182887.0 180298.0 187151.0 148205.0 146632.0 124851.0 130146.0 59318.0 61330.0 173608.0 171989.0 155254.0 150577.0 93172.0 96065.0 221688.0 224008.0 127091.0 119017.0 63979.0 71136.0 182408.0 176205.0 147536.0 144895.0 126882.0 120644.0 179700.0 177731.0 45165.0 52424.0 0.0 8000.0 163971.0 158187.0 10588.0 14329.0 131325.0 34986.0 131325.0 131325.0 131325.0 131325.0 131325.0 131325.0 131325.0 131325.0 34986.0 34986.0 34986.0 34986.0 34986.0 34986.0 34986.0 34986.0
65753.0 59585.0 170102.0 174081.0 93948.0 96551.0 111922.0 104075.0 156680.0 158595.0 152590.0 157358.0 109203.0 110605.0 196280.0 188744.0 227808.0 232075.0 110896.0 104336.0 160182.0 152698.0 198286.0 191069.0 204691.0 202370.0 55279.0 60173.0 197892.0 196107.0 85421.0 80259.0 168274.0 165996.0 194171.0 195046.0 82960.0 90747.0 123686.0 117987.0 188087.0 179969.0 185903.0 188352.0 177025.0 183878.0 145917.0 144759.0 127735.0 133359.0 53959.0 56800.0 174277.0 172289.0 151100.0 146140.0 86621.0 89183.0 216803.0 219348.0 130416.0 122367.0 56086.0 63179.0 182716.0 176780.0 154622.0 151979.0 133415.0 126994.0 175461.0 173790.0 37848.0 44864.0 8000.0 0.0 167692.0 161669.0 4016.0 8801.0 138409.0 35028.0 138409.0 138409.0 138409.0 138409.0 138409.0 138409.0 138409.0 138409.0 35028.0 35028.0 35028.0 35028.0 35028.0 35028.0 35028.0 35028.0
125195.0 133211.0 84053.0 79175.0 73784.0 72381.0 56131.0 63709.0 103766.0 112027.0 77480.0 71317.0 276656.0 278294.0 363565.0 355908.0 196538.0 194603.0 272813.0 265398.0 39487.0 43936.0 172996.0 171598.0 166997.0 159406.0 142622.0 134909.0 365357.0 363756.0 105744.0 114114.0 195764.0 200460.0 123886.0 117169.0 84738.0 76958.0 289527.0 283065.0 355098.0 346911.0 56327.0 50909.0 344264.0 351117.0 119321.0 111358.0 42906.0 35645.0 155646.0 147881.0 67971.0 75023.0 318778.0 313689.0 249097.0 249406.0 212671.0 208916.0 37951.0 45742.0 207592.0 210568.0 78635.0 70760.0 95298.0 102101.0 77378.0 74554.0 171251.0 163812.0 199919.0 203959.0 163971.0 167692.0 0.0 8042.0 165645.0 162921.0 109849.0 197172.0 109849.0 109849.0 109849.0 109849.0 109849.0 109849.0 109849.0 109849.0 197172.0 197172.0 197172.0 197172.0 197172.0 197172.0 197172.0 197172.0
117703.0 125783.0 88089.0 83686.0 67740.0 65745.0 49782.0 57599.0 96543.0 104795.0 80062.0 74442.0 270781.0 272256.0 357232.0 349542.0 190125.0 188394.0 265960.0 258511.0 43257.0 46462.0 166123.0 164537.0 160460.0 152957.0 135213.0 127448.0 359496.0 357775.0 98001.0 106391.0 187968.0 192604.0 117978.0 111510.0 78855.0 70967.0 282980.0 276441.0 348694.0 340495.0 62746.0 57806.0 338466.0 345319.0 111684.0 103730.0 35581.0 28690.0 148212.0 140409.0 62378.0 69068.0 312668.0 307478.0 242335.0 242516.0 205587.0 201968.0 31337.0 39330.0 200559.0 203396.0 73432.0 65308.0 97822.0 104281.0 78026.0 74427.0 163809.0 156420.0 193334.0 197216.0 158187.0 161669.0 8042.0 0.0 159512.0 156663.0 109735.0 191730.0 109735.0 109735.0 109735.0 109735.0 109735.0 109735.0 109735.0 109735.0 191730.0 191730.0 191730.0 191730.0 191730.0 191730.0 191730.0 191730.0
61952.0 55678.0 169980.0 173811.0 91862.0 94175.0 109733.0 101960.0 152954.0 154796.0 152381.0 156979.0 111617.0 112771.0 198061.0 190475.0 223793.0 228065.0 111481.0 104773.0 159011.0 151612.0 194276.0 187055.0 200702.0 198402.0 51276.0 56234.0 200238.0 198322.0 81847.0 76547.0 164356.0 162122.0 190391.0 191329.0 80983.0 88690.0 124996.0 119121.0 189764.0 181620.0 184981.0 187272.0 179525.0 186377.0 142036.0 140941.0 125339.0 131102.0 49998.0 52784.0 171041.0 168947.0 153158.0 148054.0 87180.0 89421.0 212817.0 215347.0 128214.0 120185.0 54855.0 61685.0 179372.0 173515.0 154874.0 152289.0 133166.0 126602.0 171445.0 169775.0 37806.0 44405.0 10588.0 4016.0 165645.0 159512.0 0.0 4794.0 138719.0 38758.0 138719.0 138719.0 138719.0 138719.0 138719.0 138719.0 138719.0 138719.0 38758.0 38758.0 38758.0 38758.0 38758.0 38758.0 38758.0 38758.0
57316.0 50943.0 169517.0 173169.0 89164.0 91130.0 106888.0 99212.0 148375.0 150148.0 151828.0 156222.0 114942.0 115834.0 200651.0 193013.0 219009.0 223274.0 112791.0 105924.0 157314.0 150023.0 189485.0 182269.0 195910.0 193618.0 46483.0 51474.0 203445.0 201389.0 77441.0 71997.0 159806.0 157647.0 185759.0 186756.0 78436.0 86032.0 127110.0 121045.0 192242.0 184074.0 183562.0 185665.0 182930.0 189783.0 137316.0 136275.0 122237.0 128157.0 45388.0 48027.0 166971.0 164762.0 156073.0 150815.0 88508.0 90373.0 208137.0 210632.0 125335.0 117337.0 54180.0 60636.0 175184.0 169413.0 154871.0 152402.0 132588.0 125860.0 166682.0 164992.0 38742.0 44768.0 14329.0 8801.0 162921.0 156663.0 4794.0 0.0 138832.0 43398.0 138832.0 138832.0 138832.0 138832.0 138832.0 138832.0 138832.0 138832.0 43398.0 43398.0 43398.0 43398.0 43398.0 43398.0 43398.0 43398.0
139943.0 143565.0 57108.0 63495.0 88850.0 96959.0 92538.0 89435.0 182844.0 189830.0 44275.0 52073.0 238728.0 241444.0 328359.0 321135.0 279075.0 279587.0 248445.0 242216.0 76270.0 68795.0 250648.0 246410.0 249526.0 243402.0 149818.0 145762.0 327097.0 325969.0 135648.0 140215.0 250760.0 252484.0 215326.0 210954.0 88120.0 88461.0 258629.0 253719.0 320764.0 312829.0 88720.0 94953.0 305958.0 312811.0 188170.0 181724.0 103862.0 100912.0 160498.0 155671.0 165956.0 170149.0 282043.0 277881.0 224357.0 227389.0 284593.0 283373.0 97835.0 94554.0 192960.0 199086.0 177758.0 169228.0 36893.0 31861.0 33292.0 35337.0 238750.0 233058.0 176257.0 183114.0 131325.0 138409.0 109849.0 109735.0 138719.0 138832.0 0.0 158470.0 0.0 0.0 0.0 0.0 0.0 0.0 0.0 0.0 158470.0 158470.0 158470.0 158470.0 158470.0 158470.0 158470.0 158470.0
100704.0 94275.0 191029.0 195567.0 124359.0 128140.0 142547.0 134468.0 191700.0 193544.0 173963.0 179394.0 81174.0 84457.0 171494.0 164411.0 260732.0 265317.0 97988.0 93095.0 185857.0 178033.0 231534.0 224138.0 238506.0 236487.0 89199.0 94711.0 170417.0 168223.0 120401.0 115283.0 197841.0 194778.0 229147.0 230070.0 113104.0 121085.0 104040.0 100037.0 164164.0 156343.0 210223.0 213414.0 149265.0 156118.0 180652.0 179673.0 159119.0 164086.0 85675.0 89876.0 208560.0 206844.0 124850.0 121060.0 75676.0 80817.0 247775.0 250835.0 160920.0 152851.0 64459.0 72531.0 217268.0 211139.0 174691.0 172040.0 155105.0 149371.0 207941.0 206777.0 42206.0 49871.0 34986.0 35028.0 197172.0 191730.0 38758.0 43398.0 158470.0 0.0 158470.0 158470.0 158470.0 158470.0 158470.0 158470.0 158470.0 158470.0 0.0 0.0 0.0 0.0 0.0 0.0 0.0 0.0
139943.0 143565.0 57108.0 63495.0 88850.0 96959.0 92538.0 89435.0 182844.0 189830.0 44275.0 52073.0 238728.0 241444.0 328359.0 321135.0 279075.0 279587.0 248445.0 242216.0 76270.0 68795.0 250648.0 246410.0 249526.0 243402.0 149818.0 145762.0 327097.0 325969.0 135648.0 140215.0 250760.0 252484.0 215326.0 210954.0 88120.0 88461.0 258629.0 253719.0 320764.0 312829.0 88720.0 94953.0 305958.0 312811.0 188170.0 181724.0 103862.0 100912.0 160498.0 155671.0 165956.0 170149.0 282043.0 277881.0 224357.0 227389.0 284593.0 283373.0 97835.0 94554.0 192960.0 199086.0 177758.0 169228.0 36893.0 31861.0 33292.0 35337.0 238750.0 233058.0 176257.0 183114.0 131325.0 138409.0 109849.0 109735.0 138719.0 138832.0 0.0 158470.0 0.0 0.0 0.0 0.0 0.0 0.0 0.0 0.0 158470.0 158470.0 158470.0 158470.0 158470.0 158470.0 158470.0 158470.0
139943.0 143565.0 57108.0 63495.0 88850.0 96959.0 92538.0 89435.0 182844.0 189830.0 44275.0 52073.0 238728.0 241444.0 328359.0 321135.0 279075.0 279587.0 248445.0 242216.0 76270.0 68795.0 250648.0 246410.0 249526.0 243402.0 149818.0 145762.0 327097.0 325969.0 135648.0 140215.0 250760.0 252484.0 215326.0 210954.0 88120.0 88461.0 258629.0 253719.0 320764.0 312829.0 88720.0 94953.0 305958.0 312811.0 188170.0 181724.0 103862.0 100912.0 160498.0 155671.0 165956.0 170149.0 282043.0 277881.0 224357.0 227389.0 284593.0 283373.0 97835.0 94554.0 192960.0 199086.0 177758.0 169228.0 36893.0 31861.0 33292.0 35337.0 238750.0 233058.0 176257.0 183114.0 131325.0 138409.0 109849.0 109735.0 138719.0 138832.0 0.0 158470.0 0.0 0.0 0.0 0.0 0.0 0.0 0.0 0.0 158470.0 158470.0 158470.0 158470.0 158470.0 158470.0 158470.0 158470.0
139943.0 143565.0 57108.0 63495.0 88850.0 96959.0 92538.0 89435.0 182844.0 189830.0 44275.0 52073.0 238728.0 241444.0 328359.0 321135.0 279075.0 279587.0 248445.0 242216.0 76270.0 68795.0 250648.0 246410.0 249526.0 243402.0 149818.0 145762.0 327097.0 325969.0 135648.0 140215.0 250760.0 252484.0 215326.0 210954.0 88120.0 88461.0 258629.0 253719.0 320764.0 312829.0 88720.0 94953.0 305958.0 312811.0 188170.0 181724.0 103862.0 100912.0 160498.0 155671.0 165956.0 170149.0 282043.0 277881.0 224357.0 227389.0 284593.0 283373.0 97835.0 94554.0 192960.0 199086.0 177758.0 169228.0 36893.0 31861.0 33292.0 35337.0 238750.0 233058.0 176257.0 183114.0 131325.0 138409.0 109849.0 109735.0 138719.0 138832.0 0.0 158470.0 0.0 0.0 0.0 0.0 0.0 0.0 0.0 0.0 158470.0 158470.0 158470.0 158470.0 158470.0 158470.0 158470.0 158470.0
139943.0 143565.0 57108.0 63495.0 88850.0 96959.0 92538.0 89435.0 182844.0 189830.0 44275.0 52073.0 238728.0 241444.0 328359.0 321135.0 279075.0 279587.0 248445.0 242216.0 76270.0 68795.0 250648.0 246410.0 249526.0 243402.0 149818.0 145762.0 327097.0 325969.0 135648.0 140215.0 250760.0 252484.0 215326.0 210954.0 88120.0 88461.0 258629.0 253719.0 320764.0 312829.0 88720.0 94953.0 305958.0 312811.0 188170.0 181724.0 103862.0 100912.0 160498.0 155671.0 165956.0 170149.0 282043.0 277881.0 224357.0 227389.0 284593.0 283373.0 97835.0 94554.0 192960.0 199086.0 177758.0 169228.0 36893.0 31861.0 33292.0 35337.0 238750.0 233058.0 176257.0 183114.0 131325.0 138409.0 109849.0 109735.0 138719.0 138832.0 0.0 158470.0 0.0 0.0 0.0 0.0 0.0 0.0 0.0 0.0 158470.0 158470.0 158470.0 158470.0 158470.0 158470.0 158470.0 158470.0
139943.0 143565.0 57108.0 63495.0 88850.0 96959.0 92538.0 89435.0 182844.0 189830.0 44275.0 52073.0 238728.0 241444.0 328359.0 321135.0 279075.0 279587.0 248445.0 242216.0 76270.0 68795.0 250648.0 246410.0 249526.0 243402.0 149818.0 145762.0 327097.0 325969.0 135648.0 140215.0 250760.0 252484.0 215326.0 210954.0 88120.0 88461.0 258629.0 253719.0 320764.0 312829.0 88720.0 94953.0 305958.0 312811.0 188170.0 181724.0 103862.0 100912.0 160498.0 155671.0 165956.0 170149.0 282043.0 277881.0 224357.0 227389.0 284593.0 283373.0 97835.0 94554.0 192960.0 199086.0 177758.0 169228.0 36893.0 31861.0 33292.0 35337.0 238750.0 233058.0 176257.0 183114.0 131325.0 138409.0 109849.0 109735.0 138719.0 138832.0 0.0 158470.0 0.0 0.0 0.0 0.0 0.0 0.0 0.0 0.0 158470.0 158470.0 158470.0 158470.0 158470.0 158470.0 158470.0 158470.0
139943.0 143565.0 57108.0 63495.0 88850.0 96959.0 92538.0 89435.0 182844.0 189830.0 44275.0 52073.0 238728.0 241444.0 328359.0 321135.0 279075.0 279587.0 248445.0 242216.0 76270.0 68795.0 250648.0 246410.0 249526.0 243402.0 149818.0 145762.0 327097.0 325969.0 135648.0 140215.0 250760.0 252484.0 215326.0 210954.0 88120.0 88461.0 258629.0 253719.0 320764.0 312829.0 88720.0 94953.0 305958.0 312811.0 188170.0 181724.0 103862.0 100912.0 160498.0 155671.0 165956.0 170149.0 282043.0 277881.0 224357.0 227389.0 284593.0 283373.0 97835.0 94554.0 192960.0 199086.0 177758.0 169228.0 36893.0 31861.0 33292.0 35337.0 238750.0 233058.0 176257.0 183114.0 131325.0 138409.0 109849.0 109735.0 138719.0 138832.0 0.0 158470.0 0.0 0.0 0.0 0.0 0.0 0.0 0.0 0.0 158470.0 158470.0 158470.0 158470.0 158470.0 158470.0 158470.0 158470.0
139943.0 143565.0 57108.0 63495.0 88850.0 96959.0 92538.0 89435.0 182844.0 189830.0 44275.0 52073.0 238728.0 241444.0 328359.0 321135.0 279075.0 279587.0 248445.0 242216.0 76270.0 68795.0 250648.0 246410.0 249526.0 243402.0 149818.0 145762.0 327097.0 325969.0 135648.0 140215.0 250760.0 252484.0 215326.0 210954.0 88120.0 88461.0 258629.0 253719.0 320764.0 312829.0 88720.0 94953.0 305958.0 312811.0 188170.0 181724.0 103862.0 100912.0 160498.0 155671.0 165956.0 170149.0 282043.0 277881.0 224357.0 227389.0 284593.0 283373.0 97835.0 94554.0 192960.0 199086.0 177758.0 169228.0 36893.0 31861.0 33292.0 35337.0 238750.0 233058.0 176257.0 183114.0 131325.0 138409.0 109849.0 109735.0 138719.0 138832.0 0.0 158470.0 0.0 0.0 0.0 0.0 0.0 0.0 0.0 0.0 158470.0 158470.0 158470.0 158470.0 158470.0 158470.0 158470.0 158470.0
139943.0 143565.0 57108.0 63495.0 88850.0 96959.0 92538.0 89435.0 182844.0 189830.0 44275.0 52073.0 238728.0 241444.0 328359.0 321135.0 279075.0 279587.0 248445.0 242216.0 76270.0 68795.0 250648.0 246410.0 249526.0 243402.0 149818.0 145762.0 327097.0 325969.0 135648.0 140215.0 250760.0 252484.0 215326.0 210954.0 88120.0 88461.0 258629.0 253719.0 320764.0 312829.0 88720.0 94953.0 305958.0 312811.0 188170.0 181724.0 103862.0 100912.0 160498.0 155671.0 165956.0 170149.0 282043.0 277881.0 224357.0 227389.0 284593.0 283373.0 97835.0 94554.0 192960.0 199086.0 177758.0 169228.0 36893.0 31861.0 33292.0 35337.0 238750.0 233058.0 176257.0 183114.0 131325.0 138409.0 109849.0 109735.0 138719.0 138832.0 0.0 158470.0 0.0 0.0 0.0 0.0 0.0 0.0 0.0 0.0 158470.0 158470.0 158470.0 158470.0 158470.0 158470.0 158470.0 158470.0
100704.0 94275.0 191029.0 195567.0 124359.0 128140.0 142547.0 134468.0 191700.0 193544.0 173963.0 179394.0 81174.0 84457.0 171494.0 164411.0 260732.0 265317.0 97988.0 93095.0 185857.0 178033.0 231534.0 224138.0 238506.0 236487.0 89199.0 94711.0 170417.0 168223.0 120401.0 115283.0 197841.0 194778.0 229147.0 230070.0 113104.0 121085.0 104040.0 100037.0 164164.0 156343.0 210223.0 213414.0 149265.0 156118.0 180652.0 179673.0 159119.0 164086.0 85675.0 89876.0 208560.0 206844.0 124850.0 121060.0 75676.0 80817.0 247775.0 250835.0 160920.0 152851.0 64459.0 72531.0 217268.0 211139.0 174691.0 172040.0 155105.0 149371.0 207941.0 206777.0 42206.0 49871.0 34986.0 35028.0 197172.0 191730.0 38758.0 43398.0 158470.0 0.0 158470.0 158470.0 158470.0 158470.0 158470.0 158470.0 158470.0 158470.0 0.0 0.0 0.0 0.0 0.0 0.0 0.0 0.0
100704.0 94275.0 191029.0 195567.0 124359.0 128140.0 142547.0 134468.0 191700.0 193544.0 173963.0 179394.0 81174.0 84457.0 171494.0 164411.0 260732.0 265317.0 97988.0 93095.0 185857.0 178033.0 231534.0 224138.0 238506.0 236487.0 89199.0 94711.0 170417.0 168223.0 120401.0 115283.0 197841.0 194778.0 229147.0 230070.0 113104.0 121085.0 104040.0 100037.0 164164.0 156343.0 210223.0 213414.0 149265.0 156118.0 180652.0 179673.0 159119.0 164086.0 85675.0 89876.0 208560.0 206844.0 124850.0 121060.0 75676.0 80817.0 247775.0 250835.0 160920.0 152851.0 64459.0 72531.0 217268.0 211139.0 174691.0 172040.0 155105.0 149371.0 207941.0 206777.0 42206.0 49871.0 34986.0 35028.0 197172.0 191730.0 38758.0 43398.0 158470.0 0.0 158470.0 158470.0 158470.0 158470.0 158470.0 158470.0 158470.0 158470.0 0.0 0.0 0.0 0.0 0.0 0.0 0.0 0.0
100704.0 94275.0 191029.0 195567.0 124359.0 128140.0 142547.0 134468.0 191700.0 193544.0 173963.0 179394.0 81174.0 84457.0 171494.0 164411.0 260732.0 265317.0 97988.0 93095.0 185857.0 178033.0 231534.0 224138.0 238506.0 236487.0 89199.0 94711.0 170417.0 168223.0 120401.0 115283.0 197841.0 194778.0 229147.0 230070.0 113104.0 121085.0 104040.0 100037.0 164164.0 156343.0 210223.0 213414.0 149265.0 156118.0 180652.0 179673.0 159119.0 164086.0 85675.0 89876.0 208560.0 206844.0 124850.0 121060.0 75676.0 80817.0 247775.0 250835.0 160920.0 152851.0 64459.0 72531.0 217268.0 211139.0 174691.0 172040.0 155105.0 149371.0 207941.0 206777.0 42206.0 49871.0 34986.0 35028.0 197172.0 191730.0 38758.0 43398.0 158470.0 0.0 158470.0 158470.0 158470.0 158470.0 158470.0 158470.0 158470.0 158470.0 0.0 0.0 0.0 0.0 0.0 0.0 0.0 0.0
100704.0 94275.0 191029.0 195567.0 124359.0 128140.0 142547.0 134468.0 191700.0 193544.0 173963.0 179394.0 81174.0 84457.0 171494.0 164411.0 260732.0 265317.0 97988.0 93095.0 185857.0 178033.0 231534.0 224138.0 238506.0 236487.0 89199.0 94711.0 170417.0 168223.0 120401.0 115283.0 197841.0 194778.0 229147.0 230070.0 113104.0 121085.0 104040.0 100037.0 164164.0 156343.0 210223.0 213414.0 149265.0 156118.0 180652.0 179673.0 159119.0 164086.0 85675.0 89876.0 208560.0 206844.0 124850.0 121060.0 75676.0 80817.0 247775.0 250835.0 160920.0 152851.0 64459.0 72531.0 217268.0 211139.0 174691.0 172040.0 155105.0 149371.0 207941.0 206777.0 42206.0 49871.0 34986.0 35028.0 197172.0 191730.0 38758.0 43398.0 158470.0 0.0 158470.0 158470.0 158470.0 158470.0 158470.0 158470.0 158470.0 158470.0 0.0 0.0 0.0 0.0 0.0 0.0 0.0 0.0
100704.0 94275.0 191029.0 195567.0 124359.0 128140.0 142547.0 134468.0 191700.0 193544.0 173963.0 179394.0 81174.0 84457.0 171494.0 164411.0 260732.0 265317.0 97988.0 93095.0 185857.0 178033.0 231534.0 224138.0 238506.0 236487.0 89199.0 94711.0 170417.0 168223.0 120401.0 115283.0 197841.0 194778.0 229147.0 230070.0 113104.0 121085.0 104040.0 100037.0 164164.0 156343.0 210223.0 213414.0 149265.0 156118.0 180652.0 179673.0 159119.0 164086.0 85675.0 89876.0 208560.0 206844.0 124850.0 121060.0 75676.0 80817.0 247775.0 250835.0 160920.0 152851.0 64459.0 72531.0 217268.0 211139.0 174691.0 172040.0 155105.0 149371.0 207941.0 206777.0 42206.0 49871.0 34986.0 35028.0 197172.0 191730.0 38758.0 43398.0 158470.0 0.0 158470.0 158470.0 158470.0 158470.0 158470.0 158470.0 158470.0 158470.0 0.0 0.0 0.0 0.0 0.0 0.0 0.0 0.0
100704.0 94275.0 191029.0 195567.0 124359.0 128140.0 142547.0 134468.0 191700.0 193544.0 173963.0 179394.0 81174.0 84457.0 171494.0 164411.0 260732.0 265317.0 97988.0 93095.0 185857.0 178033.0 231534.0 224138.0 238506.0 236487.0 89199.0 94711.0 170417.0 168223.0 120401.0 115283.0 197841.0 194778.0 229147.0 230070.0 113104.0 121085.0 104040.0 100037.0 164164.0 156343.0 210223.0 213414.0 149265.0 156118.0 180652.0 179673.0 159119.0 164086.0 85675.0 89876.0 208560.0 206844.0 124850.0 121060.0 75676.0 80817.0 247775.0 250835.0 160920.0 152851.0 64459.0 72531.0 217268.0 211139.0 174691.0 172040.0 155105.0 149371.0 207941.0 206777.0 42206.0 49871.0 34986.0 35028.0 197172.0 191730.0 38758.0 43398.0 158470.0 0.0 158470.0 158470.0 158470.0 158470.0 158470.0 158470.0 158470.0 158470.0 0.0 0.0 0.0 0.0 0.0 0.0 0.0 0.0
100704.0 94275.0 191029.0 195567.0 124359.0 128140.0 142547.0 134468.0 191700.0 193544.0 173963.0 179394.0 81174.0 84457.0 171494.0 164411.0 260732.0 265317.0 97988.0 93095.0 185857.0 178033.0 231534.0 224138.0 238506.0 236487.0 89199.0 94711.0 170417.0 168223.0 120401.0 115283.0 197841.0 194778.0 229147.0 230070.0 113104.0 121085.0 104040.0 100037.0 164164.0 156343.0 210223.0 213414.0 149265.0 156118.0 180652.0 179673.0 159119.0 164086.0 85675.0 89876.0 208560.0 206844.0 124850.0 121060.0 75676.0 80817.0 247775.0 250835.0 160920.0 152851.0 64459.0 72531.0 217268.0 211139.0 174691.0 172040.0 155105.0 149371.0 207941.0 206777.0 42206.0 49871.0 34986.0 35028.0 197172.0 191730.0 38758.0 43398.0 158470.0 0.0 158470.0 158470.0 158470.0 158470.0 158470.0 158470.0 158470.0 158470.0 0.0 0.0 0.0 0.0 0.0 0.0 0.0 0.0
100704.0 94275.0 191029.0 195567.0 124359.0 128140.0 142547.0 134468.0 191700.0 193544.0 173963.0 179394.0 81174.0 84457.0 171494.0 164411.0 260732.0 265317.0 97988.0 93095.0 185857.0 178033.0 231534.0 224138.0 238506.0 236487.0 89199.0 94711.0 170417.0 168223.0 120401.0 115283.0 197841.0 194778.0 229147.0 230070.0 113104.0 121085.0 104040.0 100037.0 164164.0 156343.0 210223.0 213414.0 149265.0 156118.0 180652.0 179673.0 159119.0 164086.0 85675.0 89876.0 208560.0 206844.0 124850.0 121060.0 75676.0 80817.0 247775.0 250835.0 160920.0 152851.0 64459.0 72531.0 217268.0 211139.0 174691.0 172040.0 155105.0 149371.0 207941.0 206777.0 42206.0 49871.0 34986.0 35028.0 197172.0 191730.0 38758.0 43398.0 158470.0 0.0 158470.0 158470.0 158470.0 158470.0 158470.0 158470.0 158470.0 158470.0 0.0 0.0 0.0 0.0 0.0 0.0 0.0 0.0
FIXED_EDGES_SECTION
1 2
3 4
5 6
7 8
9 10
11 12
13 14
15 16
17 18
19 20
21 22
23 24
25 26
27 28
29 30
31 32
33 34
35 36
37 38
39 40
41 42
43 44
45 46
47 48
49 50
51 52
53 54
55 56
57 58
59 60
61 62
63 64
65 66
67 68
69 70
71 72
73 74
75 76
77 78
79 80
-1 
DEMAND_SECTION
1 421
2 421
3 219
4 219
5 94
6 94
7 171
8 171
9 74
10 74
11 104
12 104
13 534
14 534
15 229
16 229
17 138
18 138
19 244
20 244
21 493
22 493
23 258
24 258
25 380
26 380
27 158
28 158
29 491
30 491
31 279
32 279
33 321
34 321
35 76
36 76
37 56
38 56
39 341
40 341
41 421
42 421
43 274
44 274
45 280
46 280
47 180
48 180
49 353
50 353
51 130
52 130
53 211
54 211
55 322
56 322
57 620
58 620
59 120
60 120
61 293
62 293
63 84
64 84
65 217
66 217
67 97
68 97
69 485
70 485
71 277
72 277
73 313
74 313
75 100
76 100
77 461
78 461
79 399
80 399
81 0
82 0
83 0
84 0
85 0
86 0
87 0
88 0
89 0
90 0
91 0
92 0
93 0
94 0
95 0
96 0
97 0
98 0
DEPOT_SECTION
81 
-1 
CAPACITIES_SECTION
2500 
2750 
3000 
-1 
EOF