NAME: GFS_20_1
TYPE: GFSP
DIMENSION: 94
VEHICLES: 3
CAPACITY: 2500.0
TRIP_DIST_LIMIT: 750000.0
TOTAL_DIST_LIMIT: 1400000.0
EDGE_WEIGHT_TYPE: EXPLICIT
EDGE_WEIGHT_FORMAT: FULL_MATRIX
EDGE_WEIGHT_SECTION
0.0 8344.0 23743.0 15610.0 71853.0 79812.0 151347.0 147112.0 115739.0 123297.0 176875.0 182645.0 110241.0 104155.0 225570.0 223348.0 56453.0 57390.0 89936.0 86397.0 64256.0 72112.0 102976.0 110671.0 148048.0 155635.0 295829.0 303714.0 175701.0 169627.0 94742.0 100535.0 320192.0 318251.0 55603.0 57676.0 29951.0 33059.0 35870.0 35541.0 246096.0 243824.0 54205.0 58167.0 293207.0 293416.0 326732.0 318760.0 104918.0 107473.0 115485.0 120694.0 250862.0 244052.0 95919.0 89989.0 251387.0 255872.0 14198.0 19750.0 263627.0 258150.0 209329.0 206145.0 33789.0 30415.0 63060.0 55075.0 26005.0 24161.0 42429.0 47880.0 134453.0 140237.0 156864.0 164330.0 66468.0 62144.0 206267.0 199477.0 53939.0 164492.0 53939.0 53939.0 53939.0 53939.0 53939.0 53939.0 164492.0 164492.0 164492.0 164492.0 164492.0 164492.0
8344.0 0.0 31510.0 23577.0 80150.0 88087.0 157044.0 153074.0 115961.0 123693.0 173342.0 179346.0 111676.0 105990.0 229582.0 227614.0 64679.0 65362.0 92590.0 89688.0 68372.0 76137.0 100504.0 108389.0 151696.0 159115.0 290917.0 298802.0 173797.0 168007.0 91838.0 97267.0 315280.0 313339.0 53580.0 54486.0 26362.0 27718.0 44211.0 43742.0 250555.0 248503.0 56388.0 59316.0 288295.0 288504.0 321865.0 313938.0 111412.0 114310.0 122461.0 127418.0 247137.0 240444.0 98204.0 92778.0 246475.0 250960.0 22113.0 26378.0 259265.0 253953.0 214335.0 210915.0 34896.0 33364.0 66194.0 58263.0 22088.0 22919.0 36608.0 41240.0 130218.0 136291.0 153035.0 160355.0 65964.0 62546.0 211695.0 205043.0 45598.0 159580.0 45598.0 45598.0 45598.0 45598.0 45598.0 45598.0 159580.0 159580.0 159580.0 159580.0 159580.0 159580.0
23743.0 31510.0 0.0 8219.0 53008.0 61161.0 146156.0 140923.0 127737.0 134737.0 195931.0 201255.0 119393.0 112432.0 225596.0 222547.0 39487.0 43257.0 96470.0 91239.0 48100.0 55760.0 120765.0 127999.0 150091.0 158089.0 317155.0 325061.0 191646.0 185023.0 113414.0 119727.0 341557.0 339617.0 57890.0 62947.0 40750.0 47041.0 16906.0 21742.0 244492.0 241479.0 64192.0 70265.0 314523.0 314782.0 347715.0 339678.0 97360.0 98214.0 105341.0 111661.0 270021.0 263018.0 103248.0 96142.0 272752.0 277238.0 17736.0 24884.0 283865.0 278120.0 206078.0 203756.0 31851.0 24343.0 69765.0 62338.0 38585.0 31951.0 56298.0 63462.0 154887.0 160182.0 176525.0 184195.0 81553.0 75604.0 201492.0 194239.0 76270.0 185857.0 76270.0 76270.0 76270.0 76270.0 76270.0 76270.0 185857.0 185857.0 185857.0 185857.0 185857.0 185857.0
15610.0 23577.0 8219.0 0.0 58491.0 66604.0 146593.0 141707.0 122417.0 129605.0 188700.0 194147.0 114910.0 108191.0 224349.0 221580.0 43936.0 46462.0 92689.0 87964.0 53744.0 61555.0 113792.0 121162.0 148015.0 155896.0 309287.0 317204.0 185279.0 178808.0 106198.0 112390.0 333733.0 331793.0 56934.0 61056.0 36449.0 41961.0 21829.0 24033.0 243829.0 241071.0 59052.0 64597.0 306749.0 306958.0 340018.0 331996.0 98469.0 99972.0 107474.0 113397.0 262793.0 255840.0 99257.0 92480.0 264922.0 269414.0 11368.0 19464.0 276351.0 270676.0 205945.0 203316.0 31470.0 25025.0 65686.0 57981.0 33644.0 28112.0 51447.0 58165.0 147277.0 152698.0 169124.0 176746.0 75160.0 69608.0 201893.0 194794.0 68795.0 178033.0 68795.0 68795.0 68795.0 68795.0 68795.0 68795.0 178033.0 178033.0 178033.0 178033.0 178033.0 178033.0
71853.0 80150.0 53008.0 58491.0 0.0 8154.0 108745.0 101991.0 129846.0 134715.0 212347.0 216038.0 115916.0 108013.0 194468.0 189927.0 16000.0 19698.0 91195.0 83476.0 78344.0 83016.0 138241.0 143519.0 127118.0 135340.0 340596.0 348213.0 198996.0 191203.0 134060.0 141209.0 366126.0 364291.0 107640.0 113908.0 93744.0 99999.0 36668.0 36621.0 209770.0 205488.0 76012.0 84010.0 338063.0 339094.0 367838.0 359630.0 60473.0 57563.0 62011.0 69799.0 284592.0 277094.0 98327.0 90092.0 296064.0 301457.0 58403.0 57545.0 301996.0 295371.0 169446.0 168780.0 82408.0 74484.0 72873.0 69729.0 91554.0 84910.0 109301.0 116384.0 177769.0 181142.0 195742.0 203761.0 98446.0 90527.0 162315.0 154493.0 125530.0 211398.0 125530.0 125530.0 125530.0 125530.0 125530.0 125530.0 211398.0 211398.0 211398.0 211398.0 211398.0 211398.0
79812.0 88087.0 61161.0 66604.0 8154.0 0.0 104226.0 97218.0 132100.0 136581.0 215947.0 219392.0 117544.0 109647.0 190567.0 185773.0 23552.0 25682.0 93105.0 85227.0 84980.0 89267.0 142525.0 147488.0 125243.0 133406.0 344810.0 352375.0 201375.0 193460.0 138795.0 145974.0 370547.0 368768.0 115542.0 121896.0 101896.0 108150.0 44792.0 44431.0 205151.0 200649.0 80842.0 88809.0 342297.0 343477.0 371536.0 363317.0 57127.0 53303.0 56847.0 64850.0 287666.0 280117.0 100103.0 91911.0 300348.0 305874.0 66235.0 65007.0 305534.0 298801.0 164631.0 164286.0 90428.0 82510.0 76692.0 74262.0 99706.0 93060.0 117454.0 124532.0 182431.0 185530.0 199812.0 207837.0 103263.0 95289.0 157036.0 149137.0 133371.0 216364.0 133371.0 133371.0 133371.0 133371.0 133371.0 133371.0 216364.0 216364.0 216364.0 216364.0 216364.0 216364.0
151347.0 157044.0 146156.0 146593.0 108745.0 104226.0 0.0 7913.0 102242.0 99981.0 185209.0 184758.0 86259.0 82805.0 86988.0 81732.0 112189.0 105425.0 80619.0 77385.0 185014.0 190585.0 136297.0 135428.0 45476.0 49933.0 312576.0 319001.0 156111.0 147839.0 140041.0 145628.0 340209.0 340668.0 203500.0 207489.0 180991.0 184350.0 131011.0 124495.0 101025.0 96864.0 108511.0 111472.0 310455.0 313801.0 330773.0 322732.0 49476.0 51186.0 47741.0 39572.0 242833.0 235151.0 81038.0 79322.0 271633.0 278801.0 138598.0 131649.0 265845.0 258030.0 60859.0 60069.0 177709.0 170462.0 96718.0 103150.0 177253.0 173787.0 193562.0 198152.0 172441.0 170905.0 178139.0 185051.0 118824.0 114051.0 55339.0 48218.0 196277.0 205896.0 196277.0 196277.0 196277.0 196277.0 196277.0 196277.0 205896.0 205896.0 205896.0 205896.0 205896.0 205896.0
147112.0 153074.0 140923.0 141707.0 101991.0 97218.0 7913.0 0.0 104725.0 103028.0 189152.0 188992.0 88270.0 84187.0 94577.0 89142.0 106102.0 99560.0 80385.0 76434.0 178804.0 184229.0 137609.0 137204.0 51249.0 56372.0 317267.0 323787.0 160895.0 152563.0 140824.0 146651.0 344845.0 345154.0 198513.0 202724.0 176558.0 180166.0 125471.0 119200.0 107936.0 103502.0 106234.0 109708.0 315113.0 318321.0 336077.0 328006.0 43680.0 44572.0 40478.0 32380.0 248141.0 240436.0 81510.0 79008.0 275941.0 283022.0 134088.0 127368.0 270891.0 263121.0 67461.0 67166.0 172619.0 165263.0 94482.0 100534.0 172902.0 169166.0 189463.0 194280.0 174643.0 173452.0 181318.0 188385.0 117891.0 112696.0 60908.0 53417.0 193212.0 208479.0 193212.0 193212.0 193212.0 193212.0 193212.0 193212.0 208479.0 208479.0 208479.0 208479.0 208479.0 208479.0
115739.0 115961.0 127737.0 122417.0 129846.0 132100.0 102242.0 104725.0 0.0 8048.0 88318.0 90093.0 17275.0 24044.0 135372.0 136664.0 119857.0 112361.0 39141.0 47132.0 175819.0 183496.0 38087.0 34649.0 65278.0 68230.0 218938.0 226043.0 69282.0 61377.0 45479.0 48615.0 245908.0 245315.0 169329.0 169196.0 141688.0 140676.0 122427.0 114257.0 160204.0 161155.0 63545.0 57915.0 216588.0 218892.0 242397.0 234167.0 94173.0 102156.0 108812.0 105736.0 156546.0 148887.0 32517.0 40446.0 175696.0 182231.0 111049.0 103088.0 176068.0 168894.0 135138.0 128642.0 149529.0 145540.0 59845.0 66171.0 137396.0 138799.0 147117.0 147717.0 70263.0 68731.0 77345.0 84799.0 50272.0 53601.0 139640.0 136381.0 136518.0 103757.0 136518.0 136518.0 136518.0 136518.0 136518.0 136518.0 103757.0 103757.0 103757.0 103757.0 103757.0 103757.0
123297.0 123693.0 134737.0 129605.0 134715.0 136581.0 99981.0 103028.0 8048.0 0.0 87450.0 88513.0 19296.0 27064.0 128581.0 130149.0 125341.0 117709.0 43530.0 51355.0 182837.0 190475.0 44517.0 40089.0 60757.0 62930.0 217675.0 224640.0 65444.0 57263.0 52530.0 55096.0 244852.0 244518.0 177125.0 177079.0 149507.0 148584.0 128881.0 120656.0 153580.0 154772.0 70594.0 65288.0 215373.0 217936.0 240126.0 231910.0 95941.0 103926.0 110140.0 106511.0 153591.0 145883.0 36478.0 44679.0 174915.0 181650.0 118243.0 110213.0 173851.0 166522.0 129713.0 123010.0 157078.0 152956.0 66132.0 72795.0 145211.0 146494.0 155087.0 155735.0 73616.0 71265.0 78290.0 85416.0 58165.0 61219.0 134817.0 131921.0 144566.0 106109.0 144566.0 144566.0 144566.0 144566.0 144566.0 144566.0 106109.0 106109.0 106109.0 106109.0 106109.0 106109.0
176875.0 173342.0 195931.0 188700.0 212347.0 215947.0 185209.0 189152.0 88318.0 87450.0 0.0 8049.0 105488.0 112301.0 188052.0 192661.0 199919.0 193334.0 125904.0 133804.0 241131.0 248987.0 75623.0 69247.0 141696.0 140639.0 130657.0 137837.0 36140.0 41956.0 82518.0 76377.0 157592.0 157097.0 219997.0 216769.0 193918.0 189769.0 196215.0 188932.0 213113.0 216952.0 137681.0 129897.0 128290.0 130593.0 155600.0 147376.0 182475.0 190453.0 197116.0 193838.0 74095.0 67183.0 120057.0 127368.0 87478.0 94213.0 178207.0 171816.0 89653.0 83154.0 201516.0 193757.0 207853.0 206645.0 139474.0 143151.0 190186.0 194762.0 192467.0 189826.0 45165.0 37848.0 21188.0 16205.0 116188.0 123520.0 210088.0 209201.0 176257.0 42206.0 176257.0 176257.0 176257.0 176257.0 176257.0 176257.0 42206.0 42206.0 42206.0 42206.0 42206.0 42206.0
182645.0 179346.0 201255.0 194147.0 216038.0 219392.0 184758.0 188992.0 90093.0 88513.0 8049.0 0.0 107053.0 114136.0 183986.0 188847.0 203959.0 197216.0 128375.0 136337.0 246876.0 254740.0 80574.0 73775.0 140643.0 139125.0 129175.0 136128.0 31902.0 38783.0 87993.0 82130.0 156439.0 156348.0 226645.0 223570.0 200365.0 196371.0 201006.0 193594.0 208869.0 212937.0 142008.0 134324.0 126889.0 129627.0 152565.0 144331.0 184179.0 192169.0 198595.0 195016.0 69056.0 61855.0 122273.0 129804.0 86958.0 94047.0 183519.0 176951.0 86300.0 79422.0 198652.0 190820.0 213987.0 212580.0 143221.0 147241.0 196581.0 200987.0 199278.0 196684.0 52424.0 44864.0 28591.0 24207.0 120878.0 128027.0 207627.0 207038.0 183114.0 49871.0 183114.0 183114.0 183114.0 183114.0 183114.0 183114.0 49871.0 49871.0 49871.0 49871.0 49871.0 49871.0
110241.0 111676.0 119393.0 114910.0 115916.0 117544.0 86259.0 88270.0 17275.0 19296.0 105488.0 107053.0 0.0 7905.0 127715.0 128060.0 107130.0 99369.0 24872.0 32440.0 167353.0 174854.0 50690.0 49195.0 52992.0 57502.0 236050.0 243113.0 84738.0 76558.0 55995.0 60638.0 263076.0 262534.0 165227.0 165928.0 137939.0 137849.0 112185.0 103890.0 151788.0 151970.0 56199.0 52360.0 233713.0 236079.0 259091.0 250867.0 77126.0 85116.0 91633.0 88468.0 172781.0 165084.0 17639.0 25865.0 192911.0 199476.0 103655.0 95452.0 192779.0 185517.0 123656.0 117686.0 143751.0 139022.0 49731.0 57061.0 133634.0 134053.0 145088.0 146617.0 86374.0 85395.0 94550.0 102046.0 49038.0 49762.0 126903.0 123018.0 137159.0 120399.0 137159.0 137159.0 137159.0 137159.0 137159.0 137159.0 120399.0 120399.0 120399.0 120399.0 120399.0 120399.0
104155.0 105990.0 112432.0 108191.0 108013.0 109647.0 82805.0 84187.0 24044.0 27064.0 112301.0 114136.0 7905.0 0.0 129911.0 129766.0 99314.0 91530.0 17052.0 24540.0 160278.0 167728.0 53501.0 53132.0 53334.0 58774.0 242946.0 250069.0 92442.0 84305.0 57574.0 62889.0 269871.0 269206.0 159424.0 160405.0 132329.0 132562.0 104781.0 96475.0 153488.0 153259.0 49954.0 46857.0 240588.0 242835.0 266390.0 258162.0 70176.0 78152.0 84936.0 82166.0 180302.0 172617.0 9797.0 17992.0 199604.0 206069.0 97010.0 88770.0 200063.0 192855.0 123713.0 118108.0 137465.0 132525.0 42668.0 50216.0 128035.0 128123.0 140063.0 141932.0 90999.0 90579.0 100567.0 108196.0 45429.0 45020.0 126098.0 121774.0 133236.0 125451.0 133236.0 133236.0 133236.0 133236.0 133236.0 133236.0 125451.0 125451.0 125451.0 125451.0 125451.0 125451.0
225570.0 229582.0 225596.0 224349.0 194468.0 190567.0 86988.0 94577.0 135372.0 128581.0 188052.0 183986.0 127715.0 129911.0 0.0 8242.0 195823.0 188411.0 138742.0 140242.0 268280.0 274414.0 173097.0 168234.0 78244.0 71500.0 296530.0 301377.0 152154.0 146171.0 180850.0 183676.0 323832.0 326304.0 280552.0 283232.0 255415.0 257246.0 212165.0 204757.0 25501.0 28965.0 174405.0 174023.0 294950.0 300024.0 305284.0 297994.0 134040.0 137266.0 134643.0 126457.0 221755.0 214976.0 134722.0 138194.0 262741.0 270654.0 214723.0 206871.0 247138.0 239151.0 34883.0 30104.0 255783.0 249227.0 163637.0 171451.0 251309.0 249445.0 265703.0 268770.0 196200.0 191302.0 190824.0 195173.0 175212.0 173768.0 48697.0 55110.0 262112.0 222342.0 262112.0 262112.0 262112.0 262112.0 262112.0 262112.0 222342.0 222342.0 222342.0 222342.0 222342.0 222342.0
223348.0 227614.0 222547.0 221580.0 189927.0 185773.0 81732.0 89142.0 136664.0 130149.0 192661.0 188847.0 128060.0 129766.0 8242.0 0.0 191865.0 184577.0 137685.0 138722.0 264529.0 270528.0 174613.0 170065.0 77190.0 71011.0 302954.0 307909.0 156957.0 150713.0 182069.0 185186.0 330333.0 332687.0 278041.0 280939.0 253260.0 255320.0 208765.0 201500.0 23734.0 24880.0 172953.0 172946.0 301337.0 306314.0 312277.0 304932.0 129659.0 132504.0 129473.0 121302.0 228269.0 221406.0 134036.0 137051.0 268605.0 276493.0 212178.0 204427.0 253594.0 245590.0 27010.0 23025.0 253047.0 246356.0 161966.0 169691.0 249196.0 247084.0 263910.0 267199.0 199128.0 194482.0 194655.0 199252.0 174812.0 172999.0 40690.0 47339.0 261115.0 226086.0 261115.0 261115.0 261115.0 261115.0 261115.0 261115.0 226086.0 226086.0 226086.0 226086.0 226086.0 226086.0
56453.0 64679.0 39487.0 43936.0 16000.0 23552.0 112189.0 106102.0 119857.0 125341.0 199919.0 203959.0 107130.0 99314.0 195823.0 191865.0 0.0 8042.0 82267.0 74993.0 72858.0 78669.0 125062.0 130763.0 124766.0 133015.0 327188.0 334870.0 188454.0 180883.0 120285.0 127369.0 352443.0 350536.0 96329.0 101994.0 80004.0 85856.0 22592.0 20944.0 212671.0 208916.0 62498.0 70450.0 324634.0 325473.0 355098.0 346911.0 62735.0 61829.0 67971.0 75023.0 272813.0 265398.0 89518.0 81348.0 282600.0 287819.0 42730.0 41556.0 289527.0 283065.0 172996.0 171598.0 70489.0 62618.0 61013.0 56768.0 77480.0 71317.0 95298.0 102101.0 163971.0 167692.0 182689.0 190685.0 84738.0 76958.0 166997.0 159406.0 109849.0 197172.0 109849.0 109849.0 109849.0 109849.0 109849.0 109849.0 197172.0 197172.0 197172.0 197172.0 197172.0 197172.0
57390.0 65362.0 43257.0 46462.0 19698.0 25682.0 105425.0 99560.0 112361.0 117709.0 193334.0 197216.0 99369.0 91530.0 188411.0 184577.0 8042.0 0.0 74497.0 67141.0 79962.0 86004.0 118851.0 124315.0 116863.0 125108.0 321162.0 328804.0 181151.0 173514.0 114472.0 121606.0 346599.0 344738.0 100947.0 106200.0 82904.0 88295.0 26639.0 22454.0 205587.0 201968.0 56448.0 64445.0 318621.0 319585.0 348694.0 340495.0 55964.0 55705.0 62378.0 69068.0 265960.0 258511.0 81740.0 73547.0 276606.0 281940.0 43259.0 40549.0 282980.0 276441.0 166123.0 164537.0 74932.0 67189.0 54032.0 50341.0 80062.0 74442.0 97822.0 104281.0 158187.0 161669.0 176427.0 184439.0 78855.0 70967.0 160460.0 152957.0 109735.0 191730.0 109735.0 109735.0 109735.0 109735.0 109735.0 109735.0 191730.0 191730.0 191730.0 191730.0 191730.0 191730.0
89936.0 92590.0 96470.0 92689.0 91195.0 93105.0 80619.0 80385.0 39141.0 43530.0 125904.0 128375.0 24872.0 17052.0 138742.0 137685.0 82267.0 74497.0 0.0 8006.0 144048.0 151411.0 60117.0 61922.0 60543.0 67365.0 256420.0 263690.0 108383.0 100396.0 61508.0 67906.0 283052.0 282071.0 145513.0 147042.0 118913.0 119806.0 88106.0 79795.0 161198.0 160178.0 36265.0 35285.0 254011.0 255949.0 280926.0 272691.0 58192.0 65959.0 73555.0 72131.0 195552.0 187916.0 7256.0 1561.0 212627.0 218833.0 81700.0 73438.0 214621.0 207572.0 128476.0 123674.0 122685.0 117358.0 27083.0 34992.0 114664.0 114079.0 127804.0 130367.0 100056.0 100814.0 112460.0 120317.0 38861.0 35602.0 129045.0 123841.0 123436.0 135005.0 123436.0 123436.0 123436.0 123436.0 123436.0 123436.0 135005.0 135005.0 135005.0 135005.0 135005.0 135005.0
86397.0 89688.0 91239.0 87964.0 83476.0 85227.0 77385.0 76434.0 47132.0 51355.0 133804.0 136337.0 32440.0 24540.0 140242.0 138722.0 74993.0 67141.0 8006.0 0.0 138396.0 145645.0 66878.0 69158.0 62098.0 69430.0 264269.0 271558.0 116349.0 108340.0 67521.0 74151.0 290852.0 289818.0 141968.0 143905.0 115843.0 117213.0 81968.0 73675.0 162030.0 160614.0 34234.0 35054.0 261852.0 263742.0 288895.0 280661.0 51116.0 58751.0 66582.0 65663.0 203557.0 195921.0 14880.0 6700.0 220415.0 226576.0 77233.0 69012.0 222596.0 215558.0 128004.0 123621.0 118506.0 112852.0 23497.0 31434.0 111647.0 110544.0 125520.0 128536.0 107153.0 108173.0 120119.0 128005.0 41484.0 36812.0 127709.0 122128.0 122800.0 142135.0 122800.0 122800.0 122800.0 122800.0 122800.0 122800.0 142135.0 142135.0 142135.0 142135.0 142135.0 142135.0
64256.0 68372.0 48100.0 53744.0 78344.0 84980.0 185014.0 178804.0 175819.0 182837.0 241131.0 246876.0 167353.0 160278.0 268280.0 264529.0 72858.0 79962.0 144048.0 138396.0 0.0 7871.0 166945.0 174489.0 195082.0 203238.0 359266.0 367151.0 238953.0 232535.0 158922.0 164784.0 383628.0 381688.0 46195.0 54476.0 55327.0 62510.0 57056.0 65128.0 285506.0 281773.0 112279.0 118199.0 356644.0 356853.0 390186.0 382275.0 135585.0 134318.0 139774.0 147237.0 315110.0 308308.0 150957.0 143625.0 314823.0 319309.0 65030.0 72786.0 327607.0 322238.0 245843.0 244439.0 36858.0 35263.0 117641.0 110349.0 57273.0 50130.0 67073.0 74765.0 198496.0 204418.0 221084.0 228506.0 128874.0 123333.0 239628.0 231952.0 101167.0 227928.0 101167.0 101167.0 101167.0 101167.0 101167.0 101167.0 227928.0 227928.0 227928.0 227928.0 227928.0 227928.0
72112.0 76137.0 55760.0 61555.0 83016.0 89267.0 190585.0 184229.0 183496.0 190475.0 248987.0 254740.0 174854.0 167728.0 274414.0 270528.0 78669.0 86004.0 151411.0 145645.0 7871.0 0.0 174815.0 182357.0 201772.0 209953.0 366994.0 374879.0 246794.0 240359.0 166790.0 172644.0 391357.0 389416.0 50440.0 58687.0 62179.0 69185.0 63989.0 72160.0 291292.0 287424.0 119951.0 125942.0 364372.0 364581.0 397890.0 389988.0 141259.0 139671.0 144832.0 152426.0 322958.0 316162.0 158359.0 150959.0 322552.0 327037.0 72816.0 80519.0 335395.0 330045.0 251443.0 250213.0 44010.0 42921.0 125126.0 117900.0 64357.0 57431.0 73172.0 80696.0 206302.0 212247.0 228922.0 236334.0 136702.0 131117.0 244941.0 237205.0 107939.0 235656.0 107939.0 107939.0 107939.0 107939.0 107939.0 107939.0 235656.0 235656.0 235656.0 235656.0 235656.0 235656.0
102976.0 100504.0 120765.0 113792.0 138241.0 142525.0 136297.0 137609.0 38087.0 44517.0 75623.0 80574.0 50690.0 53501.0 173097.0 174613.0 125062.0 118851.0 60117.0 66878.0 166945.0 174815.0 0.0 8186.0 102805.0 106193.0 202357.0 209972.0 73643.0 68513.0 10000.0 10579.0 228025.0 226321.0 150850.0 149022.0 123552.0 120693.0 120591.0 113336.0 198082.0 199173.0 62567.0 54647.0 199828.0 200952.0 230097.0 221923.0 117993.0 125585.0 133458.0 132248.0 149537.0 142416.0 56847.0 61674.0 157846.0 163354.0 103033.0 96381.0 164814.0 158597.0 173068.0 166663.0 135400.0 133264.0 65984.0 68525.0 119497.0 122922.0 125275.0 124074.0 40692.0 43032.0 57630.0 65623.0 40643.0 48175.0 177137.0 173522.0 110802.0 75595.0 110802.0 110802.0 110802.0 110802.0 110802.0 110802.0 75595.0 75595.0 75595.0 75595.0 75595.0 75595.0
110671.0 108389.0 127999.0 121162.0 143519.0 147488.0 135428.0 137204.0 34649.0 40089.0 69247.0 73775.0 49195.0 53132.0 168234.0 170065.0 130763.0 124315.0 61922.0 69158.0 174489.0 182357.0 8186.0 0.0 99926.0 102753.0 197377.0 204907.0 65567.0 60343.0 18084.0 16824.0 223361.0 221893.0 158966.0 157183.0 131630.0 128832.0 127237.0 119823.0 193388.0 194756.0 68438.0 60653.0 194879.0 196249.0 224380.0 216183.0 120110.0 127847.0 135472.0 133781.0 142829.0 135613.0 57800.0 63481.0 153007.0 158755.0 110289.0 103453.0 158777.0 152390.0 169643.0 163031.0 143283.0 141013.0 70797.0 74017.0 127559.0 130887.0 133454.0 132259.0 38210.0 39083.0 52341.0 60365.0 47107.0 54297.0 174288.0 170998.0 118974.0 73098.0 118974.0 118974.0 118974.0 118974.0 118974.0 118974.0 73098.0 73098.0 73098.0 73098.0 73098.0 73098.0
148048.0 151696.0 150091.0 148015.0 127118.0 125243.0 45476.0 51249.0 65278.0 60757.0 141696.0 140643.0 52992.0 53334.0 78244.0 77190.0 124766.0 116863.0 60543.0 62098.0 195082.0 201772.0 102805.0 99926.0 0.0 8254.0 267588.0 273908.0 111180.0 103016.0 108848.0 113090.0 295270.0 295917.0 203411.0 205701.0 177728.0 179282.0 138092.0 130214.0 100784.0 100135.0 96188.0 95827.0 265506.0 269022.0 285327.0 277297.0 69414.0 75601.0 77336.0 70333.0 197394.0 189722.0 56892.0 59962.0 227204.0 234506.0 137884.0 129841.0 220544.0 212700.0 70666.0 64820.0 179213.0 173036.0 85566.0 93448.0 173569.0 172096.0 187618.0 190563.0 134308.0 131558.0 136664.0 143070.0 97799.0 95812.0 74380.0 71185.0 183973.0 166018.0 183973.0 183973.0 183973.0 183973.0 183973.0 183973.0 166018.0 166018.0 166018.0 166018.0 166018.0 166018.0
155635.0 159115.0 158089.0 155896.0 135340.0 133406.0 49933.0 56372.0 68230.0 62930.0 140639.0 139125.0 57502.0 58774.0 71500.0 71011.0 133015.0 125108.0 67365.0 69430.0 203238.0 209953.0 106193.0 102753.0 8254.0 0.0 264972.0 271145.0 108932.0 100950.0 112770.0 116624.0 292696.0 293555.0 211081.0 213249.0 185229.0 186635.0 146229.0 138323.0 94723.0 94558.0 103324.0 102607.0 262940.0 266650.0 281789.0 273810.0 77373.0 83392.0 84790.0 77591.0 193941.0 186319.0 63223.0 66890.0 225222.0 232632.0 145675.0 137596.0 217468.0 209568.0 66908.0 60494.0 187027.0 180921.0 92926.0 100853.0 181049.0 179725.0 194874.0 197661.0 135924.0 132722.0 136837.0 142946.0 103834.0 102268.0 72051.0 69705.0 190633.0 166783.0 190633.0 190633.0 190633.0 190633.0 190633.0 190633.0 166783.0 166783.0 166783.0 166783.0 166783.0 166783.0
295829.0 290917.0 317155.0 309287.0 340596.0 344810.0 312576.0 317267.0 218938.0 217675.0 130657.0 129175.0 236050.0 242946.0 296530.0 302954.0 327188.0 321162.0 256420.0 264269.0 359266.0 366994.0 202357.0 197377.0 267588.0 264972.0 0.0 8039.0 156469.0 164743.0 206958.0 199940.0 27746.0 29861.0 333828.0 330331.0 308729.0 303872.0 320441.0 313887.0 319055.0 324751.0 264751.0 256770.0 2678.0 8434.0 37325.0 32114.0 313111.0 321093.0 327672.0 324185.0 74872.0 81556.0 250684.0 257902.0 44610.0 40158.0 299920.0 294708.0 49406.0 57380.0 318115.0 310087.0 324172.0 324089.0 268135.0 270870.0 305301.0 310731.0 306028.0 303378.0 163425.0 159506.0 145038.0 137016.0 242450.0 250252.0 328881.0 329614.0 289808.0 132322.0 289808.0 289808.0 289808.0 289808.0 289808.0 289808.0 132322.0 132322.0 132322.0 132322.0 132322.0 132322.0
303714.0 298802.0 325061.0 317204.0 348213.0 352375.0 319001.0 323787.0 226043.0 224640.0 137837.0 136128.0 243113.0 250069.0 301377.0 307909.0 334870.0 328804.0 263690.0 271558.0 367151.0 374879.0 209972.0 204907.0 273908.0 271145.0 8039.0 0.0 162907.0 171224.0 214676.0 207676.0 22520.0 26510.0 341713.0 338216.0 316614.0 311757.0 328262.0 321678.0 323646.0 329457.0 272412.0 264437.0 10717.0 14253.0 30334.0 26140.0 320211.0 328197.0 334708.0 331131.0 79640.0 86612.0 257893.0 265164.0 52395.0 48151.0 307806.0 302559.0 54438.0 62470.0 323506.0 315476.0 332057.0 331973.0 275688.0 278495.0 313185.0 318616.0 313913.0 311262.0 171192.0 167178.0 152569.0 144544.0 250136.0 257921.0 334431.0 335303.0 297692.0 140267.0 297692.0 297692.0 297692.0 297692.0 297692.0 297692.0 140267.0 140267.0 140267.0 140267.0 140267.0 140267.0
175701.0 173797.0 191646.0 185279.0 198996.0 201375.0 156111.0 160895.0 69282.0 65444.0 36140.0 31902.0 84738.0 92442.0 152154.0 156957.0 188454.0 181151.0 108383.0 116349.0 238953.0 246794.0 73643.0 65567.0 111180.0 108932.0 156469.0 162907.0 0.0 8434.0 83051.0 79175.0 184121.0 184743.0 224483.0 222529.0 197191.0 194292.0 188816.0 180915.0 177115.0 181092.0 128891.0 121888.0 154361.0 157845.0 176031.0 167868.0 160747.0 168690.0 174385.0 170017.0 88629.0 80883.0 101585.0 109651.0 116313.0 123779.0 174130.0 166794.0 110220.0 102577.0 166961.0 159095.0 208662.0 206112.0 127620.0 132962.0 193126.0 196396.0 198626.0 197005.0 62399.0 54637.0 45043.0 46385.0 110133.0 116164.0 176193.0 175863.0 183483.0 75084.0 183483.0 183483.0 183483.0 183483.0 183483.0 183483.0 75084.0 75084.0 75084.0 75084.0 75084.0 75084.0
169627.0 168007.0 185023.0 178808.0 191203.0 193460.0 147839.0 152563.0 61377.0 57263.0 41956.0 38783.0 76558.0 84305.0 146171.0 150713.0 180883.0 173514.0 100396.0 108340.0 232535.0 240359.0 68513.0 60343.0 103016.0 100950.0 164743.0 171224.0 8434.0 0.0 78186.0 74870.0 192371.0 192912.0 219234.0 217525.0 191808.0 189150.0 181755.0 173792.0 171309.0 175045.0 121865.0 115020.0 162617.0 166022.0 184465.0 176301.0 152379.0 160317.0 165978.0 161589.0 97044.0 89297.0 93534.0 101640.0 124283.0 131682.0 167596.0 160144.0 118635.0 111003.0 159896.0 152081.0 202806.0 200038.0 120188.0 125722.0 187697.0 190723.0 193780.0 192441.0 61999.0 54598.0 47431.0 50069.0 103663.0 109437.0 168853.0 168336.0 179018.0 78498.0 179018.0 179018.0 179018.0 179018.0 179018.0 179018.0 78498.0 78498.0 78498.0 78498.0 78498.0 78498.0
94742.0 91838.0 113414.0 106198.0 134060.0 138795.0 140041.0 140824.0 45479.0 52530.0 82518.0 87993.0 55995.0 57574.0 180850.0 182069.0 120285.0 114472.0 61508.0 67521.0 158922.0 166790.0 10000.0 18084.0 108848.0 112770.0 206958.0 214676.0 83051.0 78186.0 0.0 7195.0 232167.0 230279.0 141490.0 139481.0 114334.0 111259.0 114292.0 107335.0 205647.0 206472.0 58050.0 50053.0 204393.0 205189.0 235661.0 227529.0 118272.0 125634.0 133780.0 133180.0 156612.0 149642.0 59348.0 63026.0 162355.0 167535.0 95695.0 89417.0 170915.0 164947.0 179428.0 173243.0 126688.0 124857.0 63105.0 64538.0 110330.0 114019.0 115629.0 114275.0 43716.0 47612.0 63387.0 71224.0 35617.0 43541.0 182898.0 178949.0 100929.0 77703.0 100929.0 100929.0 100929.0 100929.0 100929.0 100929.0 77703.0 77703.0 77703.0 77703.0 77703.0 77703.0
100535.0 97267.0 119727.0 112390.0 141209.0 145974.0 145628.0 146651.0 48615.0 55096.0 76377.0 82130.0 60638.0 62889.0 183676.0 185186.0 127369.0 121606.0 67906.0 74151.0 164784.0 172644.0 10579.0 16824.0 113090.0 116624.0 199940.0 207676.0 79175.0 74870.0 7195.0 0.0 225074.0 223172.0 145972.0 143640.0 119072.0 115665.0 121035.0 114174.0 208660.0 209736.0 65205.0 57210.0 197370.0 198112.0 228859.0 220741.0 125053.0 132472.0 140560.0 139804.0 150441.0 143558.0 65353.0 69440.0 155332.0 160458.0 102041.0 95946.0 164308.0 158438.0 183465.0 177111.0 132007.0 130458.0 70287.0 71722.0 115148.0 119156.0 119599.0 117834.0 36602.0 40772.0 56826.0 64578.0 42763.0 50704.0 187361.0 183628.0 104309.0 70508.0 104309.0 104309.0 104309.0 104309.0 104309.0 104309.0 70508.0 70508.0 70508.0 70508.0 70508.0 70508.0
320192.0 315280.0 341557.0 333733.0 366126.0 370547.0 340209.0 344845.0 245908.0 244852.0 157592.0 156439.0 263076.0 269871.0 323832.0 330333.0 352443.0 346599.0 283052.0 290852.0 383628.0 391357.0 228025.0 223361.0 295270.0 292696.0 27746.0 22520.0 184121.0 192371.0 232167.0 225074.0 0.0 7961.0 358191.0 354694.0 333092.0 328235.0 344912.0 338563.0 346150.0 351943.0 290151.0 282155.0 29764.0 27124.0 37772.0 38521.0 340046.0 348018.0 354707.0 351350.0 102077.0 108962.0 277444.0 284547.0 70449.0 64675.0 324284.0 319066.0 76763.0 84784.0 345738.0 337709.0 348535.0 348451.0 293964.0 296418.0 329663.0 335094.0 330391.0 327740.0 188473.0 185021.0 171117.0 163124.0 267763.0 275633.0 356563.0 357332.0 314170.0 157477.0 314170.0 314170.0 314170.0 314170.0 314170.0 314170.0 157477.0 157477.0 157477.0 157477.0 157477.0 157477.0
318251.0 313339.0 339617.0 331793.0 364291.0 368768.0 340668.0 345154.0 245315.0 244518.0 157097.0 156348.0 262534.0 269206.0 326304.0 332687.0 350536.0 344738.0 282071.0 289818.0 381688.0 389416.0 226321.0 221893.0 295917.0 293555.0 29861.0 26510.0 184743.0 192912.0 230279.0 223172.0 7961.0 0.0 356250.0 352754.0 331152.0 326294.0 343013.0 336634.0 348893.0 354564.0 288294.0 280295.0 31355.0 26905.0 45511.0 45743.0 339346.0 347304.0 354119.0 350932.0 104720.0 111336.0 276595.0 283577.0 69625.0 63242.0 322344.0 317126.0 79236.0 87184.0 347586.0 339561.0 346595.0 346511.0 292303.0 294555.0 327723.0 333154.0 328451.0 325800.0 186570.0 183289.0 169818.0 161868.0 265887.0 273774.0 358214.0 358807.0 312230.0 155537.0 312230.0 312230.0 312230.0 312230.0 312230.0 312230.0 155537.0 155537.0 155537.0 155537.0 155537.0 155537.0
55603.0 53580.0 57890.0 56934.0 107640.0 115542.0 203500.0 198513.0 169329.0 177125.0 219997.0 226645.0 165227.0 159424.0 280552.0 278041.0 96329.0 100947.0 145513.0 141968.0 46195.0 50440.0 150850.0 158966.0 203411.0 211081.0 333828.0 341713.0 224483.0 219234.0 141490.0 145972.0 358191.0 356250.0 0.0 8285.0 27693.0 30325.0 74315.0 79578.0 300489.0 297866.0 109586.0 112875.0 331206.0 331415.0 364784.0 356850.0 155090.0 156101.0 163205.0 169549.0 292467.0 286226.0 151401.0 145585.0 289386.0 293871.0 65863.0 73686.0 302650.0 297740.0 262840.0 260112.0 26044.0 33769.0 118662.0 110677.0 31958.0 31442.0 28514.0 34156.0 175277.0 182199.0 199027.0 205741.0 119129.0 116083.0 258814.0 251686.0 65346.0 202490.0 65346.0 65346.0 65346.0 65346.0 65346.0 65346.0 202490.0 202490.0 202490.0 202490.0 202490.0 202490.0
57676.0 54486.0 62947.0 61056.0 113908.0 121896.0 207489.0 202724.0 169196.0 177079.0 216769.0 223570.0 165928.0 160405.0 283232.0 280939.0 101994.0 106200.0 147042.0 143905.0 54476.0 58687.0 149022.0 157183.0 205701.0 213249.0 330331.0 338216.0 222529.0 217525.0 139481.0 143640.0 354694.0 352754.0 8285.0 0.0 28131.0 28618.0 79676.0 84393.0 303585.0 301157.0 110871.0 113615.0 327709.0 327918.0 361288.0 353353.0 159523.0 160879.0 168188.0 174322.0 288969.0 282740.0 152689.0 147200.0 285889.0 290374.0 69097.0 76587.0 299153.0 294243.0 266372.0 263429.0 31558.0 39479.0 120459.0 112486.0 32399.0 33902.0 24303.0 28492.0 171836.0 178924.0 195702.0 202285.0 118924.0 116406.0 262724.0 255707.0 60282.0 198994.0 60282.0 60282.0 60282.0 60282.0 60282.0 60282.0 198994.0 198994.0 198994.0 198994.0 198994.0 198994.0
29951.0 26362.0 40750.0 36449.0 93744.0 101896.0 180991.0 176558.0 141688.0 149507.0 193918.0 200365.0 137939.0 132329.0 255415.0 253260.0 80004.0 82904.0 118913.0 115843.0 55327.0 62179.0 123552.0 131630.0 177728.0 185229.0 308729.0 316614.0 197191.0 191808.0 114334.0 119072.0 333092.0 331152.0 27693.0 28131.0 0.0 7611.0 57462.0 60482.0 276038.0 273774.0 82742.0 85590.0 306107.0 306316.0 339686.0 331751.0 133875.0 135881.0 143586.0 149247.0 266971.0 260558.0 124564.0 119078.0 264287.0 268773.0 42481.0 49403.0 277514.0 272641.0 239243.0 236091.0 18777.0 23799.0 92376.0 84412.0 4308.0 8891.0 15748.0 23411.0 149603.0 156269.0 173120.0 180059.0 91461.0 88571.0 236035.0 229173.0 45843.0 177392.0 45843.0 45843.0 45843.0 45843.0 45843.0 45843.0 177392.0 177392.0 177392.0 177392.0 177392.0 177392.0
33059.0 27718.0 47041.0 41961.0 99999.0 108150.0 184350.0 180166.0 140676.0 148584.0 189769.0 196371.0 137849.0 132562.0 257246.0 255320.0 85856.0 88295.0 119806.0 117213.0 62510.0 69185.0 120693.0 128832.0 179282.0 186635.0 303872.0 311757.0 194292.0 189150.0 111259.0 115665.0 328235.0 326294.0 30325.0 28618.0 7611.0 0.0 63468.0 65845.0 278273.0 276214.0 83541.0 85706.0 301250.0 301459.0 334828.0 326894.0 137914.0 140275.0 148153.0 153563.0 262450.0 256141.0 125163.0 120068.0 259430.0 263915.0 46580.0 52809.0 272694.0 267744.0 241984.0 238613.0 26267.0 31391.0 93722.0 85836.0 8458.0 15949.0 9548.0 16438.0 145159.0 152002.0 168842.0 175632.0 90419.0 88168.0 239176.0 232443.0 38771.0 172534.0 38771.0 38771.0 38771.0 38771.0 38771.0 38771.0 172534.0 172534.0 172534.0 172534.0 172534.0 172534.0
35870.0 44211.0 16906.0 21829.0 36668.0 44792.0 131011.0 125471.0 122427.0 128881.0 196215.0 201006.0 112185.0 104781.0 212165.0 208765.0 22592.0 26639.0 88106.0 81968.0 57056.0 63989.0 120591.0 127237.0 138092.0 146229.0 320441.0 328262.0 188816.0 181755.0 114292.0 121035.0 344912.0 343013.0 74315.0 79676.0 57462.0 63468.0 0.0 8311.0 230311.0 227014.0 59926.0 67110.0 317839.0 318181.0 349891.0 341776.0 81794.0 82123.0 88983.0 95539.0 270050.0 262850.0 95202.0 87539.0 275867.0 280610.0 23734.0 26252.0 285172.0 279102.0 191373.0 189388.0 48315.0 40552.0 62762.0 56291.0 55050.0 48742.0 72853.0 79801.0 157177.0 161807.0 177659.0 185516.0 80131.0 73172.0 186264.0 178880.0 89809.0 189257.0 89809.0 89809.0 89809.0 89809.0 89809.0 89809.0 189257.0 189257.0 189257.0 189257.0 189257.0 189257.0
35541.0 43742.0 21742.0 24033.0 36621.0 44431.0 124495.0 119200.0 114257.0 120656.0 188932.0 193594.0 103890.0 96475.0 204757.0 201500.0 20944.0 22454.0 79795.0 73675.0 65128.0 72160.0 113336.0 119823.0 130214.0 138323.0 313887.0 321678.0 180915.0 173792.0 107335.0 114174.0 338563.0 336634.0 79578.0 84393.0 60482.0 65845.0 8311.0 0.0 223236.0 220086.0 52079.0 59430.0 311295.0 311760.0 342996.0 334862.0 75620.0 76541.0 83797.0 89990.0 262650.0 255410.0 86892.0 79230.0 269289.0 274151.0 21804.0 21648.0 278075.0 271925.0 184577.0 182400.0 53560.0 46082.0 54526.0 48182.0 57609.0 52092.0 75370.0 81873.0 150500.0 154927.0 170617.0 178512.0 72750.0 65604.0 179821.0 172538.0 88942.0 182886.0 88942.0 88942.0 88942.0 88942.0 88942.0 88942.0 182886.0 182886.0 182886.0 182886.0 182886.0 182886.0
246096.0 250555.0 244492.0 243829.0 209770.0 205151.0 101025.0 107936.0 160204.0 153580.0 213113.0 208869.0 151788.0 153488.0 25501.0 23734.0 212671.0 205587.0 161198.0 162030.0 285506.0 291292.0 198082.0 193388.0 100784.0 94723.0 319055.0 323646.0 177115.0 171309.0 205647.0 208660.0 346150.0 348893.0 300489.0 303585.0 276038.0 278273.0 230311.0 223236.0 0.0 8088.0 196260.0 196426.0 317559.0 322836.0 326258.0 319152.0 150048.0 152209.0 148385.0 140314.0 244184.0 237610.0 157666.0 160533.0 286371.0 294316.0 234655.0 227007.0 269657.0 261718.0 40799.0 41079.0 275293.0 268468.0 185163.0 192826.0 272011.0 269695.0 286951.0 290382.0 221688.0 216803.0 216239.0 220506.0 198490.0 196587.0 51266.0 59230.0 284593.0 247775.0 284593.0 284593.0 284593.0 284593.0 284593.0 284593.0 247775.0 247775.0 247775.0 247775.0 247775.0 247775.0
243824.0 248503.0 241479.0 241071.0 205488.0 200649.0 96864.0 103502.0 161155.0 154772.0 216952.0 212937.0 151970.0 153259.0 28965.0 24880.0 208916.0 201968.0 160178.0 160614.0 281773.0 287424.0 199173.0 194756.0 100135.0 94558.0 324751.0 329457.0 181092.0 175045.0 206472.0 209736.0 351943.0 354564.0 297866.0 301157.0 273774.0 276214.0 227014.0 220086.0 8088.0 0.0 194787.0 195279.0 323215.0 328395.0 332561.0 325391.0 146192.0 147989.0 143808.0 135811.0 249904.0 243235.0 156971.0 159443.0 291473.0 299400.0 232118.0 224578.0 275344.0 267381.0 36042.0 37756.0 272504.0 265569.0 183533.0 191094.0 269793.0 267256.0 284999.0 288626.0 224008.0 219348.0 219370.0 223863.0 197925.0 195707.0 45137.0 53206.0 283373.0 250835.0 283373.0 283373.0 283373.0 283373.0 283373.0 283373.0 250835.0 250835.0 250835.0 250835.0 250835.0 250835.0
54205.0 56388.0 64192.0 59052.0 76012.0 80842.0 108511.0 106234.0 63545.0 70594.0 137681.0 142008.0 56199.0 49954.0 174405.0 172953.0 62498.0 56448.0 36265.0 34234.0 112279.0 119951.0 62567.0 68438.0 96188.0 103324.0 264751.0 272412.0 128891.0 121865.0 58050.0 65205.0 290151.0 288294.0 109586.0 110871.0 82742.0 83541.0 59926.0 52079.0 196260.0 194787.0 0.0 7999.0 262205.0 263139.0 292640.0 284460.0 71235.0 77095.0 85842.0 87857.0 211027.0 203711.0 41838.0 36545.0 220181.0 225493.0 47708.0 39627.0 227193.0 220828.0 161836.0 157664.0 87568.0 82855.0 11794.0 7257.0 78475.0 78220.0 91591.0 94375.0 101758.0 105246.0 120197.0 128189.0 22444.0 14519.0 160875.0 154924.0 88814.0 135524.0 88814.0 88814.0 88814.0 88814.0 88814.0 88814.0 135524.0 135524.0 135524.0 135524.0 135524.0 135524.0
58167.0 59316.0 70265.0 64597.0 84010.0 88809.0 111472.0 109708.0 57915.0 65288.0 129897.0 134324.0 52360.0 46857.0 174023.0 172946.0 70450.0 64445.0 35285.0 35054.0 118199.0 125942.0 54647.0 60653.0 95827.0 102607.0 256770.0 264437.0 121888.0 115020.0 50053.0 57210.0 282155.0 280295.0 112875.0 113615.0 85590.0 85706.0 67110.0 59430.0 196426.0 195279.0 7999.0 0.0 254222.0 255145.0 284740.0 276564.0 76730.0 82972.0 91665.0 93168.0 203368.0 196082.0 39790.0 35896.0 212196.0 217498.0 53237.0 45425.0 219354.0 213027.0 163013.0 158507.0 91891.0 87668.0 16286.0 14765.0 81287.0 81770.0 93274.0 95418.0 93759.0 97264.0 112272.0 120258.0 14457.0 6522.0 162727.0 157050.0 88170.0 127556.0 88170.0 88170.0 88170.0 88170.0 88170.0 88170.0 127556.0 127556.0 127556.0 127556.0 127556.0 127556.0
293207.0 288295.0 314523.0 306749.0 338063.0 342297.0 310455.0 315113.0 216588.0 215373.0 128290.0 126889.0 233713.0 240588.0 294950.0 301337.0 324634.0 318621.0 254011.0 261852.0 356644.0 364372.0 199828.0 194879.0 265506.0 262940.0 2678.0 10717.0 154361.0 162617.0 204393.0 197370.0 29764.0 31355.0 331206.0 327709.0 306107.0 301250.0 317839.0 311295.0 317559.0 323215.0 262205.0 254222.0 0.0 7469.0 39744.0 34295.0 310758.0 318738.0 325340.0 321884.0 73415.0 79983.0 248295.0 255494.0 42039.0 37500.0 297295.0 292095.0 47916.0 55842.0 316347.0 308320.0 321550.0 321467.0 265627.0 268336.0 302679.0 308109.0 303406.0 300755.0 160844.0 156959.0 142544.0 134523.0 239896.0 247703.0 327059.0 327744.0 287186.0 129679.0 287186.0 287186.0 287186.0 287186.0 287186.0 287186.0 129679.0 129679.0 129679.0 129679.0 129679.0 129679.0
293416.0 288504.0 314782.0 306958.0 339094.0 343477.0 313801.0 318321.0 218892.0 217936.0 130593.0 129627.0 236079.0 242835.0 300024.0 306314.0 325473.0 319585.0 255949.0 263742.0 356853.0 364581.0 200952.0 196249.0 269022.0 266650.0 8434.0 14253.0 157845.0 166022.0 205189.0 198112.0 27124.0 26905.0 331415.0 327918.0 306316.0 301459.0 318181.0 311760.0 322836.0 328395.0 263139.0 255145.0 7469.0 0.0 44580.0 40002.0 313005.0 320974.0 327702.0 324407.0 78967.0 85255.0 250363.0 257445.0 43330.0 37654.0 297509.0 292319.0 53519.0 61291.0 320907.0 312886.0 321759.0 321676.0 266875.0 269376.0 302888.0 308318.0 303615.0 300964.0 161520.0 157964.0 143995.0 136001.0 240767.0 248622.0 331452.0 331987.0 287395.0 129575.0 287395.0 287395.0 287395.0 287395.0 287395.0 287395.0 129575.0 129575.0 129575.0 129575.0 129575.0 129575.0
326732.0 321865.0 347715.0 340018.0 367838.0 371536.0 330773.0 336077.0 242397.0 240126.0 155600.0 152565.0 259091.0 266390.0 305284.0 312277.0 355098.0 348694.0 280926.0 288895.0 390186.0 397890.0 230097.0 224380.0 285327.0 281789.0 37325.0 30334.0 176031.0 184465.0 235661.0 228859.0 37772.0 45511.0 364784.0 361288.0 339686.0 334828.0 349891.0 342996.0 326258.0 332561.0 292640.0 284740.0 39744.0 44580.0 0.0 8235.0 336065.0 344049.0 350091.0 345957.0 87943.0 95641.0 274748.0 282347.0 76524.0 74284.0 330239.0 324586.0 66330.0 73615.0 329872.0 321873.0 355129.0 354969.0 294987.0 298389.0 336257.0 341688.0 336985.0 334334.0 192902.0 188087.0 172497.0 164545.0 270668.0 278271.0 341524.0 343091.0 320764.0 164164.0 320764.0 320764.0 320764.0 320764.0 320764.0 320764.0 164164.0 164164.0 164164.0 164164.0 164164.0 164164.0
318760.0 313938.0 339678.0 331996.0 359630.0 363317.0 322732.0 328006.0 234167.0 231910.0 147376.0 144331.0 250867.0 258162.0 297994.0 304932.0 346911.0 340495.0 272691.0 280661.0 382275.0 389988.0 221923.0 216183.0 277297.0 273810.0 32114.0 26140.0 167868.0 176301.0 227529.0 220741.0 38521.0 45743.0 356850.0 353353.0 331751.0 326894.0 341776.0 334862.0 319152.0 325391.0 284460.0 276564.0 34295.0 40002.0 8235.0 0.0 327850.0 335833.0 341888.0 337770.0 79904.0 87582.0 266515.0 274113.0 68999.0 67162.0 322186.0 316503.0 58100.0 65409.0 322301.0 314296.0 347194.0 347070.0 286776.0 290195.0 328322.0 333753.0 329050.0 326399.0 184836.0 179969.0 164334.0 156390.0 262504.0 270098.0 333880.0 335377.0 312829.0 156343.0 312829.0 312829.0 312829.0 312829.0 312829.0 312829.0 156343.0 156343.0 156343.0 156343.0 156343.0 156343.0
104918.0 111412.0 97360.0 98469.0 60473.0 57127.0 49476.0 43680.0 94173.0 95941.0 182475.0 184179.0 77126.0 70176.0 134040.0 129659.0 62735.0 55964.0 58192.0 51116.0 135585.0 141259.0 117993.0 120110.0 69414.0 77373.0 313111.0 320211.0 160747.0 152379.0 118272.0 125053.0 340046.0 339346.0 155090.0 159523.0 133875.0 137914.0 81794.0 75620.0 150048.0 146192.0 71235.0 76730.0 310758.0 313005.0 336065.0 327850.0 0.0 7991.0 15509.0 16737.0 249298.0 241565.0 62948.0 56635.0 269759.0 276176.0 91445.0 85226.0 269791.0 262457.0 110261.0 108970.0 129129.0 121702.0 60450.0 64452.0 130370.0 126212.0 147339.0 152607.0 158210.0 158985.0 170233.0 177994.0 88207.0 81375.0 104532.0 97095.0 153652.0 193176.0 153652.0 153652.0 153652.0 153652.0 153652.0 153652.0 193176.0 193176.0 193176.0 193176.0 193176.0 193176.0
107473.0 114310.0 98214.0 99972.0 57563.0 53303.0 51186.0 44572.0 102156.0 103926.0 190453.0 192169.0 85116.0 78152.0 137266.0 132504.0 61829.0 55705.0 65959.0 58751.0 134318.0 139671.0 125585.0 127847.0 75601.0 83392.0 321093.0 328197.0 168690.0 160317.0 125634.0 132472.0 348018.0 347304.0 156101.0 160879.0 135881.0 140275.0 82123.0 76541.0 152209.0 147989.0 77095.0 82972.0 318738.0 320974.0 344049.0 335833.0 7991.0 0.0 8763.0 13449.0 257255.0 249521.0 70845.0 64405.0 277722.0 284127.0 93695.0 87959.0 277777.0 270439.0 111952.0 111219.0 130065.0 122477.0 66703.0 70131.0 132527.0 127964.0 149768.0 155331.0 165900.0 166772.0 178131.0 185906.0 94912.0 87877.0 105311.0 97646.0 157491.0 200878.0 157491.0 157491.0 157491.0 157491.0 157491.0 157491.0 200878.0 200878.0 200878.0 200878.0 200878.0 200878.0
115485.0 122461.0 105341.0 107474.0 62011.0 56847.0 47741.0 40478.0 108812.0 110140.0 197116.0 198595.0 91633.0 84936.0 134643.0 129473.0 67971.0 62378.0 73555.0 66582.0 139774.0 144832.0 133458.0 135472.0 77336.0 84790.0 327672.0 334708.0 174385.0 165978.0 133780.0 140560.0 354707.0 354119.0 163205.0 168188.0 143586.0 148153.0 88983.0 83797.0 148385.0 143808.0 85842.0 91665.0 325340.0 327702.0 350091.0 341888.0 15509.0 8763.0 0.0 8186.0 263012.0 255267.0 78085.0 71995.0 284505.0 291001.0 101596.0 96085.0 283889.0 276479.0 107800.0 107642.0 137163.0 129490.0 75387.0 78888.0 140314.0 135545.0 157670.0 163364.0 173608.0 174277.0 185293.0 193010.0 103473.0 96506.0 100314.0 92482.0 165956.0 208560.0 165956.0 165956.0 165956.0 165956.0 165956.0 165956.0 208560.0 208560.0 208560.0 208560.0 208560.0 208560.0
120694.0 127418.0 111661.0 113397.0 69799.0 64850.0 39572.0 32380.0 105736.0 106511.0 193838.0 195016.0 88468.0 82166.0 126457.0 121302.0 75023.0 69068.0 72131.0 65663.0 147237.0 152426.0 132248.0 133781.0 70333.0 77591.0 324185.0 331131.0 170017.0 161589.0 133180.0 139804.0 351350.0 350932.0 169549.0 174322.0 149247.0 153563.0 95539.0 89990.0 140314.0 135811.0 87857.0 93168.0 321884.0 324407.0 345957.0 337770.0 16737.0 13449.0 8186.0 0.0 258616.0 250865.0 76030.0 70574.0 281308.0 287925.0 106992.0 101109.0 279865.0 272378.0 99785.0 99522.0 143512.0 135919.0 76917.0 81132.0 145862.0 141368.0 163041.0 168516.0 171989.0 172289.0 182733.0 190353.0 104246.0 97619.0 92551.0 84782.0 170149.0 206844.0 170149.0 170149.0 170149.0 170149.0 170149.0 170149.0 206844.0 206844.0 206844.0 206844.0 206844.0 206844.0
250862.0 247137.0 270021.0 262793.0 284592.0 287666.0 242833.0 248141.0 156546.0 153591.0 74095.0 69056.0 172781.0 180302.0 221755.0 228269.0 272813.0 265960.0 195552.0 203557.0 315110.0 322958.0 149537.0 142829.0 197394.0 193941.0 74872.0 79640.0 88629.0 97044.0 156612.0 150441.0 102077.0 104720.0 292467.0 288969.0 266971.0 262450.0 270050.0 262650.0 244184.0 249904.0 211027.0 203368.0 73415.0 78967.0 87943.0 79904.0 249298.0 257255.0 263012.0 258616.0 0.0 7751.0 189062.0 196910.0 50080.0 57474.0 252296.0 245857.0 25501.0 17690.0 244111.0 236082.0 281454.0 280485.0 211928.0 216166.0 263359.0 268240.0 264666.0 262015.0 117369.0 110896.0 94107.0 86936.0 189928.0 197081.0 255256.0 256394.0 248445.0 97988.0 248445.0 248445.0 248445.0 248445.0 248445.0 248445.0 97988.0 97988.0 97988.0 97988.0 97988.0 97988.0
244052.0 240444.0 263018.0 255840.0 277094.0 280117.0 235151.0 240436.0 148887.0 145883.0 67183.0 61855.0 165084.0 172617.0 214976.0 221406.0 265398.0 258511.0 187916.0 195921.0 308308.0 316162.0 142416.0 135613.0 189722.0 186319.0 81556.0 86612.0 80883.0 89297.0 149642.0 143558.0 108962.0 111336.0 286226.0 282740.0 260558.0 256141.0 262850.0 255410.0 237610.0 243235.0 203711.0 196082.0 79983.0 85255.0 95641.0 87582.0 241565.0 249521.0 255267.0 250865.0 7751.0 0.0 181404.0 189269.0 53568.0 61277.0 245286.0 238780.0 32199.0 24186.0 236938.0 228908.0 274853.0 273772.0 204479.0 208789.0 256908.0 261685.0 258437.0 255786.0 110986.0 104336.0 87502.0 80513.0 182719.0 189819.0 247987.0 249042.0 242216.0 93095.0 242216.0 242216.0 242216.0 242216.0 242216.0 242216.0 93095.0 93095.0 93095.0 93095.0 93095.0 93095.0
95919.0 98204.0 103248.0 99257.0 98327.0 100103.0 81038.0 81510.0 32517.0 36478.0 120057.0 122273.0 17639.0 9797.0 134722.0 134036.0 89518.0 81740.0 7256.0 14880.0 150957.0 158359.0 56847.0 57800.0 56892.0 63223.0 250684.0 257893.0 101585.0 93534.0 59348.0 65353.0 277444.0 276595.0 151401.0 152689.0 124564.0 125163.0 95202.0 86892.0 157666.0 156971.0 41838.0 39790.0 248295.0 250363.0 274748.0 266515.0 62948.0 70845.0 78085.0 76030.0 189062.0 181404.0 0.0 8237.0 207066.0 213382.0 88172.0 79913.0 208423.0 201306.0 126112.0 120967.0 128946.0 123789.0 33574.0 41333.0 120290.0 120006.0 132948.0 135206.0 96005.0 96287.0 107288.0 115064.0 40999.0 39049.0 127441.0 122595.0 127471.0 130820.0 127471.0 127471.0 127471.0 127471.0 127471.0 127471.0 130820.0 130820.0 130820.0 130820.0 130820.0 130820.0
89989.0 92778.0 96142.0 92480.0 90092.0 91911.0 79322.0 79008.0 40446.0 44679.0 127368.0 129804.0 25865.0 17992.0 138194.0 137051.0 81348.0 73547.0 1561.0 6700.0 143625.0 150959.0 61674.0 63481.0 59962.0 66890.0 257902.0 265164.0 109651.0 101640.0 63026.0 69440.0 284547.0 283577.0 145585.0 147200.0 119078.0 120068.0 87539.0 79230.0 160533.0 159443.0 36545.0 35896.0 255494.0 257445.0 282347.0 274113.0 56635.0 64405.0 71995.0 70574.0 196910.0 189269.0 8237.0 0.0 214125.0 220341.0 81545.0 73286.0 216038.0 208977.0 127582.0 122848.0 122612.0 117209.0 27007.0 34962.0 114838.0 114144.0 128130.0 130782.0 101617.0 102367.0 113985.0 121837.0 39955.0 36462.0 128018.0 122757.0 124066.0 136565.0 124066.0 124066.0 124066.0 124066.0 124066.0 124066.0 136565.0 136565.0 136565.0 136565.0 136565.0 136565.0
251387.0 246475.0 272752.0 264922.0 296064.0 300348.0 271633.0 275941.0 175696.0 174915.0 87478.0 86958.0 192911.0 199604.0 262741.0 268605.0 282600.0 276606.0 212627.0 220415.0 314823.0 322552.0 157846.0 153007.0 227204.0 225222.0 44610.0 52395.0 116313.0 124283.0 162355.0 155332.0 70449.0 69625.0 289386.0 285889.0 264287.0 259430.0 275867.0 269289.0 286371.0 291473.0 220181.0 212196.0 42039.0 43330.0 76524.0 68999.0 269759.0 277722.0 284505.0 281308.0 50080.0 53568.0 207066.0 214125.0 0.0 7987.0 255461.0 250175.0 31804.0 35399.0 281630.0 273648.0 279730.0 279646.0 223701.0 226336.0 260858.0 266289.0 261586.0 258935.0 118816.0 114938.0 100710.0 92706.0 197863.0 205676.0 291630.0 291735.0 245365.0 88159.0 245365.0 245365.0 245365.0 245365.0 245365.0 245365.0 88159.0 88159.0 88159.0 88159.0 88159.0 88159.0
255872.0 250960.0 277238.0 269414.0 301457.0 305874.0 278801.0 283022.0 182231.0 181650.0 94213.0 94047.0 199476.0 206069.0 270654.0 276493.0 287819.0 281940.0 218833.0 226576.0 319309.0 327037.0 163354.0 158755.0 234506.0 232632.0 40158.0 48151.0 123779.0 131682.0 167535.0 160458.0 64675.0 63242.0 293871.0 290374.0 268773.0 263915.0 280610.0 274151.0 294316.0 299400.0 225493.0 217498.0 37500.0 37654.0 74284.0 67162.0 276176.0 284127.0 291001.0 287925.0 57474.0 61277.0 213382.0 220341.0 7987.0 0.0 259914.0 254794.0 37473.0 42028.0 289383.0 281407.0 284216.0 284132.0 229304.0 231746.0 265344.0 270775.0 266072.0 263421.0 123867.0 120347.0 106599.0 98638.0 203116.0 210976.0 299314.0 299357.0 249851.0 92214.0 249851.0 249851.0 249851.0 249851.0 249851.0 249851.0 92214.0 92214.0 92214.0 92214.0 92214.0 92214.0
14198.0 22113.0 17736.0 11368.0 58403.0 66235.0 138598.0 134088.0 111049.0 118243.0 178207.0 183519.0 103655.0 97010.0 214723.0 212178.0 42730.0 43259.0 81700.0 77233.0 65030.0 72816.0 103033.0 110289.0 137884.0 145675.0 299920.0 307806.0 174130.0 167596.0 95695.0 102041.0 324284.0 322344.0 65863.0 69097.0 42481.0 46580.0 23734.0 21804.0 234655.0 232118.0 47708.0 53237.0 297295.0 297509.0 330239.0 322186.0 91445.0 93695.0 101596.0 106992.0 252296.0 245286.0 88172.0 81545.0 255461.0 259914.0 0.0 8263.0 266243.0 260461.0 197275.0 194375.0 41364.0 35664.0 54637.0 46846.0 38925.0 35239.0 56080.0 61878.0 137358.0 142558.0 158854.0 166547.0 63998.0 58303.0 193737.0 186804.0 67138.0 168584.0 67138.0 67138.0 67138.0 67138.0 67138.0 67138.0 168584.0 168584.0 168584.0 168584.0 168584.0 168584.0
19750.0 26378.0 24884.0 19464.0 57545.0 65007.0 131649.0 127368.0 103088.0 110213.0 171816.0 176951.0 95452.0 88770.0 206871.0 204427.0 41556.0 40549.0 73438.0 69012.0 72786.0 80519.0 96381.0 103453.0 129841.0 137596.0 294708.0 302559.0 166794.0 160144.0 89417.0 95946.0 319066.0 317126.0 73686.0 76587.0 49403.0 52809.0 26252.0 21648.0 227007.0 224578.0 39627.0 45425.0 292095.0 292319.0 324586.0 316503.0 85226.0 87959.0 96085.0 101109.0 245857.0 238780.0 79913.0 73286.0 250175.0 254794.0 8263.0 0.0 260255.0 254353.0 189897.0 186858.0 49518.0 43924.0 46374.0 38590.0 45608.0 42689.0 62164.0 67413.0 131703.0 136636.0 152756.0 160524.0 56760.0 50720.0 186639.0 179804.0 69266.0 163413.0 69266.0 69266.0 69266.0 69266.0 69266.0 69266.0 163413.0 163413.0 163413.0 163413.0 163413.0 163413.0
263627.0 259265.0 283865.0 276351.0 301996.0 305534.0 265845.0 270891.0 176068.0 173851.0 89653.0 86300.0 192779.0 200063.0 247138.0 253594.0 289527.0 282980.0 214621.0 222596.0 327607.0 335395.0 164814.0 158777.0 220544.0 217468.0 49406.0 54438.0 110220.0 118635.0 170915.0 164308.0 76763.0 79236.0 302650.0 299153.0 277514.0 272694.0 285172.0 278075.0 269657.0 275344.0 227193.0 219354.0 47916.0 53519.0 66330.0 58100.0 269791.0 277777.0 283889.0 279865.0 25501.0 32199.0 208423.0 216038.0 31804.0 37473.0 266243.0 260255.0 0.0 8032.0 269071.0 261040.0 292930.0 292584.0 229123.0 232763.0 274116.0 279520.0 274850.0 272199.0 129176.0 123686.0 107528.0 99731.0 205457.0 212930.0 280033.0 280979.0 258629.0 104040.0 258629.0 258629.0 258629.0 258629.0 258629.0 258629.0 104040.0 104040.0 104040.0 104040.0 104040.0 104040.0
258150.0 253953.0 278120.0 270676.0 295371.0 298801.0 258030.0 263121.0 168894.0 166522.0 83154.0 79422.0 185517.0 192855.0 239151.0 245590.0 283065.0 276441.0 207572.0 215558.0 322238.0 330045.0 158597.0 152390.0 212700.0 209568.0 57380.0 62470.0 102577.0 111003.0 164947.0 158438.0 84784.0 87184.0 297740.0 294243.0 272641.0 267744.0 279102.0 271925.0 261718.0 267381.0 220828.0 213027.0 55842.0 61291.0 73615.0 65409.0 262457.0 270439.0 276479.0 272378.0 17690.0 24186.0 201306.0 208977.0 35399.0 42028.0 260461.0 254353.0 8032.0 0.0 261039.0 253008.0 287816.0 287302.0 222512.0 226298.0 269183.0 274450.0 269940.0 267289.0 123744.0 117987.0 101612.0 93931.0 199229.0 206630.0 272006.0 272963.0 253719.0 100037.0 253719.0 253719.0 253719.0 253719.0 253719.0 253719.0 100037.0 100037.0 100037.0 100037.0 100037.0 100037.0
209329.0 214335.0 206078.0 205945.0 169446.0 164631.0 60859.0 67461.0 135138.0 129713.0 201516.0 198652.0 123656.0 123713.0 34883.0 27010.0 172996.0 166123.0 128476.0 128004.0 245843.0 251443.0 173068.0 169643.0 70666.0 66908.0 318115.0 323506.0 166961.0 159896.0 179428.0 183465.0 345738.0 347586.0 262840.0 266372.0 239243.0 241984.0 191373.0 184577.0 40799.0 36042.0 161836.0 163013.0 316347.0 320907.0 329872.0 322301.0 110261.0 111952.0 107800.0 99785.0 244111.0 236938.0 126112.0 127582.0 281630.0 289383.0 197275.0 189897.0 269071.0 261039.0 0.0 8030.0 237309.0 230262.0 150327.0 157655.0 235333.0 232492.0 250925.0 254870.0 202012.0 198286.0 200724.0 206141.0 167011.0 164044.0 13938.0 20347.0 250648.0 231534.0 250648.0 250648.0 250648.0 250648.0 250648.0 250648.0 231534.0 231534.0 231534.0 231534.0 231534.0 231534.0
206145.0 210915.0 203756.0 203316.0 168780.0 164286.0 60069.0 67166.0 128642.0 123010.0 193757.0 190820.0 117686.0 118108.0 30104.0 23025.0 171598.0 164537.0 123674.0 123621.0 244439.0 250213.0 166663.0 163031.0 64820.0 60494.0 310087.0 315476.0 159095.0 152081.0 173243.0 177111.0 337709.0 339561.0 260112.0 263429.0 236091.0 238613.0 189388.0 182400.0 41079.0 37756.0 157664.0 158507.0 308320.0 312886.0 321873.0 314296.0 108970.0 111219.0 107642.0 99522.0 236082.0 228908.0 120967.0 122848.0 273648.0 281407.0 194375.0 186858.0 261040.0 253008.0 8030.0 0.0 234750.0 227826.0 146283.0 153749.0 232127.0 229527.0 247450.0 251195.0 194925.0 191069.0 193233.0 198567.0 161952.0 159276.0 20806.0 25733.0 246410.0 224138.0 246410.0 246410.0 246410.0 246410.0 246410.0 246410.0 224138.0 224138.0 224138.0 224138.0 224138.0 224138.0
33789.0 34896.0 31851.0 31470.0 82408.0 90428.0 177709.0 172619.0 149529.0 157078.0 207853.0 213987.0 143751.0 137465.0 255783.0 253047.0 70489.0 74932.0 122685.0 118506.0 36858.0 44010.0 135400.0 143283.0 179213.0 187027.0 324172.0 332057.0 208662.0 202806.0 126688.0 132007.0 348535.0 346595.0 26044.0 31558.0 18777.0 26267.0 48315.0 53560.0 275293.0 272504.0 87568.0 91891.0 321550.0 321759.0 355129.0 347194.0 129129.0 130065.0 137163.0 143512.0 281454.0 274853.0 128946.0 122612.0 279730.0 284216.0 41364.0 49518.0 292930.0 287816.0 237309.0 234750.0 0.0 7927.0 95612.0 87696.0 20418.0 13538.0 32612.0 40607.0 164241.0 170558.0 187364.0 194553.0 100117.0 95932.0 233044.0 225861.0 64505.0 192835.0 64505.0 64505.0 64505.0 64505.0 64505.0 64505.0 192835.0 192835.0 192835.0 192835.0 192835.0 192835.0
30415.0 33364.0 24343.0 25025.0 74484.0 82510.0 170462.0 165263.0 145540.0 152956.0 206645.0 212580.0 139022.0 132525.0 249227.0 246356.0 62618.0 67189.0 117358.0 112852.0 35263.0 42921.0 133264.0 141013.0 173036.0 180921.0 324089.0 331973.0 206112.0 200038.0 124857.0 130458.0 348451.0 346511.0 33769.0 39479.0 23799.0 31391.0 40552.0 46082.0 268468.0 265569.0 82855.0 87668.0 321467.0 321676.0 354969.0 347070.0 121702.0 122477.0 129490.0 135919.0 280485.0 273772.0 123789.0 117209.0 279646.0 284132.0 35664.0 43924.0 292584.0 287302.0 230262.0 227826.0 7927.0 0.0 90286.0 82457.0 24167.0 16208.0 38864.0 46807.0 163574.0 169652.0 186388.0 193718.0 96752.0 92079.0 225801.0 218566.0 68264.0 192751.0 68264.0 68264.0 68264.0 68264.0 68264.0 68264.0 192751.0 192751.0 192751.0 192751.0 192751.0 192751.0
63060.0 66194.0 69765.0 65686.0 72873.0 76692.0 96718.0 94482.0 59845.0 66132.0 139474.0 143221.0 49731.0 42668.0 163637.0 161966.0 61013.0 54032.0 27083.0 23497.0 117641.0 125126.0 65984.0 70797.0 85566.0 92926.0 268135.0 275688.0 127620.0 120188.0 63105.0 70287.0 293964.0 292303.0 118662.0 120459.0 92376.0 93722.0 62762.0 54526.0 185163.0 183533.0 11794.0 16286.0 265627.0 266875.0 294987.0 286776.0 60450.0 66703.0 75387.0 76917.0 211928.0 204479.0 33574.0 27007.0 223701.0 229304.0 54637.0 46374.0 229123.0 222512.0 150327.0 146283.0 95612.0 90286.0 0.0 7986.0 88170.0 87221.0 102072.0 105235.0 106297.0 109014.0 123122.0 131147.0 28952.0 21399.0 149182.0 143183.0 100394.0 140747.0 100394.0 100394.0 100394.0 100394.0 100394.0 100394.0 140747.0 140747.0 140747.0 140747.0 140747.0 140747.0
55075.0 58263.0 62338.0 57981.0 69729.0 74262.0 103150.0 100534.0 66171.0 72795.0 143151.0 147241.0 57061.0 50216.0 171451.0 169691.0 56768.0 50341.0 34992.0 31434.0 110349.0 117900.0 68525.0 74017.0 93448.0 100853.0 270870.0 278495.0 132962.0 125722.0 64538.0 71722.0 296418.0 294555.0 110677.0 112486.0 84412.0 85836.0 56291.0 48182.0 192826.0 191094.0 7257.0 14765.0 268336.0 269376.0 298389.0 290195.0 64452.0 70131.0 78888.0 81132.0 216166.0 208789.0 41333.0 34962.0 226336.0 231746.0 46846.0 38590.0 232763.0 226298.0 157655.0 153749.0 87696.0 82457.0 7986.0 0.0 80213.0 79235.0 94257.0 97560.0 108174.0 111416.0 126086.0 134099.0 29109.0 21117.0 156194.0 150053.0 93350.0 142168.0 93350.0 93350.0 93350.0 93350.0 93350.0 93350.0 142168.0 142168.0 142168.0 142168.0 142168.0 142168.0
26005.0 22088.0 38585.0 33644.0 91554.0 99706.0 177253.0 172902.0 137396.0 145211.0 190186.0 196581.0 133634.0 128035.0 251309.0 249196.0 77480.0 80062.0 114664.0 111647.0 57273.0 64357.0 119497.0 127559.0 173569.0 181049.0 305301.0 313185.0 193126.0 187697.0 110330.0 115148.0 329663.0 327723.0 31958.0 32399.0 4308.0 8458.0 55050.0 57609.0 272011.0 269793.0 78475.0 81287.0 302679.0 302888.0 336257.0 328322.0 130370.0 132527.0 140314.0 145862.0 263359.0 256908.0 120290.0 114838.0 260858.0 265344.0 38925.0 45608.0 274116.0 269183.0 235333.0 232127.0 20418.0 24167.0 88170.0 80213.0 0.0 8039.0 17818.0 24893.0 145992.0 152590.0 169440.0 176430.0 87178.0 84264.0 232236.0 225412.0 44275.0 173963.0 44275.0 44275.0 44275.0 44275.0 44275.0 44275.0 173963.0 173963.0 173963.0 173963.0 173963.0 173963.0
24161.0 22919.0 31951.0 28112.0 84910.0 93060.0 173787.0 169166.0 138799.0 146494.0 194762.0 200987.0 134053.0 128123.0 249445.0 247084.0 71317.0 74442.0 114079.0 110544.0 50130.0 57431.0 122922.0 130887.0 172096.0 179725.0 310731.0 318616.0 196396.0 190723.0 114019.0 119156.0 335094.0 333154.0 31442.0 33902.0 8891.0 15949.0 48742.0 52092.0 269695.0 267256.0 78220.0 81770.0 308109.0 308318.0 341688.0 333753.0 126212.0 127964.0 135545.0 141368.0 268240.0 261685.0 120006.0 114144.0 266289.0 270775.0 35239.0 42689.0 279520.0 274450.0 232492.0 229527.0 13538.0 16208.0 87221.0 79235.0 8039.0 0.0 24629.0 32199.0 150957.0 157358.0 174184.0 181315.0 88874.0 85291.0 228962.0 222002.0 52073.0 179394.0 52073.0 52073.0 52073.0 52073.0 52073.0 52073.0 179394.0 179394.0 179394.0 179394.0 179394.0 179394.0
42429.0 36608.0 56298.0 51447.0 109301.0 117454.0 193562.0 189463.0 147117.0 155087.0 192467.0 199278.0 145088.0 140063.0 265703.0 263910.0 95298.0 97822.0 127804.0 125520.0 67073.0 73172.0 125275.0 133454.0 187618.0 194874.0 306028.0 313913.0 198626.0 193780.0 115629.0 119599.0 330391.0 328451.0 28514.0 24303.0 15748.0 9548.0 72853.0 75370.0 286951.0 284999.0 91591.0 93274.0 303406.0 303615.0 336985.0 329050.0 147339.0 149768.0 157670.0 163041.0 264666.0 258437.0 132948.0 128130.0 261586.0 266072.0 56080.0 62164.0 274850.0 269940.0 250925.0 247450.0 32612.0 38864.0 102072.0 94257.0 17818.0 24629.0 0.0 7995.0 147536.0 154622.0 171398.0 177982.0 97024.0 95326.0 248289.0 241609.0 36893.0 174691.0 36893.0 36893.0 36893.0 36893.0 36893.0 36893.0 174691.0 174691.0 174691.0 174691.0 174691.0 174691.0
47880.0 41240.0 63462.0 58165.0 116384.0 124532.0 198152.0 194280.0 147717.0 155735.0 189826.0 196684.0 146617.0 141932.0 268770.0 267199.0 102101.0 104281.0 130367.0 128536.0 74765.0 80696.0 124074.0 132259.0 190563.0 197661.0 303378.0 311262.0 197005.0 192441.0 114275.0 117834.0 327740.0 325800.0 34156.0 28492.0 23411.0 16438.0 79801.0 81873.0 290382.0 288626.0 94375.0 95418.0 300755.0 300964.0 334334.0 326399.0 152607.0 155331.0 163364.0 168516.0 262015.0 255786.0 135206.0 130782.0 258935.0 263421.0 61878.0 67413.0 272199.0 267289.0 254870.0 251195.0 40607.0 46807.0 105235.0 97560.0 24893.0 32199.0 7995.0 0.0 144895.0 151979.0 168748.0 175331.0 98015.0 96958.0 252608.0 246053.0 31861.0 172040.0 31861.0 31861.0 31861.0 31861.0 31861.0 31861.0 172040.0 172040.0 172040.0 172040.0 172040.0 172040.0
134453.0 130218.0 154887.0 147277.0 177769.0 182431.0 172441.0 174643.0 70263.0 73616.0 45165.0 52424.0 86374.0 90999.0 196200.0 199128.0 163971.0 158187.0 100056.0 107153.0 198496.0 206302.0 40692.0 38210.0 134308.0 135924.0 163425.0 171192.0 62399.0 61999.0 43716.0 36602.0 188473.0 186570.0 175277.0 171836.0 149603.0 145159.0 157177.0 150500.0 221688.0 224008.0 101758.0 93759.0 160844.0 161520.0 192902.0 184836.0 158210.0 165900.0 173608.0 171989.0 117369.0 110986.0 96005.0 101617.0 118816.0 123867.0 137358.0 131703.0 129176.0 123744.0 202012.0 194925.0 164241.0 163574.0 106297.0 108174.0 145992.0 150957.0 147536.0 144895.0 0.0 8000.0 23979.0 30473.0 79332.0 87243.0 207974.0 205377.0 131325.0 34986.0 131325.0 131325.0 131325.0 131325.0 131325.0 131325.0 34986.0 34986.0 34986.0 34986.0 34986.0 34986.0
140237.0 136291.0 160182.0 152698.0 181142.0 185530.0 170905.0 173452.0 68731.0 71265.0 37848.0 44864.0 85395.0 90579.0 191302.0 194482.0 167692.0 161669.0 100814.0 108173.0 204418.0 212247.0 43032.0 39083.0 131558.0 132722.0 159506.0 167178.0 54637.0 54598.0 47612.0 40772.0 185021.0 183289.0 182199.0 178924.0 156269.0 152002.0 161807.0 154927.0 216803.0 219348.0 105246.0 97264.0 156959.0 157964.0 188087.0 179969.0 158985.0 166772.0 174277.0 172289.0 110896.0 104336.0 96287.0 102367.0 114938.0 120347.0 142558.0 136636.0 123686.0 117987.0 198286.0 191069.0 170558.0 169652.0 109014.0 111416.0 152590.0 157358.0 154622.0 151979.0 8000.0 0.0 16851.0 24092.0 82960.0 90747.0 204691.0 202370.0 138409.0 35028.0 138409.0 138409.0 138409.0 138409.0 138409.0 138409.0 35028.0 35028.0 35028.0 35028.0 35028.0 35028.0
156864.0 153035.0 176525.0 169124.0 195742.0 199812.0 178139.0 181318.0 77345.0 78290.0 21188.0 28591.0 94550.0 100567.0 190824.0 194655.0 182689.0 176427.0 112460.0 120119.0 221084.0 228922.0 57630.0 52341.0 136664.0 136837.0 145038.0 152569.0 45043.0 47431.0 63387.0 56826.0 171117.0 169818.0 199027.0 195702.0 173120.0 168842.0 177659.0 170617.0 216239.0 219370.0 120197.0 112272.0 142544.0 143995.0 172497.0 164334.0 170233.0 178131.0 185293.0 182733.0 94107.0 87502.0 107288.0 113985.0 100710.0 106599.0 158854.0 152756.0 107528.0 101612.0 200724.0 193233.0 187364.0 186388.0 123122.0 126086.0 169440.0 174184.0 171398.0 168748.0 23979.0 16851.0 0.0 8025.0 98171.0 105791.0 208119.0 206425.0 155178.0 31579.0 155178.0 155178.0 155178.0 155178.0 155178.0 155178.0 31579.0 31579.0 31579.0 31579.0 31579.0 31579.0
164330.0 160355.0 184195.0 176746.0 203761.0 207837.0 185051.0 188385.0 84799.0 85416.0 16205.0 24207.0 102046.0 108196.0 195173.0 199252.0 190685.0 184439.0 120317.0 128005.0 228506.0 236334.0 65623.0 60365.0 143070.0 142946.0 137016.0 144544.0 46385.0 50069.0 71224.0 64578.0 163124.0 161868.0 205741.0 202285.0 180059.0 175632.0 185516.0 178512.0 220506.0 223863.0 128189.0 120258.0 134523.0 136001.0 164545.0 156390.0 177994.0 185906.0 193010.0 190353.0 86936.0 80513.0 115064.0 121837.0 92706.0 98638.0 166547.0 160524.0 99731.0 93931.0 206141.0 198567.0 194553.0 193718.0 131147.0 134099.0 176430.0 181315.0 177982.0 175331.0 30473.0 24092.0 8025.0 0.0 106131.0 113772.0 213862.0 212376.0 161762.0 28701.0 161762.0 161762.0 161762.0 161762.0 161762.0 161762.0 28701.0 28701.0 28701.0 28701.0 28701.0 28701.0
66468.0 65964.0 81553.0 75160.0 98446.0 103263.0 118824.0 117891.0 50272.0 58165.0 116188.0 120878.0 49038.0 45429.0 175212.0 174812.0 84738.0 78855.0 38861.0 41484.0 128874.0 136702.0 40643.0 47107.0 97799.0 103834.0 242450.0 250136.0 110133.0 103663.0 35617.0 42763.0 267763.0 265887.0 119129.0 118924.0 91461.0 90419.0 80131.0 72750.0 198490.0 197925.0 22444.0 14457.0 239896.0 240767.0 270668.0 262504.0 88207.0 94912.0 103473.0 104246.0 189928.0 182719.0 40999.0 39955.0 197863.0 203116.0 63998.0 56760.0 205457.0 199229.0 167011.0 161952.0 100117.0 96752.0 28952.0 29109.0 87178.0 88874.0 97024.0 98015.0 79332.0 82960.0 98171.0 106131.0 0.0 7992.0 167883.0 162701.0 88120.0 113104.0 88120.0 88120.0 88120.0 88120.0 88120.0 88120.0 113104.0 113104.0 113104.0 113104.0 113104.0 113104.0
62144.0 62546.0 75604.0 69608.0 90527.0 95289.0 114051.0 112696.0 53601.0 61219.0 123520.0 128027.0 49762.0 45020.0 173768.0 172999.0 76958.0 70967.0 35602.0 36812.0 123333.0 131117.0 48175.0 54297.0 95812.0 102268.0 250252.0 257921.0 116164.0 109437.0 43541.0 50704.0 275633.0 273774.0 116083.0 116406.0 88571.0 88168.0 73172.0 65604.0 196587.0 195707.0 14519.0 6522.0 247703.0 248622.0 278271.0 270098.0 81375.0 87877.0 96506.0 97619.0 197081.0 189819.0 39049.0 36462.0 205676.0 210976.0 58303.0 50720.0 212930.0 206630.0 164044.0 159276.0 95932.0 92079.0 21399.0 21117.0 84264.0 85291.0 95326.0 96958.0 87243.0 90747.0 105791.0 113772.0 7992.0 0.0 164304.0 158857.0 88461.0 121085.0 88461.0 88461.0 88461.0 88461.0 88461.0 88461.0 121085.0 121085.0 121085.0 121085.0 121085.0 121085.0
206267.0 211695.0 201492.0 201893.0 162315.0 157036.0 55339.0 60908.0 139640.0 134817.0 210088.0 207627.0 126903.0 126098.0 48697.0 40690.0 166997.0 160460.0 129045.0 127709.0 239628.0 244941.0 177137.0 174288.0 74380.0 72051.0 328881.0 334431.0 176193.0 168853.0 182898.0 187361.0 356563.0 358214.0 258814.0 262724.0 236035.0 239176.0 186264.0 179821.0 51266.0 45137.0 160875.0 162727.0 327059.0 331452.0 341524.0 333880.0 104532.0 105311.0 100314.0 92551.0 255256.0 247987.0 127441.0 128018.0 291630.0 299314.0 193737.0 186639.0 280033.0 272006.0 13938.0 20806.0 233044.0 225801.0 149182.0 156194.0 232236.0 228962.0 248289.0 252608.0 207974.0 204691.0 208119.0 213862.0 167883.0 164304.0 0.0 8092.0 249526.0 238506.0 249526.0 249526.0 249526.0 249526.0 249526.0 249526.0 238506.0 238506.0 238506.0 238506.0 238506.0 238506.0
199477.0 205043.0 194239.0 194794.0 154493.0 149137.0 48218.0 53417.0 136381.0 131921.0 209201.0 207038.0 123018.0 121774.0 55110.0 47339.0 159406.0 152957.0 123841.0 122128.0 231952.0 237205.0 173522.0 170998.0 71185.0 69705.0 329614.0 335303.0 175863.0 168336.0 178949.0 183628.0 357332.0 358807.0 251686.0 255707.0 229173.0 232443.0 178880.0 172538.0 59230.0 53206.0 154924.0 157050.0 327744.0 331987.0 343091.0 335377.0 97095.0 97646.0 92482.0 84782.0 256394.0 249042.0 122595.0 122757.0 291735.0 299357.0 186804.0 179804.0 280979.0 272963.0 20347.0 25733.0 225861.0 218566.0 143183.0 150053.0 225412.0 222002.0 241609.0 246053.0 205377.0 202370.0 206425.0 212376.0 162701.0 158857.0 8092.0 0.0 243402.0 236487.0 243402.0 243402.0 243402.0 243402.0 243402.0 243402.0 236487.0 236487.0 236487.0 236487.0 236487.0 236487.0
53939.0 45598.0 76270.0 68795.0 125530.0 133371.0 196277.0 193212.0 136518.0 144566.0 176257.0 183114.0 137159.0 133236.0 262112.0 261115.0 109849.0 109735.0 123436.0 122800.0 101167.0 107939.0 110802.0 118974.0 183973.0 190633.0 289808.0 297692.0 183483.0 179018.0 100929.0 104309.0 314170.0 312230.0 65346.0 60282.0 45843.0 38771.0 89809.0 88942.0 284593.0 283373.0 88814.0 88170.0 287186.0 287395.0 320764.0 312829.0 153652.0 157491.0 165956.0 170149.0 248445.0 242216.0 127471.0 124066.0 245365.0 249851.0 67138.0 69266.0 258629.0 253719.0 250648.0 246410.0 64505.0 68264.0 100394.0 93350.0 44275.0 52073.0 36893.0 31861.0 131325.0 138409.0 155178.0 161762.0 88120.0 88461.0 249526.0 243402.0 0.0 158470.0 0.0 0.0 0.0 0.0 0.0 0.0 158470.0 158470.0 158470.0 158470.0 158470.0 158470.0
164492.0 159580.0 185857.0 178033.0 211398.0 216364.0 205896.0 208479.0 103757.0 106109.0 42206.0 49871.0 120399.0 125451.0 222342.0 226086.0 197172.0 191730.0 135005.0 142135.0 227928.0 235656.0 75595.0 73098.0 166018.0 166783.0 132322.0 140267.0 75084.0 78498.0 77703.0 70508.0 157477.0 155537.0 202490.0 198994.0 177392.0 172534.0 189257.0 182886.0 247775.0 250835.0 135524.0 127556.0 129679.0 129575.0 164164.0 156343.0 193176.0 200878.0 208560.0 206844.0 97988.0 93095.0 130820.0 136565.0 88159.0 92214.0 168584.0 163413.0 104040.0 100037.0 231534.0 224138.0 192835.0 192751.0 140747.0 142168.0 173963.0 179394.0 174691.0 172040.0 34986.0 35028.0 31579.0 28701.0 113104.0 121085.0 238506.0 236487.0 158470.0 0.0 158470.0 158470.0 158470.0 158470.0 158470.0 158470.0 0.0 0.0 0.0 0.0 0.0 0.0
53939.0 45598.0 76270.0 68795.0 125530.0 133371.0 196277.0 193212.0 136518.0 144566.0 176257.0 183114.0 137159.0 133236.0 262112.0 261115.0 109849.0 109735.0 123436.0 122800.0 101167.0 107939.0 110802.0 118974.0 183973.0 190633.0 289808.0 297692.0 183483.0 179018.0 100929.0 104309.0 314170.0 312230.0 65346.0 60282.0 45843.0 38771.0 89809.0 88942.0 284593.0 283373.0 88814.0 88170.0 287186.0 287395.0 320764.0 312829.0 153652.0 157491.0 165956.0 170149.0 248445.0 242216.0 127471.0 124066.0 245365.0 249851.0 67138.0 69266.0 258629.0 253719.0 250648.0 246410.0 64505.0 68264.0 100394.0 93350.0 44275.0 52073.0 36893.0 31861.0 131325.0 138409.0 155178.0 161762.0 88120.0 88461.0 249526.0 243402.0 0.0 158470.0 0.0 0.0 0.0 0.0 0.0 0.0 158470.0 158470.0 158470.0 158470.0 158470.0 158470.0
53939.0 45598.0 76270.0 68795.0 125530.0 133371.0 196277.0 193212.0 136518.0 144566.0 176257.0 183114.0 137159.0 133236.0 262112.0 261115.0 109849.0 109735.0 123436.0 122800.0 101167.0 107939.0 110802.0 118974.0 183973.0 190633.0 289808.0 297692.0 183483.0 179018.0 100929.0 104309.0 314170.0 312230.0 65346.0 60282.0 45843.0 38771.0 89809.0 88942.0 284593.0 283373.0 88814.0 88170.0 287186.0 287395.0 320764.0 312829.0 153652.0 157491.0 165956.0 170149.0 248445.0 242216.0 127471.0 124066.0 245365.0 249851.0 67138.0 69266.0 258629.0 253719.0 250648.0 246410.0 64505.0 68264.0 100394.0 93350.0 44275.0 52073.0 36893.0 31861.0 131325.0 138409.0 155178.0 161762.0 88120.0 88461.0 249526.0 243402.0 0.0 158470.0 0.0 0.0 0.0 0.0 0.0 0.0 158470.0 158470.0 158470.0 158470.0 158470.0 158470.0
53939.0 45598.0 76270.0 68795.0 125530.0 133371.0 196277.0 193212.0 136518.0 144566.0 176257.0 183114.0 137159.0 133236.0 262112.0 261115.0 109849.0 109735.0 123436.0 122800.0 101167.0 107939.0 110802.0 118974.0 183973.0 190633.0 289808.0 297692.0 183483.0 179018.0 100929.0 104309.0 314170.0 312230.0 65346.0 60282.0 45843.0 38771.0 89809.0 88942.0 284593.0 283373.0 88814.0 88170.0 287186.0 287395.0 320764.0 312829.0 153652.0 157491.0 165956.0 170149.0 248445.0 242216.0 127471.0 124066.0 245365.0 249851.0 67138.0 69266.0 258629.0 253719.0 250648.0 246410.0 64505.0 68264.0 100394.0 93350.0 44275.0 52073.0 36893.0 31861.0 131325.0 138409.0 155178.0 161762.0 88120.0 88461.0 249526.0 243402.0 0.0 158470.0 0.0 0.0 0.0 0.0 0.0 0.0 158470.0 158470.0 158470.0 158470.0 158470.0 158470.0
53939.0 45598.0 76270.0 68795.0 125530.0 133371.0 196277.0 193212.0 136518.0 144566.0 176257.0 183114.0 137159.0 133236.0 262112.0 261115.0 109849.0 109735.0 123436.0 122800.0 101167.0 107939.0 110802.0 118974.0 183973.0 190633.0 289808.0 297692.0 183483.0 179018.0 100929.0 104309.0 314170.0 312230.0 65346.0 60282.0 45843.0 38771.0 89809.0 88942.0 284593.0 283373.0 88814.0 88170.0 287186.0 287395.0 320764.0 312829.0 153652.0 157491.0 165956.0 170149.0 248445.0 242216.0 127471.0 124066.0 245365.0 249851.0 67138.0 69266.0 258629.0 253719.0 250648.0 246410.0 64505.0 68264.0 100394.0 93350.0 44275.0 52073.0 36893.0 31861.0 131325.0 138409.0 155178.0 161762.0 88120.0 88461.0 249526.0 243402.0 0.0 158470.0 0.0 0.0 0.0 0.0 0.0 0.0 158470.0 158470.0 158470.0 158470.0 158470.0 158470.0
53939.0 45598.0 76270.0 68795.0 125530.0 133371.0 196277.0 193212.0 136518.0 144566.0 176257.0 183114.0 137159.0 133236.0 262112.0 261115.0 109849.0 109735.0 123436.0 122800.0 101167.0 107939.0 110802.0 118974.0 183973.0 190633.0 289808.0 297692.0 183483.0 179018.0 100929.0 104309.0 314170.0 312230.0 65346.0 60282.0 45843.0 38771.0 89809.0 88942.0 284593.0 283373.0 88814.0 88170.0 287186.0 287395.0 320764.0 312829.0 153652.0 157491.0 165956.0 170149.0 248445.0 242216.0 127471.0 124066.0 245365.0 249851.0 67138.0 69266.0 258629.0 253719.0 250648.0 246410.0 64505.0 68264.0 100394.0 93350.0 44275.0 52073.0 36893.0 31861.0 131325.0 138409.0 155178.0 161762.0 88120.0 88461.0 249526.0 243402.0 0.0 158470.0 0.0 0.0 0.0 0.0 0.0 0.0 158470.0 158470.0 158470.0 158470.0 158470.0 158470.0
53939.0 45598.0 76270.0 68795.0 125530.0 133371.0 196277.0 193212.0 136518.0 144566.0 176257.0 183114.0 137159.0 133236.0 262112.0 261115.0 109849.0 109735.0 123436.0 122800.0 101167.0 107939.0 110802.0 118974.0 183973.0 190633.0 289808.0 297692.0 183483.0 179018.0 100929.0 104309.0 314170.0 312230.0 65346.0 60282.0 45843.0 38771.0 89809.0 88942.0 284593.0 283373.0 88814.0 88170.0 287186.0 287395.0 320764.0 312829.0 153652.0 157491.0 165956.0 170149.0 248445.0 242216.0 127471.0 124066.0 245365.0 249851.0 67138.0 69266.0 258629.0 253719.0 250648.0 246410.0 64505.0 68264.0 100394.0 93350.0 44275.0 52073.0 36893.0 31861.0 131325.0 138409.0 155178.0 161762.0 88120.0 88461.0 249526.0 243402.0 0.0 158470.0 0.0 0.0 0.0 0.0 0.0 0.0 158470.0 158470.0 158470.0 158470.0 158470.0 158470.0
164492.0 159580.0 185857.0 178033.0 211398.0 216364.0 205896.0 208479.0 103757.0 106109.0 42206.0 49871.0 120399.0 125451.0 222342.0 226086.0 197172.0 191730.0 135005.0 142135.0 227928.0 235656.0 75595.0 73098.0 166018.0 166783.0 132322.0 140267.0 75084.0 78498.0 77703.0 70508.0 157477.0 155537.0 202490.0 198994.0 177392.0 172534.0 189257.0 182886.0 247775.0 250835.0 135524.0 127556.0 129679.0 129575.0 164164.0 156343.0 193176.0 200878.0 208560.0 206844.0 97988.0 93095.0 130820.0 136565.0 88159.0 92214.0 168584.0 163413.0 104040.0 100037.0 231534.0 224138.0 192835.0 192751.0 140747.0 142168.0 173963.0 179394.0 174691.0 172040.0 34986.0 35028.0 31579.0 28701.0 113104.0 121085.0 238506.0 236487.0 158470.0 0.0 158470.0 158470.0 158470.0 158470.0 158470.0 158470.0 0.0 0.0 0.0 0.0 0.0 0.0
164492.0 159580.0 185857.0 178033.0 211398.0 216364.0 205896.0 208479.0 103757.0 106109.0 42206.0 49871.0 120399.0 125451.0 222342.0 226086.0 197172.0 191730.0 135005.0 142135.0 227928.0 235656.0 75595.0 73098.0 166018.0 166783.0 132322.0 140267.0 75084.0 78498.0 77703.0 70508.0 157477.0 155537.0 202490.0 198994.0 177392.0 172534.0 189257.0 182886.0 247775.0 250835.0 135524.0 127556.0 129679.0 129575.0 164164.0 156343.0 193176.0 200878.0 208560.0 206844.0 97988.0 93095.0 130820.0 136565.0 88159.0 92214.0 168584.0 163413.0 104040.0 100037.0 231534.0 224138.0 192835.0 192751.0 140747.0 142168.0 173963.0 179394.0 174691.0 172040.0 34986.0 35028.0 31579.0 28701.0 113104.0 121085.0 238506.0 236487.0 158470.0 0.0 158470.0 158470.0 158470.0 158470.0 158470.0 158470.0 0.0 0.0 0.0 0.0 0.0 0.0
164492.0 159580.0 185857.0 178033.0 211398.0 216364.0 205896.0 208479.0 103757.0 106109.0 42206.0 49871.0 120399.0 125451.0 222342.0 226086.0 197172.0 191730.0 135005.0 142135.0 227928.0 235656.0 75595.0 73098.0 166018.0 166783.0 132322.0 140267.0 75084.0 78498.0 77703.0 70508.0 157477.0 155537.0 202490.0 198994.0 177392.0 172534.0 189257.0 182886.0 247775.0 250835.0 135524.0 127556.0 129679.0 129575.0 164164.0 156343.0 193176.0 200878.0 208560.0 206844.0 97988.0 93095.0 130820.0 136565.0 88159.0 92214.0 168584.0 163413.0 104040.0 100037.0 231534.0 224138.0 192835.0 192751.0 140747.0 142168.0 173963.0 179394.0 174691.0 172040.0 34986.0 35028.0 31579.0 28701.0 113104.0 121085.0 238506.0 236487.0 158470.0 0.0 158470.0 158470.0 158470.0 158470.0 158470.0 158470.0 0.0 0.0 0.0 0.0 0.0 0.0
164492.0 159580.0 185857.0 178033.0 211398.0 216364.0 205896.0 208479.0 103757.0 106109.0 42206.0 49871.0 120399.0 125451.0 222342.0 226086.0 197172.0 191730.0 135005.0 142135.0 227928.0 235656.0 75595.0 73098.0 166018.0 166783.0 132322.0 140267.0 75084.0 78498.0 77703.0 70508.0 157477.0 155537.0 202490.0 198994.0 177392.0 172534.0 189257.0 182886.0 247775.0 250835.0 135524.0 127556.0 129679.0 129575.0 164164.0 156343.0 193176.0 200878.0 208560.0 206844.0 97988.0 93095.0 130820.0 136565.0 88159.0 92214.0 168584.0 163413.0 104040.0 100037.0 231534.0 224138.0 192835.0 192751.0 140747.0 142168.0 173963.0 179394.0 174691.0 172040.0 34986.0 35028.0 31579.0 28701.0 113104.0 121085.0 238506.0 236487.0 158470.0 0.0 158470.0 158470.0 158470.0 158470.0 158470.0 158470.0 0.0 0.0 0.0 0.0 0.0 0.0
164492.0 159580.0 185857.0 178033.0 211398.0 216364.0 205896.0 208479.0 103757.0 106109.0 42206.0 49871.0 120399.0 125451.0 222342.0 226086.0 197172.0 191730.0 135005.0 142135.0 227928.0 235656.0 75595.0 73098.0 166018.0 166783.0 132322.0 140267.0 75084.0 78498.0 77703.0 70508.0 157477.0 155537.0 202490.0 198994.0 177392.0 172534.0 189257.0 182886.0 247775.0 250835.0 135524.0 127556.0 129679.0 129575.0 164164.0 156343.0 193176.0 200878.0 208560.0 206844.0 97988.0 93095.0 130820.0 136565.0 88159.0 92214.0 168584.0 163413.0 104040.0 100037.0 231534.0 224138.0 192835.0 192751.0 140747.0 142168.0 173963.0 179394.0 174691.0 172040.0 34986.0 35028.0 31579.0 28701.0 113104.0 121085.0 238506.0 236487.0 158470.0 0.0 158470.0 158470.0 158470.0 158470.0 158470.0 158470.0 0.0 0.0 0.0 0.0 0.0 0.0
164492.0 159580.0 185857.0 178033.0 211398.0 216364.0 205896.0 208479.0 103757.0 106109.0 42206.0 49871.0 120399.0 125451.0 222342.0 226086.0 197172.0 191730.0 135005.0 142135.0 227928.0 235656.0 75595.0 73098.0 166018.0 166783.0 132322.0 140267.0 75084.0 78498.0 77703.0 70508.0 157477.0 155537.0 202490.0 198994.0 177392.0 172534.0 189257.0 182886.0 247775.0 250835.0 135524.0 127556.0 129679.0 129575.0 164164.0 156343.0 193176.0 200878.0 208560.0 206844.0 97988.0 93095.0 130820.0 136565.0 88159.0 92214.0 168584.0 163413.0 104040.0 100037.0 231534.0 224138.0 192835.0 192751.0 140747.0 142168.0 173963.0 179394.0 174691.0 172040.0 34986.0 35028.0 31579.0 28701.0 113104.0 121085.0 238506.0 236487.0 158470.0 0.0 158470.0 158470.0 158470.0 158470.0 158470.0 158470.0 0.0 0.0 0.0 0.0 0.0 0.0
FIXED_EDGES_SECTION
1 2
3 4
5 6
7 8
9 10
11 12
13 14
15 16
17 18
19 20
21 22
23 24
25 26
27 28
29 30
31 32
33 34
35 36
37 38
39 40
41 42
43 44
45 46
47 48
49 50
51 52
53 54
55 56
57 58
59 60
61 62
63 64
65 66
67 68
69 70
71 72
73 74
75 76
77 78
79 80
-1 
DEMAND_SECTION
1 100
2 100
3 493
4 493
5 55
6 55
7 72
8 72
9 177
10 177
11 313
12 313
13 90
14 90
15 234
16 234
17 461
18 461
19 256
20 256
21 316
22 316
23 324
24 324
25 112
26 112
27 99
28 99
29 68
30 68
31 75
32 75
33 71
34 71
35 369
36 369
37 341
38 341
39 57
40 57
41 120
42 120
43 277
44 277
45 60
46 60
47 421
48 421
49 90
50 90
51 211
52 211
53 244
54 244
55 89
56 89
57 184
58 184
59 155
60 155
61 341
62 341
63 258
64 258
65 247
66 247
67 119
68 119
69 104
70 104
71 97
72 97
73 100
74 100
75 371
76 371
77 56
78 56
79 380
80 380
81 0
82 0
83 0
84 0
85 0
86 0
87 0
88 0
89 0
90 0
91 0
92 0
93 0
94 0
DEPOT_SECTION
81 
-1 
CAPACITIES_SECTION
2500 
2750 
3000 
-1 
EOF