NAME: GFS_20_1
TYPE: GFSP
DIMENSION: 166
VEHICLES: 3
CAPACITY: 20000.0
TRIP_DIST_LIMIT: 1050000.0
TOTAL_DIST_LIMIT: 1400000.0
EDGE_WEIGHT_TYPE: EXPLICIT
EDGE_WEIGHT_FORMAT: FULL_MATRIX
EDGE_WEIGHT_SECTION
0.0 8160.0 76898.0 68870.0 88027.0 90684.0 71470.0 63517.0 153194.0 150382.0 155199.0 162074.0 59153.0 66945.0 352126.0 358782.0 196426.0 202318.0 180401.0 177226.0 381299.0 373283.0 94859.0 88005.0 119189.0 125095.0 201014.0 196629.0 106281.0 100483.0 174433.0 166617.0 162887.0 159051.0 379601.0 379670.0 164982.0 157722.0 100233.0 108188.0 119325.0 113991.0 349823.0 341599.0 196092.0 187703.0 304948.0 312612.0 144332.0 150492.0 40853.0 48073.0 391770.0 388131.0 349924.0 352914.0 120518.0 113709.0 126134.0 121726.0 124073.0 129324.0 167773.0 174177.0 159232.0 152738.0 58698.0 58137.0 236025.0 242249.0 117041.0 118919.0 134319.0 141498.0 135472.0 128180.0 155967.0 156254.0 136421.0 135839.0 36526.0 39237.0 342561.0 335840.0 117715.0 122312.0 172827.0 172087.0 219924.0 219028.0 173638.0 168266.0 280941.0 277842.0 52891.0 47954.0 27594.0 36112.0 128083.0 122015.0 142862.0 145677.0 173508.0 177318.0 93910.0 93191.0 109553.0 112397.0 39388.0 36216.0 172984.0 177161.0 145758.0 137906.0 251233.0 243592.0 195389.0 190263.0 200376.0 205794.0 52157.0 54881.0 187695.0 183164.0 132656.0 125259.0 156444.0 158925.0 124828.0 117924.0 306668.0 305411.0 102030.0 98492.0 222995.0 223325.0 86313.0 88007.0 371732.0 363630.0 254417.0 246750.0 102427.0 98245.0 72234.0 69452.0 178907.0 173787.0 71431.0 67510.0 100271.0 92695.0 117772.0 124210.0 147839.0 154339.0 95494.0 90336.0 131043.0 123328.0 205338.0 239442.0 205338.0 205338.0 239442.0 239442.0
8160.0 0.0 84889.0 76884.0 96140.0 98842.0 79108.0 71208.0 157226.0 154046.0 157898.0 164519.0 62411.0 70254.0 356975.0 363711.0 193471.0 199568.0 184722.0 181823.0 386655.0 378642.0 89906.0 82753.0 122763.0 129011.0 204407.0 200097.0 108572.0 102374.0 170525.0 162660.0 159189.0 155692.0 384376.0 384306.0 169730.0 162340.0 100021.0 107952.0 122996.0 117309.0 354211.0 346009.0 201270.0 192857.0 310381.0 317995.0 146860.0 152749.0 43622.0 51345.0 396618.0 393100.0 354745.0 357605.0 128678.0 121866.0 122346.0 118369.0 124112.0 129740.0 169878.0 176425.0 154462.0 147778.0 60637.0 58974.0 239423.0 245798.0 119996.0 122371.0 142309.0 149449.0 130072.0 122960.0 151473.0 152123.0 140203.0 140037.0 42823.0 44441.0 347456.0 340818.0 116974.0 121112.0 170135.0 169050.0 224994.0 224326.0 171387.0 166296.0 285449.0 282535.0 53014.0 47125.0 27054.0 35126.0 136112.0 129977.0 139182.0 142394.0 168584.0 172668.0 92337.0 92319.0 111416.0 114762.0 38364.0 36891.0 167637.0 171577.0 150101.0 142293.0 256330.0 248752.0 192048.0 186676.0 196359.0 201997.0 58057.0 61489.0 183978.0 179218.0 128099.0 120919.0 158750.0 160848.0 126561.0 119944.0 311049.0 309977.0 97696.0 94668.0 227406.0 227978.0 86686.0 87602.0 377131.0 369006.0 259796.0 252187.0 110016.0 105619.0 69428.0 65831.0 175835.0 170453.0 77992.0 73588.0 108358.0 100758.0 117577.0 124338.0 150308.0 157033.0 96566.0 90893.0 131635.0 124171.0 203519.0 242642.0 203519.0 203519.0 242642.0 242642.0
76898.0 84889.0 0.0 8092.0 13938.0 20806.0 43670.0 41879.0 151233.0 152670.0 166293.0 174706.0 90517.0 94179.0 328881.0 334431.0 248289.0 252608.0 172032.0 166062.0 351420.0 343523.0 162315.0 157036.0 127739.0 129024.0 200702.0 195910.0 129045.0 127709.0 233044.0 225801.0 220705.0 215035.0 356563.0 358214.0 153462.0 148658.0 142228.0 149074.0 126903.0 126098.0 331860.0 323622.0 176193.0 168853.0 276089.0 284124.0 158413.0 166209.0 85628.0 85576.0 367632.0 362682.0 327059.0 331452.0 48697.0 40690.0 186264.0 179821.0 160875.0 162727.0 182898.0 187361.0 223187.0 217890.0 98638.0 104407.0 233256.0 237550.0 131830.0 128704.0 71642.0 79453.0 203301.0 195395.0 218544.0 216822.0 139640.0 134817.0 63868.0 71436.0 319023.0 311521.0 160613.0 167643.0 224004.0 225496.0 199517.0 195880.0 221902.0 214960.0 263906.0 258815.0 104532.0 105311.0 91867.0 98104.0 51266.0 45137.0 201492.0 201893.0 237899.0 240099.0 144996.0 140385.0 135079.0 133262.0 100314.0 92551.0 239628.0 244941.0 141519.0 134464.0 228667.0 220673.0 249780.0 246381.0 258814.0 262724.0 67066.0 59734.0 244699.0 241701.0 196455.0 188297.0 170996.0 176608.0 148676.0 140599.0 290090.0 286789.0 166338.0 160664.0 210088.0 207627.0 127278.0 133364.0 341524.0 333880.0 228234.0 220221.0 29957.0 30184.0 132565.0 133554.0 232236.0 228962.0 63636.0 68712.0 38714.0 35253.0 157027.0 160366.0 161995.0 165583.0 129826.0 129249.0 162911.0 154368.0 249526.0 238506.0 249526.0 249526.0 238506.0 238506.0
68870.0 76884.0 8092.0 0.0 20347.0 25733.0 40154.0 37058.0 148656.0 149672.0 162578.0 170923.0 83892.0 87929.0 329614.0 335303.0 241609.0 246053.0 170360.0 164641.0 352968.0 345042.0 154493.0 149137.0 123775.0 125532.0 198402.0 193618.0 123841.0 122128.0 225861.0 218566.0 213549.0 207987.0 357332.0 358807.0 151948.0 146813.0 135748.0 142731.0 123018.0 121774.0 332003.0 323746.0 175863.0 168336.0 277330.0 285347.0 154339.0 162062.0 78165.0 78457.0 368548.0 363738.0 327744.0 331987.0 55110.0 47339.0 178880.0 172538.0 154924.0 157050.0 178949.0 183628.0 215649.0 210275.0 91694.0 97225.0 231403.0 235922.0 127354.0 124639.0 76306.0 84115.0 195522.0 187637.0 211082.0 209482.0 136381.0 131921.0 56409.0 64101.0 319765.0 312334.0 154219.0 161126.0 217312.0 218650.0 199418.0 196078.0 215415.0 208565.0 263740.0 258854.0 97095.0 97646.0 83885.0 90223.0 59230.0 53206.0 194239.0 194794.0 230355.0 232658.0 137963.0 133554.0 129735.0 128277.0 92482.0 84782.0 231952.0 237205.0 139058.0 131816.0 228982.0 220989.0 242920.0 239393.0 251686.0 255707.0 60613.0 53630.0 237646.0 234539.0 188882.0 180751.0 167001.0 172374.0 143635.0 135561.0 289963.0 286881.0 158673.0 153092.0 209201.0 207038.0 120711.0 126584.0 343091.0 335377.0 228973.0 220962.0 37176.0 36304.0 124968.0 125797.0 225412.0 222002.0 59170.0 63592.0 42115.0 37323.0 150864.0 154459.0 157951.0 161847.0 123742.0 122840.0 157356.0 148802.0 243402.0 236487.0 243402.0 243402.0 236487.0 236487.0
88027.0 96140.0 13938.0 20347.0 0.0 8030.0 41968.0 42802.0 145476.0 147620.0 162460.0 170960.0 93853.0 96468.0 318115.0 323506.0 250925.0 254870.0 164726.0 158402.0 339782.0 331919.0 169446.0 164631.0 124636.0 125027.0 194276.0 189485.0 128476.0 128004.0 237309.0 230262.0 224904.0 218885.0 345738.0 347586.0 146002.0 141731.0 144671.0 151107.0 123656.0 123713.0 321777.0 313569.0 166961.0 159896.0 264813.0 272862.0 155306.0 163200.0 91657.0 90432.0 356640.0 351541.0 316347.0 320907.0 34883.0 27010.0 191373.0 184577.0 161836.0 163013.0 179428.0 183465.0 228814.0 223863.0 102784.0 109242.0 226040.0 229985.0 129700.0 125786.0 57995.0 65788.0 210098.0 202096.0 223871.0 221688.0 135138.0 129713.0 70242.0 77229.0 308253.0 300679.0 162720.0 170053.0 226727.0 228677.0 189920.0 185915.0 224045.0 216867.0 254276.0 248935.0 110261.0 111952.0 100349.0 105878.0 40799.0 36042.0 206078.0 205945.0 243527.0 245305.0 149052.0 143844.0 134772.0 132179.0 107800.0 99785.0 245843.0 251443.0 135629.0 128936.0 218495.0 210513.0 252954.0 249968.0 262840.0 266372.0 70413.0 62447.0 248499.0 245878.0 202290.0 194042.0 167670.0 173719.0 147605.0 139577.0 280379.0 276810.0 172667.0 166607.0 201516.0 198652.0 130064.0 136715.0 329872.0 322301.0 217565.0 209562.0 30066.0 33796.0 138735.0 140452.0 235333.0 232492.0 62672.0 68927.0 26537.0 25062.0 158540.0 161219.0 158810.0 161793.0 131316.0 131587.0 162910.0 154439.0 250648.0 231534.0 250648.0 250648.0 231534.0 231534.0
90684.0 98842.0 20806.0 25733.0 8030.0 0.0 37740.0 39976.0 138517.0 140900.0 156162.0 164680.0 91295.0 93311.0 310087.0 315476.0 247450.0 251195.0 157282.0 150872.0 331782.0 323915.0 168780.0 164286.0 118722.0 118751.0 187055.0 182269.0 123674.0 123621.0 234750.0 227826.0 222325.0 216119.0 337709.0 339561.0 138535.0 134416.0 141320.0 147517.0 117686.0 118108.0 313786.0 305581.0 159095.0 152081.0 256788.0 264837.0 149308.0 157226.0 90705.0 88785.0 348609.0 343513.0 308320.0 312886.0 30104.0 23025.0 189388.0 182400.0 157664.0 158507.0 173243.0 177111.0 227072.0 222341.0 100609.0 107421.0 218583.0 222439.0 124183.0 119946.0 50890.0 58706.0 209122.0 201074.0 221955.0 219502.0 128642.0 123010.0 69786.0 76306.0 300225.0 292649.0 159132.0 166606.0 223332.0 225526.0 181994.0 177946.0 220348.0 213059.0 246337.0 240967.0 108970.0 111219.0 100918.0 105925.0 41079.0 37756.0 203756.0 203316.0 241764.0 243285.0 146575.0 141052.0 130070.0 127123.0 107642.0 99522.0 244439.0 250213.0 128644.0 122087.0 210502.0 202521.0 249766.0 247009.0 260112.0 263429.0 68160.0 59992.0 245662.0 243256.0 200722.0 192436.0 161561.0 167774.0 142504.0 134523.0 272427.0 268830.0 171476.0 165192.0 193757.0 190820.0 126961.0 133892.0 321873.0 314296.0 209541.0 201539.0 36784.0 41251.0 137562.0 139734.0 232127.0 229527.0 58248.0 64998.0 18525.0 17383.0 154658.0 156996.0 152773.0 155512.0 127520.0 128236.0 158267.0 149854.0 246410.0 224138.0 246410.0 246410.0 224138.0 224138.0
71470.0 79108.0 43670.0 40154.0 41968.0 37740.0 0.0 8039.0 108608.0 109519.0 122662.0 131059.0 54625.0 55894.0 294240.0 300267.0 209734.0 213455.0 131010.0 125627.0 319759.0 311768.0 134949.0 131286.0 84070.0 85473.0 158459.0 153685.0 86533.0 86073.0 197570.0 190773.0 185139.0 178776.0 321983.0 323027.0 112858.0 107338.0 103677.0 109795.0 83234.0 82535.0 295263.0 286984.0 138700.0 130839.0 243507.0 251432.0 114751.0 122557.0 57642.0 53964.0 333545.0 329114.0 292257.0 296130.0 59648.0 55811.0 152960.0 145729.0 120008.0 121058.0 139229.0 143728.0 190903.0 186532.0 64443.0 71814.0 191768.0 196503.0 88354.0 85046.0 64975.0 71548.0 174362.0 166258.0 185544.0 182741.0 96248.0 91781.0 39880.0 44148.0 284442.0 277212.0 121408.0 128913.0 185640.0 187928.0 162602.0 159968.0 182608.0 175321.0 226524.0 222081.0 74480.0 78084.0 72280.0 75277.0 77729.0 75296.0 166861.0 166104.0 205534.0 206696.0 109642.0 103798.0 92808.0 90348.0 76280.0 68149.0 208771.0 214834.0 99079.0 91752.0 192957.0 185008.0 212143.0 209510.0 222768.0 225931.0 32716.0 24553.0 208244.0 206012.0 164901.0 156582.0 127327.0 132974.0 105787.0 97736.0 252758.0 250137.0 136487.0 129807.0 170836.0 169198.0 89480.0 96628.0 309968.0 302072.0 194015.0 186060.0 71331.0 73343.0 102900.0 106099.0 194501.0 192032.0 20705.0 27261.0 35210.0 27625.0 116924.0 119363.0 118329.0 121945.0 89780.0 90605.0 120942.0 112474.0 208797.0 196710.0 208797.0 208797.0 196710.0 196710.0
63517.0 71208.0 41879.0 37058.0 42802.0 39976.0 8039.0 0.0 113179.0 113578.0 125751.0 134046.0 51328.0 53668.0 301095.0 307195.0 208127.0 212110.0 136437.0 131316.0 327017.0 319020.0 129925.0 125924.0 86845.0 88956.0 163163.0 158411.0 87167.0 85967.0 194815.0 187864.0 182394.0 176254.0 328830.0 329770.0 118529.0 112717.0 101870.0 108348.0 86133.0 84724.0 301753.0 293472.0 145222.0 137261.0 250704.0 258608.0 117337.0 125036.0 52028.0 49204.0 340464.0 336115.0 299086.0 302866.0 64648.0 60035.0 149449.0 142429.0 119440.0 121017.0 141984.0 146772.0 187201.0 182581.0 60666.0 67621.0 196841.0 201775.0 90298.0 87660.0 72160.0 78927.0 169810.0 161727.0 182026.0 179527.0 100016.0 96046.0 32974.0 38031.0 291314.0 284133.0 119956.0 127259.0 183925.0 185898.0 169192.0 166766.0 181297.0 174164.0 232906.0 228612.0 69625.0 72621.0 65444.0 68958.0 80873.0 77705.0 163781.0 163396.0 201880.0 203329.0 106611.0 101181.0 93221.0 91411.0 70179.0 61999.0 204739.0 210633.0 103835.0 96329.0 199731.0 191804.0 210170.0 207249.0 220236.0 223661.0 28257.0 20038.0 205834.0 203340.0 160948.0 152648.0 130022.0 135327.0 106815.0 98737.0 259124.0 256655.0 132020.0 125557.0 176810.0 175412.0 87280.0 94033.0 317245.0 309322.0 201040.0 193106.0 70908.0 72035.0 98211.0 100936.0 192544.0 189769.0 22142.0 26843.0 40800.0 32965.0 115915.0 118877.0 120958.0 125006.0 88671.0 88788.0 121123.0 112591.0 208225.0 201614.0 208225.0 208225.0 201614.0 201614.0
153194.0 157226.0 151233.0 148656.0 145476.0 138517.0 108608.0 113179.0 0.0 8419.0 28015.0 34707.0 95054.0 87265.0 201317.0 208405.0 154516.0 154256.0 28224.0 27871.0 233873.0 225962.0 146330.0 148912.0 35332.0 28258.0 50007.0 45275.0 56394.0 64399.0 160139.0 156787.0 149907.0 141721.0 228326.0 227796.0 20724.0 14177.0 86626.0 84231.0 34751.0 41699.0 197202.0 189030.0 52769.0 45272.0 159310.0 166297.0 31769.0 36378.0 113928.0 105987.0 240823.0 237856.0 198974.0 201329.0 141837.0 144067.0 136650.0 128633.0 76874.0 70312.0 43495.0 43972.0 168533.0 168745.0 99237.0 104369.0 84213.0 89776.0 41714.0 36269.0 121861.0 121126.0 168306.0 161655.0 161469.0 154752.0 17655.0 17613.0 119067.0 114335.0 192061.0 185893.0 89197.0 95702.0 135934.0 142105.0 73055.0 75201.0 128055.0 120238.0 128804.0 126583.0 111805.0 119791.0 133460.0 128507.0 167152.0 168882.0 140561.0 134672.0 179909.0 176622.0 104204.0 96580.0 58306.0 51045.0 126382.0 123156.0 188391.0 196167.0 9904.0 16862.0 103429.0 96681.0 161493.0 163194.0 178349.0 177482.0 103696.0 105088.0 164192.0 165996.0 151868.0 145429.0 36012.0 44036.0 51451.0 51208.0 154057.0 153428.0 139158.0 131675.0 70737.0 72439.0 87467.0 93833.0 224784.0 216553.0 109651.0 103095.0 175296.0 179171.0 122078.0 130076.0 146443.0 148664.0 92043.0 91150.0 123863.0 121450.0 81368.0 75511.0 32398.0 28001.0 75421.0 83416.0 67276.0 64992.0 141771.0 88619.0 141771.0 141771.0 88619.0 88619.0
150382.0 154046.0 152670.0 149672.0 147620.0 140900.0 109519.0 113578.0 8419.0 0.0 20301.0 27703.0 91652.0 83812.0 206193.0 213402.0 146242.0 146077.0 34038.0 35031.0 239507.0 231634.0 139275.0 142112.0 31293.0 25634.0 50919.0 46392.0 50419.0 58372.0 151723.0 148390.0 141510.0 133322.0 232984.0 232211.0 29042.0 22576.0 79531.0 76749.0 31065.0 37104.0 201291.0 193120.0 60333.0 53101.0 165494.0 172337.0 23352.0 28122.0 110511.0 102701.0 245577.0 242824.0 203807.0 205916.0 145856.0 147672.0 128659.0 120691.0 68795.0 62097.0 36729.0 38190.0 160246.0 160540.0 95076.0 99736.0 85801.0 91875.0 36044.0 31821.0 127005.0 126678.0 160391.0 153827.0 153176.0 146420.0 14108.0 17909.0 117102.0 111928.0 197059.0 191071.0 81283.0 87642.0 127539.0 133693.0 79695.0 82323.0 119697.0 111867.0 133330.0 131540.0 107141.0 115095.0 129623.0 124279.0 170995.0 172371.0 132306.0 126355.0 171552.0 168229.0 97169.0 89686.0 51667.0 44738.0 122014.0 119242.0 180086.0 187870.0 14951.0 19185.0 109542.0 103039.0 153155.0 154807.0 169963.0 169141.0 102056.0 104096.0 155789.0 157579.0 143859.0 137521.0 28216.0 36262.0 43692.0 44114.0 158191.0 157952.0 131821.0 124412.0 75568.0 77966.0 81305.0 87310.0 230529.0 222294.0 116271.0 109935.0 177596.0 181141.0 115898.0 123965.0 138050.0 140248.0 91971.0 90353.0 126953.0 124067.0 73490.0 67434.0 24030.0 20170.0 69095.0 77116.0 59023.0 57035.0 133739.0 89649.0 133739.0 133739.0 89649.0 89649.0
155199.0 157898.0 166293.0 162578.0 162460.0 156162.0 122662.0 125751.0 28015.0 20301.0 0.0 8532.0 96108.0 88403.0 210104.0 217615.0 126975.0 126467.0 45465.0 49363.0 245467.0 237744.0 130978.0 134834.0 39015.0 37433.0 48980.0 45509.0 49612.0 56658.0 134417.0 131657.0 124807.0 116625.0 236133.0 234682.0 47070.0 41868.0 72316.0 67762.0 39635.0 42363.0 203308.0 195140.0 74515.0 68403.0 173573.0 179916.0 11448.0 10039.0 114442.0 107146.0 248934.0 246804.0 207612.0 209018.0 163424.0 164685.0 115752.0 108172.0 56387.0 48769.0 17433.0 21068.0 144889.0 145893.0 97414.0 100598.0 83126.0 90228.0 38317.0 38440.0 145930.0 145994.0 147703.0 141684.0 137787.0 130654.0 28053.0 35141.0 124400.0 118307.0 201376.0 195946.0 69649.0 74848.0 109235.0 115732.0 90444.0 94495.0 100987.0 93304.0 136968.0 136391.0 107723.0 115404.0 132086.0 125759.0 188245.0 189128.0 117400.0 110858.0 155394.0 151527.0 89677.0 83009.0 48172.0 43368.0 123137.0 121681.0 164474.0 172323.0 35101.0 37822.0 118069.0 112418.0 134238.0 136331.0 151455.0 150229.0 110373.0 113735.0 137556.0 139802.0 130703.0 125041.0 8000.0 16024.0 35361.0 39454.0 160449.0 161273.0 122362.0 115392.0 81477.0 85629.0 77804.0 82222.0 236861.0 228655.0 126243.0 120699.0 192526.0 195512.0 111374.0 119540.0 119698.0 122440.0 103660.0 100694.0 143363.0 139810.0 62341.0 55091.0 8750.0 867.0 65557.0 73281.0 45442.0 46128.0 113808.0 85477.0 113808.0 113808.0 85477.0 85477.0
162074.0 164519.0 174706.0 170923.0 170960.0 164680.0 131059.0 134046.0 34707.0 27703.0 8532.0 0.0 103135.0 95512.0 207125.0 214739.0 122296.0 121341.0 47737.0 52714.0 243253.0 235607.0 133474.0 137756.0 47220.0 45938.0 45452.0 42604.0 55956.0 62560.0 131612.0 129316.0 122522.0 114388.0 232794.0 231082.0 52282.0 47949.0 75912.0 70668.0 47914.0 50183.0 199703.0 191536.0 77143.0 71705.0 172475.0 178573.0 17782.0 12281.0 121241.0 114106.0 245653.0 243774.0 204597.0 205721.0 171894.0 173195.0 116015.0 108716.0 57827.0 49919.0 9094.0 12746.0 143471.0 144934.0 103907.0 106660.0 78411.0 85801.0 45729.0 46531.0 154164.0 154100.0 147903.0 142214.0 136379.0 129023.0 36540.0 43476.0 131918.0 125655.0 198585.0 193399.0 71193.0 75643.0 105663.0 112449.0 91179.0 95848.0 97047.0 89567.0 134172.0 134094.0 113652.0 121203.0 138421.0 131847.0 196744.0 197650.0 116428.0 109534.0 153383.0 149130.0 92891.0 86655.0 53763.0 49757.0 129134.0 128057.0 162812.0 170680.0 42654.0 45967.0 117489.0 112272.0 129940.0 132478.0 147529.0 145893.0 118128.0 121704.0 133932.0 136580.0 130725.0 125481.0 6380.0 11266.0 39783.0 45020.0 156985.0 158223.0 124375.0 117665.0 80218.0 85052.0 82729.0 86506.0 234821.0 226645.0 126257.0 121125.0 201025.0 203976.0 115565.0 123709.0 116031.0 119261.0 111932.0 108801.0 151892.0 148341.0 64308.0 56608.0 14235.0 9169.0 70680.0 78161.0 46570.0 48759.0 108260.0 80183.0 108260.0 108260.0 80183.0 80183.0
59153.0 62411.0 90517.0 83892.0 93853.0 91295.0 54625.0 51328.0 95054.0 91652.0 96108.0 103135.0 0.0 7844.0 295703.0 302599.0 157774.0 162162.0 122833.0 120413.0 326592.0 318604.0 82275.0 79803.0 60362.0 66797.0 142023.0 137695.0 47795.0 42994.0 143503.0 136537.0 131087.0 125033.0 322942.0 322639.0 108721.0 101074.0 51905.0 59077.0 60624.0 54927.0 292227.0 284053.0 141254.0 132825.0 250721.0 258151.0 85360.0 91768.0 18881.0 11099.0 335312.0 332041.0 293421.0 296047.0 114036.0 110436.0 98345.0 91183.0 72405.0 75787.0 109179.0 115399.0 136280.0 131975.0 10336.0 18434.0 177042.0 183389.0 57895.0 59962.0 114505.0 119687.0 120411.0 112298.0 130932.0 128253.0 77868.0 78121.0 31152.0 23651.0 286290.0 279838.0 70452.0 77244.0 133487.0 135060.0 164528.0 164562.0 131534.0 124747.0 223668.0 221059.0 23636.0 30310.0 38733.0 35153.0 132057.0 129033.0 112466.0 112106.0 150909.0 152133.0 55283.0 50028.0 51901.0 53735.0 33864.0 28771.0 154244.0 160415.0 88367.0 80683.0 195820.0 188442.0 159351.0 156170.0 168988.0 172562.0 23531.0 31411.0 154655.0 152047.0 110358.0 102036.0 97648.0 100629.0 67206.0 59789.0 249079.0 248258.0 82549.0 75586.0 165562.0 166532.0 36822.0 42934.0 317217.0 309034.0 200130.0 192757.0 120434.0 120196.0 49815.0 54506.0 141774.0 138707.0 37521.0 29556.0 89411.0 82091.0 67628.0 72134.0 88909.0 95251.0 41194.0 39137.0 76756.0 68389.0 159981.0 180349.0 159981.0 159981.0 180349.0 180349.0
66945.0 70254.0 94179.0 87929.0 96468.0 93311.0 55894.0 53668.0 87265.0 83812.0 88403.0 95512.0 7844.0 0.0 288039.0 294959.0 154485.0 158571.0 115096.0 112775.0 319110.0 311126.0 84581.0 82814.0 52521.0 59008.0 134184.0 129853.0 40507.0 36255.0 141689.0 134941.0 129258.0 122886.0 315249.0 314910.0 101176.0 93483.0 48227.0 54903.0 52792.0 47092.0 284450.0 276282.0 133868.0 125447.0 243323.0 250721.0 77731.0 84250.0 26706.0 18932.0 327638.0 324405.0 285749.0 288338.0 114500.0 111422.0 97753.0 90267.0 67199.0 70002.0 101695.0 107839.0 135856.0 131950.0 14459.0 22276.0 169203.0 175545.0 50143.0 52118.0 112989.0 117775.0 121425.0 113335.0 130243.0 127110.0 70043.0 70402.0 37594.0 30540.0 278643.0 272221.0 66466.0 73641.0 130267.0 132254.0 157038.0 157199.0 127802.0 120795.0 215930.0 213372.0 28748.0 36135.0 46344.0 42271.0 133623.0 131040.0 111144.0 110220.0 150375.0 151178.0 54028.0 47922.0 44976.0 46323.0 40703.0 36217.0 154267.0 160673.0 80683.0 73038.0 188305.0 180966.0 156517.0 153699.0 166880.0 170119.0 27405.0 34453.0 152378.0 150119.0 110439.0 102136.0 90093.0 93262.0 60182.0 52598.0 241308.0 240528.0 83791.0 76518.0 157821.0 158864.0 33652.0 40755.0 309759.0 301569.0 192757.0 185429.0 123930.0 124151.0 52325.0 57879.0 138886.0 136217.0 37039.0 29228.0 89866.0 82839.0 62938.0 66817.0 81300.0 87548.0 35901.0 35164.0 70743.0 62269.0 155476.0 172526.0 155476.0 155476.0 172526.0 172526.0
352126.0 356975.0 328881.0 329614.0 318115.0 310087.0 294240.0 301095.0 201317.0 206193.0 210104.0 207125.0 295703.0 288039.0 0.0 8039.0 306028.0 303378.0 173149.0 175301.0 41568.0 36274.0 340596.0 344810.0 236648.0 229338.0 161674.0 164705.0 256420.0 264269.0 324172.0 324089.0 317877.0 310397.0 27746.0 29861.0 187248.0 194715.0 282419.0 277673.0 236050.0 242946.0 24271.0 25194.0 156469.0 164743.0 55915.0 48270.0 221249.0 218925.0 314439.0 306383.0 39645.0 36710.0 2678.0 8434.0 296530.0 302954.0 320441.0 313887.0 264751.0 256770.0 206958.0 199940.0 341561.0 344751.0 300482.0 305677.0 131290.0 123327.0 242231.0 237535.0 267820.0 261673.0 351528.0 346808.0 334763.0 326809.0 218938.0 217675.0 316303.0 312893.0 9862.0 17613.0 278073.0 281792.0 296163.0 303856.0 132449.0 134339.0 286443.0 280709.0 73165.0 74735.0 313111.0 321093.0 334382.0 329741.0 319055.0 324751.0 317155.0 309287.0 348629.0 342813.0 299747.0 293102.0 256812.0 250507.0 327672.0 324185.0 359266.0 366994.0 207357.0 215021.0 101430.0 109315.0 315148.0 319797.0 333828.0 330331.0 300475.0 299670.0 322367.0 326905.0 334199.0 330135.0 213450.0 216275.0 245393.0 248476.0 51149.0 48906.0 331334.0 324750.0 130657.0 129175.0 286823.0 291993.0 37325.0 32114.0 100656.0 108669.0 342918.0 349486.0 321078.0 329233.0 305301.0 310731.0 284012.0 285871.0 291665.0 293727.0 271395.0 263577.0 218854.0 210898.0 274483.0 282445.0 253453.0 255812.0 289808.0 132322.0 289808.0 289808.0 132322.0 132322.0
358782.0 363711.0 334431.0 335303.0 323506.0 315476.0 300267.0 307195.0 208405.0 213402.0 217615.0 214739.0 302599.0 294959.0 8039.0 0.0 313913.0 311262.0 180208.0 182187.0 33796.0 28991.0 348213.0 352375.0 243735.0 236357.0 169296.0 172267.0 263690.0 271558.0 332057.0 331973.0 325762.0 318281.0 22520.0 26510.0 194026.0 201554.0 289920.0 285238.0 243113.0 250069.0 30237.0 32462.0 162907.0 171224.0 59828.0 51915.0 228724.0 226497.0 321302.0 313237.0 33281.0 29455.0 10717.0 14253.0 301377.0 307909.0 328262.0 321678.0 272412.0 264437.0 214676.0 207676.0 349445.0 352636.0 307500.0 312774.0 139160.0 131188.0 249447.0 244651.0 272612.0 266350.0 359387.0 354635.0 342648.0 334694.0 226043.0 224640.0 322865.0 319559.0 16346.0 23063.0 285744.0 289521.0 304048.0 311740.0 138933.0 140539.0 294328.0 288594.0 80647.0 81865.0 320211.0 328197.0 341301.0 336746.0 323646.0 329457.0 325061.0 317204.0 356514.0 350698.0 307280.0 300591.0 264166.0 257804.0 334708.0 331131.0 367151.0 374879.0 214296.0 221923.0 107758.0 115574.0 323032.0 327682.0 341713.0 338216.0 307034.0 306101.0 330251.0 334790.0 342055.0 337953.0 221053.0 223963.0 252872.0 255865.0 59099.0 56587.0 339003.0 332388.0 137837.0 136128.0 294169.0 299411.0 30334.0 26140.0 106373.0 114373.0 347994.0 354645.0 328474.0 336624.0 313185.0 318616.0 290356.0 292346.0 297019.0 299233.0 279029.0 271232.0 226365.0 218405.0 281833.0 289807.0 261115.0 263393.0 297692.0 140267.0 297692.0 297692.0 140267.0 140267.0
196426.0 193471.0 248289.0 241609.0 250925.0 247450.0 209734.0 208127.0 154516.0 146242.0 126975.0 122296.0 157774.0 154485.0 306028.0 313913.0 0.0 7995.0 169382.0 174914.0 344580.0 337356.0 109301.0 117454.0 143507.0 149145.0 154874.0 154871.0 127804.0 125520.0 32612.0 38864.0 38250.0 38749.0 330391.0 328451.0 174037.0 168634.0 106261.0 99940.0 145088.0 140063.0 297062.0 288895.0 198626.0 193780.0 280150.0 284922.0 123525.0 118140.0 165570.0 163616.0 343318.0 342189.0 303406.0 303615.0 265703.0 263910.0 72853.0 75370.0 91591.0 93274.0 115629.0 119599.0 58400.0 65773.0 150081.0 145385.0 174821.0 182812.0 134015.0 141542.0 256941.0 259367.0 83978.0 85778.0 55234.0 49326.0 147117.0 155087.0 186435.0 178445.0 298264.0 294102.0 88331.0 80874.0 24300.0 24466.0 208913.0 214895.0 27956.0 35883.0 235515.0 237714.0 147339.0 149768.0 169321.0 160847.0 286951.0 284999.0 56298.0 51447.0 55855.0 47817.0 104598.0 108166.0 121168.0 126675.0 157670.0 163041.0 67073.0 73172.0 159618.0 159142.0 229658.0 226375.0 10047.0 17479.0 28514.0 24303.0 181242.0 188808.0 21521.0 28723.0 73610.0 77671.0 119100.0 111416.0 113718.0 120110.0 254949.0 257664.0 98712.0 99711.0 192467.0 199278.0 121040.0 115052.0 336985.0 329050.0 240324.0 236833.0 278191.0 277901.0 124204.0 127786.0 17818.0 24629.0 189539.0 182480.0 241660.0 235405.0 93287.0 92541.0 122268.0 126829.0 120064.0 119339.0 94831.0 101939.0 36893.0 174691.0 36893.0 36893.0 174691.0 174691.0
202318.0 199568.0 252608.0 246053.0 254870.0 251195.0 213455.0 212110.0 154256.0 146077.0 126467.0 121341.0 162162.0 158571.0 303378.0 311262.0 7995.0 0.0 167923.0 173709.0 341929.0 334705.0 116384.0 124532.0 145055.0 150348.0 152289.0 152402.0 130367.0 128536.0 40607.0 46807.0 45942.0 45873.0 327740.0 325800.0 173414.0 168292.0 110390.0 103764.0 146617.0 141932.0 294411.0 286244.0 197005.0 192441.0 277499.0 282271.0 123722.0 117962.0 170628.0 168379.0 340667.0 339538.0 300755.0 300964.0 268770.0 267199.0 79801.0 81873.0 94375.0 95418.0 114275.0 117834.0 66395.0 73761.0 154767.0 150359.0 172170.0 180161.0 135790.0 143121.0 259223.0 261427.0 91881.0 93542.0 63189.0 57165.0 147717.0 155735.0 191261.0 183260.0 295613.0 291451.0 92154.0 84967.0 29503.0 31170.0 206530.0 212656.0 30848.0 38321.0 232864.0 235064.0 152607.0 155331.0 175073.0 166568.0 290382.0 288626.0 63462.0 58165.0 63619.0 55527.0 109788.0 112933.0 123714.0 128876.0 163364.0 168516.0 74765.0 80696.0 159784.0 159702.0 227021.0 223734.0 17005.0 25009.0 34156.0 28492.0 185544.0 192985.0 29168.0 36493.0 81202.0 84998.0 118517.0 110686.0 115407.0 122112.0 252298.0 255013.0 105632.0 106309.0 189826.0 196684.0 125348.0 119695.0 334334.0 326399.0 237672.0 234236.0 282454.0 282358.0 130183.0 134054.0 24893.0 32199.0 193110.0 186197.0 244893.0 238786.0 96623.0 95244.0 122243.0 126376.0 123676.0 123413.0 96728.0 104184.0 31861.0 172040.0 31861.0 31861.0 172040.0 172040.0
180401.0 184722.0 172032.0 170360.0 164726.0 157282.0 131010.0 136437.0 28224.0 34038.0 45465.0 47737.0 122833.0 115096.0 173149.0 180208.0 169382.0 167923.0 0.0 7909.0 205708.0 197809.0 173112.0 176089.0 63535.0 56208.0 31987.0 27628.0 84300.0 92286.0 179301.0 176840.0 170015.0 161852.0 200227.0 199815.0 18774.0 23723.0 113402.0 110249.0 62906.0 69923.0 169490.0 161291.0 29411.0 24618.0 131460.0 138331.0 54119.0 55495.0 141667.0 133666.0 212685.0 209661.0 170819.0 173270.0 155956.0 159424.0 160723.0 152968.0 100899.0 93617.0 53755.0 50259.0 190350.0 191333.0 127340.0 132573.0 61315.0 65563.0 69731.0 64493.0 132499.0 130159.0 192639.0 186375.0 183247.0 176086.0 45879.0 44723.0 145574.0 141304.0 163865.0 157672.0 113862.0 119650.0 153376.0 160185.0 45875.0 49215.0 144670.0 137259.0 100835.0 98417.0 140011.0 147999.0 161395.0 156604.0 181445.0 184239.0 162851.0 156320.0 200733.0 196689.0 131055.0 123651.0 85705.0 78729.0 154523.0 151137.0 209908.0 217762.0 34643.0 42499.0 75511.0 69021.0 177320.0 180094.0 195101.0 193219.0 129947.0 130545.0 181619.0 184317.0 175789.0 169855.0 52260.0 58988.0 76978.0 78062.0 126328.0 125432.0 165388.0 158075.0 42728.0 44219.0 115285.0 121348.0 196658.0 188425.0 82356.0 76222.0 193841.0 198490.0 149895.0 157943.0 163717.0 166996.0 116370.0 116507.0 141046.0 139911.0 106231.0 99560.0 53143.0 45961.0 103110.0 111129.0 90357.0 89707.0 154464.0 66901.0 154464.0 154464.0 66901.0 66901.0
177226.0 181823.0 166062.0 164641.0 158402.0 150872.0 125627.0 131316.0 27871.0 35031.0 49363.0 52714.0 120413.0 112775.0 175301.0 182187.0 174914.0 173709.0 7909.0 0.0 206776.0 198830.0 174148.0 176780.0 62337.0 54523.0 39768.0 35482.0 84174.0 92178.0 183752.0 181015.0 174162.0 165977.0 202601.0 202486.0 12788.0 19504.0 114417.0 111778.0 61529.0 68928.0 172679.0 164437.0 25472.0 19060.0 131744.0 138850.0 56887.0 59248.0 139138.0 131084.0 214922.0 211632.0 173031.0 175787.0 148764.0 152400.0 163354.0 155466.0 103427.0 96417.0 59442.0 56551.0 193944.0 194634.0 125482.0 131082.0 67839.0 71586.0 69453.0 63508.0 124969.0 122501.0 195178.0 188715.0 186847.0 179834.0 45114.0 42591.0 141944.0 138019.0 165876.0 159453.0 116133.0 122267.0 158254.0 164908.0 45288.0 47361.0 149737.0 142204.0 103725.0 100726.0 138517.0 146504.0 159115.0 154672.0 174232.0 177170.0 166231.0 159926.0 204688.0 200887.0 132021.0 124431.0 86176.0 78903.0 152719.0 148962.0 213632.0 221465.0 32180.0 39737.0 76024.0 69063.0 182646.0 185163.0 200230.0 198592.0 126207.0 126365.0 186555.0 189016.0 178507.0 172328.0 56657.0 63833.0 78696.0 78977.0 129562.0 128187.0 166829.0 159394.0 46009.0 46165.0 115258.0 121696.0 197576.0 189355.0 81848.0 75230.0 187310.0 192115.0 149848.0 157815.0 168661.0 171663.0 111747.0 112342.0 134371.0 133489.0 108386.0 102074.0 56386.0 49750.0 103263.0 111247.0 93228.0 91880.0 160365.0 73696.0 160365.0 160365.0 73696.0 73696.0
381299.0 386655.0 351420.0 352968.0 339782.0 331782.0 319759.0 327017.0 233873.0 239507.0 245467.0 243253.0 326592.0 319110.0 41568.0 33796.0 344580.0 341929.0 205708.0 206776.0 0.0 8018.0 376438.0 380231.0 269013.0 261297.0 198061.0 200651.0 289922.0 297880.0 362724.0 362640.0 356310.0 348915.0 34804.0 42765.0 217965.0 225751.0 317488.0 313227.0 268263.0 275517.0 63039.0 66179.0 185475.0 193906.0 76439.0 68694.0 256313.0 254696.0 345053.0 336963.0 32595.0 24611.0 44180.0 47731.0 315202.0 322198.0 358024.0 351204.0 301080.0 293158.0 243887.0 237032.0 380114.0 383280.0 332153.0 337857.0 169769.0 161775.0 275423.0 270082.0 286377.0 279630.0 389436.0 384409.0 373322.0 365365.0 251503.0 249352.0 344996.0 342255.0 47053.0 50478.0 314445.0 318629.0 334715.0 342407.0 162071.0 162331.0 324994.0 319260.0 109587.0 109161.0 345291.0 353277.0 365307.0 361246.0 336153.0 342466.0 355569.0 347823.0 387180.0 381365.0 335014.0 328059.0 290901.0 284216.0 359384.0 355317.0 397652.0 405328.0 238926.0 246311.0 130837.0 138150.0 353699.0 358349.0 372379.0 368883.0 329211.0 327615.0 360918.0 365456.0 372095.0 367674.0 249474.0 252942.0 280407.0 282830.0 90958.0 87037.0 367600.0 360779.0 164374.0 161549.0 320763.0 326430.0 9922.0 17704.0 126882.0 134580.0 362649.0 369669.0 355295.0 363398.0 343852.0 349283.0 311493.0 314142.0 313258.0 316187.0 307491.0 299859.0 254187.0 246225.0 308490.0 316506.0 289814.0 291541.0 328359.0 171494.0 328359.0 328359.0 171494.0 171494.0
373283.0 378642.0 343523.0 345042.0 331919.0 323915.0 311768.0 319020.0 225962.0 231634.0 237744.0 235607.0 318604.0 311126.0 36274.0 28991.0 337356.0 334705.0 197809.0 198830.0 8018.0 0.0 368721.0 372473.0 261083.0 253353.0 190475.0 193013.0 282044.0 290006.0 355500.0 355281.0 349150.0 341719.0 35142.0 42934.0 209991.0 217783.0 309714.0 305497.0 260326.0 267595.0 59066.0 61365.0 177472.0 185904.0 68423.0 60676.0 248558.0 247007.0 337057.0 328967.0 35851.0 27857.0 38769.0 43234.0 307483.0 314449.0 350527.0 343670.0 293433.0 285522.0 236339.0 229509.0 372885.0 375985.0 324186.0 329907.0 162536.0 154548.0 267531.0 262160.0 278651.0 271936.0 381984.0 376909.0 366074.0 358131.0 243587.0 241400.0 336979.0 334241.0 40632.0 43364.0 306799.0 311038.0 327491.0 335183.0 154088.0 154320.0 317770.0 312036.0 102161.0 101520.0 337340.0 345326.0 357316.0 353271.0 328539.0 334815.0 348216.0 340495.0 379956.0 374141.0 327253.0 320273.0 283059.0 276352.0 351415.0 347332.0 390511.0 398203.0 230972.0 238346.0 122870.0 130163.0 346475.0 351125.0 365156.0 361659.0 321194.0 319597.0 353694.0 358232.0 364645.0 360169.0 241815.0 245355.0 272638.0 275010.0 84264.0 79988.0 359930.0 353085.0 156574.0 153670.0 312905.0 318604.0 2881.0 9697.0 118866.0 126561.0 354886.0 361884.0 347448.0 355546.0 336628.0 342059.0 303477.0 306124.0 305391.0 308285.0 299818.0 292208.0 246457.0 238497.0 300639.0 308656.0 282175.0 283835.0 321135.0 164411.0 321135.0 321135.0 164411.0 164411.0
94859.0 89906.0 162315.0 154493.0 169446.0 168780.0 134949.0 129925.0 146330.0 139275.0 130978.0 133474.0 82275.0 84581.0 340596.0 348213.0 109301.0 116384.0 173112.0 174148.0 376438.0 368721.0 0.0 8154.0 114638.0 123078.0 178922.0 175992.0 91195.0 83476.0 82408.0 74484.0 72166.0 70561.0 366126.0 364291.0 165772.0 157879.0 59745.0 63254.0 115916.0 108013.0 332903.0 324736.0 198996.0 191203.0 304081.0 310626.0 120275.0 121791.0 78099.0 80985.0 379013.0 377232.0 338063.0 339094.0 194468.0 189927.0 36668.0 36621.0 76012.0 84010.0 134060.0 141209.0 64576.0 57898.0 71940.0 63920.0 210763.0 218466.0 105696.0 112962.0 196765.0 201947.0 41161.0 33508.0 61910.0 63503.0 129846.0 134715.0 99207.0 92475.0 332051.0 326791.0 62847.0 60525.0 88493.0 85241.0 218939.0 221508.0 92809.0 90303.0 267628.0 267324.0 60473.0 57563.0 71391.0 64349.0 209770.0 205488.0 53008.0 58491.0 78692.0 82844.0 42128.0 49836.0 88171.0 95726.0 62011.0 69799.0 78344.0 83016.0 144416.0 138787.0 248236.0 242054.0 105932.0 99561.0 107640.0 113908.0 102234.0 110421.0 96383.0 90860.0 38573.0 32230.0 127164.0 124540.0 96387.0 95181.0 290302.0 291691.0 11595.0 16065.0 212347.0 216038.0 61408.0 53643.0 367838.0 359630.0 255468.0 249209.0 191327.0 188784.0 32461.0 29047.0 91554.0 84910.0 119700.0 111766.0 170158.0 162508.0 69221.0 77135.0 122274.0 130228.0 72048.0 64525.0 87284.0 84905.0 125530.0 211398.0 125530.0 125530.0 211398.0 211398.0
88005.0 82753.0 157036.0 149137.0 164631.0 164286.0 131286.0 125924.0 148912.0 142112.0 134834.0 137756.0 79803.0 82814.0 344810.0 352375.0 117454.0 124532.0 176089.0 176780.0 380231.0 372473.0 8154.0 0.0 116337.0 124765.0 183185.0 180109.0 93105.0 85227.0 90428.0 82510.0 80285.0 78714.0 370547.0 368768.0 167974.0 160028.0 62821.0 67137.0 117544.0 109647.0 337413.0 329246.0 201375.0 193460.0 307358.0 314014.0 123917.0 125885.0 73903.0 77476.0 383409.0 381485.0 342297.0 343477.0 190567.0 185773.0 44792.0 44431.0 80842.0 88809.0 138795.0 145974.0 72019.0 65112.0 69521.0 61372.0 215511.0 223144.0 107770.0 114744.0 193964.0 199369.0 47481.0 40213.0 69646.0 71489.0 132100.0 136581.0 94522.0 88122.0 336165.0 330780.0 67940.0 66353.0 96581.0 93385.0 221798.0 224101.0 100765.0 98094.0 271738.0 271216.0 57127.0 53303.0 65513.0 58936.0 205151.0 200649.0 61161.0 66604.0 85921.0 90360.0 45225.0 52439.0 90606.0 97979.0 56847.0 64850.0 84980.0 89267.0 146482.0 140555.0 251439.0 245105.0 114059.0 107647.0 115542.0 121896.0 98647.0 106736.0 104437.0 98839.0 46404.0 40303.0 131405.0 129191.0 99846.0 98027.0 294733.0 295925.0 19362.0 22189.0 215947.0 219392.0 62545.0 55300.0 371536.0 363317.0 258383.0 251976.0 185767.0 182986.0 30605.0 25382.0 99706.0 93060.0 116899.0 109034.0 166440.0 158716.0 73842.0 81898.0 126094.0 134062.0 73855.0 66061.0 92020.0 89011.0 133371.0 216364.0 133371.0 133371.0 216364.0 216364.0
119189.0 122763.0 127739.0 123775.0 124636.0 118722.0 84070.0 86845.0 35332.0 31293.0 39015.0 47220.0 60362.0 52521.0 236648.0 243735.0 143507.0 145055.0 63535.0 62337.0 269013.0 261083.0 114638.0 116337.0 0.0 8440.0 81847.0 77441.0 23517.0 31168.0 142143.0 137419.0 130678.0 122762.0 263636.0 263049.0 52157.0 44158.0 56261.0 56104.0 1610.0 6723.0 232314.0 224146.0 85735.0 77588.0 194070.0 201187.0 30708.0 38573.0 79218.0 71419.0 276147.0 273187.0 234303.0 236624.0 129005.0 129285.0 110663.0 102370.0 54593.0 50755.0 55182.0 59959.0 145837.0 144703.0 63985.0 69039.0 116845.0 123076.0 10213.0 2030.0 115278.0 116838.0 141138.0 133875.0 139015.0 133257.0 17734.0 20341.0 86533.0 81009.0 227392.0 221205.0 64148.0 71828.0 121746.0 126578.0 107547.0 108885.0 115640.0 107658.0 164071.0 161915.0 76476.0 84464.0 98401.0 93245.0 153017.0 153143.0 117815.0 113316.0 158629.0 156671.0 73040.0 65037.0 27787.0 20068.0 91078.0 88043.0 165784.0 173290.0 30572.0 24220.0 138349.0 131388.0 148742.0 148718.0 163620.0 164328.0 71940.0 74873.0 148853.0 149178.0 125784.0 118530.0 43259.0 49083.0 29823.0 24423.0 189186.0 188701.0 108741.0 101010.0 106045.0 107720.0 53897.0 61095.0 259862.0 251636.0 143987.0 137112.0 154640.0 157255.0 88155.0 95975.0 132031.0 132444.0 64720.0 61697.0 107323.0 102992.0 56498.0 53345.0 34265.0 38246.0 42595.0 50279.0 48812.0 42669.0 135648.0 120401.0 135648.0 135648.0 120401.0 120401.0
125095.0 129011.0 129024.0 125532.0 125027.0 118751.0 85473.0 88956.0 28258.0 25634.0 37433.0 45938.0 66797.0 59008.0 229338.0 236357.0 149145.0 150348.0 56208.0 54523.0 261297.0 253353.0 123078.0 124765.0 8440.0 0.0 76547.0 71997.0 31935.0 39608.0 149035.0 144523.0 137740.0 129753.0 256435.0 255985.0 43970.0 35983.0 64592.0 64185.0 7250.0 15120.0 225444.0 217279.0 77527.0 69330.0 186149.0 193323.0 31289.0 39180.0 85672.0 77741.0 268889.0 265813.0 227017.0 229471.0 127087.0 127898.0 118656.0 110379.0 61692.0 57244.0 54517.0 58454.0 153464.0 152511.0 71145.0 76570.0 111381.0 117334.0 18087.0 10172.0 111712.0 112764.0 149306.0 142095.0 146594.0 140682.0 11529.0 12088.0 91490.0 86429.0 220021.0 213743.0 71829.0 79375.0 127889.0 132988.0 99596.0 100741.0 121415.0 113416.0 156991.0 154613.0 84008.0 91998.0 105230.0 100403.0 151565.0 152134.0 125387.0 120662.0 166075.0 163913.0 81452.0 73459.0 35967.0 28197.0 98351.0 94946.0 173430.0 180983.0 22472.0 15813.0 130535.0 123484.0 154728.0 155019.0 170008.0 170436.0 76423.0 78587.0 155308.0 155891.0 133815.0 126642.0 42980.0 49718.0 36119.0 31765.0 182305.0 181606.0 117139.0 109416.0 98892.0 100245.0 62300.0 69533.0 252097.0 243877.0 135949.0 129001.0 155093.0 158117.0 96480.0 104262.0 138261.0 139000.0 67050.0 64957.0 106292.0 102502.0 64086.0 60404.0 34505.0 36770.0 51035.0 58711.0 55025.0 49564.0 140215.0 115283.0 140215.0 140215.0 115283.0 115283.0
201014.0 204407.0 200702.0 198402.0 194276.0 187055.0 158459.0 163163.0 50007.0 50919.0 48980.0 45452.0 142023.0 134184.0 161674.0 169296.0 154874.0 152289.0 31987.0 39768.0 198061.0 190475.0 178922.0 183185.0 81847.0 76547.0 0.0 4794.0 97659.0 105094.0 170102.0 169011.0 162460.0 154581.0 187394.0 185796.0 49998.0 52784.0 121068.0 116066.0 81787.0 87100.0 154408.0 146241.0 51883.0 51416.0 128746.0 134424.0 60376.0 57344.0 160789.0 153116.0 200238.0 198322.0 159146.0 160306.0 187316.0 190480.0 160239.0 153252.0 103153.0 95194.0 45947.0 39322.0 184981.0 187272.0 144626.0 148520.0 35019.0 41585.0 84699.0 82098.0 164356.0 162122.0 191897.0 186591.0 177981.0 170272.0 65026.0 67409.0 168020.0 162779.0 153158.0 148054.0 116503.0 120568.0 142610.0 150040.0 54855.0 61685.0 133166.0 126602.0 88771.0 88986.0 155789.0 163602.0 179372.0 173515.0 212817.0 215347.0 159011.0 151612.0 193531.0 188405.0 138228.0 131797.0 96905.0 91471.0 171041.0 168947.0 203644.0 211487.0 59382.0 66838.0 75497.0 71629.0 163755.0 167807.0 182271.0 179165.0 152954.0 154796.0 169980.0 173811.0 174592.0 169837.0 51785.0 54881.0 84300.0 88265.0 111617.0 112771.0 169744.0 163094.0 37806.0 44405.0 126722.0 131192.0 189764.0 181620.0 85665.0 81959.0 223793.0 228065.0 160341.0 168507.0 152381.0 156979.0 142036.0 140941.0 171445.0 169775.0 109733.0 101960.0 57655.0 49813.0 114433.0 122217.0 91862.0 94175.0 138719.0 38758.0 138719.0 138719.0 38758.0 38758.0
196629.0 200097.0 195910.0 193618.0 189485.0 182269.0 153685.0 158411.0 45275.0 46392.0 45509.0 42604.0 137695.0 129853.0 164705.0 172267.0 154871.0 152402.0 27628.0 35482.0 200651.0 193013.0 175992.0 180109.0 77441.0 71997.0 4794.0 0.0 93709.0 101223.0 169242.0 167935.0 161326.0 153384.0 190634.0 189179.0 45388.0 48027.0 117783.0 112972.0 77343.0 82794.0 157814.0 149646.0 49188.0 48097.0 130505.0 136370.0 56816.0 54230.0 156488.0 148781.0 203445.0 201389.0 162197.0 163523.0 182637.0 185762.0 158075.0 150968.0 100430.0 92510.0 43938.0 37650.0 183562.0 185665.0 140455.0 144470.0 39419.0 45732.0 80552.0 77740.0 159806.0 157647.0 189831.0 184386.0 176533.0 168890.0 60489.0 62718.0 163486.0 158306.0 156073.0 150815.0 113794.0 118096.0 141938.0 149286.0 54180.0 60636.0 132588.0 125860.0 91644.0 91494.0 151765.0 159605.0 175184.0 169413.0 208137.0 210632.0 157314.0 150023.0 192403.0 187436.0 135051.0 128493.0 93153.0 87548.0 166971.0 164762.0 202389.0 210245.0 54612.0 62091.0 76519.0 72212.0 163606.0 167449.0 182031.0 179130.0 148375.0 150148.0 169517.0 173169.0 172557.0 167632.0 48854.0 52510.0 80869.0 84564.0 114942.0 115834.0 166975.0 160230.0 38742.0 44768.0 123054.0 127701.0 192242.0 184074.0 86298.0 82194.0 219009.0 223274.0 156852.0 165019.0 151828.0 156222.0 137316.0 136275.0 166682.0 164992.0 106888.0 99212.0 54240.0 46323.0 110739.0 118572.0 89164.0 91130.0 138832.0 43398.0 138832.0 138832.0 43398.0 43398.0
106281.0 108572.0 129045.0 123841.0 128476.0 123674.0 86533.0 87167.0 56394.0 50419.0 49612.0 55956.0 47795.0 40507.0 256420.0 263690.0 127804.0 130367.0 84300.0 84174.0 289922.0 282044.0 91195.0 93105.0 23517.0 31935.0 97659.0 93709.0 0.0 8006.0 122685.0 117358.0 110790.0 103154.0 283052.0 282071.0 74900.0 66938.0 32901.0 33636.0 24872.0 17052.0 250911.0 242697.0 108383.0 100396.0 215676.0 222614.0 38378.0 44218.0 65429.0 58548.0 295707.0 293087.0 254011.0 255949.0 138742.0 137685.0 88106.0 79795.0 36265.0 35285.0 61508.0 67906.0 124209.0 122572.0 47951.0 51009.0 132373.0 139227.0 14737.0 21783.0 129201.0 131893.0 118067.0 110686.0 117547.0 112264.0 39141.0 43530.0 77931.0 71043.0 247353.0 241436.0 43067.0 51072.0 104771.0 108720.0 129433.0 131296.0 99906.0 92130.0 183404.0 181853.0 58192.0 65959.0 82516.0 76152.0 161198.0 160178.0 96470.0 92689.0 137474.0 136109.0 49524.0 41524.0 6654.0 6245.0 73555.0 72131.0 144048.0 151411.0 53379.0 47594.0 159761.0 153070.0 131944.0 130978.0 145513.0 147042.0 65784.0 71036.0 130652.0 130207.0 103083.0 95627.0 50194.0 52838.0 20035.0 12156.0 207882.0 207987.0 85229.0 77494.0 125904.0 128375.0 31084.0 37806.0 280926.0 272691.0 166017.0 159367.0 157750.0 159197.0 65685.0 73686.0 114664.0 114079.0 65852.0 60338.0 115320.0 109738.0 36035.0 35272.0 41766.0 48745.0 19251.0 27139.0 34696.0 26479.0 123436.0 135005.0 123436.0 123436.0 135005.0 135005.0
100483.0 102374.0 127709.0 122128.0 128004.0 123621.0 86073.0 85967.0 64399.0 58372.0 56658.0 62560.0 42994.0 36255.0 264269.0 271558.0 125520.0 128536.0 92286.0 92178.0 297880.0 290006.0 83476.0 85227.0 31168.0 39608.0 105094.0 101223.0 8006.0 0.0 118506.0 112852.0 106418.0 98989.0 290852.0 289818.0 82843.0 74871.0 26141.0 28213.0 32440.0 24540.0 258616.0 250387.0 116349.0 108340.0 223676.0 230607.0 45279.0 50547.0 59751.0 53324.0 303523.0 300944.0 261852.0 263742.0 140242.0 138722.0 81968.0 73675.0 34234.0 35054.0 67521.0 74151.0 118678.0 116680.0 41818.0 44102.0 139672.0 146618.0 22732.0 29528.0 132263.0 135356.0 111358.0 103853.0 112145.0 107200.0 47132.0 51355.0 73830.0 66591.0 255225.0 249337.0 38699.0 46755.0 102024.0 105488.0 137439.0 139286.0 97813.0 90216.0 191219.0 189737.0 51116.0 58751.0 75969.0 69288.0 162030.0 160614.0 91239.0 87964.0 132224.0 131233.0 42090.0 34027.0 9070.0 13770.0 66582.0 65663.0 138396.0 145645.0 61296.0 55357.0 167757.0 161074.0 129113.0 127682.0 141968.0 143905.0 62789.0 68724.0 127119.0 126265.0 96768.0 89136.0 56590.0 58489.0 24384.0 17608.0 215605.0 215787.0 77819.0 70048.0 133804.0 136337.0 23081.0 29943.0 288895.0 280661.0 174022.0 167366.0 156848.0 157892.0 57679.0 65683.0 111647.0 110544.0 65403.0 59203.0 116389.0 110430.0 32445.0 33472.0 48517.0 55794.0 11428.0 19190.0 35229.0 26675.0 122800.0 142135.0 122800.0 122800.0 142135.0 142135.0
174433.0 170525.0 233044.0 225861.0 237309.0 234750.0 197570.0 194815.0 160139.0 151723.0 134417.0 131612.0 143503.0 141689.0 324172.0 332057.0 32612.0 40607.0 179301.0 183752.0 362724.0 355500.0 82408.0 90428.0 142143.0 149035.0 170102.0 169242.0 122685.0 118506.0 0.0 7927.0 12431.0 19535.0 348535.0 346595.0 180629.0 174238.0 95068.0 90574.0 143751.0 137465.0 315206.0 307039.0 208662.0 202806.0 297859.0 302907.0 128371.0 124669.0 147992.0 147468.0 361462.0 360333.0 321550.0 321759.0 255783.0 253047.0 48315.0 53560.0 87568.0 91891.0 126688.0 132007.0 25791.0 33265.0 134599.0 128646.0 192965.0 200956.0 132032.0 140113.0 250454.0 253793.0 52132.0 54954.0 23189.0 18996.0 149529.0 157078.0 169593.0 161787.0 316408.0 312246.0 79829.0 71769.0 28077.0 20325.0 221997.0 227176.0 37857.0 43598.0 253659.0 255840.0 129129.0 130065.0 148345.0 140155.0 275293.0 272504.0 31851.0 31470.0 25501.0 18722.0 88258.0 93772.0 116410.0 123169.0 137163.0 143512.0 36858.0 44010.0 163427.0 161379.0 245596.0 241451.0 25547.0 17873.0 26044.0 31558.0 166896.0 174906.0 14177.0 8764.0 44359.0 50205.0 127140.0 120347.0 112971.0 117740.0 273093.0 275808.0 73074.0 75943.0 207853.0 213987.0 108280.0 100942.0 355129.0 347194.0 255539.0 251221.0 262959.0 261813.0 103015.0 104983.0 20418.0 13538.0 178340.0 170758.0 231251.0 224421.0 86653.0 88803.0 128029.0 134069.0 110594.0 107758.0 94372.0 99517.0 64505.0 192835.0 64505.0 64505.0 192835.0 192835.0
166617.0 162660.0 225801.0 218566.0 230262.0 227826.0 190773.0 187864.0 156787.0 148390.0 131657.0 129316.0 136537.0 134941.0 324089.0 331973.0 38864.0 46807.0 176840.0 181015.0 362640.0 355281.0 74484.0 82510.0 137419.0 144523.0 169011.0 167935.0 117358.0 112852.0 7927.0 0.0 6880.0 15070.0 348451.0 346511.0 177391.0 170809.0 88856.0 84746.0 139022.0 132525.0 315123.0 306955.0 206112.0 200038.0 297249.0 302461.0 125072.0 121786.0 140595.0 140243.0 361378.0 360250.0 321467.0 321676.0 249227.0 246356.0 40552.0 46082.0 82855.0 87668.0 124857.0 130458.0 20478.0 27215.0 127494.0 121396.0 192881.0 200872.0 127251.0 135389.0 244446.0 247933.0 45155.0 47480.0 16390.0 11157.0 145540.0 152956.0 162243.0 154470.0 316324.0 312162.0 74324.0 66292.0 29373.0 21744.0 220150.0 225113.0 38942.0 43503.0 253575.0 255592.0 121702.0 122477.0 140620.0 132462.0 268468.0 265569.0 24343.0 25025.0 24576.0 19874.0 81254.0 87029.0 111203.0 118152.0 129490.0 135919.0 35263.0 42921.0 159658.0 157285.0 244425.0 240062.0 32767.0 25480.0 33769.0 39479.0 159860.0 167913.0 21991.0 16558.0 36518.0 42278.0 124583.0 118069.0 108610.0 112997.0 273009.0 275725.0 65163.0 68126.0 206645.0 212580.0 101697.0 94191.0 354969.0 347070.0 254152.0 249629.0 255693.0 254451.0 95343.0 97178.0 24167.0 16208.0 171725.0 164083.0 224655.0 217750.0 81414.0 84128.0 124940.0 131265.0 104554.0 101373.0 90310.0 94962.0 68264.0 192751.0 68264.0 68264.0 192751.0 192751.0
162887.0 159189.0 220705.0 213549.0 224904.0 222325.0 185139.0 182394.0 149907.0 141510.0 124807.0 122522.0 131087.0 129258.0 317877.0 325762.0 38250.0 45942.0 170015.0 174162.0 356310.0 349150.0 72166.0 80285.0 130678.0 137740.0 162460.0 161326.0 110790.0 106418.0 12431.0 6880.0 0.0 8193.0 342239.0 340299.0 170512.0 163929.0 82730.0 78387.0 132283.0 125837.0 308911.0 300744.0 199274.0 193181.0 290808.0 296071.0 118193.0 114928.0 135761.0 135131.0 355166.0 354038.0 315255.0 315464.0 243374.0 240620.0 36852.0 41508.0 76096.0 80829.0 118147.0 123807.0 24795.0 30407.0 122216.0 116325.0 186669.0 194661.0 120521.0 128648.0 238212.0 241617.0 46455.0 47619.0 19196.0 11738.0 138686.0 146116.0 157324.0 149496.0 310112.0 305950.0 67807.0 59757.0 24611.0 17546.0 213413.0 218338.0 33760.0 37602.0 247351.0 249277.0 116930.0 118044.0 136561.0 128306.0 262862.0 260080.0 20025.0 19041.0 31077.0 26741.0 75857.0 81341.0 104591.0 111483.0 125277.0 131493.0 41398.0 49167.0 152789.0 150443.0 237834.0 233417.0 33792.0 27564.0 38165.0 42937.0 154491.0 162492.0 24808.0 20997.0 35402.0 40038.0 117756.0 111281.0 101796.0 106255.0 266797.0 269513.0 62245.0 64522.0 200051.0 205937.0 95860.0 88511.0 348813.0 340894.0 247507.0 242938.0 250630.0 249539.0 91154.0 93460.0 21669.0 13805.0 165920.0 158332.0 218835.0 211996.0 74800.0 77362.0 118068.0 124412.0 98322.0 95374.0 83455.0 88176.0 64593.0 186539.0 64593.0 64593.0 186539.0 186539.0
159051.0 155692.0 215035.0 207987.0 218885.0 216119.0 178776.0 176254.0 141721.0 133322.0 116625.0 114388.0 125033.0 122886.0 310397.0 318281.0 38749.0 45873.0 161852.0 165977.0 348915.0 341719.0 70561.0 78714.0 122762.0 129753.0 154581.0 153384.0 103154.0 98989.0 19535.0 15070.0 8193.0 0.0 334759.0 332819.0 162322.0 155748.0 75805.0 71115.0 124369.0 118007.0 301430.0 293263.0 191100.0 184994.0 283035.0 288354.0 110003.0 106740.0 130534.0 129530.0 347686.0 346557.0 307774.0 307983.0 236689.0 234094.0 34136.0 37338.0 68170.0 72752.0 110100.0 115825.0 31366.0 35859.0 116414.0 110820.0 179188.0 187173.0 112626.0 120732.0 231010.0 234302.0 49567.0 49419.0 24953.0 16888.0 130572.0 138029.0 151947.0 144058.0 302632.0 298440.0 60303.0 52243.0 20220.0 14953.0 205330.0 210219.0 28234.0 30861.0 239827.0 241650.0 111831.0 113396.0 132355.0 123994.0 256500.0 253872.0 17589.0 13428.0 39070.0 34934.0 70039.0 75074.0 96890.0 103687.0 120900.0 126818.0 49089.0 56916.0 144641.0 142350.0 229901.0 225430.0 36358.0 31558.0 43996.0 47742.0 148517.0 156438.0 29663.0 27424.0 36164.0 39195.0 109592.0 103155.0 93760.0 98345.0 259317.0 262032.0 59989.0 61320.0 192120.0 197952.0 89332.0 82229.0 341353.0 333412.0 239517.0 234902.0 244985.0 244091.0 86939.0 89862.0 20999.0 14763.0 159341.0 151832.0 212204.0 205457.0 67123.0 69421.0 109874.0 116227.0 91207.0 88610.0 75343.0 80196.0 60608.0 179059.0 60608.0 60608.0 179059.0 179059.0
379601.0 384376.0 356563.0 357332.0 345738.0 337709.0 321983.0 328830.0 228326.0 232984.0 236133.0 232794.0 322942.0 315249.0 27746.0 22520.0 330391.0 327740.0 200227.0 202601.0 34804.0 35142.0 366126.0 370547.0 263636.0 256435.0 187394.0 190634.0 283052.0 290852.0 348535.0 348451.0 342239.0 334759.0 0.0 7961.0 214654.0 222055.0 308412.0 303452.0 263076.0 269871.0 36574.0 42924.0 184121.0 192371.0 82346.0 74423.0 247377.0 244737.0 341714.0 333670.0 12954.0 14310.0 29764.0 27124.0 323832.0 330333.0 344912.0 338563.0 290151.0 282155.0 232167.0 225074.0 365923.0 369114.0 327552.0 332620.0 155801.0 147938.0 268983.0 264475.0 295078.0 288839.0 375909.0 371221.0 359125.0 351171.0 245908.0 244852.0 343854.0 340364.0 37573.0 45060.0 303420.0 306852.0 320526.0 328218.0 160087.0 162068.0 310805.0 305071.0 99663.0 101886.0 340046.0 348018.0 361582.0 356821.0 346150.0 351943.0 341557.0 333733.0 372991.0 367176.0 325621.0 319126.0 283243.0 277082.0 354707.0 351350.0 383628.0 391357.0 234575.0 242281.0 129139.0 137038.0 339510.0 344160.0 358191.0 354694.0 328029.0 327300.0 346729.0 351267.0 358510.0 354622.0 239150.0 241611.0 271483.0 274826.0 75824.0 75065.0 356646.0 350204.0 157592.0 156439.0 313257.0 318234.0 37772.0 38521.0 128362.0 136374.0 370377.0 376995.0 347363.0 355526.0 329663.0 335094.0 311682.0 313479.0 319271.0 321393.0 296908.0 289005.0 244871.0 236942.0 300912.0 308843.0 278861.0 281549.0 314170.0 157477.0 314170.0 314170.0 157477.0 157477.0
379670.0 384306.0 358214.0 358807.0 347586.0 339561.0 323027.0 329770.0 227796.0 232211.0 234682.0 231082.0 322639.0 314910.0 29861.0 26510.0 328451.0 325800.0 199815.0 202486.0 42765.0 42934.0 364291.0 368768.0 263049.0 255985.0 185796.0 189179.0 282071.0 289818.0 346595.0 346511.0 340299.0 332819.0 7961.0 0.0 214693.0 221979.0 306863.0 301745.0 262534.0 269206.0 32798.0 40042.0 184743.0 192912.0 85659.0 77899.0 245990.0 243113.0 341454.0 333433.0 17418.0 21292.0 31355.0 26905.0 326304.0 332687.0 343013.0 336634.0 288294.0 280295.0 230279.0 223172.0 363983.0 367174.0 327022.0 331933.0 153863.0 145999.0 268134.0 263831.0 297614.0 291498.0 373969.0 369337.0 357185.0 349231.0 245315.0 244518.0 344096.0 340440.0 39616.0 47469.0 301543.0 304922.0 318586.0 326278.0 160702.0 163065.0 308865.0 303131.0 98995.0 101843.0 339346.0 347304.0 361205.0 356289.0 348893.0 354564.0 339617.0 331793.0 371051.0 365236.0 323969.0 317593.0 282076.0 276051.0 354119.0 350932.0 381688.0 389416.0 234306.0 242063.0 130072.0 138031.0 337570.0 342220.0 356250.0 352754.0 328286.0 327758.0 344789.0 349327.0 356570.0 352721.0 237453.0 239754.0 270041.0 273594.0 74256.0 74383.0 354750.0 348348.0 157097.0 156348.0 312071.0 316877.0 45511.0 45743.0 130024.0 138030.0 372589.0 379109.0 346025.0 354192.0 327723.0 333154.0 312281.0 313880.0 321170.0 323109.0 295089.0 287158.0 243400.0 235500.0 299730.0 307627.0 277010.0 279832.0 312230.0 155537.0 312230.0 312230.0 155537.0 155537.0
164982.0 169730.0 153462.0 151948.0 146002.0 138535.0 112858.0 118529.0 20724.0 29042.0 47070.0 52282.0 108721.0 101176.0 187248.0 194026.0 174037.0 173414.0 18774.0 12788.0 217965.0 209991.0 165772.0 167974.0 52157.0 43970.0 49998.0 45388.0 74900.0 82843.0 180629.0 177391.0 170512.0 162322.0 214654.0 214693.0 0.0 7999.0 106286.0 104356.0 51169.0 58864.0 185129.0 176874.0 33578.0 25497.0 142423.0 149706.0 52319.0 56264.0 127331.0 119254.0 226890.0 223443.0 185014.0 187932.0 137397.0 140746.0 157230.0 149175.0 97539.0 91032.0 60221.0 58814.0 189256.0 189457.0 114216.0 120115.0 80048.0 84094.0 60205.0 53543.0 114453.0 112465.0 188809.0 182071.0 182191.0 175458.0 35926.0 31883.0 129502.0 125749.0 177750.0 171192.0 109738.0 116348.0 156070.0 162385.0 55928.0 56773.0 147979.0 140240.0 116115.0 112860.0 127527.0 135495.0 147454.0 143281.0 162896.0 165581.0 161285.0 155386.0 200594.0 197240.0 123720.0 115936.0 77610.0 70059.0 141435.0 137393.0 209110.0 216888.0 21597.0 28468.0 87137.0 79868.0 181291.0 183256.0 198399.0 197283.0 113730.0 113724.0 184372.0 186354.0 172460.0 165933.0 54942.0 62728.0 71933.0 71088.0 142055.0 140489.0 159001.0 151430.0 58657.0 58370.0 105849.0 112690.0 208657.0 200455.0 92064.0 85046.0 175075.0 179754.0 140268.0 148120.0 166562.0 169002.0 99004.0 99716.0 122273.0 121160.0 101887.0 96176.0 52631.0 47244.0 94143.0 102030.0 88000.0 85589.0 160498.0 85675.0 160498.0 160498.0 85675.0 85675.0
157722.0 162340.0 148658.0 146813.0 141731.0 134416.0 107338.0 112717.0 14177.0 22576.0 41868.0 47949.0 101074.0 93483.0 194715.0 201554.0 168634.0 168292.0 23723.0 19504.0 225751.0 217783.0 157879.0 160028.0 44158.0 35983.0 52784.0 48027.0 66938.0 74871.0 174238.0 170809.0 163929.0 155748.0 222055.0 221979.0 7999.0 0.0 98461.0 96680.0 43174.0 50865.0 192171.0 183932.0 41577.0 33475.0 150314.0 157564.0 45894.0 50515.0 119748.0 111682.0 234347.0 230988.0 192459.0 195266.0 134884.0 137817.0 149832.0 141738.0 90305.0 83989.0 56387.0 55874.0 182278.0 182318.0 106403.0 112226.0 84613.0 89168.0 52259.0 45547.0 113073.0 111621.0 181322.0 174517.0 175230.0 168601.0 28058.0 23896.0 122472.0 118515.0 185258.0 178768.0 102322.0 109062.0 150110.0 156268.0 63779.0 64758.0 142225.0 134413.0 123228.0 120196.0 119644.0 127618.0 139799.0 135515.0 160366.0 162695.0 154247.0 148496.0 193813.0 190627.0 115855.0 108045.0 69739.0 62154.0 133633.0 129695.0 202172.0 209926.0 13601.0 20573.0 94914.0 87712.0 175654.0 177370.0 192525.0 191644.0 106753.0 107060.0 178364.0 180142.0 165071.0 158453.0 49858.0 57822.0 64511.0 63366.0 149045.0 147689.0 151199.0 143608.0 65432.0 65639.0 97865.0 104736.0 216470.0 208263.0 100006.0 93021.0 171109.0 175526.0 132272.0 140122.0 160619.0 162815.0 92699.0 93025.0 118663.0 117096.0 94456.0 88943.0 46574.0 41926.0 86185.0 94060.0 81023.0 78263.0 155671.0 89876.0 155671.0 155671.0 89876.0 89876.0
100233.0 100021.0 142228.0 135748.0 144671.0 141320.0 103677.0 101870.0 86626.0 79531.0 72316.0 75912.0 51905.0 48227.0 282419.0 289920.0 106261.0 110390.0 113402.0 114417.0 317488.0 309714.0 59745.0 62821.0 56261.0 64592.0 121068.0 117783.0 32901.0 26141.0 95068.0 88856.0 82730.0 75805.0 308412.0 306863.0 106286.0 98461.0 0.0 7955.0 57678.0 49934.0 275475.0 267307.0 139348.0 131637.0 244556.0 251196.0 61226.0 63774.0 62792.0 59092.0 321228.0 319120.0 279928.0 281304.0 160950.0 158545.0 55965.0 47707.0 24225.0 30701.0 78140.0 85309.0 93135.0 90797.0 45399.0 42780.0 154267.0 161707.0 46691.0 54427.0 155628.0 159263.0 85254.0 77810.0 86775.0 82318.0 70406.0 75774.0 81942.0 73979.0 273670.0 268172.0 18611.0 25426.0 82059.0 84266.0 159205.0 161777.0 79678.0 72842.0 209276.0 208558.0 47343.0 52937.0 73056.0 64907.0 181227.0 178971.0 66217.0 63833.0 106977.0 106513.0 17654.0 10743.0 28814.0 36551.0 61695.0 64057.0 112688.0 119828.0 85132.0 79981.0 188654.0 182384.0 108466.0 105987.0 119603.0 122397.0 75176.0 82601.0 104915.0 103224.0 70662.0 62997.0 69533.0 68435.0 37090.0 35441.0 232675.0 233587.0 52756.0 45147.0 153157.0 156573.0 15185.0 12531.0 308756.0 300534.0 195750.0 189466.0 172065.0 172045.0 40039.0 48084.0 90823.0 88542.0 83809.0 76494.0 136530.0 129917.0 17561.0 24605.0 63567.0 71521.0 15984.0 13089.0 33214.0 27684.0 108311.0 155705.0 108311.0 108311.0 155705.0 155705.0
108188.0 107952.0 149074.0 142731.0 151107.0 147517.0 109795.0 108348.0 84231.0 76749.0 67762.0 70668.0 59077.0 54903.0 277673.0 285238.0 99940.0 103764.0 110249.0 111778.0 313227.0 305497.0 63254.0 67137.0 56104.0 64185.0 116066.0 112972.0 33636.0 28213.0 90574.0 84746.0 78387.0 71115.0 303452.0 301745.0 104356.0 96680.0 7955.0 0.0 57615.0 50189.0 270370.0 262203.0 136979.0 129475.0 240888.0 247394.0 57024.0 58749.0 70593.0 66675.0 316303.0 314349.0 275161.0 276370.0 166327.0 164201.0 54594.0 46290.0 16497.0 23458.0 72217.0 79411.0 90630.0 88940.0 53022.0 50671.0 148737.0 156281.0 46097.0 54165.0 159895.0 163232.0 85159.0 78065.0 84025.0 78990.0 68787.0 74772.0 89449.0 81515.0 269033.0 263677.0 11617.0 19277.0 75894.0 78591.0 156124.0 159050.0 72949.0 65892.0 204605.0 204149.0 55298.0 60853.0 81000.0 72833.0 187094.0 185061.0 63051.0 59801.0 104053.0 103023.0 22308.0 17211.0 28342.0 36038.0 69614.0 72009.0 110435.0 117779.0 83632.0 79077.0 185096.0 179024.0 102624.0 100573.0 114531.0 116929.0 82118.0 89356.0 99740.0 98497.0 69683.0 62458.0 64304.0 62527.0 33283.0 33340.0 227650.0 228790.0 55139.0 47877.0 149092.0 152835.0 22761.0 20384.0 304599.0 296389.0 192553.0 186463.0 178832.0 178998.0 46666.0 54538.0 85005.0 83232.0 89639.0 82540.0 142053.0 135622.0 9627.0 17012.0 59040.0 67002.0 20301.0 19940.0 26231.0 21913.0 100915.0 149917.0 100915.0 100915.0 149917.0 149917.0
119325.0 122996.0 126903.0 123018.0 123656.0 117686.0 83234.0 86133.0 34751.0 31065.0 39635.0 47914.0 60624.0 52792.0 236050.0 243113.0 145088.0 146617.0 62906.0 61529.0 268263.0 260326.0 115916.0 117544.0 1610.0 7250.0 81787.0 77343.0 24872.0 32440.0 143751.0 139022.0 132283.0 124369.0 263076.0 262534.0 51169.0 43174.0 57678.0 57615.0 0.0 7905.0 231858.0 223693.0 84738.0 76558.0 193228.0 200371.0 31650.0 39549.0 79498.0 71655.0 275568.0 272567.0 233713.0 236079.0 127715.0 128060.0 112185.0 103890.0 56199.0 52360.0 55995.0 60638.0 147409.0 146254.0 64489.0 69687.0 116760.0 122924.0 11801.0 3638.0 113816.0 115334.0 142616.0 135336.0 140591.0 134846.0 17275.0 19296.0 86414.0 81002.0 226771.0 220551.0 65720.0 73412.0 123346.0 128185.0 106687.0 107927.0 117227.0 109243.0 163546.0 161315.0 77126.0 85116.0 98805.0 93759.0 151788.0 151970.0 119393.0 114910.0 160216.0 158269.0 74387.0 66369.0 29283.0 21588.0 91633.0 88468.0 167353.0 174854.0 29618.0 23061.0 137553.0 130552.0 150338.0 150323.0 165227.0 165928.0 71699.0 74466.0 150461.0 150787.0 127297.0 120025.0 44110.0 50088.0 31416.0 26028.0 188726.0 188173.0 110100.0 102360.0 105488.0 107053.0 55060.0 62337.0 259091.0 250867.0 143087.0 136174.0 153677.0 156356.0 89231.0 97020.0 133634.0 134053.0 64030.0 61182.0 106137.0 101877.0 58081.0 54952.0 35170.0 38881.0 43868.0 51501.0 50408.0 44278.0 137159.0 120399.0 137159.0 137159.0 120399.0 120399.0
113991.0 117309.0 126098.0 121774.0 123713.0 118108.0 82535.0 84724.0 41699.0 37104.0 42363.0 50183.0 54927.0 47092.0 242946.0 250069.0 140063.0 141932.0 69923.0 68928.0 275517.0 267595.0 108013.0 109647.0 6723.0 15120.0 87100.0 82794.0 17052.0 24540.0 137465.0 132525.0 125837.0 118007.0 269871.0 269206.0 58864.0 50865.0 49934.0 50189.0 7905.0 0.0 238366.0 230197.0 92442.0 84305.0 200672.0 207764.0 32837.0 40378.0 73695.0 66023.0 282412.0 279515.0 240588.0 242835.0 129911.0 129766.0 104781.0 96475.0 49954.0 46857.0 57574.0 62889.0 140365.0 139024.0 57973.0 62749.0 122118.0 128512.0 6326.0 5435.0 117552.0 119518.0 135010.0 127676.0 133602.0 128021.0 24044.0 27064.0 82147.0 76282.0 233723.0 227585.0 58746.0 66564.0 117855.0 122412.0 114171.0 115575.0 112124.0 104180.0 170260.0 168223.0 70176.0 78152.0 92561.0 87179.0 153488.0 153259.0 112432.0 108191.0 153350.0 151613.0 66527.0 58497.0 21878.0 14426.0 84936.0 82166.0 160278.0 167728.0 37272.0 30926.0 144911.0 137990.0 144958.0 144627.0 159424.0 160405.0 68010.0 71544.0 144609.0 144675.0 119843.0 112487.0 45594.0 50605.0 26609.0 20020.0 195255.0 194891.0 102249.0 94501.0 112301.0 114136.0 47184.0 54432.0 266390.0 258162.0 150639.0 143789.0 153590.0 155875.0 81434.0 89260.0 128035.0 128123.0 62607.0 58856.0 107599.0 102857.0 51250.0 48763.0 36494.0 41544.0 35967.0 43598.0 45245.0 38407.0 133236.0 125451.0 133236.0 133236.0 125451.0 125451.0
349823.0 354211.0 331860.0 332003.0 321777.0 313786.0 295263.0 301753.0 197202.0 201291.0 203308.0 199703.0 292227.0 284450.0 24271.0 30237.0 297062.0 294411.0 169490.0 172679.0 63039.0 59066.0 332903.0 337413.0 232314.0 225444.0 154408.0 157814.0 250911.0 258616.0 315206.0 315123.0 308911.0 301430.0 36574.0 32798.0 185129.0 192171.0 275475.0 270370.0 231858.0 238366.0 0.0 8282.0 156563.0 164495.0 68957.0 62618.0 214629.0 211725.0 311089.0 303115.0 49264.0 50233.0 22567.0 16121.0 302363.0 308365.0 311625.0 305245.0 256905.0 248907.0 198891.0 191783.0 332594.0 335785.0 296285.0 301016.0 122474.0 114611.0 237097.0 233024.0 273976.0 268275.0 342581.0 337949.0 325797.0 317843.0 214598.0 214192.0 314613.0 310654.0 27211.0 33350.0 270155.0 273534.0 287197.0 294890.0 132704.0 135981.0 277477.0 271743.0 69044.0 73199.0 308411.0 316349.0 330633.0 325527.0 325725.0 330993.0 308229.0 300405.0 339663.0 333847.0 292587.0 286205.0 250796.0 244858.0 323299.0 320304.0 350300.0 358028.0 204117.0 211943.0 103285.0 111265.0 306182.0 310831.0 324862.0 321365.0 298855.0 298718.0 313401.0 317939.0 325182.0 321333.0 206073.0 208366.0 238665.0 242285.0 43162.0 45141.0 323362.0 316959.0 126830.0 126851.0 280773.0 285515.0 60542.0 56123.0 105318.0 113139.0 347738.0 353965.0 314666.0 322833.0 296335.0 301765.0 283560.0 284753.0 295577.0 297013.0 263700.0 255770.0 212021.0 204128.0 268437.0 276316.0 245622.0 248458.0 280842.0 124149.0 280842.0 280842.0 124149.0 124149.0
341599.0 346009.0 323622.0 323746.0 313569.0 305581.0 286984.0 293472.0 189030.0 193120.0 195140.0 191536.0 284053.0 276282.0 25194.0 32462.0 288895.0 286244.0 161291.0 164437.0 66179.0 61365.0 324736.0 329246.0 224146.0 217279.0 146241.0 149646.0 242697.0 250387.0 307039.0 306955.0 300744.0 293263.0 42924.0 40042.0 176874.0 183932.0 267307.0 262203.0 223693.0 230197.0 8282.0 0.0 148284.0 156213.0 62661.0 56794.0 206462.0 203558.0 302911.0 294931.0 55828.0 55954.0 22884.0 18508.0 294295.0 300263.0 303458.0 297078.0 248738.0 240740.0 190723.0 183616.0 324427.0 327618.0 288123.0 292841.0 114307.0 106444.0 228911.0 224856.0 265944.0 260285.0 334414.0 329782.0 317630.0 309676.0 206431.0 206001.0 306364.0 302424.0 24960.0 29523.0 261988.0 265366.0 279030.0 286722.0 124431.0 127743.0 269310.0 263576.0 60777.0 64927.0 300234.0 308170.0 322483.0 317366.0 317723.0 322952.0 300062.0 292238.0 331496.0 325680.0 284419.0 278038.0 242629.0 236634.0 315129.0 312160.0 342133.0 349861.0 195910.0 203731.0 95087.0 103062.0 298014.0 302664.0 316695.0 313198.0 290603.0 290449.0 305233.0 309772.0 317014.0 313166.0 197906.0 200199.0 230498.0 234117.0 34974.0 36872.0 315194.0 308792.0 118613.0 118584.0 272605.0 277347.0 62504.0 57170.0 97317.0 105102.0 339589.0 345794.0 306498.0 314665.0 288167.0 293598.0 275283.0 276486.0 287384.0 288791.0 255533.0 247602.0 203854.0 195961.0 260270.0 268149.0 237455.0 240291.0 272674.0 115982.0 272674.0 272674.0 115982.0 115982.0
196092.0 201270.0 176193.0 175863.0 166961.0 159095.0 138700.0 145222.0 52769.0 60333.0 74515.0 77143.0 141254.0 133868.0 156469.0 162907.0 198626.0 197005.0 29411.0 25472.0 185475.0 177472.0 198996.0 201375.0 85735.0 77527.0 51883.0 49188.0 108383.0 116349.0 208662.0 206112.0 199274.0 191100.0 184121.0 184743.0 33578.0 41577.0 139348.0 136979.0 84738.0 92442.0 156563.0 148284.0 0.0 8434.0 109467.0 116923.0 82350.0 84484.0 159614.0 151524.0 196048.0 192163.0 154361.0 157845.0 152154.0 156957.0 188816.0 180915.0 128891.0 121888.0 83051.0 79175.0 219306.0 220068.0 147238.0 153362.0 68158.0 69096.0 93660.0 87115.0 125767.0 121832.0 220627.0 214131.0 212206.0 205140.0 69282.0 65444.0 160015.0 156936.0 146791.0 139894.0 141558.0 147733.0 182787.0 189591.0 24044.0 23354.0 174069.0 166669.0 87919.0 83393.0 160747.0 168690.0 179921.0 176114.0 177115.0 181092.0 191646.0 185279.0 229908.0 225972.0 156885.0 149187.0 110848.0 103398.0 174385.0 170017.0 238953.0 246794.0 55172.0 61903.0 55180.0 47500.0 206650.0 209489.0 224483.0 222529.0 144187.0 143206.0 211028.0 213721.0 203975.0 197771.0 81548.0 88388.0 104023.0 103961.0 114158.0 111444.0 191926.0 184432.0 36140.0 31902.0 139384.0 146131.0 176031.0 167868.0 58889.0 51645.0 194461.0 200049.0 173835.0 181696.0 193126.0 196396.0 127569.0 129439.0 141428.0 141932.0 133792.0 127536.0 81777.0 74951.0 127604.0 135522.0 118696.0 117302.0 183483.0 75084.0 183483.0 183483.0 75084.0 75084.0
187703.0 192857.0 168853.0 168336.0 159896.0 152081.0 130839.0 137261.0 45272.0 53101.0 68403.0 71705.0 132825.0 125447.0 164743.0 171224.0 193780.0 192441.0 24618.0 19060.0 193906.0 185904.0 191203.0 193460.0 77588.0 69330.0 51416.0 48097.0 100396.0 108340.0 202806.0 200038.0 193181.0 184994.0 192371.0 192912.0 25497.0 33475.0 131637.0 129475.0 76558.0 84305.0 164495.0 156213.0 8434.0 0.0 117897.0 125357.0 75611.0 78254.0 151180.0 143090.0 204340.0 200505.0 162617.0 166022.0 146171.0 150713.0 181755.0 173792.0 121865.0 115020.0 78186.0 74870.0 212808.0 213377.0 138841.0 145000.0 71795.0 73559.0 85696.0 79009.0 120344.0 116784.0 213490.0 206895.0 205715.0 198755.0 61377.0 57263.0 151660.0 148535.0 155084.0 148226.0 134378.0 140717.0 177298.0 183966.0 32296.0 31757.0 168749.0 161237.0 95684.0 91393.0 152379.0 160317.0 171488.0 167697.0 171309.0 175045.0 185023.0 178808.0 223661.0 219911.0 149123.0 141372.0 103032.0 95518.0 165978.0 161589.0 232535.0 240359.0 47070.0 53643.0 63539.0 55899.0 201594.0 204179.0 219234.0 217525.0 135830.0 134931.0 205594.0 208075.0 196948.0 190617.0 75717.0 82859.0 96700.0 96325.0 121920.0 119414.0 184298.0 176763.0 41956.0 38783.0 131340.0 138182.0 184465.0 176301.0 67311.0 60027.0 187719.0 193154.0 165732.0 173563.0 187697.0 190723.0 119369.0 121132.0 134606.0 134839.0 126573.0 120506.0 75280.0 68777.0 119637.0 127526.0 111874.0 110134.0 179018.0 78498.0 179018.0 179018.0 78498.0 78498.0
304948.0 310381.0 276089.0 277330.0 264813.0 256788.0 243507.0 250704.0 159310.0 165494.0 173573.0 172475.0 250721.0 243323.0 55915.0 59828.0 280150.0 277499.0 131460.0 131744.0 76439.0 68423.0 304081.0 307358.0 194070.0 186149.0 128746.0 130505.0 215676.0 223676.0 297859.0 297249.0 290808.0 283035.0 82346.0 85659.0 142423.0 150314.0 244556.0 240888.0 193228.0 200672.0 68957.0 62661.0 109467.0 117897.0 0.0 8055.0 183906.0 183224.0 269056.0 260968.0 92301.0 86816.0 54816.0 61101.0 241850.0 248500.0 288443.0 281191.0 229889.0 222134.0 174442.0 168021.0 313649.0 316017.0 256592.0 262536.0 106678.0 99180.0 201022.0 195252.0 213045.0 206686.0 320269.0 314683.0 306670.0 298916.0 176805.0 174110.0 268607.0 265958.0 46516.0 38558.0 243198.0 248064.0 269992.0 277605.0 86555.0 86183.0 260338.0 254265.0 48826.0 43700.0 269950.0 277918.0 289382.0 285550.0 263910.0 269794.0 287746.0 280357.0 321820.0 316377.0 262196.0 254941.0 217154.0 210177.0 283781.0 279483.0 332124.0 339942.0 163687.0 170879.0 55953.0 62682.0 289269.0 293916.0 307950.0 304453.0 252834.0 251181.0 296481.0 300920.0 303020.0 297943.0 178444.0 182879.0 207694.0 209396.0 49819.0 41402.0 295842.0 288740.0 92263.0 88054.0 246713.0 252798.0 66796.0 58739.0 50621.0 58200.0 288722.0 295495.0 281330.0 289358.0 279326.0 284520.0 235054.0 237730.0 238281.0 240837.0 235910.0 228611.0 182138.0 174272.0 234564.0 242582.0 218783.0 219604.0 263929.0 110557.0 263929.0 263929.0 110557.0 110557.0
312612.0 317995.0 284124.0 285347.0 272862.0 264837.0 251432.0 258608.0 166297.0 172337.0 179916.0 178573.0 258151.0 250721.0 48270.0 51915.0 284922.0 282271.0 138331.0 138850.0 68694.0 60676.0 310626.0 314014.0 201187.0 193323.0 134424.0 136370.0 222614.0 230607.0 302907.0 302461.0 296071.0 288354.0 74423.0 77899.0 149706.0 157564.0 251196.0 247394.0 200371.0 207764.0 62618.0 56794.0 116923.0 125357.0 8055.0 0.0 190378.0 189487.0 276537.0 268448.0 84272.0 78762.0 47301.0 53812.0 249890.0 256548.0 294430.0 287255.0 236144.0 228348.0 180266.0 173744.0 319098.0 321607.0 263915.0 269785.0 110953.0 103290.0 207992.0 202337.0 221082.0 214709.0 326201.0 320715.0 312146.0 304349.0 183843.0 181308.0 276303.0 273584.0 39065.0 31153.0 249476.0 254209.0 274971.0 282621.0 93785.0 93702.0 265282.0 259338.0 51548.0 47485.0 277206.0 285182.0 296837.0 292922.0 271915.0 277816.0 293411.0 285951.0 327037.0 321477.0 268820.0 261628.0 223968.0 217059.0 291122.0 286903.0 337429.0 345230.0 170879.0 178137.0 62869.0 69855.0 294041.0 298691.0 312722.0 309225.0 260519.0 258938.0 301228.0 305795.0 308924.0 303966.0 184605.0 188844.0 214258.0 216129.0 48298.0 40091.0 302259.0 295212.0 98465.0 94622.0 253616.0 259602.0 59138.0 51018.0 58200.0 65887.0 296775.0 303550.0 288225.0 296274.0 284191.0 289522.0 242843.0 245451.0 246331.0 248874.0 242252.0 234877.0 188527.0 180629.0 241431.0 249452.0 224995.0 226007.0 268701.0 114448.0 268701.0 268701.0 114448.0 114448.0
144332.0 146860.0 158413.0 154339.0 155306.0 149308.0 114751.0 117337.0 31769.0 23352.0 11448.0 17782.0 85360.0 77731.0 221249.0 228724.0 123525.0 123722.0 54119.0 56887.0 256313.0 248558.0 120275.0 123917.0 30708.0 31289.0 60376.0 56816.0 38378.0 45279.0 128371.0 125072.0 118193.0 110003.0 247377.0 245990.0 52319.0 45894.0 61226.0 57024.0 31650.0 32837.0 214629.0 206462.0 82350.0 75611.0 183906.0 190378.0 0.0 7938.0 103513.0 96341.0 260160.0 257956.0 218769.0 220256.0 158375.0 159122.0 106632.0 98851.0 46780.0 39567.0 24737.0 30262.0 137235.0 137774.0 86290.0 89291.0 94573.0 101673.0 28052.0 29715.0 142523.0 143183.0 138531.0 132259.0 130149.0 123282.0 24762.0 32751.0 114198.0 107888.0 212462.0 206946.0 59795.0 65544.0 104332.0 110399.0 99787.0 103326.0 96663.0 88779.0 148090.0 147336.0 96378.0 104030.0 120894.0 114468.0 182809.0 183259.0 109413.0 103268.0 148339.0 144921.0 78704.0 71872.0 36734.0 32145.0 111816.0 110506.0 157012.0 164820.0 36096.0 36379.0 128190.0 122282.0 130180.0 131631.0 146787.0 146146.0 100550.0 104345.0 132540.0 134249.0 121732.0 115738.0 12758.0 18511.0 24149.0 28009.0 171743.0 172458.0 111946.0 104840.0 92079.0 95857.0 66367.0 70887.0 247633.0 239417.0 135961.0 130141.0 185326.0 187962.0 100037.0 108204.0 114847.0 116927.0 95195.0 91679.0 137403.0 133371.0 52246.0 45442.0 3661.0 10596.0 54111.0 61851.0 36352.0 35783.0 112043.0 96878.0 112043.0 112043.0 96878.0 96878.0
150492.0 152749.0 166209.0 162062.0 163200.0 157226.0 122557.0 125036.0 36378.0 28122.0 10039.0 12281.0 91768.0 84250.0 218925.0 226497.0 118140.0 117962.0 55495.0 59248.0 254696.0 247007.0 121791.0 125885.0 38573.0 39180.0 57344.0 54230.0 44218.0 50547.0 124669.0 121786.0 114928.0 106740.0 244737.0 243113.0 56264.0 50515.0 63774.0 58749.0 39549.0 40378.0 211725.0 203558.0 84484.0 78254.0 183224.0 189487.0 7938.0 0.0 109639.0 102655.0 257577.0 255601.0 216412.0 217646.0 166263.0 167044.0 105802.0 98270.0 46665.0 38938.0 17487.0 23688.0 134872.0 135854.0 92112.0 94635.0 90654.0 98001.0 35255.0 37514.0 150178.0 150716.0 137752.0 131792.0 127769.0 120660.0 32059.0 39907.0 121080.0 114598.0 210302.0 205002.0 59989.0 64976.0 99807.0 106171.0 100443.0 104532.0 91759.0 83989.0 145873.0 145552.0 101567.0 109069.0 126498.0 119811.0 190727.0 191194.0 107363.0 100840.0 145448.0 141660.0 80884.0 74513.0 41660.0 38101.0 117064.0 116164.0 154477.0 162323.0 42083.0 43282.0 127848.0 122294.0 125150.0 126997.0 142143.0 141141.0 107708.0 111721.0 128113.0 130191.0 120722.0 115126.0 6057.0 10574.0 27504.0 32950.0 168958.0 170041.0 112939.0 106084.0 91022.0 95386.0 70455.0 74248.0 246168.0 237974.0 136155.0 130673.0 193211.0 195804.0 103328.0 111478.0 110298.0 112829.0 102898.0 99221.0 145338.0 141306.0 52832.0 45391.0 4795.0 9541.0 58432.0 65885.0 35595.0 36902.0 105770.0 92464.0 105770.0 105770.0 92464.0 92464.0
40853.0 43622.0 85628.0 78165.0 91657.0 90705.0 57642.0 52028.0 113928.0 110511.0 114442.0 121241.0 18881.0 26706.0 314439.0 321302.0 165570.0 170628.0 141667.0 139138.0 345053.0 337057.0 78099.0 73903.0 79218.0 85672.0 160789.0 156488.0 65429.0 59751.0 147992.0 140595.0 135761.0 130534.0 341714.0 341454.0 127331.0 119748.0 62792.0 70593.0 79498.0 73695.0 311089.0 302911.0 159614.0 151180.0 269056.0 276537.0 103513.0 109639.0 0.0 8090.0 354059.0 350736.0 312168.0 314840.0 116675.0 111900.0 100730.0 94518.0 85590.0 90087.0 126928.0 133324.0 137568.0 132369.0 18279.0 20343.0 195803.0 202198.0 76413.0 78783.0 121630.0 127596.0 118479.0 110459.0 132926.0 131360.0 96746.0 96945.0 21764.0 14433.0 305002.0 298508.0 81185.0 86969.0 141355.0 141954.0 183033.0 182873.0 140598.0 134385.0 242495.0 239828.0 18936.0 20607.0 20468.0 19156.0 131737.0 127660.0 116252.0 117209.0 152283.0 154495.0 60990.0 57908.0 68815.0 71546.0 19246.0 11796.0 154249.0 159790.0 107154.0 99433.0 214353.0 206919.0 166073.0 162070.0 173926.0 178260.0 25560.0 33244.0 160114.0 156710.0 110873.0 102689.0 115593.0 118118.0 84131.0 77114.0 267938.0 267077.0 81019.0 75100.0 184394.0 185283.0 47905.0 51562.0 335638.0 327468.0 218440.0 210996.0 115341.0 113867.0 47101.0 49054.0 148786.0 144827.0 45986.0 38931.0 92654.0 84886.0 79887.0 85549.0 107008.0 113580.0 55594.0 51415.0 91510.0 83489.0 170653.0 199028.0 170653.0 170653.0 199028.0 199028.0
48073.0 51345.0 85576.0 78457.0 90432.0 88785.0 53964.0 49204.0 105987.0 102701.0 107146.0 114106.0 11099.0 18932.0 306383.0 313237.0 163616.0 168379.0 133666.0 131084.0 336963.0 328967.0 80985.0 77476.0 71419.0 77741.0 153116.0 148781.0 58548.0 53324.0 147468.0 140243.0 135131.0 129530.0 333670.0 333433.0 119254.0 111682.0 59092.0 66675.0 71655.0 66023.0 303115.0 294931.0 151524.0 143090.0 260968.0 268448.0 96341.0 102655.0 8090.0 0.0 346006.0 342668.0 304115.0 306807.0 113531.0 109215.0 100974.0 94326.0 80985.0 84969.0 120027.0 126313.0 138397.0 133565.0 13709.0 18863.0 188134.0 194468.0 68969.0 71043.0 116776.0 122470.0 120612.0 112526.0 133444.0 131397.0 88877.0 88942.0 22922.0 14923.0 296940.0 290436.0 77680.0 83945.0 139328.0 140362.0 174945.0 174785.0 138032.0 131546.0 234486.0 231784.0 20516.0 24825.0 28497.0 26320.0 129852.0 126211.0 115953.0 116342.0 153107.0 154901.0 59520.0 55464.0 62334.0 64570.0 25785.0 19244.0 155655.0 161470.0 99127.0 91391.0 206266.0 198830.0 164599.0 160953.0 173249.0 177255.0 21249.0 29455.0 159188.0 156126.0 111953.0 103679.0 108563.0 111372.0 77674.0 70427.0 259959.0 259060.0 82817.0 76415.0 176390.0 177235.0 43938.0 48706.0 327549.0 319378.0 210353.0 202913.0 115500.0 114591.0 49028.0 52189.0 147155.0 143583.0 40146.0 32651.0 89174.0 81541.0 75685.0 80836.0 99874.0 106287.0 50264.0 46983.0 86176.0 77964.0 167380.0 191448.0 167380.0 167380.0 191448.0 191448.0
391770.0 396618.0 367632.0 368548.0 356640.0 348609.0 333545.0 340464.0 240823.0 245577.0 248934.0 245653.0 335312.0 327638.0 39645.0 33281.0 343318.0 340667.0 212685.0 214922.0 32595.0 35851.0 379013.0 383409.0 276147.0 268889.0 200238.0 203445.0 295707.0 303523.0 361462.0 361378.0 355166.0 347686.0 12954.0 17418.0 226890.0 234347.0 321228.0 316303.0 275568.0 282412.0 49264.0 55828.0 196048.0 204340.0 92301.0 84272.0 260160.0 257577.0 354059.0 346006.0 0.0 8049.0 41892.0 39932.0 334145.0 340763.0 357864.0 351509.0 303048.0 295053.0 245077.0 237989.0 378850.0 382041.0 340025.0 345157.0 168743.0 160874.0 281594.0 277008.0 305345.0 298981.0 388646.0 384174.0 372053.0 364098.0 258426.0 257258.0 355932.0 352537.0 49257.0 56333.0 316323.0 319779.0 333453.0 341145.0 172044.0 173777.0 323732.0 317998.0 112304.0 114280.0 352586.0 360564.0 373979.0 369290.0 356165.0 362087.0 354485.0 346660.0 385918.0 380103.0 338459.0 331937.0 295959.0 289755.0 367200.0 363769.0 396555.0 404284.0 246955.0 254633.0 140943.0 148788.0 352437.0 357087.0 371118.0 367621.0 340102.0 339254.0 359656.0 364195.0 371356.0 367573.0 252006.0 254510.0 284277.0 287561.0 88714.0 87755.0 369555.0 363099.0 170111.0 168781.0 325974.0 331000.0 38726.0 42065.0 139646.0 147643.0 380929.0 387638.0 360121.0 368283.0 342590.0 348021.0 323553.0 325472.0 330138.0 332421.0 309793.0 301899.0 257676.0 249740.0 313630.0 321570.0 291756.0 294405.0 327097.0 170417.0 327097.0 327097.0 170417.0 170417.0
388131.0 393100.0 362682.0 363738.0 351541.0 343513.0 329114.0 336115.0 237856.0 242824.0 246804.0 243774.0 332041.0 324405.0 36710.0 29455.0 342189.0 339538.0 209661.0 211632.0 24611.0 27857.0 377232.0 381485.0 273187.0 265813.0 198322.0 201389.0 293087.0 300944.0 360333.0 360250.0 354038.0 346557.0 14310.0 21292.0 223443.0 230988.0 319120.0 314349.0 272567.0 279515.0 50233.0 55954.0 192163.0 200505.0 86816.0 78762.0 257956.0 255601.0 350736.0 342668.0 8049.0 0.0 39193.0 38674.0 328581.0 335284.0 356733.0 350259.0 301348.0 293362.0 243490.0 236447.0 377721.0 380912.0 336955.0 342225.0 167516.0 159588.0 278867.0 274098.0 299757.0 293307.0 387691.0 383080.0 370924.0 362970.0 255492.0 254093.0 352164.0 348917.0 45796.0 52291.0 314659.0 318295.0 332324.0 340017.0 168231.0 169640.0 322604.0 316870.0 109874.0 111300.0 349661.0 357647.0 370747.0 366201.0 350383.0 356391.0 353356.0 345532.0 384790.0 378974.0 336437.0 329806.0 293511.0 287186.0 364163.0 360581.0 395427.0 403155.0 243747.0 251368.0 136986.0 144746.0 351308.0 355958.0 369989.0 366492.0 336334.0 335314.0 358528.0 363066.0 370377.0 366435.0 250105.0 252846.0 282099.0 285182.0 87266.0 85560.0 367917.0 361368.0 167264.0 165583.0 323520.0 328702.0 30736.0 34444.0 135100.0 143065.0 375532.0 382312.0 357786.0 365939.0 341462.0 346892.0 319505.0 321592.0 325019.0 327445.0 308020.0 300181.0 255554.0 247600.0 311181.0 319146.0 290050.0 292480.0 325969.0 168223.0 325969.0 325969.0 168223.0 168223.0
349924.0 354745.0 327059.0 327744.0 316347.0 308320.0 292257.0 299086.0 198974.0 203807.0 207612.0 204597.0 293421.0 285749.0 2678.0 10717.0 303406.0 300755.0 170819.0 173031.0 44180.0 38769.0 338063.0 342297.0 234303.0 227017.0 159146.0 162197.0 254011.0 261852.0 321550.0 321467.0 315255.0 307774.0 29764.0 31355.0 185014.0 192459.0 279928.0 275161.0 233713.0 240588.0 22567.0 22884.0 154361.0 162617.0 54816.0 47301.0 218769.0 216412.0 312168.0 304115.0 41892.0 39193.0 0.0 7469.0 294950.0 301337.0 317839.0 311295.0 262205.0 254222.0 204393.0 197370.0 338938.0 342129.0 298157.0 303326.0 128674.0 120714.0 239840.0 235180.0 266261.0 260155.0 348912.0 344204.0 332141.0 324187.0 216588.0 215373.0 314135.0 310689.0 8332.0 16285.0 275524.0 279223.0 293541.0 301234.0 130329.0 132321.0 283821.0 278087.0 70701.0 72404.0 310758.0 318738.0 332090.0 327419.0 317559.0 323215.0 314523.0 306749.0 346007.0 340191.0 297244.0 290614.0 254373.0 248089.0 325340.0 321884.0 356644.0 364372.0 205066.0 212741.0 99379.0 107286.0 312526.0 317175.0 331206.0 327709.0 298308.0 297547.0 319745.0 324283.0 331585.0 327534.0 210925.0 213720.0 242910.0 246025.0 48507.0 46375.0 328784.0 322211.0 128290.0 126889.0 284386.0 289531.0 39744.0 34295.0 98826.0 106838.0 341256.0 347795.0 318623.0 326778.0 302679.0 308109.0 281920.0 283734.0 289912.0 291922.0 268858.0 261033.0 216361.0 208408.0 272044.0 280003.0 250906.0 253294.0 287186.0 129679.0 287186.0 287186.0 129679.0 129679.0
352914.0 357605.0 331452.0 331987.0 320907.0 312886.0 296130.0 302866.0 201329.0 205916.0 209018.0 205721.0 296047.0 288338.0 8434.0 14253.0 303615.0 300964.0 173270.0 175787.0 47731.0 43234.0 339094.0 343477.0 236624.0 229471.0 160306.0 163523.0 255949.0 263742.0 321759.0 321676.0 315464.0 307983.0 27124.0 26905.0 187932.0 195266.0 281304.0 276370.0 236079.0 242835.0 16121.0 18508.0 157845.0 166022.0 61101.0 53812.0 220256.0 217646.0 314840.0 306807.0 39932.0 38674.0 7469.0 0.0 300024.0 306314.0 318181.0 311760.0 263139.0 255145.0 205189.0 198112.0 339147.0 342338.0 300565.0 305582.0 128981.0 121080.0 241902.0 237445.0 271398.0 265391.0 349080.0 344515.0 332350.0 324396.0 218892.0 217936.0 317281.0 313679.0 14879.0 22671.0 276422.0 279928.0 293750.0 301443.0 133802.0 136174.0 284030.0 278296.0 72587.0 75076.0 313005.0 320974.0 334657.0 329835.0 322836.0 328395.0 314782.0 306958.0 346216.0 340400.0 298528.0 292015.0 256122.0 249972.0 327702.0 324407.0 356853.0 364581.0 207687.0 215419.0 103180.0 111144.0 312734.0 317384.0 331415.0 327918.0 301466.0 300890.0 319954.0 324492.0 331771.0 327887.0 212074.0 214605.0 244366.0 247702.0 48819.0 47969.0 329662.0 323187.0 130593.0 129627.0 286135.0 291110.0 44580.0 40002.0 103361.0 111353.0 346107.0 352566.0 320239.0 328402.0 302888.0 308318.0 285391.0 287023.0 294522.0 296377.0 269873.0 261987.0 217757.0 209826.0 273790.0 281720.0 251845.0 254472.0 287395.0 129575.0 287395.0 287395.0 129575.0 129575.0
120518.0 128678.0 48697.0 55110.0 34883.0 30104.0 59648.0 64648.0 141837.0 145856.0 163424.0 171894.0 114036.0 114500.0 296530.0 301377.0 265703.0 268770.0 155956.0 148764.0 315202.0 307483.0 194468.0 190567.0 129005.0 127087.0 187316.0 182637.0 138742.0 140242.0 255783.0 249227.0 243374.0 236689.0 323832.0 326304.0 137397.0 134884.0 160950.0 166327.0 127715.0 129911.0 302363.0 294295.0 152154.0 146171.0 241850.0 249890.0 158375.0 166263.0 116675.0 113531.0 334145.0 328581.0 294950.0 300024.0 0.0 8242.0 212165.0 204757.0 174405.0 174023.0 180850.0 183676.0 250212.0 246009.0 124006.0 131454.0 216227.0 219090.0 136224.0 130563.0 28841.0 35717.0 234010.0 225906.0 244705.0 241595.0 135372.0 128581.0 96924.0 102607.0 286709.0 278939.0 177789.0 185604.0 241989.0 244918.0 173423.0 168290.0 238053.0 230449.0 236799.0 230715.0 134040.0 137266.0 128959.0 133240.0 25501.0 28965.0 225596.0 224349.0 264790.0 265678.0 168528.0 162253.0 145371.0 141091.0 134643.0 126457.0 268280.0 274414.0 132035.0 126678.0 199675.0 191841.0 268903.0 266850.0 280552.0 283232.0 92305.0 84076.0 265860.0 264074.0 224395.0 216073.0 169788.0 176781.0 155940.0 148326.0 262412.0 258025.0 196134.0 189428.0 188052.0 183986.0 147533.0 155114.0 305284.0 297994.0 197100.0 189233.0 47928.0 55494.0 162524.0 165527.0 251309.0 249445.0 77528.0 85273.0 24648.0 32023.0 172426.0 173565.0 161564.0 162890.0 146027.0 148080.0 173264.0 165209.0 262112.0 222342.0 262112.0 262112.0 222342.0 222342.0
113709.0 121866.0 40690.0 47339.0 27010.0 23025.0 55811.0 60035.0 144067.0 147672.0 164685.0 173195.0 110436.0 111422.0 302954.0 307909.0 263910.0 267199.0 159424.0 152400.0 322198.0 314449.0 189927.0 185773.0 129285.0 127898.0 190480.0 185762.0 137685.0 138722.0 253047.0 246356.0 240620.0 234094.0 330333.0 332687.0 140746.0 137817.0 158545.0 164201.0 128060.0 129766.0 308365.0 300263.0 156957.0 150713.0 248500.0 256548.0 159122.0 167044.0 111900.0 109215.0 340763.0 335284.0 301337.0 306314.0 8242.0 0.0 208765.0 201500.0 172953.0 172946.0 182069.0 185186.0 246714.0 242310.0 120214.0 127455.0 220096.0 223203.0 136041.0 130758.0 35963.0 43197.0 229826.0 221739.0 241347.0 238471.0 136664.0 130149.0 91613.0 97658.0 293119.0 285382.0 175739.0 183459.0 240039.0 242729.0 178654.0 173749.0 236407.0 228894.0 242346.0 236408.0 129659.0 132504.0 123298.0 127928.0 23734.0 24880.0 222547.0 221580.0 261344.0 262466.0 165357.0 159327.0 144271.0 140370.0 129473.0 121302.0 264529.0 270528.0 134199.0 128497.0 205448.0 197569.0 266822.0 264532.0 278041.0 280939.0 88110.0 79848.0 263419.0 261419.0 220675.0 212359.0 170805.0 177602.0 155431.0 147682.0 268088.0 263864.0 192009.0 185458.0 192661.0 188847.0 144781.0 152164.0 312277.0 304932.0 203205.0 195299.0 40510.0 47852.0 158238.0 160912.0 249196.0 247084.0 74762.0 82289.0 22365.0 28638.0 170647.0 172164.0 162398.0 164117.0 143940.0 145569.0 172342.0 164157.0 261115.0 226086.0 261115.0 261115.0 226086.0 226086.0
126134.0 122346.0 186264.0 178880.0 191373.0 189388.0 152960.0 149449.0 136650.0 128659.0 115752.0 116015.0 98345.0 97753.0 320441.0 328262.0 72853.0 79801.0 160723.0 163354.0 358024.0 350527.0 36668.0 44792.0 110663.0 118656.0 160239.0 158075.0 88106.0 81968.0 48315.0 40552.0 36852.0 34136.0 344912.0 343013.0 157230.0 149832.0 55965.0 54594.0 112185.0 104781.0 311625.0 303458.0 188816.0 181755.0 288443.0 294430.0 106632.0 105802.0 100730.0 100974.0 357864.0 356733.0 317839.0 318181.0 212165.0 208765.0 0.0 8311.0 59926.0 67110.0 114292.0 121035.0 38122.0 34918.0 88784.0 82135.0 189216.0 197149.0 100588.0 108707.0 209735.0 213864.0 31951.0 26387.0 32589.0 30688.0 122427.0 128881.0 122472.0 114829.0 312399.0 307747.0 47510.0 41095.0 51870.0 48634.0 206168.0 209938.0 56691.0 55079.0 248452.0 249163.0 81794.0 82123.0 100071.0 91934.0 230311.0 227014.0 16906.0 21829.0 52628.0 53932.0 43899.0 50989.0 82931.0 90597.0 88983.0 95539.0 57056.0 63989.0 137235.0 133227.0 233467.0 228064.0 70138.0 64386.0 74315.0 79676.0 121229.0 129412.0 61632.0 57063.0 15243.0 9712.0 110178.0 105586.0 85322.0 87260.0 269469.0 271751.0 25859.0 27681.0 196215.0 201006.0 66016.0 57825.0 349891.0 341776.0 241951.0 236449.0 216053.0 214544.0 54856.0 56682.0 55050.0 48742.0 134791.0 126944.0 187516.0 180335.0 55380.0 61281.0 107643.0 115147.0 71841.0 66820.0 70389.0 71658.0 89809.0 189257.0 89809.0 89809.0 189257.0 189257.0
121726.0 118369.0 179821.0 172538.0 184577.0 182400.0 145729.0 142429.0 128633.0 120691.0 108172.0 108716.0 91183.0 90267.0 313887.0 321678.0 75370.0 81873.0 152968.0 155466.0 351204.0 343670.0 36621.0 44431.0 102370.0 110379.0 153252.0 150968.0 79795.0 73675.0 53560.0 46082.0 41508.0 37338.0 338563.0 336634.0 149175.0 141738.0 47707.0 46290.0 103890.0 96475.0 305245.0 297078.0 180915.0 173792.0 281191.0 287255.0 98851.0 98270.0 94518.0 94326.0 351509.0 350259.0 311295.0 311760.0 204757.0 201500.0 8311.0 0.0 52079.0 59430.0 107335.0 114174.0 45908.0 43104.0 81825.0 75463.0 182781.0 190683.0 92306.0 100418.0 201877.0 205924.0 39712.0 33525.0 40015.0 37114.0 114257.0 120656.0 116183.0 108437.0 305754.0 300998.0 39439.0 33341.0 52973.0 50905.0 198516.0 202177.0 56444.0 53685.0 241676.0 242229.0 75620.0 76541.0 95147.0 86847.0 223236.0 220086.0 21742.0 24033.0 60223.0 60967.0 36255.0 43068.0 74630.0 82303.0 83797.0 89990.0 65128.0 72160.0 129077.0 124998.0 226062.0 220564.0 73694.0 68604.0 79578.0 84393.0 114274.0 122410.0 66214.0 62310.0 23447.0 16888.0 102791.0 98459.0 77244.0 79032.0 262998.0 265124.0 25081.0 24465.0 188932.0 193594.0 58104.0 50010.0 342996.0 334862.0 234413.0 228827.0 209685.0 208380.0 49713.0 52549.0 57609.0 52092.0 127294.0 119490.0 180115.0 173004.0 47290.0 53425.0 99965.0 107548.0 63613.0 58744.0 62739.0 63659.0 88942.0 182886.0 88942.0 88942.0 182886.0 182886.0
124073.0 124112.0 160875.0 154924.0 161836.0 157664.0 120008.0 119440.0 76874.0 68795.0 56387.0 57827.0 72405.0 67199.0 264751.0 272412.0 91591.0 94375.0 100899.0 103427.0 301080.0 293433.0 76012.0 80842.0 54593.0 61692.0 103153.0 100430.0 36265.0 34234.0 87568.0 82855.0 76096.0 68170.0 290151.0 288294.0 97539.0 90305.0 24225.0 16497.0 56199.0 49954.0 256905.0 248738.0 128891.0 121865.0 229889.0 236144.0 46780.0 46665.0 85590.0 80985.0 303048.0 301348.0 262205.0 263139.0 174405.0 172953.0 59926.0 52079.0 0.0 7999.0 58050.0 65205.0 92313.0 92042.0 67580.0 66141.0 134764.0 142455.0 44464.0 52563.0 165466.0 168115.0 91778.0 85483.0 85338.0 79141.0 63545.0 70594.0 103379.0 95581.0 256302.0 251191.0 13366.0 18852.0 68519.0 72648.0 146517.0 150102.0 63749.0 56062.0 191924.0 191921.0 71235.0 77095.0 97095.0 89034.0 196260.0 194787.0 64192.0 59052.0 104532.0 102223.0 37620.0 33572.0 29667.0 35804.0 85842.0 87857.0 112279.0 119951.0 78139.0 74956.0 174455.0 168775.0 95694.0 94904.0 109586.0 110871.0 94591.0 101294.0 94745.0 94721.0 75091.0 68963.0 51634.0 48541.0 26131.0 30176.0 214333.0 215848.0 66593.0 60055.0 137681.0 142008.0 37861.0 36756.0 292640.0 284460.0 182552.0 176853.0 190323.0 190998.0 62794.0 70506.0 78475.0 78220.0 99417.0 92910.0 150615.0 144657.0 7295.0 1363.0 48009.0 55724.0 31313.0 34175.0 11298.0 12245.0 88814.0 135524.0 88814.0 88814.0 135524.0 135524.0
129324.0 129740.0 162727.0 157050.0 163013.0 158507.0 121058.0 121017.0 70312.0 62097.0 48769.0 49919.0 75787.0 70002.0 256770.0 264437.0 93274.0 95418.0 93617.0 96417.0 293158.0 285522.0 84010.0 88809.0 50755.0 57244.0 95194.0 92510.0 35285.0 35054.0 91891.0 87668.0 80829.0 72752.0 282155.0 280295.0 91032.0 83989.0 30701.0 23458.0 52360.0 46857.0 248907.0 240740.0 121888.0 115020.0 222134.0 228348.0 39567.0 38938.0 90087.0 84969.0 295053.0 293362.0 254222.0 255145.0 174023.0 172946.0 67110.0 59430.0 7999.0 0.0 50053.0 57210.0 98292.0 98443.0 71876.0 71198.0 126769.0 134458.0 40935.0 48744.0 163810.0 166110.0 99042.0 92925.0 91250.0 84728.0 57915.0 65288.0 106929.0 99278.0 248333.0 243242.0 21310.0 26090.0 71040.0 75833.0 139090.0 142832.0 65320.0 57410.0 183964.0 184004.0 76730.0 82972.0 102686.0 94804.0 196426.0 195279.0 70265.0 64597.0 110040.0 107290.0 45250.0 40667.0 28676.0 33460.0 91665.0 93168.0 118199.0 125942.0 72234.0 69617.0 166785.0 161186.0 98112.0 97963.0 112875.0 113615.0 97198.0 103510.0 98127.0 98652.0 82177.0 76311.0 43768.0 40544.0 21125.0 26855.0 206338.0 207869.0 74566.0 68052.0 129897.0 134324.0 43069.0 43113.0 284740.0 276564.0 175007.0 169397.0 191902.0 192905.0 70108.0 77931.0 81287.0 81770.0 100364.0 94257.0 150581.0 144910.0 15040.0 6914.0 40542.0 48132.0 34713.0 38991.0 3353.0 8819.0 88170.0 127556.0 88170.0 88170.0 127556.0 127556.0
167773.0 169878.0 182898.0 178949.0 179428.0 173243.0 139229.0 141984.0 43495.0 36729.0 17433.0 9094.0 109179.0 101695.0 206958.0 214676.0 115629.0 114275.0 53755.0 59442.0 243887.0 236339.0 134060.0 138795.0 55182.0 54517.0 45947.0 43938.0 61508.0 67521.0 126688.0 124857.0 118147.0 110100.0 232167.0 230279.0 60221.0 56387.0 78140.0 72217.0 55995.0 57574.0 198891.0 190723.0 83051.0 78186.0 174442.0 180266.0 24737.0 17487.0 126928.0 120027.0 245077.0 243490.0 204393.0 205189.0 180850.0 182069.0 114292.0 107335.0 58050.0 50053.0 0.0 7195.0 139885.0 141809.0 109263.0 111472.0 76725.0 84406.0 52658.0 54325.0 163251.0 163193.0 145967.0 140647.0 132829.0 125276.0 45479.0 52530.0 138567.0 132072.0 198647.0 193746.0 71267.0 74850.0 100102.0 107135.0 95327.0 100528.0 91176.0 83940.0 134416.0 134898.0 118272.0 125634.0 143464.0 136597.0 205647.0 206472.0 113414.0 106198.0 149171.0 144550.0 94520.0 88819.0 58515.0 55458.0 133780.0 133180.0 158922.0 166790.0 51677.0 55059.0 120192.0 115438.0 123600.0 126547.0 141490.0 139481.0 125155.0 129063.0 128212.0 131236.0 128672.0 123894.0 11984.0 9706.0 43686.0 49935.0 156371.0 158088.0 124479.0 118086.0 82518.0 87993.0 86363.0 89383.0 235661.0 227529.0 129510.0 124802.0 209484.0 212307.0 118136.0 126214.0 110330.0 114019.0 119845.0 116413.0 160679.0 157013.0 64955.0 56942.0 21083.0 17962.0 74663.0 81786.0 46797.0 50493.0 100929.0 77703.0 100929.0 100929.0 77703.0 77703.0
174177.0 176425.0 187361.0 183628.0 183465.0 177111.0 143728.0 146772.0 43972.0 38190.0 21068.0 12746.0 115399.0 107839.0 199940.0 207676.0 119599.0 117834.0 50259.0 56551.0 237032.0 229509.0 141209.0 145974.0 59959.0 58454.0 39322.0 37650.0 67906.0 74151.0 132007.0 130458.0 123807.0 115825.0 225074.0 223172.0 58814.0 55874.0 85309.0 79411.0 60638.0 62889.0 191783.0 183616.0 79175.0 74870.0 168021.0 173744.0 30262.0 23688.0 133324.0 126313.0 237989.0 236447.0 197370.0 198112.0 183676.0 185186.0 121035.0 114174.0 65205.0 57210.0 7195.0 0.0 145914.0 148040.0 115789.0 118192.0 69560.0 77262.0 58309.0 59276.0 165194.0 164805.0 152621.0 147410.0 138884.0 131249.0 48615.0 55096.0 144455.0 138099.0 191675.0 186836.0 78395.0 81853.0 105052.0 112240.0 90104.0 95629.0 95921.0 88899.0 127508.0 128131.0 125053.0 132472.0 150120.0 143346.0 208660.0 209736.0 119727.0 112390.0 154874.0 150051.0 101715.0 95995.0 65197.0 61781.0 140560.0 139804.0 164784.0 172644.0 52894.0 57166.0 114135.0 109611.0 127858.0 131146.0 145972.0 143640.0 130780.0 134425.0 132974.0 136267.0 135304.0 130664.0 17751.0 16891.0 50558.0 56543.0 149294.0 151091.0 131578.0 125223.0 76377.0 82130.0 93361.0 96498.0 228859.0 220741.0 123700.0 119224.0 213531.0 216563.0 125291.0 133376.0 115148.0 119156.0 124664.0 121545.0 164054.0 160663.0 72132.0 64106.0 26627.0 21785.0 81577.0 88782.0 53965.0 57675.0 104309.0 70508.0 104309.0 104309.0 70508.0 70508.0
159232.0 154462.0 223187.0 215649.0 228814.0 227072.0 190903.0 187201.0 168533.0 160246.0 144889.0 143471.0 136280.0 135856.0 341561.0 349445.0 58400.0 66395.0 190350.0 193944.0 380114.0 372885.0 64576.0 72019.0 145837.0 153464.0 184981.0 183562.0 124209.0 118678.0 25791.0 20478.0 24795.0 31366.0 365923.0 363983.0 189256.0 182278.0 93135.0 90630.0 147409.0 140365.0 332594.0 324427.0 219306.0 212808.0 313649.0 319098.0 137235.0 134872.0 137568.0 138397.0 378850.0 377721.0 338938.0 339147.0 250212.0 246714.0 38122.0 45908.0 92313.0 98292.0 139885.0 145914.0 0.0 7962.0 126570.0 119660.0 210352.0 218343.0 135633.0 143831.0 247781.0 251825.0 27985.0 32787.0 7103.0 14764.0 155856.0 162863.0 159321.0 151860.0 333796.0 329635.0 81689.0 74096.0 49312.0 41930.0 234649.0 239195.0 58555.0 62117.0 270906.0 272579.0 118709.0 118146.0 134645.0 126947.0 268070.0 264600.0 28126.0 34032.0 14718.0 18392.0 82012.0 88975.0 118547.0 125966.0 124223.0 131349.0 19976.0 27654.0 170399.0 167229.0 260032.0 255314.0 50999.0 42930.0 45809.0 53323.0 158947.0 167168.0 38813.0 31594.0 26864.0 34900.0 138289.0 132369.0 118442.0 121704.0 290481.0 293131.0 57569.0 62581.0 222290.0 227878.0 104011.0 95887.0 372490.0 364525.0 269377.0 264506.0 252803.0 250927.0 90722.0 90845.0 44634.0 36686.0 172890.0 165030.0 225564.0 218340.0 89381.0 93659.0 137558.0 144412.0 109117.0 104589.0 101268.0 104546.0 88720.0 210223.0 88720.0 88720.0 210223.0 210223.0
152738.0 147778.0 217890.0 210275.0 223863.0 222341.0 186532.0 182581.0 168745.0 160540.0 145893.0 144934.0 131975.0 131950.0 344751.0 352636.0 65773.0 73761.0 191333.0 194634.0 383280.0 375985.0 57898.0 65112.0 144703.0 152511.0 187272.0 185665.0 122572.0 116680.0 33265.0 27215.0 30407.0 35859.0 369114.0 367174.0 189457.0 182318.0 90797.0 88940.0 146254.0 139024.0 335785.0 327618.0 220068.0 213377.0 316017.0 321607.0 137774.0 135854.0 132369.0 133565.0 382041.0 380912.0 342129.0 342338.0 246009.0 242310.0 34918.0 43104.0 92042.0 98443.0 141809.0 148040.0 7962.0 0.0 122096.0 114961.0 213534.0 221529.0 134540.0 142717.0 244394.0 248631.0 20072.0 25323.0 11212.0 19049.0 155480.0 162280.0 154074.0 146734.0 336957.0 332811.0 80719.0 73442.0 54972.0 47920.0 236044.0 240367.0 63839.0 66670.0 273893.0 275345.0 113615.0 112643.0 128594.0 121055.0 263393.0 259747.0 28515.0 35660.0 20811.0 25889.0 78535.0 85826.0 117148.0 124702.0 118414.0 125712.0 22318.0 29070.0 170152.0 166645.0 261992.0 257083.0 58678.0 50684.0 53745.0 61284.0 154332.0 162579.0 46609.0 39463.0 21636.0 29951.0 139553.0 133957.0 118071.0 120836.0 293672.0 296385.0 51695.0 57275.0 224324.0 229712.0 100826.0 92564.0 375535.0 367530.0 271114.0 266059.0 247384.0 245326.0 85326.0 84929.0 51266.0 43236.0 168917.0 161009.0 221377.0 214061.0 88535.0 93401.0 138306.0 145377.0 106716.0 101728.0 101533.0 104190.0 94953.0 213414.0 94953.0 94953.0 213414.0 213414.0
58698.0 60637.0 98638.0 91694.0 102784.0 100609.0 64443.0 60666.0 99237.0 95076.0 97414.0 103907.0 10336.0 14459.0 300482.0 307500.0 150081.0 154767.0 127340.0 125482.0 332153.0 324186.0 71940.0 69521.0 63985.0 71145.0 144626.0 140455.0 47951.0 41818.0 134599.0 127494.0 122216.0 116414.0 327552.0 327022.0 114216.0 106403.0 45399.0 53022.0 64489.0 57973.0 296285.0 288123.0 147238.0 138841.0 256592.0 263915.0 86290.0 92112.0 18279.0 13709.0 340025.0 336955.0 298157.0 300565.0 124006.0 120214.0 88784.0 81825.0 67580.0 71876.0 109263.0 115789.0 126570.0 122096.0 0.0 8174.0 179571.0 186176.0 59929.0 63278.0 124837.0 130019.0 110214.0 102100.0 121360.0 118938.0 81714.0 82906.0 36620.0 28627.0 291165.0 284864.0 63979.0 70246.0 125785.0 126965.0 170144.0 170590.0 124369.0 117852.0 228035.0 225754.0 14291.0 21812.0 34757.0 29270.0 141534.0 138268.0 103295.0 103325.0 141237.0 142676.0 46390.0 41919.0 50883.0 54158.0 27238.0 24330.0 144328.0 150410.0 93302.0 85844.0 201316.0 194084.0 151229.0 147744.0 160259.0 164087.0 32456.0 40628.0 146076.0 143209.0 100463.0 92146.0 98115.0 100302.0 66134.0 59338.0 253167.0 252662.0 72331.0 65457.0 169972.0 171379.0 30266.0 35072.0 322868.0 314663.0 206103.0 198868.0 128593.0 127925.0 39479.0 44272.0 133737.0 130330.0 47826.0 39868.0 99416.0 92011.0 62114.0 67486.0 89709.0 96547.0 37321.0 33455.0 73253.0 65211.0 153675.0 182518.0 153675.0 153675.0 182518.0 182518.0
58137.0 58974.0 104407.0 97225.0 109242.0 107421.0 71814.0 67621.0 104369.0 99736.0 100598.0 106660.0 18434.0 22276.0 305677.0 312774.0 145385.0 150359.0 132573.0 131082.0 337857.0 329907.0 63920.0 61372.0 69039.0 76570.0 148520.0 144470.0 51009.0 44102.0 128646.0 121396.0 116325.0 110820.0 332620.0 331933.0 120115.0 112226.0 42780.0 50671.0 69687.0 62749.0 301016.0 292841.0 153362.0 145000.0 262536.0 269785.0 89291.0 94635.0 20343.0 18863.0 345157.0 342225.0 303326.0 305582.0 131454.0 127455.0 82135.0 75463.0 66141.0 71198.0 111472.0 118192.0 119660.0 114961.0 8174.0 0.0 183328.0 190104.0 64018.0 68148.0 132849.0 138096.0 102584.0 94474.0 114634.0 112535.0 86739.0 88509.0 41168.0 33244.0 296430.0 290235.0 61003.0 66650.0 121139.0 121908.0 176003.0 176708.0 120269.0 114042.0 233004.0 230947.0 7440.0 15430.0 32111.0 25187.0 148447.0 144948.0 97098.0 97585.0 134359.0 136067.0 40928.0 37567.0 52996.0 57250.0 22548.0 22106.0 137123.0 143073.0 98939.0 91657.0 207061.0 199930.0 146093.0 142293.0 154462.0 158560.0 39380.0 47635.0 140464.0 137316.0 93329.0 85032.0 100683.0 102257.0 67886.0 61684.0 257923.0 257634.0 64694.0 58008.0 175045.0 176739.0 28282.0 31263.0 328635.0 320419.0 212147.0 205006.0 134313.0 133274.0 31479.0 36102.0 128724.0 124966.0 55781.0 47847.0 106923.0 99433.0 60115.0 66212.0 92587.0 99731.0 37593.0 32207.0 72910.0 65269.0 150345.0 186013.0 150345.0 150345.0 186013.0 186013.0
236025.0 239423.0 233256.0 231403.0 226040.0 218583.0 191768.0 196841.0 84213.0 85801.0 83126.0 78411.0 177042.0 169203.0 131290.0 139160.0 174821.0 172170.0 61315.0 67839.0 169769.0 162536.0 210763.0 215511.0 116845.0 111381.0 35019.0 39419.0 132373.0 139672.0 192965.0 192881.0 186669.0 179188.0 155801.0 153863.0 80048.0 84613.0 154267.0 148737.0 116760.0 122118.0 122474.0 114307.0 68158.0 71795.0 106678.0 110953.0 94573.0 90654.0 195803.0 188134.0 168743.0 167516.0 128674.0 128981.0 216227.0 220096.0 189216.0 182781.0 134764.0 126769.0 76725.0 69560.0 210352.0 213534.0 179571.0 183328.0 0.0 7995.0 119645.0 117113.0 191472.0 188292.0 220238.0 215565.0 203554.0 195601.0 99886.0 101796.0 202868.0 197723.0 123475.0 119291.0 147932.0 151117.0 164956.0 172648.0 57329.0 65403.0 155235.0 149501.0 60798.0 63494.0 190558.0 198328.0 214325.0 208381.0 241626.0 244800.0 185951.0 178139.0 217421.0 211605.0 171037.0 165006.0 131292.0 126154.0 205868.0 203898.0 228058.0 235786.0 93134.0 100833.0 62146.0 62063.0 183940.0 188589.0 202620.0 199124.0 187699.0 189294.0 191159.0 195697.0 202911.0 198919.0 84777.0 86323.0 118066.0 122581.0 80254.0 82861.0 201049.0 194766.0 35058.0 42748.0 160864.0 164901.0 162168.0 154244.0 74070.0 73664.0 255101.0 259800.0 193976.0 202120.0 174093.0 179524.0 176092.0 175363.0 202205.0 201207.0 141677.0 133664.0 91601.0 83982.0 148659.0 156320.0 123521.0 126864.0 158600.0 7151.0 158600.0 158600.0 7151.0 7151.0
242249.0 245798.0 237550.0 235922.0 229985.0 222439.0 196503.0 201775.0 89776.0 91875.0 90228.0 85801.0 183389.0 175545.0 123327.0 131188.0 182812.0 180161.0 65563.0 71586.0 161775.0 154548.0 218466.0 223144.0 123076.0 117334.0 41585.0 45732.0 139227.0 146618.0 200956.0 200872.0 194661.0 187173.0 147938.0 145999.0 84094.0 89168.0 161707.0 156281.0 122924.0 128512.0 114611.0 106444.0 69096.0 73559.0 99180.0 103290.0 101673.0 98001.0 202198.0 194468.0 160874.0 159588.0 120714.0 121080.0 219090.0 223203.0 197149.0 190683.0 142455.0 134458.0 84406.0 77262.0 218343.0 221529.0 186176.0 190104.0 7995.0 0.0 126259.0 123427.0 193807.0 190342.0 228202.0 223504.0 211547.0 203592.0 105896.0 107389.0 208741.0 203758.0 115486.0 111298.0 155656.0 158931.0 172947.0 180639.0 55609.0 63584.0 163227.0 157493.0 52885.0 55805.0 197371.0 205178.0 220911.0 215095.0 244402.0 247801.0 193940.0 186131.0 225413.0 219597.0 178568.0 172450.0 138338.0 133029.0 212626.0 210488.0 236050.0 243778.0 98401.0 106188.0 56622.0 57363.0 191931.0 196581.0 210612.0 207115.0 193451.0 194806.0 199150.0 203689.0 210872.0 206850.0 92178.0 93961.0 125334.0 129655.0 72322.0 74868.0 208813.0 202485.0 34068.0 41104.0 168028.0 172214.0 154187.0 146271.0 68620.0 68904.0 258809.0 263687.0 201322.0 209475.0 182084.0 187515.0 181291.0 180827.0 205781.0 205055.0 149331.0 141343.0 98783.0 91078.0 155784.0 163497.0 131195.0 134387.0 166591.0 11757.0 166591.0 166591.0 11757.0 11757.0
117041.0 119996.0 131830.0 127354.0 129700.0 124183.0 88354.0 90298.0 41714.0 36044.0 38317.0 45729.0 57895.0 50143.0 242231.0 249447.0 134015.0 135790.0 69731.0 69453.0 275423.0 267531.0 105696.0 107770.0 10213.0 18087.0 84699.0 80552.0 14737.0 22732.0 132032.0 127251.0 120521.0 112626.0 268983.0 268134.0 60205.0 52259.0 46691.0 46097.0 11801.0 6326.0 237097.0 228911.0 93660.0 85696.0 201022.0 207992.0 28052.0 35255.0 76413.0 68969.0 281594.0 278867.0 239840.0 241902.0 136224.0 136041.0 100588.0 92306.0 44464.0 40935.0 52658.0 58309.0 135633.0 134540.0 59929.0 64018.0 119645.0 126259.0 0.0 8199.0 123814.0 125712.0 131225.0 124034.0 128806.0 123045.0 24404.0 29103.0 86190.0 80001.0 233104.0 227106.0 53946.0 61615.0 111975.0 116666.0 114725.0 116559.0 106094.0 98135.0 169321.0 167584.0 71372.0 79282.0 94680.0 88870.0 159759.0 159479.0 107605.0 103110.0 148416.0 146476.0 63801.0 55897.0 17932.0 10156.0 86463.0 84254.0 155583.0 163098.0 38736.0 33290.0 145128.0 138393.0 139038.0 138847.0 153700.0 154548.0 72511.0 76475.0 138909.0 139127.0 115737.0 108555.0 40743.0 45225.0 20395.0 14296.0 194027.0 193933.0 99382.0 91703.0 111612.0 113882.0 45812.0 52486.0 266389.0 258155.0 151300.0 144634.0 159522.0 161691.0 80395.0 88372.0 122206.0 122463.0 68238.0 64138.0 113853.0 109046.0 46286.0 43232.0 31702.0 37469.0 33946.0 41870.0 39187.0 32657.0 126955.0 122677.0 126955.0 126955.0 122677.0 122677.0
118919.0 122371.0 128704.0 124639.0 125786.0 119946.0 85046.0 87660.0 36269.0 31821.0 38440.0 46531.0 59962.0 52118.0 237535.0 244651.0 141542.0 143121.0 64493.0 63508.0 270082.0 262160.0 112962.0 114744.0 2030.0 10172.0 82098.0 77740.0 21783.0 29528.0 140113.0 135389.0 128648.0 120732.0 264475.0 263831.0 53543.0 45547.0 54427.0 54165.0 3638.0 5435.0 233024.0 224856.0 87115.0 79009.0 195252.0 202337.0 29715.0 37514.0 78783.0 71043.0 277008.0 274098.0 235180.0 237445.0 130563.0 130758.0 108707.0 100418.0 52563.0 48744.0 54325.0 59276.0 143831.0 142717.0 63278.0 68148.0 117113.0 123427.0 8199.0 0.0 117070.0 118689.0 139230.0 131986.0 137004.0 131237.0 18615.0 21845.0 86597.0 80934.0 228305.0 222159.0 62143.0 69813.0 119746.0 124563.0 108762.0 110216.0 113667.0 105687.0 164875.0 162809.0 75579.0 83558.0 97802.0 92510.0 154491.0 154542.0 115804.0 111291.0 156610.0 154644.0 71287.0 63302.0 25871.0 18128.0 90293.0 87421.0 163780.0 171291.0 31946.0 25832.0 139483.0 132571.0 146751.0 146707.0 161604.0 162327.0 72166.0 75308.0 146835.0 147151.0 123837.0 116604.0 42364.0 47969.0 27840.0 22393.0 189907.0 189506.0 106968.0 99248.0 106897.0 108705.0 52373.0 59471.0 260956.0 252728.0 145243.0 138414.0 155765.0 158295.0 86726.0 94582.0 130025.0 130423.0 65520.0 62276.0 108746.0 104323.0 54484.0 51315.0 33315.0 37651.0 40942.0 48685.0 46820.0 40643.0 133796.0 120562.0 133796.0 133796.0 120562.0 120562.0
134319.0 142309.0 71642.0 76306.0 57995.0 50890.0 64975.0 72160.0 121861.0 127005.0 145930.0 154164.0 114505.0 112989.0 267820.0 272612.0 256941.0 259223.0 132499.0 124969.0 286377.0 278651.0 196765.0 193964.0 115278.0 111712.0 164356.0 159806.0 129201.0 132263.0 250454.0 244446.0 238212.0 231010.0 295078.0 297614.0 114453.0 113073.0 155628.0 159895.0 113816.0 117552.0 273976.0 265944.0 125767.0 120344.0 213045.0 221082.0 142523.0 150178.0 121630.0 116776.0 305345.0 299757.0 266261.0 271398.0 28841.0 35963.0 209735.0 201877.0 165466.0 163810.0 163251.0 165194.0 247781.0 244394.0 124837.0 132849.0 191472.0 193807.0 123814.0 117070.0 0.0 7817.0 234414.0 226323.0 241790.0 237819.0 118291.0 110815.0 104854.0 108815.0 258008.0 250221.0 170883.0 178911.0 233958.0 237705.0 146184.0 140702.0 229004.0 221158.0 208977.0 202710.0 136867.0 141537.0 137236.0 139906.0 51939.0 57028.0 221697.0 219422.0 262040.0 262039.0 165878.0 158809.0 135812.0 130350.0 140674.0 132650.0 266686.0 273310.0 112428.0 108204.0 171603.0 163834.0 261123.0 259925.0 274225.0 276102.0 96087.0 88504.0 259380.0 258383.0 223060.0 214805.0 152935.0 160425.0 144157.0 137154.0 234402.0 229827.0 196732.0 189505.0 161878.0 157355.0 143775.0 151911.0 276458.0 269158.0 168664.0 160843.0 76466.0 83788.0 164309.0 168583.0 243773.0 242806.0 77090.0 85004.0 35042.0 41985.0 164656.0 164464.0 145388.0 145503.0 139897.0 143425.0 162541.0 155065.0 250760.0 197841.0 250760.0 250760.0 197841.0 197841.0
141498.0 149449.0 79453.0 84115.0 65788.0 58706.0 71548.0 78927.0 121126.0 126678.0 145994.0 154100.0 119687.0 117775.0 261673.0 266350.0 259367.0 261427.0 130159.0 122501.0 279630.0 271936.0 201947.0 199369.0 116838.0 112764.0 162122.0 157647.0 131893.0 135356.0 253793.0 247933.0 241617.0 234302.0 288839.0 291498.0 112465.0 111621.0 159263.0 163232.0 115334.0 119518.0 268275.0 260285.0 121832.0 116784.0 206686.0 214709.0 143183.0 150716.0 127596.0 122470.0 298981.0 293307.0 260155.0 265391.0 35717.0 43197.0 213864.0 205924.0 168115.0 166110.0 163193.0 164805.0 251825.0 248631.0 130019.0 138096.0 188292.0 190342.0 125712.0 118689.0 7817.0 0.0 239118.0 231046.0 245732.0 241565.0 118690.0 111028.0 111392.0 115066.0 251882.0 244064.0 174049.0 182100.0 236631.0 240587.0 141601.0 135863.0 231411.0 223518.0 203848.0 197427.0 142369.0 147283.0 143668.0 146072.0 57469.0 63110.0 225450.0 222931.0 265984.0 265771.0 170101.0 162880.0 138453.0 132693.0 146731.0 138768.0 270889.0 277613.0 111915.0 108174.0 166291.0 158592.0 263806.0 262837.0 277267.0 278932.0 102037.0 94635.0 262408.0 261615.0 227406.0 219185.0 153192.0 160819.0 146104.0 139326.0 229091.0 224343.0 201564.0 194247.0 157971.0 153169.0 147849.0 156070.0 269716.0 262473.0 162968.0 155209.0 83598.0 91043.0 169489.0 173997.0 246557.0 245826.0 82506.0 90338.0 42716.0 49488.0 167623.0 167073.0 145921.0 145608.0 143417.0 147287.0 164701.0 157428.0 252484.0 194778.0 252484.0 252484.0 194778.0 194778.0
135472.0 130072.0 203301.0 195522.0 210098.0 209122.0 174362.0 169810.0 168306.0 160391.0 147703.0 147903.0 120411.0 121425.0 351528.0 359387.0 83978.0 91881.0 192639.0 195178.0 389436.0 381984.0 41161.0 47481.0 141138.0 149306.0 191897.0 189831.0 118067.0 111358.0 52132.0 45155.0 46455.0 49567.0 375909.0 373969.0 188809.0 181322.0 85254.0 85159.0 142616.0 135010.0 342581.0 334414.0 220627.0 213490.0 320269.0 326201.0 138531.0 137752.0 118479.0 120612.0 388646.0 387691.0 348912.0 349080.0 234010.0 229826.0 31951.0 39712.0 91778.0 99042.0 145967.0 152621.0 27985.0 20072.0 110214.0 102584.0 220238.0 228202.0 131225.0 139230.0 234414.0 239118.0 0.0 8114.0 28947.0 34833.0 153699.0 159901.0 139894.0 132911.0 343610.0 339089.0 79115.0 72989.0 69757.0 63619.0 238115.0 241853.0 77541.0 78702.0 279849.0 280730.0 100209.0 98168.0 112547.0 105475.0 250186.0 246123.0 35806.0 44024.0 39926.0 45825.0 70384.0 78293.0 113359.0 121115.0 103074.0 110750.0 37569.0 41865.0 168542.0 164218.0 265378.0 260004.0 77672.0 69918.0 73793.0 81253.0 141754.0 150008.0 65974.0 59056.0 17342.0 22878.0 142100.0 137390.0 116880.0 118330.0 300467.0 302956.0 37892.0 44915.0 228072.0 232922.0 92752.0 84344.0 381390.0 373296.0 273898.0 268399.0 232425.0 229938.0 71604.0 69756.0 68115.0 60166.0 157865.0 149896.0 209504.0 201988.0 86939.0 93126.0 139581.0 147097.0 100564.0 94490.0 102329.0 103357.0 110171.0 220209.0 110171.0 110171.0 220209.0 220209.0
128180.0 122960.0 195395.0 187637.0 202096.0 201074.0 166258.0 161727.0 161655.0 153827.0 141684.0 142214.0 112298.0 113335.0 346808.0 354635.0 85778.0 93542.0 186375.0 188715.0 384409.0 376909.0 33508.0 40213.0 133875.0 142095.0 186591.0 184386.0 110686.0 103853.0 54954.0 47480.0 47619.0 49419.0 371221.0 369337.0 182071.0 174517.0 77810.0 78065.0 135336.0 127676.0 337949.0 329782.0 214131.0 206895.0 314683.0 320715.0 132259.0 131792.0 110459.0 112526.0 384174.0 383080.0 344204.0 344515.0 225906.0 221739.0 26387.0 33525.0 85483.0 92925.0 140647.0 147410.0 32787.0 25323.0 102100.0 94474.0 215565.0 223504.0 124034.0 131986.0 226323.0 231046.0 8114.0 0.0 32100.0 36536.0 146774.0 152836.0 131914.0 124891.0 338780.0 334134.0 72584.0 66837.0 69569.0 64061.0 231987.0 235566.0 76652.0 76989.0 274838.0 275532.0 92140.0 90195.0 104866.0 97684.0 242142.0 238114.0 33803.0 41838.0 45991.0 51120.0 62594.0 70555.0 106129.0 113900.0 95236.0 102856.0 44850.0 49598.0 161624.0 157135.0 259586.0 254085.0 80247.0 72822.0 78121.0 85237.0 133658.0 141913.0 69071.0 62522.0 13869.0 16755.0 136309.0 131880.0 110203.0 111347.0 295820.0 298130.0 29781.0 36819.0 222431.0 227118.0 84895.0 76492.0 376268.0 368150.0 267927.0 262311.0 224581.0 222170.0 63533.0 61842.0 69153.0 61416.0 149754.0 141784.0 201395.0 193883.0 80340.0 86818.0 133443.0 141055.0 92954.0 86737.0 96244.0 96835.0 109736.0 215591.0 109736.0 109736.0 215591.0 215591.0
155967.0 151473.0 218544.0 211082.0 223871.0 221955.0 185544.0 182026.0 161469.0 153176.0 137787.0 136379.0 130932.0 130243.0 334763.0 342648.0 55234.0 63189.0 183247.0 186847.0 373322.0 366074.0 61910.0 69646.0 139015.0 146594.0 177981.0 176533.0 117547.0 112145.0 23189.0 16390.0 19196.0 24953.0 359125.0 357185.0 182191.0 175230.0 86775.0 84025.0 140591.0 133602.0 325797.0 317630.0 212206.0 205715.0 306670.0 312146.0 130149.0 127769.0 132926.0 133444.0 372053.0 370924.0 332141.0 332350.0 244705.0 241347.0 32589.0 40015.0 85338.0 91250.0 132829.0 138884.0 7103.0 11212.0 121360.0 114634.0 203554.0 211547.0 128806.0 137004.0 241790.0 245732.0 28947.0 32100.0 0.0 8072.0 148871.0 155912.0 154690.0 147132.0 326886.0 322844.0 74879.0 67220.0 43775.0 36711.0 227557.0 232095.0 52718.0 55813.0 264060.0 265679.0 114012.0 113825.0 130869.0 123007.0 262893.0 259560.0 21207.0 26930.0 20253.0 21613.0 76261.0 83015.0 111816.0 119190.0 120200.0 127132.0 26955.0 34698.0 163391.0 160277.0 252990.0 248251.0 48726.0 41009.0 46234.0 53171.0 153796.0 161988.0 37128.0 30433.0 23386.0 30795.0 131189.0 125283.0 111469.0 114830.0 283683.0 286361.0 53955.0 58332.0 215255.0 220820.0 98033.0 90004.0 365664.0 357688.0 262311.0 257425.0 248256.0 246555.0 86385.0 87043.0 40193.0 32154.0 167280.0 159457.0 220059.0 212901.0 82529.0 86681.0 130461.0 137310.0 102756.0 98446.0 94212.0 97578.0 83749.0 203425.0 83749.0 83749.0 203425.0 203425.0
156254.0 152123.0 216822.0 209482.0 221688.0 219502.0 182741.0 179527.0 154752.0 146420.0 130654.0 129023.0 128253.0 127110.0 326809.0 334694.0 49326.0 57165.0 176086.0 179834.0 365365.0 358131.0 63503.0 71489.0 133257.0 140682.0 170272.0 168890.0 112264.0 107200.0 18996.0 11157.0 11738.0 16888.0 351171.0 349231.0 175458.0 168601.0 82318.0 78990.0 134846.0 128021.0 317843.0 309676.0 205140.0 198755.0 298916.0 304349.0 123282.0 120660.0 131360.0 131397.0 364098.0 362970.0 324187.0 324396.0 241595.0 238471.0 30688.0 37114.0 79141.0 84728.0 125276.0 131249.0 14764.0 19049.0 118938.0 112535.0 195601.0 203592.0 123045.0 131237.0 237819.0 241565.0 34833.0 36536.0 8072.0 0.0 142547.0 149717.0 153084.0 145398.0 319044.0 314887.0 69305.0 61461.0 36032.0 29230.0 220181.0 224819.0 44794.0 47749.0 256144.0 257816.0 112427.0 112803.0 130548.0 122490.0 260309.0 257196.0 16121.0 20133.0 25396.0 24221.0 73115.0 79420.0 106360.0 113595.0 119576.0 126210.0 33823.0 41680.0 156958.0 154075.0 245380.0 240714.0 43794.0 36630.0 44279.0 50408.0 151386.0 159515.0 33135.0 27357.0 25370.0 31382.0 123932.0 117880.0 105231.0 108943.0 275729.0 278390.0 54467.0 57872.0 207626.0 213265.0 94329.0 86520.0 357732.0 349765.0 254784.0 249973.0 246648.0 245202.0 85491.0 86903.0 33313.0 25339.0 164075.0 156330.0 216970.0 209930.0 76789.0 80466.0 123475.0 130198.0 98235.0 94405.0 87604.0 91381.0 76242.0 195471.0 76242.0 76242.0 195471.0 195471.0
136421.0 140203.0 139640.0 136381.0 135138.0 128642.0 96248.0 100016.0 17655.0 14108.0 28053.0 36540.0 77868.0 70043.0 218938.0 226043.0 147117.0 147717.0 45879.0 45114.0 251503.0 243587.0 129846.0 132100.0 17734.0 11529.0 65026.0 60489.0 39141.0 47132.0 149529.0 145540.0 138686.0 130572.0 245908.0 245315.0 35926.0 28058.0 70406.0 68787.0 17275.0 24044.0 214598.0 206431.0 69282.0 61377.0 176805.0 183843.0 24762.0 32059.0 96746.0 88877.0 258426.0 255492.0 216588.0 218892.0 135372.0 136664.0 122427.0 114257.0 63545.0 57915.0 45479.0 48615.0 155856.0 155480.0 81714.0 86739.0 99886.0 105896.0 24404.0 18615.0 118291.0 118690.0 153699.0 146774.0 148871.0 142547.0 0.0 8048.0 102999.0 97868.0 209698.0 203544.0 74984.0 82040.0 126914.0 132514.0 90401.0 92155.0 119791.0 111819.0 146337.0 144208.0 94173.0 102156.0 116077.0 110977.0 160204.0 161155.0 127737.0 122417.0 167901.0 165199.0 87802.0 80010.0 41687.0 34141.0 108812.0 105736.0 175819.0 183496.0 14850.0 12032.0 120976.0 114138.0 153315.0 154218.0 169329.0 169196.0 87951.0 90067.0 154821.0 155953.0 137667.0 130863.0 34674.0 42148.0 37427.0 35448.0 171467.0 170967.0 123151.0 115552.0 88318.0 90093.0 70206.0 76850.0 242397.0 234167.0 126951.0 120244.0 165186.0 168457.0 104764.0 112712.0 137396.0 138799.0 78242.0 76383.0 115443.0 112086.0 67109.0 62198.0 27270.0 27521.0 58332.0 66271.0 55231.0 51326.0 136518.0 103757.0 136518.0 136518.0 103757.0 103757.0
135839.0 140037.0 134817.0 131921.0 129713.0 123010.0 91781.0 96046.0 17613.0 17909.0 35141.0 43476.0 78121.0 70402.0 217675.0 224640.0 155087.0 155735.0 44723.0 42591.0 249352.0 241400.0 134715.0 136581.0 20341.0 12088.0 67409.0 62718.0 43530.0 51355.0 157078.0 152956.0 146116.0 138029.0 244852.0 244518.0 31883.0 23896.0 75774.0 74772.0 19296.0 27064.0 214192.0 206001.0 65444.0 57263.0 174110.0 181308.0 32751.0 39907.0 96945.0 88942.0 257258.0 254093.0 215373.0 217936.0 128581.0 130149.0 128881.0 120656.0 70594.0 65288.0 52530.0 55096.0 162863.0 162280.0 82906.0 88509.0 101796.0 107389.0 29103.0 21845.0 110815.0 111028.0 159901.0 152836.0 155912.0 149717.0 8048.0 0.0 101498.0 96873.0 208313.0 201969.0 81609.0 88866.0 134741.0 140258.0 87555.0 88653.0 127706.0 119727.0 145551.0 142983.0 95941.0 103926.0 116729.0 112122.0 153580.0 154772.0 134737.0 129605.0 175098.0 172553.0 92894.0 84965.0 46969.0 39224.0 110140.0 106511.0 182837.0 190475.0 10431.0 4367.0 118553.0 111459.0 161216.0 162030.0 177125.0 177079.0 86093.0 87498.0 162578.0 163602.0 144100.0 137128.0 42167.0 49818.0 44487.0 41624.0 171032.0 170138.0 128484.0 120805.0 87450.0 88513.0 74212.0 81295.0 240126.0 231910.0 123876.0 116915.0 159694.0 163235.0 108496.0 116305.0 145211.0 146494.0 74677.0 73582.0 109230.0 106218.0 73761.0 69261.0 35138.0 34695.0 62751.0 70526.0 62710.0 58349.0 144566.0 106109.0 144566.0 144566.0 106109.0 106109.0
36526.0 42823.0 63868.0 56409.0 70242.0 69786.0 39880.0 32974.0 119067.0 117102.0 124400.0 131918.0 31152.0 37594.0 316303.0 322865.0 186435.0 191261.0 145574.0 141944.0 344996.0 336979.0 99207.0 94522.0 86533.0 91490.0 168020.0 163486.0 77931.0 73830.0 169593.0 162243.0 157324.0 151947.0 343854.0 344096.0 129502.0 122472.0 81942.0 89449.0 86414.0 82147.0 314613.0 306364.0 160015.0 151660.0 268607.0 276303.0 114198.0 121080.0 21764.0 22922.0 355932.0 352164.0 314135.0 317281.0 96924.0 91613.0 122472.0 116183.0 103379.0 106929.0 138567.0 144455.0 159321.0 154074.0 36620.0 41168.0 202868.0 208741.0 86190.0 86597.0 104854.0 111392.0 139894.0 131914.0 154690.0 153084.0 102999.0 101498.0 0.0 8004.0 306689.0 299881.0 100546.0 106865.0 162159.0 163058.0 183936.0 182819.0 160947.0 154468.0 245615.0 242258.0 40687.0 41727.0 32474.0 36330.0 110635.0 106284.0 137904.0 138674.0 174034.0 176257.0 82094.0 78330.0 82567.0 83565.0 37885.0 29741.0 175898.0 181351.0 111055.0 103169.0 215193.0 207496.0 187256.0 183443.0 195485.0 199689.0 15831.0 18776.0 181573.0 178295.0 132606.0 124435.0 126786.0 130421.0 97740.0 90072.0 271506.0 269978.0 102622.0 96821.0 187900.0 187859.0 66764.0 71617.0 335401.0 327316.0 218127.0 210421.0 93584.0 92219.0 68760.0 70211.0 169868.0 166130.0 35191.0 30990.0 73616.0 65748.0 98324.0 103155.0 117828.0 123565.0 72287.0 69634.0 107907.0 99527.0 190251.0 206726.0 190251.0 190251.0 206726.0 206726.0
39237.0 44441.0 71436.0 64101.0 77229.0 76306.0 44148.0 38031.0 114335.0 111928.0 118307.0 125655.0 23651.0 30540.0 312893.0 319559.0 178445.0 183260.0 141304.0 138019.0 342255.0 334241.0 92475.0 88122.0 81009.0 86429.0 162779.0 158306.0 71043.0 66591.0 161787.0 154470.0 149496.0 144058.0 340364.0 340440.0 125749.0 118515.0 73979.0 81515.0 81002.0 76282.0 310654.0 302424.0 156936.0 148535.0 265958.0 273584.0 107888.0 114598.0 14433.0 14923.0 352537.0 348917.0 310689.0 313679.0 102607.0 97658.0 114829.0 108437.0 95581.0 99278.0 132072.0 138099.0 151860.0 146734.0 28627.0 33244.0 197723.0 203758.0 80001.0 80934.0 108815.0 115066.0 132911.0 124891.0 147132.0 145398.0 97868.0 96873.0 8004.0 0.0 303333.0 296627.0 92577.0 98868.0 154167.0 155097.0 180729.0 179939.0 152943.0 146469.0 241742.0 238608.0 33151.0 34920.0 28944.0 31137.0 117320.0 113228.0 130140.0 130806.0 166578.0 168674.0 74153.0 70329.0 75433.0 76815.0 32177.0 24017.0 168648.0 174214.0 106677.0 98807.0 212049.0 204433.0 179306.0 175536.0 187650.0 191799.0 14420.0 20534.0 173695.0 170477.0 125210.0 117004.0 120380.0 123748.0 90690.0 83138.0 267507.0 266195.0 95439.0 89459.0 183837.0 184099.0 58808.0 63613.0 332718.0 324599.0 215384.0 207761.0 101253.0 100052.0 61512.0 63428.0 161903.0 158207.0 35575.0 29860.0 78812.0 70991.0 90441.0 95383.0 111494.0 117463.0 64589.0 61738.0 100332.0 92001.0 182282.0 201399.0 182282.0 182282.0 201399.0 201399.0
342561.0 347456.0 319023.0 319765.0 308253.0 300225.0 284442.0 291314.0 192061.0 197059.0 201376.0 198585.0 286290.0 278643.0 9862.0 16346.0 298264.0 295613.0 163865.0 165876.0 47053.0 40632.0 332051.0 336165.0 227392.0 220021.0 153158.0 156073.0 247353.0 255225.0 316408.0 316324.0 310112.0 302632.0 37573.0 39616.0 177750.0 185258.0 273670.0 269033.0 226771.0 233723.0 27211.0 24960.0 146791.0 155084.0 46516.0 39065.0 212462.0 210302.0 305002.0 296940.0 49257.0 45796.0 8332.0 14879.0 286709.0 293119.0 312399.0 305754.0 256302.0 248333.0 198647.0 191675.0 333796.0 336957.0 291165.0 296430.0 123475.0 115486.0 233104.0 228305.0 258008.0 251882.0 343610.0 338780.0 326886.0 319044.0 209698.0 208313.0 306689.0 303333.0 0.0 7962.0 269643.0 273496.0 288399.0 296091.0 122787.0 124575.0 278678.0 272944.0 64430.0 65521.0 303867.0 311852.0 324986.0 320413.0 309277.0 314951.0 309425.0 301606.0 340864.0 335049.0 291050.0 284333.0 247850.0 241473.0 318370.0 314810.0 351501.0 359230.0 197974.0 205610.0 91700.0 99564.0 307383.0 312033.0 326064.0 322567.0 290859.0 289997.0 314602.0 319140.0 326272.0 322081.0 204887.0 207892.0 236611.0 239560.0 43952.0 40655.0 322895.0 316247.0 121493.0 119799.0 277849.0 283116.0 41035.0 34353.0 90801.0 98814.0 333070.0 339631.0 312171.0 320318.0 297536.0 302967.0 274305.0 276216.0 281803.0 283866.0 262887.0 255115.0 210126.0 202163.0 265516.0 273492.0 245007.0 247203.0 282043.0 124850.0 282043.0 282043.0 124850.0 124850.0
335840.0 340818.0 311521.0 312334.0 300679.0 292649.0 277212.0 284133.0 185893.0 191071.0 195946.0 193399.0 279838.0 272221.0 17613.0 23063.0 294102.0 291451.0 157672.0 159453.0 50478.0 43364.0 326791.0 330780.0 221205.0 213743.0 148054.0 150815.0 241436.0 249337.0 312246.0 312162.0 305950.0 298440.0 45060.0 47469.0 171192.0 178768.0 268172.0 263677.0 220551.0 227585.0 33350.0 29523.0 139894.0 148226.0 38558.0 31153.0 206946.0 205002.0 298508.0 290436.0 56333.0 52291.0 16285.0 22671.0 278939.0 285382.0 307747.0 300998.0 251191.0 243242.0 193746.0 186836.0 329635.0 332811.0 284864.0 290235.0 119291.0 111298.0 227106.0 222159.0 250221.0 244064.0 339089.0 334134.0 322844.0 314887.0 203544.0 201969.0 299881.0 296627.0 7962.0 0.0 264548.0 268563.0 284237.0 291929.0 115945.0 117480.0 274516.0 268782.0 59330.0 59655.0 297674.0 305664.0 318556.0 314091.0 301443.0 307144.0 305129.0 297368.0 336702.0 330886.0 285613.0 278806.0 242080.0 235604.0 312088.0 308415.0 347339.0 355067.0 191600.0 199187.0 84728.0 92526.0 303221.0 307870.0 321901.0 318405.0 284050.0 283073.0 310440.0 314978.0 321747.0 317411.0 199668.0 202895.0 231089.0 233856.0 41243.0 36623.0 317770.0 311045.0 115534.0 113502.0 272051.0 277447.0 43250.0 35737.0 83370.0 91377.0 325374.0 331965.0 306451.0 314588.0 293374.0 298805.0 267309.0 269331.0 274212.0 276343.0 257701.0 249988.0 204689.0 196721.0 259730.0 267722.0 239906.0 241897.0 277881.0 121060.0 277881.0 277881.0 121060.0 121060.0
117715.0 116974.0 160613.0 154219.0 162720.0 159132.0 121408.0 119956.0 89197.0 81283.0 69649.0 71193.0 70452.0 66466.0 278073.0 285744.0 88331.0 92154.0 113862.0 116133.0 314445.0 306799.0 62847.0 67940.0 64148.0 71829.0 116503.0 113794.0 43067.0 38699.0 79829.0 74324.0 67807.0 60303.0 303420.0 301543.0 109738.0 102322.0 18611.0 11617.0 65720.0 58746.0 270155.0 261988.0 141558.0 134378.0 243198.0 249476.0 59795.0 59989.0 81185.0 77680.0 316323.0 314659.0 275524.0 276422.0 177789.0 175739.0 47510.0 39439.0 13366.0 21310.0 71267.0 78395.0 81689.0 80719.0 63979.0 61003.0 147932.0 155656.0 53946.0 62143.0 170883.0 174049.0 79115.0 72584.0 74879.0 69305.0 74984.0 81609.0 100546.0 92577.0 269643.0 264548.0 0.0 8061.0 64315.0 67169.0 159583.0 163021.0 61349.0 54351.0 205273.0 205286.0 65017.0 69913.0 90265.0 81911.0 198671.0 196668.0 53694.0 49626.0 94609.0 93056.0 26525.0 24666.0 37059.0 44324.0 78646.0 81741.0 101638.0 109162.0 89763.0 85970.0 187711.0 181971.0 91118.0 89242.0 103363.0 105558.0 93613.0 100913.0 88534.0 87567.0 62750.0 56240.0 64998.0 61819.0 37814.0 40118.0 227611.0 229174.0 53260.0 46834.0 151011.0 155278.0 33796.0 29859.0 306006.0 297825.0 195711.0 189936.0 190395.0 190501.0 52222.0 59521.0 73521.0 71981.0 101226.0 94151.0 153563.0 147176.0 7877.0 14606.0 61192.0 68970.0 31799.0 31379.0 24642.0 24257.0 89706.0 148561.0 89706.0 89706.0 148561.0 148561.0
122312.0 121112.0 167643.0 161126.0 170053.0 166606.0 128913.0 127259.0 95702.0 87642.0 74848.0 75643.0 77244.0 73641.0 281792.0 289521.0 80874.0 84967.0 119650.0 122267.0 318629.0 311038.0 60525.0 66353.0 71828.0 79375.0 120568.0 118096.0 51072.0 46755.0 71769.0 66292.0 59757.0 52243.0 306852.0 304922.0 116348.0 109062.0 25426.0 19277.0 73412.0 66564.0 273534.0 265366.0 147733.0 140717.0 248064.0 254209.0 65544.0 64976.0 86969.0 83945.0 319779.0 318295.0 279223.0 279928.0 185604.0 183459.0 41095.0 33341.0 18852.0 26090.0 74850.0 81853.0 74096.0 73442.0 70246.0 66650.0 151117.0 158931.0 61615.0 69813.0 178911.0 182100.0 72989.0 66837.0 67220.0 61461.0 82040.0 88866.0 106865.0 98868.0 273496.0 268563.0 8061.0 0.0 56728.0 59314.0 165175.0 168864.0 54290.0 47611.0 209238.0 209529.0 70073.0 74359.0 94739.0 86274.0 206312.0 204203.0 46013.0 41667.0 86812.0 85107.0 29032.0 29297.0 44987.0 52139.0 82993.0 86683.0 94068.0 101654.0 96737.0 93232.0 192813.0 187258.0 83364.0 81317.0 95362.0 97661.0 100582.0 108027.0 80545.0 79515.0 56243.0 50226.0 69620.0 65687.0 44652.0 47611.0 231112.0 232934.0 50151.0 44493.0 155804.0 160346.0 40424.0 35411.0 310306.0 302149.0 201091.0 195486.0 197488.0 197428.0 54308.0 61030.0 65738.0 64010.0 108849.0 101677.0 161324.0 154869.0 15333.0 20211.0 66624.0 74218.0 39577.0 38479.0 29407.0 30807.0 83699.0 151405.0 83699.0 83699.0 151405.0 151405.0
172827.0 170135.0 224004.0 217312.0 226727.0 223332.0 185640.0 183925.0 135934.0 127539.0 109235.0 105663.0 133487.0 130267.0 296163.0 304048.0 24300.0 29503.0 153376.0 158254.0 334715.0 327491.0 88493.0 96581.0 121746.0 127889.0 142610.0 141938.0 104771.0 102024.0 28077.0 29373.0 24611.0 20220.0 320526.0 318586.0 156070.0 150110.0 82059.0 75894.0 123346.0 117855.0 287197.0 279030.0 182787.0 177298.0 269992.0 274971.0 104332.0 99807.0 141355.0 139328.0 333453.0 332324.0 293541.0 293750.0 241989.0 240039.0 51870.0 52973.0 68519.0 71040.0 100102.0 105052.0 49312.0 54972.0 125785.0 121139.0 164956.0 172947.0 111975.0 119746.0 233958.0 236631.0 69757.0 69569.0 43775.0 36032.0 126914.0 134741.0 162159.0 154167.0 288399.0 284237.0 64315.0 56728.0 0.0 7799.0 195156.0 200584.0 9783.0 16165.0 225650.0 227847.0 123214.0 125843.0 145570.0 137065.0 262985.0 260928.0 36698.0 30063.0 53170.0 46792.0 80421.0 83872.0 98186.0 104091.0 133862.0 139049.0 64297.0 71739.0 140140.0 138926.0 218090.0 214127.0 27175.0 27323.0 42468.0 42582.0 156964.0 164555.0 28321.0 31237.0 56137.0 58344.0 101654.0 94454.0 91954.0 97835.0 245084.0 247799.0 77379.0 77429.0 180409.0 186705.0 96776.0 90753.0 327120.0 319185.0 228201.0 224077.0 253912.0 253603.0 100725.0 104752.0 10515.0 14574.0 165532.0 158400.0 217837.0 211488.0 69625.0 69559.0 103548.0 108971.0 96106.0 95145.0 72953.0 79469.0 40422.0 164826.0 40422.0 40422.0 164826.0 164826.0
172087.0 169050.0 225496.0 218650.0 228677.0 225526.0 187928.0 185898.0 142105.0 133693.0 115732.0 112449.0 135060.0 132254.0 303856.0 311740.0 24466.0 31170.0 160185.0 164908.0 342407.0 335183.0 85241.0 93385.0 126578.0 132988.0 150040.0 149286.0 108720.0 105488.0 20325.0 21744.0 17546.0 14953.0 328218.0 326278.0 162385.0 156268.0 84266.0 78591.0 128185.0 122412.0 294890.0 286722.0 189591.0 183966.0 277605.0 282621.0 110399.0 106171.0 141954.0 140362.0 341145.0 340017.0 301234.0 301443.0 244918.0 242729.0 48634.0 50905.0 72648.0 75833.0 107135.0 112240.0 41930.0 47920.0 126965.0 121908.0 172648.0 180639.0 116666.0 124563.0 237705.0 240587.0 63619.0 64061.0 36711.0 29230.0 132514.0 140258.0 163058.0 155097.0 296091.0 291929.0 67169.0 59314.0 7799.0 0.0 202327.0 207660.0 17574.0 23438.0 233342.0 235530.0 123525.0 125676.0 145074.0 136626.0 265488.0 263211.0 32446.0 27031.0 45373.0 39022.0 80991.0 85112.0 102210.0 108426.0 133469.0 139010.0 56518.0 63944.0 145993.0 144489.0 225534.0 221494.0 24291.0 22261.0 37042.0 38419.0 158588.0 166324.0 22332.0 24133.0 51019.0 54123.0 108256.0 101205.0 96909.0 102427.0 252776.0 255492.0 74462.0 75268.0 187823.0 194051.0 98619.0 92142.0 334812.0 326877.0 235575.0 231372.0 255443.0 254889.0 99853.0 103332.0 6852.0 6940.0 168045.0 160759.0 220623.0 214120.0 73056.0 73765.0 109776.0 115436.0 98891.0 97325.0 77963.0 84025.0 47048.0 172518.0 47048.0 47048.0 172518.0 172518.0
219924.0 224994.0 199517.0 199418.0 189920.0 181994.0 162602.0 169192.0 73055.0 79695.0 90444.0 91179.0 164528.0 157038.0 132449.0 138933.0 208913.0 206530.0 45875.0 45288.0 162071.0 154088.0 218939.0 221798.0 107547.0 99596.0 54855.0 54180.0 129433.0 137439.0 221997.0 220150.0 213413.0 205330.0 160087.0 160702.0 55928.0 63779.0 159205.0 156124.0 106687.0 114171.0 132704.0 124431.0 24044.0 32296.0 86555.0 93785.0 99787.0 100443.0 183033.0 174945.0 172044.0 168231.0 130329.0 133802.0 173423.0 178654.0 206168.0 198516.0 146517.0 139090.0 95327.0 90104.0 234649.0 236044.0 170144.0 176003.0 57329.0 55609.0 114725.0 108762.0 146184.0 141601.0 238115.0 231987.0 227557.0 220181.0 90401.0 87555.0 183936.0 180729.0 122787.0 115945.0 159583.0 165175.0 195156.0 202327.0 0.0 8078.0 185994.0 179003.0 64393.0 59505.0 183423.0 191398.0 203250.0 199192.0 197982.0 202382.0 207529.0 200706.0 244386.0 239870.0 176851.0 169379.0 131257.0 124087.0 197361.0 193247.0 253949.0 261820.0 77131.0 84352.0 31341.0 23940.0 217522.0 221117.0 235834.0 233136.0 168106.0 167221.0 223032.0 226370.0 221145.0 215400.0 96495.0 102302.0 122852.0 123807.0 90576.0 87564.0 211263.0 203945.0 22372.0 14598.0 160515.0 166853.0 152736.0 144539.0 36602.0 30363.0 216894.0 222713.0 195117.0 203095.0 205232.0 209236.0 151612.0 153429.0 164080.0 164968.0 152004.0 145189.0 98550.0 91033.0 148473.0 156471.0 135791.0 135495.0 192960.0 64459.0 192960.0 192960.0 64459.0 64459.0
219028.0 224326.0 195880.0 196078.0 185915.0 177946.0 159968.0 166766.0 75201.0 82323.0 94495.0 95848.0 164562.0 157199.0 134339.0 140539.0 214895.0 212656.0 49215.0 47361.0 162331.0 154320.0 221508.0 224101.0 108885.0 100741.0 61685.0 60636.0 131296.0 139286.0 227176.0 225113.0 218338.0 210219.0 162068.0 163065.0 56773.0 64758.0 161777.0 159050.0 107927.0 115575.0 135981.0 127743.0 23354.0 31757.0 86183.0 93702.0 103326.0 104532.0 182873.0 174785.0 173777.0 169640.0 132321.0 136174.0 168290.0 173749.0 209938.0 202177.0 150102.0 142832.0 100528.0 95629.0 239195.0 240367.0 170590.0 176708.0 65403.0 63584.0 116559.0 110216.0 140702.0 135863.0 241853.0 235566.0 232095.0 224819.0 92155.0 88653.0 182819.0 179939.0 124575.0 117480.0 163021.0 168864.0 200584.0 207660.0 8078.0 0.0 191532.0 184420.0 68623.0 63021.0 184096.0 192041.0 203206.0 199452.0 192604.0 197213.0 211862.0 205193.0 249229.0 244893.0 179381.0 171780.0 133497.0 126159.0 197734.0 193330.0 258627.0 266493.0 78317.0 85189.0 32994.0 25041.0 223369.0 226773.0 241575.0 239063.0 167007.0 165732.0 228589.0 231752.0 225001.0 219063.0 100906.0 107065.0 125871.0 126336.0 94548.0 90923.0 214143.0 206731.0 30444.0 22661.0 162355.0 168949.0 152836.0 144693.0 35570.0 28300.0 212419.0 218412.0 196878.0 204780.0 210744.0 214547.0 149867.0 152087.0 159855.0 161079.0 155351.0 148761.0 102338.0 95033.0 150466.0 158422.0 139568.0 138822.0 199086.0 72531.0 199086.0 199086.0 72531.0 72531.0
173638.0 171387.0 221902.0 215415.0 224045.0 220348.0 182608.0 181297.0 128055.0 119697.0 100987.0 97047.0 131534.0 127802.0 286443.0 294328.0 27956.0 30848.0 144670.0 149737.0 324994.0 317770.0 92809.0 100765.0 115640.0 121415.0 133166.0 132588.0 99906.0 97813.0 37857.0 38942.0 33760.0 28234.0 310805.0 308865.0 147979.0 142225.0 79678.0 72949.0 117227.0 112124.0 277477.0 269310.0 174069.0 168749.0 260338.0 265282.0 96663.0 91759.0 140598.0 138032.0 323732.0 322604.0 283821.0 284030.0 238053.0 236407.0 56691.0 56444.0 63749.0 65320.0 91176.0 95921.0 58555.0 63839.0 124369.0 120269.0 155235.0 163227.0 106094.0 113667.0 229004.0 231411.0 77541.0 76652.0 52718.0 44794.0 119791.0 127706.0 160947.0 152943.0 278678.0 274516.0 61349.0 54290.0 9783.0 17574.0 185994.0 191532.0 0.0 8000.0 215929.0 218129.0 122910.0 126122.0 146169.0 137631.0 259559.0 257780.0 43029.0 35505.0 62922.0 56574.0 80163.0 82718.0 93263.0 98720.0 134385.0 139106.0 74009.0 81486.0 132661.0 131823.0 208615.0 204737.0 33542.0 35431.0 50500.0 49486.0 154854.0 162236.0 37057.0 40667.0 62932.0 64129.0 93285.0 85906.0 85830.0 92160.0 235363.0 238079.0 81411.0 80565.0 170972.0 177344.0 94713.0 89330.0 317399.0 309464.0 218801.0 214766.0 251718.0 251715.0 102051.0 106722.0 19247.0 24339.0 162266.0 155351.0 214115.0 207970.0 65791.0 64669.0 95667.0 100765.0 92829.0 92662.0 66908.0 73984.0 33292.0 155105.0 33292.0 33292.0 155105.0 155105.0
168266.0 166296.0 214960.0 208565.0 216867.0 213059.0 175321.0 174164.0 120238.0 111867.0 93304.0 89567.0 124747.0 120795.0 280709.0 288594.0 35883.0 38321.0 137259.0 142204.0 319260.0 312036.0 90303.0 98094.0 107658.0 113416.0 126602.0 125860.0 92130.0 90216.0 43598.0 43503.0 37602.0 30861.0 305071.0 303131.0 140240.0 134413.0 72842.0 65892.0 109243.0 104180.0 271743.0 263576.0 166669.0 161237.0 254265.0 259338.0 88779.0 83989.0 134385.0 131546.0 317998.0 316870.0 278087.0 278296.0 230449.0 228894.0 55079.0 53685.0 56062.0 57410.0 83940.0 88899.0 62117.0 66670.0 117852.0 114042.0 149501.0 157493.0 98135.0 105687.0 221158.0 223518.0 78702.0 76989.0 55813.0 47749.0 111819.0 119727.0 154468.0 146469.0 272944.0 268782.0 54351.0 47611.0 16165.0 23438.0 179003.0 184420.0 8000.0 0.0 210178.0 212325.0 116986.0 120529.0 140718.0 132179.0 252105.0 250420.0 43208.0 35168.0 67963.0 62142.0 74456.0 76485.0 85480.0 90839.0 128915.0 133347.0 78764.0 86413.0 124745.0 123851.0 202097.0 198064.0 41497.0 43027.0 58160.0 57409.0 147962.0 155247.0 44365.0 47369.0 63128.0 63278.0 85658.0 78379.0 77854.0 84234.0 229629.0 232345.0 78762.0 77197.0 164385.0 170627.0 87966.0 82921.0 311665.0 303730.0 212144.0 207969.0 244723.0 244851.0 97214.0 102304.0 26463.0 30377.0 154909.0 148079.0 206581.0 200503.0 58407.0 56945.0 87842.0 93063.0 85565.0 85729.0 58950.0 66105.0 35337.0 149371.0 35337.0 35337.0 149371.0 149371.0
280941.0 285449.0 263906.0 263740.0 254276.0 246337.0 226524.0 232906.0 128804.0 133330.0 136968.0 134172.0 223668.0 215930.0 73165.0 80647.0 235515.0 232864.0 100835.0 103725.0 109587.0 102161.0 267628.0 271738.0 164071.0 156991.0 88771.0 91644.0 183404.0 191219.0 253659.0 253575.0 247351.0 239827.0 99663.0 98995.0 116115.0 123228.0 209276.0 204605.0 163546.0 170260.0 69044.0 60777.0 87919.0 95684.0 48826.0 51548.0 148090.0 145873.0 242495.0 234486.0 112304.0 109874.0 70701.0 72587.0 236799.0 242346.0 248452.0 241676.0 191924.0 183964.0 134416.0 127508.0 270906.0 273893.0 228035.0 233004.0 60798.0 52885.0 169321.0 164875.0 208977.0 203848.0 279849.0 274838.0 264060.0 256144.0 146337.0 145551.0 245615.0 241742.0 64430.0 59330.0 205273.0 209238.0 225650.0 233342.0 64393.0 68623.0 215929.0 210178.0 0.0 8300.0 240424.0 248392.0 262214.0 257304.0 260916.0 265685.0 246068.0 238368.0 278113.0 272243.0 226634.0 219951.0 183687.0 177451.0 255149.0 251937.0 288745.0 296479.0 135374.0 143160.0 37930.0 45342.0 244634.0 249283.0 263314.0 259818.0 229844.0 229674.0 251853.0 256391.0 262508.0 258109.0 140467.0 143579.0 172237.0 175327.0 26241.0 24631.0 258514.0 251837.0 58108.0 57807.0 213702.0 218831.0 101650.0 93637.0 44674.0 51001.0 281018.0 286952.0 247922.0 256078.0 234787.0 240218.0 214541.0 215709.0 228349.0 229346.0 198479.0 190729.0 145719.0 137759.0 201359.0 209312.0 180633.0 182774.0 219294.0 63526.0 219294.0 219294.0 63526.0 63526.0
277842.0 282535.0 258815.0 258854.0 248935.0 240967.0 222081.0 228612.0 126583.0 131540.0 136391.0 134094.0 221059.0 213372.0 74735.0 81865.0 237714.0 235064.0 98417.0 100726.0 109161.0 101520.0 267324.0 271216.0 161915.0 154613.0 88986.0 91494.0 181853.0 189737.0 255840.0 255592.0 249277.0 241650.0 101886.0 101843.0 112860.0 120196.0 208558.0 204149.0 161315.0 168223.0 73199.0 64927.0 83393.0 91393.0 43700.0 47485.0 147336.0 145552.0 239828.0 231784.0 114280.0 111300.0 72404.0 75076.0 230715.0 236408.0 249163.0 242229.0 191921.0 184004.0 134898.0 128131.0 272579.0 275345.0 225754.0 230947.0 63494.0 55805.0 167584.0 162809.0 202710.0 197427.0 280730.0 275532.0 265679.0 257816.0 144208.0 142983.0 242258.0 238608.0 65521.0 59655.0 205286.0 209529.0 227847.0 235530.0 59505.0 63021.0 218129.0 212325.0 8300.0 0.0 238381.0 246364.0 259709.0 255016.0 254638.0 259545.0 247337.0 239739.0 280160.0 274459.0 226026.0 219179.0 182434.0 175993.0 252939.0 249492.0 290670.0 298441.0 132693.0 140395.0 31140.0 38881.0 246834.0 251483.0 265514.0 262017.0 226452.0 226009.0 254053.0 258562.0 263402.0 258782.0 140314.0 143854.0 171470.0 174202.0 31698.0 28060.0 258441.0 251636.0 55972.0 54561.0 212414.0 217792.0 100780.0 92635.0 36841.0 43507.0 275346.0 281399.0 246799.0 254937.0 236958.0 242412.0 210660.0 212101.0 222868.0 224082.0 198334.0 190699.0 145126.0 137158.0 200089.0 208078.0 180658.0 182419.0 221494.0 67000.0 221494.0 221494.0 67000.0 67000.0
52891.0 53014.0 104532.0 97095.0 110261.0 108970.0 74480.0 69625.0 111805.0 107141.0 107723.0 113652.0 23636.0 28748.0 313111.0 320211.0 147339.0 152607.0 140011.0 138517.0 345291.0 337340.0 60473.0 57127.0 76476.0 84008.0 155789.0 151765.0 58192.0 51116.0 129129.0 121702.0 116930.0 111831.0 340046.0 339346.0 127527.0 119644.0 47343.0 55298.0 77126.0 70176.0 308411.0 300234.0 160747.0 152379.0 269950.0 277206.0 96378.0 101567.0 18936.0 20516.0 352586.0 349661.0 310758.0 313005.0 134040.0 129659.0 81794.0 75620.0 71235.0 76730.0 118272.0 125053.0 118709.0 113615.0 14291.0 7440.0 190558.0 197371.0 71372.0 75579.0 136867.0 142369.0 100209.0 92140.0 114012.0 112427.0 94173.0 95941.0 40687.0 33151.0 303867.0 297674.0 65017.0 70073.0 123214.0 123525.0 183423.0 184096.0 122910.0 116986.0 240424.0 238381.0 0.0 7991.0 25962.0 18387.0 150048.0 146192.0 97360.0 98469.0 133427.0 135572.0 42824.0 40777.0 59909.0 64423.0 15509.0 16737.0 135585.0 141259.0 106369.0 99073.0 214491.0 207352.0 147551.0 143385.0 155090.0 159523.0 41764.0 49967.0 141359.0 137857.0 92070.0 83856.0 107622.0 108974.0 74610.0 68636.0 265321.0 265054.0 62507.0 56347.0 182475.0 184179.0 33672.0 35192.0 336065.0 327850.0 219548.0 212392.0 134271.0 132786.0 28607.0 31768.0 130370.0 126212.0 59863.0 52068.0 109690.0 102056.0 64882.0 71412.0 99634.0 106856.0 43941.0 37907.0 78626.0 71247.0 153652.0 193176.0 153652.0 153652.0 193176.0 193176.0
47954.0 47125.0 105311.0 97646.0 111952.0 111219.0 78084.0 72621.0 119791.0 115095.0 115404.0 121203.0 30310.0 36135.0 321093.0 328197.0 149768.0 155331.0 147999.0 146504.0 353277.0 345326.0 57563.0 53303.0 84464.0 91998.0 163602.0 159605.0 65959.0 58751.0 130065.0 122477.0 118044.0 113396.0 348018.0 347304.0 135495.0 127618.0 52937.0 60853.0 85116.0 78152.0 316349.0 308170.0 168690.0 160317.0 277918.0 285182.0 104030.0 109069.0 20607.0 24825.0 360564.0 357647.0 318738.0 320974.0 137266.0 132504.0 82123.0 76541.0 77095.0 82972.0 125634.0 132472.0 118146.0 112643.0 21812.0 15430.0 198328.0 205178.0 79282.0 83558.0 141537.0 147283.0 98168.0 90195.0 113825.0 112803.0 102156.0 103926.0 41727.0 34920.0 311852.0 305664.0 69913.0 74359.0 125843.0 125676.0 191398.0 192041.0 126122.0 120529.0 248392.0 246364.0 7991.0 0.0 20386.0 12006.0 152209.0 147989.0 98214.0 99972.0 132826.0 135438.0 46078.0 45301.0 67441.0 72174.0 8763.0 13449.0 134318.0 139671.0 114354.0 107046.0 222474.0 215328.0 149460.0 144919.0 156101.0 160879.0 45604.0 53570.0 142692.0 138824.0 91320.0 83260.0 115126.0 116264.0 81948.0 76187.0 273265.0 273021.0 61030.0 55571.0 190453.0 192169.0 40166.0 40485.0 344049.0 335833.0 227504.0 220336.0 134741.0 132782.0 27444.0 28523.0 132527.0 127964.0 64956.0 57375.0 113183.0 105437.0 70479.0 77369.0 107245.0 114539.0 51065.0 44575.0 85031.0 77920.0 157491.0 200878.0 157491.0 157491.0 200878.0 200878.0
27594.0 27054.0 91867.0 83885.0 100349.0 100918.0 72280.0 65444.0 133460.0 129623.0 132086.0 138421.0 38733.0 46344.0 334382.0 341301.0 169321.0 175073.0 161395.0 159115.0 365307.0 357316.0 71391.0 65513.0 98401.0 105230.0 179372.0 175184.0 82516.0 75969.0 148345.0 140620.0 136561.0 132355.0 361582.0 361205.0 147454.0 139799.0 73056.0 81000.0 98805.0 92561.0 330633.0 322483.0 179921.0 171488.0 289382.0 296837.0 120894.0 126498.0 20468.0 28497.0 373979.0 370747.0 332090.0 334657.0 128959.0 123298.0 100071.0 95147.0 97095.0 102686.0 143464.0 150120.0 134645.0 128594.0 34757.0 32111.0 214325.0 220911.0 94680.0 97802.0 137236.0 143668.0 112547.0 104866.0 130869.0 130548.0 116077.0 116729.0 32474.0 28944.0 324986.0 318556.0 90265.0 94739.0 145570.0 145074.0 203250.0 203206.0 146169.0 140718.0 262214.0 259709.0 25962.0 20386.0 0.0 8540.0 141133.0 136137.0 116577.0 118938.0 149169.0 152413.0 66326.0 65678.0 84949.0 88751.0 11804.0 10427.0 149628.0 154407.0 127025.0 119379.0 234548.0 227158.0 168610.0 163747.0 174373.0 179494.0 43080.0 49438.0 161333.0 157104.0 107819.0 100077.0 132531.0 134310.0 99953.0 93577.0 287512.0 286823.0 77077.0 72700.0 204109.0 205207.0 59633.0 60697.0 355918.0 347740.0 238776.0 231361.0 120296.0 117481.0 45435.0 43832.0 151913.0 147035.0 64274.0 57928.0 105988.0 98117.0 90617.0 97305.0 124268.0 131218.0 69662.0 63855.0 104587.0 97164.0 177758.0 217268.0 177758.0 177758.0 217268.0 217268.0
36112.0 35126.0 98104.0 90223.0 105878.0 105925.0 75277.0 68958.0 128507.0 124279.0 125759.0 131847.0 35153.0 42271.0 329741.0 336746.0 160847.0 166568.0 156604.0 154672.0 361246.0 353271.0 64349.0 58936.0 93245.0 100403.0 173515.0 169413.0 76152.0 69288.0 140155.0 132462.0 128306.0 123994.0 356821.0 356289.0 143281.0 135515.0 64907.0 72833.0 93759.0 87179.0 325527.0 317366.0 176114.0 167697.0 285550.0 292922.0 114468.0 119811.0 19156.0 26320.0 369290.0 366201.0 327419.0 329835.0 133240.0 127928.0 91934.0 86847.0 89034.0 94804.0 136597.0 143346.0 126947.0 121055.0 29270.0 25187.0 208381.0 215095.0 88870.0 92510.0 139906.0 146072.0 105475.0 97684.0 123007.0 122490.0 110977.0 112122.0 36330.0 31137.0 320413.0 314091.0 81911.0 86274.0 137065.0 136626.0 199192.0 199452.0 137631.0 132179.0 257304.0 255016.0 18387.0 12006.0 8540.0 0.0 146543.0 141844.0 108350.0 110571.0 141531.0 144588.0 57798.0 57284.0 78161.0 82397.0 3281.0 7406.0 142311.0 147279.0 122500.0 114984.0 230415.0 223128.0 160216.0 155425.0 166194.0 171228.0 44241.0 51437.0 153057.0 148918.0 100089.0 92243.0 125862.0 127329.0 92958.0 86862.0 282415.0 281931.0 69406.0 64724.0 199242.0 200620.0 51850.0 52477.0 351927.0 343730.0 235002.0 227692.0 126982.0 124486.0 37153.0 36129.0 143468.0 138654.0 65032.0 58077.0 109749.0 101898.0 82458.0 89286.0 117772.0 124892.0 62327.0 56175.0 96798.0 89542.0 169228.0 211139.0 169228.0 169228.0 211139.0 211139.0
128083.0 136112.0 51266.0 59230.0 40799.0 41079.0 77729.0 80873.0 167152.0 170995.0 188245.0 196744.0 132057.0 133623.0 319055.0 323646.0 286951.0 290382.0 181445.0 174232.0 336153.0 328539.0 209770.0 205151.0 153017.0 151565.0 212817.0 208137.0 161198.0 162030.0 275293.0 268468.0 262862.0 256500.0 346150.0 348893.0 162896.0 160366.0 181227.0 187094.0 151788.0 153488.0 325725.0 317723.0 177115.0 171309.0 263910.0 271915.0 182809.0 190727.0 131737.0 129852.0 356165.0 350383.0 317559.0 322836.0 25501.0 23734.0 230311.0 223236.0 196260.0 196426.0 205647.0 208660.0 268070.0 263393.0 141534.0 148447.0 241626.0 244402.0 159759.0 154491.0 51939.0 57469.0 250186.0 242142.0 262893.0 260309.0 160204.0 153580.0 110635.0 117320.0 309277.0 301443.0 198671.0 206312.0 262985.0 265488.0 197982.0 192604.0 259559.0 252105.0 260916.0 254638.0 150048.0 152209.0 141133.0 146543.0 0.0 8088.0 244492.0 243829.0 282752.0 284169.0 187272.0 181523.0 167762.0 163987.0 148385.0 140314.0 285506.0 291292.0 157321.0 151810.0 223525.0 215766.0 289651.0 287165.0 300489.0 303585.0 109123.0 100910.0 285945.0 283741.0 241768.0 233477.0 194437.0 201279.0 179092.0 171316.0 286327.0 281700.0 212555.0 206264.0 213113.0 208869.0 167185.0 174353.0 326258.0 319152.0 220411.0 212631.0 34815.0 42858.0 178638.0 180731.0 272011.0 269695.0 97463.0 104749.0 45960.0 51607.0 193769.0 195498.0 186069.0 187688.0 166895.0 168189.0 195880.0 187652.0 284593.0 247775.0 284593.0 284593.0 247775.0 247775.0
122015.0 129977.0 45137.0 53206.0 36042.0 37756.0 75296.0 77705.0 168882.0 172371.0 189128.0 197650.0 129033.0 131040.0 324751.0 329457.0 284999.0 288626.0 184239.0 177170.0 342466.0 334815.0 205488.0 200649.0 153143.0 152134.0 215347.0 210632.0 160178.0 160614.0 272504.0 265569.0 260080.0 253872.0 351943.0 354564.0 165581.0 162695.0 178971.0 185061.0 151970.0 153259.0 330993.0 322952.0 181092.0 175045.0 269794.0 277816.0 183259.0 191194.0 127660.0 126211.0 362087.0 356391.0 323215.0 328395.0 28965.0 24880.0 227014.0 220086.0 194787.0 195279.0 206472.0 209736.0 264600.0 259747.0 138268.0 144948.0 244800.0 247801.0 159479.0 154542.0 57028.0 63110.0 246123.0 238114.0 259560.0 257196.0 161155.0 154772.0 106284.0 113228.0 314951.0 307144.0 196668.0 204203.0 260928.0 263211.0 202382.0 197213.0 257780.0 250420.0 265685.0 259545.0 146192.0 147989.0 136137.0 141844.0 8088.0 0.0 241479.0 241071.0 279304.0 280931.0 184315.0 178807.0 166681.0 163241.0 143808.0 135811.0 281773.0 287424.0 159005.0 153213.0 228476.0 220664.0 287435.0 284737.0 297866.0 301157.0 105813.0 97687.0 283407.0 281013.0 238151.0 229886.0 195101.0 201765.0 178480.0 170611.0 291243.0 286774.0 208647.0 202519.0 216952.0 212937.0 164684.0 171646.0 332561.0 325391.0 225686.0 217856.0 26743.0 34774.0 174711.0 176493.0 269793.0 267256.0 95516.0 102528.0 45856.0 50515.0 192019.0 194072.0 186590.0 188543.0 164973.0 165894.0 194869.0 186550.0 283373.0 250835.0 283373.0 283373.0 250835.0 250835.0
142862.0 139182.0 201492.0 194239.0 206078.0 203756.0 166861.0 163781.0 140561.0 132306.0 117400.0 116428.0 112466.0 111144.0 317155.0 325061.0 56298.0 63462.0 162851.0 166231.0 355569.0 348216.0 53008.0 61161.0 117815.0 125387.0 159011.0 157314.0 96470.0 91239.0 31851.0 24343.0 20025.0 17589.0 341557.0 339617.0 161285.0 154247.0 66217.0 63051.0 119393.0 112432.0 308229.0 300062.0 191646.0 185023.0 287746.0 293411.0 109413.0 107363.0 116252.0 115953.0 354485.0 353356.0 314523.0 314782.0 225596.0 222547.0 16906.0 21742.0 64192.0 70265.0 113414.0 119727.0 28126.0 28515.0 103295.0 97098.0 185951.0 193940.0 107605.0 115804.0 221697.0 225450.0 35806.0 33803.0 21207.0 16121.0 127737.0 134737.0 137904.0 130140.0 309425.0 305129.0 53694.0 46013.0 36698.0 32446.0 207529.0 211862.0 43029.0 43208.0 246068.0 247337.0 97360.0 98214.0 116577.0 108350.0 244492.0 241479.0 0.0 8219.0 41011.0 40342.0 57224.0 63368.0 90674.0 98014.0 105341.0 111661.0 48100.0 55760.0 142298.0 139103.0 233565.0 228607.0 53254.0 47503.0 57890.0 62947.0 135706.0 143795.0 44834.0 40611.0 19971.0 21723.0 111038.0 105472.0 90319.0 93622.0 266115.0 268802.0 42605.0 44525.0 195931.0 201255.0 78243.0 70488.0 347715.0 339678.0 242630.0 237552.0 231373.0 230110.0 71199.0 73436.0 38585.0 31951.0 148069.0 140351.0 200982.0 193981.0 61324.0 65539.0 109870.0 116891.0 82150.0 78285.0 73287.0 76422.0 76270.0 185857.0 76270.0 76270.0 185857.0 185857.0
145677.0 142394.0 201893.0 194794.0 205945.0 203316.0 166104.0 163396.0 134672.0 126355.0 110858.0 109534.0 112106.0 110220.0 309287.0 317204.0 51447.0 58165.0 156320.0 159926.0 347823.0 340495.0 58491.0 66604.0 113316.0 120662.0 151612.0 150023.0 92689.0 87964.0 31470.0 25025.0 19041.0 13428.0 333733.0 331793.0 155386.0 148496.0 63833.0 59801.0 114910.0 108191.0 300405.0 292238.0 185279.0 178808.0 280357.0 285951.0 103268.0 100840.0 117209.0 116342.0 346660.0 345532.0 306749.0 306958.0 224349.0 221580.0 21829.0 24033.0 59052.0 64597.0 106198.0 112390.0 34032.0 35660.0 103325.0 97585.0 178139.0 186131.0 103110.0 111291.0 219422.0 222931.0 44024.0 41838.0 26930.0 20133.0 122417.0 129605.0 138674.0 130806.0 301606.0 297368.0 49626.0 41667.0 30063.0 27031.0 200706.0 205193.0 35505.0 35168.0 238368.0 239739.0 98469.0 99972.0 118938.0 110571.0 243829.0 241071.0 8219.0 0.0 45493.0 43440.0 56937.0 62307.0 86654.0 93774.0 107474.0 113397.0 53744.0 61555.0 136825.0 133962.0 226391.0 221547.0 49712.0 44958.0 56934.0 61056.0 135540.0 143516.0 42906.0 39944.0 27970.0 28631.0 104291.0 98479.0 85119.0 88954.0 258291.0 260999.0 47523.0 48268.0 188700.0 194147.0 76826.0 69476.0 340018.0 331996.0 235593.0 230629.0 231833.0 230855.0 73531.0 76581.0 33644.0 28112.0 146885.0 139291.0 199803.0 192956.0 56945.0 60371.0 103543.0 110380.0 79535.0 76392.0 67484.0 71284.0 68795.0 178033.0 68795.0 68795.0 178033.0 178033.0
173508.0 168584.0 237899.0 230355.0 243527.0 241764.0 205534.0 201880.0 179909.0 171552.0 155394.0 153383.0 150909.0 150375.0 348629.0 356514.0 55855.0 63619.0 200733.0 204688.0 387180.0 379956.0 78692.0 85921.0 158629.0 166075.0 193531.0 192403.0 137474.0 132224.0 25501.0 24576.0 31077.0 39070.0 372991.0 371051.0 200594.0 193813.0 106977.0 104053.0 160216.0 153350.0 339663.0 331496.0 229908.0 223661.0 321820.0 327037.0 148339.0 145448.0 152283.0 153107.0 385918.0 384790.0 346007.0 346216.0 264790.0 261344.0 52628.0 60223.0 104532.0 110040.0 149171.0 154874.0 14718.0 20811.0 141237.0 134359.0 217421.0 225413.0 148416.0 156610.0 262040.0 265984.0 39926.0 45991.0 20253.0 25396.0 167901.0 175098.0 174034.0 166578.0 340864.0 336702.0 94609.0 86812.0 53170.0 45373.0 244386.0 249229.0 62922.0 67963.0 278113.0 280160.0 133427.0 132826.0 149169.0 141531.0 282752.0 279304.0 41011.0 45493.0 0.0 8198.0 96441.0 103255.0 131641.0 138925.0 138833.0 146005.0 11410.0 18572.0 182273.0 179455.0 268911.0 264484.0 46900.0 38679.0 36719.0 44884.0 173630.0 181845.0 34471.0 27135.0 41511.0 49604.0 148489.0 142167.0 130612.0 134331.0 297549.0 300265.0 72126.0 77273.0 231129.0 237004.0 118278.0 110230.0 379468.0 371580.0 278572.0 273972.0 267505.0 265601.0 105413.0 105410.0 45902.0 38869.0 187414.0 179572.0 240141.0 232944.0 102144.0 105855.0 148411.0 154968.0 122952.0 118697.0 112875.0 116770.0 89757.0 217291.0 89757.0 89757.0 217291.0 217291.0
177318.0 172668.0 240099.0 232658.0 245305.0 243285.0 206696.0 203329.0 176622.0 168229.0 151527.0 149130.0 152133.0 151178.0 342813.0 350698.0 47817.0 55527.0 196689.0 200887.0 381365.0 374141.0 82844.0 90360.0 156671.0 163913.0 188405.0 187436.0 136109.0 131233.0 18722.0 19874.0 26741.0 34934.0 367176.0 365236.0 197240.0 190627.0 106513.0 103023.0 158269.0 151613.0 333847.0 325680.0 225972.0 219911.0 316377.0 321477.0 144921.0 141660.0 154495.0 154901.0 380103.0 378974.0 340191.0 340400.0 265678.0 262466.0 53932.0 60967.0 102223.0 107290.0 144550.0 150051.0 18392.0 25889.0 142676.0 136067.0 211605.0 219597.0 146476.0 154644.0 262039.0 265771.0 45825.0 51120.0 21613.0 24221.0 165199.0 172553.0 176257.0 168674.0 335049.0 330886.0 93056.0 85107.0 46792.0 39022.0 239870.0 244893.0 56574.0 62142.0 272243.0 274459.0 135572.0 135438.0 152413.0 144588.0 284169.0 280931.0 40342.0 43440.0 8198.0 0.0 97153.0 103588.0 130093.0 137201.0 141793.0 148744.0 19257.0 25729.0 179391.0 176893.0 263875.0 259613.0 38746.0 30547.0 28955.0 37008.0 175130.0 183297.0 26360.0 19108.0 44676.0 52346.0 144436.0 137877.0 128132.0 132274.0 291734.0 294449.0 75404.0 79937.0 226107.0 232135.0 118523.0 110669.0 373770.0 365835.0 273705.0 269265.0 269833.0 268160.0 107998.0 108581.0 38795.0 32259.0 188177.0 180406.0 241043.0 233960.0 100377.0 103518.0 144808.0 151137.0 122410.0 118626.0 109992.0 114399.0 82210.0 211476.0 82210.0 82210.0 211476.0 211476.0
93910.0 92337.0 144996.0 137963.0 149052.0 146575.0 109642.0 106611.0 104204.0 97169.0 89677.0 92891.0 55283.0 54028.0 299747.0 307280.0 104598.0 109788.0 131055.0 132021.0 335014.0 327253.0 42128.0 45225.0 73040.0 81452.0 138228.0 135051.0 49524.0 42090.0 88258.0 81254.0 75857.0 70039.0 325621.0 323969.0 123720.0 115855.0 17654.0 22308.0 74387.0 66527.0 292587.0 284419.0 156885.0 149123.0 262196.0 268820.0 78704.0 80884.0 60990.0 59520.0 338459.0 336437.0 297244.0 298528.0 168528.0 165357.0 43899.0 36255.0 37620.0 45250.0 94520.0 101715.0 82012.0 78535.0 46390.0 40928.0 171037.0 178568.0 63801.0 71287.0 165878.0 170101.0 70384.0 62594.0 76261.0 73115.0 87802.0 92894.0 82094.0 74153.0 291050.0 285613.0 26525.0 29032.0 80421.0 80991.0 176851.0 179381.0 80163.0 74456.0 226634.0 226026.0 42824.0 46078.0 66326.0 57798.0 187272.0 184315.0 57224.0 56937.0 96441.0 97153.0 0.0 8087.0 46116.0 53745.0 54524.0 58946.0 100812.0 107517.0 102445.0 97035.0 206301.0 200038.0 105164.0 101434.0 113870.0 117745.0 78639.0 86664.0 99703.0 96841.0 57367.0 49227.0 86517.0 84833.0 54620.0 53062.0 249839.0 250884.0 35731.0 27974.0 170722.0 174199.0 22465.0 14089.0 326312.0 318092.0 213401.0 207103.0 174946.0 174109.0 25702.0 33062.0 87814.0 84068.0 91044.0 83255.0 143891.0 136820.0 30329.0 38448.0 80930.0 88896.0 30803.0 24159.0 48235.0 44182.0 111434.0 172222.0 111434.0 111434.0 172222.0 172222.0
93191.0 92319.0 140385.0 133554.0 143844.0 141052.0 103798.0 101181.0 96580.0 89686.0 83009.0 86655.0 50028.0 47922.0 293102.0 300591.0 108166.0 112933.0 123651.0 124431.0 328059.0 320273.0 49836.0 52439.0 65037.0 73459.0 131797.0 128493.0 41524.0 34027.0 93772.0 87029.0 81341.0 75074.0 319126.0 317593.0 115936.0 108045.0 10743.0 17211.0 66369.0 58497.0 286205.0 278038.0 149187.0 141372.0 254941.0 261628.0 71872.0 74513.0 57908.0 55464.0 331937.0 329806.0 290614.0 292015.0 162253.0 159327.0 50989.0 43068.0 33572.0 40667.0 88819.0 95995.0 88975.0 85826.0 41919.0 37567.0 165006.0 172450.0 55897.0 63302.0 158809.0 162880.0 78293.0 70555.0 83015.0 79420.0 80010.0 84965.0 78330.0 70329.0 284333.0 278806.0 24666.0 29297.0 83872.0 85112.0 169379.0 171780.0 82718.0 76485.0 219951.0 219179.0 40777.0 45301.0 65678.0 57284.0 181523.0 178807.0 63368.0 62307.0 103255.0 103588.0 8087.0 0.0 38342.0 45894.0 54013.0 57409.0 108036.0 114871.0 94594.0 89082.0 199013.0 192666.0 109395.0 106143.0 119062.0 122537.0 73552.0 81401.0 104659.0 102227.0 64886.0 56843.0 80276.0 79113.0 47723.0 45589.0 243398.0 244282.0 43794.0 36022.0 163701.0 167012.0 15036.0 7169.0 319298.0 311072.0 205956.0 199585.0 170335.0 169815.0 29516.0 37479.0 91862.0 88679.0 84728.0 77056.0 137655.0 130722.0 26406.0 34177.0 74264.0 82209.0 22718.0 16199.0 43392.0 38330.0 112936.0 166420.0 112936.0 112936.0 166420.0 166420.0
109553.0 111416.0 135079.0 129735.0 134772.0 130070.0 92808.0 93221.0 58306.0 51667.0 48172.0 53763.0 51901.0 44976.0 256812.0 264166.0 121168.0 123714.0 85705.0 86176.0 290901.0 283059.0 88171.0 90606.0 27787.0 35967.0 96905.0 93153.0 6654.0 9070.0 116410.0 111203.0 104591.0 96890.0 283243.0 282076.0 77610.0 69739.0 28814.0 28342.0 29283.0 21878.0 250796.0 242629.0 110848.0 103032.0 217154.0 223968.0 36734.0 41660.0 68815.0 62334.0 295959.0 293511.0 254373.0 256122.0 145371.0 144271.0 82931.0 74630.0 29667.0 28676.0 58515.0 65197.0 118547.0 117148.0 50883.0 52996.0 131292.0 138338.0 17932.0 25871.0 135812.0 138453.0 113359.0 106129.0 111816.0 106360.0 41687.0 46969.0 82567.0 75433.0 247850.0 242080.0 37059.0 44987.0 98186.0 102210.0 131257.0 133497.0 93263.0 85480.0 183687.0 182434.0 59909.0 67441.0 84949.0 78161.0 167762.0 166681.0 90674.0 86654.0 131641.0 130093.0 46116.0 38342.0 0.0 7778.0 75405.0 74669.0 138442.0 145873.0 56349.0 51194.0 161202.0 154697.0 125360.0 124471.0 139052.0 140501.0 71050.0 76638.0 124195.0 123854.0 98023.0 90743.0 47714.0 49435.0 15340.0 8753.0 207829.0 208203.0 81559.0 73917.0 126607.0 129471.0 30016.0 35644.0 282003.0 273770.0 167856.0 161385.0 163934.0 165252.0 64400.0 72520.0 108113.0 107630.0 72108.0 66378.0 121905.0 116270.0 29792.0 28652.0 39850.0 47313.0 17672.0 25644.0 28204.0 19890.0 116844.0 133594.0 116844.0 116844.0 133594.0 133594.0
112397.0 114762.0 133262.0 128277.0 132179.0 127123.0 90348.0 91411.0 51045.0 44738.0 43368.0 49757.0 53735.0 46323.0 250507.0 257804.0 126675.0 128876.0 78729.0 78903.0 284216.0 276352.0 95726.0 97979.0 20068.0 28197.0 91471.0 87548.0 6245.0 13770.0 123169.0 118152.0 111483.0 103687.0 277082.0 276051.0 70059.0 62154.0 36551.0 36038.0 21588.0 14426.0 244858.0 236634.0 103398.0 95518.0 210177.0 217059.0 32145.0 38101.0 71546.0 64570.0 289755.0 287186.0 248089.0 249972.0 141091.0 140370.0 90597.0 82303.0 35804.0 33460.0 55458.0 61781.0 125966.0 124702.0 54158.0 57250.0 126154.0 133029.0 10156.0 18128.0 130350.0 132693.0 121115.0 113900.0 119190.0 113595.0 34141.0 39224.0 83565.0 76815.0 241473.0 235604.0 44324.0 52139.0 104091.0 108426.0 124087.0 126159.0 98720.0 90839.0 177451.0 175993.0 64423.0 72174.0 88751.0 82397.0 163987.0 163241.0 98014.0 93774.0 138925.0 137201.0 53745.0 45894.0 7778.0 0.0 79796.0 78361.0 145889.0 153358.0 48705.0 43434.0 154236.0 147631.0 131247.0 130672.0 145387.0 146566.0 71010.0 75925.0 130549.0 130460.0 105716.0 98477.0 44048.0 46939.0 15440.0 7401.0 201843.0 202018.0 89269.0 81606.0 120073.0 122693.0 36566.0 42796.0 275258.0 267023.0 160688.0 154132.0 161671.0 163354.0 71167.0 79227.0 114170.0 114024.0 69772.0 64686.0 118036.0 112731.0 36829.0 34663.0 35552.0 42500.0 24395.0 32408.0 32309.0 24737.0 121091.0 128765.0 121091.0 121091.0 128765.0 128765.0
39388.0 38364.0 100314.0 92482.0 107800.0 107642.0 76280.0 70179.0 126382.0 122014.0 123137.0 129134.0 33864.0 40703.0 327672.0 334708.0 157670.0 163364.0 154523.0 152719.0 359384.0 351415.0 62011.0 56847.0 91078.0 98351.0 171041.0 166971.0 73555.0 66582.0 137163.0 129490.0 125277.0 120900.0 354707.0 354119.0 141435.0 133633.0 61695.0 69614.0 91633.0 84936.0 323299.0 315129.0 174385.0 165978.0 283781.0 291122.0 111816.0 117064.0 19246.0 25785.0 367200.0 364163.0 325340.0 327702.0 134643.0 129473.0 88983.0 83797.0 85842.0 91665.0 133780.0 140560.0 124223.0 118414.0 27238.0 22548.0 205868.0 212626.0 86463.0 90293.0 140674.0 146731.0 103074.0 95236.0 120200.0 119576.0 108812.0 110140.0 37885.0 32177.0 318370.0 312088.0 78646.0 82993.0 133862.0 133469.0 197361.0 197734.0 134385.0 128915.0 255149.0 252939.0 15509.0 8763.0 11804.0 3281.0 148385.0 143808.0 105341.0 107474.0 138833.0 141793.0 54524.0 54013.0 75405.0 79796.0 0.0 8186.0 139774.0 144832.0 120539.0 113078.0 228547.0 221301.0 157097.0 152353.0 163205.0 168188.0 44722.0 52174.0 150012.0 145926.0 97359.0 89463.0 123118.0 124477.0 90116.0 84125.0 280190.0 279779.0 66731.0 61882.0 197116.0 198595.0 48763.0 49248.0 350091.0 341888.0 233266.0 225995.0 129351.0 126990.0 34148.0 33507.0 140314.0 135545.0 65220.0 58067.0 110975.0 103143.0 79240.0 86106.0 115093.0 122270.0 59389.0 53119.0 93687.0 86487.0 165956.0 208560.0 165956.0 165956.0 208560.0 208560.0
36216.0 36891.0 92551.0 84782.0 99785.0 99522.0 68149.0 61999.0 123156.0 119242.0 121681.0 128057.0 28771.0 36217.0 324185.0 331131.0 163041.0 168516.0 151137.0 148962.0 355317.0 347332.0 69799.0 64850.0 88043.0 94946.0 168947.0 164762.0 72131.0 65663.0 143512.0 135919.0 131493.0 126818.0 351350.0 350932.0 137393.0 129695.0 64057.0 72009.0 88468.0 82166.0 320304.0 312160.0 170017.0 161589.0 279483.0 286903.0 110506.0 116164.0 11796.0 19244.0 363769.0 360581.0 321884.0 324407.0 126457.0 121302.0 95539.0 89990.0 87857.0 93168.0 133180.0 139804.0 131349.0 125712.0 24330.0 22106.0 203898.0 210488.0 84254.0 87421.0 132650.0 138768.0 110750.0 102856.0 127132.0 126210.0 105736.0 106511.0 29741.0 24017.0 314810.0 308415.0 81741.0 86683.0 139049.0 139010.0 193247.0 193330.0 139106.0 133347.0 251937.0 249492.0 16737.0 13449.0 10427.0 7406.0 140314.0 135811.0 111661.0 113397.0 146005.0 148744.0 58946.0 57409.0 74669.0 78361.0 8186.0 0.0 147237.0 152426.0 116836.0 109229.0 224520.0 217170.0 162845.0 158349.0 169549.0 174322.0 36865.0 44151.0 156135.0 152272.0 104496.0 96495.0 122191.0 124071.0 89740.0 83266.0 277192.0 276552.0 74027.0 68822.0 193838.0 195016.0 50121.0 51928.0 345957.0 337770.0 228897.0 221528.0 121770.0 119617.0 40765.0 41016.0 145862.0 141368.0 57626.0 50687.0 102797.0 94963.0 81578.0 87998.0 113891.0 120814.0 59687.0 54203.0 94952.0 87367.0 170149.0 206844.0 170149.0 170149.0 206844.0 206844.0
172984.0 167637.0 239628.0 231952.0 245843.0 244439.0 208771.0 204739.0 188391.0 180086.0 164474.0 162812.0 154244.0 154267.0 359266.0 367151.0 67073.0 74765.0 209908.0 213632.0 397652.0 390511.0 78344.0 84980.0 165784.0 173430.0 203644.0 202389.0 144048.0 138396.0 36858.0 35263.0 41398.0 49089.0 383628.0 381688.0 209110.0 202172.0 112688.0 110435.0 167353.0 160278.0 350300.0 342133.0 238953.0 232535.0 332124.0 337429.0 157012.0 154477.0 154249.0 155655.0 396555.0 395427.0 356644.0 356853.0 268280.0 264529.0 57056.0 65128.0 112279.0 118199.0 158922.0 164784.0 19976.0 22318.0 144328.0 137123.0 228058.0 236050.0 155583.0 163780.0 266686.0 270889.0 37569.0 44850.0 26955.0 33823.0 175819.0 182837.0 175898.0 168648.0 351501.0 347339.0 101638.0 94068.0 64297.0 56518.0 253949.0 258627.0 74009.0 78764.0 288745.0 290670.0 135585.0 134318.0 149628.0 142311.0 285506.0 281773.0 48100.0 53744.0 11410.0 19257.0 100812.0 108036.0 138442.0 145889.0 139774.0 147237.0 0.0 7871.0 190346.0 187203.0 278906.0 274342.0 57925.0 49766.0 46195.0 54476.0 176502.0 184756.0 45599.0 38363.0 43887.0 52209.0 157750.0 151650.0 138410.0 141673.0 308186.0 310902.0 73291.0 79258.0 241131.0 246876.0 123054.0 114820.0 390186.0 382275.0 288422.0 283685.0 269001.0 266764.0 107151.0 106276.0 57273.0 50130.0 191228.0 183316.0 243654.0 236318.0 109345.0 113624.0 157259.0 164015.0 128651.0 123858.0 121150.0 124515.0 101167.0 227928.0 101167.0 101167.0 227928.0 227928.0
177161.0 171577.0 244941.0 237205.0 251443.0 250213.0 214834.0 210633.0 196167.0 187870.0 172323.0 170680.0 160415.0 160673.0 366994.0 374879.0 73172.0 80696.0 217762.0 221465.0 405328.0 398203.0 83016.0 89267.0 173290.0 180983.0 211487.0 210245.0 151411.0 145645.0 44010.0 42921.0 49167.0 56916.0 391357.0 389416.0 216888.0 209926.0 119828.0 117779.0 174854.0 167728.0 358028.0 349861.0 246794.0 240359.0 339942.0 345230.0 164820.0 162323.0 159790.0 161470.0 404284.0 403155.0 364372.0 364581.0 274414.0 270528.0 63989.0 72160.0 119951.0 125942.0 166790.0 172644.0 27654.0 29070.0 150410.0 143073.0 235786.0 243778.0 163098.0 171291.0 273310.0 277613.0 41865.0 49598.0 34698.0 41680.0 183496.0 190475.0 181351.0 174214.0 359230.0 355067.0 109162.0 101654.0 71739.0 63944.0 261820.0 266493.0 81486.0 86413.0 296479.0 298441.0 141259.0 139671.0 154407.0 147279.0 291292.0 287424.0 55760.0 61555.0 18572.0 25729.0 107517.0 114871.0 145873.0 153358.0 144832.0 152426.0 7871.0 0.0 198050.0 194842.0 286763.0 282208.0 63724.0 55721.0 50440.0 58687.0 182435.0 190696.0 51655.0 44657.0 50258.0 58542.0 165612.0 159520.0 146077.0 149237.0 315914.0 318630.0 78777.0 85078.0 248987.0 254740.0 129856.0 121571.0 397890.0 389988.0 296288.0 291555.0 274172.0 271762.0 112713.0 111411.0 64357.0 57431.0 197558.0 189625.0 249812.0 242420.0 116901.0 121299.0 165087.0 171862.0 135763.0 130796.0 128910.0 132179.0 107939.0 235656.0 107939.0 107939.0 235656.0 235656.0
145758.0 150101.0 141519.0 139058.0 135629.0 128644.0 99079.0 103835.0 9904.0 14951.0 35101.0 42654.0 88367.0 80683.0 207357.0 214296.0 159618.0 159784.0 34643.0 32180.0 238926.0 230972.0 144416.0 146482.0 30572.0 22472.0 59382.0 54612.0 53379.0 61296.0 163427.0 159658.0 152789.0 144641.0 234575.0 234306.0 21597.0 13601.0 85132.0 83632.0 29618.0 37272.0 204117.0 195910.0 55172.0 47070.0 163687.0 170879.0 36096.0 42083.0 107154.0 99127.0 246955.0 243747.0 205066.0 207687.0 132035.0 134199.0 137235.0 129077.0 78139.0 72234.0 51677.0 52894.0 170399.0 170152.0 93302.0 98939.0 93134.0 98401.0 38736.0 31946.0 112428.0 111915.0 168542.0 161624.0 163391.0 156958.0 14850.0 10431.0 111055.0 106677.0 197974.0 191600.0 89763.0 96737.0 140140.0 145993.0 77131.0 78317.0 132661.0 124745.0 135374.0 132693.0 106369.0 114354.0 127025.0 122500.0 157321.0 159005.0 142298.0 136825.0 182273.0 179391.0 102445.0 94594.0 56349.0 48705.0 120539.0 116836.0 190346.0 198050.0 0.0 7886.0 108123.0 101031.0 166198.0 167462.0 182608.0 182146.0 95504.0 96469.0 168235.0 169642.0 152476.0 145701.0 42895.0 50909.0 52086.0 50294.0 160954.0 159937.0 137888.0 130263.0 77306.0 78183.0 84272.0 91184.0 229697.0 221480.0 113480.0 106556.0 165425.0 169342.0 118672.0 126524.0 150650.0 152398.0 82959.0 82463.0 113959.0 111560.0 81887.0 76784.0 37608.0 34895.0 72630.0 80486.0 69424.0 65962.0 147836.0 97785.0 147836.0 147836.0 97785.0 97785.0
137906.0 142293.0 134464.0 131816.0 128936.0 122087.0 91752.0 96329.0 16862.0 19185.0 37822.0 45967.0 80683.0 73038.0 215021.0 221923.0 159142.0 159702.0 42499.0 39737.0 246311.0 238346.0 138787.0 140555.0 24220.0 15813.0 66838.0 62091.0 47594.0 55357.0 161379.0 157285.0 150443.0 142350.0 242281.0 242063.0 28468.0 20573.0 79981.0 79077.0 23061.0 30926.0 211943.0 203731.0 61903.0 53643.0 170879.0 178137.0 36379.0 43282.0 99433.0 91391.0 254633.0 251368.0 212741.0 215419.0 126678.0 128497.0 133227.0 124998.0 74956.0 69617.0 55059.0 57166.0 167229.0 166645.0 85844.0 91657.0 100833.0 106188.0 33290.0 25832.0 108204.0 108174.0 164218.0 157135.0 160277.0 154075.0 12032.0 4367.0 103169.0 98807.0 205610.0 199187.0 85970.0 93232.0 138926.0 144489.0 84352.0 85189.0 131823.0 123851.0 143160.0 140395.0 99073.0 107046.0 119379.0 114984.0 151810.0 153213.0 139103.0 133962.0 179455.0 176893.0 97035.0 89082.0 51194.0 43434.0 113078.0 109229.0 187203.0 194842.0 7886.0 0.0 115476.0 108285.0 165346.0 166225.0 181330.0 181224.0 87621.0 88638.0 166803.0 167873.0 148443.0 141454.0 45143.0 52941.0 48845.0 45967.0 168782.0 167706.0 132661.0 124968.0 85119.0 85853.0 78110.0 85297.0 237039.0 228830.0 120531.0 113480.0 158837.0 162571.0 112277.0 120038.0 149404.0 150747.0 75283.0 74644.0 107864.0 105139.0 78123.0 73622.0 38559.0 37448.0 66773.0 74495.0 67020.0 62711.0 148365.0 105378.0 148365.0 148365.0 105378.0 105378.0
251233.0 256330.0 228667.0 228982.0 218495.0 210502.0 192957.0 199731.0 103429.0 109542.0 118069.0 117489.0 195820.0 188305.0 101430.0 107758.0 229658.0 227021.0 75511.0 76024.0 130837.0 122870.0 248236.0 251439.0 138349.0 130535.0 75497.0 76519.0 159761.0 167757.0 245596.0 244425.0 237834.0 229901.0 129139.0 130072.0 87137.0 94914.0 188654.0 185096.0 137553.0 144911.0 103285.0 95087.0 55180.0 63539.0 55953.0 62869.0 128190.0 127848.0 214353.0 206266.0 140943.0 136986.0 99379.0 103180.0 199675.0 205448.0 233467.0 226062.0 174455.0 166785.0 120192.0 114135.0 260032.0 261992.0 201316.0 207061.0 62146.0 56622.0 145128.0 139483.0 171603.0 166291.0 265378.0 259586.0 252990.0 245380.0 120976.0 118553.0 215193.0 212049.0 91700.0 84728.0 187711.0 192813.0 218090.0 225534.0 31341.0 32994.0 208615.0 202097.0 37930.0 31140.0 214491.0 222474.0 234548.0 230415.0 223525.0 228476.0 233565.0 226391.0 268911.0 263875.0 206301.0 199013.0 161202.0 154236.0 228547.0 224520.0 278906.0 286763.0 108123.0 115476.0 0.0 7996.0 238759.0 243071.0 257380.0 253956.0 199364.0 198346.0 245337.0 249274.0 248213.0 242883.0 123291.0 128188.0 151859.0 153455.0 62806.0 58446.0 240128.0 232968.0 37782.0 32468.0 190782.0 196845.0 121574.0 113360.0 12001.0 14422.0 244569.0 250725.0 225396.0 233434.0 227808.0 232474.0 182610.0 184607.0 192297.0 193754.0 180330.0 173160.0 126544.0 118742.0 178620.0 186639.0 163443.0 163949.0 213451.0 68145.0 213451.0 213451.0 68145.0 68145.0
243592.0 248752.0 220673.0 220989.0 210513.0 202521.0 185008.0 191804.0 96681.0 103039.0 112418.0 112272.0 188442.0 180966.0 109315.0 115574.0 226375.0 223734.0 69021.0 69063.0 138150.0 130163.0 242054.0 245105.0 131388.0 123484.0 71629.0 72212.0 153070.0 161074.0 241451.0 240062.0 233417.0 225430.0 137038.0 138031.0 79868.0 87712.0 182384.0 179024.0 130552.0 137990.0 111265.0 103062.0 47500.0 55899.0 62682.0 69855.0 122282.0 122294.0 206919.0 198830.0 148788.0 144746.0 107286.0 111144.0 191841.0 197569.0 228064.0 220564.0 168775.0 161186.0 115438.0 109611.0 255314.0 257083.0 194084.0 199930.0 62063.0 57363.0 138393.0 132571.0 163834.0 158592.0 260004.0 254085.0 248251.0 240714.0 114138.0 111459.0 207496.0 204433.0 99564.0 92526.0 181971.0 187258.0 214127.0 221494.0 23940.0 25041.0 204737.0 198064.0 45342.0 38881.0 207352.0 215328.0 227158.0 223128.0 215766.0 220664.0 228607.0 221547.0 264484.0 259613.0 200038.0 192666.0 154697.0 147631.0 221301.0 217170.0 274342.0 282208.0 101031.0 108285.0 7996.0 0.0 235338.0 239436.0 253883.0 250677.0 191670.0 190568.0 241596.0 245351.0 242902.0 237417.0 117932.0 123137.0 145749.0 147079.0 70579.0 66381.0 234125.0 226897.0 33908.0 27481.0 184132.0 190332.0 128799.0 120605.0 14091.0 11601.0 236634.0 242771.0 218748.0 226755.0 223966.0 228431.0 174784.0 176859.0 184326.0 185764.0 174509.0 167466.0 120781.0 113063.0 172026.0 180037.0 157856.0 158065.0 210164.0 68493.0 210164.0 210164.0 68493.0 68493.0
195389.0 192048.0 249780.0 242920.0 252954.0 249766.0 212143.0 210170.0 161493.0 153155.0 134238.0 129940.0 159351.0 156517.0 315148.0 323032.0 10047.0 17005.0 177320.0 182646.0 353699.0 346475.0 105932.0 114059.0 148742.0 154728.0 163755.0 163606.0 131944.0 129113.0 25547.0 32767.0 33792.0 36358.0 339510.0 337570.0 181291.0 175654.0 108466.0 102624.0 150338.0 144958.0 306182.0 298014.0 206650.0 201594.0 289269.0 294041.0 130180.0 125150.0 166073.0 164599.0 352437.0 351308.0 312526.0 312734.0 268903.0 266822.0 70138.0 73694.0 95694.0 98112.0 123600.0 127858.0 50999.0 58678.0 151229.0 146093.0 183940.0 191931.0 139038.0 146751.0 261123.0 263806.0 77672.0 80247.0 48726.0 43794.0 153315.0 161216.0 187256.0 179306.0 307383.0 303221.0 91118.0 83364.0 27175.0 24291.0 217522.0 223369.0 33542.0 41497.0 244634.0 246834.0 147551.0 149460.0 168610.0 160216.0 289651.0 287435.0 53254.0 49712.0 46900.0 38746.0 105164.0 109395.0 125360.0 131247.0 157097.0 162845.0 57925.0 63724.0 166198.0 165346.0 238759.0 235338.0 0.0 8263.0 18763.0 15993.0 182879.0 190611.0 12504.0 19957.0 68903.0 73830.0 126453.0 118916.0 118925.0 124940.0 264068.0 266783.0 95830.0 97592.0 201439.0 208149.0 122891.0 116432.0 346104.0 338169.0 249322.0 245696.0 279729.0 279150.0 123230.0 126218.0 17643.0 21604.0 192192.0 184951.0 244673.0 238232.0 96681.0 96734.0 129127.0 134047.0 122905.0 121540.0 99931.0 106597.0 46895.0 183810.0 46895.0 46895.0 183810.0 183810.0
190263.0 186676.0 246381.0 239393.0 249968.0 247009.0 209510.0 207249.0 163194.0 154807.0 136331.0 132478.0 156170.0 153699.0 319797.0 327682.0 17479.0 25009.0 180094.0 185163.0 358349.0 351125.0 99561.0 107647.0 148718.0 155019.0 167807.0 167449.0 130978.0 127682.0 17873.0 25480.0 27564.0 31558.0 344160.0 342220.0 183256.0 177370.0 105987.0 100573.0 150323.0 144627.0 310831.0 302664.0 209489.0 204179.0 293916.0 298691.0 131631.0 126997.0 162070.0 160953.0 357087.0 355958.0 317175.0 317384.0 266850.0 264532.0 64386.0 68604.0 94904.0 97963.0 126547.0 131146.0 42930.0 50684.0 147744.0 142293.0 188589.0 196581.0 138847.0 146707.0 259925.0 262837.0 69918.0 72822.0 41009.0 36630.0 154218.0 162030.0 183443.0 175536.0 312033.0 307870.0 89242.0 81317.0 27323.0 22261.0 221117.0 226773.0 35431.0 43027.0 249283.0 251483.0 143385.0 144919.0 163747.0 155425.0 287165.0 284737.0 47503.0 44958.0 38679.0 30547.0 101434.0 106143.0 124471.0 130672.0 152353.0 158349.0 49766.0 55721.0 167462.0 166225.0 243071.0 239436.0 8263.0 0.0 15156.0 16421.0 179690.0 187536.0 4241.0 11696.0 61955.0 67344.0 128671.0 121331.0 118992.0 124628.0 268718.0 271433.0 89793.0 92028.0 205581.0 212133.0 120053.0 113257.0 350754.0 342819.0 253466.0 249634.0 276337.0 275540.0 118312.0 120893.0 16822.0 17482.0 189791.0 182416.0 242490.0 235903.0 95269.0 96016.0 130798.0 136090.0 120867.0 118988.0 100011.0 106226.0 53539.0 188460.0 53539.0 53539.0 188460.0 188460.0
200376.0 196359.0 258814.0 251686.0 262840.0 260112.0 222768.0 220236.0 178349.0 169963.0 151455.0 147529.0 168988.0 166880.0 333828.0 341713.0 28514.0 34156.0 195101.0 200230.0 372379.0 365156.0 107640.0 115542.0 163620.0 170008.0 182271.0 182031.0 145513.0 141968.0 26044.0 33769.0 38165.0 43996.0 358191.0 356250.0 198399.0 192525.0 119603.0 114531.0 165227.0 159424.0 324862.0 316695.0 224483.0 219234.0 307950.0 312722.0 146787.0 142143.0 173926.0 173249.0 371118.0 369989.0 331206.0 331415.0 280552.0 278041.0 74315.0 79578.0 109586.0 112875.0 141490.0 145972.0 45809.0 53745.0 160259.0 154462.0 202620.0 210612.0 153700.0 161604.0 274225.0 277267.0 73793.0 78121.0 46234.0 44279.0 169329.0 177125.0 195485.0 187650.0 326064.0 321901.0 103363.0 95362.0 42468.0 37042.0 235834.0 241575.0 50500.0 58160.0 263314.0 265514.0 155090.0 156101.0 174373.0 166194.0 300489.0 297866.0 57890.0 56934.0 36719.0 28955.0 113870.0 119062.0 139052.0 145387.0 163205.0 169549.0 46195.0 50440.0 182608.0 181330.0 257380.0 253883.0 18763.0 15156.0 0.0 8285.0 192449.0 200399.0 14862.0 17281.0 69149.0 75643.0 143778.0 136403.0 133943.0 139452.0 282748.0 285464.0 98742.0 101889.0 219997.0 226645.0 133309.0 126220.0 364784.0 356850.0 267886.0 264177.0 288749.0 287697.0 129057.0 130943.0 31958.0 31442.0 203280.0 195800.0 256106.0 249402.0 109645.0 110726.0 145953.0 151220.0 134772.0 132497.0 114985.0 121052.0 65346.0 202490.0 65346.0 65346.0 202490.0 202490.0
205794.0 201997.0 262724.0 255707.0 266372.0 263429.0 225931.0 223661.0 177482.0 169141.0 150229.0 145893.0 172562.0 170119.0 330331.0 338216.0 24303.0 28492.0 193219.0 198592.0 368883.0 361659.0 113908.0 121896.0 164328.0 170436.0 179165.0 179130.0 147042.0 143905.0 31558.0 39479.0 42937.0 47742.0 354694.0 352754.0 197283.0 191644.0 122397.0 116929.0 165928.0 160405.0 321365.0 313198.0 222529.0 217525.0 304453.0 309225.0 146146.0 141141.0 178260.0 177255.0 367621.0 366492.0 327709.0 327918.0 283232.0 280939.0 79676.0 84393.0 110871.0 113615.0 139481.0 143640.0 53323.0 61284.0 164087.0 158560.0 199124.0 207115.0 154548.0 162327.0 276102.0 278932.0 81253.0 85237.0 53171.0 50408.0 169196.0 177079.0 199689.0 191799.0 322567.0 318405.0 105558.0 97661.0 42582.0 38419.0 233136.0 239063.0 49486.0 57409.0 259818.0 262017.0 159523.0 160879.0 179494.0 171228.0 303585.0 301157.0 62947.0 61056.0 44884.0 37008.0 117745.0 122537.0 140501.0 146566.0 168188.0 174322.0 54476.0 58687.0 182146.0 181224.0 253956.0 250677.0 15993.0 16421.0 8285.0 0.0 196077.0 203936.0 18187.0 23060.0 75633.0 81739.0 142438.0 134887.0 134533.0 140387.0 279252.0 281967.0 104629.0 107353.0 216769.0 223570.0 136473.0 129658.0 361288.0 353353.0 264627.0 261125.0 292678.0 291828.0 134079.0 136349.0 32399.0 33902.0 206204.0 198835.0 258887.0 252313.0 111468.0 111953.0 145112.0 150039.0 137228.0 135404.0 115532.0 122004.0 60282.0 198994.0 60282.0 60282.0 198994.0 198994.0
52157.0 58057.0 67066.0 60613.0 70413.0 68160.0 32716.0 28257.0 103696.0 102056.0 110373.0 118128.0 23531.0 27405.0 300475.0 307034.0 181242.0 185544.0 129947.0 126207.0 329211.0 321194.0 102234.0 98647.0 71940.0 76423.0 152954.0 148375.0 65784.0 62789.0 166896.0 159860.0 154491.0 148517.0 328029.0 328286.0 113730.0 106753.0 75176.0 82118.0 71699.0 68010.0 298855.0 290603.0 144187.0 135830.0 252834.0 260519.0 100550.0 107708.0 25560.0 21249.0 340102.0 336334.0 298308.0 301466.0 92305.0 88110.0 121229.0 114274.0 94591.0 97198.0 125155.0 130780.0 158947.0 154332.0 32456.0 39380.0 187699.0 193451.0 72511.0 72166.0 96087.0 102037.0 141754.0 133658.0 153796.0 151386.0 87951.0 86093.0 15831.0 14420.0 290859.0 284050.0 93613.0 100582.0 156964.0 158588.0 168106.0 167007.0 154854.0 147962.0 229844.0 226452.0 41764.0 45604.0 43080.0 44241.0 109123.0 105813.0 135706.0 135540.0 173630.0 175130.0 78639.0 73552.0 71050.0 71010.0 44722.0 36865.0 176502.0 182435.0 95504.0 87621.0 199364.0 191670.0 182879.0 179690.0 192449.0 196077.0 0.0 8262.0 178152.0 175468.0 132698.0 124395.0 113255.0 117387.0 85814.0 77901.0 255761.0 254189.0 103910.0 97358.0 172185.0 172075.0 60214.0 66464.0 319626.0 311534.0 202335.0 194642.0 96950.0 96889.0 70221.0 73408.0 165298.0 162230.0 21210.0 15586.0 67926.0 60302.0 90315.0 94191.0 104206.0 109554.0 63304.0 62234.0 97782.0 89254.0 182844.0 191700.0 182844.0 182844.0 191700.0 191700.0
54881.0 61489.0 59734.0 53630.0 62447.0 59992.0 24553.0 20038.0 105088.0 104096.0 113735.0 121704.0 31411.0 34453.0 299670.0 306101.0 188808.0 192985.0 130545.0 126365.0 327615.0 319597.0 110421.0 106736.0 74873.0 78587.0 154796.0 150148.0 71036.0 68724.0 174906.0 167913.0 162492.0 156438.0 327300.0 327758.0 113724.0 107060.0 82601.0 89356.0 74466.0 71544.0 298718.0 290449.0 143206.0 134931.0 251181.0 258938.0 104345.0 111721.0 33244.0 29455.0 339254.0 335314.0 297547.0 300890.0 84076.0 79848.0 129412.0 122410.0 101294.0 103510.0 129063.0 134425.0 167168.0 162579.0 40628.0 47635.0 189294.0 194806.0 76475.0 75308.0 88504.0 94635.0 150008.0 141913.0 161988.0 159515.0 90067.0 87498.0 18776.0 20534.0 289997.0 283073.0 100913.0 108027.0 164555.0 166324.0 167221.0 165732.0 162236.0 155247.0 229674.0 226009.0 49967.0 53570.0 49438.0 51437.0 100910.0 97687.0 143795.0 143516.0 181845.0 183297.0 86664.0 81401.0 76638.0 75925.0 52174.0 44151.0 184756.0 190696.0 96469.0 88638.0 198346.0 190568.0 190611.0 187536.0 200399.0 203936.0 8262.0 0.0 186052.0 183456.0 140944.0 132639.0 117099.0 121648.0 91035.0 83021.0 255716.0 253876.0 112168.0 105619.0 172365.0 171868.0 67784.0 74279.0 317968.0 309918.0 200841.0 193062.0 89483.0 89758.0 78462.0 81548.0 173009.0 170065.0 16551.0 14039.0 59746.0 52090.0 97308.0 100830.0 108006.0 112937.0 70138.0 69576.0 103915.0 95362.0 189830.0 193544.0 189830.0 189830.0 193544.0 193544.0
187695.0 183978.0 244699.0 237646.0 248499.0 245662.0 208244.0 205834.0 164192.0 155789.0 137556.0 133932.0 154655.0 152378.0 322367.0 330251.0 21521.0 29168.0 181619.0 186555.0 360918.0 353694.0 96383.0 104437.0 148853.0 155308.0 169980.0 169517.0 130652.0 127119.0 14177.0 21991.0 24808.0 29663.0 346729.0 344789.0 184372.0 178364.0 104915.0 99740.0 150461.0 144609.0 313401.0 305233.0 211028.0 205594.0 296481.0 301228.0 132540.0 128113.0 160114.0 159188.0 359656.0 358528.0 319745.0 319954.0 265860.0 263419.0 61632.0 66214.0 94745.0 98127.0 128212.0 132974.0 38813.0 46609.0 146076.0 140464.0 191159.0 199150.0 138909.0 146835.0 259380.0 262408.0 65974.0 69071.0 37128.0 33135.0 154821.0 162578.0 181573.0 173695.0 314602.0 310440.0 88534.0 80545.0 28321.0 22332.0 223032.0 228589.0 37057.0 44365.0 251853.0 254053.0 141359.0 142692.0 161333.0 153057.0 285945.0 283407.0 44834.0 42906.0 34471.0 26360.0 99703.0 104659.0 124195.0 130549.0 150012.0 156135.0 45599.0 51655.0 168235.0 166803.0 245337.0 241596.0 12504.0 4241.0 14862.0 18187.0 178152.0 186052.0 0.0 7456.0 58504.0 64153.0 129970.0 122739.0 119218.0 124650.0 271287.0 274003.0 86815.0 89312.0 207777.0 214246.0 118764.0 111801.0 353323.0 345388.0 255644.0 251710.0 274649.0 273738.0 115911.0 118267.0 17902.0 16582.0 188658.0 181219.0 241443.0 234782.0 94786.0 95891.0 131819.0 137290.0 119999.0 117852.0 100286.0 106255.0 57108.0 191029.0 57108.0 57108.0 191029.0 191029.0
183164.0 179218.0 241701.0 234539.0 245878.0 243256.0 206012.0 203340.0 165996.0 157579.0 139802.0 136580.0 152047.0 150119.0 326905.0 334790.0 28723.0 36493.0 184317.0 189016.0 365456.0 358232.0 90860.0 98839.0 149178.0 155891.0 173811.0 173169.0 130207.0 126265.0 8764.0 16558.0 20997.0 27424.0 351267.0 349327.0 186354.0 180142.0 103224.0 98497.0 150787.0 144675.0 317939.0 309772.0 213721.0 208075.0 300920.0 305795.0 134249.0 130191.0 156710.0 156126.0 364195.0 363066.0 324283.0 324492.0 264074.0 261419.0 57063.0 62310.0 94721.0 98652.0 131236.0 136267.0 31594.0 39463.0 143209.0 137316.0 195697.0 203689.0 139127.0 147151.0 258383.0 261615.0 59056.0 62522.0 30433.0 27357.0 155953.0 163602.0 178295.0 170477.0 319140.0 314978.0 87567.0 79515.0 31237.0 24133.0 226370.0 231752.0 40667.0 47369.0 256391.0 258562.0 137857.0 138824.0 157104.0 148918.0 283741.0 281013.0 40611.0 39944.0 27135.0 19108.0 96841.0 102227.0 123854.0 130460.0 145926.0 152272.0 38363.0 44657.0 169642.0 167873.0 249274.0 245351.0 19957.0 11696.0 17281.0 23060.0 175468.0 183456.0 7456.0 0.0 52582.0 58717.0 132360.0 125335.0 119775.0 124832.0 275825.0 278541.0 81693.0 84671.0 211614.0 217936.0 116638.0 109395.0 357861.0 349926.0 259422.0 255313.0 271624.0 270513.0 111778.0 113718.0 21604.0 17363.0 186683.0 179138.0 239571.0 232786.0 94188.0 95921.0 133725.0 139494.0 118622.0 116002.0 100996.0 106509.0 63495.0 195567.0 63495.0 63495.0 195567.0 195567.0
132656.0 128099.0 196455.0 188882.0 202290.0 200722.0 164901.0 160948.0 151868.0 143859.0 130703.0 130725.0 110358.0 110439.0 334199.0 342055.0 73610.0 81202.0 175789.0 178507.0 372095.0 364645.0 38573.0 46404.0 125784.0 133815.0 174592.0 172557.0 103083.0 96768.0 44359.0 36518.0 35402.0 36164.0 358510.0 356570.0 172460.0 165071.0 70662.0 69683.0 127297.0 119843.0 325182.0 317014.0 203975.0 196948.0 303020.0 308924.0 121732.0 120722.0 110873.0 111953.0 371356.0 370377.0 331585.0 331771.0 224395.0 220675.0 15243.0 23447.0 75091.0 82177.0 128672.0 135304.0 26864.0 21636.0 100463.0 93329.0 202911.0 210872.0 115737.0 123837.0 223060.0 227406.0 17342.0 13869.0 23386.0 25370.0 137667.0 144100.0 132606.0 125210.0 326272.0 321747.0 62750.0 56243.0 56137.0 51019.0 221145.0 225001.0 62932.0 63128.0 262508.0 263402.0 92070.0 91320.0 107819.0 100089.0 241768.0 238151.0 19971.0 27970.0 41511.0 44676.0 57367.0 64886.0 98023.0 105716.0 97359.0 104496.0 43887.0 50258.0 152476.0 148443.0 248213.0 242902.0 68903.0 61955.0 69149.0 75633.0 132698.0 140944.0 58504.0 52582.0 0.0 8322.0 124973.0 120149.0 100560.0 102476.0 283145.0 285618.0 30752.0 35792.0 210852.0 215768.0 79788.0 71450.0 364054.0 355962.0 256822.0 251394.0 226022.0 224090.0 63920.0 64001.0 56489.0 49012.0 147366.0 139446.0 199767.0 192438.0 70622.0 76449.0 122672.0 130113.0 86395.0 80965.0 85432.0 86879.0 96105.0 202888.0 96105.0 96105.0 202888.0 202888.0
125259.0 120919.0 188297.0 180751.0 194042.0 192436.0 156582.0 152648.0 145429.0 137521.0 125041.0 125481.0 102036.0 102136.0 330135.0 337953.0 77671.0 84998.0 169855.0 172328.0 367674.0 360169.0 32230.0 40303.0 118530.0 126642.0 169837.0 167632.0 95627.0 89136.0 50205.0 42278.0 40038.0 39195.0 354622.0 352721.0 165933.0 158453.0 62997.0 62458.0 120025.0 112487.0 321333.0 313166.0 197771.0 190617.0 297943.0 303966.0 115738.0 115126.0 102689.0 103679.0 367573.0 366435.0 327534.0 327887.0 216073.0 212359.0 9712.0 16888.0 68963.0 76311.0 123894.0 130664.0 34900.0 29951.0 92146.0 85032.0 198919.0 206850.0 108555.0 116604.0 214805.0 219185.0 22878.0 16755.0 30795.0 31382.0 130863.0 137128.0 124435.0 117004.0 322081.0 317411.0 56240.0 50226.0 58344.0 54123.0 215400.0 219063.0 64129.0 63278.0 258109.0 258782.0 83856.0 83260.0 100077.0 92243.0 233477.0 229886.0 21723.0 28631.0 49604.0 52346.0 49227.0 56843.0 90743.0 98477.0 89463.0 96495.0 52209.0 58542.0 145701.0 141454.0 242883.0 237417.0 73830.0 67344.0 75643.0 81739.0 124395.0 132639.0 64153.0 58717.0 8322.0 0.0 119596.0 115128.0 94003.0 95528.0 279170.0 281435.0 23237.0 27689.0 205697.0 210416.0 71678.0 63316.0 359523.0 351403.0 251277.0 245707.0 217903.0 216042.0 55827.0 56248.0 60108.0 53097.0 139052.0 131131.0 191445.0 184116.0 64061.0 70307.0 116850.0 124421.0 78599.0 72978.0 79617.0 80487.0 97414.0 198964.0 97414.0 97414.0 198964.0 198964.0
156444.0 158750.0 170996.0 167001.0 167670.0 161561.0 127327.0 130022.0 36012.0 28216.0 8000.0 6380.0 97648.0 90093.0 213450.0 221053.0 119100.0 118517.0 52260.0 56657.0 249474.0 241815.0 127164.0 131405.0 43259.0 42980.0 51785.0 48854.0 50194.0 56590.0 127140.0 124583.0 117756.0 109592.0 239150.0 237453.0 54942.0 49858.0 69533.0 64304.0 44110.0 45594.0 206073.0 197906.0 81548.0 75717.0 178444.0 184605.0 12758.0 6057.0 115593.0 108563.0 252006.0 250105.0 210925.0 212074.0 169788.0 170805.0 110178.0 102791.0 51634.0 43768.0 11984.0 17751.0 138289.0 139553.0 98115.0 100683.0 84777.0 92178.0 40743.0 42364.0 152935.0 153192.0 142100.0 136309.0 131189.0 123932.0 34674.0 42167.0 126786.0 120380.0 204887.0 199668.0 64998.0 69620.0 101654.0 108256.0 96495.0 100906.0 93285.0 85658.0 140467.0 140314.0 107622.0 115126.0 132531.0 125862.0 194437.0 195101.0 111038.0 104291.0 148489.0 144436.0 86517.0 80276.0 47714.0 44048.0 123118.0 122191.0 157750.0 165612.0 42895.0 45143.0 123291.0 117932.0 126453.0 128671.0 143778.0 142438.0 113255.0 117099.0 129970.0 132360.0 124973.0 119596.0 0.0 8047.0 33509.0 39000.0 163346.0 164550.0 118129.0 111379.0 86183.0 90828.0 76469.0 80159.0 241011.0 232829.0 131870.0 126585.0 197715.0 200462.0 109203.0 117345.0 112091.0 115006.0 107881.0 104429.0 149268.0 145448.0 58035.0 50398.0 9100.0 8047.0 64470.0 71895.0 40415.0 42399.0 105814.0 86491.0 105814.0 105814.0 86491.0 86491.0
158925.0 160848.0 176608.0 172374.0 173719.0 167774.0 132974.0 135327.0 44036.0 36262.0 16024.0 11266.0 100629.0 93262.0 216275.0 223963.0 111416.0 110686.0 58988.0 63833.0 252942.0 245355.0 124540.0 129191.0 49083.0 49718.0 54881.0 52510.0 52838.0 58489.0 120347.0 118069.0 111281.0 103155.0 241611.0 239754.0 62728.0 57822.0 68435.0 62527.0 50088.0 50605.0 208366.0 200199.0 88388.0 82859.0 182879.0 188844.0 18511.0 10574.0 118118.0 111372.0 254510.0 252846.0 213720.0 214605.0 176781.0 177602.0 105586.0 98459.0 48541.0 40544.0 9706.0 16891.0 132369.0 133957.0 100302.0 102257.0 86323.0 93961.0 45225.0 47969.0 160425.0 160819.0 137390.0 131880.0 125283.0 117880.0 42148.0 49818.0 130421.0 123748.0 207892.0 202895.0 61819.0 65687.0 94454.0 101205.0 102302.0 107065.0 85906.0 78379.0 143579.0 143854.0 108974.0 116264.0 134310.0 127329.0 201279.0 201765.0 105472.0 98479.0 142167.0 137877.0 84833.0 79113.0 49435.0 46939.0 124477.0 124071.0 151650.0 159520.0 50909.0 52941.0 128188.0 123137.0 118916.0 121331.0 136403.0 134887.0 117387.0 121648.0 122739.0 125335.0 120149.0 115128.0 8047.0 0.0 34374.0 41004.0 165796.0 167382.0 115072.0 108596.0 90712.0 95814.0 76820.0 79715.0 244634.0 236483.0 137159.0 132151.0 203718.0 206257.0 108437.0 116512.0 104840.0 108009.0 113204.0 109347.0 155909.0 151877.0 55370.0 47405.0 15218.0 16094.0 65230.0 72248.0 37256.0 40787.0 97865.0 87390.0 97865.0 97865.0 87390.0 87390.0
124828.0 126561.0 148676.0 143635.0 147605.0 142504.0 105787.0 106815.0 51451.0 43692.0 35361.0 39783.0 67206.0 60182.0 245393.0 252872.0 113718.0 115407.0 76978.0 78696.0 280407.0 272638.0 96387.0 99846.0 29823.0 36119.0 84300.0 80869.0 20035.0 24384.0 112971.0 108610.0 101796.0 93760.0 271483.0 270041.0 71933.0 64511.0 37090.0 33283.0 31416.0 26609.0 238665.0 230498.0 104023.0 96700.0 207694.0 214258.0 24149.0 27504.0 84131.0 77674.0 284277.0 282099.0 242910.0 244366.0 155940.0 155431.0 85322.0 77244.0 26131.0 21125.0 43686.0 50558.0 118442.0 118071.0 66134.0 67886.0 118066.0 125334.0 20395.0 27840.0 144157.0 146104.0 116880.0 110203.0 111469.0 105231.0 37427.0 44487.0 97740.0 90690.0 236611.0 231089.0 37814.0 44652.0 91954.0 96909.0 122852.0 125871.0 85830.0 77854.0 172237.0 171470.0 74610.0 81948.0 99953.0 92958.0 179092.0 178480.0 90319.0 85119.0 130612.0 128132.0 54620.0 47723.0 15340.0 15440.0 90116.0 89740.0 138410.0 146077.0 52086.0 48845.0 151859.0 145749.0 118925.0 118992.0 133943.0 134533.0 85814.0 91035.0 119218.0 119775.0 100560.0 94003.0 33509.0 34374.0 0.0 8078.0 195810.0 196591.0 88416.0 81149.0 116101.0 119655.0 42959.0 46904.0 271692.0 263472.0 159270.0 153198.0 177111.0 178780.0 76046.0 84210.0 102270.0 102887.0 85210.0 80055.0 133133.0 127966.0 29955.0 24789.0 26648.0 34546.0 31028.0 38386.0 19002.0 13899.0 106667.0 119965.0 106667.0 106667.0 119965.0 119965.0
117924.0 119944.0 140599.0 135561.0 139577.0 134523.0 97736.0 98737.0 51208.0 44114.0 39454.0 45020.0 59789.0 52598.0 248476.0 255865.0 120110.0 122112.0 78062.0 78977.0 282830.0 275010.0 95181.0 98027.0 24423.0 31765.0 88265.0 84564.0 12156.0 17608.0 117740.0 112997.0 106255.0 98345.0 274826.0 273594.0 71088.0 63366.0 35441.0 33340.0 26028.0 20020.0 242285.0 234117.0 103961.0 96325.0 209396.0 216129.0 28009.0 32950.0 77114.0 70427.0 287561.0 285182.0 246025.0 247702.0 148326.0 147682.0 87260.0 79032.0 30176.0 26855.0 49935.0 56543.0 121704.0 120836.0 59338.0 61684.0 122581.0 129655.0 14296.0 22393.0 137154.0 139326.0 118330.0 111347.0 114830.0 108943.0 35448.0 41624.0 90072.0 83138.0 239560.0 233856.0 40118.0 47611.0 97835.0 102427.0 123807.0 126336.0 92160.0 84234.0 175327.0 174202.0 68636.0 76187.0 93577.0 86862.0 171316.0 170611.0 93622.0 88954.0 134331.0 132274.0 53062.0 45589.0 8753.0 7401.0 84125.0 83266.0 141673.0 149237.0 50294.0 45967.0 153455.0 147079.0 124940.0 124628.0 139452.0 140387.0 77901.0 83021.0 124650.0 124832.0 102476.0 95528.0 39000.0 41004.0 8078.0 0.0 199340.0 199809.0 87977.0 80471.0 118472.0 121545.0 38494.0 43606.0 273987.0 265756.0 160375.0 154043.0 169055.0 170705.0 72611.0 80760.0 108021.0 108189.0 77146.0 71978.0 125359.0 120098.0 32337.0 28938.0 31099.0 38598.0 26175.0 34033.0 25389.0 18403.0 113965.0 124850.0 113965.0 113965.0 124850.0 124850.0
306668.0 311049.0 290090.0 289963.0 280379.0 272427.0 252758.0 259124.0 154057.0 158191.0 160449.0 156985.0 249079.0 241308.0 51149.0 59099.0 254949.0 252298.0 126328.0 129562.0 90958.0 84264.0 290302.0 294733.0 189186.0 182305.0 111617.0 114942.0 207882.0 215605.0 273093.0 273009.0 266797.0 259317.0 75824.0 74256.0 142055.0 149045.0 232675.0 227650.0 188726.0 195255.0 43162.0 34974.0 114158.0 121920.0 49819.0 48298.0 171743.0 168958.0 267938.0 259959.0 88714.0 87266.0 48507.0 48819.0 262412.0 268088.0 269469.0 262998.0 214333.0 206338.0 156371.0 149294.0 290481.0 293672.0 253167.0 257923.0 80254.0 72322.0 194027.0 189907.0 234402.0 229091.0 300467.0 295820.0 283683.0 275729.0 171467.0 171032.0 271506.0 267507.0 43952.0 41243.0 227611.0 231112.0 245084.0 252776.0 90576.0 94548.0 235363.0 229629.0 26241.0 31698.0 265321.0 273265.0 287512.0 282415.0 286327.0 291243.0 266115.0 258291.0 297549.0 291734.0 249839.0 243398.0 207829.0 201843.0 280190.0 277192.0 308186.0 315914.0 160954.0 168782.0 62806.0 70579.0 264068.0 268718.0 282748.0 279252.0 255761.0 255716.0 271287.0 275825.0 283145.0 279170.0 163346.0 165796.0 195810.0 199340.0 0.0 8428.0 280847.0 274385.0 83673.0 83884.0 237819.0 242629.0 84356.0 76973.0 67330.0 74557.0 306955.0 312958.0 271776.0 279942.0 254221.0 259652.0 240665.0 241732.0 254388.0 255475.0 221084.0 213185.0 169174.0 161265.0 225479.0 233373.0 203042.0 205744.0 238728.0 81174.0 238728.0 238728.0 81174.0 81174.0
305411.0 309977.0 286789.0 286881.0 276810.0 268830.0 250137.0 256655.0 153428.0 157952.0 161273.0 158223.0 248258.0 240528.0 48906.0 56587.0 257664.0 255013.0 125432.0 128187.0 87037.0 79988.0 291691.0 295925.0 188701.0 181606.0 112771.0 115834.0 207987.0 215787.0 275808.0 275725.0 269513.0 262032.0 75065.0 74383.0 140489.0 147689.0 233587.0 228790.0 188173.0 194891.0 45141.0 36872.0 111444.0 119414.0 41402.0 40091.0 172458.0 170041.0 267077.0 259060.0 87755.0 85560.0 46375.0 47969.0 258025.0 263864.0 271751.0 265124.0 215848.0 207869.0 158088.0 151091.0 293131.0 296385.0 252662.0 257634.0 82861.0 74868.0 193933.0 189506.0 229827.0 224343.0 302956.0 298130.0 286361.0 278390.0 170967.0 170138.0 269978.0 266195.0 40655.0 36623.0 229174.0 232934.0 247799.0 255492.0 87564.0 90923.0 238079.0 232345.0 24631.0 28060.0 265054.0 273021.0 286823.0 281931.0 281700.0 286774.0 268802.0 260999.0 300265.0 294449.0 250884.0 244282.0 208203.0 202018.0 279779.0 276552.0 310902.0 318630.0 159937.0 167706.0 58446.0 66381.0 266783.0 271433.0 285464.0 281967.0 254189.0 253876.0 274003.0 278541.0 285618.0 281435.0 164550.0 167382.0 196591.0 199809.0 8428.0 0.0 282434.0 275845.0 82715.0 82120.0 238219.0 243267.0 79828.0 72147.0 61739.0 69260.0 303013.0 309147.0 272380.0 280540.0 256937.0 262367.0 238605.0 239941.0 250676.0 251998.0 222489.0 214673.0 170021.0 162072.0 225874.0 233815.0 204550.0 206921.0 241444.0 84457.0 241444.0 241444.0 84457.0 84457.0
102030.0 97696.0 166338.0 158673.0 172667.0 171476.0 136487.0 132020.0 139158.0 131821.0 122362.0 124375.0 82549.0 83791.0 331334.0 339003.0 98712.0 105632.0 165388.0 166829.0 367600.0 359930.0 11595.0 19362.0 108741.0 117139.0 169744.0 166975.0 85229.0 77819.0 73074.0 65163.0 62245.0 59989.0 356646.0 354750.0 159001.0 151199.0 52756.0 55139.0 110100.0 102249.0 323362.0 315194.0 191926.0 184298.0 295842.0 302259.0 111946.0 112939.0 81019.0 82817.0 369555.0 367917.0 328784.0 329662.0 196134.0 192009.0 25859.0 25081.0 66593.0 74566.0 124479.0 131578.0 57569.0 51695.0 72331.0 64694.0 201049.0 208813.0 99382.0 106968.0 196732.0 201564.0 37892.0 29781.0 53955.0 54467.0 123151.0 128484.0 102622.0 95439.0 322895.0 317770.0 53260.0 50151.0 77379.0 74462.0 211263.0 214143.0 81411.0 78762.0 258514.0 258441.0 62507.0 61030.0 77077.0 69406.0 212555.0 208647.0 42605.0 47523.0 72126.0 75404.0 35731.0 43794.0 81559.0 89269.0 66731.0 74027.0 73291.0 78777.0 137888.0 132661.0 240128.0 234125.0 95830.0 89793.0 98742.0 104629.0 103910.0 112168.0 86815.0 81693.0 30752.0 23237.0 118129.0 115072.0 88416.0 87977.0 280847.0 282434.0 0.0 7807.0 203838.0 207800.0 57022.0 48782.0 359104.0 350911.0 247682.0 241601.0 195748.0 193635.0 33936.0 33284.0 80908.0 74544.0 120032.0 112062.0 171617.0 164111.0 60113.0 67785.0 113732.0 121640.0 66499.0 59507.0 77889.0 76251.0 114021.0 201470.0 114021.0 114021.0 201470.0 201470.0
98492.0 94668.0 160664.0 153092.0 166607.0 165192.0 129807.0 125557.0 131675.0 124412.0 115392.0 117665.0 75586.0 76518.0 324750.0 332388.0 99711.0 106309.0 158075.0 159394.0 360779.0 353085.0 16065.0 22189.0 101010.0 109416.0 163094.0 160230.0 77494.0 70048.0 75943.0 68126.0 64522.0 61320.0 350204.0 348348.0 151430.0 143608.0 45147.0 47877.0 102360.0 94501.0 316959.0 308792.0 184432.0 176763.0 288740.0 295212.0 104840.0 106084.0 75100.0 76415.0 363099.0 361368.0 322211.0 323187.0 189428.0 185458.0 27681.0 24465.0 60055.0 68052.0 118086.0 125223.0 62581.0 57275.0 65457.0 58008.0 194766.0 202485.0 91703.0 99248.0 189505.0 194247.0 44915.0 36819.0 58332.0 57872.0 115552.0 120805.0 96821.0 89459.0 316247.0 311045.0 46834.0 44493.0 77429.0 75268.0 203945.0 206731.0 80565.0 77197.0 251837.0 251636.0 56347.0 55571.0 72700.0 64724.0 206264.0 202519.0 44525.0 48268.0 77273.0 79937.0 27974.0 36022.0 73917.0 81606.0 61882.0 68822.0 79258.0 85078.0 130263.0 124968.0 232968.0 226897.0 97592.0 92028.0 101889.0 107353.0 97358.0 105619.0 89312.0 84671.0 35792.0 27689.0 111379.0 108596.0 81149.0 80471.0 274385.0 275845.0 7807.0 0.0 196841.0 200687.0 49231.0 40979.0 352230.0 344029.0 240406.0 234267.0 190235.0 188353.0 28141.0 29056.0 81912.0 76061.0 112985.0 105019.0 164861.0 157415.0 53360.0 61200.0 106723.0 114656.0 58714.0 51701.0 71344.0 69266.0 112529.0 195359.0 112529.0 112529.0 195359.0 195359.0
222995.0 227406.0 210088.0 209201.0 201516.0 193757.0 170836.0 176810.0 70737.0 75568.0 81477.0 80218.0 165562.0 157821.0 130657.0 137837.0 192467.0 189826.0 42728.0 46009.0 164374.0 156574.0 212347.0 215947.0 106045.0 98892.0 37806.0 38742.0 125904.0 133804.0 207853.0 206645.0 200051.0 192120.0 157592.0 157097.0 58657.0 65432.0 153157.0 149092.0 105488.0 112301.0 126830.0 118613.0 36140.0 41956.0 92263.0 98465.0 92079.0 91022.0 184394.0 176390.0 170111.0 167264.0 128290.0 130593.0 188052.0 192661.0 196215.0 188932.0 137681.0 129897.0 82518.0 76377.0 222290.0 224324.0 169972.0 175045.0 35058.0 34068.0 111612.0 106897.0 161878.0 157971.0 228072.0 222431.0 215255.0 207626.0 88318.0 87450.0 187900.0 183837.0 121493.0 115534.0 151011.0 155804.0 180409.0 187823.0 22372.0 30444.0 170972.0 164385.0 58108.0 55972.0 182475.0 190453.0 204109.0 199242.0 213113.0 216952.0 195931.0 188700.0 231129.0 226107.0 170722.0 163701.0 126607.0 120073.0 197116.0 193838.0 241131.0 248987.0 77306.0 85119.0 37782.0 33908.0 201439.0 205581.0 219997.0 216769.0 172185.0 172365.0 207777.0 211614.0 210852.0 205697.0 86183.0 90712.0 116101.0 118472.0 83673.0 82715.0 203838.0 196841.0 0.0 8049.0 156547.0 162077.0 155600.0 147376.0 47890.0 44614.0 229574.0 234909.0 191004.0 199127.0 190186.0 194762.0 157629.0 158346.0 176440.0 176455.0 143797.0 136413.0 90120.0 82199.0 144239.0 152241.0 126545.0 127594.0 176257.0 42206.0 176257.0 176257.0 42206.0 42206.0
223325.0 227978.0 207627.0 207038.0 198652.0 190820.0 169198.0 175412.0 72439.0 77966.0 85629.0 85052.0 166532.0 158864.0 129175.0 136128.0 199278.0 196684.0 44219.0 46165.0 161549.0 153670.0 216038.0 219392.0 107720.0 100245.0 44405.0 44768.0 128375.0 136337.0 213987.0 212580.0 205937.0 197952.0 156439.0 156348.0 58370.0 65639.0 156573.0 152835.0 107053.0 114136.0 126851.0 118584.0 31902.0 38783.0 88054.0 94622.0 95857.0 95386.0 185283.0 177235.0 168781.0 165583.0 126889.0 129627.0 183986.0 188847.0 201006.0 193594.0 142008.0 134324.0 87993.0 82130.0 227878.0 229712.0 171379.0 176739.0 42748.0 41104.0 113882.0 108705.0 157355.0 153169.0 232922.0 227118.0 220820.0 213265.0 90093.0 88513.0 187859.0 184099.0 119799.0 113502.0 155278.0 160346.0 186705.0 194051.0 14598.0 22661.0 177344.0 170627.0 57807.0 54561.0 184179.0 192169.0 205207.0 200620.0 208869.0 212937.0 201255.0 194147.0 237004.0 232135.0 174199.0 167012.0 129471.0 122693.0 198595.0 195016.0 246876.0 254740.0 78183.0 85853.0 32468.0 27481.0 208149.0 212133.0 226645.0 223570.0 172075.0 171868.0 214246.0 217936.0 215768.0 210416.0 90828.0 95814.0 119655.0 121545.0 83884.0 82120.0 207800.0 200687.0 8049.0 0.0 159254.0 165075.0 152565.0 144331.0 41572.0 37555.0 226317.0 231845.0 193823.0 201908.0 196581.0 200987.0 156782.0 157902.0 173250.0 173600.0 147926.0 140716.0 94137.0 86309.0 147009.0 155029.0 130981.0 131579.0 183114.0 49871.0 183114.0 183114.0 49871.0 49871.0
86313.0 86686.0 127278.0 120711.0 130064.0 126961.0 89480.0 87280.0 87467.0 81305.0 77804.0 82729.0 36822.0 33652.0 286823.0 294169.0 121040.0 125348.0 115285.0 115258.0 320763.0 312905.0 61408.0 62545.0 53897.0 62300.0 126722.0 123054.0 31084.0 23081.0 108280.0 101697.0 95860.0 89332.0 313257.0 312071.0 105849.0 97865.0 15185.0 22761.0 55060.0 47184.0 280773.0 272605.0 139384.0 131340.0 246713.0 253616.0 66367.0 70455.0 47905.0 43938.0 325974.0 323520.0 284386.0 286135.0 147533.0 144781.0 66016.0 58104.0 37861.0 43069.0 86363.0 93361.0 104011.0 100826.0 30266.0 28282.0 160864.0 168028.0 45812.0 52373.0 143775.0 147849.0 92752.0 84895.0 98033.0 94329.0 70206.0 74212.0 66764.0 58808.0 277849.0 272051.0 33796.0 40424.0 96776.0 98619.0 160515.0 162355.0 94713.0 87966.0 213702.0 212414.0 33672.0 40166.0 59633.0 51850.0 167185.0 164684.0 78243.0 76826.0 118278.0 118523.0 22465.0 15036.0 30016.0 36566.0 48763.0 50121.0 123054.0 129856.0 84272.0 78110.0 190782.0 184132.0 122891.0 120053.0 133309.0 136473.0 60214.0 67784.0 118764.0 116638.0 79788.0 71678.0 76469.0 76820.0 42959.0 38494.0 237819.0 238219.0 57022.0 49231.0 156547.0 159254.0 0.0 8408.0 311819.0 303584.0 197100.0 190446.0 157159.0 157015.0 34617.0 42661.0 105269.0 102572.0 70060.0 62503.0 122977.0 116149.0 31981.0 37933.0 69263.0 76958.0 12345.0 4579.0 44964.0 37756.0 123494.0 162894.0 123494.0 123494.0 162894.0 162894.0
88007.0 87602.0 133364.0 126584.0 136715.0 133892.0 96628.0 94033.0 93833.0 87310.0 82222.0 86506.0 42934.0 40755.0 291993.0 299411.0 115052.0 119695.0 121348.0 121696.0 326430.0 318604.0 53643.0 55300.0 61095.0 69533.0 131192.0 127701.0 37806.0 29943.0 100942.0 94191.0 88511.0 82229.0 318234.0 316877.0 112690.0 104736.0 12531.0 20384.0 62337.0 54432.0 285515.0 277347.0 146131.0 138182.0 252798.0 259602.0 70887.0 74248.0 51562.0 48706.0 331000.0 328702.0 289531.0 291110.0 155114.0 152164.0 57825.0 50010.0 36756.0 43113.0 89383.0 96498.0 95887.0 92564.0 35072.0 31263.0 164901.0 172214.0 52486.0 59471.0 151911.0 156070.0 84344.0 76492.0 90004.0 86520.0 76850.0 81295.0 71617.0 63613.0 283116.0 277447.0 29859.0 35411.0 90753.0 92142.0 166853.0 168949.0 89330.0 82921.0 218831.0 217792.0 35192.0 40485.0 60697.0 52477.0 174353.0 171646.0 70488.0 69476.0 110230.0 110669.0 14089.0 7169.0 35644.0 42796.0 49248.0 51928.0 114820.0 121571.0 91184.0 85297.0 196845.0 190332.0 116432.0 113257.0 126220.0 129658.0 66464.0 74279.0 111801.0 109395.0 71450.0 63316.0 80159.0 79715.0 46904.0 43606.0 242629.0 243267.0 48782.0 40979.0 162077.0 165075.0 8408.0 0.0 317570.0 309338.0 203455.0 196926.0 163306.0 162863.0 29152.0 37319.0 98873.0 95787.0 77587.0 69901.0 130510.0 123563.0 30008.0 37127.0 73539.0 81396.0 18555.0 10884.0 45498.0 39350.0 119091.0 166617.0 119091.0 119091.0 166617.0 166617.0
371732.0 377131.0 341524.0 343091.0 329872.0 321873.0 309968.0 317245.0 224784.0 230529.0 236861.0 234821.0 317217.0 309759.0 37325.0 30334.0 336985.0 334334.0 196658.0 197576.0 9922.0 2881.0 367838.0 371536.0 259862.0 252097.0 189764.0 192242.0 280926.0 288895.0 355129.0 354969.0 348813.0 341353.0 37772.0 45511.0 208657.0 216470.0 308756.0 304599.0 259091.0 266390.0 60542.0 62504.0 176031.0 184465.0 66796.0 59138.0 247633.0 246168.0 335638.0 327549.0 38726.0 30736.0 39744.0 44580.0 305284.0 312277.0 349891.0 342996.0 292640.0 284740.0 235661.0 228859.0 372490.0 375535.0 322868.0 328635.0 162168.0 154187.0 266389.0 260956.0 276458.0 269716.0 381390.0 376268.0 365664.0 357732.0 242397.0 240126.0 335401.0 332718.0 41035.0 43250.0 306006.0 310306.0 327120.0 334812.0 152736.0 152836.0 317399.0 311665.0 101650.0 100780.0 336065.0 344049.0 355918.0 351927.0 326258.0 332561.0 347715.0 340018.0 379468.0 373770.0 326312.0 319298.0 282003.0 275258.0 350091.0 345957.0 390186.0 397890.0 229697.0 237039.0 121574.0 128799.0 346104.0 350754.0 364784.0 361288.0 319626.0 317968.0 353323.0 357861.0 364054.0 359523.0 241011.0 244634.0 271692.0 273987.0 84356.0 79828.0 359104.0 352230.0 155600.0 152565.0 311819.0 317570.0 0.0 8235.0 117335.0 124984.0 352728.0 359748.0 346379.0 354469.0 336257.0 341688.0 301820.0 304526.0 303349.0 306293.0 298991.0 291409.0 245564.0 237610.0 299566.0 307585.0 281392.0 282969.0 320764.0 164164.0 320764.0 320764.0 164164.0 164164.0
363630.0 369006.0 333880.0 335377.0 322301.0 314296.0 302072.0 309322.0 216553.0 222294.0 228655.0 226645.0 309034.0 301569.0 32114.0 26140.0 329050.0 326399.0 188425.0 189355.0 17704.0 9697.0 359630.0 363317.0 251636.0 243877.0 181620.0 184074.0 272691.0 280661.0 347194.0 347070.0 340894.0 333412.0 38521.0 45743.0 200455.0 208263.0 300534.0 296389.0 250867.0 258162.0 56123.0 57170.0 167868.0 176301.0 58739.0 51018.0 239417.0 237974.0 327468.0 319378.0 42065.0 34444.0 34295.0 40002.0 297994.0 304932.0 341776.0 334862.0 284460.0 276564.0 227529.0 220741.0 364525.0 367530.0 314663.0 320419.0 154244.0 146271.0 258155.0 252728.0 269158.0 262473.0 373296.0 368150.0 357688.0 349765.0 234167.0 231910.0 327316.0 324599.0 34353.0 35737.0 297825.0 302149.0 319185.0 326877.0 144539.0 144693.0 309464.0 303730.0 93637.0 92635.0 327850.0 335833.0 347740.0 343730.0 319152.0 325391.0 339678.0 331996.0 371580.0 365835.0 318092.0 311072.0 273770.0 267023.0 341888.0 337770.0 382275.0 389988.0 221480.0 228830.0 113360.0 120605.0 338169.0 342819.0 356850.0 353353.0 311534.0 309918.0 345388.0 349926.0 355962.0 351403.0 232829.0 236483.0 263472.0 265756.0 76973.0 72147.0 350911.0 344029.0 147376.0 144331.0 303584.0 309338.0 8235.0 0.0 109217.0 116895.0 345356.0 352334.0 338145.0 346235.0 328322.0 333753.0 293792.0 296454.0 295771.0 298639.0 290800.0 283227.0 237356.0 229402.0 291332.0 299351.0 273215.0 274767.0 312829.0 156343.0 312829.0 312829.0 156343.0 156343.0
254417.0 259796.0 228234.0 228973.0 217565.0 209541.0 194015.0 201040.0 109651.0 116271.0 126243.0 126257.0 200130.0 192757.0 100656.0 106373.0 240324.0 237672.0 82356.0 81848.0 126882.0 118866.0 255468.0 258383.0 143987.0 135949.0 85665.0 86298.0 166017.0 174022.0 255539.0 254152.0 247507.0 239517.0 128362.0 130024.0 92064.0 100006.0 195750.0 192553.0 143087.0 150639.0 105318.0 97317.0 58889.0 67311.0 50621.0 58200.0 135961.0 136155.0 218440.0 210353.0 139646.0 135100.0 98826.0 103361.0 197100.0 203205.0 241951.0 234413.0 182552.0 175007.0 129510.0 123700.0 269377.0 271114.0 206103.0 212147.0 74070.0 68620.0 151300.0 145243.0 168664.0 162968.0 273898.0 267927.0 262311.0 254784.0 126951.0 123876.0 218127.0 215384.0 90801.0 83370.0 195711.0 201091.0 228201.0 235575.0 36602.0 35570.0 218801.0 212144.0 44674.0 36841.0 219548.0 227504.0 238776.0 235002.0 220411.0 225686.0 242630.0 235593.0 278572.0 273705.0 213401.0 205956.0 167856.0 160688.0 233266.0 228897.0 288422.0 296288.0 113480.0 120531.0 12001.0 14091.0 249322.0 253466.0 267886.0 264627.0 202335.0 200841.0 255644.0 259422.0 256822.0 251277.0 131870.0 137159.0 159270.0 160375.0 67330.0 61739.0 247682.0 240406.0 47890.0 41572.0 197100.0 203455.0 117335.0 109217.0 0.0 8013.0 242830.0 249233.0 231695.0 239661.0 238027.0 242512.0 184819.0 187303.0 191164.0 193099.0 188207.0 181238.0 134544.0 126875.0 185071.0 193067.0 171684.0 171733.0 224102.0 80125.0 224102.0 224102.0 80125.0 80125.0
246750.0 252187.0 220221.0 220962.0 209562.0 201539.0 186060.0 193106.0 103095.0 109935.0 120699.0 121125.0 192757.0 185429.0 108669.0 114373.0 236833.0 234236.0 76222.0 75230.0 134580.0 126561.0 249209.0 251976.0 137112.0 129001.0 81959.0 82194.0 159367.0 167366.0 251221.0 249629.0 242938.0 234902.0 136374.0 138030.0 85046.0 93021.0 189466.0 186463.0 136174.0 143789.0 113139.0 105102.0 51645.0 60027.0 58200.0 65887.0 130141.0 130673.0 210996.0 202913.0 147643.0 143065.0 106838.0 111353.0 189233.0 195299.0 236449.0 228827.0 176853.0 169397.0 124802.0 119224.0 264506.0 266059.0 198868.0 205006.0 73664.0 68904.0 144634.0 138414.0 160843.0 155209.0 268399.0 262311.0 257425.0 249973.0 120244.0 116915.0 210421.0 207761.0 98814.0 91377.0 189936.0 195486.0 224077.0 231372.0 30363.0 28300.0 214766.0 207969.0 51001.0 43507.0 212392.0 220336.0 231361.0 227692.0 212631.0 217856.0 237552.0 230629.0 273972.0 269265.0 207103.0 199585.0 161385.0 154132.0 225995.0 221528.0 283685.0 291555.0 106556.0 113480.0 14422.0 11601.0 245696.0 249634.0 264177.0 261125.0 194642.0 193062.0 251710.0 255313.0 251394.0 245707.0 126585.0 132151.0 153198.0 154043.0 74557.0 69260.0 241601.0 234267.0 44614.0 37555.0 190446.0 196926.0 124984.0 116895.0 8013.0 0.0 234878.0 241263.0 225007.0 232937.0 234010.0 238301.0 177001.0 179564.0 183168.0 185088.0 182364.0 175528.0 128867.0 121302.0 178487.0 186464.0 166091.0 165857.0 220667.0 80081.0 220667.0 220667.0 80081.0 80081.0
102427.0 110016.0 29957.0 37176.0 30066.0 36784.0 71331.0 70908.0 175296.0 177596.0 192526.0 201025.0 120434.0 123930.0 342918.0 347994.0 278191.0 282454.0 193841.0 187310.0 362649.0 354886.0 191327.0 185767.0 154640.0 155093.0 223793.0 219009.0 157750.0 156848.0 262959.0 255693.0 250630.0 244985.0 370377.0 372589.0 175075.0 171109.0 172065.0 178832.0 153677.0 153590.0 347738.0 339589.0 194461.0 187719.0 288722.0 296775.0 185326.0 193211.0 115341.0 115500.0 380929.0 375532.0 341256.0 346107.0 47928.0 40510.0 216053.0 209685.0 190323.0 191902.0 209484.0 213531.0 252803.0 247384.0 128593.0 134313.0 255101.0 258809.0 159522.0 155765.0 76466.0 83598.0 232425.0 224581.0 248256.0 246648.0 165186.0 159694.0 93584.0 101253.0 333070.0 325374.0 190395.0 197488.0 253912.0 255443.0 216894.0 212419.0 251718.0 244723.0 281018.0 275346.0 134271.0 134741.0 120296.0 126982.0 34815.0 26743.0 231373.0 231833.0 267505.0 269833.0 174946.0 170335.0 163934.0 161671.0 129351.0 121770.0 269001.0 274172.0 165425.0 158837.0 244569.0 236634.0 279729.0 276337.0 288749.0 292678.0 96950.0 89483.0 274649.0 271624.0 226022.0 217903.0 197715.0 203718.0 177111.0 169055.0 306955.0 303013.0 195748.0 190235.0 229574.0 226317.0 157159.0 163306.0 352728.0 345356.0 242830.0 234878.0 0.0 8111.0 162102.0 162771.0 262179.0 258918.0 91924.0 97651.0 53141.0 54019.0 186654.0 189773.0 188840.0 191858.0 159419.0 159056.0 191952.0 183435.0 279075.0 260732.0 279075.0 279075.0 260732.0 260732.0
98245.0 105619.0 30184.0 36304.0 33796.0 41251.0 73343.0 72035.0 179171.0 181141.0 195512.0 203976.0 120196.0 124151.0 349486.0 354645.0 277901.0 282358.0 198490.0 192115.0 369669.0 361884.0 188784.0 182986.0 157255.0 158117.0 228065.0 223274.0 159197.0 157892.0 261813.0 254451.0 249539.0 244091.0 376995.0 379109.0 179754.0 175526.0 172045.0 178998.0 156356.0 155875.0 353965.0 345794.0 200049.0 193154.0 295495.0 303550.0 187962.0 195804.0 113867.0 114591.0 387638.0 382312.0 347795.0 352566.0 55494.0 47852.0 214544.0 208380.0 190998.0 192905.0 212307.0 216563.0 250927.0 245326.0 127925.0 133274.0 259800.0 263687.0 161691.0 158295.0 83788.0 91043.0 229938.0 222170.0 246555.0 245202.0 168457.0 163235.0 92219.0 100052.0 339631.0 331965.0 190501.0 197428.0 253603.0 254889.0 222713.0 218412.0 251715.0 244851.0 286952.0 281399.0 132786.0 132782.0 117481.0 124486.0 42858.0 34774.0 230110.0 230855.0 265601.0 268160.0 174109.0 169815.0 165252.0 163354.0 126990.0 119617.0 266764.0 271762.0 169342.0 162571.0 250725.0 242771.0 279150.0 275540.0 287697.0 291828.0 96889.0 89758.0 273738.0 270513.0 224090.0 216042.0 200462.0 206257.0 178780.0 170705.0 312958.0 309147.0 193635.0 188353.0 234909.0 231845.0 157015.0 162863.0 359748.0 352334.0 249233.0 241263.0 8111.0 0.0 160219.0 160491.0 261661.0 258174.0 93633.0 98877.0 58642.0 58633.0 187061.0 190501.0 191515.0 194823.0 159893.0 159122.0 193095.0 184552.0 279587.0 265317.0 279587.0 279587.0 265317.0 265317.0
72234.0 69428.0 132565.0 124968.0 138735.0 137562.0 102900.0 98211.0 122078.0 115898.0 111374.0 115565.0 49815.0 52325.0 321078.0 328474.0 124204.0 130183.0 149895.0 149848.0 355295.0 347448.0 32461.0 30605.0 88155.0 96480.0 160341.0 156852.0 65685.0 57679.0 103015.0 95343.0 91154.0 86939.0 347363.0 346025.0 140268.0 132272.0 40039.0 46666.0 89231.0 81434.0 314666.0 306498.0 173835.0 165732.0 281330.0 288225.0 100037.0 103328.0 47101.0 49028.0 360121.0 357786.0 318623.0 320239.0 162524.0 158238.0 54856.0 49713.0 62794.0 70108.0 118136.0 125291.0 90722.0 85326.0 39479.0 31479.0 193976.0 201322.0 80395.0 86726.0 164309.0 169489.0 71604.0 63533.0 86385.0 85491.0 104764.0 108496.0 68760.0 61512.0 312171.0 306451.0 52222.0 54308.0 100725.0 99853.0 195117.0 196878.0 102051.0 97214.0 247922.0 246799.0 28607.0 27444.0 45435.0 37153.0 178638.0 174711.0 71199.0 73531.0 105413.0 107998.0 25702.0 29516.0 64400.0 71167.0 34148.0 40765.0 107151.0 112713.0 118672.0 112277.0 225396.0 218748.0 123230.0 118312.0 129057.0 134079.0 70221.0 78462.0 115911.0 111778.0 63920.0 55827.0 109203.0 108437.0 76046.0 72611.0 271776.0 272380.0 33936.0 28141.0 191004.0 193823.0 34617.0 29152.0 346379.0 338145.0 231695.0 225007.0 162102.0 160219.0 0.0 8167.0 106673.0 101640.0 87257.0 79316.0 138094.0 130514.0 55523.0 63496.0 102687.0 110548.0 46814.0 38794.0 72889.0 67722.0 134550.0 195588.0 134550.0 134550.0 195588.0 195588.0
69452.0 65831.0 133554.0 125797.0 140452.0 139734.0 106099.0 100936.0 130076.0 123965.0 119540.0 123709.0 54506.0 57879.0 329233.0 336624.0 127786.0 134054.0 157943.0 157815.0 363398.0 355546.0 29047.0 25382.0 95975.0 104262.0 168507.0 165019.0 73686.0 65683.0 104983.0 97178.0 93460.0 89862.0 355526.0 354192.0 148120.0 140122.0 48084.0 54538.0 97020.0 89260.0 322833.0 314665.0 181696.0 173563.0 289358.0 296274.0 108204.0 111478.0 49054.0 52189.0 368283.0 365939.0 326778.0 328402.0 165527.0 160912.0 56682.0 52549.0 70506.0 77931.0 126214.0 133376.0 90845.0 84929.0 44272.0 36102.0 202120.0 209475.0 88372.0 94582.0 168583.0 173997.0 69756.0 61842.0 87043.0 86903.0 112712.0 116305.0 70211.0 63428.0 320318.0 314588.0 59521.0 61030.0 104752.0 103332.0 203095.0 204780.0 106722.0 102304.0 256078.0 254937.0 31768.0 28523.0 43832.0 36129.0 180731.0 176493.0 73436.0 76581.0 105410.0 108581.0 33062.0 37479.0 72520.0 79227.0 33507.0 41016.0 106276.0 111411.0 126524.0 120038.0 233434.0 226755.0 126218.0 120893.0 130943.0 136349.0 73408.0 81548.0 118267.0 113718.0 64001.0 56248.0 117345.0 116512.0 84210.0 80760.0 279942.0 280540.0 33284.0 29056.0 199127.0 201908.0 42661.0 37319.0 354469.0 346235.0 239661.0 232937.0 162771.0 160491.0 8167.0 0.0 110089.0 104623.0 91519.0 83659.0 141291.0 133604.0 63216.0 71253.0 110852.0 118715.0 54908.0 46893.0 80767.0 75766.0 139846.0 203707.0 139846.0 139846.0 203707.0 203707.0
178907.0 175835.0 232236.0 225412.0 235333.0 232127.0 194501.0 192544.0 146443.0 138050.0 119698.0 116031.0 141774.0 138886.0 305301.0 313185.0 17818.0 24893.0 163717.0 168661.0 343852.0 336628.0 91554.0 99706.0 132031.0 138261.0 152381.0 151828.0 114664.0 111647.0 20418.0 24167.0 21669.0 20999.0 329663.0 327723.0 166562.0 160619.0 90823.0 85005.0 133634.0 128035.0 296335.0 288167.0 193126.0 187697.0 279326.0 284191.0 114847.0 110298.0 148786.0 147155.0 342590.0 341462.0 302679.0 302888.0 251309.0 249196.0 55050.0 57609.0 78475.0 81287.0 110330.0 115148.0 44634.0 51266.0 133737.0 128724.0 174093.0 182084.0 122206.0 130025.0 243773.0 246557.0 68115.0 69153.0 40193.0 33313.0 137396.0 145211.0 169868.0 161903.0 297536.0 293374.0 73521.0 65738.0 10515.0 6852.0 205232.0 210744.0 19247.0 26463.0 234787.0 236958.0 130370.0 132527.0 151913.0 143468.0 272011.0 269793.0 38585.0 33644.0 45902.0 38795.0 87814.0 91862.0 108113.0 114170.0 140314.0 145862.0 57273.0 64357.0 150650.0 149404.0 227808.0 223966.0 17643.0 16822.0 31958.0 32399.0 165298.0 173009.0 17902.0 21604.0 56489.0 60108.0 112091.0 104840.0 102270.0 108021.0 254221.0 256937.0 80908.0 81912.0 190186.0 196581.0 105269.0 98873.0 336257.0 328322.0 238027.0 234010.0 262179.0 261661.0 106673.0 110089.0 0.0 8039.0 174554.0 167308.0 227058.0 220601.0 79203.0 79555.0 114054.0 119441.0 105294.0 103898.0 83276.0 89629.0 44275.0 173963.0 44275.0 44275.0 173963.0 173963.0
173787.0 170453.0 228962.0 222002.0 232492.0 229527.0 192032.0 189769.0 148664.0 140248.0 122440.0 119261.0 138707.0 136217.0 310731.0 318616.0 24629.0 32199.0 166996.0 171663.0 349283.0 342059.0 84910.0 93060.0 132444.0 139000.0 156979.0 156222.0 114079.0 110544.0 13538.0 16208.0 13805.0 14763.0 335094.0 333154.0 169002.0 162815.0 88542.0 83232.0 134053.0 128123.0 301765.0 293598.0 196396.0 190723.0 284520.0 289522.0 116927.0 112829.0 144827.0 143583.0 348021.0 346892.0 308109.0 308318.0 249445.0 247084.0 48742.0 52092.0 78220.0 81770.0 114019.0 119156.0 36686.0 43236.0 130330.0 124966.0 179524.0 187515.0 122463.0 130423.0 242806.0 245826.0 60166.0 61416.0 32154.0 25339.0 138799.0 146494.0 166130.0 158207.0 302967.0 298805.0 71981.0 64010.0 14574.0 6940.0 209236.0 214547.0 24339.0 30377.0 240218.0 242412.0 126212.0 127964.0 147035.0 138654.0 269695.0 267256.0 31951.0 28112.0 38869.0 32259.0 84068.0 88679.0 107630.0 114024.0 135545.0 141368.0 50130.0 57431.0 152398.0 150747.0 232474.0 228431.0 21604.0 17482.0 31442.0 33902.0 162230.0 170065.0 16582.0 17363.0 49012.0 53097.0 115006.0 108009.0 102887.0 108189.0 259652.0 262367.0 74544.0 76061.0 194762.0 200987.0 102572.0 95787.0 341688.0 333753.0 242512.0 238301.0 258918.0 258174.0 101640.0 104623.0 8039.0 0.0 172336.0 164947.0 225063.0 218453.0 78204.0 79378.0 116376.0 122131.0 103511.0 101527.0 84011.0 89807.0 52073.0 179394.0 52073.0 52073.0 179394.0 179394.0
71431.0 77992.0 63636.0 59170.0 62672.0 58248.0 20705.0 22142.0 92043.0 91971.0 103660.0 111932.0 37521.0 37039.0 284012.0 290356.0 189539.0 193110.0 116370.0 111747.0 311493.0 303477.0 119700.0 116899.0 64720.0 67050.0 142036.0 137316.0 65852.0 65403.0 178340.0 171725.0 165920.0 159341.0 311682.0 312281.0 99004.0 92699.0 83809.0 89639.0 64030.0 62607.0 283560.0 275283.0 127569.0 119369.0 235054.0 242843.0 95195.0 102898.0 45986.0 40146.0 323553.0 319505.0 281920.0 285391.0 77528.0 74762.0 134791.0 127294.0 99417.0 100364.0 119845.0 124664.0 172890.0 168917.0 47826.0 55781.0 176092.0 181291.0 68238.0 65520.0 77090.0 82506.0 157865.0 149754.0 167280.0 164075.0 78242.0 74677.0 35191.0 35575.0 274305.0 267309.0 101226.0 108849.0 165532.0 168045.0 151612.0 149867.0 162266.0 154909.0 214541.0 210660.0 59863.0 64956.0 64274.0 65032.0 97463.0 95516.0 148069.0 146885.0 187414.0 188177.0 91044.0 84728.0 72108.0 69772.0 65220.0 57626.0 191228.0 197558.0 82959.0 75283.0 182610.0 174784.0 192192.0 189791.0 203280.0 206204.0 21210.0 16551.0 188658.0 186683.0 147366.0 139052.0 107881.0 113204.0 85210.0 77146.0 240665.0 238605.0 120032.0 112985.0 157629.0 156782.0 70060.0 77587.0 301820.0 293792.0 184819.0 177001.0 91924.0 93633.0 87257.0 91519.0 174554.0 172336.0 0.0 7971.0 52931.0 46124.0 96505.0 98749.0 98816.0 102910.0 69479.0 70812.0 100238.0 91771.0 188170.0 180652.0 188170.0 188170.0 180652.0 180652.0
67510.0 73588.0 68712.0 63592.0 68927.0 64998.0 27261.0 26843.0 91150.0 90353.0 100694.0 108801.0 29556.0 29228.0 285871.0 292346.0 182480.0 186197.0 116507.0 112342.0 314142.0 306124.0 111766.0 109034.0 61697.0 64957.0 140941.0 136275.0 60338.0 59203.0 170758.0 164083.0 158332.0 151832.0 313479.0 313880.0 99716.0 93025.0 76494.0 82540.0 61182.0 58856.0 284753.0 276486.0 129439.0 121132.0 237730.0 245451.0 91679.0 99221.0 38931.0 32651.0 325472.0 321592.0 283734.0 287023.0 85273.0 82289.0 126944.0 119490.0 92910.0 94257.0 116413.0 121545.0 165030.0 161009.0 39868.0 47847.0 175363.0 180827.0 64138.0 62276.0 85004.0 90338.0 149896.0 141784.0 159457.0 156330.0 76383.0 73582.0 30990.0 29860.0 276216.0 269331.0 94151.0 101677.0 158400.0 160759.0 153429.0 152087.0 155351.0 148079.0 215709.0 212101.0 52068.0 57375.0 57928.0 58077.0 104749.0 102528.0 140351.0 139291.0 179572.0 180406.0 83255.0 77056.0 66378.0 64686.0 58067.0 50687.0 183316.0 189625.0 82463.0 74644.0 184607.0 176859.0 184951.0 182416.0 195800.0 198835.0 15586.0 14039.0 181219.0 179138.0 139446.0 131131.0 104429.0 109347.0 80055.0 71978.0 241732.0 239941.0 112062.0 105019.0 158346.0 157902.0 62503.0 69901.0 304526.0 296454.0 187303.0 179564.0 97651.0 98877.0 79316.0 83659.0 167308.0 164947.0 7971.0 0.0 60640.0 53669.0 89692.0 92301.0 95330.0 99914.0 62525.0 63443.0 94310.0 85787.0 181724.0 179673.0 181724.0 181724.0 179673.0 179673.0
100271.0 108358.0 38714.0 42115.0 26537.0 18525.0 35210.0 40800.0 123863.0 126953.0 143363.0 151892.0 89411.0 89866.0 291665.0 297019.0 241660.0 244893.0 141046.0 134371.0 313258.0 305391.0 170158.0 166440.0 107323.0 106292.0 171445.0 166682.0 115320.0 116389.0 231251.0 224655.0 218835.0 212204.0 319271.0 321170.0 122273.0 118663.0 136530.0 142053.0 106137.0 107599.0 295577.0 287384.0 141428.0 134606.0 238281.0 246331.0 137403.0 145338.0 92654.0 89174.0 330138.0 325019.0 289912.0 294522.0 24648.0 22365.0 187516.0 180115.0 150615.0 150581.0 160679.0 164054.0 225564.0 221377.0 99416.0 106923.0 202205.0 205781.0 113853.0 108746.0 35042.0 42716.0 209504.0 201395.0 220059.0 216970.0 115443.0 109230.0 73616.0 78812.0 281803.0 274212.0 153563.0 161324.0 217837.0 220623.0 164080.0 159855.0 214115.0 206581.0 228349.0 222868.0 109690.0 113183.0 105988.0 109749.0 45960.0 45856.0 200982.0 199803.0 240141.0 241043.0 143891.0 137655.0 121905.0 118036.0 110975.0 102797.0 243654.0 249812.0 113959.0 107864.0 192297.0 184326.0 244673.0 242490.0 256106.0 258887.0 67926.0 59746.0 241443.0 239571.0 199767.0 191445.0 149268.0 155909.0 133133.0 125359.0 254388.0 250676.0 171617.0 164861.0 176440.0 173250.0 122977.0 130510.0 303349.0 295771.0 191164.0 183168.0 53141.0 58642.0 138094.0 141291.0 227058.0 225063.0 52931.0 60640.0 0.0 7871.0 148379.0 149819.0 140737.0 142768.0 121769.0 123609.0 149981.0 141792.0 238750.0 207941.0 238750.0 238750.0 207941.0 207941.0
92695.0 100758.0 35253.0 37323.0 25062.0 17383.0 27625.0 32965.0 121450.0 124067.0 139810.0 148341.0 82091.0 82839.0 293727.0 299233.0 235405.0 238786.0 139911.0 133489.0 316187.0 308285.0 162508.0 158716.0 102992.0 102502.0 169775.0 164992.0 109738.0 110430.0 224421.0 217750.0 211996.0 205457.0 321393.0 323109.0 121160.0 117096.0 129917.0 135622.0 101877.0 102857.0 297013.0 288791.0 141932.0 134839.0 240837.0 248874.0 133371.0 141306.0 84886.0 81541.0 332421.0 327445.0 291922.0 296377.0 32023.0 28638.0 180335.0 173004.0 144657.0 144910.0 157013.0 160663.0 218340.0 214061.0 92011.0 99433.0 201207.0 205055.0 109046.0 104323.0 41985.0 49488.0 201988.0 193883.0 212901.0 209930.0 112086.0 106218.0 65748.0 70991.0 283866.0 276343.0 147176.0 154869.0 211488.0 214120.0 164968.0 161079.0 207970.0 200503.0 229346.0 224082.0 102056.0 105437.0 98117.0 101898.0 51607.0 50515.0 193981.0 192956.0 232944.0 233960.0 136820.0 130722.0 116270.0 112731.0 103143.0 94963.0 236318.0 242420.0 111560.0 105139.0 193754.0 185764.0 238232.0 235903.0 249402.0 252313.0 60302.0 52090.0 234782.0 232786.0 192438.0 184116.0 145448.0 151877.0 127966.0 120098.0 255475.0 251998.0 164111.0 157415.0 176455.0 173600.0 116149.0 123563.0 306293.0 298639.0 193099.0 185088.0 54019.0 58633.0 130514.0 133604.0 220601.0 218453.0 46124.0 53669.0 7871.0 0.0 142185.0 143900.0 136775.0 139184.0 115381.0 116933.0 144434.0 136155.0 233058.0 206777.0 233058.0 233058.0 206777.0 206777.0
117772.0 117577.0 157027.0 150864.0 158540.0 154658.0 116924.0 115915.0 81368.0 73490.0 62341.0 64308.0 67628.0 62938.0 271395.0 279029.0 93287.0 96623.0 106231.0 108386.0 307491.0 299818.0 69221.0 73842.0 56498.0 64086.0 109733.0 106888.0 36035.0 32445.0 86653.0 81414.0 74800.0 67123.0 296908.0 295089.0 101887.0 94456.0 17561.0 9627.0 58081.0 51250.0 263700.0 255533.0 133792.0 126573.0 235910.0 242252.0 52246.0 52832.0 79887.0 75685.0 309793.0 308020.0 268858.0 269873.0 172426.0 170647.0 55380.0 47290.0 7295.0 15040.0 64955.0 72132.0 89381.0 88535.0 62114.0 60115.0 141677.0 149331.0 46286.0 54484.0 164656.0 167623.0 86939.0 80340.0 82529.0 76789.0 67109.0 73761.0 98324.0 90441.0 262887.0 257701.0 7877.0 15333.0 69625.0 73056.0 152004.0 155351.0 65791.0 58407.0 198479.0 198334.0 64882.0 70479.0 90617.0 82458.0 193769.0 192019.0 61324.0 56945.0 102144.0 100377.0 30329.0 26406.0 29792.0 36829.0 79240.0 81578.0 109345.0 116901.0 81887.0 78123.0 180330.0 174509.0 96681.0 95269.0 109645.0 111468.0 90315.0 97308.0 94786.0 94188.0 70622.0 64061.0 58035.0 55370.0 29955.0 32337.0 221084.0 222489.0 60113.0 53360.0 143797.0 147926.0 31981.0 30008.0 298991.0 290800.0 188207.0 182364.0 186654.0 187061.0 55523.0 63216.0 79203.0 78204.0 96505.0 89692.0 148379.0 142185.0 0.0 8151.0 53789.0 61638.0 27245.0 28706.0 18189.0 16529.0 92538.0 142547.0 92538.0 92538.0 142547.0 142547.0
124210.0 124338.0 160366.0 154459.0 161219.0 156996.0 119363.0 118877.0 75511.0 67434.0 55091.0 56608.0 72134.0 66817.0 263577.0 271232.0 92541.0 95244.0 99560.0 102074.0 299859.0 292208.0 77135.0 81898.0 53345.0 60404.0 101960.0 99212.0 35272.0 33472.0 88803.0 84128.0 77362.0 69421.0 289005.0 287158.0 96176.0 88943.0 24605.0 17012.0 54952.0 48763.0 255770.0 247602.0 127536.0 120506.0 228611.0 234877.0 45442.0 45391.0 85549.0 80836.0 301899.0 300181.0 261033.0 261987.0 173565.0 172164.0 61281.0 53425.0 1363.0 6914.0 56942.0 64106.0 93659.0 93401.0 67486.0 66212.0 133664.0 141343.0 43232.0 51315.0 164464.0 167073.0 93126.0 86818.0 86681.0 80466.0 62198.0 69261.0 103155.0 95383.0 255115.0 249988.0 14606.0 20211.0 69559.0 73765.0 145189.0 148761.0 64669.0 56945.0 190729.0 190699.0 71412.0 77369.0 97305.0 89286.0 195498.0 194072.0 65539.0 60371.0 105855.0 103518.0 38448.0 34177.0 28652.0 34663.0 86106.0 87998.0 113624.0 121299.0 76784.0 73622.0 173160.0 167466.0 96734.0 96016.0 110726.0 111953.0 94191.0 100830.0 95891.0 95921.0 76449.0 70307.0 50398.0 47405.0 24789.0 28938.0 213185.0 214673.0 67785.0 61200.0 136413.0 140716.0 37933.0 37127.0 291409.0 283227.0 181238.0 175528.0 189773.0 190501.0 63496.0 71253.0 79555.0 79378.0 98749.0 92301.0 149819.0 143900.0 8151.0 0.0 46694.0 54423.0 30977.0 34146.0 10149.0 10915.0 89435.0 134468.0 89435.0 89435.0 134468.0 134468.0
147839.0 150308.0 161995.0 157951.0 158810.0 152773.0 118329.0 120958.0 32398.0 24030.0 8750.0 14235.0 88909.0 81300.0 218854.0 226365.0 122268.0 122243.0 53143.0 56386.0 254187.0 246457.0 122274.0 126094.0 34265.0 34505.0 57655.0 54240.0 41766.0 48517.0 128029.0 124940.0 118068.0 109874.0 244871.0 243400.0 52631.0 46574.0 63567.0 59040.0 35170.0 36494.0 212021.0 203854.0 81777.0 75280.0 182138.0 188527.0 3661.0 4795.0 107008.0 99874.0 257676.0 255554.0 216361.0 217757.0 161564.0 162398.0 107643.0 99965.0 48009.0 40542.0 21083.0 26627.0 137558.0 138306.0 89709.0 92587.0 91601.0 98783.0 31702.0 33315.0 145388.0 145921.0 139581.0 133443.0 130461.0 123475.0 27270.0 35138.0 117828.0 111494.0 210126.0 204689.0 61192.0 66624.0 103548.0 109776.0 98550.0 102338.0 95667.0 87842.0 145719.0 145126.0 99634.0 107245.0 124268.0 117772.0 186069.0 186590.0 109870.0 103543.0 148411.0 144808.0 80930.0 74264.0 39850.0 35552.0 115093.0 113891.0 157259.0 165087.0 37608.0 38559.0 126544.0 120781.0 129127.0 130798.0 145953.0 145112.0 104206.0 108006.0 131819.0 133725.0 122672.0 116850.0 9100.0 15218.0 26648.0 31099.0 169174.0 170021.0 113732.0 106723.0 90120.0 94137.0 69263.0 73539.0 245564.0 237356.0 134544.0 128867.0 188840.0 191515.0 102687.0 110852.0 114054.0 116376.0 98816.0 95330.0 140737.0 136775.0 53789.0 46694.0 0.0 7968.0 57068.0 64723.0 37253.0 37481.0 110237.0 93760.0 110237.0 110237.0 93760.0 93760.0
154339.0 157033.0 165583.0 161847.0 161793.0 155512.0 121945.0 125006.0 28001.0 20170.0 867.0 9169.0 95251.0 87548.0 210898.0 218405.0 126829.0 126376.0 45961.0 49750.0 246225.0 238497.0 130228.0 134062.0 38246.0 36770.0 49813.0 46323.0 48745.0 55794.0 134069.0 131265.0 124412.0 116227.0 236942.0 235500.0 47244.0 41926.0 71521.0 67002.0 38881.0 41544.0 204128.0 195961.0 74951.0 68777.0 174272.0 180629.0 10596.0 9541.0 113580.0 106287.0 249740.0 247600.0 208408.0 209826.0 162890.0 164117.0 115147.0 107548.0 55724.0 48132.0 17962.0 21785.0 144412.0 145377.0 96547.0 99731.0 83982.0 91078.0 37469.0 37651.0 145503.0 145608.0 147097.0 141055.0 137310.0 130198.0 27521.0 34695.0 123565.0 117463.0 202163.0 196721.0 68970.0 74218.0 108971.0 115436.0 91033.0 95033.0 100765.0 93063.0 137759.0 137158.0 106856.0 114539.0 131218.0 124892.0 187688.0 188543.0 116891.0 110380.0 154968.0 151137.0 88896.0 82209.0 47313.0 42500.0 122270.0 120814.0 164015.0 171862.0 34895.0 37448.0 118742.0 113063.0 134047.0 136090.0 151220.0 150039.0 109554.0 112937.0 137290.0 139494.0 130113.0 124421.0 8047.0 16094.0 34546.0 38598.0 161265.0 162072.0 121640.0 114656.0 82199.0 86309.0 76958.0 81396.0 237610.0 229402.0 126875.0 121302.0 191858.0 194823.0 110548.0 118715.0 119441.0 122131.0 102910.0 99914.0 142768.0 139184.0 61638.0 54423.0 7968.0 0.0 64706.0 72437.0 44811.0 45397.0 113779.0 86341.0 113779.0 113779.0 86341.0 86341.0
95494.0 96566.0 129826.0 123742.0 131316.0 127520.0 89780.0 88671.0 75421.0 69095.0 65557.0 70680.0 41194.0 35901.0 274483.0 281833.0 120064.0 123676.0 103110.0 103263.0 308490.0 300639.0 72048.0 73855.0 42595.0 51035.0 114433.0 110739.0 19251.0 11428.0 110594.0 104554.0 98322.0 91207.0 300912.0 299730.0 94143.0 86185.0 15984.0 20301.0 43868.0 35967.0 268437.0 260270.0 127604.0 119637.0 234564.0 241431.0 54111.0 58432.0 55594.0 50264.0 313630.0 311181.0 272044.0 273790.0 146027.0 143940.0 71841.0 63613.0 31313.0 34713.0 74663.0 81577.0 109117.0 106716.0 37321.0 37593.0 148659.0 155784.0 33946.0 40942.0 139897.0 143417.0 100564.0 92954.0 102756.0 98235.0 58332.0 62751.0 72287.0 64589.0 265516.0 259730.0 31799.0 39577.0 96106.0 98891.0 148473.0 150466.0 92829.0 85565.0 201359.0 200089.0 43941.0 51065.0 69662.0 62327.0 166895.0 164973.0 82150.0 79535.0 122952.0 122410.0 30803.0 22718.0 17672.0 24395.0 59389.0 59687.0 128651.0 135763.0 72630.0 66773.0 178620.0 172026.0 122905.0 120867.0 134772.0 137228.0 63304.0 70138.0 119999.0 118622.0 86395.0 78599.0 64470.0 65230.0 31028.0 26175.0 225479.0 225874.0 66499.0 58714.0 144239.0 147009.0 12345.0 18555.0 299566.0 291332.0 185071.0 178487.0 159419.0 159893.0 46814.0 54908.0 105294.0 103511.0 69479.0 62525.0 121769.0 115381.0 27245.0 30977.0 57068.0 64706.0 0.0 8022.0 35949.0 27908.0 119700.0 150783.0 119700.0 119700.0 150783.0 150783.0
90336.0 90893.0 129249.0 122840.0 131587.0 128236.0 90605.0 88788.0 83416.0 77116.0 73281.0 78161.0 39137.0 35164.0 282445.0 289807.0 119339.0 123413.0 111129.0 111247.0 316506.0 308656.0 64525.0 66061.0 50279.0 58711.0 122217.0 118572.0 27139.0 19190.0 107758.0 101373.0 95374.0 88610.0 308843.0 307627.0 102030.0 94060.0 13089.0 19940.0 51501.0 43598.0 276316.0 268149.0 135522.0 127526.0 242582.0 249452.0 61851.0 65885.0 51415.0 46983.0 321570.0 319146.0 280003.0 281720.0 148080.0 145569.0 66820.0 58744.0 34175.0 38991.0 81786.0 88782.0 104589.0 101728.0 33455.0 32207.0 156320.0 163497.0 41870.0 48685.0 143425.0 147287.0 94490.0 86737.0 98446.0 94405.0 66271.0 70526.0 69634.0 61738.0 273492.0 267722.0 31379.0 38479.0 95145.0 97325.0 156471.0 158422.0 92662.0 85729.0 209312.0 208078.0 37907.0 44575.0 63855.0 56175.0 168189.0 165894.0 78285.0 76392.0 118697.0 118626.0 24159.0 16199.0 25644.0 32408.0 53119.0 54203.0 123858.0 130796.0 80486.0 74495.0 186639.0 180037.0 121540.0 118988.0 132497.0 135404.0 62234.0 69576.0 117852.0 116002.0 80965.0 72978.0 71895.0 72248.0 38386.0 34033.0 233373.0 233815.0 59507.0 51701.0 152241.0 155029.0 4579.0 10884.0 307585.0 299351.0 193067.0 186464.0 159056.0 159122.0 38794.0 46893.0 103898.0 101527.0 70812.0 63443.0 123609.0 116933.0 28706.0 34146.0 64723.0 72437.0 8022.0 0.0 40756.0 33369.0 120848.0 158330.0 120848.0 120848.0 158330.0 158330.0
131043.0 131635.0 162911.0 157356.0 162910.0 158267.0 120942.0 121123.0 67276.0 59023.0 45442.0 46570.0 76756.0 70743.0 253453.0 261115.0 94831.0 96728.0 90357.0 93228.0 289814.0 282175.0 87284.0 92020.0 48812.0 55025.0 91862.0 89164.0 34696.0 35229.0 94372.0 90310.0 83455.0 75343.0 278861.0 277010.0 88000.0 81023.0 33214.0 26231.0 50408.0 45245.0 245622.0 237455.0 118696.0 111874.0 218783.0 224995.0 36352.0 35595.0 91510.0 86176.0 291756.0 290050.0 250906.0 251845.0 173264.0 172342.0 70389.0 62739.0 11298.0 3353.0 46797.0 53965.0 101268.0 101533.0 73253.0 72910.0 123521.0 131195.0 39187.0 46820.0 162541.0 164701.0 102329.0 96244.0 94212.0 87604.0 55231.0 62710.0 107907.0 100332.0 245007.0 239906.0 24642.0 29407.0 72953.0 77963.0 135791.0 139568.0 66908.0 58950.0 180633.0 180658.0 78626.0 85031.0 104587.0 96798.0 195880.0 194869.0 73287.0 67484.0 112875.0 109992.0 48235.0 43392.0 28204.0 32309.0 93687.0 94952.0 121150.0 128910.0 69424.0 67020.0 163443.0 157856.0 99931.0 100011.0 114985.0 115532.0 97782.0 103915.0 100286.0 100996.0 85432.0 79617.0 40415.0 37256.0 19002.0 25389.0 203042.0 204550.0 77889.0 71344.0 126545.0 130981.0 44964.0 45498.0 281392.0 273215.0 171684.0 166091.0 191952.0 193095.0 72889.0 80767.0 83276.0 84011.0 100238.0 94310.0 149981.0 144434.0 18189.0 10149.0 37253.0 44811.0 35949.0 40756.0 0.0 8555.0 88850.0 124359.0 88850.0 88850.0 124359.0 124359.0
123328.0 124171.0 154368.0 148802.0 154439.0 149854.0 112474.0 112591.0 64992.0 57035.0 46128.0 48759.0 68389.0 62269.0 255812.0 263393.0 101939.0 104184.0 89707.0 91880.0 291541.0 283835.0 84905.0 89011.0 42669.0 49564.0 94175.0 91130.0 26479.0 26675.0 99517.0 94962.0 88176.0 80196.0 281549.0 279832.0 85589.0 78263.0 27684.0 21913.0 44278.0 38407.0 248458.0 240291.0 117302.0 110134.0 219604.0 226007.0 35783.0 36902.0 83489.0 77964.0 294405.0 292480.0 253294.0 254472.0 165209.0 164157.0 71658.0 63659.0 12245.0 8819.0 50493.0 57675.0 104546.0 104190.0 65211.0 65269.0 126864.0 134387.0 32657.0 40643.0 155065.0 157428.0 103357.0 96835.0 97578.0 91381.0 51326.0 58349.0 99527.0 92001.0 247203.0 241897.0 24257.0 30807.0 79469.0 84025.0 135495.0 138822.0 73984.0 66105.0 182774.0 182419.0 71247.0 77920.0 97164.0 89542.0 187652.0 186550.0 76422.0 71284.0 116770.0 114399.0 44182.0 38330.0 19890.0 24737.0 86487.0 87367.0 124515.0 132179.0 65962.0 62711.0 163949.0 158065.0 106597.0 106226.0 121052.0 122004.0 89254.0 95362.0 106255.0 106509.0 86879.0 80487.0 42399.0 40787.0 13899.0 18403.0 205744.0 206921.0 76251.0 69266.0 127594.0 131579.0 37756.0 39350.0 282969.0 274767.0 171733.0 165857.0 183435.0 184552.0 67722.0 75766.0 89629.0 89807.0 91771.0 85787.0 141792.0 136155.0 16529.0 10915.0 37481.0 45397.0 27908.0 33369.0 8555.0 0.0 96959.0 128140.0 96959.0 96959.0 128140.0 128140.0
205338.0 203519.0 249526.0 243402.0 250648.0 246410.0 208797.0 208225.0 141771.0 133739.0 113808.0 108260.0 159981.0 155476.0 289808.0 297692.0 36893.0 31861.0 154464.0 160365.0 328359.0 321135.0 125530.0 133371.0 135648.0 140215.0 138719.0 138832.0 123436.0 122800.0 64505.0 68264.0 64593.0 60608.0 314170.0 312230.0 160498.0 155671.0 108311.0 100915.0 137159.0 133236.0 280842.0 272674.0 183483.0 179018.0 263929.0 268701.0 112043.0 105770.0 170653.0 167380.0 327097.0 325969.0 287186.0 287395.0 262112.0 261115.0 89809.0 88942.0 88814.0 88170.0 100929.0 104309.0 88720.0 94953.0 153675.0 150345.0 158600.0 166591.0 126955.0 133796.0 250760.0 252484.0 110171.0 109736.0 83749.0 76242.0 136518.0 144566.0 190251.0 182282.0 282043.0 277881.0 89706.0 83699.0 40422.0 47048.0 192960.0 199086.0 33292.0 35337.0 219294.0 221494.0 153652.0 157491.0 177758.0 169228.0 284593.0 283373.0 76270.0 68795.0 89757.0 82210.0 111434.0 112936.0 116844.0 121091.0 165956.0 170149.0 101167.0 107939.0 147836.0 148365.0 213451.0 210164.0 46895.0 53539.0 65346.0 60282.0 182844.0 189830.0 57108.0 63495.0 96105.0 97414.0 105814.0 97865.0 106667.0 113965.0 238728.0 241444.0 114021.0 112529.0 176257.0 183114.0 123494.0 119091.0 320764.0 312829.0 224102.0 220667.0 279075.0 279587.0 134550.0 139846.0 44275.0 52073.0 188170.0 181724.0 238750.0 233058.0 92538.0 89435.0 110237.0 113779.0 119700.0 120848.0 88850.0 96959.0 0.0 158470.0 0.0 0.0 158470.0 158470.0
239442.0 242642.0 238506.0 236487.0 231534.0 224138.0 196710.0 201614.0 88619.0 89649.0 85477.0 80183.0 180349.0 172526.0 132322.0 140267.0 174691.0 172040.0 66901.0 73696.0 171494.0 164411.0 211398.0 216364.0 120401.0 115283.0 38758.0 43398.0 135005.0 142135.0 192835.0 192751.0 186539.0 179059.0 157477.0 155537.0 85675.0 89876.0 155705.0 149917.0 120399.0 125451.0 124149.0 115982.0 75084.0 78498.0 110557.0 114448.0 96878.0 92464.0 199028.0 191448.0 170417.0 168223.0 129679.0 129575.0 222342.0 226086.0 189257.0 182886.0 135524.0 127556.0 77703.0 70508.0 210223.0 213414.0 182518.0 186013.0 7151.0 11757.0 122677.0 120562.0 197841.0 194778.0 220209.0 215591.0 203425.0 195471.0 103757.0 106109.0 206726.0 201399.0 124850.0 121060.0 148561.0 151405.0 164826.0 172518.0 64459.0 72531.0 155105.0 149371.0 63526.0 67000.0 193176.0 200878.0 217268.0 211139.0 247775.0 250835.0 185857.0 178033.0 217291.0 211476.0 172222.0 166420.0 133594.0 128765.0 208560.0 206844.0 227928.0 235656.0 97785.0 105378.0 68145.0 68493.0 183810.0 188460.0 202490.0 198994.0 191700.0 193544.0 191029.0 195567.0 202888.0 198964.0 86491.0 87390.0 119965.0 124850.0 81174.0 84457.0 201470.0 195359.0 42206.0 49871.0 162894.0 166617.0 164164.0 156343.0 80125.0 80081.0 260732.0 265317.0 195588.0 203707.0 173963.0 179394.0 180652.0 179673.0 207941.0 206777.0 142547.0 134468.0 93760.0 86341.0 150783.0 158330.0 124359.0 128140.0 158470.0 0.0 158470.0 158470.0 0.0 0.0
205338.0 203519.0 249526.0 243402.0 250648.0 246410.0 208797.0 208225.0 141771.0 133739.0 113808.0 108260.0 159981.0 155476.0 289808.0 297692.0 36893.0 31861.0 154464.0 160365.0 328359.0 321135.0 125530.0 133371.0 135648.0 140215.0 138719.0 138832.0 123436.0 122800.0 64505.0 68264.0 64593.0 60608.0 314170.0 312230.0 160498.0 155671.0 108311.0 100915.0 137159.0 133236.0 280842.0 272674.0 183483.0 179018.0 263929.0 268701.0 112043.0 105770.0 170653.0 167380.0 327097.0 325969.0 287186.0 287395.0 262112.0 261115.0 89809.0 88942.0 88814.0 88170.0 100929.0 104309.0 88720.0 94953.0 153675.0 150345.0 158600.0 166591.0 126955.0 133796.0 250760.0 252484.0 110171.0 109736.0 83749.0 76242.0 136518.0 144566.0 190251.0 182282.0 282043.0 277881.0 89706.0 83699.0 40422.0 47048.0 192960.0 199086.0 33292.0 35337.0 219294.0 221494.0 153652.0 157491.0 177758.0 169228.0 284593.0 283373.0 76270.0 68795.0 89757.0 82210.0 111434.0 112936.0 116844.0 121091.0 165956.0 170149.0 101167.0 107939.0 147836.0 148365.0 213451.0 210164.0 46895.0 53539.0 65346.0 60282.0 182844.0 189830.0 57108.0 63495.0 96105.0 97414.0 105814.0 97865.0 106667.0 113965.0 238728.0 241444.0 114021.0 112529.0 176257.0 183114.0 123494.0 119091.0 320764.0 312829.0 224102.0 220667.0 279075.0 279587.0 134550.0 139846.0 44275.0 52073.0 188170.0 181724.0 238750.0 233058.0 92538.0 89435.0 110237.0 113779.0 119700.0 120848.0 88850.0 96959.0 0.0 158470.0 0.0 0.0 158470.0 158470.0
205338.0 203519.0 249526.0 243402.0 250648.0 246410.0 208797.0 208225.0 141771.0 133739.0 113808.0 108260.0 159981.0 155476.0 289808.0 297692.0 36893.0 31861.0 154464.0 160365.0 328359.0 321135.0 125530.0 133371.0 135648.0 140215.0 138719.0 138832.0 123436.0 122800.0 64505.0 68264.0 64593.0 60608.0 314170.0 312230.0 160498.0 155671.0 108311.0 100915.0 137159.0 133236.0 280842.0 272674.0 183483.0 179018.0 263929.0 268701.0 112043.0 105770.0 170653.0 167380.0 327097.0 325969.0 287186.0 287395.0 262112.0 261115.0 89809.0 88942.0 88814.0 88170.0 100929.0 104309.0 88720.0 94953.0 153675.0 150345.0 158600.0 166591.0 126955.0 133796.0 250760.0 252484.0 110171.0 109736.0 83749.0 76242.0 136518.0 144566.0 190251.0 182282.0 282043.0 277881.0 89706.0 83699.0 40422.0 47048.0 192960.0 199086.0 33292.0 35337.0 219294.0 221494.0 153652.0 157491.0 177758.0 169228.0 284593.0 283373.0 76270.0 68795.0 89757.0 82210.0 111434.0 112936.0 116844.0 121091.0 165956.0 170149.0 101167.0 107939.0 147836.0 148365.0 213451.0 210164.0 46895.0 53539.0 65346.0 60282.0 182844.0 189830.0 57108.0 63495.0 96105.0 97414.0 105814.0 97865.0 106667.0 113965.0 238728.0 241444.0 114021.0 112529.0 176257.0 183114.0 123494.0 119091.0 320764.0 312829.0 224102.0 220667.0 279075.0 279587.0 134550.0 139846.0 44275.0 52073.0 188170.0 181724.0 238750.0 233058.0 92538.0 89435.0 110237.0 113779.0 119700.0 120848.0 88850.0 96959.0 0.0 158470.0 0.0 0.0 158470.0 158470.0
239442.0 242642.0 238506.0 236487.0 231534.0 224138.0 196710.0 201614.0 88619.0 89649.0 85477.0 80183.0 180349.0 172526.0 132322.0 140267.0 174691.0 172040.0 66901.0 73696.0 171494.0 164411.0 211398.0 216364.0 120401.0 115283.0 38758.0 43398.0 135005.0 142135.0 192835.0 192751.0 186539.0 179059.0 157477.0 155537.0 85675.0 89876.0 155705.0 149917.0 120399.0 125451.0 124149.0 115982.0 75084.0 78498.0 110557.0 114448.0 96878.0 92464.0 199028.0 191448.0 170417.0 168223.0 129679.0 129575.0 222342.0 226086.0 189257.0 182886.0 135524.0 127556.0 77703.0 70508.0 210223.0 213414.0 182518.0 186013.0 7151.0 11757.0 122677.0 120562.0 197841.0 194778.0 220209.0 215591.0 203425.0 195471.0 103757.0 106109.0 206726.0 201399.0 124850.0 121060.0 148561.0 151405.0 164826.0 172518.0 64459.0 72531.0 155105.0 149371.0 63526.0 67000.0 193176.0 200878.0 217268.0 211139.0 247775.0 250835.0 185857.0 178033.0 217291.0 211476.0 172222.0 166420.0 133594.0 128765.0 208560.0 206844.0 227928.0 235656.0 97785.0 105378.0 68145.0 68493.0 183810.0 188460.0 202490.0 198994.0 191700.0 193544.0 191029.0 195567.0 202888.0 198964.0 86491.0 87390.0 119965.0 124850.0 81174.0 84457.0 201470.0 195359.0 42206.0 49871.0 162894.0 166617.0 164164.0 156343.0 80125.0 80081.0 260732.0 265317.0 195588.0 203707.0 173963.0 179394.0 180652.0 179673.0 207941.0 206777.0 142547.0 134468.0 93760.0 86341.0 150783.0 158330.0 124359.0 128140.0 158470.0 0.0 158470.0 158470.0 0.0 0.0
239442.0 242642.0 238506.0 236487.0 231534.0 224138.0 196710.0 201614.0 88619.0 89649.0 85477.0 80183.0 180349.0 172526.0 132322.0 140267.0 174691.0 172040.0 66901.0 73696.0 171494.0 164411.0 211398.0 216364.0 120401.0 115283.0 38758.0 43398.0 135005.0 142135.0 192835.0 192751.0 186539.0 179059.0 157477.0 155537.0 85675.0 89876.0 155705.0 149917.0 120399.0 125451.0 124149.0 115982.0 75084.0 78498.0 110557.0 114448.0 96878.0 92464.0 199028.0 191448.0 170417.0 168223.0 129679.0 129575.0 222342.0 226086.0 189257.0 182886.0 135524.0 127556.0 77703.0 70508.0 210223.0 213414.0 182518.0 186013.0 7151.0 11757.0 122677.0 120562.0 197841.0 194778.0 220209.0 215591.0 203425.0 195471.0 103757.0 106109.0 206726.0 201399.0 124850.0 121060.0 148561.0 151405.0 164826.0 172518.0 64459.0 72531.0 155105.0 149371.0 63526.0 67000.0 193176.0 200878.0 217268.0 211139.0 247775.0 250835.0 185857.0 178033.0 217291.0 211476.0 172222.0 166420.0 133594.0 128765.0 208560.0 206844.0 227928.0 235656.0 97785.0 105378.0 68145.0 68493.0 183810.0 188460.0 202490.0 198994.0 191700.0 193544.0 191029.0 195567.0 202888.0 198964.0 86491.0 87390.0 119965.0 124850.0 81174.0 84457.0 201470.0 195359.0 42206.0 49871.0 162894.0 166617.0 164164.0 156343.0 80125.0 80081.0 260732.0 265317.0 195588.0 203707.0 173963.0 179394.0 180652.0 179673.0 207941.0 206777.0 142547.0 134468.0 93760.0 86341.0 150783.0 158330.0 124359.0 128140.0 158470.0 0.0 158470.0 158470.0 0.0 0.0
FIXED_EDGES_SECTION
1 2
3 4
5 6
7 8
9 10
11 12
13 14
15 16
17 18
19 20
21 22
23 24
25 26
27 28
29 30
31 32
33 34
35 36
37 38
39 40
41 42
43 44
45 46
47 48
49 50
51 52
53 54
55 56
57 58
59 60
61 62
63 64
65 66
67 68
69 70
71 72
73 74
75 76
77 78
79 80
81 82
83 84
85 86
87 88
89 90
91 92
93 94
95 96
97 98
99 100
101 102
103 104
105 106
107 108
109 110
111 112
113 114
115 116
117 118
119 120
121 122
123 124
125 126
127 128
129 130
131 132
133 134
135 136
137 138
139 140
141 142
143 144
145 146
147 148
149 150
151 152
153 154
155 156
157 158
159 160
-1 
DEMAND_SECTION
1 68
2 68
3 380
4 380
5 258
6 258
7 157
8 157
9 223
10 223
11 358
12 358
13 82
14 82
15 99
16 99
17 97
18 97
19 342
20 342
21 229
22 229
23 55
24 55
25 279
26 279
27 399
28 399
29 256
30 256
31 247
32 247
33 396
34 396
35 71
36 71
37 130
38 130
39 341
40 341
41 90
42 90
43 224
44 224
45 68
46 68
47 350
48 350
49 214
50 214
51 479
52 479
53 491
54 491
55 60
56 60
57 234
58 234
59 57
60 57
61 277
62 277
63 75
64 75
65 274
66 274
67 211
68 211
69 37
70 37
71 94
72 94
73 321
74 321
75 265
76 265
77 379
78 379
79 177
80 177
81 186
82 186
83 322
84 322
85 207
86 207
87 618
88 618
89 84
90 84
91 485
92 485
93 563
94 563
95 90
96 90
97 217
98 217
99 120
100 120
101 493
102 493
103 216
104 216
105 583
106 583
107 191
108 191
109 211
110 211
111 316
112 316
113 291
114 291
115 319
116 319
117 292
118 292
119 369
120 369
121 74
122 74
123 219
124 219
125 375
126 375
127 373
128 373
129 114
130 114
131 534
132 534
133 497
134 497
135 313
136 313
137 349
138 349
139 421
140 421
141 336
142 336
143 138
144 138
145 247
146 247
147 104
148 104
149 180
150 180
151 277
152 277
153 171
154 171
155 80
156 80
157 96
158 96
159 94
160 94
161 0
162 0
163 0
164 0
165 0
166 0
DEPOT_SECTION
161 
-1 
CAPACITIES_SECTION
20000 
22000 
24000 
-1 
EOF