NAME: GFS_20_1
TYPE: GFSP
DIMENSION: 166
VEHICLES: 3
CAPACITY: 20000.0
TRIP_DIST_LIMIT: 1050000.0
TOTAL_DIST_LIMIT: 1400000.0
EDGE_WEIGHT_TYPE: EXPLICIT
EDGE_WEIGHT_FORMAT: FULL_MATRIX
EDGE_WEIGHT_SECTION
0.0 8088.0 244184.0 237610.0 259559.0 252105.0 167185.0 174353.0 223525.0 215766.0 182809.0 190727.0 188245.0 196744.0 45960.0 51607.0 187867.0 194133.0 51266.0 59230.0 77729.0 80873.0 317559.0 322836.0 209770.0 205151.0 141133.0 146543.0 207952.0 199936.0 198490.0 196587.0 241626.0 244402.0 148385.0 140314.0 289651.0 287165.0 250186.0 242142.0 157321.0 151810.0 244492.0 243829.0 100784.0 94723.0 212671.0 205587.0 216239.0 220506.0 262985.0 265488.0 161198.0 162030.0 167152.0 170995.0 181445.0 174232.0 34815.0 42858.0 233074.0 227343.0 162896.0 160366.0 213113.0 208869.0 146606.0 153058.0 96856.0 105255.0 286371.0 294316.0 150922.0 151584.0 356165.0 350383.0 141534.0 148447.0 285945.0 283741.0 109123.0 100910.0 246096.0 250555.0 221688.0 216803.0 209095.0 214935.0 234655.0 227007.0 185163.0 192826.0 285506.0 291292.0 262862.0 256500.0 128083.0 136112.0 132057.0 133623.0 51939.0 57469.0 241768.0 233477.0 347760.0 352135.0 25501.0 23734.0 326258.0 319152.0 277659.0 277480.0 276038.0 278273.0 131737.0 129852.0 178638.0 180731.0 51844.0 44542.0 196260.0 196426.0 286327.0 281700.0 232582.0 232018.0 166019.0 173782.0 150048.0 152209.0 97463.0 104749.0 293006.0 292056.0 110635.0 117320.0 198671.0 206312.0 157666.0 160533.0 260916.0 254638.0 212555.0 206264.0 230311.0 223236.0 163005.0 160598.0 195880.0 187652.0 272011.0 269695.0 187272.0 181523.0 325725.0 317723.0 282752.0 284169.0 197982.0 192604.0 284593.0 247775.0 284593.0 284593.0 247775.0 247775.0
8088.0 0.0 249904.0 243235.0 257780.0 250420.0 164684.0 171646.0 228476.0 220664.0 183259.0 191194.0 189128.0 197650.0 45856.0 50515.0 185447.0 191512.0 45137.0 53206.0 75296.0 77705.0 323215.0 328395.0 205488.0 200649.0 136137.0 141844.0 202738.0 194767.0 197925.0 195707.0 244800.0 247801.0 143808.0 135811.0 287435.0 284737.0 246123.0 238114.0 159005.0 153213.0 241479.0 241071.0 100135.0 94558.0 208916.0 201968.0 219370.0 223863.0 260928.0 263211.0 160178.0 160614.0 168882.0 172371.0 184239.0 177170.0 26743.0 34774.0 238263.0 232661.0 165581.0 162695.0 216952.0 212937.0 141868.0 148110.0 91183.0 99530.0 291473.0 299400.0 152119.0 152328.0 362087.0 356391.0 138268.0 144948.0 283407.0 281013.0 105813.0 97687.0 243824.0 248503.0 224008.0 219348.0 207299.0 212921.0 232118.0 224578.0 183533.0 191094.0 281773.0 287424.0 260080.0 253872.0 122015.0 129977.0 129033.0 131040.0 57028.0 63110.0 238151.0 229886.0 353243.0 357730.0 28965.0 24880.0 332561.0 325391.0 281835.0 281856.0 273774.0 276214.0 127660.0 126211.0 174711.0 176493.0 43951.0 36825.0 194787.0 195279.0 291243.0 286774.0 235216.0 234917.0 167285.0 174884.0 146192.0 147989.0 95516.0 102528.0 289548.0 288812.0 106284.0 113228.0 196668.0 204203.0 156971.0 159443.0 265685.0 259545.0 208647.0 202519.0 227014.0 220086.0 165074.0 162298.0 194869.0 186550.0 269793.0 267256.0 184315.0 178807.0 330993.0 322952.0 279304.0 280931.0 202382.0 197213.0 283373.0 250835.0 283373.0 283373.0 250835.0 250835.0
244184.0 249904.0 0.0 7751.0 244231.0 237884.0 226626.0 232876.0 36588.0 42561.0 164689.0 164432.0 154640.0 154059.0 217594.0 220014.0 230539.0 237289.0 255256.0 256394.0 222378.0 229558.0 73415.0 78967.0 284592.0 287666.0 268473.0 264741.0 307561.0 301675.0 189928.0 197081.0 93181.0 86271.0 263012.0 258616.0 273769.0 278356.0 301956.0 296174.0 143187.0 150270.0 270021.0 262793.0 197394.0 193941.0 272813.0 265960.0 94107.0 86936.0 253787.0 261304.0 195552.0 203557.0 139159.0 145595.0 111581.0 111433.0 268367.0 275049.0 24302.0 23540.0 121802.0 129735.0 74095.0 69056.0 265554.0 272533.0 263632.0 267531.0 50080.0 57474.0 154293.0 162421.0 112594.0 107439.0 235853.0 241896.0 280750.0 284895.0 231716.0 230025.0 250862.0 247137.0 117369.0 110896.0 222718.0 230250.0 252296.0 245857.0 211928.0 216166.0 315110.0 322958.0 273941.0 266058.0 283841.0 289312.0 229846.0 222489.0 193009.0 186814.0 284782.0 279470.0 104152.0 108085.0 221755.0 228269.0 87943.0 79904.0 71600.0 64916.0 266971.0 262450.0 248119.0 240034.0 261237.0 269226.0 275705.0 268326.0 211027.0 203368.0 54664.0 46836.0 108925.0 100782.0 148945.0 150966.0 249298.0 257255.0 213889.0 216590.0 312053.0 305120.0 247481.0 244881.0 224272.0 229400.0 189062.0 196910.0 42682.0 35143.0 276597.0 269399.0 270050.0 262650.0 133708.0 141776.0 200027.0 200464.0 263359.0 268240.0 242591.0 235227.0 84170.0 76892.0 305011.0 299831.0 66146.0 65290.0 248445.0 97988.0 248445.0 248445.0 97988.0 97988.0
237610.0 243235.0 7751.0 0.0 237746.0 231315.0 218995.0 225280.0 29453.0 35043.0 157292.0 157158.0 147330.0 146906.0 210437.0 212758.0 223062.0 229849.0 247987.0 249042.0 214835.0 221987.0 79983.0 85255.0 277094.0 280117.0 260722.0 256993.0 299952.0 294041.0 182719.0 189819.0 87963.0 81340.0 255267.0 250865.0 267556.0 272027.0 294772.0 288935.0 135482.0 142548.0 263018.0 255840.0 189722.0 186319.0 265398.0 258511.0 87502.0 80513.0 247265.0 254747.0 187916.0 195921.0 131528.0 138022.0 104029.0 103773.0 261416.0 268040.0 17897.0 15995.0 114081.0 122019.0 67183.0 61855.0 257806.0 264789.0 256001.0 259865.0 53568.0 61277.0 146572.0 154713.0 119702.0 114706.0 228111.0 234166.0 274365.0 278414.0 223998.0 222337.0 244052.0 240444.0 110986.0 104336.0 215523.0 223097.0 245286.0 238780.0 204479.0 208789.0 308308.0 316162.0 267199.0 259285.0 276118.0 281576.0 222096.0 214740.0 186279.0 180186.0 277623.0 272244.0 110307.0 114526.0 214976.0 221406.0 95641.0 87582.0 70555.0 64434.0 260558.0 256141.0 240368.0 232283.0 253601.0 261582.0 268555.0 261215.0 203711.0 196082.0 57164.0 49846.0 103054.0 94937.0 141325.0 143437.0 241565.0 249521.0 206218.0 208885.0 305412.0 298546.0 239767.0 237147.0 216934.0 222134.0 181404.0 189269.0 41635.0 33554.0 269162.0 261940.0 262850.0 255410.0 126023.0 134092.0 192745.0 193073.0 256908.0 261685.0 235070.0 227680.0 89529.0 81997.0 298275.0 293178.0 58488.0 57541.0 242216.0 93095.0 242216.0 242216.0 93095.0 93095.0
259559.0 257780.0 244231.0 237746.0 0.0 8000.0 94713.0 89330.0 208615.0 204737.0 96663.0 91759.0 100987.0 97047.0 214115.0 207970.0 74242.0 70148.0 221902.0 215415.0 182608.0 181297.0 283821.0 284030.0 92809.0 100765.0 146169.0 137631.0 121595.0 122064.0 69544.0 67481.0 155235.0 163227.0 134385.0 139106.0 33542.0 35431.0 77541.0 76652.0 132661.0 131823.0 43029.0 35505.0 159889.0 167072.0 77378.0 78026.0 150261.0 157295.0 9783.0 17574.0 99906.0 97813.0 128055.0 119697.0 144670.0 149737.0 251718.0 251715.0 219994.0 222555.0 147979.0 142225.0 170972.0 177344.0 138236.0 137800.0 185563.0 180699.0 242000.0 246486.0 129597.0 123410.0 323732.0 322604.0 124369.0 120269.0 37057.0 40667.0 154854.0 162236.0 20956.0 12705.0 126882.0 133415.0 50482.0 45297.0 34802.0 38536.0 74447.0 66734.0 74009.0 81486.0 33760.0 28234.0 173638.0 171387.0 131534.0 127802.0 229004.0 231411.0 62932.0 64129.0 302593.0 309446.0 238053.0 236407.0 317399.0 309464.0 205971.0 211828.0 23163.0 20893.0 140598.0 138032.0 102051.0 106722.0 242108.0 240848.0 63749.0 65320.0 235363.0 238079.0 136643.0 144680.0 120770.0 113325.0 122910.0 126122.0 162266.0 155351.0 68525.0 61116.0 160947.0 152943.0 61349.0 54290.0 104997.0 100259.0 215929.0 218129.0 81411.0 80565.0 56691.0 56444.0 136244.0 131063.0 66908.0 73984.0 19247.0 24339.0 80163.0 82718.0 277477.0 269310.0 62922.0 56574.0 185994.0 191532.0 33292.0 155105.0 33292.0 33292.0 155105.0 155105.0
252105.0 250420.0 237884.0 231315.0 8000.0 0.0 87966.0 82921.0 202097.0 198064.0 88779.0 83989.0 93304.0 89567.0 206581.0 200503.0 67735.0 64141.0 214960.0 208565.0 175321.0 174164.0 278087.0 278296.0 90303.0 98094.0 140718.0 132179.0 119490.0 119445.0 61562.0 59491.0 149501.0 157493.0 128915.0 133347.0 41497.0 43027.0 78702.0 76989.0 124745.0 123851.0 43208.0 35168.0 152247.0 159371.0 74554.0 74427.0 143815.0 150970.0 16165.0 23438.0 92130.0 90216.0 120238.0 111867.0 137259.0 142204.0 244723.0 244851.0 213615.0 216023.0 140240.0 134413.0 164385.0 170627.0 132811.0 132729.0 179269.0 174600.0 236266.0 240752.0 121610.0 115410.0 317998.0 316870.0 117852.0 114042.0 44365.0 47369.0 147962.0 155247.0 19599.0 11791.0 120644.0 126994.0 43191.0 38573.0 31912.0 34071.0 66942.0 59327.0 78764.0 86413.0 37602.0 30861.0 168266.0 166296.0 124747.0 120795.0 221158.0 223518.0 63128.0 63278.0 296859.0 303712.0 230449.0 228894.0 311665.0 303730.0 200237.0 206094.0 30581.0 28857.0 134385.0 131546.0 97214.0 102304.0 235373.0 233972.0 56062.0 57410.0 229629.0 232345.0 130833.0 138810.0 112872.0 105477.0 116986.0 120529.0 154909.0 148079.0 74285.0 67236.0 154468.0 146469.0 54351.0 47611.0 97132.0 92514.0 210178.0 212325.0 78762.0 77197.0 55079.0 53685.0 128428.0 123175.0 58950.0 66105.0 26463.0 30377.0 74456.0 76485.0 271743.0 263576.0 67963.0 62142.0 179003.0 184420.0 35337.0 149371.0 35337.0 35337.0 149371.0 149371.0
167185.0 164684.0 226626.0 218995.0 94713.0 87966.0 0.0 8408.0 190782.0 184132.0 66367.0 70455.0 77804.0 82729.0 122977.0 116149.0 20811.0 27039.0 127278.0 120711.0 89480.0 87280.0 284386.0 286135.0 61408.0 62545.0 59633.0 51850.0 81060.0 75050.0 54749.0 47748.0 160864.0 168028.0 48763.0 50121.0 122891.0 120053.0 92752.0 84895.0 84272.0 78110.0 78243.0 76826.0 72110.0 80224.0 54803.0 46765.0 142255.0 150204.0 96776.0 98619.0 31084.0 23081.0 87467.0 81305.0 115285.0 115258.0 157159.0 157015.0 203777.0 203090.0 105849.0 97865.0 156547.0 159254.0 52674.0 56222.0 91965.0 88059.0 242808.0 248841.0 74147.0 65593.0 325974.0 323520.0 30266.0 28282.0 118764.0 116638.0 60214.0 67784.0 79265.0 84435.0 127969.0 129610.0 45489.0 49436.0 67471.0 59898.0 26800.0 31413.0 123054.0 129856.0 95860.0 89332.0 86313.0 86686.0 36822.0 33652.0 143775.0 147849.0 79788.0 71678.0 305889.0 312721.0 147533.0 144781.0 311819.0 303584.0 212133.0 216865.0 109185.0 111993.0 47905.0 43938.0 34617.0 42661.0 147417.0 146155.0 37861.0 43069.0 237819.0 238219.0 142344.0 147772.0 77691.0 76508.0 33672.0 40166.0 70060.0 62503.0 128449.0 126368.0 66764.0 58808.0 33796.0 40424.0 37806.0 29760.0 213702.0 212414.0 57022.0 49231.0 66016.0 58104.0 93267.0 85226.0 44964.0 37756.0 105269.0 102572.0 22465.0 15036.0 280773.0 272605.0 118278.0 118523.0 160515.0 162355.0 123494.0 162894.0 123494.0 123494.0 162894.0 162894.0
174353.0 171646.0 232876.0 225280.0 89330.0 82921.0 8408.0 0.0 196845.0 190332.0 70887.0 74248.0 82222.0 86506.0 130510.0 123563.0 15231.0 19933.0 133364.0 126584.0 96628.0 94033.0 289531.0 291110.0 53643.0 55300.0 60697.0 52477.0 74711.0 69137.0 56077.0 48547.0 164901.0 172214.0 49248.0 51928.0 116432.0 113257.0 84344.0 76492.0 91184.0 85297.0 70488.0 69476.0 80270.0 88418.0 46460.0 38431.0 147119.0 155110.0 90753.0 92142.0 37806.0 29943.0 93833.0 87310.0 121348.0 121696.0 163306.0 162863.0 209816.0 209336.0 112690.0 104736.0 162077.0 165075.0 53247.0 55659.0 96354.0 91865.0 247810.0 253697.0 81382.0 72808.0 331000.0 328702.0 35072.0 31263.0 111801.0 109395.0 66464.0 74279.0 72906.0 78541.0 131844.0 133922.0 41647.0 44415.0 60561.0 53288.0 27157.0 29691.0 114820.0 121571.0 88511.0 82229.0 88007.0 87602.0 42934.0 40755.0 151911.0 156070.0 71450.0 63316.0 310631.0 317484.0 155114.0 152164.0 317570.0 309338.0 216321.0 221270.0 102691.0 105861.0 51562.0 48706.0 29152.0 37319.0 152977.0 152046.0 36756.0 43113.0 242629.0 243267.0 146116.0 151845.0 83996.0 82202.0 35192.0 40485.0 77587.0 69901.0 120426.0 118533.0 71617.0 63613.0 29859.0 35411.0 44823.0 36617.0 218831.0 217792.0 48782.0 40979.0 57825.0 50010.0 99951.0 91961.0 45498.0 39350.0 98873.0 95787.0 14089.0 7169.0 285515.0 277347.0 110230.0 110669.0 166853.0 168949.0 119091.0 166617.0 119091.0 119091.0 166617.0 166617.0
223525.0 228476.0 36588.0 29453.0 208615.0 202097.0 190782.0 196845.0 0.0 7996.0 128190.0 127848.0 118069.0 117489.0 192297.0 193754.0 194150.0 200832.0 228667.0 228982.0 192957.0 199731.0 99379.0 103180.0 248236.0 251439.0 234548.0 230415.0 271556.0 265807.0 153342.0 160494.0 62146.0 56622.0 228547.0 224520.0 238759.0 243071.0 265378.0 259586.0 108123.0 115476.0 233565.0 226391.0 166172.0 163564.0 236318.0 229514.0 58385.0 51728.0 218090.0 225534.0 159761.0 167757.0 103429.0 109542.0 75511.0 76024.0 244569.0 250725.0 13010.0 13949.0 87137.0 94914.0 37782.0 32468.0 231242.0 238025.0 232827.0 236138.0 63223.0 71069.0 119459.0 127351.0 140943.0 136986.0 201316.0 207061.0 245337.0 249274.0 199364.0 198346.0 214651.0 211116.0 82126.0 75235.0 186136.0 193683.0 215833.0 209335.0 175491.0 179635.0 278906.0 286763.0 237834.0 229901.0 251233.0 256330.0 195820.0 188305.0 171603.0 166291.0 248213.0 242883.0 126844.0 132327.0 199675.0 205448.0 121574.0 113360.0 61164.0 57972.0 231501.0 227217.0 214353.0 206266.0 225396.0 233434.0 250144.0 243148.0 174455.0 166785.0 62806.0 58446.0 75254.0 67280.0 113124.0 114746.0 214491.0 222474.0 182610.0 184607.0 276117.0 269310.0 215193.0 212049.0 187711.0 192813.0 153426.0 161151.0 37930.0 31140.0 240128.0 232968.0 233467.0 226062.0 98453.0 106475.0 163443.0 163949.0 227808.0 232474.0 206301.0 199013.0 103285.0 95087.0 268911.0 263875.0 31341.0 32994.0 213451.0 68145.0 213451.0 213451.0 68145.0 68145.0
215766.0 220664.0 42561.0 35043.0 204737.0 198064.0 184132.0 190332.0 7996.0 0.0 122282.0 122294.0 112418.0 112272.0 184326.0 185764.0 188019.0 194812.0 220673.0 220989.0 185008.0 191804.0 107286.0 111144.0 242054.0 245105.0 227158.0 223128.0 265027.0 259180.0 147948.0 154960.0 62063.0 57363.0 221301.0 217170.0 235338.0 239436.0 260004.0 254085.0 101031.0 108285.0 228607.0 221547.0 158334.0 155658.0 230371.0 223470.0 55033.0 49060.0 214127.0 221494.0 153070.0 161074.0 96681.0 103039.0 69021.0 69063.0 236634.0 242771.0 20324.0 19050.0 79868.0 87712.0 33908.0 27481.0 223953.0 230795.0 224975.0 228340.0 71170.0 78996.0 112286.0 120276.0 148788.0 144746.0 194084.0 199930.0 241596.0 245351.0 191670.0 190568.0 210118.0 206825.0 78999.0 71755.0 180761.0 188406.0 210872.0 204227.0 169440.0 173790.0 274342.0 282208.0 233417.0 225430.0 243592.0 248752.0 188442.0 180966.0 163834.0 158592.0 242902.0 237417.0 134839.0 140309.0 191841.0 197569.0 128799.0 120605.0 67063.0 64480.0 227726.0 223641.0 206919.0 198830.0 218748.0 226755.0 242160.0 235171.0 168775.0 161186.0 70579.0 66381.0 73407.0 65669.0 106441.0 108408.0 207352.0 215328.0 174784.0 176859.0 271869.0 265194.0 207496.0 204433.0 181971.0 187258.0 146639.0 154440.0 45342.0 38881.0 234125.0 226897.0 228064.0 220564.0 91438.0 99489.0 157856.0 158065.0 223966.0 228431.0 200038.0 192666.0 111265.0 103062.0 264484.0 259613.0 23940.0 25041.0 210164.0 68493.0 210164.0 210164.0 68493.0 68493.0
182809.0 183259.0 164689.0 157292.0 96663.0 88779.0 66367.0 70887.0 128190.0 122282.0 0.0 7938.0 11448.0 17782.0 137403.0 133371.0 66183.0 72671.0 158413.0 154339.0 114751.0 117337.0 218769.0 220256.0 120275.0 123917.0 120894.0 114468.0 144860.0 139776.0 28320.0 33833.0 94573.0 101673.0 111816.0 110506.0 130180.0 131631.0 138531.0 132259.0 36096.0 36379.0 109413.0 103268.0 84642.0 88999.0 108129.0 101361.0 76265.0 84270.0 104332.0 110399.0 38378.0 45279.0 31769.0 23352.0 54119.0 56887.0 185326.0 187962.0 140984.0 141305.0 52319.0 45894.0 92079.0 95857.0 115335.0 120477.0 138537.0 137941.0 176975.0 182815.0 35100.0 31671.0 260160.0 257956.0 86290.0 89291.0 132540.0 134249.0 100550.0 104345.0 94773.0 94011.0 61892.0 63244.0 59948.0 68003.0 92019.0 84533.0 47404.0 51514.0 157012.0 164820.0 118193.0 110003.0 144332.0 146860.0 85360.0 77731.0 142523.0 143183.0 121732.0 115738.0 239746.0 246598.0 158375.0 159122.0 247633.0 239417.0 145771.0 150517.0 119095.0 117533.0 103513.0 96341.0 100037.0 108204.0 181461.0 177470.0 46780.0 39567.0 171743.0 172458.0 76335.0 81475.0 24129.0 16859.0 96378.0 104030.0 95195.0 91679.0 156982.0 151596.0 114198.0 107888.0 59795.0 65544.0 35202.0 39936.0 148090.0 147336.0 111946.0 104840.0 106632.0 98851.0 39914.0 34401.0 36352.0 35783.0 114847.0 116927.0 78704.0 71872.0 214629.0 206462.0 148339.0 144921.0 99787.0 103326.0 112043.0 96878.0 112043.0 112043.0 96878.0 96878.0
190727.0 191194.0 164432.0 157158.0 91759.0 83989.0 70455.0 74248.0 127848.0 122294.0 7938.0 0.0 10039.0 12281.0 145338.0 141306.0 68017.0 73961.0 166209.0 162062.0 122557.0 125036.0 216412.0 217646.0 121791.0 125885.0 126498.0 119811.0 147280.0 142534.0 25859.0 32666.0 90654.0 98001.0 117064.0 116164.0 125150.0 126997.0 137752.0 131792.0 42083.0 43282.0 107363.0 100840.0 92534.0 96933.0 108960.0 102536.0 73960.0 81982.0 99807.0 106171.0 44218.0 50547.0 36378.0 28122.0 55495.0 59248.0 193211.0 195804.0 140481.0 141220.0 56264.0 50515.0 91022.0 95386.0 120676.0 125509.0 145635.0 144817.0 174474.0 180081.0 42357.0 39449.0 257577.0 255601.0 92112.0 94635.0 128113.0 130191.0 107708.0 111721.0 91378.0 89989.0 57607.0 59852.0 58575.0 66386.0 89754.0 82605.0 49230.0 52221.0 154477.0 162323.0 114928.0 106740.0 150492.0 152749.0 91768.0 84250.0 150178.0 150716.0 120722.0 115126.0 236842.0 243695.0 166263.0 167044.0 246168.0 237974.0 142094.0 147153.0 114500.0 112534.0 109639.0 102655.0 103328.0 111478.0 189225.0 185292.0 46665.0 38938.0 168958.0 170041.0 71927.0 77605.0 30089.0 21982.0 101567.0 109069.0 102898.0 99221.0 153813.0 148120.0 121080.0 114598.0 59989.0 64976.0 41863.0 45753.0 145873.0 145552.0 112939.0 106084.0 105802.0 98270.0 44550.0 40002.0 35595.0 36902.0 110298.0 112829.0 80884.0 74513.0 211725.0 203558.0 145448.0 141660.0 100443.0 104532.0 105770.0 92464.0 105770.0 105770.0 92464.0 92464.0
188245.0 189128.0 154640.0 147330.0 100987.0 93304.0 77804.0 82222.0 118069.0 112418.0 11448.0 10039.0 0.0 8532.0 143363.0 139810.0 76990.0 83216.0 166293.0 162578.0 122662.0 125751.0 207612.0 209018.0 130978.0 134834.0 132086.0 125759.0 155965.0 150990.0 35893.0 42583.0 83126.0 90228.0 123137.0 121681.0 134238.0 136331.0 147703.0 141684.0 35101.0 37822.0 117400.0 110858.0 92033.0 95668.0 118447.0 111873.0 65069.0 73088.0 109235.0 115732.0 49612.0 56658.0 28015.0 20301.0 45465.0 49363.0 192526.0 195512.0 130757.0 131375.0 47070.0 41868.0 81477.0 85629.0 126627.0 131847.0 148388.0 148118.0 165763.0 171537.0 37761.0 36857.0 248934.0 246804.0 97414.0 100598.0 137556.0 139802.0 110373.0 113735.0 101243.0 99657.0 50495.0 51806.0 68571.0 76410.0 99786.0 92643.0 58164.0 61681.0 164474.0 172323.0 124807.0 116625.0 155199.0 157898.0 96108.0 88403.0 145930.0 145994.0 130703.0 125041.0 228424.0 235277.0 163424.0 164685.0 236861.0 228655.0 134329.0 139106.0 123869.0 121662.0 114442.0 107146.0 111374.0 119540.0 189474.0 185166.0 56387.0 48769.0 160449.0 161273.0 64946.0 70028.0 23619.0 15185.0 107723.0 115404.0 103660.0 100694.0 163699.0 157926.0 124400.0 118307.0 69649.0 74848.0 45970.0 51174.0 136968.0 136391.0 122362.0 115392.0 115752.0 108172.0 36012.0 32578.0 45442.0 46128.0 119698.0 122440.0 89677.0 83009.0 203308.0 195140.0 155394.0 151527.0 90444.0 94495.0 113808.0 85477.0 113808.0 113808.0 85477.0 85477.0
196744.0 197650.0 154059.0 146906.0 97047.0 89567.0 82729.0 86506.0 117489.0 112272.0 17782.0 12281.0 8532.0 0.0 151892.0 148341.0 79942.0 85651.0 174706.0 170923.0 131059.0 134046.0 204597.0 205721.0 133474.0 137756.0 138421.0 131847.0 159295.0 154648.0 35985.0 43459.0 78411.0 85801.0 129134.0 128057.0 129940.0 132478.0 147903.0 142214.0 42654.0 45967.0 116428.0 109534.0 100491.0 104186.0 120317.0 114090.0 62372.0 70371.0 105663.0 112449.0 55956.0 62560.0 34707.0 27703.0 47737.0 52714.0 201025.0 203976.0 129949.0 131050.0 52282.0 47949.0 80218.0 85052.0 132712.0 137650.0 156137.0 155658.0 162615.0 168122.0 46114.0 45389.0 245653.0 243774.0 103907.0 106660.0 133932.0 136580.0 118128.0 121704.0 98972.0 96722.0 45338.0 47794.0 68689.0 76194.0 98705.0 91959.0 61226.0 63761.0 162812.0 170680.0 122522.0 114388.0 162074.0 164519.0 103135.0 95512.0 154164.0 154100.0 130725.0 125481.0 224819.0 231672.0 171894.0 173195.0 234821.0 226645.0 129874.0 135002.0 120124.0 117466.0 121241.0 114106.0 115565.0 123709.0 197868.0 193609.0 57827.0 49919.0 156985.0 158223.0 59647.0 65379.0 31617.0 23308.0 113652.0 121203.0 111932.0 108801.0 161363.0 155276.0 131918.0 125655.0 71193.0 75643.0 52984.0 57507.0 134172.0 134094.0 124375.0 117665.0 116015.0 108716.0 42326.0 39909.0 46570.0 48759.0 116031.0 119261.0 92891.0 86655.0 199703.0 191536.0 153383.0 149130.0 91179.0 95848.0 108260.0 80183.0 108260.0 108260.0 80183.0 80183.0
45960.0 45856.0 217594.0 210437.0 214115.0 206581.0 122977.0 130510.0 192297.0 184326.0 137403.0 145338.0 143363.0 151892.0 0.0 7871.0 143411.0 150016.0 38714.0 42115.0 35210.0 40800.0 289912.0 294522.0 170158.0 166440.0 105988.0 109749.0 172450.0 164324.0 152534.0 150652.0 202205.0 205781.0 110975.0 102797.0 244673.0 242490.0 209504.0 201395.0 113959.0 107864.0 200982.0 199803.0 54841.0 48827.0 171251.0 163809.0 176782.0 181847.0 217837.0 220623.0 115320.0 116389.0 123863.0 126953.0 141046.0 134371.0 53141.0 58642.0 203145.0 198274.0 122273.0 118663.0 176440.0 173250.0 109998.0 117296.0 68714.0 76632.0 255483.0 263268.0 106586.0 106532.0 330138.0 325019.0 99416.0 106923.0 241443.0 239571.0 67926.0 59746.0 201255.0 205417.0 179700.0 175461.0 163727.0 169806.0 190255.0 182444.0 139668.0 147417.0 243654.0 249812.0 218835.0 212204.0 100271.0 108358.0 89411.0 89866.0 35042.0 42716.0 199767.0 191445.0 318823.0 323894.0 24648.0 22365.0 303349.0 295771.0 242074.0 242821.0 231141.0 233112.0 92654.0 89174.0 138094.0 141291.0 58119.0 50887.0 150615.0 150581.0 254388.0 250676.0 191450.0 191710.0 121781.0 129247.0 109690.0 113183.0 52931.0 60640.0 250392.0 248924.0 73616.0 78812.0 153563.0 161324.0 111710.0 114686.0 228349.0 222868.0 171617.0 164861.0 187516.0 180115.0 120565.0 117262.0 149981.0 141792.0 227058.0 225063.0 143891.0 137655.0 295577.0 287384.0 240141.0 241043.0 164080.0 159855.0 238750.0 207941.0 238750.0 238750.0 207941.0 207941.0
51607.0 50515.0 220014.0 212758.0 207970.0 200503.0 116149.0 123563.0 193754.0 185764.0 133371.0 141306.0 139810.0 148341.0 7871.0 0.0 136695.0 143176.0 35253.0 37323.0 27625.0 32965.0 291922.0 296377.0 162508.0 158716.0 98117.0 101898.0 164593.0 156468.0 147412.0 145227.0 201207.0 205055.0 103143.0 94963.0 238232.0 235903.0 201988.0 193883.0 111560.0 105139.0 193981.0 192956.0 49634.0 44380.0 163812.0 156420.0 175853.0 181185.0 211488.0 214120.0 109738.0 110430.0 121450.0 124067.0 139911.0 133489.0 54019.0 58633.0 204872.0 200220.0 121160.0 117096.0 176455.0 173600.0 102142.0 109430.0 61312.0 69120.0 256827.0 264555.0 103599.0 102960.0 332421.0 327445.0 92011.0 99433.0 234782.0 232786.0 60302.0 52090.0 194735.0 199060.0 177731.0 173790.0 157518.0 163436.0 183539.0 175792.0 133561.0 141237.0 236318.0 242420.0 211996.0 205457.0 92695.0 100758.0 82091.0 82839.0 41985.0 49488.0 192438.0 184116.0 320498.0 325715.0 32023.0 28638.0 306293.0 298639.0 242211.0 243219.0 224656.0 226773.0 84886.0 81541.0 130514.0 133604.0 56481.0 49855.0 144657.0 144910.0 255475.0 251998.0 189820.0 190410.0 118786.0 126009.0 102056.0 105437.0 46124.0 53669.0 243199.0 241844.0 65748.0 70991.0 147176.0 154869.0 106457.0 109035.0 229346.0 224082.0 164111.0 157415.0 180335.0 173004.0 118627.0 114858.0 144434.0 136155.0 220601.0 218453.0 136820.0 130722.0 297013.0 288791.0 232944.0 233960.0 164968.0 161079.0 233058.0 206777.0 233058.0 233058.0 206777.0 206777.0
187867.0 185447.0 230539.0 223062.0 74242.0 67735.0 20811.0 15231.0 194150.0 188019.0 66183.0 68017.0 76990.0 79942.0 143411.0 136695.0 0.0 7924.0 147995.0 141346.0 110202.0 108089.0 284428.0 285644.0 54109.0 57874.0 75234.0 66863.0 79391.0 75048.0 46338.0 38382.0 157982.0 165537.0 63595.0 66826.0 102081.0 99308.0 77878.0 70521.0 91774.0 86869.0 58734.0 56589.0 91479.0 99419.0 42906.0 35581.0 141938.0 149964.0 76012.0 77811.0 40189.0 33657.0 92819.0 85494.0 119156.0 120491.0 177900.0 177648.0 207010.0 207068.0 112741.0 104984.0 158262.0 161931.0 67596.0 69255.0 111567.0 107093.0 242490.0 248058.0 83191.0 74764.0 325576.0 323618.0 50138.0 46485.0 98096.0 96180.0 80952.0 88579.0 58454.0 63704.0 124851.0 127735.0 26677.0 29196.0 46847.0 39143.0 18826.0 17468.0 105084.0 112221.0 75556.0 68795.0 102715.0 101917.0 57481.0 54444.0 163009.0 166717.0 63111.0 55505.0 304759.0 311612.0 167896.0 165334.0 313798.0 305585.0 209472.0 214819.0 88378.0 91209.0 66793.0 63820.0 38148.0 45835.0 167906.0 166804.0 24671.0 32174.0 236924.0 238058.0 138827.0 145069.0 83023.0 79746.0 50134.0 54870.0 90572.0 83126.0 109464.0 106834.0 86742.0 78741.0 15059.0 20182.0 47409.0 39477.0 213865.0 213381.0 46342.0 38928.0 48370.0 40105.0 99717.0 92009.0 35122.0 31185.0 84458.0 81832.0 13130.0 9610.0 279643.0 271475.0 99426.0 99059.0 165022.0 167816.0 103862.0 159119.0 103862.0 103862.0 159119.0 159119.0
194133.0 191512.0 237289.0 229849.0 70148.0 64141.0 27039.0 19933.0 200832.0 194812.0 72671.0 73961.0 83216.0 85651.0 150016.0 143176.0 7924.0 0.0 153253.0 146422.0 116406.0 113940.0 290248.0 291323.0 47835.0 52298.0 76955.0 68450.0 74362.0 70618.0 50984.0 43001.0 163216.0 170860.0 65170.0 69249.0 96527.0 93327.0 69988.0 62676.0 99334.0 94571.0 51406.0 49787.0 98686.0 106695.0 35645.0 28690.0 147907.0 155927.0 71054.0 72243.0 48086.0 41577.0 100096.0 92627.0 126093.0 127656.0 183202.0 182680.0 213647.0 213855.0 120169.0 112460.0 164659.0 168526.0 69126.0 69891.0 115469.0 110553.0 248259.0 253699.0 90927.0 82533.0 331249.0 329422.0 54772.0 50174.0 91901.0 89627.0 86394.0 94210.0 53065.0 58961.0 130146.0 133359.0 26221.0 26432.0 40636.0 33387.0 25384.0 21973.0 97331.0 104419.0 68824.0 62373.0 104549.0 103140.0 62865.0 60513.0 170306.0 174133.0 55196.0 47582.0 310307.0 317159.0 174570.0 171804.0 320067.0 311864.0 214649.0 220162.0 82783.0 86080.0 70476.0 68277.0 36383.0 43420.0 172688.0 171880.0 28608.0 36540.0 242549.0 243873.0 143944.0 150397.0 90341.0 86758.0 52845.0 56622.0 97097.0 89516.0 101966.0 99559.0 91109.0 83115.0 16293.0 18113.0 55294.0 47391.0 219794.0 219507.0 39313.0 32182.0 40506.0 32267.0 107122.0 99483.0 39729.0 37098.0 78992.0 75855.0 10919.0 12870.0 285190.0 277023.0 91878.0 91746.0 171967.0 174924.0 100912.0 164086.0 100912.0 100912.0 164086.0 164086.0
51266.0 45137.0 255256.0 247987.0 221902.0 214960.0 127278.0 133364.0 228667.0 220673.0 158413.0 166209.0 166293.0 174706.0 38714.0 35253.0 147995.0 153253.0 0.0 8092.0 43670.0 41879.0 327059.0 331452.0 162315.0 157036.0 91867.0 98104.0 158004.0 150094.0 167883.0 164304.0 233256.0 237550.0 100314.0 92551.0 249780.0 246381.0 203301.0 195395.0 141519.0 134464.0 201492.0 201893.0 74380.0 72051.0 166997.0 160460.0 208119.0 213862.0 224004.0 225496.0 129045.0 127709.0 151233.0 152670.0 172032.0 166062.0 29957.0 30184.0 239920.0 235356.0 153462.0 148658.0 210088.0 207627.0 98046.0 103867.0 46193.0 54478.0 291630.0 299314.0 132315.0 130117.0 367632.0 362682.0 98638.0 104407.0 244699.0 241701.0 67066.0 59734.0 206267.0 211695.0 207974.0 204691.0 171896.0 176609.0 193737.0 186639.0 149182.0 156194.0 239628.0 244941.0 220705.0 215035.0 76898.0 84889.0 90517.0 94179.0 71642.0 79453.0 196455.0 188297.0 355480.0 360769.0 48697.0 40690.0 341524.0 333880.0 275863.0 277180.0 236035.0 239176.0 85628.0 85576.0 132565.0 133554.0 23290.0 19338.0 160875.0 162727.0 290090.0 286789.0 220716.0 221952.0 147193.0 153637.0 104532.0 105311.0 63636.0 68712.0 248082.0 247936.0 63868.0 71436.0 160613.0 167643.0 127441.0 128018.0 263906.0 258815.0 166338.0 160664.0 186264.0 179821.0 149462.0 144756.0 162911.0 154368.0 232236.0 228962.0 144996.0 140385.0 331860.0 323622.0 237899.0 240099.0 199517.0 195880.0 249526.0 238506.0 249526.0 249526.0 238506.0 238506.0
59230.0 53206.0 256394.0 249042.0 215415.0 208565.0 120711.0 126584.0 228982.0 220989.0 154339.0 162062.0 162578.0 170923.0 42115.0 37323.0 141346.0 146422.0 8092.0 0.0 40154.0 37058.0 327744.0 331987.0 154493.0 149137.0 83885.0 90223.0 149933.0 142031.0 162701.0 158857.0 231403.0 235922.0 92482.0 84782.0 242920.0 239393.0 195522.0 187637.0 139058.0 131816.0 194239.0 194794.0 71185.0 69705.0 159406.0 152957.0 206425.0 212376.0 217312.0 218650.0 123841.0 122128.0 148656.0 149672.0 170360.0 164641.0 37176.0 36304.0 240453.0 236093.0 151948.0 146813.0 209201.0 207038.0 90149.0 95883.0 38106.0 46386.0 291735.0 299357.0 129474.0 126801.0 368548.0 363738.0 91694.0 97225.0 237646.0 234539.0 60613.0 53630.0 199477.0 205043.0 205377.0 202370.0 165604.0 170121.0 186804.0 179804.0 143183.0 150053.0 231952.0 237205.0 213549.0 207987.0 68870.0 76884.0 83892.0 87929.0 76306.0 84115.0 188882.0 180751.0 355825.0 361249.0 55110.0 47339.0 343091.0 335377.0 274900.0 276450.0 229173.0 232443.0 78165.0 78457.0 124968.0 125797.0 27441.0 25463.0 154924.0 157050.0 289963.0 286881.0 218357.0 219877.0 144160.0 150323.0 97095.0 97646.0 59170.0 63592.0 240522.0 240481.0 56409.0 64101.0 154219.0 161126.0 122595.0 122757.0 263740.0 258854.0 158673.0 153092.0 178880.0 172538.0 147302.0 142255.0 157356.0 148802.0 225412.0 222002.0 137963.0 133554.0 332003.0 323746.0 230355.0 232658.0 199418.0 196078.0 243402.0 236487.0 243402.0 243402.0 236487.0 236487.0
77729.0 75296.0 222378.0 214835.0 182608.0 175321.0 89480.0 96628.0 192957.0 185008.0 114751.0 122557.0 122662.0 131059.0 35210.0 27625.0 110202.0 116406.0 43670.0 40154.0 0.0 8039.0 292257.0 296130.0 134949.0 131286.0 72280.0 75277.0 137945.0 129825.0 125153.0 122085.0 191768.0 196503.0 76280.0 68149.0 212143.0 209510.0 174362.0 166258.0 99079.0 91752.0 166861.0 166104.0 31032.0 30242.0 136206.0 128844.0 166977.0 173152.0 185640.0 187928.0 86533.0 86073.0 108608.0 109519.0 131010.0 125627.0 71331.0 73343.0 204904.0 201089.0 112858.0 107338.0 170836.0 169198.0 75592.0 83128.0 43323.0 49458.0 255006.0 262476.0 89347.0 86679.0 333545.0 329114.0 64443.0 71814.0 208244.0 206012.0 32716.0 24553.0 168539.0 173218.0 165291.0 162412.0 132150.0 137652.0 156949.0 149344.0 108579.0 116018.0 208771.0 214834.0 185139.0 178776.0 71470.0 79108.0 54625.0 55894.0 64975.0 71548.0 164901.0 156582.0 319479.0 325198.0 59648.0 55811.0 309968.0 302072.0 236271.0 238179.0 198489.0 200924.0 57642.0 53964.0 102900.0 106099.0 66812.0 62750.0 120008.0 121058.0 252758.0 250137.0 178369.0 180069.0 104006.0 110206.0 74480.0 78084.0 20705.0 27261.0 215791.0 214583.0 39880.0 44148.0 121408.0 128913.0 84356.0 85625.0 226524.0 222081.0 136487.0 129807.0 152960.0 145729.0 107522.0 102250.0 120942.0 112474.0 194501.0 192032.0 109642.0 103798.0 295263.0 286984.0 205534.0 206696.0 162602.0 159968.0 208797.0 196710.0 208797.0 208797.0 196710.0 196710.0
80873.0 77705.0 229558.0 221987.0 181297.0 174164.0 87280.0 94033.0 199731.0 191804.0 117337.0 125036.0 125751.0 134046.0 40800.0 32965.0 108089.0 113940.0 41879.0 37058.0 8039.0 0.0 299086.0 302866.0 129925.0 125924.0 65444.0 68958.0 131669.0 123543.0 126005.0 122467.0 196841.0 201775.0 70179.0 61999.0 210170.0 207249.0 169810.0 161727.0 103835.0 96329.0 163781.0 163396.0 35617.0 36314.0 131966.0 124785.0 172259.0 178608.0 183925.0 185898.0 87167.0 85967.0 113179.0 113578.0 136437.0 131316.0 70908.0 72035.0 211784.0 208095.0 118529.0 112717.0 176810.0 175412.0 69217.0 76581.0 35375.0 41420.0 261524.0 268943.0 93697.0 90408.0 340464.0 336115.0 60666.0 67621.0 205834.0 203340.0 28257.0 20038.0 166542.0 171534.0 169662.0 167085.0 130985.0 136119.0 154573.0 147142.0 107834.0 115047.0 204739.0 210633.0 182394.0 176254.0 63517.0 71208.0 51328.0 53668.0 72160.0 78927.0 160948.0 152648.0 326073.0 331870.0 64648.0 60035.0 317245.0 309322.0 242040.0 244127.0 196465.0 199182.0 52028.0 49204.0 98211.0 100936.0 64390.0 61216.0 119440.0 121017.0 259124.0 256655.0 182967.0 184950.0 108040.0 113856.0 69625.0 72621.0 22142.0 26843.0 212135.0 211214.0 32974.0 38031.0 119956.0 127259.0 85642.0 86146.0 232906.0 228612.0 132020.0 125557.0 149449.0 142429.0 112568.0 106941.0 121123.0 112591.0 192544.0 189769.0 106611.0 101181.0 301753.0 293472.0 201880.0 203329.0 169192.0 166766.0 208225.0 201614.0 208225.0 208225.0 201614.0 201614.0
317559.0 323215.0 73415.0 79983.0 283821.0 278087.0 284386.0 289531.0 99379.0 107286.0 218769.0 216412.0 207612.0 204597.0 289912.0 291922.0 284428.0 290248.0 327059.0 327744.0 292257.0 299086.0 0.0 7469.0 338063.0 342297.0 332090.0 327419.0 363575.0 358541.0 239896.0 247703.0 128674.0 120714.0 325340.0 321884.0 312526.0 317175.0 348912.0 344204.0 205066.0 212741.0 314523.0 306749.0 265506.0 262940.0 324634.0 318621.0 142544.0 134523.0 293541.0 301234.0 254011.0 261852.0 198974.0 203807.0 170819.0 173031.0 341256.0 347795.0 87382.0 91704.0 185014.0 192459.0 128290.0 126889.0 328265.0 334697.0 332173.0 335375.0 42039.0 37500.0 216607.0 223980.0 41892.0 39193.0 298157.0 303326.0 319745.0 324283.0 298308.0 297547.0 293207.0 288295.0 160844.0 156959.0 271476.0 278116.0 297295.0 292095.0 265627.0 268336.0 356644.0 364372.0 315255.0 307774.0 349924.0 354745.0 293421.0 285749.0 266261.0 260155.0 331585.0 327534.0 31693.0 34728.0 294950.0 301337.0 39744.0 34295.0 80262.0 72997.0 306107.0 301250.0 312168.0 304115.0 318623.0 326778.0 348007.0 340770.0 262205.0 254222.0 48507.0 46375.0 148046.0 140773.0 208159.0 208051.0 310758.0 318738.0 281920.0 283734.0 352269.0 344936.0 314135.0 310689.0 275524.0 279223.0 248295.0 255494.0 70701.0 72404.0 328784.0 322211.0 317839.0 311295.0 195225.0 202998.0 250906.0 253294.0 302679.0 308109.0 297244.0 290614.0 22567.0 22884.0 346007.0 340191.0 130329.0 132321.0 287186.0 129679.0 287186.0 287186.0 129679.0 129679.0
322836.0 328395.0 78967.0 85255.0 284030.0 278296.0 286135.0 291110.0 103180.0 111144.0 220256.0 217646.0 209018.0 205721.0 294522.0 296377.0 285644.0 291323.0 331452.0 331987.0 296130.0 302866.0 7469.0 0.0 339094.0 343477.0 334657.0 329835.0 364912.0 360008.0 240767.0 248622.0 128981.0 121080.0 327702.0 324407.0 312734.0 317384.0 349080.0 344515.0 207687.0 215419.0 314782.0 306958.0 269022.0 266650.0 325473.0 319585.0 143995.0 136001.0 293750.0 301443.0 255949.0 263742.0 201329.0 205916.0 173270.0 175787.0 346107.0 352566.0 91543.0 96258.0 187932.0 195266.0 130593.0 129627.0 330684.0 337016.0 335689.0 338735.0 43330.0 37654.0 219245.0 226476.0 39932.0 38674.0 300565.0 305582.0 319954.0 324492.0 301466.0 300890.0 293416.0 288504.0 161520.0 157964.0 272075.0 278582.0 297509.0 292319.0 266875.0 269376.0 356853.0 364581.0 315464.0 307983.0 352914.0 357605.0 296047.0 288338.0 271398.0 265391.0 331771.0 327887.0 25269.0 29390.0 300024.0 306314.0 44580.0 40002.0 79626.0 72546.0 306316.0 301459.0 314840.0 306807.0 320239.0 328402.0 352576.0 345403.0 263139.0 255145.0 48819.0 47969.0 148413.0 141340.0 210384.0 209986.0 313005.0 320974.0 285391.0 287023.0 352478.0 345145.0 317281.0 313679.0 276422.0 279928.0 250363.0 257445.0 72587.0 75076.0 329662.0 323187.0 318181.0 311760.0 197840.0 205533.0 251845.0 254472.0 302888.0 308318.0 298528.0 292015.0 16121.0 18508.0 346216.0 340400.0 133802.0 136174.0 287395.0 129575.0 287395.0 287395.0 129575.0 129575.0
209770.0 205488.0 284592.0 277094.0 92809.0 90303.0 61408.0 53643.0 248236.0 242054.0 120275.0 121791.0 130978.0 133474.0 170158.0 162508.0 54109.0 47835.0 162315.0 154493.0 134949.0 129925.0 338063.0 339094.0 0.0 8154.0 71391.0 64349.0 29522.0 29260.0 98446.0 90527.0 210763.0 218466.0 62011.0 69799.0 105932.0 99561.0 41161.0 33508.0 144416.0 138787.0 53008.0 58491.0 127118.0 135340.0 16000.0 19698.0 195742.0 203761.0 88493.0 85241.0 91195.0 83476.0 146330.0 139275.0 173112.0 174148.0 191327.0 188784.0 261108.0 261103.0 165772.0 157879.0 212347.0 216038.0 64488.0 59751.0 117683.0 110385.0 296064.0 301457.0 134909.0 126337.0 379013.0 377232.0 71940.0 63920.0 96383.0 90860.0 102234.0 110421.0 71853.0 80150.0 177769.0 181142.0 69095.0 64579.0 58403.0 57545.0 72873.0 69729.0 78344.0 83016.0 72166.0 70561.0 94859.0 89906.0 82275.0 84581.0 196765.0 201947.0 38573.0 32230.0 358019.0 364872.0 194468.0 189927.0 367838.0 359630.0 262108.0 267753.0 93744.0 99999.0 78099.0 80985.0 32461.0 29047.0 177340.0 178732.0 76012.0 84010.0 290302.0 291691.0 191420.0 198022.0 136481.0 133682.0 60473.0 57563.0 119700.0 111766.0 88382.0 90155.0 99207.0 92475.0 62847.0 60525.0 98327.0 90092.0 267628.0 267324.0 11595.0 16065.0 36668.0 36621.0 152874.0 144985.0 87284.0 84905.0 91554.0 84910.0 42128.0 49836.0 332903.0 324736.0 78692.0 82844.0 218939.0 221508.0 125530.0 211398.0 125530.0 125530.0 211398.0 211398.0
205151.0 200649.0 287666.0 280117.0 100765.0 98094.0 62545.0 55300.0 251439.0 245105.0 123917.0 125885.0 134834.0 137756.0 166440.0 158716.0 57874.0 52298.0 157036.0 149137.0 131286.0 125924.0 342297.0 343477.0 8154.0 0.0 65513.0 58936.0 22637.0 21351.0 103263.0 95289.0 215511.0 223144.0 56847.0 64850.0 114059.0 107647.0 47481.0 40213.0 146482.0 140555.0 61161.0 66604.0 125243.0 133406.0 23552.0 25682.0 199812.0 207837.0 96581.0 93385.0 93105.0 85227.0 148912.0 142112.0 176089.0 176780.0 185767.0 182986.0 264361.0 264142.0 167974.0 160028.0 215947.0 219392.0 58991.0 53659.0 111920.0 104417.0 300348.0 305874.0 136619.0 128050.0 383409.0 381485.0 69521.0 61372.0 104437.0 98839.0 98647.0 106736.0 79812.0 88087.0 182431.0 185530.0 75039.0 71051.0 66235.0 65007.0 76692.0 74262.0 84980.0 89267.0 80285.0 78714.0 88005.0 82753.0 79803.0 82814.0 193964.0 199369.0 46404.0 40303.0 362530.0 369383.0 190567.0 185773.0 371536.0 363317.0 266947.0 272446.0 101896.0 108150.0 73903.0 77476.0 30605.0 25382.0 171420.0 173073.0 80842.0 88809.0 294733.0 295925.0 196241.0 202678.0 139057.0 136710.0 57127.0 53303.0 116899.0 109034.0 95450.0 97558.0 94522.0 88122.0 67940.0 66353.0 100103.0 91911.0 271738.0 271216.0 19362.0 22189.0 44792.0 44431.0 155194.0 147226.0 92020.0 89011.0 99706.0 93060.0 45225.0 52439.0 337413.0 329246.0 85921.0 90360.0 221798.0 224101.0 133371.0 216364.0 133371.0 133371.0 216364.0 216364.0
141133.0 136137.0 268473.0 260722.0 146169.0 140718.0 59633.0 60697.0 234548.0 227158.0 120894.0 126498.0 132086.0 138421.0 105988.0 98117.0 75234.0 76955.0 91867.0 83885.0 72280.0 65444.0 332090.0 334657.0 71391.0 65513.0 0.0 8540.0 66979.0 58904.0 114101.0 107326.0 214325.0 220911.0 11804.0 10427.0 168610.0 163747.0 112547.0 104866.0 127025.0 119379.0 116577.0 118938.0 78079.0 84941.0 78635.0 73432.0 193127.0 200735.0 145570.0 145074.0 82516.0 75969.0 133460.0 129623.0 161395.0 159115.0 120296.0 117481.0 247436.0 245393.0 147454.0 139799.0 204109.0 205207.0 7946.0 12001.0 46408.0 38994.0 291585.0 298228.0 115490.0 108189.0 373979.0 370747.0 34757.0 32111.0 161333.0 157104.0 43080.0 49438.0 127194.0 134216.0 182408.0 182716.0 101896.0 103361.0 113264.0 107839.0 86403.0 90228.0 149628.0 154407.0 136561.0 132355.0 27594.0 27054.0 38733.0 46344.0 137236.0 143668.0 107819.0 100077.0 355759.0 362408.0 128959.0 123298.0 355918.0 347740.0 264519.0 268413.0 155142.0 159796.0 20468.0 28497.0 45435.0 43832.0 105967.0 107569.0 97095.0 102686.0 287512.0 286823.0 196844.0 201311.0 124766.0 126547.0 25962.0 20386.0 64274.0 57928.0 159129.0 160049.0 32474.0 28944.0 90265.0 94739.0 86456.0 80958.0 262214.0 259709.0 77077.0 72700.0 100071.0 95147.0 136866.0 129125.0 104587.0 97164.0 151913.0 147035.0 66326.0 65678.0 330633.0 322483.0 149169.0 152413.0 203250.0 203206.0 177758.0 217268.0 177758.0 177758.0 217268.0 217268.0
146543.0 141844.0 264741.0 256993.0 137631.0 132179.0 51850.0 52477.0 230415.0 223128.0 114468.0 119811.0 125759.0 131847.0 109749.0 101898.0 66863.0 68450.0 98104.0 90223.0 75277.0 68958.0 327419.0 329835.0 64349.0 58936.0 8540.0 0.0 62715.0 54590.0 106520.0 99598.0 208381.0 215095.0 3281.0 7406.0 160216.0 155425.0 105475.0 97684.0 122500.0 114984.0 108350.0 110571.0 77651.0 84957.0 70760.0 65308.0 187639.0 195329.0 137065.0 136626.0 76152.0 69288.0 128507.0 124279.0 156604.0 154672.0 126982.0 124486.0 243351.0 241532.0 143281.0 135515.0 199242.0 200620.0 867.0 8532.0 53423.0 46438.0 286668.0 293203.0 111035.0 103454.0 369290.0 366201.0 29270.0 25187.0 153057.0 148918.0 44241.0 51437.0 118688.0 125689.0 176205.0 176780.0 93502.0 94867.0 104779.0 99312.0 78522.0 82098.0 142311.0 147279.0 128306.0 123994.0 36112.0 35126.0 35153.0 42271.0 139906.0 146072.0 100089.0 92243.0 350650.0 357385.0 133240.0 127928.0 351927.0 343730.0 258865.0 262932.0 146722.0 151327.0 19156.0 26320.0 37153.0 36129.0 113140.0 114388.0 89034.0 94804.0 282415.0 281931.0 190655.0 195329.0 119574.0 120909.0 18387.0 12006.0 65032.0 58077.0 151551.0 152267.0 36330.0 31137.0 81911.0 86274.0 80525.0 74591.0 257304.0 255016.0 69406.0 64724.0 91934.0 86847.0 132305.0 124451.0 96798.0 89542.0 143468.0 138654.0 57798.0 57284.0 325527.0 317366.0 141531.0 144588.0 199192.0 199452.0 169228.0 211139.0 169228.0 169228.0 211139.0 211139.0
207952.0 202738.0 307561.0 299952.0 121595.0 119490.0 81060.0 74711.0 271556.0 265027.0 144860.0 147280.0 155965.0 159295.0 172450.0 164593.0 79391.0 74362.0 158004.0 149933.0 137945.0 131669.0 363575.0 364912.0 29522.0 22637.0 66979.0 62715.0 0.0 8126.0 125317.0 117326.0 237358.0 244926.0 61690.0 69797.0 131762.0 124766.0 58112.0 52806.0 165288.0 158942.0 80265.0 86600.0 136713.0 144611.0 45521.0 48315.0 221032.0 229053.0 116637.0 112701.0 112125.0 104131.0 168445.0 162018.0 196056.0 196277.0 185364.0 181668.0 284526.0 284020.0 186878.0 178887.0 236615.0 239751.0 62453.0 55272.0 111859.0 103722.0 321701.0 327360.0 154942.0 146438.0 404841.0 402768.0 81239.0 73221.0 121220.0 114982.0 106259.0 113847.0 100692.0 109030.0 204234.0 207086.0 97643.0 93676.0 87588.0 87049.0 98071.0 96223.0 94648.0 97329.0 98148.0 97782.0 83725.0 77010.0 90959.0 95488.0 202322.0 208285.0 62862.0 58587.0 384108.0 390961.0 195789.0 190251.0 392183.0 383953.0 288839.0 294210.0 120426.0 127123.0 80701.0 86073.0 46669.0 39078.0 169728.0 172411.0 102970.0 110891.0 316238.0 317229.0 218164.0 224458.0 158631.0 156885.0 67325.0 61328.0 126212.0 118693.0 106609.0 110230.0 98901.0 93802.0 90261.0 88942.0 118847.0 110818.0 292927.0 292162.0 41087.0 44801.0 64939.0 65921.0 174327.0 166285.0 114049.0 110563.0 118678.0 111535.0 66405.0 72989.0 358991.0 350824.0 98037.0 103749.0 241497.0 243415.0 154576.0 238386.0 154576.0 154576.0 238386.0 238386.0
199936.0 194767.0 301675.0 294041.0 122064.0 119445.0 75050.0 69137.0 265807.0 259180.0 139776.0 142534.0 150990.0 154648.0 164324.0 156468.0 75048.0 70618.0 150094.0 142031.0 129825.0 123543.0 358541.0 360008.0 29260.0 21351.0 58904.0 54590.0 8126.0 0.0 121297.0 113311.0 232923.0 240415.0 53581.0 61679.0 134217.0 127495.0 62810.0 56811.0 159051.0 152558.0 81840.0 87647.0 128888.0 136748.0 44899.0 46348.0 216034.0 224043.0 117688.0 114230.0 106125.0 98119.0 162516.0 156283.0 190298.0 190289.0 177608.0 174016.0 278796.0 278139.0 180648.0 172650.0 231214.0 234161.0 54327.0 47164.0 103987.0 95895.0 316743.0 322515.0 148543.0 140082.0 399922.0 397725.0 73595.0 65644.0 124098.0 118130.0 98182.0 105747.0 101108.0 109398.0 199783.0 202386.0 94881.0 91514.0 87581.0 86277.0 93486.0 92205.0 99948.0 103071.0 100446.0 99429.0 76301.0 69807.0 83200.0 87919.0 194231.0 200215.0 65601.0 60462.0 379346.0 386199.0 187674.0 182153.0 386689.0 378456.0 284421.0 289649.0 122424.0 128879.0 72622.0 78084.0 40441.0 32528.0 162113.0 164674.0 99130.0 106956.0 311415.0 312234.0 213831.0 219960.0 152739.0 151301.0 59569.0 53393.0 118208.0 110723.0 111530.0 114681.0 90780.0 85681.0 86774.0 86136.0 112708.0 104777.0 287853.0 286908.0 40699.0 43047.0 65821.0 65777.0 168210.0 160150.0 110035.0 106065.0 120421.0 113547.0 61935.0 68026.0 354230.0 346063.0 102620.0 107929.0 235558.0 237296.0 154719.0 234156.0 154719.0 154719.0 234156.0 234156.0
198490.0 197925.0 189928.0 182719.0 69544.0 61562.0 54749.0 56077.0 153342.0 147948.0 28320.0 25859.0 35893.0 35985.0 152534.0 147412.0 46338.0 50984.0 167883.0 162701.0 125153.0 126005.0 239896.0 240767.0 98446.0 103263.0 114101.0 106520.0 125317.0 121297.0 0.0 7992.0 112321.0 120020.0 103473.0 104246.0 103052.0 103999.0 112060.0 106263.0 63540.0 62300.0 81553.0 75160.0 97799.0 103834.0 84738.0 78855.0 98171.0 106131.0 76680.0 82453.0 38861.0 41484.0 60054.0 51647.0 81307.0 84767.0 196457.0 198020.0 165870.0 166817.0 80640.0 74126.0 116188.0 120878.0 107353.0 110923.0 140717.0 138432.0 197863.0 203116.0 60059.0 54114.0 280666.0 279021.0 81749.0 82140.0 104705.0 106146.0 104144.0 109747.0 66468.0 65964.0 79332.0 82960.0 32813.0 40542.0 63998.0 56760.0 28952.0 29109.0 128874.0 136702.0 89873.0 81683.0 140110.0 141086.0 84259.0 77721.0 162729.0 164367.0 94961.0 89546.0 259615.0 266468.0 175212.0 174812.0 270668.0 262504.0 163707.0 169307.0 91461.0 90419.0 100016.0 94198.0 83926.0 91858.0 190141.0 187219.0 22444.0 14457.0 191954.0 193557.0 93001.0 99581.0 51886.0 45145.0 88207.0 94912.0 104535.0 99189.0 128667.0 123286.0 115257.0 107908.0 35658.0 39672.0 40999.0 39955.0 169726.0 169899.0 88900.0 82469.0 80131.0 72750.0 68162.0 62227.0 11271.0 16993.0 87178.0 88874.0 59463.0 54410.0 234499.0 226332.0 120070.0 116601.0 126276.0 130387.0 88120.0 113104.0 88120.0 88120.0 113104.0 113104.0
196587.0 195707.0 197081.0 189819.0 67481.0 59491.0 47748.0 48547.0 160494.0 154960.0 33833.0 32666.0 42583.0 43459.0 150652.0 145227.0 38382.0 43001.0 164304.0 158857.0 122085.0 122467.0 247703.0 248622.0 90527.0 95289.0 107326.0 99598.0 117326.0 113311.0 7992.0 0.0 120263.0 127944.0 96506.0 97619.0 100708.0 101047.0 105123.0 99126.0 67580.0 65492.0 75604.0 69608.0 95812.0 102268.0 76958.0 70967.0 105791.0 113772.0 73869.0 79120.0 35602.0 36812.0 65064.0 56754.0 87677.0 90711.0 193216.0 194484.0 173094.0 173885.0 85779.0 78922.0 123520.0 128027.0 100422.0 103738.0 135522.0 132888.0 205676.0 210976.0 62871.0 56170.0 288530.0 286842.0 75657.0 75544.0 101452.0 102383.0 99553.0 105531.0 62144.0 62546.0 87243.0 90747.0 26140.0 34170.0 58303.0 50720.0 21399.0 21117.0 123333.0 131117.0 85209.0 77062.0 133652.0 134361.0 78855.0 72671.0 162526.0 164535.0 88156.0 82464.0 267503.0 274355.0 173768.0 172999.0 278271.0 270098.0 171667.0 177238.0 88571.0 88168.0 93932.0 88444.0 76095.0 83990.0 186270.0 183636.0 14519.0 6522.0 199816.0 201351.0 100960.0 107495.0 56337.0 50288.0 81375.0 87877.0 101388.0 95628.0 123763.0 118735.0 109985.0 102474.0 27823.0 32319.0 39049.0 36462.0 177458.0 177525.0 81082.0 74574.0 73172.0 65604.0 73028.0 66592.0 3279.0 10482.0 84264.0 85291.0 51500.0 46587.0 242386.0 234219.0 114892.0 111829.0 133001.0 136872.0 88461.0 121085.0 88461.0 88461.0 121085.0 121085.0
241626.0 244800.0 93181.0 87963.0 155235.0 149501.0 160864.0 164901.0 62146.0 62063.0 94573.0 90654.0 83126.0 78411.0 202205.0 201207.0 157982.0 163216.0 233256.0 231403.0 191768.0 196841.0 128674.0 128981.0 210763.0 215511.0 214325.0 208381.0 237358.0 232923.0 112321.0 120263.0 0.0 7995.0 205868.0 203898.0 183940.0 188589.0 220238.0 215565.0 93134.0 100833.0 185951.0 178139.0 161224.0 161729.0 196802.0 191146.0 25448.0 21799.0 164956.0 172648.0 132373.0 139672.0 84213.0 85801.0 61315.0 67839.0 255101.0 259800.0 70330.0 75135.0 80048.0 84613.0 35058.0 42748.0 209248.0 214740.0 224945.0 226084.0 86809.0 91394.0 103874.0 109003.0 168743.0 167516.0 179571.0 183328.0 191159.0 195697.0 187699.0 189294.0 164620.0 159709.0 33140.0 31610.0 143163.0 149605.0 168653.0 163424.0 139437.0 141249.0 228058.0 235786.0 186669.0 179188.0 236025.0 239423.0 177042.0 169203.0 191472.0 188292.0 202911.0 198919.0 147591.0 154443.0 216227.0 220096.0 162168.0 154244.0 51499.0 57003.0 177522.0 172664.0 195803.0 188134.0 193976.0 202120.0 256317.0 250543.0 134764.0 126769.0 80254.0 82861.0 19441.0 13099.0 91131.0 87993.0 190558.0 198328.0 176092.0 175363.0 223683.0 216351.0 202868.0 197723.0 147932.0 151117.0 127897.0 133928.0 60798.0 63494.0 201049.0 194766.0 189216.0 182781.0 84281.0 90135.0 123521.0 126864.0 174093.0 179524.0 171037.0 165006.0 122474.0 114307.0 217421.0 211605.0 57329.0 65403.0 158600.0 7151.0 158600.0 158600.0 7151.0 7151.0
244402.0 247801.0 86271.0 81340.0 163227.0 157493.0 168028.0 172214.0 56622.0 57363.0 101673.0 98001.0 90228.0 85801.0 205781.0 205055.0 165537.0 170860.0 237550.0 235922.0 196503.0 201775.0 120714.0 121080.0 218466.0 223144.0 220911.0 215095.0 244926.0 240415.0 120020.0 127944.0 7995.0 0.0 212626.0 210488.0 191931.0 196581.0 228202.0 223504.0 98401.0 106188.0 193940.0 186131.0 166174.0 166356.0 204580.0 198868.0 29526.0 23958.0 172947.0 180639.0 139227.0 146618.0 89776.0 91875.0 65563.0 71586.0 258809.0 263687.0 63927.0 69134.0 84094.0 89168.0 34068.0 41104.0 215961.0 221565.0 230477.0 231823.0 78827.0 83470.0 109372.0 114849.0 160874.0 159588.0 186176.0 190104.0 199150.0 203689.0 193451.0 194806.0 172613.0 167701.0 40714.0 38453.0 151016.0 157503.0 176633.0 171381.0 146937.0 148888.0 236050.0 243778.0 194661.0 187173.0 242249.0 245798.0 183389.0 175545.0 193807.0 190342.0 210872.0 206850.0 139727.0 146580.0 219090.0 223203.0 154187.0 146271.0 44114.0 49302.0 185513.0 180656.0 202198.0 194468.0 201322.0 209475.0 260513.0 254588.0 142455.0 134458.0 72322.0 74868.0 27343.0 20470.0 97110.0 94404.0 197371.0 205178.0 181291.0 180827.0 231675.0 224342.0 208741.0 203758.0 155656.0 158931.0 134571.0 140777.0 52885.0 55805.0 208813.0 202485.0 197149.0 190683.0 89278.0 95495.0 131195.0 134387.0 182084.0 187515.0 178568.0 172450.0 114611.0 106444.0 225413.0 219597.0 55609.0 63584.0 166591.0 11757.0 166591.0 166591.0 11757.0 11757.0
148385.0 143808.0 263012.0 255267.0 134385.0 128915.0 48763.0 49248.0 228547.0 221301.0 111816.0 117064.0 123137.0 129134.0 110975.0 103143.0 63595.0 65170.0 100314.0 92482.0 76280.0 70179.0 325340.0 327702.0 62011.0 56847.0 11804.0 3281.0 61690.0 53581.0 103473.0 96506.0 205868.0 212626.0 0.0 8186.0 157097.0 152353.0 103074.0 95236.0 120539.0 113078.0 105341.0 107474.0 77336.0 84790.0 67971.0 62378.0 185293.0 193010.0 133862.0 133469.0 73555.0 66582.0 126382.0 122014.0 154523.0 152719.0 129351.0 126990.0 241499.0 239761.0 141435.0 133633.0 197116.0 198595.0 4004.0 9542.0 56009.0 49203.0 284505.0 291001.0 109111.0 101433.0 367200.0 364163.0 27238.0 22548.0 150012.0 145926.0 44722.0 52174.0 115485.0 122461.0 173608.0 174277.0 90229.0 91586.0 101596.0 96085.0 75387.0 78888.0 139774.0 144832.0 125277.0 120900.0 39388.0 38364.0 33864.0 40703.0 140674.0 146731.0 97359.0 89463.0 348413.0 355177.0 134643.0 129473.0 350091.0 341888.0 256445.0 260573.0 143586.0 148153.0 19246.0 25785.0 34148.0 33507.0 115720.0 116820.0 85842.0 91665.0 280190.0 279779.0 188060.0 192805.0 117367.0 118537.0 15509.0 8763.0 65220.0 58067.0 148881.0 149494.0 37885.0 32177.0 78646.0 82993.0 78085.0 71995.0 255149.0 252939.0 66731.0 61882.0 88983.0 83797.0 130323.0 122432.0 93687.0 86487.0 140314.0 135545.0 54524.0 54013.0 323299.0 315129.0 138833.0 141793.0 197361.0 197734.0 165956.0 208560.0 165956.0 165956.0 208560.0 208560.0
140314.0 135811.0 258616.0 250865.0 139106.0 133347.0 50121.0 51928.0 224520.0 217170.0 110506.0 116164.0 121681.0 128057.0 102797.0 94963.0 66826.0 69249.0 92551.0 84782.0 68149.0 61999.0 321884.0 324407.0 69799.0 64850.0 10427.0 7406.0 69797.0 61679.0 104246.0 97619.0 203898.0 210488.0 8186.0 0.0 162845.0 158349.0 110750.0 102856.0 116836.0 109229.0 111661.0 113397.0 70333.0 77591.0 75023.0 69068.0 182733.0 190353.0 139049.0 139010.0 72131.0 65663.0 123156.0 119242.0 151137.0 148962.0 121770.0 119617.0 237428.0 235477.0 137393.0 129695.0 193838.0 195016.0 7946.0 15885.0 48914.0 42588.0 281308.0 287925.0 105318.0 97931.0 363769.0 360581.0 24330.0 22106.0 156135.0 152272.0 36865.0 44151.0 120694.0 127418.0 171989.0 172289.0 93482.0 95475.0 106992.0 101109.0 76917.0 81132.0 147237.0 152426.0 131493.0 126818.0 36216.0 36891.0 28771.0 36217.0 132650.0 138768.0 104496.0 96495.0 345439.0 352108.0 126457.0 121302.0 345957.0 337770.0 254109.0 258024.0 149247.0 153563.0 11796.0 19244.0 40765.0 41016.0 108494.0 109337.0 87857.0 93168.0 277192.0 276552.0 186422.0 190884.0 114410.0 116132.0 16737.0 13449.0 57626.0 50687.0 156104.0 156490.0 29741.0 24017.0 81741.0 86683.0 76030.0 70574.0 251937.0 249492.0 74027.0 68822.0 95539.0 89990.0 126669.0 118892.0 94952.0 87367.0 145862.0 141368.0 58946.0 57409.0 320304.0 312160.0 146005.0 148744.0 193247.0 193330.0 170149.0 206844.0 170149.0 170149.0 206844.0 206844.0
289651.0 287435.0 273769.0 267556.0 33542.0 41497.0 122891.0 116432.0 238759.0 235338.0 130180.0 125150.0 134238.0 129940.0 244673.0 238232.0 102081.0 96527.0 249780.0 242920.0 212143.0 210170.0 312526.0 312734.0 105932.0 114059.0 168610.0 160216.0 131762.0 134217.0 103052.0 100708.0 183940.0 191931.0 157097.0 162845.0 0.0 8263.0 77672.0 80247.0 166198.0 165346.0 53254.0 49712.0 191098.0 198537.0 92730.0 96025.0 180431.0 187092.0 27175.0 24291.0 131944.0 129113.0 161493.0 153155.0 177320.0 182646.0 279729.0 279150.0 249695.0 252702.0 181291.0 175654.0 201439.0 208149.0 160709.0 158924.0 210917.0 205297.0 270705.0 275191.0 163085.0 156791.0 352437.0 351308.0 151229.0 146093.0 12504.0 19957.0 182879.0 190611.0 43629.0 39426.0 156639.0 163618.0 81424.0 74901.0 56205.0 63145.0 105620.0 97684.0 57925.0 63724.0 33792.0 36358.0 195389.0 192048.0 159351.0 156517.0 261123.0 263806.0 68903.0 73830.0 331298.0 338151.0 268903.0 266822.0 346104.0 338169.0 234676.0 240532.0 13747.0 12650.0 166073.0 164599.0 123230.0 126218.0 269010.0 268370.0 95694.0 98112.0 264068.0 266783.0 165374.0 173475.0 154296.0 146805.0 147551.0 149460.0 192192.0 184951.0 47623.0 39084.0 187256.0 179306.0 91118.0 83364.0 137426.0 132161.0 244634.0 246834.0 95830.0 97592.0 70138.0 73694.0 169678.0 164581.0 99931.0 106597.0 17643.0 21604.0 105164.0 109395.0 306182.0 298014.0 46900.0 38746.0 217522.0 223369.0 46895.0 183810.0 46895.0 46895.0 183810.0 183810.0
287165.0 284737.0 278356.0 272027.0 35431.0 43027.0 120053.0 113257.0 243071.0 239436.0 131631.0 126997.0 136331.0 132478.0 242490.0 235903.0 99308.0 93327.0 246381.0 239393.0 209510.0 207249.0 317175.0 317384.0 99561.0 107647.0 163747.0 155425.0 124766.0 127495.0 103999.0 101047.0 188589.0 196581.0 152353.0 158349.0 8263.0 0.0 69918.0 72822.0 167462.0 166225.0 47503.0 44958.0 189390.0 196971.0 86906.0 90681.0 184689.0 191515.0 27323.0 22261.0 130978.0 127682.0 163194.0 154807.0 180094.0 185163.0 276337.0 275540.0 254203.0 257020.0 183256.0 177370.0 205581.0 212133.0 155888.0 153780.0 206733.0 200901.0 275355.0 279840.0 163800.0 157215.0 357087.0 355958.0 147744.0 142293.0 4241.0 11696.0 179690.0 187536.0 41342.0 38652.0 161042.0 167844.0 80232.0 73226.0 52699.0 60166.0 104275.0 96293.0 49766.0 55721.0 27564.0 31558.0 190263.0 186676.0 156170.0 153699.0 259925.0 262837.0 61955.0 67344.0 335948.0 342800.0 266850.0 264532.0 350754.0 342819.0 239326.0 245182.0 12542.0 15940.0 162070.0 160953.0 118312.0 120893.0 265222.0 264808.0 94904.0 97963.0 268718.0 271433.0 170024.0 178124.0 155661.0 148391.0 143385.0 144919.0 189791.0 182416.0 39827.0 31327.0 183443.0 175536.0 89242.0 81317.0 136741.0 131099.0 249283.0 251483.0 89793.0 92028.0 64386.0 68604.0 171383.0 165989.0 100011.0 106226.0 16822.0 17482.0 101434.0 106143.0 310831.0 302664.0 38679.0 30547.0 221117.0 226773.0 53539.0 188460.0 53539.0 53539.0 188460.0 188460.0
250186.0 246123.0 301956.0 294772.0 77541.0 78702.0 92752.0 84344.0 265378.0 260004.0 138531.0 137752.0 147703.0 147903.0 209504.0 201988.0 77878.0 69988.0 203301.0 195522.0 174362.0 169810.0 348912.0 349080.0 41161.0 47481.0 112547.0 105475.0 58112.0 62810.0 112060.0 105123.0 220238.0 228202.0 103074.0 110750.0 77672.0 69918.0 0.0 8114.0 168542.0 164218.0 35806.0 44024.0 163403.0 171649.0 38659.0 46542.0 209354.0 217175.0 69757.0 63619.0 118067.0 111358.0 168306.0 160391.0 192639.0 195178.0 232425.0 229938.0 277849.0 278877.0 188809.0 181322.0 228072.0 232922.0 105629.0 100862.0 158839.0 151539.0 307008.0 311585.0 160670.0 152364.0 388646.0 387691.0 110214.0 102584.0 65974.0 59056.0 141754.0 150008.0 59467.0 66916.0 188532.0 193368.0 79250.0 71745.0 51885.0 56844.0 93857.0 87811.0 37569.0 41865.0 46455.0 49567.0 135472.0 130072.0 120411.0 121425.0 234414.0 239118.0 17342.0 22878.0 367697.0 374550.0 234010.0 229826.0 381390.0 373296.0 271075.0 276932.0 68600.0 76046.0 118479.0 120612.0 71604.0 69756.0 218501.0 219862.0 91778.0 99042.0 300467.0 302956.0 200885.0 208307.0 158794.0 154164.0 100209.0 98168.0 157865.0 149896.0 48726.0 52126.0 139894.0 132911.0 79115.0 72989.0 125282.0 117342.0 279849.0 280730.0 37892.0 44915.0 31951.0 39712.0 175753.0 168402.0 102329.0 103357.0 68115.0 60166.0 70384.0 78293.0 342581.0 334414.0 39926.0 45825.0 238115.0 241853.0 110171.0 220209.0 110171.0 110171.0 220209.0 220209.0
242142.0 238114.0 296174.0 288935.0 76652.0 76989.0 84895.0 76492.0 259586.0 254085.0 132259.0 131792.0 141684.0 142214.0 201395.0 193883.0 70521.0 62676.0 195395.0 187637.0 166258.0 161727.0 344204.0 344515.0 33508.0 40213.0 104866.0 97684.0 52806.0 56811.0 106263.0 99126.0 215565.0 223504.0 95236.0 102856.0 80247.0 72822.0 8114.0 0.0 161624.0 157135.0 33803.0 41838.0 155354.0 163602.0 30590.0 38513.0 203996.0 211865.0 69569.0 64061.0 110686.0 103853.0 161655.0 153827.0 186375.0 188715.0 224581.0 222170.0 272132.0 273008.0 182071.0 174517.0 222431.0 227118.0 97858.0 93258.0 151086.0 143857.0 302240.0 306957.0 153540.0 145184.0 384174.0 383080.0 102100.0 94474.0 69071.0 62522.0 133658.0 141913.0 57447.0 65312.0 183563.0 188182.0 73542.0 66329.0 48256.0 52287.0 86950.0 81178.0 44850.0 49598.0 47619.0 49419.0 128180.0 122960.0 112298.0 113335.0 226323.0 231046.0 13869.0 16755.0 363065.0 369918.0 225906.0 221739.0 376268.0 368150.0 266457.0 272313.0 70131.0 77360.0 110459.0 112526.0 63533.0 61842.0 210778.0 212051.0 85483.0 92925.0 295820.0 298130.0 196164.0 203472.0 152073.0 147661.0 92140.0 90195.0 149754.0 141784.0 55306.0 57924.0 131914.0 124891.0 72584.0 66837.0 117920.0 109921.0 274838.0 275532.0 29781.0 36819.0 26387.0 33525.0 169006.0 161570.0 96244.0 96835.0 69153.0 61416.0 62594.0 70555.0 337949.0 329782.0 45991.0 51120.0 231987.0 235566.0 109736.0 215591.0 109736.0 109736.0 215591.0 215591.0
157321.0 159005.0 143187.0 135482.0 132661.0 124745.0 84272.0 91184.0 108123.0 101031.0 36096.0 42083.0 35101.0 42654.0 113959.0 111560.0 91774.0 99334.0 141519.0 139058.0 99079.0 103835.0 205066.0 207687.0 144416.0 146482.0 127025.0 122500.0 165288.0 159051.0 63540.0 67580.0 93134.0 98401.0 120539.0 116836.0 166198.0 167462.0 168542.0 161624.0 0.0 7886.0 142298.0 136825.0 68258.0 69479.0 134634.0 127100.0 69059.0 75951.0 140140.0 145993.0 53379.0 61296.0 9904.0 14951.0 34643.0 32180.0 165425.0 169342.0 121110.0 119742.0 21597.0 13601.0 77306.0 78183.0 123338.0 129984.0 132136.0 133756.0 164726.0 171519.0 11562.0 19246.0 246955.0 243747.0 93302.0 98939.0 168235.0 169642.0 95504.0 96469.0 129659.0 129496.0 66473.0 63333.0 92717.0 100906.0 125461.0 117570.0 74692.0 80957.0 190346.0 198050.0 152789.0 144641.0 145758.0 150101.0 88367.0 80683.0 112428.0 111915.0 152476.0 145701.0 229133.0 235638.0 132035.0 134199.0 229697.0 221480.0 140161.0 143167.0 154920.0 153548.0 107154.0 99127.0 118672.0 126524.0 164775.0 159545.0 78139.0 72234.0 160954.0 159937.0 79302.0 81119.0 12021.0 20213.0 106369.0 114354.0 82959.0 82463.0 191281.0 186315.0 111055.0 106677.0 89763.0 96737.0 46469.0 54598.0 135374.0 132693.0 137888.0 130263.0 137235.0 129077.0 9847.0 3303.0 69424.0 65962.0 150650.0 152398.0 102445.0 94594.0 204117.0 195910.0 182273.0 179391.0 77131.0 78317.0 147836.0 97785.0 147836.0 147836.0 97785.0 97785.0
151810.0 153213.0 150270.0 142548.0 131823.0 123851.0 78110.0 85297.0 115476.0 108285.0 36379.0 43282.0 37822.0 45967.0 107864.0 105139.0 86869.0 94571.0 134464.0 131816.0 91752.0 96329.0 212741.0 215419.0 138787.0 140555.0 119379.0 114984.0 158942.0 152558.0 62300.0 65492.0 100833.0 106188.0 113078.0 109229.0 165346.0 166225.0 164218.0 157135.0 7886.0 0.0 139103.0 133962.0 60822.0 62428.0 129549.0 121892.0 76891.0 83821.0 138926.0 144489.0 47594.0 55357.0 16862.0 19185.0 42499.0 39737.0 158837.0 162571.0 128439.0 126887.0 28468.0 20573.0 85119.0 85853.0 115817.0 122551.0 124309.0 125882.0 172502.0 179324.0 4035.0 12518.0 254633.0 251368.0 85844.0 91657.0 166803.0 167873.0 87621.0 88638.0 127594.0 127929.0 73564.0 70756.0 89825.0 97983.0 122599.0 114573.0 70472.0 77156.0 187203.0 194842.0 150443.0 142350.0 137906.0 142293.0 80683.0 73038.0 108204.0 108174.0 148443.0 141454.0 236944.0 243425.0 126678.0 128497.0 237039.0 228830.0 148040.0 151053.0 153698.0 152708.0 99433.0 91391.0 112277.0 120038.0 157743.0 152660.0 74956.0 69617.0 168782.0 167706.0 86657.0 88709.0 14403.0 22673.0 99073.0 107046.0 75283.0 74644.0 188652.0 183967.0 103169.0 98807.0 85970.0 93232.0 40479.0 48705.0 143160.0 140395.0 132661.0 124968.0 133227.0 124998.0 17644.0 10701.0 67020.0 62711.0 149404.0 150747.0 97035.0 89082.0 211943.0 203731.0 179455.0 176893.0 84352.0 85189.0 148365.0 105378.0 148365.0 148365.0 105378.0 105378.0
244492.0 241479.0 270021.0 263018.0 43029.0 43208.0 78243.0 70488.0 233565.0 228607.0 109413.0 107363.0 117400.0 116428.0 200982.0 193981.0 58734.0 51406.0 201492.0 194239.0 166861.0 163781.0 314523.0 314782.0 53008.0 61161.0 116577.0 108350.0 80265.0 81840.0 81553.0 75604.0 185951.0 193940.0 105341.0 111661.0 53254.0 47503.0 35806.0 33803.0 142298.0 139103.0 0.0 8219.0 150091.0 158089.0 39487.0 43257.0 176525.0 184195.0 36698.0 32446.0 96470.0 91239.0 140561.0 132306.0 162851.0 166231.0 231373.0 230110.0 245775.0 247263.0 161285.0 154247.0 195931.0 201255.0 108777.0 106392.0 160395.0 154243.0 272752.0 277238.0 135936.0 128153.0 354485.0 353356.0 103295.0 97098.0 44834.0 40611.0 135706.0 143795.0 23743.0 31510.0 154887.0 160182.0 49678.0 41512.0 17736.0 24884.0 69765.0 62338.0 48100.0 55760.0 20025.0 17589.0 142862.0 139182.0 112466.0 111144.0 221697.0 225450.0 19971.0 21723.0 333345.0 340198.0 225596.0 222547.0 347715.0 339678.0 236724.0 242580.0 40750.0 47041.0 116252.0 115953.0 71199.0 73436.0 219463.0 219503.0 64192.0 70265.0 266115.0 268802.0 166728.0 174335.0 131558.0 125864.0 97360.0 98214.0 148069.0 140351.0 50867.0 48153.0 137904.0 130140.0 53694.0 46013.0 103248.0 96142.0 246068.0 247337.0 42605.0 44525.0 16906.0 21742.0 148422.0 141647.0 73287.0 76422.0 38585.0 31951.0 57224.0 63368.0 308229.0 300062.0 41011.0 40342.0 207529.0 211862.0 76270.0 185857.0 76270.0 76270.0 185857.0 185857.0
243829.0 241071.0 262793.0 255840.0 35505.0 35168.0 76826.0 69476.0 226391.0 221547.0 103268.0 100840.0 110858.0 109534.0 199803.0 192956.0 56589.0 49787.0 201893.0 194794.0 166104.0 163396.0 306749.0 306958.0 58491.0 66604.0 118938.0 110571.0 86600.0 87647.0 75160.0 69608.0 178139.0 186131.0 107474.0 113397.0 49712.0 44958.0 44024.0 41838.0 136825.0 133962.0 8219.0 0.0 148015.0 155896.0 43936.0 46462.0 169124.0 176746.0 30063.0 27031.0 92689.0 87964.0 134672.0 126355.0 156320.0 159926.0 231833.0 230855.0 238524.0 240132.0 155386.0 148496.0 188700.0 194147.0 111051.0 109215.0 161794.0 155944.0 264922.0 269414.0 130918.0 123327.0 346660.0 345532.0 103325.0 97585.0 42906.0 39944.0 135540.0 143516.0 15610.0 23577.0 147277.0 152698.0 44148.0 35979.0 11368.0 19464.0 65686.0 57981.0 53744.0 61555.0 19041.0 13428.0 145677.0 142394.0 112106.0 110220.0 219422.0 222931.0 27970.0 28631.0 325521.0 332374.0 224349.0 221580.0 340018.0 331996.0 228899.0 234756.0 36449.0 41961.0 117209.0 116342.0 73531.0 76581.0 220426.0 220164.0 59052.0 64597.0 258291.0 260999.0 158962.0 166617.0 125853.0 119879.0 98469.0 99972.0 146885.0 139291.0 54824.0 50956.0 138674.0 130806.0 49626.0 41667.0 99257.0 92480.0 238368.0 239739.0 47523.0 48268.0 21829.0 24033.0 142621.0 136035.0 67484.0 71284.0 33644.0 28112.0 56937.0 62307.0 300405.0 292238.0 45493.0 43440.0 200706.0 205193.0 68795.0 178033.0 68795.0 68795.0 178033.0 178033.0
100784.0 100135.0 197394.0 189722.0 159889.0 152247.0 72110.0 80270.0 166172.0 158334.0 84642.0 92534.0 92033.0 100491.0 54841.0 49634.0 91479.0 98686.0 74380.0 71185.0 31032.0 35617.0 265506.0 269022.0 127118.0 125243.0 78079.0 77651.0 136713.0 128888.0 97799.0 95812.0 161224.0 166174.0 77336.0 70333.0 191098.0 189390.0 163403.0 155354.0 68258.0 60822.0 150091.0 148015.0 0.0 8254.0 124766.0 116863.0 136664.0 143070.0 164066.0 167297.0 60543.0 62098.0 77684.0 78487.0 100907.0 95970.0 100686.0 103485.0 178520.0 175288.0 83189.0 77185.0 141696.0 140643.0 78260.0 86183.0 66671.0 70147.0 227204.0 234506.0 58337.0 55740.0 307114.0 303039.0 55882.0 64053.0 188617.0 187281.0 35972.0 32794.0 148048.0 151696.0 134308.0 131558.0 109758.0 116249.0 137884.0 129841.0 85566.0 93448.0 195082.0 201772.0 166900.0 159861.0 87509.0 93815.0 45826.0 42537.0 71667.0 75852.0 151556.0 143333.0 291860.0 297836.0 78244.0 77190.0 285327.0 277297.0 206671.0 208925.0 177728.0 179282.0 58540.0 51563.0 94836.0 100117.0 97637.0 93143.0 96188.0 95827.0 224505.0 222338.0 147478.0 149357.0 72976.0 79265.0 69414.0 75601.0 16497.0 20413.0 200528.0 198242.0 51035.0 50272.0 100148.0 108088.0 56892.0 59962.0 198347.0 194364.0 126033.0 118611.0 138092.0 130214.0 76952.0 71388.0 95163.0 87022.0 173569.0 172096.0 94273.0 87145.0 267337.0 259057.0 190374.0 190431.0 135224.0 133399.0 183973.0 166018.0 183973.0 183973.0 166018.0 166018.0
94723.0 94558.0 193941.0 186319.0 167072.0 159371.0 80224.0 88418.0 163564.0 155658.0 88999.0 96933.0 95668.0 104186.0 48827.0 44380.0 99419.0 106695.0 72051.0 69705.0 30242.0 36314.0 262940.0 266650.0 135340.0 133406.0 84941.0 84957.0 144611.0 136748.0 103834.0 102268.0 161729.0 166356.0 84790.0 77591.0 198537.0 196971.0 171649.0 163602.0 69479.0 62428.0 158089.0 155896.0 8254.0 0.0 133015.0 125108.0 136837.0 142946.0 171454.0 174832.0 67365.0 69430.0 79183.0 80832.0 100826.0 95387.0 96957.0 100317.0 175711.0 172187.0 82620.0 77192.0 140639.0 139125.0 85535.0 93473.0 69700.0 73977.0 225222.0 232632.0 60387.0 58907.0 304399.0 300148.0 63977.0 72151.0 196268.0 195044.0 42191.0 37821.0 155635.0 159115.0 135924.0 132722.0 117131.0 123771.0 145675.0 137596.0 92926.0 100853.0 203238.0 209953.0 174741.0 167636.0 92662.0 99303.0 53849.0 50760.0 63611.0 67661.0 159749.0 151535.0 289787.0 295616.0 71500.0 71011.0 281789.0 273810.0 206034.0 207978.0 185229.0 186635.0 65803.0 59095.0 103034.0 108240.0 95322.0 90280.0 103324.0 102607.0 222812.0 220352.0 148731.0 150172.0 75410.0 82234.0 77373.0 83392.0 21327.0 27019.0 208594.0 206230.0 56516.0 56611.0 107745.0 115722.0 63223.0 66890.0 196593.0 192314.0 134287.0 126864.0 146229.0 138323.0 77598.0 72709.0 101784.0 93789.0 181049.0 179725.0 102442.0 95260.0 265445.0 257163.0 198452.0 198431.0 132921.0 130635.0 190633.0 166783.0 190633.0 190633.0 166783.0 166783.0
212671.0 208916.0 272813.0 265398.0 77378.0 74554.0 54803.0 46460.0 236318.0 230371.0 108129.0 108960.0 118447.0 120317.0 171251.0 163812.0 42906.0 35645.0 166997.0 159406.0 136206.0 131966.0 324634.0 325473.0 16000.0 23552.0 78635.0 70760.0 45521.0 44899.0 84738.0 76958.0 196802.0 204580.0 67971.0 75023.0 92730.0 86906.0 38659.0 30590.0 134634.0 129549.0 39487.0 43936.0 124766.0 133015.0 0.0 8042.0 182689.0 190685.0 73606.0 70951.0 82267.0 74993.0 135688.0 128265.0 161721.0 163291.0 196538.0 194603.0 249097.0 249406.0 155646.0 147881.0 199919.0 203959.0 71080.0 67826.0 123886.0 117169.0 282600.0 287819.0 125800.0 117299.0 365357.0 363756.0 71841.0 64413.0 84053.0 79175.0 103766.0 112027.0 56453.0 64679.0 163971.0 167692.0 54144.0 49080.0 42730.0 41556.0 61013.0 56768.0 72858.0 78669.0 59345.0 56662.0 104104.0 100042.0 81951.0 82777.0 195764.0 200460.0 29490.0 21493.0 344264.0 351117.0 195823.0 191865.0 355098.0 346911.0 247984.0 253800.0 80004.0 85856.0 81461.0 82823.0 34438.0 34837.0 183517.0 184246.0 62498.0 70450.0 276656.0 278294.0 177396.0 184193.0 125908.0 122402.0 62735.0 61829.0 119321.0 111358.0 81132.0 81523.0 103168.0 95832.0 49142.0 45805.0 89518.0 81348.0 254415.0 254404.0 4510.0 6409.0 22592.0 20944.0 142622.0 134909.0 73784.0 72381.0 77480.0 71317.0 32976.0 41062.0 319148.0 310981.0 70998.0 73828.0 207592.0 210568.0 109849.0 197172.0 109849.0 109849.0 197172.0 197172.0
205587.0 201968.0 265960.0 258511.0 78026.0 74427.0 46765.0 38431.0 229514.0 223470.0 101361.0 102536.0 111873.0 114090.0 163809.0 156420.0 35581.0 28690.0 160460.0 152957.0 128844.0 124785.0 318621.0 319585.0 19698.0 25682.0 73432.0 65308.0 48315.0 46348.0 78855.0 70967.0 191146.0 198868.0 62378.0 69068.0 96025.0 90681.0 46542.0 38513.0 127100.0 121892.0 43257.0 46462.0 116863.0 125108.0 8042.0 0.0 176427.0 184439.0 75219.0 73356.0 74497.0 67141.0 128385.0 121073.0 154685.0 156072.0 190125.0 188394.0 242335.0 242516.0 148212.0 140409.0 193334.0 197216.0 65697.0 63135.0 117978.0 111510.0 276606.0 281940.0 118114.0 109593.0 359496.0 357775.0 64409.0 57164.0 88089.0 83686.0 96543.0 104795.0 57390.0 65362.0 158187.0 161669.0 49496.0 45373.0 43259.0 40549.0 54032.0 50341.0 79962.0 86004.0 63281.0 59679.0 99607.0 96038.0 74423.0 75005.0 187968.0 192604.0 36187.0 27920.0 338466.0 345319.0 188411.0 184577.0 348694.0 340495.0 242462.0 248144.0 82904.0 88295.0 74833.0 75767.0 28309.0 30217.0 177450.0 177949.0 56448.0 64445.0 270781.0 272256.0 171786.0 178435.0 118577.0 115298.0 55964.0 55705.0 111684.0 103730.0 87674.0 87559.0 96593.0 89115.0 43214.0 40876.0 81740.0 73547.0 248262.0 248083.0 10790.0 3633.0 26639.0 22454.0 135213.0 127448.0 67740.0 65745.0 80062.0 74442.0 25063.0 33147.0 313350.0 305182.0 77463.0 79766.0 200559.0 203396.0 109735.0 191730.0 109735.0 109735.0 191730.0 191730.0
216239.0 219370.0 94107.0 87502.0 150261.0 143815.0 142255.0 147119.0 58385.0 55033.0 76265.0 73960.0 65069.0 62372.0 176782.0 175853.0 141938.0 147907.0 208119.0 206425.0 166977.0 172259.0 142544.0 143995.0 195742.0 199812.0 193127.0 187639.0 221032.0 216034.0 98171.0 105791.0 25448.0 29526.0 185293.0 182733.0 180431.0 184689.0 209354.0 203996.0 69059.0 76891.0 176525.0 169124.0 136664.0 136837.0 182689.0 176427.0 0.0 8025.0 159766.0 167245.0 112460.0 120119.0 60713.0 63537.0 36088.0 42411.0 229710.0 234465.0 69817.0 72334.0 54729.0 59646.0 21188.0 28591.0 188501.0 194405.0 201195.0 202708.0 100710.0 106599.0 80181.0 86018.0 183896.0 181736.0 158509.0 162879.0 186953.0 190926.0 164376.0 165526.0 156864.0 153035.0 23979.0 16851.0 130524.0 137687.0 158854.0 152756.0 123122.0 126086.0 221084.0 228922.0 179862.0 172008.0 213734.0 217541.0 155171.0 147335.0 166267.0 163249.0 192057.0 187240.0 163643.0 170489.0 190824.0 194655.0 172497.0 164334.0 71547.0 75298.0 173120.0 168842.0 174039.0 166204.0 176254.0 184419.0 231124.0 225273.0 120197.0 112272.0 95564.0 96206.0 21879.0 17139.0 68563.0 66765.0 170233.0 178131.0 151847.0 151523.0 217949.0 211049.0 179779.0 175003.0 133561.0 137816.0 107288.0 113985.0 71927.0 71735.0 186743.0 179991.0 177659.0 170617.0 59816.0 66227.0 108928.0 110861.0 169440.0 174184.0 154713.0 148076.0 138527.0 130359.0 210925.0 205725.0 41046.0 48655.0 155178.0 31579.0 155178.0 155178.0 31579.0 31579.0
220506.0 223863.0 86936.0 80513.0 157295.0 150970.0 150204.0 155110.0 51728.0 49060.0 84270.0 81982.0 73088.0 70371.0 181847.0 181185.0 149964.0 155927.0 213862.0 212376.0 173152.0 178608.0 134523.0 136001.0 203761.0 207837.0 200735.0 195329.0 229053.0 224043.0 106131.0 113772.0 21799.0 23958.0 193010.0 190353.0 187092.0 191515.0 217175.0 211865.0 75951.0 83821.0 184195.0 176746.0 143070.0 142946.0 190685.0 184439.0 8025.0 0.0 166853.0 174381.0 120317.0 128005.0 67917.0 71112.0 42171.0 47804.0 234895.0 239818.0 62710.0 65648.0 60432.0 65891.0 16205.0 24207.0 196190.0 202154.0 208026.0 209703.0 92706.0 98638.0 87220.0 93314.0 175895.0 173716.0 166164.0 170627.0 193857.0 197960.0 171421.0 172376.0 164330.0 160355.0 30473.0 24092.0 138425.0 145543.0 166547.0 160524.0 131147.0 134099.0 228506.0 236334.0 187231.0 179419.0 221083.0 224992.0 162665.0 154837.0 170054.0 166729.0 199867.0 195111.0 155729.0 162581.0 195173.0 199252.0 164545.0 156390.0 64259.0 67699.0 180059.0 175632.0 181542.0 173675.0 184240.0 192404.0 236767.0 230777.0 128189.0 120258.0 87623.0 88192.0 24862.0 17968.0 76041.0 74530.0 177994.0 185906.0 158450.0 158352.0 225183.0 218201.0 186899.0 182251.0 141552.0 145762.0 115064.0 121837.0 63901.0 63769.0 194746.0 188005.0 185516.0 178512.0 66512.0 73219.0 116916.0 118884.0 176430.0 181315.0 162738.0 156093.0 130612.0 122445.0 218274.0 212975.0 38028.0 45992.0 161762.0 28701.0 161762.0 161762.0 28701.0 28701.0
262985.0 260928.0 253787.0 247265.0 9783.0 16165.0 96776.0 90753.0 218090.0 214127.0 104332.0 99807.0 109235.0 105663.0 217837.0 211488.0 76012.0 71054.0 224004.0 217312.0 185640.0 183925.0 293541.0 293750.0 88493.0 96581.0 145570.0 137065.0 116637.0 117688.0 76680.0 73869.0 164956.0 172947.0 133862.0 139049.0 27175.0 27323.0 69757.0 69569.0 140140.0 138926.0 36698.0 30063.0 164066.0 171454.0 73606.0 75219.0 159766.0 166853.0 0.0 7799.0 104771.0 102024.0 135934.0 127539.0 153376.0 158254.0 253912.0 253603.0 229535.0 232024.0 156070.0 150110.0 180409.0 186705.0 137624.0 136628.0 186351.0 181128.0 251721.0 256207.0 136533.0 130032.0 333453.0 332324.0 125785.0 121139.0 28321.0 31237.0 156964.0 164555.0 18377.0 12430.0 136469.0 142929.0 54323.0 48052.0 32420.0 37989.0 78528.0 70619.0 64297.0 71739.0 24611.0 20220.0 172827.0 170135.0 133487.0 130267.0 233958.0 236631.0 56137.0 58344.0 312314.0 319167.0 241989.0 240039.0 327120.0 319185.0 215692.0 221548.0 14782.0 15289.0 141355.0 139328.0 100725.0 104752.0 243715.0 242774.0 68519.0 71040.0 245084.0 247799.0 146352.0 154378.0 128347.0 121111.0 123214.0 125843.0 165532.0 158400.0 58761.0 51422.0 162159.0 154167.0 64315.0 56728.0 110259.0 104997.0 225650.0 227847.0 77379.0 77429.0 51870.0 52973.0 144121.0 138676.0 72953.0 79469.0 10515.0 14574.0 80421.0 83872.0 287197.0 279030.0 53170.0 46792.0 195156.0 200584.0 40422.0 164826.0 40422.0 40422.0 164826.0 164826.0
265488.0 263211.0 261304.0 254747.0 17574.0 23438.0 98619.0 92142.0 225534.0 221494.0 110399.0 106171.0 115732.0 112449.0 220623.0 214120.0 77811.0 72243.0 225496.0 218650.0 187928.0 185898.0 301234.0 301443.0 85241.0 93385.0 145074.0 136626.0 112701.0 114230.0 82453.0 79120.0 172648.0 180639.0 133469.0 139010.0 24291.0 22261.0 63619.0 64061.0 145993.0 144489.0 32446.0 27031.0 167297.0 174832.0 70951.0 73356.0 167245.0 174381.0 7799.0 0.0 108720.0 105488.0 142105.0 133693.0 160185.0 164908.0 255443.0 254889.0 237039.0 239461.0 162385.0 156268.0 187823.0 194051.0 137147.0 135705.0 186859.0 181360.0 259413.0 263899.0 141969.0 135240.0 341145.0 340017.0 126965.0 121908.0 22332.0 24133.0 158588.0 166324.0 19393.0 16574.0 144028.0 150421.0 57979.0 51062.0 32081.0 38857.0 82053.0 74076.0 56518.0 63944.0 17546.0 14953.0 172087.0 169050.0 135060.0 132254.0 237705.0 240587.0 51019.0 54123.0 320006.0 326859.0 244918.0 242729.0 334812.0 326877.0 223384.0 229241.0 10567.0 14943.0 141954.0 140362.0 99853.0 103332.0 244788.0 244103.0 72648.0 75833.0 252776.0 255492.0 154031.0 162043.0 134294.0 127232.0 123525.0 125676.0 168045.0 160759.0 51038.0 43823.0 163058.0 155097.0 67169.0 59314.0 114485.0 108847.0 233342.0 235530.0 74462.0 75268.0 48634.0 50905.0 150280.0 144636.0 77963.0 84025.0 6852.0 6940.0 80991.0 85112.0 294890.0 286722.0 45373.0 39022.0 202327.0 207660.0 47048.0 172518.0 47048.0 47048.0 172518.0 172518.0
161198.0 160178.0 195552.0 187916.0 99906.0 92130.0 31084.0 37806.0 159761.0 153070.0 38378.0 44218.0 49612.0 55956.0 115320.0 109738.0 40189.0 48086.0 129045.0 123841.0 86533.0 87167.0 254011.0 255949.0 91195.0 93105.0 82516.0 76152.0 112125.0 106125.0 38861.0 35602.0 132373.0 139227.0 73555.0 72131.0 131944.0 130978.0 118067.0 110686.0 53379.0 47594.0 96470.0 92689.0 60543.0 67365.0 82267.0 74497.0 112460.0 120317.0 104771.0 108720.0 0.0 8006.0 56394.0 50419.0 84300.0 84174.0 157750.0 159197.0 172762.0 172017.0 74900.0 66938.0 125904.0 128375.0 77020.0 82368.0 103066.0 101529.0 212627.0 218833.0 43732.0 35171.0 295707.0 293087.0 47951.0 51009.0 130652.0 130207.0 65784.0 71036.0 89936.0 92590.0 100056.0 100814.0 50752.0 58085.0 81700.0 73438.0 27083.0 34992.0 144048.0 151411.0 110790.0 103154.0 106281.0 108572.0 47795.0 40507.0 129201.0 131893.0 103083.0 95627.0 276028.0 282879.0 138742.0 137685.0 280926.0 272691.0 183176.0 187545.0 118913.0 119806.0 65429.0 58548.0 65685.0 73686.0 151282.0 148383.0 36265.0 35285.0 207882.0 207987.0 114508.0 119295.0 46640.0 45967.0 58192.0 65959.0 65852.0 60338.0 147221.0 143642.0 77931.0 71043.0 43067.0 51072.0 7256.0 1561.0 183404.0 181853.0 85229.0 77494.0 88106.0 79795.0 62226.0 54206.0 34696.0 26479.0 114664.0 114079.0 49524.0 41524.0 250911.0 242697.0 137474.0 136109.0 129433.0 131296.0 123436.0 135005.0 123436.0 123436.0 135005.0 135005.0
162030.0 160614.0 203557.0 195921.0 97813.0 90216.0 23081.0 29943.0 167757.0 161074.0 45279.0 50547.0 56658.0 62560.0 116389.0 110430.0 33657.0 41577.0 127709.0 122128.0 86073.0 85967.0 261852.0 263742.0 83476.0 85227.0 75969.0 69288.0 104131.0 98119.0 41484.0 36812.0 139672.0 146618.0 66582.0 65663.0 129113.0 127682.0 111358.0 103853.0 61296.0 55357.0 91239.0 87964.0 62098.0 69430.0 74993.0 67141.0 120119.0 128005.0 102024.0 105488.0 8006.0 0.0 64399.0 58372.0 92286.0 92178.0 156848.0 157892.0 180758.0 180022.0 82843.0 74871.0 133804.0 136337.0 70153.0 75198.0 99252.0 97150.0 220415.0 226576.0 51451.0 42877.0 303523.0 300944.0 41818.0 44102.0 127119.0 126265.0 62789.0 68724.0 86397.0 89688.0 107153.0 108173.0 47701.0 54460.0 77233.0 69012.0 23497.0 31434.0 138396.0 145645.0 106418.0 98989.0 100483.0 102374.0 42994.0 36255.0 132263.0 135356.0 96768.0 89136.0 283732.0 290585.0 140242.0 138722.0 288895.0 280661.0 190630.0 195099.0 115843.0 117213.0 59751.0 53324.0 57679.0 65683.0 149519.0 147023.0 34234.0 35054.0 215605.0 215787.0 121602.0 126579.0 54640.0 53805.0 51116.0 58751.0 65403.0 59203.0 142101.0 138867.0 73830.0 66591.0 38699.0 46755.0 14880.0 6700.0 191219.0 189737.0 77819.0 70048.0 81968.0 73675.0 70206.0 62176.0 35229.0 26675.0 111647.0 110544.0 42090.0 34027.0 258616.0 250387.0 132224.0 131233.0 137439.0 139286.0 122800.0 142135.0 122800.0 122800.0 142135.0 142135.0
167152.0 168882.0 139159.0 131528.0 128055.0 120238.0 87467.0 93833.0 103429.0 96681.0 31769.0 36378.0 28015.0 34707.0 123863.0 121450.0 92819.0 100096.0 151233.0 148656.0 108608.0 113179.0 198974.0 201329.0 146330.0 148912.0 133460.0 128507.0 168445.0 162516.0 60054.0 65064.0 84213.0 89776.0 126382.0 123156.0 161493.0 163194.0 168306.0 161655.0 9904.0 16862.0 140561.0 134672.0 77684.0 79183.0 135688.0 128385.0 60713.0 67917.0 135934.0 142105.0 56394.0 64399.0 0.0 8419.0 28224.0 27871.0 175296.0 179171.0 116437.0 115624.0 20724.0 14177.0 70737.0 72439.0 129357.0 135724.0 140748.0 142055.0 158171.0 164770.0 19666.0 25437.0 240823.0 237856.0 99237.0 104369.0 164192.0 165996.0 103696.0 105088.0 126522.0 125754.0 56746.0 53912.0 90895.0 99050.0 123361.0 115693.0 74918.0 80503.0 188391.0 196167.0 149907.0 141721.0 153194.0 157226.0 95054.0 87265.0 121861.0 121126.0 151868.0 145429.0 222302.0 228952.0 141837.0 144067.0 224784.0 216553.0 132163.0 135497.0 150672.0 148867.0 113928.0 105987.0 122078.0 130076.0 174503.0 169336.0 76874.0 70312.0 154057.0 153428.0 69796.0 71957.0 9856.0 14913.0 111805.0 119791.0 92043.0 91150.0 188651.0 183339.0 119067.0 114335.0 89197.0 95702.0 49998.0 57760.0 128804.0 126583.0 139158.0 131675.0 136650.0 128633.0 8190.0 6601.0 67276.0 64992.0 146443.0 148664.0 104204.0 96580.0 197202.0 189030.0 179909.0 176622.0 73055.0 75201.0 141771.0 88619.0 141771.0 141771.0 88619.0 88619.0
170995.0 172371.0 145595.0 138022.0 119697.0 111867.0 81305.0 87310.0 109542.0 103039.0 23352.0 28122.0 20301.0 27703.0 126953.0 124067.0 85494.0 92627.0 152670.0 149672.0 109519.0 113578.0 203807.0 205916.0 139275.0 142112.0 129623.0 124279.0 162018.0 156283.0 51647.0 56754.0 85801.0 91875.0 122014.0 119242.0 153155.0 154807.0 160391.0 153827.0 14951.0 19185.0 132306.0 126355.0 78487.0 80832.0 128265.0 121073.0 63537.0 71112.0 127539.0 133693.0 50419.0 58372.0 8419.0 0.0 34038.0 35031.0 177596.0 181141.0 122522.0 122060.0 29042.0 22576.0 75568.0 77966.0 125138.0 131233.0 139608.0 140422.0 162641.0 169035.0 20491.0 23487.0 245577.0 242824.0 95076.0 99736.0 155789.0 157579.0 102056.0 104096.0 118113.0 117337.0 56292.0 54624.0 82664.0 90803.0 115056.0 107429.0 67328.0 72649.0 180086.0 187870.0 141510.0 133322.0 150382.0 154046.0 91652.0 83812.0 127005.0 126678.0 143859.0 137521.0 226402.0 233193.0 145856.0 147672.0 230529.0 222294.0 135041.0 138797.0 142282.0 140523.0 110511.0 102701.0 115898.0 123965.0 175959.0 171098.0 68795.0 62097.0 158191.0 157952.0 70055.0 73125.0 5542.0 6503.0 107141.0 115095.0 91971.0 90353.0 180268.0 174933.0 117102.0 111928.0 81283.0 87642.0 44492.0 51860.0 133330.0 131540.0 131821.0 124412.0 128659.0 120691.0 16588.0 12284.0 59023.0 57035.0 138050.0 140248.0 97169.0 89686.0 201291.0 193120.0 171552.0 168229.0 79695.0 82323.0 133739.0 89649.0 133739.0 133739.0 89649.0 89649.0
181445.0 184239.0 111581.0 104029.0 144670.0 137259.0 115285.0 121348.0 75511.0 69021.0 54119.0 55495.0 45465.0 47737.0 141046.0 139911.0 119156.0 126093.0 172032.0 170360.0 131010.0 136437.0 170819.0 173270.0 173112.0 176089.0 161395.0 156604.0 196056.0 190298.0 81307.0 87677.0 61315.0 65563.0 154523.0 151137.0 177320.0 180094.0 192639.0 186375.0 34643.0 42499.0 162851.0 156320.0 100907.0 100826.0 161721.0 154685.0 36088.0 42171.0 153376.0 160185.0 84300.0 92286.0 28224.0 34038.0 0.0 7909.0 193841.0 198490.0 88498.0 88054.0 18774.0 23723.0 42728.0 44219.0 157451.0 163890.0 166139.0 168073.0 130203.0 136927.0 46180.0 53207.0 212685.0 209661.0 127340.0 132573.0 181619.0 184317.0 129947.0 130545.0 146442.0 144424.0 41911.0 35838.0 113800.0 121735.0 145249.0 138064.0 100711.0 105458.0 209908.0 217762.0 170015.0 161852.0 180401.0 184722.0 122833.0 115096.0 132499.0 130159.0 175789.0 169855.0 194528.0 201076.0 155956.0 159424.0 196658.0 188425.0 105975.0 108701.0 167786.0 164933.0 141667.0 133666.0 149895.0 157943.0 195047.0 189233.0 100899.0 93617.0 126328.0 125432.0 51250.0 50715.0 37719.0 39431.0 140011.0 147999.0 116370.0 116507.0 208898.0 202931.0 145574.0 141304.0 113862.0 119650.0 78094.0 85708.0 100835.0 98417.0 165388.0 158075.0 160723.0 152968.0 24870.0 32305.0 90357.0 89707.0 163717.0 166996.0 131055.0 123651.0 169490.0 161291.0 200733.0 196689.0 45875.0 49215.0 154464.0 66901.0 154464.0 154464.0 66901.0 66901.0
174232.0 177170.0 111433.0 103773.0 149737.0 142204.0 115258.0 121696.0 76024.0 69063.0 56887.0 59248.0 49363.0 52714.0 134371.0 133489.0 120491.0 127656.0 166062.0 164641.0 125627.0 131316.0 173031.0 175787.0 174148.0 176780.0 159115.0 154672.0 196277.0 190289.0 84767.0 90711.0 67839.0 71586.0 152719.0 148962.0 182646.0 185163.0 195178.0 188715.0 32180.0 39737.0 166231.0 159926.0 95970.0 95387.0 163291.0 156072.0 42411.0 47804.0 158254.0 164908.0 84174.0 92178.0 27871.0 35031.0 7909.0 0.0 187310.0 192115.0 89026.0 87918.0 12788.0 19504.0 46009.0 46165.0 155508.0 162164.0 161814.0 164080.0 133005.0 139955.0 43648.0 51358.0 214922.0 211632.0 125482.0 131082.0 186555.0 189016.0 126207.0 126365.0 150601.0 148947.0 49787.0 43570.0 116834.0 124879.0 148747.0 141368.0 102358.0 107566.0 213632.0 221465.0 174162.0 165977.0 177226.0 181823.0 120413.0 112775.0 124969.0 122501.0 178507.0 172328.0 197574.0 203947.0 148764.0 152400.0 197576.0 189355.0 110725.0 112995.0 172779.0 170180.0 139138.0 131084.0 149848.0 157815.0 188966.0 183005.0 103427.0 96417.0 129562.0 128187.0 58768.0 57786.0 37723.0 41062.0 138517.0 146504.0 111747.0 112342.0 213052.0 207284.0 141944.0 138019.0 116133.0 122267.0 77631.0 85513.0 103725.0 100726.0 166829.0 159394.0 163354.0 155466.0 22438.0 30451.0 93228.0 91880.0 168661.0 171663.0 132021.0 124431.0 172679.0 164437.0 204688.0 200887.0 45288.0 47361.0 160365.0 73696.0 160365.0 160365.0 73696.0 73696.0
34815.0 26743.0 268367.0 261416.0 251718.0 244723.0 157159.0 163306.0 244569.0 236634.0 185326.0 193211.0 192526.0 201025.0 53141.0 54019.0 177900.0 183202.0 29957.0 37176.0 71331.0 70908.0 341256.0 346107.0 191327.0 185767.0 120296.0 126982.0 185364.0 177608.0 196457.0 193216.0 255101.0 258809.0 129351.0 121770.0 279729.0 276337.0 232425.0 224581.0 165425.0 158837.0 231373.0 231833.0 100686.0 96957.0 196538.0 190125.0 229710.0 234895.0 253912.0 255443.0 157750.0 156848.0 175296.0 177596.0 193841.0 187310.0 0.0 8111.0 255067.0 249903.0 175075.0 171109.0 229574.0 226317.0 126862.0 132245.0 73937.0 81787.0 307791.0 315630.0 157106.0 155850.0 380929.0 375532.0 128593.0 134313.0 274649.0 271624.0 96950.0 89483.0 236205.0 241591.0 231704.0 227808.0 201607.0 206437.0 223693.0 216586.0 178685.0 185805.0 269001.0 274172.0 250630.0 244985.0 102427.0 110016.0 120434.0 123930.0 76466.0 83598.0 226022.0 217903.0 370649.0 375496.0 47928.0 40510.0 352728.0 345356.0 295181.0 295847.0 265985.0 269096.0 115341.0 115500.0 162102.0 162771.0 18123.0 13011.0 190323.0 191902.0 306955.0 303013.0 243839.0 244397.0 172235.0 179186.0 134271.0 134741.0 91924.0 97651.0 277664.0 277656.0 93584.0 101253.0 190395.0 197488.0 155687.0 156795.0 281018.0 275346.0 195748.0 190235.0 216053.0 209685.0 172627.0 168717.0 191952.0 183435.0 262179.0 258918.0 174946.0 170335.0 347738.0 339589.0 267505.0 269833.0 216894.0 212419.0 279075.0 260732.0 279075.0 279075.0 260732.0 260732.0
42858.0 34774.0 275049.0 268040.0 251715.0 244851.0 157015.0 162863.0 250725.0 242771.0 187962.0 195804.0 195512.0 203976.0 58642.0 58633.0 177648.0 182680.0 30184.0 36304.0 73343.0 72035.0 347795.0 352566.0 188784.0 182986.0 117481.0 124486.0 181668.0 174016.0 198020.0 194484.0 259800.0 263687.0 126990.0 119617.0 279150.0 275540.0 229938.0 222170.0 169342.0 162571.0 230110.0 230855.0 103485.0 100317.0 194603.0 188394.0 234465.0 239818.0 253603.0 254889.0 159197.0 157892.0 179171.0 181141.0 198490.0 192115.0 8111.0 0.0 261379.0 256321.0 179754.0 175526.0 234909.0 231845.0 124314.0 129340.0 71104.0 78614.0 313941.0 321753.0 160676.0 159027.0 387638.0 382312.0 127925.0 133274.0 273738.0 270513.0 96889.0 89758.0 235742.0 241341.0 235760.0 232075.0 201857.0 206420.0 223002.0 216055.0 179287.0 186240.0 266764.0 271762.0 249539.0 244091.0 98245.0 105619.0 120196.0 124151.0 83788.0 91043.0 224090.0 216042.0 377022.0 381954.0 55494.0 47852.0 359748.0 352334.0 300610.0 301436.0 265403.0 268723.0 113867.0 114591.0 160219.0 160491.0 12134.0 10896.0 190998.0 192905.0 312958.0 309147.0 248117.0 248900.0 175727.0 182472.0 132786.0 132782.0 93633.0 98877.0 275715.0 275950.0 92219.0 100052.0 190501.0 197428.0 157487.0 158181.0 286952.0 281399.0 193635.0 188353.0 214544.0 208380.0 176813.0 172619.0 193095.0 184552.0 261661.0 258174.0 174109.0 169815.0 353965.0 345794.0 265601.0 268160.0 222713.0 218412.0 279587.0 265317.0 279587.0 279587.0 265317.0 265317.0
233074.0 238263.0 24302.0 17897.0 219994.0 213615.0 203777.0 209816.0 13010.0 20324.0 140984.0 140481.0 130757.0 129949.0 203145.0 204872.0 207010.0 213647.0 239920.0 240453.0 204904.0 211784.0 87382.0 91543.0 261108.0 264361.0 247436.0 243351.0 284526.0 278796.0 165870.0 173094.0 70330.0 63927.0 241499.0 237428.0 249695.0 254203.0 277849.0 272132.0 121110.0 128439.0 245775.0 238524.0 178520.0 175711.0 249097.0 242335.0 69817.0 62710.0 229535.0 237039.0 172762.0 180758.0 116437.0 122522.0 88498.0 89026.0 255067.0 261379.0 0.0 7469.0 100071.0 107872.0 49849.0 45140.0 244178.0 250983.0 245130.0 248570.0 53379.0 61356.0 132428.0 140342.0 128690.0 124520.0 214272.0 220045.0 256564.0 260661.0 211974.0 210819.0 226561.0 222840.0 93172.0 86621.0 198634.0 206120.0 228054.0 221658.0 188325.0 192381.0 290809.0 298656.0 249639.0 241756.0 263911.0 269076.0 208713.0 201217.0 181263.0 175665.0 260650.0 255413.0 115679.0 120850.0 209604.0 215606.0 108600.0 100391.0 59167.0 54433.0 242769.0 238309.0 227214.0 219125.0 238390.0 246431.0 261140.0 254031.0 187124.0 179416.0 54303.0 48806.0 85164.0 77051.0 126127.0 127688.0 227473.0 235455.0 194985.0 197135.0 287766.0 280851.0 227798.0 224756.0 200405.0 205409.0 166435.0 174155.0 32136.0 24084.0 252930.0 245799.0 245964.0 238616.0 111451.0 119478.0 176070.0 176717.0 239138.0 243976.0 219204.0 211943.0 92764.0 84692.0 280710.0 275541.0 44185.0 45121.0 224357.0 75676.0 224357.0 224357.0 75676.0 75676.0
227343.0 232661.0 23540.0 15995.0 222555.0 216023.0 203090.0 209336.0 13949.0 19050.0 141305.0 141220.0 131375.0 131050.0 198274.0 200220.0 207068.0 213855.0 235356.0 236093.0 201089.0 208095.0 91704.0 96258.0 261103.0 264142.0 245393.0 241532.0 284020.0 278139.0 166817.0 173885.0 75135.0 69134.0 239761.0 235477.0 252702.0 257020.0 278877.0 273008.0 119742.0 126887.0 247263.0 240132.0 175288.0 172187.0 249406.0 242516.0 72334.0 65648.0 232024.0 239461.0 172017.0 180022.0 115624.0 122060.0 88054.0 87918.0 249903.0 256321.0 7469.0 0.0 98424.0 106330.0 51665.0 46017.0 242350.0 249272.0 241771.0 245421.0 59599.0 67585.0 130903.0 138984.0 132540.0 128027.0 212574.0 218539.0 259284.0 263212.0 209190.0 207767.0 228487.0 225005.0 96065.0 89183.0 199627.0 207229.0 229529.0 222966.0 188485.0 192806.0 292739.0 300598.0 251700.0 243754.0 261246.0 266575.0 206719.0 199309.0 175634.0 169888.0 261746.0 256326.0 120759.0 125641.0 204104.0 210243.0 110584.0 102439.0 66595.0 61902.0 245447.0 241166.0 225084.0 216995.0 237701.0 245695.0 256346.0 249151.0 187750.0 180135.0 61064.0 55163.0 88963.0 80935.0 125406.0 127453.0 225949.0 233915.0 191779.0 194197.0 290017.0 283229.0 224991.0 222179.0 200963.0 206195.0 165540.0 173378.0 39554.0 31437.0 253167.0 245945.0 246947.0 239483.0 110225.0 118289.0 176801.0 177087.0 241751.0 246401.0 219084.0 211704.0 98389.0 90427.0 282776.0 277772.0 42641.0 42254.0 227389.0 80817.0 227389.0 227389.0 80817.0 80817.0
162896.0 165581.0 121802.0 114081.0 147979.0 140240.0 105849.0 112690.0 87137.0 79868.0 52319.0 56264.0 47070.0 52282.0 122273.0 121160.0 112741.0 120169.0 153462.0 151948.0 112858.0 118529.0 185014.0 187932.0 165772.0 167974.0 147454.0 143281.0 186878.0 180648.0 80640.0 85779.0 80048.0 84094.0 141435.0 137393.0 181291.0 183256.0 188809.0 182071.0 21597.0 28468.0 161285.0 155386.0 83189.0 82620.0 155646.0 148212.0 54729.0 60432.0 156070.0 162385.0 74900.0 82843.0 20724.0 29042.0 18774.0 12788.0 175075.0 179754.0 100071.0 98424.0 0.0 7999.0 58657.0 58370.0 144108.0 150927.0 149120.0 151483.0 145324.0 152361.0 32491.0 40702.0 226890.0 223443.0 114216.0 120115.0 184372.0 186354.0 113730.0 113724.0 147082.0 146117.0 59318.0 53959.0 111617.0 119773.0 144080.0 136417.0 95182.0 101003.0 209110.0 216888.0 170512.0 162322.0 164982.0 169730.0 108721.0 101176.0 114453.0 112465.0 172460.0 165933.0 209956.0 216249.0 137397.0 140746.0 208657.0 200455.0 123513.0 125754.0 170763.0 168701.0 127331.0 119254.0 140268.0 148120.0 176422.0 170544.0 97539.0 91032.0 142055.0 140489.0 69686.0 69463.0 30015.0 35535.0 127527.0 135495.0 99004.0 99716.0 209293.0 203906.0 129502.0 125749.0 109738.0 116348.0 68044.0 76144.0 116115.0 112860.0 159001.0 151430.0 157230.0 149175.0 13067.0 20788.0 88000.0 85589.0 166562.0 169002.0 123720.0 115936.0 185129.0 176874.0 200594.0 197240.0 55928.0 56773.0 160498.0 85675.0 160498.0 160498.0 85675.0 85675.0
160366.0 162695.0 129735.0 122019.0 142225.0 134413.0 97865.0 104736.0 94914.0 87712.0 45894.0 50515.0 41868.0 47949.0 118663.0 117096.0 104984.0 112460.0 148658.0 146813.0 107338.0 112717.0 192459.0 195266.0 157879.0 160028.0 139799.0 135515.0 178887.0 172650.0 74126.0 78922.0 84613.0 89168.0 133633.0 129695.0 175654.0 177370.0 181322.0 174517.0 13601.0 20573.0 154247.0 148496.0 77185.0 77192.0 147881.0 140409.0 59646.0 65891.0 150110.0 156268.0 66938.0 74871.0 14177.0 22576.0 23723.0 19504.0 171109.0 175526.0 107872.0 106330.0 7999.0 0.0 65432.0 65639.0 136345.0 143112.0 142591.0 144709.0 152509.0 159455.0 24578.0 32721.0 234347.0 230988.0 106403.0 112226.0 178364.0 180142.0 106753.0 107060.0 140586.0 139902.0 61330.0 56800.0 104570.0 112747.0 137161.0 129413.0 87580.0 93556.0 202172.0 209926.0 163929.0 155748.0 157722.0 162340.0 101074.0 93483.0 113073.0 111621.0 165071.0 158453.0 217076.0 223451.0 134884.0 137817.0 216470.0 208263.0 129608.0 132151.0 164849.0 163030.0 119748.0 111682.0 132272.0 140122.0 171755.0 166096.0 90305.0 83989.0 149045.0 147689.0 72790.0 73388.0 22698.0 29041.0 119644.0 127618.0 92699.0 93025.0 202626.0 197389.0 122472.0 118515.0 102322.0 109062.0 60060.0 68172.0 123228.0 120196.0 151199.0 143608.0 149832.0 141738.0 5989.0 12978.0 81023.0 78263.0 160619.0 162815.0 115855.0 108045.0 192171.0 183932.0 193813.0 190627.0 63779.0 64758.0 155671.0 89876.0 155671.0 155671.0 89876.0 89876.0
213113.0 216952.0 74095.0 67183.0 170972.0 164385.0 156547.0 162077.0 37782.0 33908.0 92079.0 91022.0 81477.0 80218.0 176440.0 176455.0 158262.0 164659.0 210088.0 209201.0 170836.0 176810.0 128290.0 130593.0 212347.0 215947.0 204109.0 199242.0 236615.0 231214.0 116188.0 123520.0 35058.0 34068.0 197116.0 193838.0 201439.0 205581.0 228072.0 222431.0 77306.0 85119.0 195931.0 188700.0 141696.0 140639.0 199919.0 193334.0 21188.0 16205.0 180409.0 187823.0 125904.0 133804.0 70737.0 75568.0 42728.0 46009.0 229574.0 234909.0 49849.0 51665.0 58657.0 65432.0 0.0 8049.0 200091.0 206445.0 207776.0 210089.0 87478.0 94213.0 88864.0 95921.0 170111.0 167264.0 169972.0 175045.0 207777.0 211614.0 172185.0 172365.0 176875.0 173342.0 45165.0 37848.0 148900.0 156329.0 178207.0 171816.0 139474.0 143151.0 241131.0 248987.0 200051.0 192120.0 222995.0 227406.0 165562.0 157821.0 161878.0 157971.0 210852.0 205697.0 151827.0 158349.0 188052.0 192661.0 155600.0 147376.0 65785.0 67343.0 193918.0 189769.0 184394.0 176390.0 191004.0 199127.0 232639.0 226293.0 137681.0 129897.0 83673.0 82715.0 41056.0 34066.0 79869.0 80042.0 182475.0 190453.0 157629.0 158346.0 238352.0 231577.0 187900.0 183837.0 151011.0 155804.0 120057.0 127368.0 58108.0 55972.0 203838.0 196841.0 196215.0 188932.0 67479.0 75032.0 126545.0 127594.0 190186.0 194762.0 170722.0 163701.0 126830.0 118613.0 231129.0 226107.0 22372.0 30444.0 176257.0 42206.0 176257.0 176257.0 42206.0 42206.0
208869.0 212937.0 69056.0 61855.0 177344.0 170627.0 159254.0 165075.0 32468.0 27481.0 95857.0 95386.0 85629.0 85052.0 173250.0 173600.0 161931.0 168526.0 207627.0 207038.0 169198.0 175412.0 126889.0 129627.0 216038.0 219392.0 205207.0 200620.0 239751.0 234161.0 120878.0 128027.0 42748.0 41104.0 198595.0 195016.0 208149.0 212133.0 232922.0 227118.0 78183.0 85853.0 201255.0 194147.0 140643.0 139125.0 203959.0 197216.0 28591.0 24207.0 186705.0 194051.0 128375.0 136337.0 72439.0 77966.0 44219.0 46165.0 226317.0 231845.0 45140.0 46017.0 58370.0 65639.0 8049.0 0.0 201462.0 207995.0 207065.0 209687.0 86958.0 94047.0 89719.0 97168.0 168781.0 165583.0 171379.0 176739.0 214246.0 217936.0 172075.0 171868.0 182645.0 179346.0 52424.0 44864.0 153676.0 161242.0 183519.0 176951.0 143221.0 147241.0 246876.0 254740.0 205937.0 197952.0 223325.0 227978.0 166532.0 158864.0 157355.0 153169.0 215768.0 210416.0 151608.0 157880.0 183986.0 188847.0 152565.0 144331.0 68955.0 69619.0 200365.0 196371.0 185283.0 177235.0 193823.0 201908.0 229962.0 223452.0 142008.0 134324.0 83884.0 82120.0 49018.0 42107.0 81903.0 82873.0 184179.0 192169.0 156782.0 157902.0 244391.0 237733.0 187859.0 184099.0 155278.0 160346.0 122273.0 129804.0 57807.0 54561.0 207800.0 200687.0 201006.0 193594.0 68347.0 76170.0 130981.0 131579.0 196581.0 200987.0 174199.0 167012.0 126851.0 118584.0 237004.0 232135.0 14598.0 22661.0 183114.0 49871.0 183114.0 183114.0 49871.0 49871.0
146606.0 141868.0 265554.0 257806.0 138236.0 132811.0 52674.0 53247.0 231242.0 223953.0 115335.0 120676.0 126627.0 132712.0 109998.0 102142.0 67596.0 69126.0 98046.0 90149.0 75592.0 69217.0 328265.0 330684.0 64488.0 58991.0 7946.0 867.0 62453.0 54327.0 107353.0 100422.0 209248.0 215961.0 4004.0 7946.0 160709.0 155888.0 105629.0 97858.0 123338.0 115817.0 108777.0 111051.0 78260.0 85535.0 71080.0 65697.0 188501.0 196190.0 137624.0 137147.0 77020.0 70153.0 129357.0 125138.0 157451.0 155508.0 126862.0 124314.0 244178.0 242350.0 144108.0 136345.0 200091.0 201462.0 0.0 7940.0 53230.0 46166.0 287519.0 294057.0 111870.0 104297.0 370136.0 367044.0 30121.0 26053.0 153502.0 149332.0 44697.0 51828.0 119249.0 126273.0 177072.0 177646.0 94227.0 95548.0 105322.0 99895.0 79333.0 82880.0 142516.0 147448.0 128743.0 124472.0 35462.0 34362.0 35929.0 43077.0 140271.0 146462.0 100378.0 92556.0 351507.0 358239.0 133436.0 128083.0 352752.0 344555.0 259729.0 263794.0 147227.0 151860.0 19735.0 26995.0 37591.0 36393.0 112937.0 114245.0 89824.0 95615.0 283271.0 282782.0 191522.0 196195.0 120429.0 121772.0 19238.0 12764.0 65542.0 58631.0 151810.0 152572.0 36514.0 31472.0 82648.0 86971.0 81391.0 75459.0 258155.0 255861.0 69676.0 65070.0 92330.0 87299.0 133145.0 125293.0 97617.0 90374.0 143987.0 139141.0 58453.0 58012.0 326384.0 318223.0 141802.0 144903.0 200016.0 200265.0 169876.0 212006.0 169876.0 169876.0 212006.0 212006.0
153058.0 148110.0 272533.0 264789.0 137800.0 132729.0 56222.0 55659.0 238025.0 230795.0 120477.0 125509.0 131847.0 137650.0 117296.0 109430.0 69255.0 69891.0 103867.0 95883.0 83128.0 76581.0 334697.0 337016.0 59751.0 53659.0 12001.0 8532.0 55272.0 47164.0 110923.0 103738.0 214740.0 221565.0 9542.0 15885.0 158924.0 153780.0 100862.0 93258.0 129984.0 122551.0 106392.0 109215.0 86183.0 93473.0 67826.0 63135.0 194405.0 202154.0 136628.0 135705.0 82368.0 75198.0 135724.0 131233.0 163890.0 162164.0 132245.0 129340.0 250983.0 249272.0 150927.0 143112.0 206445.0 207995.0 7940.0 0.0 58324.0 50757.0 293797.0 300257.0 118576.0 110851.0 376546.0 373547.0 36711.0 31527.0 151223.0 146748.0 52560.0 59574.0 118301.0 125602.0 182341.0 183173.0 95608.0 96258.0 104215.0 99285.0 82427.0 85314.0 138079.0 142727.0 126416.0 122579.0 36484.0 33588.0 43350.0 50243.0 147925.0 154180.0 96724.0 89138.0 357631.0 364424.0 140521.0 134995.0 359579.0 351373.0 265450.0 269658.0 145596.0 150539.0 27671.0 34826.0 35906.0 33041.0 117761.0 119491.0 92414.0 98622.0 289423.0 289080.0 196792.0 201662.0 126645.0 127640.0 24197.0 16450.0 73460.0 66570.0 147804.0 148959.0 43685.0 39119.0 84276.0 87959.0 87130.0 80812.0 264449.0 262301.0 65984.0 62096.0 89695.0 85248.0 139756.0 131846.0 100819.0 93938.0 142513.0 137320.0 59015.0 59656.0 332523.0 324349.0 137915.0 141388.0 206855.0 207258.0 169977.0 217317.0 169977.0 169977.0 217317.0 217317.0
96856.0 91183.0 263632.0 256001.0 185563.0 179269.0 91965.0 96354.0 232827.0 224975.0 138537.0 145635.0 148388.0 156137.0 68714.0 61312.0 111567.0 115469.0 46193.0 38106.0 43323.0 35375.0 332173.0 335689.0 117683.0 111920.0 46408.0 53423.0 111859.0 103987.0 140717.0 135522.0 224945.0 230477.0 56009.0 48914.0 210917.0 206733.0 158839.0 151086.0 132136.0 124309.0 160395.0 161794.0 66671.0 69700.0 123886.0 117978.0 201195.0 208026.0 186351.0 186859.0 103066.0 99252.0 140748.0 139608.0 166139.0 161814.0 73937.0 71104.0 245130.0 241771.0 149120.0 142591.0 207776.0 207065.0 53230.0 58324.0 0.0 8425.0 293787.0 301040.0 121112.0 116148.0 373762.0 369637.0 61702.0 65300.0 204655.0 200985.0 38017.0 35672.0 168127.0 174392.0 195754.0 194171.0 137419.0 140763.0 154779.0 148391.0 117147.0 123036.0 195734.0 200672.0 180126.0 175176.0 31984.0 40144.0 56706.0 62998.0 103224.0 110588.0 153327.0 145372.0 358460.0 364478.0 88535.0 81748.0 351489.0 343509.0 272107.0 274741.0 197233.0 201168.0 45004.0 48038.0 89679.0 89506.0 59719.0 61167.0 128868.0 132483.0 290948.0 288924.0 209658.0 212536.0 134134.0 138615.0 63372.0 62289.0 50320.0 49677.0 204883.0 205387.0 25555.0 33288.0 125661.0 131744.0 103914.0 101710.0 264841.0 260979.0 122737.0 117717.0 144407.0 138675.0 141517.0 134990.0 133458.0 125069.0 193699.0 189582.0 105957.0 102847.0 333868.0 325592.0 194821.0 197650.0 201894.0 200010.0 215326.0 229147.0 215326.0 215326.0 229147.0 229147.0
105255.0 99530.0 267531.0 259865.0 180699.0 174600.0 88059.0 91865.0 236138.0 228340.0 137941.0 144817.0 148118.0 155658.0 76632.0 69120.0 107093.0 110553.0 54478.0 46386.0 49458.0 41420.0 335375.0 338735.0 110385.0 104417.0 38994.0 46438.0 103722.0 95895.0 138432.0 132888.0 226084.0 231823.0 49203.0 42588.0 205297.0 200901.0 151539.0 143857.0 133756.0 125882.0 154243.0 155944.0 70147.0 73977.0 117169.0 111510.0 202708.0 209703.0 181128.0 181360.0 101529.0 97150.0 142055.0 140422.0 168073.0 164080.0 81787.0 78614.0 248570.0 245421.0 151483.0 144709.0 210089.0 209687.0 46166.0 50757.0 8425.0 0.0 296571.0 303732.0 122528.0 117087.0 377064.0 373083.0 57908.0 60611.0 198714.0 194855.0 38385.0 37848.0 162828.0 169304.0 196291.0 195046.0 133291.0 136235.0 149293.0 143139.0 113855.0 119382.0 188601.0 193400.0 174081.0 169357.0 23725.0 31873.0 54182.0 61061.0 110901.0 118177.0 146526.0 138660.0 361253.0 367384.0 96835.0 90113.0 355457.0 347435.0 273911.0 276773.0 191660.0 195806.0 40314.0 44545.0 83211.0 82558.0 67004.0 68919.0 125469.0 129508.0 293515.0 291716.0 210346.0 213524.0 135011.0 139044.0 57914.0 56037.0 53651.0 51785.0 197976.0 198690.0 23743.0 30561.0 121489.0 127261.0 102958.0 100115.0 267494.0 263856.0 115840.0 111082.0 138058.0 132578.0 143299.0 136501.0 130675.0 122407.0 188210.0 183866.0 100726.0 98121.0 336538.0 328271.0 187966.0 190995.0 205045.0 203463.0 210954.0 230070.0 210954.0 210954.0 230070.0 230070.0
286371.0 291473.0 50080.0 53568.0 242000.0 236266.0 242808.0 247810.0 63223.0 71170.0 176975.0 174474.0 165763.0 162615.0 255483.0 256827.0 242490.0 248259.0 291630.0 291735.0 255006.0 261524.0 42039.0 43330.0 296064.0 300348.0 291585.0 286668.0 321701.0 316743.0 197863.0 205676.0 86809.0 78827.0 284505.0 281308.0 270705.0 275355.0 307008.0 302240.0 164726.0 172502.0 272752.0 264922.0 227204.0 225222.0 282600.0 276606.0 100710.0 92706.0 251721.0 259413.0 212627.0 220415.0 158171.0 162641.0 130203.0 133005.0 307791.0 313941.0 53379.0 59599.0 145324.0 152509.0 87478.0 86958.0 287519.0 293797.0 293787.0 296571.0 0.0 7987.0 176289.0 183398.0 83190.0 81170.0 257399.0 262342.0 277924.0 282462.0 259030.0 258732.0 251387.0 246475.0 118816.0 114938.0 229448.0 236112.0 255461.0 250175.0 223701.0 226336.0 314823.0 322552.0 273434.0 265954.0 310231.0 314781.0 253034.0 245298.0 234512.0 228995.0 289674.0 285558.0 64683.0 70942.0 262741.0 268605.0 76524.0 68999.0 40827.0 32890.0 264287.0 259430.0 271858.0 263845.0 276932.0 285094.0 313261.0 306312.0 220181.0 212196.0 8493.0 4870.0 106123.0 98776.0 167153.0 166667.0 269759.0 277722.0 243469.0 244795.0 310449.0 303116.0 274817.0 271019.0 233495.0 237185.0 207066.0 214125.0 29371.0 32927.0 286755.0 280199.0 275867.0 269289.0 154884.0 162500.0 208883.0 211338.0 260858.0 266289.0 255338.0 248772.0 40278.0 32013.0 304186.0 298371.0 92430.0 95757.0 245365.0 88159.0 245365.0 245365.0 88159.0 88159.0
294316.0 299400.0 57474.0 61277.0 246486.0 240752.0 248841.0 253697.0 71069.0 78996.0 182815.0 180081.0 171537.0 168122.0 263268.0 264555.0 248058.0 253699.0 299314.0 299357.0 262476.0 268943.0 37500.0 37654.0 301457.0 305874.0 298228.0 293203.0 327360.0 322515.0 203116.0 210976.0 91394.0 83470.0 291001.0 287925.0 275191.0 279840.0 311585.0 306957.0 171519.0 179324.0 277238.0 269414.0 234506.0 232632.0 287819.0 281940.0 106599.0 98638.0 256207.0 263899.0 218833.0 226576.0 164770.0 169035.0 136927.0 139955.0 315630.0 321753.0 61356.0 67585.0 152361.0 159455.0 94213.0 94047.0 294057.0 300257.0 301040.0 303732.0 7987.0 0.0 183077.0 190072.0 77556.0 76123.0 263944.0 268770.0 282410.0 286948.0 266091.0 265907.0 255872.0 250960.0 123867.0 120347.0 234435.0 240970.0 259914.0 254794.0 229304.0 231746.0 319309.0 327037.0 277920.0 270440.0 317154.0 321616.0 259741.0 251984.0 242448.0 236950.0 294266.0 290313.0 57626.0 64184.0 270654.0 276493.0 74284.0 67162.0 42998.0 35545.0 268773.0 263915.0 278587.0 270592.0 282840.0 291006.0 321004.0 314080.0 225493.0 217498.0 11165.0 12630.0 110812.0 103694.0 173636.0 172911.0 276176.0 284127.0 250731.0 251948.0 314934.0 307602.0 281860.0 277964.0 238772.0 242277.0 213382.0 220341.0 36247.0 40505.0 292010.0 285543.0 280610.0 274151.0 161688.0 169231.0 214200.0 216880.0 265344.0 270775.0 260964.0 254503.0 32831.0 24552.0 308672.0 302856.0 99974.0 103476.0 249851.0 92214.0 249851.0 249851.0 92214.0 92214.0
150922.0 152119.0 154293.0 146572.0 129597.0 121610.0 74147.0 81382.0 119459.0 112286.0 35100.0 42357.0 37761.0 46114.0 106586.0 103599.0 83191.0 90927.0 132315.0 129474.0 89347.0 93697.0 216607.0 219245.0 134909.0 136619.0 115490.0 111035.0 154942.0 148543.0 60059.0 62871.0 103874.0 109372.0 109111.0 105318.0 163085.0 163800.0 160670.0 153540.0 11562.0 4035.0 135936.0 130918.0 58337.0 60387.0 125800.0 118114.0 80181.0 87220.0 136533.0 141969.0 43732.0 51451.0 19666.0 20491.0 46180.0 43648.0 157106.0 160676.0 132428.0 130903.0 32491.0 24578.0 88864.0 89719.0 111870.0 118576.0 121112.0 122528.0 176289.0 183077.0 0.0 8574.0 258498.0 255265.0 81874.0 87648.0 164297.0 165228.0 84209.0 85445.0 124862.0 125398.0 75984.0 73495.0 86820.0 94954.0 119565.0 111497.0 67028.0 73842.0 184032.0 191645.0 147582.0 139517.0 134240.0 138547.0 76816.0 69146.0 108221.0 108482.0 144989.0 137937.0 240689.0 247199.0 125923.0 127493.0 241027.0 232817.0 151470.0 154584.0 151288.0 150462.0 95595.0 87566.0 108275.0 116026.0 155605.0 150666.0 71871.0 66766.0 172503.0 171499.0 89304.0 91614.0 15200.0 22901.0 95067.0 103043.0 72422.0 71493.0 185665.0 181088.0 99686.0 95196.0 82644.0 89997.0 36583.0 44816.0 146936.0 144243.0 128875.0 121168.0 129788.0 121542.0 21407.0 14012.0 64263.0 59634.0 146988.0 148162.0 93219.0 85246.0 215666.0 207462.0 176403.0 173960.0 88356.0 89222.0 146755.0 108273.0 146755.0 146755.0 108273.0 108273.0
151584.0 152328.0 162421.0 154713.0 123410.0 115410.0 65593.0 72808.0 127351.0 120276.0 31671.0 39449.0 36857.0 45389.0 106532.0 102960.0 74764.0 82533.0 130117.0 126801.0 86679.0 90408.0 223980.0 226476.0 126337.0 128050.0 108189.0 103454.0 146438.0 140082.0 54114.0 56170.0 109003.0 114849.0 101433.0 97931.0 156791.0 157215.0 152364.0 145184.0 19246.0 12518.0 128153.0 123327.0 55740.0 58907.0 117299.0 109593.0 86018.0 93314.0 130032.0 135240.0 35171.0 42877.0 25437.0 23487.0 53207.0 51358.0 155850.0 159027.0 140342.0 138984.0 40702.0 32721.0 95921.0 97168.0 104297.0 110851.0 116148.0 117087.0 183398.0 190072.0 8574.0 0.0 265859.0 262748.0 74211.0 79725.0 157570.0 158263.0 78702.0 80613.0 117787.0 118671.0 79765.0 78030.0 79349.0 87428.0 112000.0 103874.0 58906.0 65902.0 176220.0 183794.0 140272.0 132257.0 127772.0 131791.0 69676.0 61912.0 110904.0 111736.0 136801.0 129673.0 247639.0 254242.0 126943.0 127966.0 248920.0 240702.0 157533.0 160928.0 144741.0 144207.0 88537.0 80576.0 99777.0 107557.0 153377.0 148798.0 64302.0 59621.0 179403.0 178634.0 93535.0 96452.0 17989.0 23529.0 87159.0 95147.0 68639.0 66869.0 178132.0 173727.0 93897.0 88986.0 74672.0 82153.0 28010.0 36245.0 154028.0 151579.0 120347.0 112632.0 121626.0 113359.0 28923.0 20999.0 57301.0 52121.0 140434.0 141312.0 84674.0 76692.0 222552.0 214377.0 168773.0 166517.0 96377.0 97475.0 141709.0 113029.0 141709.0 141709.0 113029.0 113029.0
356165.0 362087.0 112594.0 119702.0 323732.0 317998.0 325974.0 331000.0 140943.0 148788.0 260160.0 257577.0 248934.0 245653.0 330138.0 332421.0 325576.0 331249.0 367632.0 368548.0 333545.0 340464.0 41892.0 39932.0 379013.0 383409.0 373979.0 369290.0 404841.0 399922.0 280666.0 288530.0 168743.0 160874.0 367200.0 363769.0 352437.0 357087.0 388646.0 384174.0 246955.0 254633.0 354485.0 346660.0 307114.0 304399.0 365357.0 359496.0 183896.0 175895.0 333453.0 341145.0 295707.0 303523.0 240823.0 245577.0 212685.0 214922.0 380929.0 387638.0 128690.0 132540.0 226890.0 234347.0 170111.0 168781.0 370136.0 376546.0 373762.0 377064.0 83190.0 77556.0 258498.0 265859.0 0.0 8049.0 340025.0 345157.0 359656.0 364195.0 340102.0 339254.0 333119.0 328207.0 201390.0 197892.0 311889.0 318339.0 337211.0 331939.0 306807.0 309299.0 396555.0 404284.0 355166.0 347686.0 391770.0 396618.0 335312.0 327638.0 305345.0 298981.0 371356.0 367573.0 28460.0 20951.0 334145.0 340763.0 38726.0 42065.0 119290.0 112209.0 346019.0 341162.0 354059.0 346006.0 360121.0 368283.0 388256.0 380903.0 303048.0 295053.0 88714.0 87755.0 188183.0 181187.0 249972.0 249740.0 352586.0 360564.0 323553.0 325472.0 392181.0 384848.0 355932.0 352537.0 316323.0 319779.0 290053.0 297197.0 112304.0 114280.0 369555.0 363099.0 357864.0 351509.0 237113.0 244880.0 291756.0 294405.0 342590.0 348021.0 338459.0 331937.0 49264.0 55828.0 385918.0 380103.0 172044.0 173777.0 327097.0 170417.0 327097.0 327097.0 170417.0 170417.0
350383.0 356391.0 107439.0 114706.0 322604.0 316870.0 323520.0 328702.0 136986.0 144746.0 257956.0 255601.0 246804.0 243774.0 325019.0 327445.0 323618.0 329422.0 362682.0 363738.0 329114.0 336115.0 39193.0 38674.0 377232.0 381485.0 370747.0 366201.0 402768.0 397725.0 279021.0 286842.0 167516.0 159588.0 364163.0 360581.0 351308.0 355958.0 387691.0 383080.0 243747.0 251368.0 353356.0 345532.0 303039.0 300148.0 363756.0 357775.0 181736.0 173716.0 332324.0 340017.0 293087.0 300944.0 237856.0 242824.0 209661.0 211632.0 375532.0 382312.0 124520.0 128027.0 223443.0 230988.0 167264.0 165583.0 367044.0 373547.0 369637.0 373083.0 81170.0 76123.0 255265.0 262748.0 8049.0 0.0 336955.0 342225.0 358528.0 363066.0 336334.0 335314.0 331990.0 327078.0 199887.0 196107.0 310503.0 317078.0 335990.0 330910.0 304818.0 307503.0 395427.0 403155.0 354038.0 346557.0 388131.0 393100.0 332041.0 324405.0 299757.0 293307.0 370377.0 366435.0 32603.0 26016.0 328581.0 335284.0 30736.0 34444.0 118287.0 111207.0 344890.0 340033.0 350736.0 342668.0 357786.0 365939.0 383122.0 375715.0 301348.0 293362.0 87266.0 85560.0 186931.0 179762.0 247113.0 247139.0 349661.0 357647.0 319505.0 321592.0 391052.0 383719.0 352164.0 348917.0 314659.0 318295.0 287316.0 294565.0 109874.0 111300.0 367917.0 361368.0 356733.0 350259.0 233920.0 241751.0 290050.0 292480.0 341462.0 346892.0 336437.0 329806.0 50233.0 55954.0 384790.0 378974.0 168231.0 169640.0 325969.0 168223.0 325969.0 325969.0 168223.0 168223.0
141534.0 138268.0 235853.0 228111.0 124369.0 117852.0 30266.0 35072.0 201316.0 194084.0 86290.0 92112.0 97414.0 103907.0 99416.0 92011.0 50138.0 54772.0 98638.0 91694.0 64443.0 60666.0 298157.0 300565.0 71940.0 69521.0 34757.0 29270.0 81239.0 73595.0 81749.0 75657.0 179571.0 186176.0 27238.0 24330.0 151229.0 147744.0 110214.0 102100.0 93302.0 85844.0 103295.0 103325.0 55882.0 63977.0 71841.0 64409.0 158509.0 166164.0 125785.0 126965.0 47951.0 41818.0 99237.0 95076.0 127340.0 125482.0 128593.0 127925.0 214272.0 212574.0 114216.0 106403.0 169972.0 171379.0 30121.0 36711.0 61702.0 57908.0 257399.0 263944.0 81874.0 74211.0 340025.0 336955.0 0.0 8174.0 146076.0 143209.0 32456.0 40628.0 107835.0 113603.0 147675.0 147961.0 75722.0 79283.0 95117.0 88133.0 56022.0 61485.0 144328.0 150410.0 122216.0 116414.0 58698.0 60637.0 10336.0 14459.0 124837.0 130019.0 100463.0 92146.0 321407.0 328127.0 124006.0 120214.0 322868.0 314663.0 229835.0 233807.0 137482.0 140848.0 18279.0 13709.0 39479.0 44272.0 117930.0 117141.0 67580.0 71876.0 253167.0 252662.0 162105.0 166554.0 90327.0 91848.0 14291.0 21812.0 47826.0 39868.0 151494.0 150560.0 36620.0 28627.0 63979.0 70246.0 51701.0 46401.0 228035.0 225754.0 72331.0 65457.0 88784.0 81825.0 103090.0 95211.0 73253.0 65211.0 133737.0 130330.0 46390.0 41919.0 296285.0 288123.0 141237.0 142676.0 170144.0 170590.0 153675.0 182518.0 153675.0 153675.0 182518.0 182518.0
148447.0 144948.0 241896.0 234166.0 120269.0 114042.0 28282.0 31263.0 207061.0 199930.0 89291.0 94635.0 100598.0 106660.0 106923.0 99433.0 46485.0 50174.0 104407.0 97225.0 71814.0 67621.0 303326.0 305582.0 63920.0 61372.0 32111.0 25187.0 73221.0 65644.0 82140.0 75544.0 183328.0 190104.0 22548.0 22106.0 146093.0 142293.0 102584.0 94474.0 98939.0 91657.0 97098.0 97585.0 64053.0 72151.0 64413.0 57164.0 162879.0 170627.0 121139.0 121908.0 51009.0 44102.0 104369.0 99736.0 132573.0 131082.0 134313.0 133274.0 220045.0 218539.0 120115.0 112226.0 175045.0 176739.0 26053.0 31527.0 65300.0 60611.0 262342.0 268770.0 87648.0 79725.0 345157.0 342225.0 8174.0 0.0 140464.0 137316.0 39380.0 47635.0 102990.0 109120.0 151063.0 151741.0 72812.0 75628.0 89888.0 83240.0 54996.0 59600.0 137123.0 143073.0 116325.0 110820.0 58137.0 58974.0 18434.0 22276.0 132849.0 138096.0 93329.0 85032.0 326120.0 332929.0 131454.0 127455.0 328635.0 320419.0 233953.0 238135.0 132363.0 136049.0 20343.0 18863.0 31479.0 36102.0 122945.0 122580.0 66141.0 71198.0 257923.0 257634.0 165515.0 170262.0 95199.0 96113.0 7440.0 15430.0 55781.0 47847.0 144607.0 143938.0 41168.0 33244.0 61003.0 66650.0 55609.0 49448.0 233004.0 230947.0 64694.0 58008.0 82135.0 75463.0 108646.0 100677.0 72910.0 65269.0 128724.0 124966.0 40928.0 37567.0 301016.0 292841.0 134359.0 136067.0 176003.0 176708.0 150345.0 186013.0 150345.0 150345.0 186013.0 186013.0
285945.0 283407.0 280750.0 274365.0 37057.0 44365.0 118764.0 111801.0 245337.0 241596.0 132540.0 128113.0 137556.0 133932.0 241443.0 234782.0 98096.0 91901.0 244699.0 237646.0 208244.0 205834.0 319745.0 319954.0 96383.0 104437.0 161333.0 153057.0 121220.0 124098.0 104705.0 101452.0 191159.0 199150.0 150012.0 156135.0 12504.0 4241.0 65974.0 69071.0 168235.0 166803.0 44834.0 42906.0 188617.0 196268.0 84053.0 88089.0 186953.0 193857.0 28321.0 22332.0 130652.0 127119.0 164192.0 155789.0 181619.0 186555.0 274649.0 273738.0 256564.0 259284.0 184372.0 178364.0 207777.0 214246.0 153502.0 151223.0 204655.0 198714.0 277924.0 282410.0 164297.0 157570.0 359656.0 358528.0 146076.0 140464.0 0.0 7456.0 178152.0 186052.0 40743.0 38906.0 163392.0 170102.0 79916.0 72686.0 51295.0 58999.0 103803.0 95817.0 45599.0 51655.0 24808.0 29663.0 187695.0 183978.0 154655.0 152378.0 259380.0 262408.0 58504.0 64153.0 338517.0 345370.0 265860.0 263419.0 353323.0 345388.0 241895.0 247751.0 13903.0 18831.0 160114.0 159188.0 115911.0 118267.0 263331.0 263034.0 94745.0 98127.0 271287.0 274003.0 172590.0 180691.0 156497.0 149346.0 141359.0 142692.0 188658.0 181219.0 35920.0 27475.0 181573.0 173695.0 88534.0 80545.0 136552.0 130723.0 251853.0 254053.0 86815.0 89312.0 61632.0 66214.0 172375.0 166835.0 100286.0 106255.0 17902.0 16582.0 99703.0 104659.0 313401.0 305233.0 34471.0 26360.0 223032.0 228589.0 57108.0 191029.0 57108.0 57108.0 191029.0 191029.0
283741.0 281013.0 284895.0 278414.0 40667.0 47369.0 116638.0 109395.0 249274.0 245351.0 134249.0 130191.0 139802.0 136580.0 239571.0 232786.0 96180.0 89627.0 241701.0 234539.0 206012.0 203340.0 324283.0 324492.0 90860.0 98839.0 157104.0 148918.0 114982.0 118130.0 106146.0 102383.0 195697.0 203689.0 145926.0 152272.0 19957.0 11696.0 59056.0 62522.0 169642.0 167873.0 40611.0 39944.0 187281.0 195044.0 79175.0 83686.0 190926.0 197960.0 31237.0 24133.0 130207.0 126265.0 165996.0 157579.0 184317.0 189016.0 271624.0 270513.0 260661.0 263212.0 186354.0 180142.0 211614.0 217936.0 149332.0 146748.0 200985.0 194855.0 282462.0 286948.0 165228.0 158263.0 364195.0 363066.0 143209.0 137316.0 7456.0 0.0 175468.0 183456.0 40547.0 40243.0 167538.0 174081.0 79698.0 72127.0 49414.0 57448.0 103185.0 95228.0 38363.0 44657.0 20997.0 27424.0 183164.0 179218.0 152047.0 150119.0 258383.0 261615.0 52582.0 58717.0 343055.0 349908.0 264074.0 261419.0 357861.0 349926.0 246434.0 252290.0 18404.0 24764.0 156710.0 156126.0 111778.0 113718.0 259954.0 259864.0 94721.0 98652.0 275825.0 278541.0 177127.0 185194.0 158032.0 151102.0 137857.0 138824.0 186683.0 179138.0 29382.0 21190.0 178295.0 170477.0 87567.0 79515.0 136333.0 130188.0 256391.0 258562.0 81693.0 84671.0 57063.0 62310.0 174158.0 168373.0 100996.0 106509.0 21604.0 17363.0 96841.0 102227.0 317939.0 309772.0 27135.0 19108.0 226370.0 231752.0 63495.0 195567.0 63495.0 63495.0 195567.0 195567.0
109123.0 105813.0 231716.0 223998.0 154854.0 147962.0 60214.0 66464.0 199364.0 191670.0 100550.0 107708.0 110373.0 118128.0 67926.0 60302.0 80952.0 86394.0 67066.0 60613.0 32716.0 28257.0 298308.0 301466.0 102234.0 98647.0 43080.0 44241.0 106259.0 98182.0 104144.0 99553.0 187699.0 193451.0 44722.0 36865.0 182879.0 179690.0 141754.0 133658.0 95504.0 87621.0 135706.0 135540.0 35972.0 42191.0 103766.0 96543.0 164376.0 171421.0 156964.0 158588.0 65784.0 62789.0 103696.0 102056.0 129947.0 126207.0 96950.0 96889.0 211974.0 209190.0 113730.0 106753.0 172185.0 172075.0 44697.0 52560.0 38017.0 38385.0 259030.0 266091.0 84209.0 78702.0 340102.0 336334.0 32456.0 39380.0 178152.0 175468.0 0.0 8262.0 139306.0 144641.0 158018.0 156680.0 104994.0 109557.0 126993.0 119743.0 82809.0 89521.0 176502.0 182435.0 154491.0 148517.0 52157.0 58057.0 23531.0 27405.0 96087.0 102037.0 132698.0 124395.0 323680.0 329932.0 92305.0 88110.0 319626.0 311534.0 235658.0 238631.0 169143.0 172156.0 25560.0 21249.0 70221.0 73408.0 87626.0 86009.0 94591.0 97198.0 255761.0 254189.0 172024.0 175145.0 96635.0 100798.0 41764.0 45604.0 21210.0 15586.0 183884.0 183013.0 15831.0 14420.0 93613.0 100582.0 66125.0 64507.0 229844.0 226452.0 103910.0 97358.0 121229.0 114274.0 105116.0 98203.0 97782.0 89254.0 165298.0 162230.0 78639.0 73552.0 298855.0 290603.0 173630.0 175130.0 168106.0 167007.0 182844.0 191700.0 182844.0 182844.0 191700.0 191700.0
100910.0 97687.0 230025.0 222337.0 162236.0 155247.0 67784.0 74279.0 198346.0 190568.0 104345.0 111721.0 113735.0 121704.0 59746.0 52090.0 88579.0 94210.0 59734.0 53630.0 24553.0 20038.0 297547.0 300890.0 110421.0 106736.0 49438.0 51437.0 113847.0 105747.0 109747.0 105531.0 189294.0 194806.0 52174.0 44151.0 190611.0 187536.0 150008.0 141913.0 96469.0 88638.0 143795.0 143516.0 32794.0 37821.0 112027.0 104795.0 165526.0 172376.0 164555.0 166324.0 71036.0 68724.0 105088.0 104096.0 130545.0 126365.0 89483.0 89758.0 210819.0 207767.0 113724.0 107060.0 172365.0 171868.0 51828.0 59574.0 35672.0 37848.0 258732.0 265907.0 85445.0 80613.0 339254.0 335314.0 40628.0 47635.0 186052.0 183456.0 8262.0 0.0 147006.0 152200.0 160328.0 158595.0 112164.0 116962.0 134840.0 127507.0 89557.0 96483.0 184756.0 190696.0 162492.0 156438.0 54881.0 61489.0 31411.0 34453.0 88504.0 94635.0 140944.0 132639.0 323415.0 329538.0 84076.0 79848.0 317968.0 309918.0 236491.0 239201.0 176886.0 179777.0 33244.0 29455.0 78462.0 81548.0 80904.0 78862.0 101294.0 103510.0 255716.0 253876.0 174148.0 176920.0 98600.0 103335.0 49967.0 53570.0 16551.0 14039.0 192100.0 191182.0 18776.0 20534.0 100913.0 108027.0 70670.0 69848.0 229674.0 226009.0 112168.0 105619.0 129412.0 122410.0 105875.0 99318.0 103915.0 95362.0 173009.0 170065.0 86664.0 81401.0 298718.0 290449.0 181845.0 183297.0 167221.0 165732.0 189830.0 193544.0 189830.0 189830.0 193544.0 193544.0
246096.0 243824.0 250862.0 244052.0 20956.0 19599.0 79265.0 72906.0 214651.0 210118.0 94773.0 91378.0 101243.0 98972.0 201255.0 194735.0 58454.0 53065.0 206267.0 199477.0 168539.0 166542.0 293207.0 293416.0 71853.0 79812.0 127194.0 118688.0 100692.0 101108.0 66468.0 62144.0 164620.0 172613.0 115485.0 120694.0 43629.0 41342.0 59467.0 57447.0 129659.0 127594.0 23743.0 15610.0 148048.0 155635.0 56453.0 57390.0 156864.0 164330.0 18377.0 19393.0 89936.0 86397.0 126522.0 118113.0 146442.0 150601.0 236205.0 235742.0 226561.0 228487.0 147082.0 140586.0 176875.0 182645.0 119249.0 118301.0 168127.0 162828.0 251387.0 255872.0 124862.0 117787.0 333119.0 331990.0 107835.0 102990.0 40743.0 40547.0 139306.0 147006.0 0.0 8344.0 134453.0 140237.0 39247.0 31946.0 14198.0 19750.0 63060.0 55075.0 64256.0 72112.0 23574.0 15417.0 154465.0 151830.0 115786.0 112887.0 218659.0 221666.0 43578.0 43753.0 311980.0 318832.0 225570.0 223348.0 326732.0 318760.0 215358.0 221214.0 29951.0 33059.0 123150.0 121307.0 82406.0 86596.0 225736.0 224937.0 54205.0 58167.0 244750.0 247433.0 145624.0 153415.0 118222.0 111612.0 104918.0 107473.0 148656.0 141367.0 62465.0 56824.0 144081.0 136101.0 47900.0 39985.0 95919.0 89989.0 225135.0 226804.0 60461.0 59803.0 35870.0 35541.0 134627.0 128540.0 60599.0 65963.0 26005.0 24161.0 62171.0 65928.0 286863.0 278696.0 54450.0 50285.0 189936.0 194806.0 53939.0 164492.0 53939.0 53939.0 164492.0 164492.0
250555.0 248503.0 247137.0 240444.0 12705.0 11791.0 84435.0 78541.0 211116.0 206825.0 94011.0 89989.0 99657.0 96722.0 205417.0 199060.0 63704.0 58961.0 211695.0 205043.0 173218.0 171534.0 288295.0 288504.0 80150.0 88087.0 134216.0 125689.0 109030.0 109398.0 65964.0 62546.0 159709.0 167701.0 122461.0 127418.0 39426.0 38652.0 66916.0 65312.0 129496.0 127929.0 31510.0 23577.0 151696.0 159115.0 64679.0 65362.0 153035.0 160355.0 12430.0 16574.0 92590.0 89688.0 125754.0 117337.0 144424.0 148947.0 241591.0 241341.0 222840.0 225005.0 146117.0 139902.0 173342.0 179346.0 126273.0 125602.0 174392.0 169304.0 246475.0 250960.0 125398.0 118671.0 328207.0 327078.0 113603.0 109120.0 38906.0 40243.0 144641.0 152200.0 8344.0 0.0 130218.0 136291.0 41999.0 35624.0 22113.0 26378.0 66194.0 58263.0 68372.0 76137.0 26974.0 19598.0 161604.0 159174.0 121185.0 117884.0 221730.0 224480.0 51467.0 51995.0 307068.0 313920.0 229582.0 227614.0 321865.0 313938.0 210446.0 216302.0 26362.0 27718.0 129388.0 127187.0 89768.0 94244.0 231518.0 230503.0 56388.0 59316.0 239838.0 242553.0 140905.0 148801.0 117836.0 110861.0 111412.0 114310.0 153103.0 145976.0 65047.0 58606.0 150052.0 142053.0 51886.0 44309.0 98204.0 92778.0 220384.0 222305.0 68729.0 67873.0 44211.0 43742.0 133918.0 128179.0 61406.0 67584.0 22088.0 22919.0 68588.0 71725.0 281951.0 273784.0 57930.0 52789.0 187163.0 192296.0 45598.0 159580.0 45598.0 45598.0 159580.0 159580.0
221688.0 224008.0 117369.0 110986.0 126882.0 120644.0 127969.0 131844.0 82126.0 78999.0 61892.0 57607.0 50495.0 45338.0 179700.0 177731.0 124851.0 130146.0 207974.0 205377.0 165291.0 169662.0 160844.0 161520.0 177769.0 182431.0 182408.0 176205.0 204234.0 199783.0 79332.0 87243.0 33140.0 40714.0 173608.0 171989.0 156639.0 161042.0 188532.0 183563.0 66473.0 73564.0 154887.0 147277.0 134308.0 135924.0 163971.0 158187.0 23979.0 30473.0 136469.0 144028.0 100056.0 107153.0 56746.0 56292.0 41911.0 49787.0 231704.0 235760.0 93172.0 96065.0 59318.0 61330.0 45165.0 52424.0 177072.0 182341.0 195754.0 196291.0 118816.0 123867.0 75984.0 79765.0 201390.0 199887.0 147675.0 151063.0 163392.0 167538.0 158018.0 160328.0 134453.0 130218.0 0.0 8000.0 110632.0 117336.0 137358.0 131703.0 106297.0 108174.0 198496.0 206302.0 157150.0 149418.0 204914.0 207944.0 145769.0 137969.0 173765.0 171739.0 171191.0 166848.0 180298.0 187151.0 196200.0 199128.0 192902.0 184836.0 84639.0 90016.0 149603.0 145159.0 164360.0 156862.0 160889.0 169027.0 231239.0 226010.0 101758.0 93759.0 112702.0 114626.0 14452.0 20253.0 61822.0 57251.0 158210.0 165900.0 148205.0 146632.0 194906.0 187851.0 172779.0 167202.0 114982.0 118414.0 96005.0 101617.0 91318.0 92462.0 168180.0 161801.0 157177.0 150500.0 59143.0 63223.0 90490.0 93725.0 145992.0 150957.0 137900.0 131874.0 155182.0 147014.0 188147.0 182720.0 63979.0 71136.0 131325.0 34986.0 131325.0 131325.0 34986.0 34986.0
216803.0 219348.0 110896.0 104336.0 133415.0 126994.0 129610.0 133922.0 75235.0 71755.0 63244.0 59852.0 51806.0 47794.0 175461.0 173790.0 127735.0 133359.0 204691.0 202370.0 162412.0 167085.0 156959.0 157964.0 181142.0 185530.0 182716.0 176780.0 207086.0 202386.0 82960.0 90747.0 31610.0 38453.0 174277.0 172289.0 163618.0 167844.0 193368.0 188182.0 63333.0 70756.0 160182.0 152698.0 131558.0 132722.0 167692.0 161669.0 16851.0 24092.0 142929.0 150421.0 100814.0 108173.0 53912.0 54624.0 35838.0 43570.0 227808.0 232075.0 86621.0 89183.0 53959.0 56800.0 37848.0 44864.0 177646.0 183173.0 194171.0 195046.0 114938.0 120347.0 73495.0 78030.0 197892.0 196107.0 147961.0 151741.0 170102.0 174081.0 156680.0 158595.0 140237.0 136291.0 8000.0 0.0 114893.0 121857.0 142558.0 136636.0 109014.0 111416.0 204418.0 212247.0 163152.0 155331.0 204542.0 207863.0 145505.0 137670.0 168274.0 165996.0 176043.0 171436.0 177025.0 183878.0 191302.0 194482.0 188087.0 179969.0 82530.0 87349.0 156269.0 152002.0 164241.0 156601.0 163058.0 171219.0 227905.0 222481.0 105246.0 97264.0 109203.0 110605.0 16043.0 18629.0 60056.0 56477.0 158985.0 166772.0 145917.0 144759.0 201162.0 194231.0 171699.0 166397.0 118569.0 122428.0 96287.0 102367.0 86812.0 87365.0 171829.0 165262.0 161807.0 154927.0 55279.0 60173.0 93948.0 96551.0 152590.0 157358.0 140681.0 134365.0 151909.0 143742.0 194202.0 188944.0 56086.0 63179.0 138409.0 35028.0 138409.0 138409.0 35028.0 35028.0
209095.0 207299.0 222718.0 215523.0 50482.0 43191.0 45489.0 41647.0 186136.0 180761.0 59948.0 58575.0 68571.0 68689.0 163727.0 157518.0 26677.0 26221.0 171896.0 165604.0 132150.0 130985.0 271476.0 272075.0 69095.0 75039.0 101896.0 93502.0 97643.0 94881.0 32813.0 26140.0 143163.0 151016.0 90229.0 93482.0 81424.0 80232.0 79250.0 73542.0 92717.0 89825.0 49678.0 44148.0 109758.0 117131.0 54144.0 49496.0 130524.0 138425.0 54323.0 57979.0 50752.0 47701.0 90895.0 82664.0 113800.0 116834.0 201607.0 201857.0 198634.0 199627.0 111617.0 104570.0 148900.0 153676.0 94227.0 95608.0 137419.0 133291.0 229448.0 234435.0 86820.0 79349.0 311889.0 310503.0 75722.0 72812.0 79916.0 79698.0 104994.0 112164.0 39247.0 41999.0 110632.0 114893.0 0.0 8189.0 32781.0 24859.0 24205.0 16322.0 97645.0 105375.0 60989.0 53062.0 129391.0 128508.0 81982.0 77719.0 179767.0 182608.0 62156.0 56800.0 290742.0 297595.0 187772.0 185991.0 302930.0 294791.0 194242.0 200095.0 68233.0 69524.0 92990.0 89415.0 62600.0 69503.0 192552.0 190969.0 15109.0 20587.0 223274.0 225240.0 123724.0 130745.0 81884.0 76242.0 76770.0 81521.0 111784.0 104900.0 98845.0 94388.0 112253.0 104296.0 11809.0 8746.0 56672.0 50868.0 201682.0 202156.0 58543.0 53101.0 47332.0 40095.0 98744.0 91999.0 23651.0 27229.0 64009.0 63352.0 37055.0 36220.0 265625.0 257458.0 89639.0 87171.0 159014.0 162978.0 78028.0 143376.0 78028.0 78028.0 143376.0 143376.0
214935.0 212921.0 230250.0 223097.0 45297.0 38573.0 49436.0 44415.0 193683.0 188406.0 68003.0 66386.0 76410.0 76194.0 169806.0 163436.0 29196.0 26432.0 176609.0 170121.0 137652.0 136119.0 278116.0 278582.0 64579.0 71051.0 103361.0 94867.0 93676.0 91514.0 40542.0 34170.0 149605.0 157503.0 91586.0 95475.0 74901.0 73226.0 71745.0 66329.0 100906.0 97983.0 41512.0 35979.0 116249.0 123771.0 49080.0 45373.0 137687.0 145543.0 48052.0 51062.0 58085.0 54460.0 99050.0 90803.0 121735.0 124879.0 206437.0 206420.0 206120.0 207229.0 119773.0 112747.0 156329.0 161242.0 95548.0 96258.0 140763.0 136235.0 236112.0 240970.0 94954.0 87428.0 318339.0 317078.0 79283.0 75628.0 72686.0 72127.0 109557.0 116962.0 31946.0 35624.0 117336.0 121857.0 8189.0 0.0 24616.0 16672.0 31124.0 23142.0 89457.0 97190.0 53057.0 45223.0 130952.0 129565.0 86250.0 82547.0 186718.0 189724.0 54532.0 49580.0 297189.0 304042.0 194005.0 191993.0 309944.0 301823.0 200588.0 206428.0 61479.0 63339.0 95958.0 92981.0 61940.0 68249.0 196852.0 195552.0 23127.0 28758.0 229817.0 231956.0 130169.0 137342.0 90064.0 84370.0 78919.0 83006.0 117489.0 110398.0 90719.0 86368.0 115901.0 107904.0 16264.0 9037.0 64242.0 58093.0 208554.0 209203.0 53567.0 48876.0 39973.0 33181.0 106914.0 100185.0 31780.0 35329.0 57331.0 56105.0 37247.0 38178.0 272073.0 263906.0 81473.0 79097.0 166818.0 170880.0 74759.0 149722.0 74759.0 74759.0 149722.0 149722.0
234655.0 232118.0 252296.0 245286.0 34802.0 31912.0 67471.0 60561.0 215833.0 210872.0 92019.0 89754.0 99786.0 98705.0 190255.0 183539.0 46847.0 40636.0 193737.0 186804.0 156949.0 154573.0 297295.0 297509.0 58403.0 66235.0 113264.0 104779.0 87588.0 87581.0 63998.0 58303.0 168653.0 176633.0 101596.0 106992.0 56205.0 52699.0 51885.0 48256.0 125461.0 122599.0 17736.0 11368.0 137884.0 145675.0 42730.0 43259.0 158854.0 166547.0 32420.0 32081.0 81700.0 77233.0 123361.0 115056.0 145249.0 148747.0 223693.0 223002.0 228054.0 229529.0 144080.0 137161.0 178207.0 183519.0 105322.0 104215.0 154779.0 149293.0 255461.0 259914.0 119565.0 112000.0 337211.0 335990.0 95117.0 89888.0 51295.0 49414.0 126993.0 134840.0 14198.0 22113.0 137358.0 142558.0 32781.0 24616.0 0.0 8263.0 54637.0 46846.0 65030.0 72816.0 29186.0 21990.0 140450.0 137715.0 103472.0 101084.0 209090.0 212449.0 34771.0 32765.0 316072.0 322925.0 214723.0 212178.0 330239.0 322186.0 219450.0 225307.0 42481.0 46580.0 109888.0 108423.0 68309.0 72404.0 212813.0 212241.0 47708.0 53237.0 248815.0 251469.0 149369.0 156912.0 114509.0 108588.0 91445.0 93695.0 137417.0 129943.0 66132.0 62019.0 131052.0 123106.0 38659.0 30629.0 88172.0 81545.0 228606.0 229778.0 46883.0 45763.0 23734.0 21804.0 131294.0 124681.0 56141.0 59933.0 38925.0 35239.0 48959.0 53444.0 290956.0 282789.0 56858.0 54618.0 189828.0 194208.0 67138.0 168584.0 67138.0 67138.0 168584.0 168584.0
227007.0 224578.0 245857.0 238780.0 38536.0 34071.0 59898.0 53288.0 209335.0 204227.0 84533.0 82605.0 92643.0 91959.0 182444.0 175792.0 39143.0 33387.0 186639.0 179804.0 149344.0 147142.0 292095.0 292319.0 57545.0 65007.0 107839.0 99312.0 87049.0 86277.0 56760.0 50720.0 163424.0 171381.0 96085.0 101109.0 63145.0 60166.0 56844.0 52287.0 117570.0 114573.0 24884.0 19464.0 129841.0 137596.0 41556.0 40549.0 152756.0 160524.0 37989.0 38857.0 73438.0 69012.0 115693.0 107429.0 138064.0 141368.0 216586.0 216055.0 221658.0 222966.0 136417.0 129413.0 171816.0 176951.0 99895.0 99285.0 148391.0 143139.0 250175.0 254794.0 111497.0 103874.0 331939.0 330910.0 88133.0 83240.0 58999.0 57448.0 119743.0 127507.0 19750.0 26378.0 131703.0 136636.0 24859.0 16672.0 8263.0 0.0 46374.0 38590.0 72786.0 80519.0 37413.0 30049.0 135231.0 132868.0 96213.0 93549.0 200961.0 204275.0 39504.0 35905.0 310854.0 317707.0 206871.0 204427.0 324586.0 316503.0 214279.0 220135.0 49403.0 52809.0 103407.0 101577.0 63515.0 68311.0 206009.0 205260.0 39627.0 45425.0 243667.0 246115.0 144055.0 151463.0 106733.0 100983.0 85226.0 87959.0 129669.0 122261.0 74288.0 70271.0 124336.0 116358.0 30404.0 22368.0 79913.0 73286.0 223019.0 223974.0 45962.0 43489.0 26252.0 21648.0 123574.0 116858.0 48418.0 51869.0 45608.0 42689.0 42441.0 46257.0 285737.0 277570.0 64910.0 62844.0 182914.0 187135.0 69266.0 163413.0 69266.0 69266.0 163413.0 163413.0
185163.0 183533.0 211928.0 204479.0 74447.0 66942.0 26800.0 27157.0 175491.0 169440.0 47404.0 49230.0 58164.0 61226.0 139668.0 133561.0 18826.0 25384.0 149182.0 143183.0 108579.0 107834.0 265627.0 266875.0 72873.0 76692.0 86403.0 78522.0 98071.0 93486.0 28952.0 21399.0 139437.0 146937.0 75387.0 76917.0 105620.0 104275.0 93857.0 86950.0 74692.0 70472.0 69765.0 65686.0 85566.0 92926.0 61013.0 54032.0 123122.0 131147.0 78528.0 82053.0 27083.0 23497.0 74918.0 67328.0 100711.0 102358.0 178685.0 179287.0 188325.0 188485.0 95182.0 87580.0 139474.0 143221.0 79333.0 82427.0 117147.0 113855.0 223701.0 229304.0 67028.0 58906.0 306807.0 304818.0 56022.0 54996.0 103803.0 103185.0 82809.0 89557.0 63060.0 66194.0 106297.0 109014.0 24205.0 31124.0 54637.0 46374.0 0.0 7986.0 117641.0 125126.0 83708.0 76078.0 113096.0 113457.0 60629.0 55412.0 155653.0 158606.0 77971.0 71035.0 286037.0 292889.0 163637.0 161966.0 294987.0 286776.0 190936.0 196192.0 92376.0 93722.0 74135.0 69332.0 55164.0 63185.0 170380.0 168391.0 11794.0 16286.0 218176.0 219260.0 120371.0 126479.0 65233.0 61401.0 60450.0 66703.0 88060.0 81409.0 120350.0 116619.0 91638.0 83865.0 16095.0 24024.0 33574.0 27007.0 195049.0 194555.0 64694.0 57477.0 62762.0 54526.0 82116.0 74625.0 18400.0 12612.0 88170.0 87221.0 31667.0 25727.0 260920.0 252753.0 110701.0 109125.0 146585.0 149583.0 100394.0 140747.0 100394.0 100394.0 140747.0 140747.0
192826.0 191094.0 216166.0 208789.0 66734.0 59327.0 31413.0 29691.0 179635.0 173790.0 51514.0 52221.0 61681.0 63761.0 147417.0 141237.0 17468.0 21973.0 156194.0 150053.0 116018.0 115047.0 268336.0 269376.0 69729.0 74262.0 90228.0 82098.0 96223.0 92205.0 29109.0 21117.0 141249.0 148888.0 78888.0 81132.0 97684.0 96293.0 87811.0 81178.0 80957.0 77156.0 62338.0 57981.0 93448.0 100853.0 56768.0 50341.0 126086.0 134099.0 70619.0 74076.0 34992.0 31434.0 80503.0 72649.0 105458.0 107566.0 185805.0 186240.0 192381.0 192806.0 101003.0 93556.0 143151.0 147241.0 82880.0 85314.0 123036.0 119382.0 226336.0 231746.0 73842.0 65902.0 309299.0 307503.0 61485.0 59600.0 95817.0 95228.0 89521.0 96483.0 55075.0 58263.0 108174.0 111416.0 16322.0 23142.0 46846.0 38590.0 7986.0 0.0 110349.0 117900.0 75844.0 68167.0 117336.0 117208.0 66892.0 62134.0 163633.0 166591.0 71534.0 64933.0 288341.0 295194.0 171451.0 169691.0 298389.0 290195.0 192692.0 198190.0 84412.0 85836.0 79308.0 75032.0 55556.0 63296.0 177146.0 175344.0 7257.0 14765.0 220594.0 221965.0 121991.0 128424.0 70988.0 66504.0 64452.0 70131.0 95582.0 88793.0 112737.0 108861.0 97637.0 89765.0 8818.0 16358.0 41333.0 34962.0 197931.0 197750.0 60719.0 53908.0 56291.0 48182.0 87952.0 80675.0 17838.0 15754.0 80213.0 79235.0 30499.0 26318.0 263225.0 255057.0 103169.0 101414.0 151249.0 154561.0 93350.0 142168.0 93350.0 93350.0 142168.0 142168.0
285506.0 281773.0 315110.0 308308.0 74009.0 78764.0 123054.0 114820.0 278906.0 274342.0 157012.0 154477.0 164474.0 162812.0 243654.0 236318.0 105084.0 97331.0 239628.0 231952.0 208771.0 204739.0 356644.0 356853.0 78344.0 84980.0 149628.0 142311.0 94648.0 99948.0 128874.0 123333.0 228058.0 236050.0 139774.0 147237.0 57925.0 49766.0 37569.0 44850.0 190346.0 187203.0 48100.0 53744.0 195082.0 203238.0 72858.0 79962.0 221084.0 228506.0 64297.0 56518.0 144048.0 138396.0 188391.0 180086.0 209908.0 213632.0 269001.0 266764.0 290809.0 292739.0 209110.0 202172.0 241131.0 246876.0 142516.0 138079.0 195734.0 188601.0 314823.0 319309.0 184032.0 176220.0 396555.0 395427.0 144328.0 137123.0 45599.0 38363.0 176502.0 184756.0 64256.0 68372.0 198496.0 204418.0 97645.0 89457.0 65030.0 72786.0 117641.0 110349.0 0.0 7871.0 41398.0 49089.0 172984.0 167637.0 154244.0 154267.0 266686.0 270889.0 43887.0 52209.0 375416.0 382269.0 268280.0 264529.0 390186.0 382275.0 278794.0 284651.0 55327.0 62510.0 154249.0 155655.0 107151.0 106276.0 255451.0 256560.0 112279.0 118199.0 308186.0 310902.0 209277.0 217172.0 179505.0 173615.0 135585.0 134318.0 191228.0 183316.0 13306.0 20429.0 175898.0 168648.0 101638.0 94068.0 150957.0 143625.0 288745.0 290670.0 73291.0 79258.0 57056.0 65128.0 196315.0 189642.0 121150.0 124515.0 57273.0 50130.0 100812.0 108036.0 350300.0 342133.0 11410.0 19257.0 253949.0 258627.0 101167.0 227928.0 101167.0 101167.0 227928.0 227928.0
291292.0 287424.0 322958.0 316162.0 81486.0 86413.0 129856.0 121571.0 286763.0 282208.0 164820.0 162323.0 172323.0 170680.0 249812.0 242420.0 112221.0 104419.0 244941.0 237205.0 214834.0 210633.0 364372.0 364581.0 83016.0 89267.0 154407.0 147279.0 97329.0 103071.0 136702.0 131117.0 235786.0 243778.0 144832.0 152426.0 63724.0 55721.0 41865.0 49598.0 198050.0 194842.0 55760.0 61555.0 201772.0 209953.0 78669.0 86004.0 228922.0 236334.0 71739.0 63944.0 151411.0 145645.0 196167.0 187870.0 217762.0 221465.0 274172.0 271762.0 298656.0 300598.0 216888.0 209926.0 248987.0 254740.0 147448.0 142727.0 200672.0 193400.0 322552.0 327037.0 191645.0 183794.0 404284.0 403155.0 150410.0 143073.0 51655.0 44657.0 182435.0 190696.0 72112.0 76137.0 206302.0 212247.0 105375.0 97190.0 72816.0 80519.0 125126.0 117900.0 7871.0 0.0 49167.0 56916.0 177161.0 171577.0 160415.0 160673.0 273310.0 277613.0 50258.0 58542.0 383144.0 389997.0 274414.0 270528.0 397890.0 389988.0 286523.0 292379.0 62179.0 69185.0 159790.0 161470.0 112713.0 111411.0 260350.0 261649.0 119951.0 125942.0 315914.0 318630.0 217027.0 224935.0 187251.0 181404.0 141259.0 139671.0 197558.0 189625.0 16595.0 24950.0 181351.0 174214.0 109162.0 101654.0 158359.0 150959.0 296479.0 298441.0 78777.0 85078.0 63989.0 72160.0 204077.0 197372.0 128910.0 132179.0 64357.0 57431.0 107517.0 114871.0 358028.0 349861.0 18572.0 25729.0 261820.0 266493.0 107939.0 235656.0 107939.0 107939.0 235656.0 235656.0
262862.0 260080.0 273941.0 267199.0 33760.0 37602.0 95860.0 88511.0 237834.0 233417.0 118193.0 114928.0 124807.0 122522.0 218835.0 211996.0 75556.0 68824.0 220705.0 213549.0 185139.0 182394.0 315255.0 315464.0 72166.0 80285.0 136561.0 128306.0 98148.0 100446.0 89873.0 85209.0 186669.0 194661.0 125277.0 131493.0 33792.0 27564.0 46455.0 47619.0 152789.0 150443.0 20025.0 19041.0 166900.0 174741.0 59345.0 63281.0 179862.0 187231.0 24611.0 17546.0 110790.0 106418.0 149907.0 141510.0 170015.0 174162.0 250630.0 249539.0 249639.0 251700.0 170512.0 163929.0 200051.0 205937.0 128743.0 126416.0 180126.0 174081.0 273434.0 277920.0 147582.0 140272.0 355166.0 354038.0 122216.0 116325.0 24808.0 20997.0 154491.0 162492.0 23574.0 26974.0 157150.0 163152.0 60989.0 53057.0 29186.0 37413.0 83708.0 75844.0 41398.0 49167.0 0.0 8193.0 162887.0 159189.0 131087.0 129258.0 238212.0 241617.0 35402.0 40038.0 334027.0 340880.0 243374.0 240620.0 348813.0 340894.0 237406.0 243262.0 22537.0 29754.0 135761.0 135131.0 91154.0 93460.0 239008.0 238882.0 76096.0 80829.0 266797.0 269513.0 167879.0 175775.0 141473.0 135007.0 116930.0 118044.0 165920.0 158332.0 38893.0 33534.0 157324.0 149496.0 67807.0 59757.0 117164.0 110670.0 247351.0 249277.0 62245.0 64522.0 36852.0 41508.0 157985.0 151765.0 83455.0 88176.0 21669.0 13805.0 75857.0 81341.0 308911.0 300744.0 31077.0 26741.0 213413.0 218338.0 64593.0 186539.0 64593.0 64593.0 186539.0 186539.0
256500.0 253872.0 266058.0 259285.0 28234.0 30861.0 89332.0 82229.0 229901.0 225430.0 110003.0 106740.0 116625.0 114388.0 212204.0 205457.0 68795.0 62373.0 215035.0 207987.0 178776.0 176254.0 307774.0 307983.0 70561.0 78714.0 132355.0 123994.0 97782.0 99429.0 81683.0 77062.0 179188.0 187173.0 120900.0 126818.0 36358.0 31558.0 49567.0 49419.0 144641.0 142350.0 17589.0 13428.0 159861.0 167636.0 56662.0 59679.0 172008.0 179419.0 20220.0 14953.0 103154.0 98989.0 141721.0 133322.0 161852.0 165977.0 244985.0 244091.0 241756.0 243754.0 162322.0 155748.0 192120.0 197952.0 124472.0 122579.0 175176.0 169357.0 265954.0 270440.0 139517.0 132257.0 347686.0 346557.0 116414.0 110820.0 29663.0 27424.0 148517.0 156438.0 15417.0 19598.0 149418.0 155331.0 53062.0 45223.0 21990.0 30049.0 76078.0 68167.0 49089.0 56916.0 8193.0 0.0 159051.0 155692.0 125033.0 122886.0 231010.0 234302.0 36164.0 39195.0 326547.0 333400.0 236689.0 234094.0 341353.0 333412.0 229925.0 235781.0 23343.0 29454.0 130534.0 129530.0 86939.0 89862.0 233718.0 233380.0 68170.0 72752.0 259317.0 262032.0 160324.0 168181.0 133305.0 126819.0 111831.0 113396.0 159341.0 151832.0 47075.0 41674.0 151947.0 144058.0 60303.0 52243.0 109436.0 103077.0 239827.0 241650.0 59989.0 61320.0 34136.0 37338.0 149802.0 143602.0 75343.0 80196.0 20999.0 14763.0 70039.0 75074.0 301430.0 293263.0 39070.0 34934.0 205330.0 210219.0 60608.0 179059.0 60608.0 60608.0 179059.0 179059.0
128083.0 122015.0 283841.0 276118.0 173638.0 168266.0 86313.0 88007.0 251233.0 243592.0 144332.0 150492.0 155199.0 162074.0 100271.0 92695.0 102715.0 104549.0 76898.0 68870.0 71470.0 63517.0 349924.0 352914.0 94859.0 88005.0 27594.0 36112.0 83725.0 76301.0 140110.0 133652.0 236025.0 242249.0 39388.0 36216.0 195389.0 190263.0 135472.0 128180.0 145758.0 137906.0 142862.0 145677.0 87509.0 92662.0 104104.0 99607.0 213734.0 221083.0 172827.0 172087.0 106281.0 100483.0 153194.0 150382.0 180401.0 177226.0 102427.0 98245.0 263911.0 261246.0 164982.0 157722.0 222995.0 223325.0 35462.0 36484.0 31984.0 23725.0 310231.0 317154.0 134240.0 127772.0 391770.0 388131.0 58698.0 58137.0 187695.0 183164.0 52157.0 54881.0 154465.0 161604.0 204914.0 204542.0 129391.0 130952.0 140450.0 135231.0 113096.0 117336.0 172984.0 177161.0 162887.0 159051.0 0.0 8160.0 59153.0 66945.0 134319.0 141498.0 132656.0 125259.0 374779.0 381173.0 120518.0 113709.0 371732.0 363630.0 285277.0 288688.0 182031.0 186885.0 40853.0 48073.0 72234.0 69452.0 86211.0 89417.0 124073.0 129324.0 306668.0 305411.0 219247.0 223166.0 145212.0 148065.0 52891.0 47954.0 71431.0 67510.0 183241.0 184793.0 36526.0 39237.0 117715.0 122312.0 109230.0 104755.0 280941.0 277842.0 102030.0 98492.0 126134.0 121726.0 155548.0 148208.0 131043.0 123328.0 178907.0 173787.0 93910.0 93191.0 349823.0 341599.0 173508.0 177318.0 219924.0 219028.0 205338.0 239442.0 205338.0 205338.0 239442.0 239442.0
136112.0 129977.0 289312.0 281576.0 171387.0 166296.0 86686.0 87602.0 256330.0 248752.0 146860.0 152749.0 157898.0 164519.0 108358.0 100758.0 101917.0 103140.0 84889.0 76884.0 79108.0 71208.0 354745.0 357605.0 89906.0 82753.0 27054.0 35126.0 77010.0 69807.0 141086.0 134361.0 239423.0 245798.0 38364.0 36891.0 192048.0 186676.0 130072.0 122960.0 150101.0 142293.0 139182.0 142394.0 93815.0 99303.0 100042.0 96038.0 217541.0 224992.0 170135.0 169050.0 108572.0 102374.0 157226.0 154046.0 184722.0 181823.0 110016.0 105619.0 269076.0 266575.0 169730.0 162340.0 227406.0 227978.0 34362.0 33588.0 40144.0 31873.0 314781.0 321616.0 138547.0 131791.0 396618.0 393100.0 60637.0 58974.0 183978.0 179218.0 58057.0 61489.0 151830.0 159174.0 207944.0 207863.0 128508.0 129565.0 137715.0 132868.0 113457.0 117208.0 167637.0 171577.0 159189.0 155692.0 8160.0 0.0 62411.0 70254.0 142309.0 149449.0 128099.0 120919.0 379233.0 385713.0 128678.0 121866.0 377131.0 369006.0 289077.0 292670.0 178831.0 183923.0 43622.0 51345.0 69428.0 65831.0 93535.0 97009.0 124112.0 129740.0 311049.0 309977.0 222333.0 226490.0 148979.0 151435.0 53014.0 47125.0 77992.0 73588.0 178191.0 180044.0 42823.0 44441.0 116974.0 121112.0 111985.0 107026.0 285449.0 282535.0 97696.0 94668.0 122346.0 118369.0 159928.0 152445.0 131635.0 124171.0 175835.0 170453.0 92337.0 92319.0 354211.0 346009.0 168584.0 172668.0 224994.0 224326.0 203519.0 242642.0 203519.0 203519.0 242642.0 242642.0
132057.0 129033.0 229846.0 222096.0 131534.0 124747.0 36822.0 42934.0 195820.0 188442.0 85360.0 91768.0 96108.0 103135.0 89411.0 82091.0 57481.0 62865.0 90517.0 83892.0 54625.0 51328.0 293421.0 296047.0 82275.0 79803.0 38733.0 35153.0 90959.0 83200.0 84259.0 78855.0 177042.0 183389.0 33864.0 28771.0 159351.0 156170.0 120411.0 112298.0 88367.0 80683.0 112466.0 112106.0 45826.0 53849.0 81951.0 74423.0 155171.0 162665.0 133487.0 135060.0 47795.0 42994.0 95054.0 91652.0 122833.0 120413.0 120434.0 120196.0 208713.0 206719.0 108721.0 101074.0 165562.0 166532.0 35929.0 43350.0 56706.0 54182.0 253034.0 259741.0 76816.0 69676.0 335312.0 332041.0 10336.0 18434.0 154655.0 152047.0 23531.0 31411.0 115786.0 121185.0 145769.0 145505.0 81982.0 86250.0 103472.0 96213.0 60629.0 66892.0 154244.0 160415.0 131087.0 125033.0 59153.0 62411.0 0.0 7844.0 114505.0 119687.0 110358.0 102036.0 317315.0 323904.0 114036.0 110436.0 317217.0 309034.0 226693.0 230361.0 145614.0 148662.0 18881.0 11099.0 49815.0 54506.0 110629.0 109341.0 72405.0 75787.0 249079.0 248258.0 160115.0 164133.0 86626.0 89048.0 23636.0 30310.0 37521.0 29556.0 161167.0 160021.0 31152.0 23651.0 70452.0 77244.0 50175.0 46323.0 223668.0 221059.0 82549.0 75586.0 98345.0 91183.0 98213.0 90534.0 76756.0 68389.0 141774.0 138707.0 55283.0 50028.0 292227.0 284053.0 150909.0 152133.0 164528.0 164562.0 159981.0 180349.0 159981.0 159981.0 180349.0 180349.0
133623.0 131040.0 222489.0 214740.0 127802.0 120795.0 33652.0 40755.0 188305.0 180966.0 77731.0 84250.0 88403.0 95512.0 89866.0 82839.0 54444.0 60513.0 94179.0 87929.0 55894.0 53668.0 285749.0 288338.0 84581.0 82814.0 46344.0 42271.0 95488.0 87919.0 77721.0 72671.0 169203.0 175545.0 40703.0 36217.0 156517.0 153699.0 121425.0 113335.0 80683.0 73038.0 111144.0 110220.0 42537.0 50760.0 82777.0 75005.0 147335.0 154837.0 130267.0 132254.0 40507.0 36255.0 87265.0 83812.0 115096.0 112775.0 123930.0 124151.0 201217.0 199309.0 101176.0 93483.0 157821.0 158864.0 43077.0 50243.0 62998.0 61061.0 245298.0 251984.0 69146.0 61912.0 327638.0 324405.0 14459.0 22276.0 152378.0 150119.0 27405.0 34453.0 112887.0 117884.0 137969.0 137670.0 77719.0 82547.0 101084.0 93549.0 55412.0 62134.0 154267.0 160673.0 129258.0 122886.0 66945.0 70254.0 7844.0 0.0 112989.0 117775.0 110439.0 102136.0 309548.0 316153.0 114500.0 111422.0 309759.0 301569.0 218853.0 222534.0 142821.0 145518.0 26706.0 18932.0 52325.0 57879.0 115021.0 113259.0 67199.0 70002.0 241308.0 240528.0 152305.0 156299.0 78796.0 81209.0 28748.0 36135.0 37039.0 29228.0 160615.0 159058.0 37594.0 30540.0 66466.0 73641.0 42529.0 39074.0 215930.0 213372.0 83791.0 76518.0 97753.0 90267.0 90525.0 82807.0 70743.0 62269.0 138886.0 136217.0 54028.0 47922.0 284450.0 276282.0 150375.0 151178.0 157038.0 157199.0 155476.0 172526.0 155476.0 155476.0 172526.0 172526.0
51939.0 57028.0 193009.0 186279.0 229004.0 221158.0 143775.0 151911.0 171603.0 163834.0 142523.0 150178.0 145930.0 154164.0 35042.0 41985.0 163009.0 170306.0 71642.0 76306.0 64975.0 72160.0 266261.0 271398.0 196765.0 193964.0 137236.0 139906.0 202322.0 194231.0 162729.0 162526.0 191472.0 193807.0 140674.0 132650.0 261123.0 259925.0 234414.0 226323.0 112428.0 108204.0 221697.0 219422.0 71667.0 63611.0 195764.0 187968.0 166267.0 170054.0 233958.0 237705.0 129201.0 132263.0 121861.0 127005.0 132499.0 124969.0 76466.0 83788.0 181263.0 175634.0 114453.0 113073.0 161878.0 157355.0 140271.0 147925.0 103224.0 110901.0 234512.0 242448.0 108221.0 110904.0 305345.0 299757.0 124837.0 132849.0 259380.0 258383.0 96087.0 88504.0 218659.0 221730.0 173765.0 168274.0 179767.0 186718.0 209090.0 200961.0 155653.0 163633.0 266686.0 273310.0 238212.0 231010.0 134319.0 142309.0 114505.0 112989.0 0.0 7817.0 223060.0 214805.0 296224.0 300743.0 28841.0 35963.0 276458.0 269158.0 225985.0 225664.0 247999.0 249007.0 121630.0 116776.0 164309.0 168583.0 87051.0 79047.0 165466.0 163810.0 234402.0 229827.0 183724.0 182506.0 122591.0 130857.0 136867.0 141537.0 77090.0 85004.0 272191.0 269833.0 104854.0 108815.0 170883.0 178911.0 124033.0 128962.0 208977.0 202710.0 196732.0 189505.0 209735.0 201877.0 116555.0 115563.0 162541.0 155065.0 243773.0 242806.0 165878.0 158809.0 273976.0 265944.0 262040.0 262039.0 146184.0 140702.0 250760.0 197841.0 250760.0 250760.0 197841.0 197841.0
57469.0 63110.0 186814.0 180186.0 231411.0 223518.0 147849.0 156070.0 166291.0 158592.0 143183.0 150716.0 145994.0 154100.0 42716.0 49488.0 166717.0 174133.0 79453.0 84115.0 71548.0 78927.0 260155.0 265391.0 201947.0 199369.0 143668.0 146072.0 208285.0 200215.0 164367.0 164535.0 188292.0 190342.0 146731.0 138768.0 263806.0 262837.0 239118.0 231046.0 111915.0 108174.0 225450.0 222931.0 75852.0 67661.0 200460.0 192604.0 163249.0 166729.0 236631.0 240587.0 131893.0 135356.0 121126.0 126678.0 130159.0 122501.0 83598.0 91043.0 175665.0 169888.0 112465.0 111621.0 157971.0 153169.0 146462.0 154180.0 110588.0 118177.0 228995.0 236950.0 108482.0 111736.0 298981.0 293307.0 130019.0 138096.0 262408.0 261615.0 102037.0 94635.0 221666.0 224480.0 171739.0 165996.0 182608.0 189724.0 212449.0 204275.0 158606.0 166591.0 270889.0 277613.0 241617.0 234302.0 141498.0 149449.0 119687.0 117775.0 7817.0 0.0 227406.0 219185.0 290298.0 294704.0 35717.0 43197.0 269716.0 262473.0 221523.0 220973.0 250805.0 251591.0 127596.0 122470.0 169489.0 173997.0 94623.0 86590.0 168115.0 166110.0 229091.0 224343.0 181247.0 179704.0 122483.0 130841.0 142369.0 147283.0 82506.0 90338.0 276095.0 273532.0 111392.0 115066.0 174049.0 182100.0 126439.0 131740.0 203848.0 197427.0 201564.0 194247.0 213864.0 205924.0 115424.0 114972.0 164701.0 157428.0 246557.0 245826.0 170101.0 162880.0 268275.0 260285.0 265984.0 265771.0 141601.0 135863.0 252484.0 194778.0 252484.0 252484.0 194778.0 194778.0
241768.0 238151.0 284782.0 277623.0 62932.0 63128.0 79788.0 71450.0 248213.0 242902.0 121732.0 120722.0 130703.0 130725.0 199767.0 192438.0 63111.0 55196.0 196455.0 188882.0 164901.0 160948.0 331585.0 331771.0 38573.0 46404.0 107819.0 100089.0 62862.0 65601.0 94961.0 88156.0 202911.0 210872.0 97359.0 104496.0 68903.0 61955.0 17342.0 13869.0 152476.0 148443.0 19971.0 27970.0 151556.0 159749.0 29490.0 36187.0 192057.0 199867.0 56137.0 51019.0 103083.0 96768.0 151868.0 143859.0 175789.0 178507.0 226022.0 224090.0 260650.0 261746.0 172460.0 165071.0 210852.0 215768.0 100378.0 96724.0 153327.0 146526.0 289674.0 294266.0 144989.0 136801.0 371356.0 370377.0 100463.0 93329.0 58504.0 52582.0 132698.0 140944.0 43578.0 51467.0 171191.0 176043.0 62156.0 54532.0 34771.0 39504.0 77971.0 71534.0 43887.0 50258.0 35402.0 36164.0 132656.0 128099.0 110358.0 110439.0 223060.0 227406.0 0.0 8322.0 350298.0 357151.0 224395.0 220675.0 364054.0 355962.0 253754.0 259610.0 57865.0 64844.0 110873.0 111953.0 63920.0 64001.0 212984.0 213737.0 75091.0 82177.0 283145.0 285618.0 183552.0 190967.0 142457.0 137570.0 92070.0 91320.0 147366.0 139446.0 51643.0 52242.0 132606.0 125210.0 62750.0 56243.0 110218.0 102472.0 262508.0 263402.0 30752.0 35792.0 15243.0 23447.0 159428.0 152206.0 85432.0 86879.0 56489.0 49012.0 57367.0 64886.0 325182.0 317014.0 41511.0 44676.0 221145.0 225001.0 96105.0 202888.0 96105.0 96105.0 202888.0 202888.0
233477.0 229886.0 279470.0 272244.0 64129.0 63278.0 71678.0 63316.0 242883.0 237417.0 115738.0 115126.0 125041.0 125481.0 191445.0 184116.0 55505.0 47582.0 188297.0 180751.0 156582.0 152648.0 327534.0 327887.0 32230.0 40303.0 100077.0 92243.0 58587.0 60462.0 89546.0 82464.0 198919.0 206850.0 89463.0 96495.0 73830.0 67344.0 22878.0 16755.0 145701.0 141454.0 21723.0 28631.0 143333.0 151535.0 21493.0 27920.0 187240.0 195111.0 58344.0 54123.0 95627.0 89136.0 145429.0 137521.0 169855.0 172328.0 217903.0 216042.0 255413.0 256326.0 165933.0 158453.0 205697.0 210416.0 92556.0 89138.0 145372.0 138660.0 285558.0 290313.0 137937.0 129673.0 367573.0 366435.0 92146.0 85032.0 64153.0 58717.0 124395.0 132639.0 43753.0 51995.0 166848.0 171436.0 56800.0 49580.0 32765.0 35905.0 71035.0 64933.0 52209.0 58542.0 40038.0 39195.0 125259.0 120919.0 102036.0 102136.0 214805.0 219185.0 8322.0 0.0 346449.0 353302.0 216073.0 212359.0 359523.0 351403.0 249830.0 255687.0 61981.0 68560.0 102689.0 103679.0 55827.0 56248.0 204987.0 205657.0 68963.0 76311.0 279170.0 281435.0 179507.0 186784.0 135918.0 131303.0 83856.0 83260.0 139052.0 131131.0 59788.0 60031.0 124435.0 117004.0 56240.0 50226.0 102805.0 94963.0 258109.0 258782.0 23237.0 27689.0 9712.0 16888.0 152877.0 145539.0 79617.0 80487.0 60108.0 53097.0 49227.0 56843.0 321333.0 313166.0 49604.0 52346.0 215400.0 219063.0 97414.0 198964.0 97414.0 97414.0 198964.0 198964.0
347760.0 353243.0 104152.0 110307.0 302593.0 296859.0 305889.0 310631.0 126844.0 134839.0 239746.0 236842.0 228424.0 224819.0 318823.0 320498.0 304759.0 310307.0 355480.0 355825.0 319479.0 326073.0 31693.0 25269.0 358019.0 362530.0 355759.0 350650.0 384108.0 379346.0 259615.0 267503.0 147591.0 139727.0 348413.0 345439.0 331298.0 335948.0 367697.0 363065.0 229133.0 236944.0 333345.0 325521.0 291860.0 289787.0 344264.0 338466.0 163643.0 155729.0 312314.0 320006.0 276028.0 283732.0 222302.0 226402.0 194528.0 197574.0 370649.0 377022.0 115679.0 120759.0 209956.0 217076.0 151827.0 151608.0 351507.0 357631.0 358460.0 361253.0 64683.0 57626.0 240689.0 247639.0 28460.0 32603.0 321407.0 326120.0 338517.0 343055.0 323680.0 323415.0 311980.0 307068.0 180298.0 177025.0 290742.0 297189.0 316072.0 310854.0 286037.0 288341.0 375416.0 383144.0 334027.0 326547.0 374779.0 379233.0 317315.0 309548.0 296224.0 290298.0 350298.0 346449.0 0.0 8022.0 324789.0 330990.0 54703.0 53717.0 98138.0 91057.0 324880.0 320022.0 336169.0 328183.0 339782.0 347949.0 376808.0 369709.0 282022.0 274024.0 68247.0 69542.0 167031.0 160072.0 231080.0 230159.0 333512.0 341446.0 308141.0 309475.0 371042.0 363709.0 339457.0 335587.0 295271.0 298650.0 270634.0 277543.0 93851.0 97502.0 348478.0 342076.0 336741.0 330362.0 219305.0 226827.0 270738.0 273574.0 321451.0 326882.0 317703.0 311321.0 25228.0 33284.0 364779.0 358964.0 156887.0 159764.0 305958.0 149265.0 305958.0 305958.0 149265.0 149265.0
352135.0 357730.0 108085.0 114526.0 309446.0 303712.0 312721.0 317484.0 132327.0 140309.0 246598.0 243695.0 235277.0 231672.0 323894.0 325715.0 311612.0 317159.0 360769.0 361249.0 325198.0 331870.0 34728.0 29390.0 364872.0 369383.0 362408.0 357385.0 390961.0 386199.0 266468.0 274355.0 154443.0 146580.0 355177.0 352108.0 338151.0 342800.0 374550.0 369918.0 235638.0 243425.0 340198.0 332374.0 297836.0 295616.0 351117.0 345319.0 170489.0 162581.0 319167.0 326859.0 282879.0 290585.0 228952.0 233193.0 201076.0 203947.0 375496.0 381954.0 120850.0 125641.0 216249.0 223451.0 158349.0 157880.0 358239.0 364424.0 364478.0 367384.0 70942.0 64184.0 247199.0 254242.0 20951.0 26016.0 328127.0 332929.0 345370.0 349908.0 329932.0 329538.0 318832.0 313920.0 187151.0 183878.0 297595.0 304042.0 322925.0 317707.0 292889.0 295194.0 382269.0 389997.0 340880.0 333400.0 381173.0 385713.0 323904.0 316153.0 300743.0 294704.0 357151.0 353302.0 8022.0 0.0 329386.0 335693.0 51147.0 51322.0 104990.0 97910.0 331733.0 326875.0 342742.0 334739.0 346555.0 354722.0 381939.0 374777.0 288875.0 280876.0 75015.0 75764.0 173884.0 166925.0 237814.0 236999.0 340330.0 348276.0 314161.0 315627.0 377894.0 370562.0 345727.0 341959.0 302124.0 305503.0 277499.0 284393.0 100265.0 103529.0 355331.0 348929.0 343594.0 337215.0 225799.0 233380.0 277591.0 280427.0 328304.0 333735.0 324556.0 318174.0 32458.0 40238.0 371632.0 365816.0 162699.0 165308.0 312811.0 156118.0 312811.0 312811.0 156118.0 156118.0
25501.0 28965.0 221755.0 214976.0 238053.0 230449.0 147533.0 155114.0 199675.0 191841.0 158375.0 166263.0 163424.0 171894.0 24648.0 32023.0 167896.0 174570.0 48697.0 55110.0 59648.0 64648.0 294950.0 300024.0 194468.0 190567.0 128959.0 133240.0 195789.0 187674.0 175212.0 173768.0 216227.0 219090.0 134643.0 126457.0 268903.0 266850.0 234010.0 225906.0 132035.0 126678.0 225596.0 224349.0 78244.0 71500.0 195823.0 188411.0 190824.0 195173.0 241989.0 244918.0 138742.0 140242.0 141837.0 145856.0 155956.0 148764.0 47928.0 55494.0 209604.0 204104.0 137397.0 134884.0 188052.0 183986.0 133436.0 140521.0 88535.0 96835.0 262741.0 270654.0 125923.0 126943.0 334145.0 328581.0 124006.0 131454.0 265860.0 264074.0 92305.0 84076.0 225570.0 229582.0 196200.0 191302.0 187772.0 194005.0 214723.0 206871.0 163637.0 171451.0 268280.0 274414.0 243374.0 236689.0 120518.0 128678.0 114036.0 114500.0 28841.0 35717.0 224395.0 216073.0 324789.0 329386.0 0.0 8242.0 305284.0 297994.0 252875.0 252893.0 255415.0 257246.0 116675.0 113531.0 162524.0 165527.0 60045.0 51929.0 174405.0 174023.0 262412.0 258025.0 207083.0 206549.0 140952.0 148817.0 134040.0 137266.0 77528.0 85273.0 275041.0 273558.0 96924.0 102607.0 177789.0 185604.0 134722.0 138194.0 236799.0 230715.0 196134.0 189428.0 212165.0 204757.0 137575.0 135301.0 173264.0 165209.0 251309.0 249445.0 168528.0 162253.0 302363.0 294295.0 264790.0 265678.0 173423.0 168290.0 262112.0 222342.0 262112.0 262112.0 222342.0 222342.0
23734.0 24880.0 228269.0 221406.0 236407.0 228894.0 144781.0 152164.0 205448.0 197569.0 159122.0 167044.0 164685.0 173195.0 22365.0 28638.0 165334.0 171804.0 40690.0 47339.0 55811.0 60035.0 301337.0 306314.0 189927.0 185773.0 123298.0 127928.0 190251.0 182153.0 174812.0 172999.0 220096.0 223203.0 129473.0 121302.0 266822.0 264532.0 229826.0 221739.0 134199.0 128497.0 222547.0 221580.0 77190.0 71011.0 191865.0 184577.0 194655.0 199252.0 240039.0 242729.0 137685.0 138722.0 144067.0 147672.0 159424.0 152400.0 40510.0 47852.0 215606.0 210243.0 140746.0 137817.0 192661.0 188847.0 128083.0 134995.0 81748.0 90113.0 268605.0 276493.0 127493.0 127966.0 340763.0 335284.0 120214.0 127455.0 263419.0 261419.0 88110.0 79848.0 223348.0 227614.0 199128.0 194482.0 185991.0 191993.0 212178.0 204427.0 161966.0 169691.0 264529.0 270528.0 240620.0 234094.0 113709.0 121866.0 110436.0 111422.0 35963.0 43197.0 220675.0 212359.0 330990.0 335693.0 8242.0 0.0 312277.0 304932.0 257797.0 258021.0 253260.0 255320.0 111900.0 109215.0 158238.0 160912.0 51925.0 43817.0 172953.0 172946.0 268088.0 263864.0 210360.0 210119.0 142631.0 150312.0 129659.0 132504.0 74762.0 82289.0 271602.0 270352.0 91613.0 97658.0 175739.0 183459.0 134036.0 137051.0 242346.0 236408.0 192009.0 185458.0 208765.0 201500.0 140201.0 137489.0 172342.0 164157.0 249196.0 247084.0 165357.0 159327.0 308365.0 300263.0 261344.0 262466.0 178654.0 173749.0 261115.0 226086.0 261115.0 261115.0 226086.0 226086.0
326258.0 332561.0 87943.0 95641.0 317399.0 311665.0 311819.0 317570.0 121574.0 128799.0 247633.0 246168.0 236861.0 234821.0 303349.0 306293.0 313798.0 320067.0 341524.0 343091.0 309968.0 317245.0 39744.0 44580.0 367838.0 371536.0 355918.0 351927.0 392183.0 386689.0 270668.0 278271.0 162168.0 154187.0 350091.0 345957.0 346104.0 350754.0 381390.0 376268.0 229697.0 237039.0 347715.0 340018.0 285327.0 281789.0 355098.0 348694.0 172497.0 164545.0 327120.0 334812.0 280926.0 288895.0 224784.0 230529.0 196658.0 197576.0 352728.0 359748.0 108600.0 110584.0 208657.0 216470.0 155600.0 152565.0 352752.0 359579.0 351489.0 355457.0 76524.0 74284.0 241027.0 248920.0 38726.0 30736.0 322868.0 328635.0 353323.0 357861.0 319626.0 317968.0 326732.0 321865.0 192902.0 188087.0 302930.0 309944.0 330239.0 324586.0 294987.0 298389.0 390186.0 397890.0 348813.0 341353.0 371732.0 377131.0 317217.0 309759.0 276458.0 269716.0 364054.0 359523.0 54703.0 51147.0 305284.0 312277.0 0.0 8235.0 117041.0 109278.0 339686.0 334828.0 335638.0 327549.0 346379.0 354469.0 361249.0 353661.0 292640.0 284740.0 84356.0 79828.0 181118.0 173403.0 234376.0 235389.0 336065.0 344049.0 301820.0 304526.0 385848.0 378515.0 335401.0 332718.0 306006.0 310306.0 274748.0 282347.0 101650.0 100780.0 359104.0 352230.0 349891.0 342996.0 220012.0 228019.0 281392.0 282969.0 336257.0 341688.0 326312.0 319298.0 60542.0 62504.0 379468.0 373770.0 152736.0 152836.0 320764.0 164164.0 320764.0 320764.0 164164.0 164164.0
319152.0 325391.0 79904.0 87582.0 309464.0 303730.0 303584.0 309338.0 113360.0 120605.0 239417.0 237974.0 228655.0 226645.0 295771.0 298639.0 305585.0 311864.0 333880.0 335377.0 302072.0 309322.0 34295.0 40002.0 359630.0 363317.0 347740.0 343730.0 383953.0 378456.0 262504.0 270098.0 154244.0 146271.0 341888.0 337770.0 338169.0 342819.0 373296.0 368150.0 221480.0 228830.0 339678.0 331996.0 277297.0 273810.0 346911.0 340495.0 164334.0 156390.0 319185.0 326877.0 272691.0 280661.0 216553.0 222294.0 188425.0 189355.0 345356.0 352334.0 100391.0 102439.0 200455.0 208263.0 147376.0 144331.0 344555.0 351373.0 343509.0 347435.0 68999.0 67162.0 232817.0 240702.0 42065.0 34444.0 314663.0 320419.0 345388.0 349926.0 311534.0 309918.0 318760.0 313938.0 184836.0 179969.0 294791.0 301823.0 322186.0 316503.0 286776.0 290195.0 382275.0 389988.0 340894.0 333412.0 363630.0 369006.0 309034.0 301569.0 269158.0 262473.0 355962.0 351403.0 53717.0 51322.0 297994.0 304932.0 8235.0 0.0 109680.0 101845.0 331751.0 326894.0 327468.0 319378.0 338145.0 346235.0 353718.0 346158.0 284460.0 276564.0 76973.0 72147.0 173136.0 165392.0 226143.0 227155.0 327850.0 335833.0 293792.0 296454.0 377913.0 370580.0 327316.0 324599.0 297825.0 302149.0 266515.0 274113.0 93637.0 92635.0 350911.0 344029.0 341776.0 334862.0 211791.0 219797.0 273215.0 274767.0 328322.0 333753.0 318092.0 311072.0 56123.0 57170.0 371580.0 365835.0 144539.0 144693.0 312829.0 156343.0 312829.0 312829.0 156343.0 156343.0
277659.0 281835.0 71600.0 70555.0 205971.0 200237.0 212133.0 216321.0 61164.0 67063.0 145771.0 142094.0 134329.0 129874.0 242074.0 242211.0 209472.0 214649.0 275863.0 274900.0 236271.0 242040.0 80262.0 79626.0 262108.0 266947.0 264519.0 258865.0 288839.0 284421.0 163707.0 171667.0 51499.0 44114.0 256445.0 254109.0 234676.0 239326.0 271075.0 266457.0 140161.0 148040.0 236724.0 228899.0 206671.0 206034.0 247984.0 242462.0 71547.0 64259.0 215692.0 223384.0 183176.0 190630.0 132163.0 135041.0 105975.0 110725.0 295181.0 300610.0 59167.0 66595.0 123513.0 129608.0 65785.0 68955.0 259729.0 265450.0 272107.0 273911.0 40827.0 42998.0 151470.0 157533.0 119290.0 118287.0 229835.0 233953.0 241895.0 246434.0 235658.0 236491.0 215358.0 210446.0 84639.0 82530.0 194242.0 200588.0 219450.0 214279.0 190936.0 192692.0 278794.0 286523.0 237406.0 229925.0 285277.0 289077.0 226693.0 218853.0 225985.0 221523.0 253754.0 249830.0 98138.0 104990.0 252875.0 257797.0 117041.0 109680.0 0.0 8101.0 228258.0 223401.0 245552.0 237736.0 245421.0 253571.0 298423.0 292058.0 186149.0 178163.0 32708.0 38419.0 70707.0 64494.0 140106.0 137987.0 241253.0 249092.0 222307.0 222456.0 274420.0 267087.0 251154.0 246497.0 199262.0 202271.0 178360.0 184722.0 28991.0 37007.0 252268.0 246087.0 240124.0 233752.0 130631.0 137464.0 174932.0 178362.0 224829.0 230260.0 222533.0 216497.0 73021.0 64854.0 268157.0 262342.0 79946.0 86136.0 209336.0 50865.0 209336.0 209336.0 50865.0 50865.0
277480.0 281856.0 64916.0 64434.0 211828.0 206094.0 216865.0 221270.0 57972.0 64480.0 150517.0 147153.0 139106.0 135002.0 242821.0 243219.0 214819.0 220162.0 277180.0 276450.0 238179.0 244127.0 72997.0 72546.0 267753.0 272446.0 268413.0 262932.0 294210.0 289649.0 169307.0 177238.0 57003.0 49302.0 260573.0 258024.0 240532.0 245182.0 276932.0 272313.0 143167.0 151053.0 242580.0 234756.0 208925.0 207978.0 253800.0 248144.0 75298.0 67699.0 221548.0 229241.0 187545.0 195099.0 135497.0 138797.0 108701.0 112995.0 295847.0 301436.0 54433.0 61902.0 125754.0 132151.0 67343.0 69619.0 263794.0 269658.0 274741.0 276773.0 32890.0 35545.0 154584.0 160928.0 112209.0 111207.0 233807.0 238135.0 247751.0 252290.0 238631.0 239201.0 221214.0 216302.0 90016.0 87349.0 200095.0 206428.0 225307.0 220135.0 196192.0 198190.0 284651.0 292379.0 243262.0 235781.0 288688.0 292670.0 230361.0 222534.0 225664.0 220973.0 259610.0 255687.0 91057.0 97910.0 252893.0 258021.0 109278.0 101845.0 8101.0 0.0 234114.0 229257.0 249239.0 241364.0 250407.0 258568.0 299570.0 293070.0 191747.0 183750.0 24935.0 30346.0 76406.0 69769.0 143739.0 142035.0 245473.0 253353.0 224740.0 225163.0 280276.0 272943.0 254219.0 249758.0 204930.0 208096.0 182528.0 189081.0 22901.0 31176.0 258051.0 251763.0 245980.0 239580.0 133515.0 140576.0 180492.0 183657.0 230685.0 236116.0 227837.0 221653.0 65941.0 57773.0 274014.0 268198.0 79499.0 85153.0 215192.0 57106.0 215192.0 215192.0 57106.0 57106.0
276038.0 273774.0 266971.0 260558.0 23163.0 30581.0 109185.0 102691.0 231501.0 227726.0 119095.0 114500.0 123869.0 120124.0 231141.0 224656.0 88378.0 82783.0 236035.0 229173.0 198489.0 196465.0 306107.0 306316.0 93744.0 101896.0 155142.0 146722.0 120426.0 122424.0 91461.0 88571.0 177522.0 185513.0 143586.0 149247.0 13747.0 12542.0 68600.0 70131.0 154920.0 153698.0 40750.0 36449.0 177728.0 185229.0 80004.0 82904.0 173120.0 180059.0 14782.0 10567.0 118913.0 115843.0 150672.0 142282.0 167786.0 172779.0 265985.0 265403.0 242769.0 245447.0 170763.0 164849.0 193918.0 200365.0 147227.0 145596.0 197233.0 191660.0 264287.0 268773.0 151288.0 144741.0 346019.0 344890.0 137482.0 132363.0 13903.0 18404.0 169143.0 176886.0 29951.0 26362.0 149603.0 156269.0 68233.0 61479.0 42481.0 49403.0 92376.0 84412.0 55327.0 62179.0 22537.0 23343.0 182031.0 178831.0 145614.0 142821.0 247999.0 250805.0 57865.0 61981.0 324880.0 331733.0 255415.0 253260.0 339686.0 331751.0 228258.0 234114.0 0.0 7611.0 152365.0 150856.0 109819.0 113028.0 255271.0 254623.0 82742.0 85590.0 257650.0 260365.0 158956.0 167042.0 143121.0 135862.0 133875.0 135881.0 178590.0 171315.0 47583.0 39551.0 173523.0 165570.0 77639.0 69819.0 124564.0 119078.0 238216.0 240415.0 83300.0 84627.0 57462.0 60482.0 158861.0 153449.0 87583.0 93923.0 4308.0 8891.0 91436.0 95650.0 299763.0 291596.0 43917.0 36469.0 209128.0 214690.0 45843.0 177392.0 45843.0 45843.0 177392.0 177392.0
278273.0 276214.0 262450.0 256141.0 20893.0 28857.0 111993.0 105861.0 227217.0 223641.0 117533.0 112534.0 121662.0 117466.0 233112.0 226773.0 91209.0 86080.0 239176.0 232443.0 200924.0 199182.0 301250.0 301459.0 99999.0 108150.0 159796.0 151327.0 127123.0 128879.0 90419.0 88168.0 172664.0 180656.0 148153.0 153563.0 12650.0 15940.0 76046.0 77360.0 153548.0 152708.0 47041.0 41961.0 179282.0 186635.0 85856.0 88295.0 168842.0 175632.0 15289.0 14943.0 119806.0 117213.0 148867.0 140523.0 164933.0 170180.0 269096.0 268723.0 238309.0 241166.0 168701.0 163030.0 189769.0 196371.0 151860.0 150539.0 201168.0 195806.0 259430.0 263915.0 150462.0 144207.0 341162.0 340033.0 140848.0 136049.0 18831.0 24764.0 172156.0 179777.0 33059.0 27718.0 145159.0 152002.0 69524.0 63339.0 46580.0 52809.0 93722.0 85836.0 62510.0 69185.0 29754.0 29454.0 186885.0 183923.0 148662.0 145518.0 249007.0 251591.0 64844.0 68560.0 320022.0 326875.0 257246.0 255320.0 334828.0 326894.0 223401.0 229257.0 7611.0 0.0 156200.0 154347.0 114661.0 118242.0 258768.0 257905.0 83541.0 85706.0 252792.0 255508.0 154099.0 162199.0 141648.0 134167.0 137914.0 140275.0 180821.0 173686.0 54146.0 45892.0 177136.0 169153.0 79603.0 72012.0 125163.0 120068.0 233358.0 235558.0 89320.0 90210.0 63468.0 65845.0 157053.0 151934.0 87455.0 94253.0 8458.0 15949.0 95213.0 98929.0 294906.0 286739.0 51110.0 43460.0 205509.0 211256.0 38771.0 172534.0 38771.0 38771.0 172534.0 172534.0
131737.0 127660.0 248119.0 240368.0 140598.0 134385.0 47905.0 51562.0 214353.0 206919.0 103513.0 109639.0 114442.0 121241.0 92654.0 84886.0 66793.0 70476.0 85628.0 78165.0 57642.0 52028.0 312168.0 314840.0 78099.0 73903.0 20468.0 19156.0 80701.0 72622.0 100016.0 93932.0 195803.0 202198.0 19246.0 11796.0 166073.0 162070.0 118479.0 110459.0 107154.0 99433.0 116252.0 117209.0 58540.0 65803.0 81461.0 74833.0 174039.0 181542.0 141355.0 141954.0 65429.0 59751.0 113928.0 110511.0 141667.0 139138.0 115341.0 113867.0 227214.0 225084.0 127331.0 119748.0 184394.0 185283.0 19735.0 27671.0 45004.0 40314.0 271858.0 278587.0 95595.0 88537.0 354059.0 350736.0 18279.0 20343.0 160114.0 156710.0 25560.0 33244.0 123150.0 129388.0 164360.0 164241.0 92990.0 95958.0 109888.0 103407.0 74135.0 79308.0 154249.0 159790.0 135761.0 130534.0 40853.0 43622.0 18881.0 26706.0 121630.0 127596.0 110873.0 102689.0 336169.0 342742.0 116675.0 111900.0 335638.0 327468.0 245552.0 249239.0 152365.0 156200.0 0.0 8090.0 47101.0 49054.0 103247.0 103299.0 85590.0 90087.0 267938.0 267077.0 178737.0 182868.0 105502.0 107820.0 18936.0 20607.0 45986.0 38931.0 162478.0 162323.0 21764.0 14433.0 81185.0 86969.0 68479.0 63905.0 242495.0 239828.0 81019.0 75100.0 100730.0 94518.0 117001.0 109362.0 91510.0 83489.0 148786.0 144827.0 60990.0 57908.0 311089.0 302911.0 152283.0 154495.0 183033.0 182873.0 170653.0 199028.0 170653.0 170653.0 199028.0 199028.0
129852.0 126211.0 240034.0 232283.0 138032.0 131546.0 43938.0 48706.0 206266.0 198830.0 96341.0 102655.0 107146.0 114106.0 89174.0 81541.0 63820.0 68277.0 85576.0 78457.0 53964.0 49204.0 304115.0 306807.0 80985.0 77476.0 28497.0 26320.0 86073.0 78084.0 94198.0 88444.0 188134.0 194468.0 25785.0 19244.0 164599.0 160953.0 120612.0 112526.0 99127.0 91391.0 115953.0 116342.0 51563.0 59095.0 82823.0 75767.0 166204.0 173675.0 139328.0 140362.0 58548.0 53324.0 105987.0 102701.0 133666.0 131084.0 115500.0 114591.0 219125.0 216995.0 119254.0 111682.0 176390.0 177235.0 26995.0 34826.0 48038.0 44545.0 263845.0 270592.0 87566.0 80576.0 346006.0 342668.0 13709.0 18863.0 159188.0 156126.0 21249.0 29455.0 121307.0 127187.0 156862.0 156601.0 89415.0 92981.0 108423.0 101577.0 69332.0 75032.0 155655.0 161470.0 135131.0 129530.0 48073.0 51345.0 11099.0 18932.0 116776.0 122470.0 111953.0 103679.0 328183.0 334739.0 113531.0 109215.0 327549.0 319378.0 237736.0 241364.0 150856.0 154347.0 8090.0 0.0 49028.0 52189.0 104433.0 103856.0 80985.0 84969.0 259959.0 259060.0 171211.0 175230.0 97646.0 100141.0 20516.0 24825.0 40146.0 32651.0 163346.0 162768.0 22922.0 14923.0 77680.0 83945.0 61188.0 57050.0 234486.0 231784.0 82817.0 76415.0 100974.0 94326.0 108973.0 101361.0 86176.0 77964.0 147155.0 143583.0 59520.0 55464.0 303115.0 294931.0 153107.0 154901.0 174945.0 174785.0 167380.0 191448.0 167380.0 167380.0 191448.0 191448.0
178638.0 174711.0 261237.0 253601.0 102051.0 97214.0 34617.0 29152.0 225396.0 218748.0 100037.0 103328.0 111374.0 115565.0 138094.0 130514.0 38148.0 36383.0 132565.0 124968.0 102900.0 98211.0 318623.0 320239.0 32461.0 30605.0 45435.0 37153.0 46669.0 40441.0 83926.0 76095.0 193976.0 201322.0 34148.0 40765.0 123230.0 118312.0 71604.0 63533.0 118672.0 112277.0 71199.0 73531.0 94836.0 103034.0 34438.0 28309.0 176254.0 184240.0 100725.0 99853.0 65685.0 57679.0 122078.0 115898.0 149895.0 149848.0 162102.0 160219.0 238390.0 237701.0 140268.0 132272.0 191004.0 193823.0 37591.0 35906.0 89679.0 83211.0 276932.0 282840.0 108275.0 99777.0 360121.0 357786.0 39479.0 31479.0 115911.0 111778.0 70221.0 78462.0 82406.0 89768.0 160889.0 163058.0 62600.0 61940.0 68309.0 63515.0 55164.0 55556.0 107151.0 112713.0 91154.0 86939.0 72234.0 69428.0 49815.0 52325.0 164309.0 169489.0 63920.0 55827.0 339782.0 346555.0 162524.0 158238.0 346379.0 338145.0 245421.0 250407.0 109819.0 114661.0 47101.0 49028.0 0.0 8167.0 149204.0 149831.0 62794.0 70108.0 271776.0 272380.0 175118.0 180933.0 112307.0 111007.0 28607.0 27444.0 87257.0 79316.0 115563.0 115760.0 68760.0 61512.0 52222.0 54308.0 72282.0 64336.0 247922.0 246799.0 33936.0 28141.0 54856.0 49713.0 127786.0 119730.0 72889.0 67722.0 106673.0 101640.0 25702.0 29516.0 314666.0 306498.0 105413.0 107998.0 195117.0 196878.0 134550.0 195588.0 134550.0 134550.0 195588.0 195588.0
180731.0 176493.0 269226.0 261582.0 106722.0 102304.0 42661.0 37319.0 233434.0 226755.0 108204.0 111478.0 119540.0 123709.0 141291.0 133604.0 45835.0 43420.0 133554.0 125797.0 106099.0 100936.0 326778.0 328402.0 29047.0 25382.0 43832.0 36129.0 39078.0 32528.0 91858.0 83990.0 202120.0 209475.0 33507.0 41016.0 126218.0 120893.0 69756.0 61842.0 126524.0 120038.0 73436.0 76581.0 100117.0 108240.0 34837.0 30217.0 184419.0 192404.0 104752.0 103332.0 73686.0 65683.0 130076.0 123965.0 157943.0 157815.0 162771.0 160491.0 246431.0 245695.0 148120.0 140122.0 199127.0 201908.0 36393.0 33041.0 89506.0 82558.0 285094.0 291006.0 116026.0 107557.0 368283.0 365939.0 44272.0 36102.0 118267.0 113718.0 73408.0 81548.0 86596.0 94244.0 169027.0 171219.0 69503.0 68249.0 72404.0 68311.0 63185.0 63296.0 106276.0 111411.0 93460.0 89862.0 69452.0 65831.0 54506.0 57879.0 168583.0 173997.0 64001.0 56248.0 347949.0 354722.0 165527.0 160912.0 354469.0 346235.0 253571.0 258568.0 113028.0 118242.0 49054.0 52189.0 8167.0 0.0 149223.0 150290.0 70506.0 77931.0 279942.0 280540.0 183245.0 189081.0 120323.0 119115.0 31768.0 28523.0 91519.0 83659.0 115422.0 116221.0 70211.0 63428.0 59521.0 61030.0 80205.0 72317.0 256078.0 254937.0 33284.0 29056.0 56682.0 52549.0 135700.0 127637.0 80767.0 75766.0 110089.0 104623.0 33062.0 37479.0 322833.0 314665.0 105410.0 108581.0 203095.0 204780.0 139846.0 203707.0 139846.0 139846.0 203707.0 203707.0
51844.0 43951.0 275705.0 268555.0 242108.0 235373.0 147417.0 152977.0 250144.0 242160.0 181461.0 189225.0 189474.0 197868.0 58119.0 56481.0 167906.0 172688.0 23290.0 27441.0 66812.0 64390.0 348007.0 352576.0 177340.0 171420.0 105967.0 113140.0 169728.0 162113.0 190141.0 186270.0 256317.0 260513.0 115720.0 108494.0 269010.0 265222.0 218501.0 210778.0 164775.0 157743.0 219463.0 220426.0 97637.0 95322.0 183517.0 177450.0 231124.0 236767.0 243715.0 244788.0 151282.0 149519.0 174503.0 175959.0 195047.0 188966.0 18123.0 12134.0 261140.0 256346.0 176422.0 171755.0 232639.0 229962.0 112937.0 117761.0 59719.0 67004.0 313261.0 321004.0 155605.0 153377.0 388256.0 383122.0 117930.0 122945.0 263331.0 259954.0 87626.0 80904.0 225736.0 231518.0 231239.0 227905.0 192552.0 196852.0 212813.0 206009.0 170380.0 177146.0 255451.0 260350.0 239008.0 233718.0 86211.0 93535.0 110629.0 115021.0 87051.0 94623.0 212984.0 204987.0 376808.0 381939.0 60045.0 51925.0 361249.0 353718.0 298423.0 299570.0 255271.0 258768.0 103247.0 104433.0 149204.0 149223.0 0.0 8118.0 182143.0 184399.0 311953.0 308438.0 243936.0 245095.0 170481.0 176901.0 122106.0 121761.0 86422.0 91022.0 264570.0 264963.0 81782.0 89709.0 181075.0 187832.0 150003.0 150197.0 285826.0 280542.0 182437.0 177307.0 203729.0 197721.0 172654.0 168017.0 184744.0 176189.0 251585.0 247911.0 163862.0 159847.0 353423.0 345210.0 254489.0 257199.0 221448.0 217529.0 270462.0 261626.0 270462.0 270462.0 261626.0 261626.0
44542.0 36825.0 268326.0 261215.0 240848.0 233972.0 146155.0 152046.0 243148.0 235171.0 177470.0 185292.0 185166.0 193609.0 50887.0 49855.0 166804.0 171880.0 19338.0 25463.0 62750.0 61216.0 340770.0 345403.0 178732.0 173073.0 107569.0 114388.0 172411.0 164674.0 187219.0 183636.0 250543.0 254588.0 116820.0 109337.0 268370.0 264808.0 219862.0 212051.0 159545.0 152660.0 219503.0 220164.0 93143.0 90280.0 184246.0 177949.0 225273.0 230777.0 242774.0 244103.0 148383.0 147023.0 169336.0 171098.0 189233.0 183005.0 13011.0 10896.0 254031.0 249151.0 170544.0 166096.0 226293.0 223452.0 114245.0 119491.0 61167.0 68919.0 306312.0 314080.0 150666.0 148798.0 380903.0 375715.0 117141.0 122580.0 263034.0 259864.0 86009.0 78862.0 224937.0 230503.0 226010.0 222481.0 190969.0 195552.0 212241.0 205260.0 168391.0 175344.0 256560.0 261649.0 238882.0 233380.0 89417.0 97009.0 109341.0 113259.0 79047.0 86590.0 213737.0 205657.0 369709.0 374777.0 51929.0 43817.0 353661.0 346158.0 292058.0 293070.0 254623.0 257905.0 103299.0 103856.0 149831.0 150290.0 8118.0 0.0 180104.0 182029.0 305120.0 301498.0 238523.0 239483.0 165656.0 172283.0 122232.0 122418.0 82912.0 88050.0 265376.0 265508.0 81600.0 89387.0 179621.0 186563.0 146746.0 147356.0 279033.0 273650.0 183360.0 177971.0 204019.0 197784.0 167202.0 162809.0 182233.0 173687.0 250868.0 247428.0 163374.0 159012.0 346432.0 338233.0 255241.0 257704.0 214690.0 210628.0 268692.0 255959.0 268692.0 268692.0 255959.0 255959.0
196260.0 194787.0 211027.0 203711.0 63749.0 56062.0 37861.0 36756.0 174455.0 168775.0 46780.0 46665.0 56387.0 57827.0 150615.0 144657.0 24671.0 28608.0 160875.0 154924.0 120008.0 119440.0 262205.0 263139.0 76012.0 80842.0 97095.0 89034.0 102970.0 99130.0 22444.0 14519.0 134764.0 142455.0 85842.0 87857.0 95694.0 94904.0 91778.0 85483.0 78139.0 74956.0 64192.0 59052.0 96188.0 103324.0 62498.0 56448.0 120197.0 128189.0 68519.0 72648.0 36265.0 34234.0 76874.0 68795.0 100899.0 103427.0 190323.0 190998.0 187124.0 187750.0 97539.0 90305.0 137681.0 142008.0 89824.0 92414.0 128868.0 125469.0 220181.0 225493.0 71871.0 64302.0 303048.0 301348.0 67580.0 66141.0 94745.0 94721.0 94591.0 101294.0 54205.0 56388.0 101758.0 105246.0 15109.0 23127.0 47708.0 39627.0 11794.0 7257.0 112279.0 119951.0 76096.0 68170.0 124073.0 124112.0 72405.0 67199.0 165466.0 168115.0 75091.0 68963.0 282022.0 288875.0 174405.0 172953.0 292640.0 284460.0 186149.0 191747.0 82742.0 83541.0 85590.0 80985.0 62794.0 70506.0 182143.0 180104.0 0.0 7999.0 214333.0 215848.0 115445.0 122010.0 67615.0 62483.0 71235.0 77095.0 99417.0 92910.0 113835.0 109475.0 103379.0 95581.0 13366.0 18852.0 41838.0 36545.0 191924.0 191921.0 66593.0 60055.0 59926.0 52079.0 84563.0 77582.0 11298.0 12245.0 78475.0 78220.0 37620.0 33572.0 256905.0 248738.0 104532.0 102223.0 146517.0 150102.0 88814.0 135524.0 88814.0 88814.0 135524.0 135524.0
196426.0 195279.0 203368.0 196082.0 65320.0 57410.0 43069.0 43113.0 166785.0 161186.0 39567.0 38938.0 48769.0 49919.0 150581.0 144910.0 32174.0 36540.0 162727.0 157050.0 121058.0 121017.0 254222.0 255145.0 84010.0 88809.0 102686.0 94804.0 110891.0 106956.0 14457.0 6522.0 126769.0 134458.0 91665.0 93168.0 98112.0 97963.0 99042.0 92925.0 72234.0 69617.0 70265.0 64597.0 95827.0 102607.0 70450.0 64445.0 112272.0 120258.0 71040.0 75833.0 35285.0 35054.0 70312.0 62097.0 93617.0 96417.0 191902.0 192905.0 179416.0 180135.0 91032.0 83989.0 129897.0 134324.0 95615.0 98622.0 132483.0 129508.0 212196.0 217498.0 66766.0 59621.0 295053.0 293362.0 71876.0 71198.0 98127.0 98652.0 97198.0 103510.0 58167.0 59316.0 93759.0 97264.0 20587.0 28758.0 53237.0 45425.0 16286.0 14765.0 118199.0 125942.0 80829.0 72752.0 129324.0 129740.0 75787.0 70002.0 163810.0 166110.0 82177.0 76311.0 274024.0 280876.0 174023.0 172946.0 284740.0 276564.0 178163.0 183750.0 85590.0 85706.0 90087.0 84969.0 70108.0 77931.0 184399.0 182029.0 7999.0 0.0 206338.0 207869.0 107457.0 114011.0 61308.0 55692.0 76730.0 82972.0 100364.0 94257.0 119102.0 114350.0 106929.0 99278.0 21310.0 26090.0 39790.0 35896.0 183964.0 184004.0 74566.0 68052.0 67110.0 59430.0 78158.0 71450.0 3353.0 8819.0 81287.0 81770.0 45250.0 40667.0 248907.0 240740.0 110040.0 107290.0 139090.0 142832.0 88170.0 127556.0 88170.0 88170.0 127556.0 127556.0
286327.0 291243.0 54664.0 57164.0 235363.0 229629.0 237819.0 242629.0 62806.0 70579.0 171743.0 168958.0 160449.0 156985.0 254388.0 255475.0 236924.0 242549.0 290090.0 289963.0 252758.0 259124.0 48507.0 48819.0 290302.0 294733.0 287512.0 282415.0 316238.0 311415.0 191954.0 199816.0 80254.0 72322.0 280190.0 277192.0 264068.0 268718.0 300467.0 295820.0 160954.0 168782.0 266115.0 258291.0 224505.0 222812.0 276656.0 270781.0 95564.0 87623.0 245084.0 252776.0 207882.0 215605.0 154057.0 158191.0 126328.0 129562.0 306955.0 312958.0 54303.0 61064.0 142055.0 149045.0 83673.0 83884.0 283271.0 289423.0 290948.0 293515.0 8493.0 11165.0 172503.0 179403.0 88714.0 87266.0 253167.0 257923.0 271287.0 275825.0 255761.0 255716.0 244750.0 239838.0 112702.0 109203.0 223274.0 229817.0 248815.0 243667.0 218176.0 220594.0 308186.0 315914.0 266797.0 259317.0 306668.0 311049.0 249079.0 241308.0 234402.0 229091.0 283145.0 279170.0 68247.0 75015.0 262412.0 268088.0 84356.0 76973.0 32708.0 24935.0 257650.0 252792.0 267938.0 259959.0 271776.0 279942.0 311953.0 305120.0 214333.0 206338.0 0.0 8428.0 99665.0 92531.0 162842.0 161988.0 265321.0 273265.0 240665.0 241732.0 303812.0 296479.0 271506.0 267507.0 227611.0 231112.0 202484.0 209394.0 26241.0 31698.0 280847.0 274385.0 269469.0 262998.0 151139.0 158616.0 203042.0 205744.0 254221.0 259652.0 249839.0 243398.0 43162.0 34974.0 297549.0 291734.0 90576.0 94548.0 238728.0 81174.0 238728.0 238728.0 81174.0 81174.0
281700.0 286774.0 46836.0 49846.0 238079.0 232345.0 238219.0 243267.0 58446.0 66381.0 172458.0 170041.0 161273.0 158223.0 250676.0 251998.0 238058.0 243873.0 286789.0 286881.0 250137.0 256655.0 46375.0 47969.0 291691.0 295925.0 286823.0 281931.0 317229.0 312234.0 193557.0 201351.0 82861.0 74868.0 279779.0 276552.0 266783.0 271433.0 302956.0 298130.0 159937.0 167706.0 268802.0 260999.0 222338.0 220352.0 278294.0 272256.0 96206.0 88192.0 247799.0 255492.0 207987.0 215787.0 153428.0 157952.0 125432.0 128187.0 303013.0 309147.0 48806.0 55163.0 140489.0 147689.0 82715.0 82120.0 282782.0 289080.0 288924.0 291716.0 4870.0 12630.0 171499.0 178634.0 87755.0 85560.0 252662.0 257634.0 274003.0 278541.0 254189.0 253876.0 247433.0 242553.0 114626.0 110605.0 225240.0 231956.0 251469.0 246115.0 219260.0 221965.0 310902.0 318630.0 269513.0 262032.0 305411.0 309977.0 248258.0 240528.0 229827.0 224343.0 285618.0 281435.0 69542.0 75764.0 258025.0 263864.0 79828.0 72147.0 38419.0 30346.0 260365.0 255508.0 267077.0 259060.0 272380.0 280540.0 308438.0 301498.0 215848.0 207869.0 8428.0 0.0 102101.0 94663.0 162439.0 162022.0 265054.0 273021.0 238605.0 239941.0 306527.0 299194.0 269978.0 266195.0 229174.0 232934.0 202394.0 209482.0 24631.0 28060.0 282434.0 275845.0 271751.0 265124.0 150093.0 157725.0 204550.0 206921.0 256937.0 262367.0 250884.0 244282.0 45141.0 36872.0 300265.0 294449.0 87564.0 90923.0 241444.0 84457.0 241444.0 241444.0 84457.0 84457.0
232582.0 235216.0 108925.0 103054.0 136643.0 130833.0 142344.0 146116.0 75254.0 73407.0 76335.0 71927.0 64946.0 59647.0 191450.0 189820.0 138827.0 143944.0 220716.0 218357.0 178369.0 182967.0 148046.0 148413.0 191420.0 196241.0 196844.0 190655.0 218164.0 213831.0 93001.0 100960.0 19441.0 27343.0 188060.0 186422.0 165374.0 170024.0 200885.0 196164.0 79302.0 86657.0 166728.0 158962.0 147478.0 148731.0 177396.0 171786.0 21879.0 24862.0 146352.0 154031.0 114508.0 121602.0 69796.0 70055.0 51250.0 58768.0 243839.0 248117.0 85164.0 88963.0 69686.0 72790.0 41056.0 49018.0 191522.0 196792.0 209658.0 210346.0 106123.0 110812.0 89304.0 93535.0 188183.0 186931.0 162105.0 165515.0 172590.0 177127.0 172024.0 174148.0 145624.0 140905.0 14452.0 16043.0 123724.0 130169.0 149369.0 144055.0 120371.0 121991.0 209277.0 217027.0 167879.0 160324.0 219247.0 222333.0 160115.0 152305.0 183724.0 181247.0 183552.0 179507.0 167031.0 173884.0 207083.0 210360.0 181118.0 173136.0 70707.0 76406.0 158956.0 154099.0 178737.0 171211.0 175118.0 183245.0 243936.0 238523.0 115445.0 107457.0 99665.0 102101.0 0.0 8150.0 75548.0 71388.0 172662.0 180350.0 161700.0 160373.0 205059.0 197759.0 186893.0 181410.0 128577.0 131692.0 110424.0 116068.0 79514.0 81500.0 181653.0 175410.0 169806.0 163347.0 71321.0 76120.0 104225.0 107774.0 155523.0 160916.0 151910.0 146010.0 141915.0 133747.0 198704.0 192961.0 62433.0 70226.0 140034.0 20556.0 140034.0 140034.0 20556.0 20556.0
232018.0 234917.0 100782.0 94937.0 144680.0 138810.0 147772.0 151845.0 67280.0 65669.0 81475.0 77605.0 70028.0 65379.0 191710.0 190410.0 145069.0 150397.0 221952.0 219877.0 180069.0 184950.0 140773.0 141340.0 198022.0 202678.0 201311.0 195329.0 224458.0 219960.0 99581.0 107495.0 13099.0 20470.0 192805.0 190884.0 173475.0 178124.0 208307.0 203472.0 81119.0 88709.0 174335.0 166617.0 149357.0 150172.0 184193.0 178435.0 17139.0 17968.0 154378.0 162043.0 119295.0 126579.0 71957.0 73125.0 50715.0 57786.0 244397.0 248900.0 77051.0 80935.0 69463.0 73388.0 34066.0 42107.0 196195.0 201662.0 212536.0 213524.0 98776.0 103694.0 91614.0 96452.0 181187.0 179762.0 166554.0 170262.0 180691.0 185194.0 175145.0 176920.0 153415.0 148801.0 20253.0 18629.0 130745.0 137342.0 156912.0 151463.0 126479.0 128424.0 217172.0 224935.0 175775.0 168181.0 223166.0 226490.0 164133.0 156299.0 182506.0 179704.0 190967.0 186784.0 160072.0 166925.0 206549.0 210119.0 173403.0 165392.0 64494.0 69769.0 167042.0 162199.0 182868.0 175230.0 180933.0 189081.0 245095.0 239483.0 122010.0 114011.0 92531.0 94663.0 8150.0 0.0 78514.0 75102.0 177484.0 185246.0 163985.0 163036.0 213061.0 205793.0 190226.0 184980.0 135227.0 138593.0 114867.0 120850.0 71756.0 73522.0 188411.0 182050.0 177095.0 170522.0 72576.0 78042.0 110743.0 113923.0 163591.0 168935.0 158104.0 152011.0 134956.0 126789.0 206640.0 200948.0 55986.0 63925.0 148135.0 16669.0 148135.0 148135.0 16669.0 16669.0
166019.0 167285.0 148945.0 141325.0 120770.0 112872.0 77691.0 83996.0 113124.0 106441.0 24129.0 30089.0 23619.0 31617.0 121781.0 118786.0 83023.0 90341.0 147193.0 144160.0 104006.0 108040.0 208159.0 210384.0 136481.0 139057.0 124766.0 119574.0 158631.0 152739.0 51886.0 56337.0 91131.0 97110.0 117367.0 114410.0 154296.0 155661.0 158794.0 152073.0 12021.0 14403.0 131558.0 125853.0 72976.0 75410.0 125908.0 118577.0 68563.0 76041.0 128347.0 134294.0 46640.0 54640.0 9856.0 5542.0 37719.0 37723.0 172235.0 175727.0 126127.0 125406.0 30015.0 22698.0 79869.0 81903.0 120429.0 126645.0 134134.0 135011.0 167153.0 173636.0 15200.0 17989.0 249972.0 247113.0 90327.0 95199.0 156497.0 158032.0 96635.0 98600.0 118222.0 117836.0 61822.0 60056.0 81884.0 90064.0 114509.0 106733.0 65233.0 70988.0 179505.0 187251.0 141473.0 133305.0 145212.0 148979.0 86626.0 78796.0 122591.0 122483.0 142457.0 135918.0 231080.0 237814.0 140952.0 142631.0 234376.0 226143.0 140106.0 143739.0 143121.0 141648.0 105502.0 97646.0 112307.0 120323.0 170481.0 165656.0 67615.0 61308.0 162842.0 162439.0 75548.0 78514.0 0.0 8448.0 102623.0 110596.0 86430.0 84839.0 180095.0 174971.0 111739.0 106650.0 79726.0 86389.0 40376.0 48027.0 137808.0 135814.0 129354.0 121855.0 127224.0 119161.0 16972.0 10343.0 58369.0 55603.0 138860.0 140752.0 94355.0 86724.0 205963.0 197796.0 171214.0 168137.0 82867.0 85057.0 135822.0 95068.0 135822.0 135822.0 95068.0 95068.0
173782.0 174884.0 150966.0 143437.0 113325.0 105477.0 76508.0 82202.0 114746.0 108408.0 16859.0 21982.0 15185.0 23308.0 129247.0 126009.0 79746.0 86758.0 153637.0 150323.0 110206.0 113856.0 208051.0 209986.0 133682.0 136710.0 126547.0 120909.0 156885.0 151301.0 45145.0 50288.0 87993.0 94404.0 118537.0 116132.0 146805.0 148391.0 154164.0 147661.0 20213.0 22673.0 125864.0 119879.0 79265.0 82234.0 122402.0 115298.0 66765.0 74530.0 121111.0 127232.0 45967.0 53805.0 14913.0 6503.0 39431.0 41062.0 179186.0 182472.0 127688.0 127453.0 35535.0 29041.0 80042.0 82873.0 121772.0 127640.0 138615.0 139044.0 166667.0 172911.0 22901.0 23529.0 249740.0 247139.0 91848.0 96113.0 149346.0 151102.0 100798.0 103335.0 111612.0 110861.0 57251.0 56477.0 76242.0 84370.0 108588.0 100983.0 61401.0 66504.0 173615.0 181404.0 135007.0 126819.0 148065.0 151435.0 89048.0 81209.0 130857.0 130841.0 137570.0 131303.0 230159.0 236999.0 148817.0 150312.0 235389.0 227155.0 137987.0 142035.0 135862.0 134167.0 107820.0 100141.0 111007.0 119115.0 176901.0 172283.0 62483.0 55692.0 161988.0 162022.0 71388.0 75102.0 8448.0 0.0 103470.0 111377.0 91985.0 89815.0 173767.0 168431.0 115531.0 110028.0 75085.0 81334.0 40534.0 47460.0 137437.0 135944.0 126020.0 118672.0 122387.0 114454.0 23057.0 18022.0 52594.0 50829.0 131623.0 133775.0 91633.0 84275.0 205042.0 196848.0 165059.0 161727.0 85279.0 88186.0 127741.0 91411.0 127741.0 127741.0 91411.0 91411.0
150048.0 146192.0 249298.0 241565.0 122910.0 116986.0 33672.0 35192.0 214491.0 207352.0 96378.0 101567.0 107723.0 113652.0 109690.0 102056.0 50134.0 52845.0 104532.0 97095.0 74480.0 69625.0 310758.0 313005.0 60473.0 57127.0 25962.0 18387.0 67325.0 59569.0 88207.0 81375.0 190558.0 197371.0 15509.0 16737.0 147551.0 143385.0 100209.0 92140.0 106369.0 99073.0 97360.0 98469.0 69414.0 77373.0 62735.0 55964.0 170233.0 177994.0 123214.0 123525.0 58192.0 51116.0 111805.0 107141.0 140011.0 138517.0 134271.0 132786.0 227473.0 225949.0 127527.0 119644.0 182475.0 184179.0 19238.0 24197.0 63372.0 57914.0 269759.0 276176.0 95067.0 87159.0 352586.0 349661.0 14291.0 7440.0 141359.0 137857.0 41764.0 49967.0 104918.0 111412.0 158210.0 158985.0 76770.0 78919.0 91445.0 85226.0 60450.0 64452.0 135585.0 141259.0 116930.0 111831.0 52891.0 53014.0 23636.0 28748.0 136867.0 142369.0 92070.0 83856.0 333512.0 340330.0 134040.0 129659.0 336065.0 327850.0 241253.0 245473.0 133875.0 137914.0 18936.0 20516.0 28607.0 31768.0 122106.0 122232.0 71235.0 76730.0 265321.0 265054.0 172662.0 177484.0 102623.0 103470.0 0.0 7991.0 59863.0 52068.0 143634.0 143404.0 40687.0 33151.0 65017.0 70073.0 62948.0 56635.0 240424.0 238381.0 62507.0 56347.0 81794.0 75620.0 116082.0 108115.0 78626.0 71247.0 130370.0 126212.0 42824.0 40777.0 308411.0 300234.0 133427.0 135572.0 183423.0 184096.0 153652.0 193176.0 153652.0 153652.0 193176.0 193176.0
152209.0 147989.0 257255.0 249521.0 126122.0 120529.0 40166.0 40485.0 222474.0 215328.0 104030.0 109069.0 115404.0 121203.0 113183.0 105437.0 54870.0 56622.0 105311.0 97646.0 78084.0 72621.0 318738.0 320974.0 57563.0 53303.0 20386.0 12006.0 61328.0 53393.0 94912.0 87877.0 198328.0 205178.0 8763.0 13449.0 149460.0 144919.0 98168.0 90195.0 114354.0 107046.0 98214.0 99972.0 75601.0 83392.0 61829.0 55705.0 178131.0 185906.0 125843.0 125676.0 65959.0 58751.0 119791.0 115095.0 147999.0 146504.0 134741.0 132782.0 235455.0 233915.0 135495.0 127618.0 190453.0 192169.0 12764.0 16450.0 62289.0 56037.0 277722.0 284127.0 103043.0 95147.0 360564.0 357647.0 21812.0 15430.0 142692.0 138824.0 45604.0 53570.0 107473.0 114310.0 165900.0 166772.0 81521.0 83006.0 93695.0 87959.0 66703.0 70131.0 134318.0 139671.0 118044.0 113396.0 47954.0 47125.0 30310.0 36135.0 141537.0 147283.0 91320.0 83260.0 341446.0 348276.0 137266.0 132504.0 344049.0 335833.0 249092.0 253353.0 135881.0 140275.0 20607.0 24825.0 27444.0 28523.0 121761.0 122418.0 77095.0 82972.0 273265.0 273021.0 180350.0 185246.0 110596.0 111377.0 7991.0 0.0 64956.0 57375.0 142958.0 143204.0 41727.0 34920.0 69913.0 74359.0 70845.0 64405.0 248392.0 246364.0 61030.0 55571.0 82123.0 76541.0 124070.0 116105.0 85031.0 77920.0 132527.0 127964.0 46078.0 45301.0 316349.0 308170.0 132826.0 135438.0 191398.0 192041.0 157491.0 200878.0 157491.0 157491.0 200878.0 200878.0
97463.0 95516.0 213889.0 206218.0 162266.0 154909.0 70060.0 77587.0 182610.0 174784.0 95195.0 102898.0 103660.0 111932.0 52931.0 46124.0 90572.0 97097.0 63636.0 59170.0 20705.0 22142.0 281920.0 285391.0 119700.0 116899.0 64274.0 65032.0 126212.0 118208.0 104535.0 101388.0 176092.0 181291.0 65220.0 57626.0 192192.0 189791.0 157865.0 149754.0 82959.0 75283.0 148069.0 146885.0 16497.0 21327.0 119321.0 111684.0 151847.0 158450.0 165532.0 168045.0 65852.0 65403.0 92043.0 91971.0 116370.0 111747.0 91924.0 93633.0 194985.0 191779.0 99004.0 92699.0 157629.0 156782.0 65542.0 73460.0 50320.0 53651.0 243469.0 250731.0 72422.0 68639.0 323553.0 319505.0 47826.0 55781.0 188658.0 186683.0 21210.0 16551.0 148656.0 153103.0 148205.0 145917.0 111784.0 117489.0 137417.0 129669.0 88060.0 95582.0 191228.0 197558.0 165920.0 159341.0 71431.0 77992.0 37521.0 37039.0 77090.0 82506.0 147366.0 139052.0 308141.0 314161.0 77528.0 74762.0 301820.0 293792.0 222307.0 224740.0 178590.0 180821.0 45986.0 40146.0 87257.0 91519.0 86422.0 82912.0 99417.0 100364.0 240665.0 238605.0 161700.0 163985.0 86430.0 91985.0 59863.0 64956.0 0.0 7971.0 197655.0 196053.0 35191.0 35575.0 101226.0 108849.0 63858.0 64930.0 214541.0 210660.0 120032.0 112985.0 134791.0 127294.0 92030.0 85970.0 100238.0 91771.0 174554.0 172336.0 91044.0 84728.0 283560.0 275283.0 187414.0 188177.0 151612.0 149867.0 188170.0 180652.0 188170.0 188170.0 180652.0 180652.0
104749.0 102528.0 216590.0 208885.0 155351.0 148079.0 62503.0 69901.0 184607.0 176859.0 91679.0 99221.0 100694.0 108801.0 60640.0 53669.0 83126.0 89516.0 68712.0 63592.0 27261.0 26843.0 283734.0 287023.0 111766.0 109034.0 57928.0 58077.0 118693.0 110723.0 99189.0 95628.0 175363.0 180827.0 58067.0 50687.0 184951.0 182416.0 149896.0 141784.0 82463.0 74644.0 140351.0 139291.0 20413.0 27019.0 111358.0 103730.0 151523.0 158352.0 158400.0 160759.0 60338.0 59203.0 91150.0 90353.0 116507.0 112342.0 97651.0 98877.0 197135.0 194197.0 99716.0 93025.0 158346.0 157902.0 58631.0 66570.0 49677.0 51785.0 244795.0 251948.0 71493.0 66869.0 325472.0 321592.0 39868.0 47847.0 181219.0 179138.0 15586.0 14039.0 141367.0 145976.0 146632.0 144759.0 104900.0 110398.0 129943.0 122261.0 81409.0 88793.0 183316.0 189625.0 158332.0 151832.0 67510.0 73588.0 29556.0 29228.0 85004.0 90338.0 139446.0 131131.0 309475.0 315627.0 85273.0 82289.0 304526.0 296454.0 222456.0 225163.0 171315.0 173686.0 38931.0 32651.0 79316.0 83659.0 91022.0 88050.0 92910.0 94257.0 241732.0 239941.0 160373.0 163036.0 84839.0 89815.0 52068.0 57375.0 7971.0 0.0 189817.0 188285.0 30990.0 29860.0 94151.0 101677.0 59033.0 59306.0 215709.0 212101.0 112062.0 105019.0 126944.0 119490.0 91846.0 85332.0 94310.0 85787.0 167308.0 164947.0 83255.0 77056.0 284753.0 276486.0 179572.0 180406.0 153429.0 152087.0 181724.0 179673.0 181724.0 181724.0 179673.0 179673.0
293006.0 289548.0 312053.0 305412.0 68525.0 74285.0 128449.0 120426.0 276117.0 271869.0 156982.0 153813.0 163699.0 161363.0 250392.0 243199.0 109464.0 101966.0 248082.0 240522.0 215791.0 212135.0 352269.0 352478.0 88382.0 95450.0 159129.0 151551.0 106609.0 111530.0 128667.0 123763.0 223683.0 231675.0 148881.0 156104.0 47623.0 39827.0 48726.0 55306.0 191281.0 188652.0 50867.0 54824.0 200528.0 208594.0 81132.0 87674.0 217949.0 225183.0 58761.0 51038.0 147221.0 142101.0 188651.0 180268.0 208898.0 213052.0 277664.0 275715.0 287766.0 290017.0 209293.0 202626.0 238352.0 244391.0 151810.0 147804.0 204883.0 197976.0 310449.0 314934.0 185665.0 178132.0 392181.0 391052.0 151494.0 144607.0 35920.0 29382.0 183884.0 192100.0 62465.0 65047.0 194906.0 201162.0 98845.0 90719.0 66132.0 74288.0 120350.0 112737.0 13306.0 16595.0 38893.0 47075.0 183241.0 178191.0 161167.0 160615.0 272191.0 276095.0 51643.0 59788.0 371042.0 377894.0 275041.0 271602.0 385848.0 377913.0 274420.0 280276.0 47583.0 54146.0 162478.0 163346.0 115563.0 115422.0 264570.0 265376.0 113835.0 119102.0 303812.0 306527.0 205059.0 213061.0 180095.0 173767.0 143634.0 142958.0 197655.0 189817.0 0.0 8543.0 184223.0 176785.0 104256.0 96387.0 153911.0 146933.0 284377.0 286559.0 82151.0 87431.0 62876.0 70430.0 196699.0 190354.0 121859.0 126049.0 50293.0 44189.0 106664.0 113434.0 345925.0 337758.0 10258.0 12261.0 252128.0 257140.0 92852.0 223554.0 92852.0 92852.0 223554.0 223554.0
292056.0 288812.0 305120.0 298546.0 61116.0 67236.0 126368.0 118533.0 269310.0 265194.0 151596.0 148120.0 157926.0 155276.0 248924.0 241844.0 106834.0 99559.0 247936.0 240481.0 214583.0 211214.0 344936.0 345145.0 90155.0 97558.0 160049.0 152267.0 110230.0 114681.0 123286.0 118735.0 216351.0 224342.0 149494.0 156490.0 39084.0 31327.0 52126.0 57924.0 186315.0 183967.0 48153.0 50956.0 198242.0 206230.0 81523.0 87559.0 211049.0 218201.0 51422.0 43823.0 143642.0 138867.0 183339.0 174933.0 202931.0 207284.0 277656.0 275950.0 280851.0 283229.0 203906.0 197389.0 231577.0 237733.0 152572.0 148959.0 205387.0 198690.0 303116.0 307602.0 181088.0 173727.0 384848.0 383719.0 150560.0 143938.0 27475.0 21190.0 183013.0 191182.0 56824.0 58606.0 187851.0 194231.0 94388.0 86368.0 62019.0 70271.0 116619.0 108861.0 20429.0 24950.0 33534.0 41674.0 184793.0 180044.0 160021.0 159058.0 269833.0 273532.0 52242.0 60031.0 363709.0 370562.0 273558.0 270352.0 378515.0 370580.0 267087.0 272943.0 39551.0 45892.0 162323.0 162768.0 115760.0 116221.0 264963.0 265508.0 109475.0 114350.0 296479.0 299194.0 197759.0 205793.0 174971.0 168431.0 143404.0 143204.0 196053.0 188285.0 8543.0 0.0 184086.0 176516.0 100576.0 92594.0 150177.0 143436.0 277045.0 279244.0 82994.0 87670.0 61806.0 68855.0 191436.0 185272.0 116988.0 121610.0 42494.0 36896.0 105034.0 111445.0 338592.0 330425.0 12311.0 7888.0 245746.0 250902.0 84514.0 216221.0 84514.0 84514.0 216221.0 216221.0
110635.0 106284.0 247481.0 239767.0 160947.0 154468.0 66764.0 71617.0 215193.0 207496.0 114198.0 121080.0 124400.0 131918.0 73616.0 65748.0 86742.0 91109.0 63868.0 56409.0 39880.0 32974.0 314135.0 317281.0 99207.0 94522.0 32474.0 36330.0 98901.0 90780.0 115257.0 109985.0 202868.0 208741.0 37885.0 29741.0 187256.0 183443.0 139894.0 131914.0 111055.0 103169.0 137904.0 138674.0 51035.0 56516.0 103168.0 96593.0 179779.0 186899.0 162159.0 163058.0 77931.0 73830.0 119067.0 117102.0 145574.0 141944.0 93584.0 92219.0 227798.0 224991.0 129502.0 122472.0 187900.0 187859.0 36514.0 43685.0 25555.0 23743.0 274817.0 281860.0 99686.0 93897.0 355932.0 352164.0 36620.0 41168.0 181573.0 178295.0 15831.0 18776.0 144081.0 150052.0 172779.0 171699.0 112253.0 115901.0 131052.0 124336.0 91638.0 97637.0 175898.0 181351.0 157324.0 151947.0 36526.0 42823.0 31152.0 37594.0 104854.0 111392.0 132606.0 124435.0 339457.0 345727.0 96924.0 91613.0 335401.0 327316.0 251154.0 254219.0 173523.0 177136.0 21764.0 22922.0 68760.0 70211.0 81782.0 81600.0 103379.0 106929.0 271506.0 269978.0 186893.0 190226.0 111739.0 115531.0 40687.0 41727.0 35191.0 30990.0 184223.0 184086.0 0.0 8004.0 100546.0 106865.0 79226.0 76538.0 245615.0 242258.0 102622.0 96821.0 122472.0 116183.0 120720.0 113696.0 107907.0 99527.0 169868.0 166130.0 82094.0 78330.0 314613.0 306364.0 174034.0 176257.0 183936.0 182819.0 190251.0 206726.0 190251.0 190251.0 206726.0 206726.0
117320.0 113228.0 244881.0 237147.0 152943.0 146469.0 58808.0 63613.0 212049.0 204433.0 107888.0 114598.0 118307.0 125655.0 78812.0 70991.0 78741.0 83115.0 71436.0 64101.0 44148.0 38031.0 310689.0 313679.0 92475.0 88122.0 28944.0 31137.0 93802.0 85681.0 107908.0 102474.0 197723.0 203758.0 32177.0 24017.0 179306.0 175536.0 132911.0 124891.0 106677.0 98807.0 130140.0 130806.0 50272.0 56611.0 95832.0 89115.0 175003.0 182251.0 154167.0 155097.0 71043.0 66591.0 114335.0 111928.0 141304.0 138019.0 101253.0 100052.0 224756.0 222179.0 125749.0 118515.0 183837.0 184099.0 31472.0 39119.0 33288.0 30561.0 271019.0 277964.0 95196.0 88986.0 352537.0 348917.0 28627.0 33244.0 173695.0 170477.0 14420.0 20534.0 136101.0 142053.0 167202.0 166397.0 104296.0 107904.0 123106.0 116358.0 83865.0 89765.0 168648.0 174214.0 149496.0 144058.0 39237.0 44441.0 23651.0 30540.0 108815.0 115066.0 125210.0 117004.0 335587.0 341959.0 102607.0 97658.0 332718.0 324599.0 246497.0 249758.0 165570.0 169153.0 14433.0 14923.0 61512.0 63428.0 89709.0 89387.0 95581.0 99278.0 267507.0 266195.0 181410.0 184980.0 106650.0 110028.0 33151.0 34920.0 35575.0 29860.0 176785.0 176516.0 8004.0 0.0 92577.0 98868.0 72753.0 69614.0 241742.0 238608.0 95439.0 89459.0 114829.0 108437.0 116437.0 109193.0 100332.0 92001.0 161903.0 158207.0 74153.0 70329.0 310654.0 302424.0 166578.0 168674.0 180729.0 179939.0 182282.0 201399.0 182282.0 182282.0 201399.0 201399.0
198671.0 196668.0 224272.0 216934.0 61349.0 54351.0 33796.0 29859.0 187711.0 181971.0 59795.0 59989.0 69649.0 71193.0 153563.0 147176.0 15059.0 16293.0 160613.0 154219.0 121408.0 119956.0 275524.0 276422.0 62847.0 67940.0 90265.0 81911.0 90261.0 86774.0 35658.0 27823.0 147932.0 155656.0 78646.0 81741.0 91118.0 89242.0 79115.0 72584.0 89763.0 85970.0 53694.0 49626.0 100148.0 107745.0 49142.0 43214.0 133561.0 141552.0 64315.0 67169.0 43067.0 38699.0 89197.0 81283.0 113862.0 116133.0 190395.0 190501.0 200405.0 200963.0 109738.0 102322.0 151011.0 155278.0 82648.0 84276.0 125661.0 121489.0 233495.0 238772.0 82644.0 74672.0 316323.0 314659.0 63979.0 61003.0 88534.0 87567.0 93613.0 100913.0 47900.0 51886.0 114982.0 118569.0 11809.0 16264.0 38659.0 30404.0 16095.0 8818.0 101638.0 109162.0 67807.0 60303.0 117715.0 116974.0 70452.0 66466.0 170883.0 174049.0 62750.0 56240.0 295271.0 302124.0 177789.0 175739.0 306006.0 297825.0 199262.0 204930.0 77639.0 79603.0 81185.0 77680.0 52222.0 59521.0 181075.0 179621.0 13366.0 21310.0 227611.0 229174.0 128577.0 135227.0 79726.0 75085.0 65017.0 69913.0 101226.0 94151.0 104256.0 100576.0 100546.0 92577.0 0.0 8061.0 49660.0 42888.0 205273.0 205286.0 53260.0 46834.0 47510.0 39439.0 96695.0 89457.0 24642.0 24257.0 73521.0 71981.0 26525.0 24666.0 270155.0 261988.0 94609.0 93056.0 159583.0 163021.0 89706.0 148561.0 89706.0 89706.0 148561.0 148561.0
206312.0 204203.0 229400.0 222134.0 54290.0 47611.0 40424.0 35411.0 192813.0 187258.0 65544.0 64976.0 74848.0 75643.0 161324.0 154869.0 20182.0 18113.0 167643.0 161126.0 128913.0 127259.0 279223.0 279928.0 60525.0 66353.0 94739.0 86274.0 88942.0 86136.0 39672.0 32319.0 151117.0 158931.0 82993.0 86683.0 83364.0 81317.0 72989.0 66837.0 96737.0 93232.0 46013.0 41667.0 108088.0 115722.0 45805.0 40876.0 137816.0 145762.0 56728.0 59314.0 51072.0 46755.0 95702.0 87642.0 119650.0 122267.0 197488.0 197428.0 205409.0 206195.0 116348.0 109062.0 155804.0 160346.0 86971.0 87959.0 131744.0 127261.0 237185.0 242277.0 89997.0 82153.0 319779.0 318295.0 70246.0 66650.0 80545.0 79515.0 100582.0 108027.0 39985.0 44309.0 118414.0 122428.0 8746.0 9037.0 30629.0 22368.0 24024.0 16358.0 94068.0 101654.0 59757.0 52243.0 122312.0 121112.0 77244.0 73641.0 178911.0 182100.0 56243.0 50226.0 298650.0 305503.0 185604.0 183459.0 310306.0 302149.0 202271.0 208096.0 69819.0 72012.0 86969.0 83945.0 54308.0 61030.0 187832.0 186563.0 18852.0 26090.0 231112.0 232934.0 131692.0 138593.0 86389.0 81334.0 70073.0 74359.0 108849.0 101677.0 96387.0 92594.0 106865.0 98868.0 8061.0 0.0 57591.0 50919.0 209238.0 209529.0 50151.0 44493.0 41095.0 33341.0 103351.0 96284.0 29407.0 30807.0 65738.0 64010.0 29032.0 29297.0 273534.0 265366.0 86812.0 85107.0 165175.0 168864.0 83699.0 151405.0 83699.0 83699.0 151405.0 151405.0
157666.0 156971.0 189062.0 181404.0 104997.0 97132.0 37806.0 44823.0 153426.0 146639.0 35202.0 41863.0 45970.0 52984.0 111710.0 106457.0 47409.0 55294.0 127441.0 122595.0 84356.0 85642.0 248295.0 250363.0 98327.0 100103.0 86456.0 80525.0 118847.0 112708.0 40999.0 39049.0 127897.0 134571.0 78085.0 76030.0 137426.0 136741.0 125282.0 117920.0 46469.0 40479.0 103248.0 99257.0 56892.0 63223.0 89518.0 81740.0 107288.0 115064.0 110259.0 114485.0 7256.0 14880.0 49998.0 44492.0 78094.0 77631.0 155687.0 157487.0 166435.0 165540.0 68044.0 60060.0 120057.0 122273.0 81391.0 87130.0 103914.0 102958.0 207066.0 213382.0 36583.0 28010.0 290053.0 287316.0 51701.0 55609.0 136552.0 136333.0 66125.0 70670.0 95919.0 98204.0 96005.0 96287.0 56672.0 64242.0 88172.0 79913.0 33574.0 41333.0 150957.0 158359.0 117164.0 109436.0 109230.0 111985.0 50175.0 42529.0 124033.0 126439.0 110218.0 102805.0 270634.0 277499.0 134722.0 134036.0 274748.0 266515.0 178360.0 182528.0 124564.0 125163.0 68479.0 61188.0 72282.0 80205.0 150003.0 146746.0 41838.0 39790.0 202484.0 202394.0 110424.0 114867.0 40376.0 40534.0 62948.0 70845.0 63858.0 59033.0 153911.0 150177.0 79226.0 72753.0 49660.0 57591.0 0.0 8237.0 177782.0 176030.0 92465.0 84722.0 95202.0 86892.0 55504.0 47449.0 38685.0 31033.0 120290.0 120006.0 56749.0 48731.0 245552.0 237365.0 144226.0 142697.0 122918.0 124596.0 127471.0 130820.0 127471.0 127471.0 130820.0 130820.0
160533.0 159443.0 196910.0 189269.0 100259.0 92514.0 29760.0 36617.0 161151.0 154440.0 39936.0 45753.0 51174.0 57507.0 114686.0 109035.0 39477.0 47391.0 128018.0 122757.0 85625.0 86146.0 255494.0 257445.0 90092.0 91911.0 80958.0 74591.0 110818.0 104777.0 39955.0 36462.0 133928.0 140777.0 71995.0 70574.0 132161.0 131099.0 117342.0 109921.0 54598.0 48705.0 96142.0 92480.0 59962.0 66890.0 81348.0 73547.0 113985.0 121837.0 104997.0 108847.0 1561.0 6700.0 57760.0 51860.0 85708.0 85513.0 156795.0 158181.0 174155.0 173378.0 76144.0 68172.0 127368.0 129804.0 75459.0 80812.0 101710.0 100115.0 214125.0 220341.0 44816.0 36245.0 297197.0 294565.0 46401.0 49448.0 130723.0 130188.0 64507.0 69848.0 89989.0 92778.0 101617.0 102367.0 50868.0 58093.0 81545.0 73286.0 27007.0 34962.0 143625.0 150959.0 110670.0 103077.0 104755.0 107026.0 46323.0 39074.0 128962.0 131740.0 102472.0 94963.0 277543.0 284393.0 138194.0 137051.0 282347.0 274113.0 184722.0 189081.0 119078.0 120068.0 63905.0 57050.0 64336.0 72317.0 150197.0 147356.0 36545.0 35896.0 209394.0 209482.0 116068.0 120850.0 48027.0 47460.0 56635.0 64405.0 64930.0 59306.0 146933.0 143436.0 76538.0 69614.0 42888.0 50919.0 8237.0 0.0 184895.0 183323.0 84260.0 76510.0 87539.0 79230.0 63512.0 55479.0 35438.0 27121.0 114838.0 114144.0 48535.0 40507.0 252427.0 244215.0 137152.0 135878.0 130783.0 132597.0 124066.0 136565.0 124066.0 124066.0 136565.0 136565.0
260916.0 265685.0 42682.0 41635.0 215929.0 210178.0 213702.0 218831.0 37930.0 45342.0 148090.0 145873.0 136968.0 134172.0 228349.0 229346.0 213865.0 219794.0 263906.0 263740.0 226524.0 232906.0 70701.0 72587.0 267628.0 271738.0 262214.0 257304.0 292927.0 287853.0 169726.0 177458.0 60798.0 52885.0 255149.0 251937.0 244634.0 249283.0 279849.0 274838.0 135374.0 143160.0 246068.0 238368.0 198347.0 196593.0 254415.0 248262.0 71927.0 63901.0 225650.0 233342.0 183404.0 191219.0 128804.0 133330.0 100835.0 103725.0 281018.0 286952.0 32136.0 39554.0 116115.0 123228.0 58108.0 57807.0 258155.0 264449.0 264841.0 267494.0 29371.0 36247.0 146936.0 154028.0 112304.0 109874.0 228035.0 233004.0 251853.0 256391.0 229844.0 229674.0 225135.0 220384.0 91318.0 86812.0 201682.0 208554.0 228606.0 223019.0 195049.0 197931.0 288745.0 296479.0 247351.0 239827.0 280941.0 285449.0 223668.0 215930.0 208977.0 203848.0 262508.0 258109.0 93851.0 100265.0 236799.0 242346.0 101650.0 93637.0 28991.0 22901.0 238216.0 233358.0 242495.0 234486.0 247922.0 256078.0 285826.0 279033.0 191924.0 183964.0 26241.0 24631.0 79514.0 71756.0 137808.0 137437.0 240424.0 248392.0 214541.0 215709.0 284377.0 277045.0 245615.0 241742.0 205273.0 209238.0 177782.0 184895.0 0.0 8300.0 258514.0 251837.0 248452.0 241676.0 125535.0 133135.0 180633.0 182774.0 234787.0 240218.0 226634.0 219951.0 69044.0 60777.0 278113.0 272243.0 64393.0 68623.0 219294.0 63526.0 219294.0 219294.0 63526.0 63526.0
254638.0 259545.0 35143.0 33554.0 218129.0 212325.0 212414.0 217792.0 31140.0 38881.0 147336.0 145552.0 136391.0 134094.0 222868.0 224082.0 213381.0 219507.0 258815.0 258854.0 222081.0 228612.0 72404.0 75076.0 267324.0 271216.0 259709.0 255016.0 292162.0 286908.0 169899.0 177525.0 63494.0 55805.0 252939.0 249492.0 246834.0 251483.0 280730.0 275532.0 132693.0 140395.0 247337.0 239739.0 194364.0 192314.0 254404.0 248083.0 71735.0 63769.0 227847.0 235530.0 181853.0 189737.0 126583.0 131540.0 98417.0 100726.0 275346.0 281399.0 24084.0 31437.0 112860.0 120196.0 55972.0 54561.0 255861.0 262301.0 260979.0 263856.0 32927.0 40505.0 144243.0 151579.0 114280.0 111300.0 225754.0 230947.0 254053.0 258562.0 226452.0 226009.0 226804.0 222305.0 92462.0 87365.0 202156.0 209203.0 229778.0 223974.0 194555.0 197750.0 290670.0 298441.0 249277.0 241650.0 277842.0 282535.0 221059.0 213372.0 202710.0 197427.0 263402.0 258782.0 97502.0 103529.0 230715.0 236408.0 100780.0 92635.0 37007.0 31176.0 240415.0 235558.0 239828.0 231784.0 246799.0 254937.0 280542.0 273650.0 191921.0 184004.0 31698.0 28060.0 81500.0 73522.0 135814.0 135944.0 238381.0 246364.0 210660.0 212101.0 286559.0 279244.0 242258.0 238608.0 205286.0 209529.0 176030.0 183323.0 8300.0 0.0 258441.0 251636.0 249163.0 242229.0 122848.0 130601.0 180658.0 182419.0 236958.0 242412.0 226026.0 219179.0 73199.0 64927.0 280160.0 274459.0 59505.0 63021.0 221494.0 67000.0 221494.0 221494.0 67000.0 67000.0
212555.0 208647.0 276597.0 269162.0 81411.0 78762.0 57022.0 48782.0 240128.0 234125.0 111946.0 112939.0 122362.0 124375.0 171617.0 164111.0 46342.0 39313.0 166338.0 158673.0 136487.0 132020.0 328784.0 329662.0 11595.0 19362.0 77077.0 69406.0 41087.0 40699.0 88900.0 81082.0 201049.0 208813.0 66731.0 74027.0 95830.0 89793.0 37892.0 29781.0 137888.0 132661.0 42605.0 47523.0 126033.0 134287.0 4510.0 10790.0 186743.0 194746.0 77379.0 74462.0 85229.0 77819.0 139158.0 131821.0 165388.0 166829.0 195748.0 193635.0 252930.0 253167.0 159001.0 151199.0 203838.0 207800.0 69676.0 65984.0 122737.0 115840.0 286755.0 292010.0 128875.0 120347.0 369555.0 367917.0 72331.0 64694.0 86815.0 81693.0 103910.0 112168.0 60461.0 68729.0 168180.0 171829.0 58543.0 53567.0 46883.0 45962.0 64694.0 60719.0 73291.0 78777.0 62245.0 59989.0 102030.0 97696.0 82549.0 83791.0 196732.0 201564.0 30752.0 23237.0 348478.0 355331.0 196134.0 192009.0 359104.0 350911.0 252268.0 258051.0 83300.0 89320.0 81019.0 82817.0 33936.0 33284.0 182437.0 183360.0 66593.0 74566.0 280847.0 282434.0 181653.0 188411.0 129354.0 126020.0 62507.0 61030.0 120032.0 112062.0 82151.0 82994.0 102622.0 95439.0 53260.0 50151.0 92465.0 84260.0 258514.0 258441.0 0.0 7807.0 25859.0 25081.0 146000.0 138238.0 77889.0 76251.0 80908.0 74544.0 35731.0 43794.0 323362.0 315194.0 72126.0 75404.0 211263.0 214143.0 114021.0 201470.0 114021.0 114021.0 201470.0 201470.0
206264.0 202519.0 269399.0 261940.0 80565.0 77197.0 49231.0 40979.0 232968.0 226897.0 104840.0 106084.0 115392.0 117665.0 164861.0 157415.0 38928.0 32182.0 160664.0 153092.0 129807.0 125557.0 322211.0 323187.0 16065.0 22189.0 72700.0 64724.0 44801.0 43047.0 82469.0 74574.0 194766.0 202485.0 61882.0 68822.0 97592.0 92028.0 44915.0 36819.0 130263.0 124968.0 44525.0 48268.0 118611.0 126864.0 6409.0 3633.0 179991.0 188005.0 77429.0 75268.0 77494.0 70048.0 131675.0 124412.0 158075.0 159394.0 190235.0 188353.0 245799.0 245945.0 151430.0 143608.0 196841.0 200687.0 65070.0 62096.0 117717.0 111082.0 280199.0 285543.0 121168.0 112632.0 363099.0 361368.0 65457.0 58008.0 89312.0 84671.0 97358.0 105619.0 59803.0 67873.0 161801.0 165262.0 53101.0 48876.0 45763.0 43489.0 57477.0 53908.0 79258.0 85078.0 64522.0 61320.0 98492.0 94668.0 75586.0 76518.0 189505.0 194247.0 35792.0 27689.0 342076.0 348929.0 189428.0 185458.0 352230.0 344029.0 246087.0 251763.0 84627.0 90210.0 75100.0 76415.0 28141.0 29056.0 177307.0 177971.0 60055.0 68052.0 274385.0 275845.0 175410.0 182050.0 121855.0 118672.0 56347.0 55571.0 112985.0 105019.0 87431.0 87670.0 96821.0 89459.0 46834.0 44493.0 84722.0 76510.0 251837.0 251636.0 7807.0 0.0 27681.0 24465.0 138448.0 130655.0 71344.0 69266.0 81912.0 76061.0 27974.0 36022.0 316959.0 308792.0 77273.0 79937.0 203945.0 206731.0 112529.0 195359.0 112529.0 112529.0 195359.0 195359.0
230311.0 227014.0 270050.0 262850.0 56691.0 55079.0 66016.0 57825.0 233467.0 228064.0 106632.0 105802.0 115752.0 116015.0 187516.0 180335.0 48370.0 40506.0 186264.0 178880.0 152960.0 149449.0 317839.0 318181.0 36668.0 44792.0 100071.0 91934.0 64939.0 65821.0 80131.0 73172.0 189216.0 197149.0 88983.0 95539.0 70138.0 64386.0 31951.0 26387.0 137235.0 133227.0 16906.0 21829.0 138092.0 146229.0 22592.0 26639.0 177659.0 185516.0 51870.0 48634.0 88106.0 81968.0 136650.0 128659.0 160723.0 163354.0 216053.0 214544.0 245964.0 246947.0 157230.0 149832.0 196215.0 201006.0 92330.0 89695.0 144407.0 138058.0 275867.0 280610.0 129788.0 121626.0 357864.0 356733.0 88784.0 82135.0 61632.0 57063.0 121229.0 129412.0 35870.0 44211.0 157177.0 161807.0 47332.0 39973.0 23734.0 26252.0 62762.0 56291.0 57056.0 63989.0 36852.0 34136.0 126134.0 122346.0 98345.0 97753.0 209735.0 213864.0 15243.0 9712.0 336741.0 343594.0 212165.0 208765.0 349891.0 341776.0 240124.0 245980.0 57462.0 63468.0 100730.0 100974.0 54856.0 56682.0 203729.0 204019.0 59926.0 67110.0 269469.0 271751.0 169806.0 177095.0 127224.0 122387.0 81794.0 82123.0 134791.0 126944.0 62876.0 61806.0 122472.0 114829.0 47510.0 41095.0 95202.0 87539.0 248452.0 249163.0 25859.0 27681.0 0.0 8311.0 144195.0 136964.0 70389.0 71658.0 55050.0 48742.0 43899.0 50989.0 311625.0 303458.0 52628.0 53932.0 206168.0 209938.0 89809.0 189257.0 89809.0 89809.0 189257.0 189257.0
223236.0 220086.0 262650.0 255410.0 56444.0 53685.0 58104.0 50010.0 226062.0 220564.0 98851.0 98270.0 108172.0 108716.0 180115.0 173004.0 40105.0 32267.0 179821.0 172538.0 145729.0 142429.0 311295.0 311760.0 36621.0 44431.0 95147.0 86847.0 65921.0 65777.0 72750.0 65604.0 182781.0 190683.0 83797.0 89990.0 73694.0 68604.0 39712.0 33525.0 129077.0 124998.0 21742.0 24033.0 130214.0 138323.0 20944.0 22454.0 170617.0 178512.0 52973.0 50905.0 79795.0 73675.0 128633.0 120691.0 152968.0 155466.0 209685.0 208380.0 238616.0 239483.0 149175.0 141738.0 188932.0 193594.0 87299.0 85248.0 138675.0 132578.0 269289.0 274151.0 121542.0 113359.0 351509.0 350259.0 81825.0 75463.0 66214.0 62310.0 114274.0 122410.0 35541.0 43742.0 150500.0 154927.0 40095.0 33181.0 21804.0 21648.0 54526.0 48182.0 65128.0 72160.0 41508.0 37338.0 121726.0 118369.0 91183.0 90267.0 201877.0 205924.0 23447.0 16888.0 330362.0 337215.0 204757.0 201500.0 342996.0 334862.0 233752.0 239580.0 60482.0 65845.0 94518.0 94326.0 49713.0 52549.0 197721.0 197784.0 52079.0 59430.0 262998.0 265124.0 163347.0 170522.0 119161.0 114454.0 75620.0 76541.0 127294.0 119490.0 70430.0 68855.0 116183.0 108437.0 39439.0 33341.0 86892.0 79230.0 241676.0 242229.0 25081.0 24465.0 8311.0 0.0 136129.0 128848.0 62739.0 63659.0 57609.0 52092.0 36255.0 43068.0 305245.0 297078.0 60223.0 60967.0 198516.0 202177.0 88942.0 182886.0 88942.0 88942.0 182886.0 182886.0
163005.0 165074.0 133708.0 126023.0 136244.0 128428.0 93267.0 99951.0 98453.0 91438.0 39914.0 44550.0 36012.0 42326.0 120565.0 118627.0 99717.0 107122.0 149462.0 147302.0 107522.0 112568.0 195225.0 197840.0 152874.0 155194.0 136866.0 132305.0 174327.0 168210.0 68162.0 73028.0 84281.0 89278.0 130323.0 126669.0 169678.0 171383.0 175753.0 169006.0 9847.0 17644.0 148422.0 142621.0 76952.0 77598.0 142622.0 135213.0 59816.0 66512.0 144121.0 150280.0 62226.0 70206.0 8190.0 16588.0 24870.0 22438.0 172627.0 176813.0 111451.0 110225.0 13067.0 5989.0 67479.0 68347.0 133145.0 139756.0 141517.0 143299.0 154884.0 161688.0 21407.0 28923.0 237113.0 233920.0 103090.0 108646.0 172375.0 174158.0 105116.0 105875.0 134627.0 133918.0 59143.0 55279.0 98744.0 106914.0 131294.0 123574.0 82116.0 87952.0 196315.0 204077.0 157985.0 149802.0 155548.0 159928.0 98213.0 90525.0 116555.0 115424.0 159428.0 152877.0 219305.0 225799.0 137575.0 140201.0 220012.0 211791.0 130631.0 133515.0 158861.0 157053.0 117001.0 108973.0 127786.0 135700.0 172654.0 167202.0 84563.0 78158.0 151139.0 150093.0 71321.0 72576.0 16972.0 23057.0 116082.0 124070.0 92030.0 91846.0 196699.0 191436.0 120720.0 116437.0 96695.0 103351.0 55504.0 63512.0 125535.0 122848.0 146000.0 138448.0 144195.0 136129.0 0.0 8071.0 75167.0 72572.0 154631.0 156830.0 110790.0 103046.0 194300.0 186089.0 187910.0 184689.0 67587.0 69093.0 149818.0 89199.0 149818.0 149818.0 89199.0 89199.0
160598.0 162298.0 141776.0 134092.0 131063.0 123175.0 85226.0 91961.0 106475.0 99489.0 34401.0 40002.0 32578.0 39909.0 117262.0 114858.0 92009.0 99483.0 144756.0 142255.0 102250.0 106941.0 202998.0 205533.0 144985.0 147226.0 129125.0 124451.0 166285.0 160150.0 62227.0 66592.0 90135.0 95495.0 122432.0 118892.0 164581.0 165989.0 168402.0 161570.0 3303.0 10701.0 141647.0 136035.0 71388.0 72709.0 134909.0 127448.0 66227.0 73219.0 138676.0 144636.0 54206.0 62176.0 6601.0 12284.0 32305.0 30451.0 168717.0 172619.0 119478.0 118289.0 20788.0 12978.0 75032.0 76170.0 125293.0 131846.0 134990.0 136501.0 162500.0 169231.0 14012.0 20999.0 244880.0 241751.0 95211.0 100677.0 166835.0 168373.0 98203.0 99318.0 128540.0 128179.0 63223.0 60173.0 91999.0 100185.0 124681.0 116858.0 74625.0 80675.0 189642.0 197372.0 151765.0 143602.0 148208.0 152445.0 90534.0 82807.0 115563.0 114972.0 152206.0 145539.0 226827.0 233380.0 135301.0 137489.0 228019.0 219797.0 137464.0 140576.0 153449.0 151934.0 109362.0 101361.0 119730.0 127637.0 168017.0 162809.0 77582.0 71450.0 158616.0 157725.0 76120.0 78042.0 10343.0 18022.0 108115.0 116105.0 85970.0 85332.0 190354.0 185272.0 113696.0 109193.0 89457.0 96284.0 47449.0 55479.0 133135.0 130601.0 138238.0 130655.0 136964.0 128848.0 8071.0 0.0 68559.0 65477.0 149191.0 151094.0 102932.0 95150.0 201777.0 193584.0 181431.0 178414.0 75649.0 77147.0 145762.0 94711.0 145762.0 145762.0 94711.0 94711.0
195880.0 194869.0 200027.0 192745.0 66908.0 58950.0 44964.0 45498.0 163443.0 157856.0 36352.0 35595.0 45442.0 46570.0 149981.0 144434.0 35122.0 39729.0 162911.0 157356.0 120942.0 121123.0 250906.0 251845.0 87284.0 92020.0 104587.0 96798.0 114049.0 110035.0 11271.0 3279.0 123521.0 131195.0 93687.0 94952.0 99931.0 100011.0 102329.0 96244.0 69424.0 67020.0 73287.0 67484.0 95163.0 101784.0 73784.0 67740.0 108928.0 116916.0 72953.0 77963.0 34696.0 35229.0 67276.0 59023.0 90357.0 93228.0 191952.0 193095.0 176070.0 176801.0 88000.0 81023.0 126545.0 130981.0 97617.0 100819.0 133458.0 130675.0 208883.0 214200.0 64263.0 57301.0 291756.0 290050.0 73253.0 72910.0 100286.0 100996.0 97782.0 103915.0 60599.0 61406.0 90490.0 93948.0 23651.0 31780.0 56141.0 48418.0 18400.0 17838.0 121150.0 128910.0 83455.0 75343.0 131043.0 131635.0 76756.0 70743.0 162541.0 164701.0 85432.0 79617.0 270738.0 277591.0 173264.0 172342.0 281392.0 273215.0 174932.0 180492.0 87583.0 87455.0 91510.0 86176.0 72889.0 80767.0 184744.0 182233.0 11298.0 3353.0 203042.0 204550.0 104225.0 110743.0 58369.0 52594.0 78626.0 85031.0 100238.0 94310.0 121859.0 116988.0 107907.0 100332.0 24642.0 29407.0 38685.0 35438.0 180633.0 180658.0 77889.0 71344.0 70389.0 62739.0 75167.0 68559.0 0.0 8555.0 83276.0 84011.0 48235.0 43392.0 245622.0 237455.0 112875.0 109992.0 135791.0 139568.0 88850.0 124359.0 88850.0 88850.0 124359.0 124359.0
187652.0 186550.0 200464.0 193073.0 73984.0 66105.0 37756.0 39350.0 163949.0 158065.0 35783.0 36902.0 46128.0 48759.0 141792.0 136155.0 31185.0 37098.0 154368.0 148802.0 112474.0 112591.0 253294.0 254472.0 84905.0 89011.0 97164.0 89542.0 110563.0 106065.0 16993.0 10482.0 126864.0 134387.0 86487.0 87367.0 106597.0 106226.0 103357.0 96835.0 65962.0 62711.0 76422.0 71284.0 87022.0 93789.0 72381.0 65745.0 110861.0 118884.0 79469.0 84025.0 26479.0 26675.0 64992.0 57035.0 89707.0 91880.0 183435.0 184552.0 176717.0 177087.0 85589.0 78263.0 127594.0 131579.0 90374.0 93938.0 125069.0 122407.0 211338.0 216880.0 59634.0 52121.0 294405.0 292480.0 65211.0 65269.0 106255.0 106509.0 89254.0 95362.0 65963.0 67584.0 93725.0 96551.0 27229.0 35329.0 59933.0 51869.0 12612.0 15754.0 124515.0 132179.0 88176.0 80196.0 123328.0 124171.0 68389.0 62269.0 155065.0 157428.0 86879.0 80487.0 273574.0 280427.0 165209.0 164157.0 282969.0 274767.0 178362.0 183657.0 93923.0 94253.0 83489.0 77964.0 67722.0 75766.0 176189.0 173687.0 12245.0 8819.0 205744.0 206921.0 107774.0 113923.0 55603.0 50829.0 71247.0 77920.0 91771.0 85787.0 126049.0 121610.0 99527.0 92001.0 24257.0 30807.0 31033.0 27121.0 182774.0 182419.0 76251.0 69266.0 71658.0 63659.0 72572.0 65477.0 8555.0 0.0 89629.0 89807.0 44182.0 38330.0 248458.0 240291.0 116770.0 114399.0 135495.0 138822.0 96959.0 128140.0 96959.0 96959.0 128140.0 128140.0
272011.0 269793.0 263359.0 256908.0 19247.0 26463.0 105269.0 98873.0 227808.0 223966.0 114847.0 110298.0 119698.0 116031.0 227058.0 220601.0 84458.0 78992.0 232236.0 225412.0 194501.0 192544.0 302679.0 302888.0 91554.0 99706.0 151913.0 143468.0 118678.0 120421.0 87178.0 84264.0 174093.0 182084.0 140314.0 145862.0 17643.0 16822.0 68115.0 69153.0 150650.0 149404.0 38585.0 33644.0 173569.0 181049.0 77480.0 80062.0 169440.0 176430.0 10515.0 6852.0 114664.0 111647.0 146443.0 138050.0 163717.0 168661.0 262179.0 261661.0 239138.0 241751.0 166562.0 160619.0 190186.0 196581.0 143987.0 142513.0 193699.0 188210.0 260858.0 265344.0 146988.0 140434.0 342590.0 341462.0 133737.0 128724.0 17902.0 21604.0 165298.0 173009.0 26005.0 22088.0 145992.0 152590.0 64009.0 57331.0 38925.0 45608.0 88170.0 80213.0 57273.0 64357.0 21669.0 20999.0 178907.0 175835.0 141774.0 138886.0 243773.0 246557.0 56489.0 60108.0 321451.0 328304.0 251309.0 249196.0 336257.0 328322.0 224829.0 230685.0 4308.0 8458.0 148786.0 147155.0 106673.0 110089.0 251585.0 250868.0 78475.0 81287.0 254221.0 256937.0 155523.0 163591.0 138860.0 131623.0 130370.0 132527.0 174554.0 167308.0 50293.0 42494.0 169868.0 161903.0 73521.0 65738.0 120290.0 114838.0 234787.0 236958.0 80908.0 81912.0 55050.0 57609.0 154631.0 149191.0 83276.0 89629.0 0.0 8039.0 87814.0 91862.0 296335.0 288167.0 45902.0 38795.0 205232.0 210744.0 44275.0 173963.0 44275.0 44275.0 173963.0 173963.0
269695.0 267256.0 268240.0 261685.0 24339.0 30377.0 102572.0 95787.0 232474.0 228431.0 116927.0 112829.0 122440.0 119261.0 225063.0 218453.0 81832.0 75855.0 228962.0 222002.0 192032.0 189769.0 308109.0 308318.0 84910.0 93060.0 147035.0 138654.0 111535.0 113547.0 88874.0 85291.0 179524.0 187515.0 135545.0 141368.0 21604.0 17482.0 60166.0 61416.0 152398.0 150747.0 31951.0 28112.0 172096.0 179725.0 71317.0 74442.0 174184.0 181315.0 14574.0 6940.0 114079.0 110544.0 148664.0 140248.0 166996.0 171663.0 258918.0 258174.0 243976.0 246401.0 169002.0 162815.0 194762.0 200987.0 139141.0 137320.0 189582.0 183866.0 266289.0 270775.0 148162.0 141312.0 348021.0 346892.0 130330.0 124966.0 16582.0 17363.0 162230.0 170065.0 24161.0 22919.0 150957.0 157358.0 63352.0 56105.0 35239.0 42689.0 87221.0 79235.0 50130.0 57431.0 13805.0 14763.0 173787.0 170453.0 138707.0 136217.0 242806.0 245826.0 49012.0 53097.0 326882.0 333735.0 249445.0 247084.0 341688.0 333753.0 230260.0 236116.0 8891.0 15949.0 144827.0 143583.0 101640.0 104623.0 247911.0 247428.0 78220.0 81770.0 259652.0 262367.0 160916.0 168935.0 140752.0 133775.0 126212.0 127964.0 172336.0 164947.0 44189.0 36896.0 166130.0 158207.0 71981.0 64010.0 120006.0 114144.0 240218.0 242412.0 74544.0 76061.0 48742.0 52092.0 156830.0 151094.0 84011.0 89807.0 8039.0 0.0 84068.0 88679.0 301765.0 293598.0 38869.0 32259.0 209236.0 214547.0 52073.0 179394.0 52073.0 52073.0 179394.0 179394.0
187272.0 184315.0 242591.0 235070.0 80163.0 74456.0 22465.0 14089.0 206301.0 200038.0 78704.0 80884.0 89677.0 92891.0 143891.0 136820.0 13130.0 10919.0 144996.0 137963.0 109642.0 106611.0 297244.0 298528.0 42128.0 45225.0 66326.0 57798.0 66405.0 61935.0 59463.0 51500.0 171037.0 178568.0 54524.0 58946.0 105164.0 101434.0 70384.0 62594.0 102445.0 97035.0 57224.0 56937.0 94273.0 102442.0 32976.0 25063.0 154713.0 162738.0 80421.0 80991.0 49524.0 42090.0 104204.0 97169.0 131055.0 132021.0 174946.0 174109.0 219204.0 219084.0 123720.0 115855.0 170722.0 174199.0 58453.0 59015.0 105957.0 100726.0 255338.0 260964.0 93219.0 84674.0 338459.0 336437.0 46390.0 40928.0 99703.0 96841.0 78639.0 86664.0 62171.0 68588.0 137900.0 140681.0 37055.0 37247.0 48959.0 42441.0 31667.0 30499.0 100812.0 107517.0 75857.0 70039.0 93910.0 92337.0 55283.0 54028.0 165878.0 170101.0 57367.0 49227.0 317703.0 324556.0 168528.0 165357.0 326312.0 318092.0 222533.0 227837.0 91436.0 95213.0 60990.0 59520.0 25702.0 33062.0 163862.0 163374.0 37620.0 45250.0 249839.0 250884.0 151910.0 158104.0 94355.0 91633.0 42824.0 46078.0 91044.0 83255.0 106664.0 105034.0 82094.0 74153.0 26525.0 29032.0 56749.0 48535.0 226634.0 226026.0 35731.0 27974.0 43899.0 36255.0 110790.0 102932.0 48235.0 44182.0 87814.0 84068.0 0.0 8087.0 292587.0 284419.0 96441.0 97153.0 176851.0 179381.0 111434.0 172222.0 111434.0 111434.0 172222.0 172222.0
181523.0 178807.0 235227.0 227680.0 82718.0 76485.0 15036.0 7169.0 199013.0 192666.0 71872.0 74513.0 83009.0 86655.0 137655.0 130722.0 9610.0 12870.0 140385.0 133554.0 103798.0 101181.0 290614.0 292015.0 49836.0 52439.0 65678.0 57284.0 72989.0 68026.0 54410.0 46587.0 165006.0 172450.0 54013.0 57409.0 109395.0 106143.0 78293.0 70555.0 94594.0 89082.0 63368.0 62307.0 87145.0 95260.0 41062.0 33147.0 148076.0 156093.0 83872.0 85112.0 41524.0 34027.0 96580.0 89686.0 123651.0 124431.0 170335.0 169815.0 211943.0 211704.0 115936.0 108045.0 163701.0 167012.0 58012.0 59656.0 102847.0 98121.0 248772.0 254503.0 85246.0 76692.0 331937.0 329806.0 41919.0 37567.0 104659.0 102227.0 73552.0 81401.0 65928.0 71725.0 131874.0 134365.0 36220.0 38178.0 53444.0 46257.0 25727.0 26318.0 108036.0 114871.0 81341.0 75074.0 93191.0 92319.0 50028.0 47922.0 158809.0 162880.0 64886.0 56843.0 311321.0 318174.0 162253.0 159327.0 319298.0 311072.0 216497.0 221653.0 95650.0 98929.0 57908.0 55464.0 29516.0 37479.0 159847.0 159012.0 33572.0 40667.0 243398.0 244282.0 146010.0 152011.0 86724.0 84275.0 40777.0 45301.0 84728.0 77056.0 113434.0 111445.0 78330.0 70329.0 24666.0 29297.0 48731.0 40507.0 219951.0 219179.0 43794.0 36022.0 50989.0 43068.0 103046.0 95150.0 43392.0 38330.0 91862.0 88679.0 8087.0 0.0 286205.0 278038.0 103255.0 103588.0 169379.0 171780.0 112936.0 166420.0 112936.0 112936.0 166420.0 166420.0
325725.0 330993.0 84170.0 89529.0 277477.0 271743.0 280773.0 285515.0 103285.0 111265.0 214629.0 211725.0 203308.0 199703.0 295577.0 297013.0 279643.0 285190.0 331860.0 332003.0 295263.0 301753.0 22567.0 16121.0 332903.0 337413.0 330633.0 325527.0 358991.0 354230.0 234499.0 242386.0 122474.0 114611.0 323299.0 320304.0 306182.0 310831.0 342581.0 337949.0 204117.0 211943.0 308229.0 300405.0 267337.0 265445.0 319148.0 313350.0 138527.0 130612.0 287197.0 294890.0 250911.0 258616.0 197202.0 201291.0 169490.0 172679.0 347738.0 353965.0 92764.0 98389.0 185129.0 192171.0 126830.0 126851.0 326384.0 332523.0 333868.0 336538.0 40278.0 32831.0 215666.0 222552.0 49264.0 50233.0 296285.0 301016.0 313401.0 317939.0 298855.0 298718.0 286863.0 281951.0 155182.0 151909.0 265625.0 272073.0 290956.0 285737.0 260920.0 263225.0 350300.0 358028.0 308911.0 301430.0 349823.0 354211.0 292227.0 284450.0 273976.0 268275.0 325182.0 321333.0 25228.0 32458.0 302363.0 308365.0 60542.0 56123.0 73021.0 65941.0 299763.0 294906.0 311089.0 303115.0 314666.0 322833.0 353423.0 346432.0 256905.0 248907.0 43162.0 45141.0 141915.0 134956.0 205963.0 205042.0 308411.0 316349.0 283560.0 284753.0 345925.0 338592.0 314613.0 310654.0 270155.0 273534.0 245552.0 252427.0 69044.0 73199.0 323362.0 316959.0 311625.0 305245.0 194300.0 201777.0 245622.0 248458.0 296335.0 301765.0 292587.0 286205.0 0.0 8282.0 339663.0 333847.0 132704.0 135981.0 280842.0 124149.0 280842.0 280842.0 124149.0 124149.0
317723.0 322952.0 76892.0 81997.0 269310.0 263576.0 272605.0 277347.0 95087.0 103062.0 206462.0 203558.0 195140.0 191536.0 287384.0 288791.0 271475.0 277023.0 323622.0 323746.0 286984.0 293472.0 22884.0 18508.0 324736.0 329246.0 322483.0 317366.0 350824.0 346063.0 226332.0 234219.0 114307.0 106444.0 315129.0 312160.0 298014.0 302664.0 334414.0 329782.0 195910.0 203731.0 300062.0 292238.0 259057.0 257163.0 310981.0 305182.0 130359.0 122445.0 279030.0 286722.0 242697.0 250387.0 189030.0 193120.0 161291.0 164437.0 339589.0 345794.0 84692.0 90427.0 176874.0 183932.0 118613.0 118584.0 318223.0 324349.0 325592.0 328271.0 32013.0 24552.0 207462.0 214377.0 55828.0 55954.0 288123.0 292841.0 305233.0 309772.0 290603.0 290449.0 278696.0 273784.0 147014.0 143742.0 257458.0 263906.0 282789.0 277570.0 252753.0 255057.0 342133.0 349861.0 300744.0 293263.0 341599.0 346009.0 284053.0 276282.0 265944.0 260285.0 317014.0 313166.0 33284.0 40238.0 294295.0 300263.0 62504.0 57170.0 64854.0 57773.0 291596.0 286739.0 302911.0 294931.0 306498.0 314665.0 345210.0 338233.0 248738.0 240740.0 34974.0 36872.0 133747.0 126789.0 197796.0 196848.0 300234.0 308170.0 275283.0 276486.0 337758.0 330425.0 306364.0 302424.0 261988.0 265366.0 237365.0 244215.0 60777.0 64927.0 315194.0 308792.0 303458.0 297078.0 186089.0 193584.0 237455.0 240291.0 288167.0 293598.0 284419.0 278038.0 8282.0 0.0 331496.0 325680.0 124431.0 127743.0 272674.0 115982.0 272674.0 272674.0 115982.0 115982.0
282752.0 279304.0 305011.0 298275.0 62922.0 67963.0 118278.0 110230.0 268911.0 264484.0 148339.0 145448.0 155394.0 153383.0 240141.0 232944.0 99426.0 91878.0 237899.0 230355.0 205534.0 201880.0 346007.0 346216.0 78692.0 85921.0 149169.0 141531.0 98037.0 102620.0 120070.0 114892.0 217421.0 225413.0 138833.0 146005.0 46900.0 38679.0 39926.0 45991.0 182273.0 179455.0 41011.0 45493.0 190374.0 198452.0 70998.0 77463.0 210925.0 218274.0 53170.0 45373.0 137474.0 132224.0 179909.0 171552.0 200733.0 204688.0 267505.0 265601.0 280710.0 282776.0 200594.0 193813.0 231129.0 237004.0 141802.0 137915.0 194821.0 187966.0 304186.0 308672.0 176403.0 168773.0 385918.0 384790.0 141237.0 134359.0 34471.0 27135.0 173630.0 181845.0 54450.0 57930.0 188147.0 194202.0 89639.0 81473.0 56858.0 64910.0 110701.0 103169.0 11410.0 18572.0 31077.0 39070.0 173508.0 168584.0 150909.0 150375.0 262040.0 265984.0 41511.0 49604.0 364779.0 371632.0 264790.0 261344.0 379468.0 371580.0 268157.0 274014.0 43917.0 51110.0 152283.0 153107.0 105413.0 105410.0 254489.0 255241.0 104532.0 110040.0 297549.0 300265.0 198704.0 206640.0 171214.0 165059.0 133427.0 132826.0 187414.0 179572.0 10258.0 12311.0 174034.0 166578.0 94609.0 86812.0 144226.0 137152.0 278113.0 280160.0 72126.0 77273.0 52628.0 60223.0 187910.0 181431.0 112875.0 116770.0 45902.0 38869.0 96441.0 103255.0 339663.0 331496.0 0.0 8198.0 244386.0 249229.0 89757.0 217291.0 89757.0 89757.0 217291.0 217291.0
284169.0 280931.0 299831.0 293178.0 56574.0 62142.0 118523.0 110669.0 263875.0 259613.0 144921.0 141660.0 151527.0 149130.0 241043.0 233960.0 99059.0 91746.0 240099.0 232658.0 206696.0 203329.0 340191.0 340400.0 82844.0 90360.0 152413.0 144588.0 103749.0 107929.0 116601.0 111829.0 211605.0 219597.0 141793.0 148744.0 38746.0 30547.0 45825.0 51120.0 179391.0 176893.0 40342.0 43440.0 190431.0 198431.0 73828.0 79766.0 205725.0 212975.0 46792.0 39022.0 136109.0 131233.0 176622.0 168229.0 196689.0 200887.0 269833.0 268160.0 275541.0 277772.0 197240.0 190627.0 226107.0 232135.0 144903.0 141388.0 197650.0 190995.0 298371.0 302856.0 173960.0 166517.0 380103.0 378974.0 142676.0 136067.0 26360.0 19108.0 175130.0 183297.0 50285.0 52789.0 182720.0 188944.0 87171.0 79097.0 54618.0 62844.0 109125.0 101414.0 19257.0 25729.0 26741.0 34934.0 177318.0 172668.0 152133.0 151178.0 262039.0 265771.0 44676.0 52346.0 358964.0 365816.0 265678.0 262466.0 373770.0 365835.0 262342.0 268198.0 36469.0 43460.0 154495.0 154901.0 107998.0 108581.0 257199.0 257704.0 102223.0 107290.0 291734.0 294449.0 192961.0 200948.0 168137.0 161727.0 135572.0 135438.0 188177.0 180406.0 12261.0 7888.0 176257.0 168674.0 93056.0 85107.0 142697.0 135878.0 272243.0 274459.0 75404.0 79937.0 53932.0 60967.0 184689.0 178414.0 109992.0 114399.0 38795.0 32259.0 97153.0 103588.0 333847.0 325680.0 8198.0 0.0 239870.0 244893.0 82210.0 211476.0 82210.0 82210.0 211476.0 211476.0
197982.0 202382.0 66146.0 58488.0 185994.0 179003.0 160515.0 166853.0 31341.0 23940.0 99787.0 100443.0 90444.0 91179.0 164080.0 164968.0 165022.0 171967.0 199517.0 199418.0 162602.0 169192.0 130329.0 133802.0 218939.0 221798.0 203250.0 199192.0 241497.0 235558.0 126276.0 133001.0 57329.0 55609.0 197361.0 193247.0 217522.0 221117.0 238115.0 231987.0 77131.0 84352.0 207529.0 200706.0 135224.0 132921.0 207592.0 200559.0 41046.0 38028.0 195156.0 202327.0 129433.0 137439.0 73055.0 79695.0 45875.0 45288.0 216894.0 222713.0 44185.0 42641.0 55928.0 63779.0 22372.0 14598.0 200016.0 206855.0 201894.0 205045.0 92430.0 99974.0 88356.0 96377.0 172044.0 168231.0 170144.0 176003.0 223032.0 226370.0 168106.0 167221.0 189936.0 187163.0 63979.0 56086.0 159014.0 166818.0 189828.0 182914.0 146585.0 151249.0 253949.0 261820.0 213413.0 205330.0 219924.0 224994.0 164528.0 157038.0 146184.0 141601.0 221145.0 215400.0 156887.0 162699.0 173423.0 178654.0 152736.0 144539.0 79946.0 79499.0 209128.0 205509.0 183033.0 174945.0 195117.0 203095.0 221448.0 214690.0 146517.0 139090.0 90576.0 87564.0 62433.0 55986.0 82867.0 85279.0 183423.0 191398.0 151612.0 153429.0 252128.0 245746.0 183936.0 180729.0 159583.0 165175.0 122918.0 130783.0 64393.0 59505.0 211263.0 203945.0 206168.0 198516.0 67587.0 75649.0 135791.0 135495.0 205232.0 209236.0 176851.0 169379.0 132704.0 124431.0 244386.0 239870.0 0.0 8078.0 192960.0 64459.0 192960.0 192960.0 64459.0 64459.0
192604.0 197213.0 65290.0 57541.0 191532.0 184420.0 162355.0 168949.0 32994.0 25041.0 103326.0 104532.0 94495.0 95848.0 159855.0 161079.0 167816.0 174924.0 195880.0 196078.0 159968.0 166766.0 132321.0 136174.0 221508.0 224101.0 203206.0 199452.0 243415.0 237296.0 130387.0 136872.0 65403.0 63584.0 197734.0 193330.0 223369.0 226773.0 241853.0 235566.0 78317.0 85189.0 211862.0 205193.0 133399.0 130635.0 210568.0 203396.0 48655.0 45992.0 200584.0 207660.0 131296.0 139286.0 75201.0 82323.0 49215.0 47361.0 212419.0 218412.0 45121.0 42254.0 56773.0 64758.0 30444.0 22661.0 200265.0 207258.0 200010.0 203463.0 95757.0 103476.0 89222.0 97475.0 173777.0 169640.0 170590.0 176708.0 228589.0 231752.0 167007.0 165732.0 194806.0 192296.0 71136.0 63179.0 162978.0 170880.0 194208.0 187135.0 149583.0 154561.0 258627.0 266493.0 218338.0 210219.0 219028.0 224326.0 164562.0 157199.0 140702.0 135863.0 225001.0 219063.0 159764.0 165308.0 168290.0 173749.0 152836.0 144693.0 86136.0 85153.0 214690.0 211256.0 182873.0 174785.0 196878.0 204780.0 217529.0 210628.0 150102.0 142832.0 94548.0 90923.0 70226.0 63925.0 85057.0 88186.0 184096.0 192041.0 149867.0 152087.0 257140.0 250902.0 182819.0 179939.0 163021.0 168864.0 124596.0 132597.0 68623.0 63021.0 214143.0 206731.0 209938.0 202177.0 69093.0 77147.0 139568.0 138822.0 210744.0 214547.0 179381.0 171780.0 135981.0 127743.0 249229.0 244893.0 8078.0 0.0 199086.0 72531.0 199086.0 199086.0 72531.0 72531.0
284593.0 283373.0 248445.0 242216.0 33292.0 35337.0 123494.0 119091.0 213451.0 210164.0 112043.0 105770.0 113808.0 108260.0 238750.0 233058.0 103862.0 100912.0 249526.0 243402.0 208797.0 208225.0 287186.0 287395.0 125530.0 133371.0 177758.0 169228.0 154576.0 154719.0 88120.0 88461.0 158600.0 166591.0 165956.0 170149.0 46895.0 53539.0 110171.0 109736.0 147836.0 148365.0 76270.0 68795.0 183973.0 190633.0 109849.0 109735.0 155178.0 161762.0 40422.0 47048.0 123436.0 122800.0 141771.0 133739.0 154464.0 160365.0 279075.0 279587.0 224357.0 227389.0 160498.0 155671.0 176257.0 183114.0 169876.0 169977.0 215326.0 210954.0 245365.0 249851.0 146755.0 141709.0 327097.0 325969.0 153675.0 150345.0 57108.0 63495.0 182844.0 189830.0 53939.0 45598.0 131325.0 138409.0 78028.0 74759.0 67138.0 69266.0 100394.0 93350.0 101167.0 107939.0 64593.0 60608.0 205338.0 203519.0 159981.0 155476.0 250760.0 252484.0 96105.0 97414.0 305958.0 312811.0 262112.0 261115.0 320764.0 312829.0 209336.0 215192.0 45843.0 38771.0 170653.0 167380.0 134550.0 139846.0 270462.0 268692.0 88814.0 88170.0 238728.0 241444.0 140034.0 148135.0 135822.0 127741.0 153652.0 157491.0 188170.0 181724.0 92852.0 84514.0 190251.0 182282.0 89706.0 83699.0 127471.0 124066.0 219294.0 221494.0 114021.0 112529.0 89809.0 88942.0 149818.0 145762.0 88850.0 96959.0 44275.0 52073.0 111434.0 112936.0 280842.0 272674.0 89757.0 82210.0 192960.0 199086.0 0.0 158470.0 0.0 0.0 158470.0 158470.0
247775.0 250835.0 97988.0 93095.0 155105.0 149371.0 162894.0 166617.0 68145.0 68493.0 96878.0 92464.0 85477.0 80183.0 207941.0 206777.0 159119.0 164086.0 238506.0 236487.0 196710.0 201614.0 129679.0 129575.0 211398.0 216364.0 217268.0 211139.0 238386.0 234156.0 113104.0 121085.0 7151.0 11757.0 208560.0 206844.0 183810.0 188460.0 220209.0 215591.0 97785.0 105378.0 185857.0 178033.0 166018.0 166783.0 197172.0 191730.0 31579.0 28701.0 164826.0 172518.0 135005.0 142135.0 88619.0 89649.0 66901.0 73696.0 260732.0 265317.0 75676.0 80817.0 85675.0 89876.0 42206.0 49871.0 212006.0 217317.0 229147.0 230070.0 88159.0 92214.0 108273.0 113029.0 170417.0 168223.0 182518.0 186013.0 191029.0 195567.0 191700.0 193544.0 164492.0 159580.0 34986.0 35028.0 143376.0 149722.0 168584.0 163413.0 140747.0 142168.0 227928.0 235656.0 186539.0 179059.0 239442.0 242642.0 180349.0 172526.0 197841.0 194778.0 202888.0 198964.0 149265.0 156118.0 222342.0 226086.0 164164.0 156343.0 50865.0 57106.0 177392.0 172534.0 199028.0 191448.0 195588.0 203707.0 261626.0 255959.0 135524.0 127556.0 81174.0 84457.0 20556.0 16669.0 95068.0 91411.0 193176.0 200878.0 180652.0 179673.0 223554.0 216221.0 206726.0 201399.0 148561.0 151405.0 130820.0 136565.0 63526.0 67000.0 201470.0 195359.0 189257.0 182886.0 89199.0 94711.0 124359.0 128140.0 173963.0 179394.0 172222.0 166420.0 124149.0 115982.0 217291.0 211476.0 64459.0 72531.0 158470.0 0.0 158470.0 158470.0 0.0 0.0
284593.0 283373.0 248445.0 242216.0 33292.0 35337.0 123494.0 119091.0 213451.0 210164.0 112043.0 105770.0 113808.0 108260.0 238750.0 233058.0 103862.0 100912.0 249526.0 243402.0 208797.0 208225.0 287186.0 287395.0 125530.0 133371.0 177758.0 169228.0 154576.0 154719.0 88120.0 88461.0 158600.0 166591.0 165956.0 170149.0 46895.0 53539.0 110171.0 109736.0 147836.0 148365.0 76270.0 68795.0 183973.0 190633.0 109849.0 109735.0 155178.0 161762.0 40422.0 47048.0 123436.0 122800.0 141771.0 133739.0 154464.0 160365.0 279075.0 279587.0 224357.0 227389.0 160498.0 155671.0 176257.0 183114.0 169876.0 169977.0 215326.0 210954.0 245365.0 249851.0 146755.0 141709.0 327097.0 325969.0 153675.0 150345.0 57108.0 63495.0 182844.0 189830.0 53939.0 45598.0 131325.0 138409.0 78028.0 74759.0 67138.0 69266.0 100394.0 93350.0 101167.0 107939.0 64593.0 60608.0 205338.0 203519.0 159981.0 155476.0 250760.0 252484.0 96105.0 97414.0 305958.0 312811.0 262112.0 261115.0 320764.0 312829.0 209336.0 215192.0 45843.0 38771.0 170653.0 167380.0 134550.0 139846.0 270462.0 268692.0 88814.0 88170.0 238728.0 241444.0 140034.0 148135.0 135822.0 127741.0 153652.0 157491.0 188170.0 181724.0 92852.0 84514.0 190251.0 182282.0 89706.0 83699.0 127471.0 124066.0 219294.0 221494.0 114021.0 112529.0 89809.0 88942.0 149818.0 145762.0 88850.0 96959.0 44275.0 52073.0 111434.0 112936.0 280842.0 272674.0 89757.0 82210.0 192960.0 199086.0 0.0 158470.0 0.0 0.0 158470.0 158470.0
284593.0 283373.0 248445.0 242216.0 33292.0 35337.0 123494.0 119091.0 213451.0 210164.0 112043.0 105770.0 113808.0 108260.0 238750.0 233058.0 103862.0 100912.0 249526.0 243402.0 208797.0 208225.0 287186.0 287395.0 125530.0 133371.0 177758.0 169228.0 154576.0 154719.0 88120.0 88461.0 158600.0 166591.0 165956.0 170149.0 46895.0 53539.0 110171.0 109736.0 147836.0 148365.0 76270.0 68795.0 183973.0 190633.0 109849.0 109735.0 155178.0 161762.0 40422.0 47048.0 123436.0 122800.0 141771.0 133739.0 154464.0 160365.0 279075.0 279587.0 224357.0 227389.0 160498.0 155671.0 176257.0 183114.0 169876.0 169977.0 215326.0 210954.0 245365.0 249851.0 146755.0 141709.0 327097.0 325969.0 153675.0 150345.0 57108.0 63495.0 182844.0 189830.0 53939.0 45598.0 131325.0 138409.0 78028.0 74759.0 67138.0 69266.0 100394.0 93350.0 101167.0 107939.0 64593.0 60608.0 205338.0 203519.0 159981.0 155476.0 250760.0 252484.0 96105.0 97414.0 305958.0 312811.0 262112.0 261115.0 320764.0 312829.0 209336.0 215192.0 45843.0 38771.0 170653.0 167380.0 134550.0 139846.0 270462.0 268692.0 88814.0 88170.0 238728.0 241444.0 140034.0 148135.0 135822.0 127741.0 153652.0 157491.0 188170.0 181724.0 92852.0 84514.0 190251.0 182282.0 89706.0 83699.0 127471.0 124066.0 219294.0 221494.0 114021.0 112529.0 89809.0 88942.0 149818.0 145762.0 88850.0 96959.0 44275.0 52073.0 111434.0 112936.0 280842.0 272674.0 89757.0 82210.0 192960.0 199086.0 0.0 158470.0 0.0 0.0 158470.0 158470.0
247775.0 250835.0 97988.0 93095.0 155105.0 149371.0 162894.0 166617.0 68145.0 68493.0 96878.0 92464.0 85477.0 80183.0 207941.0 206777.0 159119.0 164086.0 238506.0 236487.0 196710.0 201614.0 129679.0 129575.0 211398.0 216364.0 217268.0 211139.0 238386.0 234156.0 113104.0 121085.0 7151.0 11757.0 208560.0 206844.0 183810.0 188460.0 220209.0 215591.0 97785.0 105378.0 185857.0 178033.0 166018.0 166783.0 197172.0 191730.0 31579.0 28701.0 164826.0 172518.0 135005.0 142135.0 88619.0 89649.0 66901.0 73696.0 260732.0 265317.0 75676.0 80817.0 85675.0 89876.0 42206.0 49871.0 212006.0 217317.0 229147.0 230070.0 88159.0 92214.0 108273.0 113029.0 170417.0 168223.0 182518.0 186013.0 191029.0 195567.0 191700.0 193544.0 164492.0 159580.0 34986.0 35028.0 143376.0 149722.0 168584.0 163413.0 140747.0 142168.0 227928.0 235656.0 186539.0 179059.0 239442.0 242642.0 180349.0 172526.0 197841.0 194778.0 202888.0 198964.0 149265.0 156118.0 222342.0 226086.0 164164.0 156343.0 50865.0 57106.0 177392.0 172534.0 199028.0 191448.0 195588.0 203707.0 261626.0 255959.0 135524.0 127556.0 81174.0 84457.0 20556.0 16669.0 95068.0 91411.0 193176.0 200878.0 180652.0 179673.0 223554.0 216221.0 206726.0 201399.0 148561.0 151405.0 130820.0 136565.0 63526.0 67000.0 201470.0 195359.0 189257.0 182886.0 89199.0 94711.0 124359.0 128140.0 173963.0 179394.0 172222.0 166420.0 124149.0 115982.0 217291.0 211476.0 64459.0 72531.0 158470.0 0.0 158470.0 158470.0 0.0 0.0
247775.0 250835.0 97988.0 93095.0 155105.0 149371.0 162894.0 166617.0 68145.0 68493.0 96878.0 92464.0 85477.0 80183.0 207941.0 206777.0 159119.0 164086.0 238506.0 236487.0 196710.0 201614.0 129679.0 129575.0 211398.0 216364.0 217268.0 211139.0 238386.0 234156.0 113104.0 121085.0 7151.0 11757.0 208560.0 206844.0 183810.0 188460.0 220209.0 215591.0 97785.0 105378.0 185857.0 178033.0 166018.0 166783.0 197172.0 191730.0 31579.0 28701.0 164826.0 172518.0 135005.0 142135.0 88619.0 89649.0 66901.0 73696.0 260732.0 265317.0 75676.0 80817.0 85675.0 89876.0 42206.0 49871.0 212006.0 217317.0 229147.0 230070.0 88159.0 92214.0 108273.0 113029.0 170417.0 168223.0 182518.0 186013.0 191029.0 195567.0 191700.0 193544.0 164492.0 159580.0 34986.0 35028.0 143376.0 149722.0 168584.0 163413.0 140747.0 142168.0 227928.0 235656.0 186539.0 179059.0 239442.0 242642.0 180349.0 172526.0 197841.0 194778.0 202888.0 198964.0 149265.0 156118.0 222342.0 226086.0 164164.0 156343.0 50865.0 57106.0 177392.0 172534.0 199028.0 191448.0 195588.0 203707.0 261626.0 255959.0 135524.0 127556.0 81174.0 84457.0 20556.0 16669.0 95068.0 91411.0 193176.0 200878.0 180652.0 179673.0 223554.0 216221.0 206726.0 201399.0 148561.0 151405.0 130820.0 136565.0 63526.0 67000.0 201470.0 195359.0 189257.0 182886.0 89199.0 94711.0 124359.0 128140.0 173963.0 179394.0 172222.0 166420.0 124149.0 115982.0 217291.0 211476.0 64459.0 72531.0 158470.0 0.0 158470.0 158470.0 0.0 0.0
FIXED_EDGES_SECTION
1 2
3 4
5 6
7 8
9 10
11 12
13 14
15 16
17 18
19 20
21 22
23 24
25 26
27 28
29 30
31 32
33 34
35 36
37 38
39 40
41 42
43 44
45 46
47 48
49 50
51 52
53 54
55 56
57 58
59 60
61 62
63 64
65 66
67 68
69 70
71 72
73 74
75 76
77 78
79 80
81 82
83 84
85 86
87 88
89 90
91 92
93 94
95 96
97 98
99 100
101 102
103 104
105 106
107 108
109 110
111 112
113 114
115 116
117 118
119 120
121 122
123 124
125 126
127 128
129 130
131 132
133 134
135 136
137 138
139 140
141 142
143 144
145 146
147 148
149 150
151 152
153 154
155 156
157 158
159 160
-1 
DEMAND_SECTION
1 120
2 120
3 244
4 244
5 485
6 485
7 349
8 349
9 319
10 319
11 214
12 214
13 358
14 358
15 277
16 277
17 353
18 353
19 380
20 380
21 157
22 157
23 60
24 60
25 55
26 55
27 217
28 217
29 497
30 497
31 56
32 56
33 37
34 37
35 211
36 211
37 292
38 292
39 265
40 265
41 291
42 291
43 493
44 493
45 112
46 112
47 461
48 461
49 371
50 371
51 618
52 618
53 256
54 256
55 223
56 223
57 342
58 342
59 138
60 138
61 620
62 620
63 130
64 130
65 313
66 313
67 224
68 224
69 76
70 76
71 184
72 184
73 271
74 271
75 491
76 491
77 211
78 211
79 219
80 219
81 74
82 74
83 100
84 100
85 100
86 100
87 394
88 394
89 155
90 155
91 119
92 119
93 316
94 316
95 396
96 396
97 68
98 68
99 82
100 82
101 321
102 321
103 375
104 375
105 280
106 280
107 234
108 234
109 421
110 421
111 114
112 114
113 341
114 341
115 479
116 479
117 247
118 247
119 542
120 542
121 277
122 277
123 534
124 534
125 235
126 235
127 119
128 119
129 90
130 90
131 180
132 180
133 251
134 251
135 186
136 186
137 207
138 207
139 89
140 89
141 563
142 563
143 497
144 497
145 57
146 57
147 158
148 158
149 94
150 94
151 104
152 104
153 583
154 583
155 224
156 224
157 216
158 216
159 84
160 84
161 0
162 0
163 0
164 0
165 0
166 0
DEPOT_SECTION
161 
-1 
CAPACITIES_SECTION
20000 
22000 
24000 
-1 
EOF