NAME: GFS_20_1
TYPE: GFSP
DIMENSION: 50
VEHICLES: 3
CAPACITY: 2500.0
TRIP_DIST_LIMIT: 600000.0
TOTAL_DIST_LIMIT: 1400000.0
EDGE_WEIGHT_TYPE: EXPLICIT
EDGE_WEIGHT_FORMAT: FULL_MATRIX
EDGE_WEIGHT_SECTION
0.0 8186.0 62567.0 54647.0 166945.0 174815.0 164054.0 159391.0 173068.0 166663.0 117993.0 125585.0 157846.0 163354.0 177137.0 173522.0 51301.0 53526.0 220057.0 226910.0 133103.0 135846.0 73643.0 68513.0 152456.0 146820.0 18371.0 11958.0 194940.0 186773.0 137397.0 140207.0 11133.0 15313.0 108044.0 110956.0 102805.0 106193.0 123552.0 120693.0 110802.0 75595.0 110802.0 110802.0 110802.0 110802.0 75595.0 75595.0 75595.0 75595.0
8186.0 0.0 68438.0 60653.0 174489.0 182357.0 168700.0 163763.0 169643.0 163031.0 120110.0 127847.0 153007.0 158755.0 174288.0 170998.0 57302.0 58615.0 215634.0 222487.0 141257.0 143946.0 65567.0 60343.0 159164.0 153346.0 21511.0 13619.0 190517.0 182350.0 145461.0 148193.0 17067.0 22950.0 109466.0 112925.0 99926.0 102753.0 131630.0 128832.0 118974.0 73098.0 118974.0 118974.0 118974.0 118974.0 73098.0 73098.0 73098.0 73098.0
62567.0 68438.0 0.0 7999.0 112279.0 119951.0 102970.0 99130.0 161836.0 157664.0 71235.0 77095.0 220181.0 225493.0 160875.0 154924.0 11298.0 12245.0 282022.0 288875.0 95694.0 94904.0 128891.0 121865.0 91778.0 85483.0 48009.0 55724.0 256905.0 248738.0 94745.0 94721.0 51634.0 48541.0 67580.0 66141.0 96188.0 103324.0 82742.0 83541.0 88814.0 135524.0 88814.0 88814.0 88814.0 88814.0 135524.0 135524.0 135524.0 135524.0
54647.0 60653.0 7999.0 0.0 118199.0 125942.0 110891.0 106956.0 163013.0 158507.0 76730.0 82972.0 212196.0 217498.0 162727.0 157050.0 3353.0 8819.0 274024.0 280876.0 98112.0 97963.0 121888.0 115020.0 99042.0 92925.0 40542.0 48132.0 248907.0 240740.0 98127.0 98652.0 43768.0 40544.0 71876.0 71198.0 95827.0 102607.0 85590.0 85706.0 88170.0 127556.0 88170.0 88170.0 88170.0 88170.0 127556.0 127556.0 127556.0 127556.0
166945.0 174489.0 112279.0 118199.0 0.0 7871.0 94648.0 99948.0 245843.0 244439.0 135585.0 134318.0 314823.0 319309.0 239628.0 231952.0 121150.0 124515.0 375416.0 382269.0 57925.0 49766.0 238953.0 232535.0 37569.0 44850.0 157259.0 164015.0 350300.0 342133.0 45599.0 38363.0 157750.0 151650.0 144328.0 137123.0 195082.0 203238.0 55327.0 62510.0 101167.0 227928.0 101167.0 101167.0 101167.0 101167.0 227928.0 227928.0 227928.0 227928.0
174815.0 182357.0 119951.0 125942.0 7871.0 0.0 97329.0 103071.0 251443.0 250213.0 141259.0 139671.0 322552.0 327037.0 244941.0 237205.0 128910.0 132179.0 383144.0 389997.0 63724.0 55721.0 246794.0 240359.0 41865.0 49598.0 165087.0 171862.0 358028.0 349861.0 51655.0 44657.0 165612.0 159520.0 150410.0 143073.0 201772.0 209953.0 62179.0 69185.0 107939.0 235656.0 107939.0 107939.0 107939.0 107939.0 235656.0 235656.0 235656.0 235656.0
164054.0 168700.0 102970.0 110891.0 94648.0 97329.0 0.0 8126.0 167153.0 167893.0 67325.0 61328.0 321701.0 327360.0 158004.0 149933.0 114049.0 110563.0 384108.0 390961.0 131762.0 124766.0 220431.0 212357.0 58112.0 52806.0 147215.0 155171.0 358991.0 350824.0 121220.0 114982.0 152921.0 151064.0 81239.0 73221.0 136713.0 144611.0 120426.0 127123.0 154576.0 238386.0 154576.0 154576.0 154576.0 154576.0 238386.0 238386.0 238386.0 238386.0
159391.0 163763.0 99130.0 106956.0 99948.0 103071.0 8126.0 0.0 159137.0 159822.0 59569.0 53393.0 316743.0 322515.0 150094.0 142031.0 110035.0 106065.0 379346.0 386199.0 134217.0 127495.0 214223.0 206091.0 62810.0 56811.0 142253.0 150182.0 354230.0 346063.0 124098.0 118130.0 148268.0 146767.0 73595.0 65644.0 128888.0 136748.0 122424.0 128879.0 154719.0 234156.0 154719.0 154719.0 154719.0 154719.0 234156.0 234156.0 234156.0 234156.0
173068.0 169643.0 161836.0 163013.0 245843.0 251443.0 167153.0 159137.0 0.0 8030.0 110261.0 111952.0 281630.0 289383.0 13938.0 20347.0 162910.0 154439.0 345139.0 350269.0 252954.0 249968.0 166961.0 159896.0 210098.0 202096.0 158810.0 161793.0 321777.0 313569.0 248499.0 245878.0 167670.0 173719.0 102784.0 109242.0 70666.0 66908.0 239243.0 241984.0 250648.0 231534.0 250648.0 250648.0 250648.0 250648.0 231534.0 231534.0 231534.0 231534.0
166663.0 163031.0 157664.0 158507.0 244439.0 250213.0 167893.0 159822.0 8030.0 0.0 108970.0 111219.0 273648.0 281407.0 20806.0 25733.0 158267.0 149854.0 337129.0 342249.0 249766.0 247009.0 159095.0 152081.0 209122.0 201074.0 152773.0 155512.0 313786.0 305581.0 245662.0 243256.0 161561.0 167774.0 100609.0 107421.0 64820.0 60494.0 236091.0 238613.0 246410.0 224138.0 246410.0 246410.0 246410.0 246410.0 224138.0 224138.0 224138.0 224138.0
117993.0 120110.0 71235.0 76730.0 135585.0 141259.0 67325.0 59569.0 110261.0 108970.0 0.0 7991.0 269759.0 276176.0 104532.0 97095.0 78626.0 71247.0 333512.0 340330.0 147551.0 143385.0 160747.0 152379.0 100209.0 92140.0 99634.0 106856.0 308411.0 300234.0 141359.0 137857.0 107622.0 108974.0 14291.0 7440.0 69414.0 77373.0 133875.0 137914.0 153652.0 193176.0 153652.0 153652.0 153652.0 153652.0 193176.0 193176.0 193176.0 193176.0
125585.0 127847.0 77095.0 82972.0 134318.0 139671.0 61328.0 53393.0 111952.0 111219.0 7991.0 0.0 277722.0 284127.0 105311.0 97646.0 85031.0 77920.0 341446.0 348276.0 149460.0 144919.0 168690.0 160317.0 98168.0 90195.0 107245.0 114539.0 316349.0 308170.0 142692.0 138824.0 115126.0 116264.0 21812.0 15430.0 75601.0 83392.0 135881.0 140275.0 157491.0 200878.0 157491.0 157491.0 157491.0 157491.0 200878.0 200878.0 200878.0 200878.0
157846.0 153007.0 220181.0 212196.0 314823.0 322552.0 321701.0 316743.0 281630.0 273648.0 269759.0 277722.0 0.0 7987.0 291630.0 291735.0 208883.0 211338.0 64683.0 70942.0 270705.0 275355.0 116313.0 124283.0 307008.0 302240.0 174508.0 166567.0 40278.0 32013.0 277924.0 282462.0 168953.0 171687.0 257399.0 262342.0 227204.0 225222.0 264287.0 259430.0 245365.0 88159.0 245365.0 245365.0 245365.0 245365.0 88159.0 88159.0 88159.0 88159.0
163354.0 158755.0 225493.0 217498.0 319309.0 327037.0 327360.0 322515.0 289383.0 281407.0 276176.0 284127.0 7987.0 0.0 299314.0 299357.0 214200.0 216880.0 57626.0 64184.0 275191.0 279840.0 123779.0 131682.0 311585.0 306957.0 180267.0 172350.0 32831.0 24552.0 282410.0 286948.0 174481.0 176956.0 263944.0 268770.0 234506.0 232632.0 268773.0 263915.0 249851.0 92214.0 249851.0 249851.0 249851.0 249851.0 92214.0 92214.0 92214.0 92214.0
177137.0 174288.0 160875.0 162727.0 239628.0 244941.0 158004.0 150094.0 13938.0 20806.0 104532.0 105311.0 291630.0 299314.0 0.0 8092.0 162911.0 154368.0 355480.0 360769.0 249780.0 246381.0 176193.0 168853.0 203301.0 195395.0 161995.0 165583.0 331860.0 323622.0 244699.0 241701.0 170996.0 176608.0 98638.0 104407.0 74380.0 72051.0 236035.0 239176.0 249526.0 238506.0 249526.0 249526.0 249526.0 249526.0 238506.0 238506.0 238506.0 238506.0
173522.0 170998.0 154924.0 157050.0 231952.0 237205.0 149933.0 142031.0 20347.0 25733.0 97095.0 97646.0 291735.0 299357.0 8092.0 0.0 157356.0 148802.0 355825.0 361249.0 242920.0 239393.0 175863.0 168336.0 195522.0 187637.0 157951.0 161847.0 332003.0 323746.0 237646.0 234539.0 167001.0 172374.0 91694.0 97225.0 71185.0 69705.0 229173.0 232443.0 243402.0 236487.0 243402.0 243402.0 243402.0 243402.0 236487.0 236487.0 236487.0 236487.0
51301.0 57302.0 11298.0 3353.0 121150.0 128910.0 114049.0 110035.0 162910.0 158267.0 78626.0 85031.0 208883.0 214200.0 162911.0 157356.0 0.0 8555.0 270738.0 277591.0 99931.0 100011.0 118696.0 111874.0 102329.0 96244.0 37253.0 44811.0 245622.0 237455.0 100286.0 100996.0 40415.0 37256.0 73253.0 72910.0 95163.0 101784.0 87583.0 87455.0 88850.0 124359.0 88850.0 88850.0 88850.0 88850.0 124359.0 124359.0 124359.0 124359.0
53526.0 58615.0 12245.0 8819.0 124515.0 132179.0 110563.0 106065.0 154439.0 149854.0 71247.0 77920.0 211338.0 216880.0 154368.0 148802.0 8555.0 0.0 273574.0 280427.0 106597.0 106226.0 117302.0 110134.0 103357.0 96835.0 37481.0 45397.0 248458.0 240291.0 106255.0 106509.0 42399.0 40787.0 65211.0 65269.0 87022.0 93789.0 93923.0 94253.0 96959.0 128140.0 96959.0 96959.0 96959.0 96959.0 128140.0 128140.0 128140.0 128140.0
220057.0 215634.0 282022.0 274024.0 375416.0 383144.0 384108.0 379346.0 345139.0 337129.0 333512.0 341446.0 64683.0 57626.0 355480.0 355825.0 270738.0 273574.0 0.0 8022.0 331298.0 335948.0 180856.0 188892.0 367697.0 363065.0 237138.0 229245.0 25228.0 33284.0 338517.0 343055.0 231189.0 233482.0 321407.0 326120.0 291860.0 289787.0 324880.0 320022.0 305958.0 149265.0 305958.0 305958.0 305958.0 305958.0 149265.0 149265.0 149265.0 149265.0
226910.0 222487.0 288875.0 280876.0 382269.0 389997.0 390961.0 386199.0 350269.0 342249.0 340330.0 348276.0 70942.0 64184.0 360769.0 361249.0 277591.0 280427.0 8022.0 0.0 338151.0 342800.0 186716.0 194823.0 374550.0 369918.0 243990.0 236097.0 32458.0 40238.0 345370.0 349908.0 238042.0 240335.0 328127.0 332929.0 297836.0 295616.0 331733.0 326875.0 312811.0 156118.0 312811.0 312811.0 312811.0 312811.0 156118.0 156118.0 156118.0 156118.0
133103.0 141257.0 95694.0 98112.0 57925.0 63724.0 131762.0 134217.0 252954.0 249766.0 147551.0 149460.0 270705.0 275191.0 249780.0 242920.0 99931.0 106597.0 331298.0 338151.0 0.0 8263.0 206650.0 201594.0 77672.0 80247.0 129127.0 134047.0 306182.0 298014.0 12504.0 19957.0 126453.0 118916.0 151229.0 146093.0 191098.0 198537.0 13747.0 12650.0 46895.0 183810.0 46895.0 46895.0 46895.0 46895.0 183810.0 183810.0 183810.0 183810.0
135846.0 143946.0 94904.0 97963.0 49766.0 55721.0 124766.0 127495.0 249968.0 247009.0 143385.0 144919.0 275355.0 279840.0 246381.0 239393.0 100011.0 106226.0 335948.0 342800.0 8263.0 0.0 209489.0 204179.0 69918.0 72822.0 130798.0 136090.0 310831.0 302664.0 4241.0 11696.0 128671.0 121331.0 147744.0 142293.0 189390.0 196971.0 12542.0 15940.0 53539.0 188460.0 53539.0 53539.0 53539.0 53539.0 188460.0 188460.0 188460.0 188460.0
73643.0 65567.0 128891.0 121888.0 238953.0 246794.0 220431.0 214223.0 166961.0 159095.0 160747.0 168690.0 116313.0 123779.0 176193.0 175863.0 118696.0 117302.0 180856.0 186716.0 206650.0 209489.0 0.0 8434.0 220627.0 214131.0 81777.0 74951.0 156563.0 148284.0 211028.0 213721.0 81548.0 88388.0 147238.0 153362.0 111180.0 108932.0 197191.0 194292.0 183483.0 75084.0 183483.0 183483.0 183483.0 183483.0 75084.0 75084.0 75084.0 75084.0
68513.0 60343.0 121865.0 115020.0 232535.0 240359.0 212357.0 206091.0 159896.0 152081.0 152379.0 160317.0 124283.0 131682.0 168853.0 168336.0 111874.0 110134.0 188892.0 194823.0 201594.0 204179.0 8434.0 0.0 213490.0 206895.0 75280.0 68777.0 164495.0 156213.0 205594.0 208075.0 75717.0 82859.0 138841.0 145000.0 103016.0 100950.0 191808.0 189150.0 179018.0 78498.0 179018.0 179018.0 179018.0 179018.0 78498.0 78498.0 78498.0 78498.0
152456.0 159164.0 91778.0 99042.0 37569.0 41865.0 58112.0 62810.0 210098.0 209122.0 100209.0 98168.0 307008.0 311585.0 203301.0 195522.0 102329.0 103357.0 367697.0 374550.0 77672.0 69918.0 220627.0 213490.0 0.0 8114.0 139581.0 147097.0 342581.0 334414.0 65974.0 59056.0 142100.0 137390.0 110214.0 102584.0 163403.0 171649.0 68600.0 76046.0 110171.0 220209.0 110171.0 110171.0 110171.0 110171.0 220209.0 220209.0 220209.0 220209.0
146820.0 153346.0 85483.0 92925.0 44850.0 49598.0 52806.0 56811.0 202096.0 201074.0 92140.0 90195.0 302240.0 306957.0 195395.0 187637.0 96244.0 96835.0 363065.0 369918.0 80247.0 72822.0 214131.0 206895.0 8114.0 0.0 133443.0 141055.0 337949.0 329782.0 69071.0 62522.0 136309.0 131880.0 102100.0 94474.0 155354.0 163602.0 70131.0 77360.0 109736.0 215591.0 109736.0 109736.0 109736.0 109736.0 215591.0 215591.0 215591.0 215591.0
18371.0 21511.0 48009.0 40542.0 157259.0 165087.0 147215.0 142253.0 158810.0 152773.0 99634.0 107245.0 174508.0 180267.0 161995.0 157951.0 37253.0 37481.0 237138.0 243990.0 129127.0 130798.0 81777.0 75280.0 139581.0 133443.0 0.0 7968.0 212021.0 203854.0 131819.0 133725.0 9100.0 15218.0 89709.0 92587.0 88154.0 92418.0 118279.0 116494.0 110237.0 93760.0 110237.0 110237.0 110237.0 110237.0 93760.0 93760.0 93760.0 93760.0
11958.0 13619.0 55724.0 48132.0 164015.0 171862.0 155171.0 150182.0 161793.0 155512.0 106856.0 114539.0 166567.0 172350.0 165583.0 161847.0 44811.0 45397.0 229245.0 236097.0 134047.0 136090.0 74951.0 68777.0 147097.0 141055.0 7968.0 0.0 204128.0 195961.0 137290.0 139494.0 8047.0 16094.0 96547.0 99731.0 91340.0 95019.0 123619.0 121462.0 113779.0 86341.0 113779.0 113779.0 113779.0 113779.0 86341.0 86341.0 86341.0 86341.0
194940.0 190517.0 256905.0 248907.0 350300.0 358028.0 358991.0 354230.0 321777.0 313786.0 308411.0 316349.0 40278.0 32831.0 331860.0 332003.0 245622.0 248458.0 25228.0 32458.0 306182.0 310831.0 156563.0 164495.0 342581.0 337949.0 212021.0 204128.0 0.0 8282.0 313401.0 317939.0 206073.0 208366.0 296285.0 301016.0 267337.0 265445.0 299763.0 294906.0 280842.0 124149.0 280842.0 280842.0 280842.0 280842.0 124149.0 124149.0 124149.0 124149.0
186773.0 182350.0 248738.0 240740.0 342133.0 349861.0 350824.0 346063.0 313569.0 305581.0 300234.0 308170.0 32013.0 24552.0 323622.0 323746.0 237455.0 240291.0 33284.0 40238.0 298014.0 302664.0 148284.0 156213.0 334414.0 329782.0 203854.0 195961.0 8282.0 0.0 305233.0 309772.0 197906.0 200199.0 288123.0 292841.0 259057.0 257163.0 291596.0 286739.0 272674.0 115982.0 272674.0 272674.0 272674.0 272674.0 115982.0 115982.0 115982.0 115982.0
137397.0 145461.0 94745.0 98127.0 45599.0 51655.0 121220.0 124098.0 248499.0 245662.0 141359.0 142692.0 277924.0 282410.0 244699.0 237646.0 100286.0 106255.0 338517.0 345370.0 12504.0 4241.0 211028.0 205594.0 65974.0 69071.0 131819.0 137290.0 313401.0 305233.0 0.0 7456.0 129970.0 122739.0 146076.0 140464.0 188617.0 196268.0 13903.0 18831.0 57108.0 191029.0 57108.0 57108.0 57108.0 57108.0 191029.0 191029.0 191029.0 191029.0
140207.0 148193.0 94721.0 98652.0 38363.0 44657.0 114982.0 118130.0 245878.0 243256.0 137857.0 138824.0 282462.0 286948.0 241701.0 234539.0 100996.0 106509.0 343055.0 349908.0 19957.0 11696.0 213721.0 208075.0 59056.0 62522.0 133725.0 139494.0 317939.0 309772.0 7456.0 0.0 132360.0 125335.0 143209.0 137316.0 187281.0 195044.0 18404.0 24764.0 63495.0 195567.0 63495.0 63495.0 63495.0 63495.0 195567.0 195567.0 195567.0 195567.0
11133.0 17067.0 51634.0 43768.0 157750.0 165612.0 152921.0 148268.0 167670.0 161561.0 107622.0 115126.0 168953.0 174481.0 170996.0 167001.0 40415.0 42399.0 231189.0 238042.0 126453.0 128671.0 81548.0 75717.0 142100.0 136309.0 9100.0 8047.0 206073.0 197906.0 129970.0 132360.0 0.0 8047.0 98115.0 100683.0 97042.0 101134.0 116238.0 113898.0 105814.0 86491.0 105814.0 105814.0 105814.0 105814.0 86491.0 86491.0 86491.0 86491.0
15313.0 22950.0 48541.0 40544.0 151650.0 159520.0 151064.0 146767.0 173719.0 167774.0 108974.0 116264.0 171687.0 176956.0 176608.0 172374.0 37256.0 40787.0 233482.0 240335.0 118916.0 121331.0 88388.0 82859.0 137390.0 131880.0 15218.0 16094.0 208366.0 200199.0 122739.0 125335.0 8047.0 0.0 100302.0 102257.0 103055.0 107502.0 108950.0 106404.0 97865.0 87390.0 97865.0 97865.0 97865.0 97865.0 87390.0 87390.0 87390.0 87390.0
108044.0 109466.0 67580.0 71876.0 144328.0 150410.0 81239.0 73595.0 102784.0 100609.0 14291.0 21812.0 257399.0 263944.0 98638.0 91694.0 73253.0 65211.0 321407.0 328127.0 151229.0 147744.0 147238.0 138841.0 110214.0 102100.0 89709.0 96547.0 296285.0 288123.0 146076.0 143209.0 98115.0 100302.0 0.0 8174.0 55882.0 63977.0 137482.0 140848.0 153675.0 182518.0 153675.0 153675.0 153675.0 153675.0 182518.0 182518.0 182518.0 182518.0
110956.0 112925.0 66141.0 71198.0 137123.0 143073.0 73221.0 65644.0 109242.0 107421.0 7440.0 15430.0 262342.0 268770.0 104407.0 97225.0 72910.0 65269.0 326120.0 332929.0 146093.0 142293.0 153362.0 145000.0 102584.0 94474.0 92587.0 99731.0 301016.0 292841.0 140464.0 137316.0 100683.0 102257.0 8174.0 0.0 64053.0 72151.0 132363.0 136049.0 150345.0 186013.0 150345.0 150345.0 150345.0 150345.0 186013.0 186013.0 186013.0 186013.0
102805.0 99926.0 96188.0 95827.0 195082.0 201772.0 136713.0 128888.0 70666.0 64820.0 69414.0 75601.0 227204.0 234506.0 74380.0 71185.0 95163.0 87022.0 291860.0 297836.0 191098.0 189390.0 111180.0 103016.0 163403.0 155354.0 88154.0 91340.0 267337.0 259057.0 188617.0 187281.0 97042.0 103055.0 55882.0 64053.0 0.0 8254.0 177728.0 179282.0 183973.0 166018.0 183973.0 183973.0 183973.0 183973.0 166018.0 166018.0 166018.0 166018.0
106193.0 102753.0 103324.0 102607.0 203238.0 209953.0 144611.0 136748.0 66908.0 60494.0 77373.0 83392.0 225222.0 232632.0 72051.0 69705.0 101784.0 93789.0 289787.0 295616.0 198537.0 196971.0 108932.0 100950.0 171649.0 163602.0 92418.0 95019.0 265445.0 257163.0 196268.0 195044.0 101134.0 107502.0 63977.0 72151.0 8254.0 0.0 185229.0 186635.0 190633.0 166783.0 190633.0 190633.0 190633.0 190633.0 166783.0 166783.0 166783.0 166783.0
123552.0 131630.0 82742.0 85590.0 55327.0 62179.0 120426.0 122424.0 239243.0 236091.0 133875.0 135881.0 264287.0 268773.0 236035.0 229173.0 87583.0 93923.0 324880.0 331733.0 13747.0 12542.0 197191.0 191808.0 68600.0 70131.0 118279.0 123619.0 299763.0 291596.0 13903.0 18404.0 116238.0 108950.0 137482.0 132363.0 177728.0 185229.0 0.0 7611.0 45843.0 177392.0 45843.0 45843.0 45843.0 45843.0 177392.0 177392.0 177392.0 177392.0
120693.0 128832.0 83541.0 85706.0 62510.0 69185.0 127123.0 128879.0 241984.0 238613.0 137914.0 140275.0 259430.0 263915.0 239176.0 232443.0 87455.0 94253.0 320022.0 326875.0 12650.0 15940.0 194292.0 189150.0 76046.0 77360.0 116494.0 121462.0 294906.0 286739.0 18831.0 24764.0 113898.0 106404.0 140848.0 136049.0 179282.0 186635.0 7611.0 0.0 38771.0 172534.0 38771.0 38771.0 38771.0 38771.0 172534.0 172534.0 172534.0 172534.0
110802.0 118974.0 88814.0 88170.0 101167.0 107939.0 154576.0 154719.0 250648.0 246410.0 153652.0 157491.0 245365.0 249851.0 249526.0 243402.0 88850.0 96959.0 305958.0 312811.0 46895.0 53539.0 183483.0 179018.0 110171.0 109736.0 110237.0 113779.0 280842.0 272674.0 57108.0 63495.0 105814.0 97865.0 153675.0 150345.0 183973.0 190633.0 45843.0 38771.0 0.0 158470.0 0.0 0.0 0.0 0.0 158470.0 158470.0 158470.0 158470.0
75595.0 73098.0 135524.0 127556.0 227928.0 235656.0 238386.0 234156.0 231534.0 224138.0 193176.0 200878.0 88159.0 92214.0 238506.0 236487.0 124359.0 128140.0 149265.0 156118.0 183810.0 188460.0 75084.0 78498.0 220209.0 215591.0 93760.0 86341.0 124149.0 115982.0 191029.0 195567.0 86491.0 87390.0 182518.0 186013.0 166018.0 166783.0 177392.0 172534.0 158470.0 0.0 158470.0 158470.0 158470.0 158470.0 0.0 0.0 0.0 0.0
110802.0 118974.0 88814.0 88170.0 101167.0 107939.0 154576.0 154719.0 250648.0 246410.0 153652.0 157491.0 245365.0 249851.0 249526.0 243402.0 88850.0 96959.0 305958.0 312811.0 46895.0 53539.0 183483.0 179018.0 110171.0 109736.0 110237.0 113779.0 280842.0 272674.0 57108.0 63495.0 105814.0 97865.0 153675.0 150345.0 183973.0 190633.0 45843.0 38771.0 0.0 158470.0 0.0 0.0 0.0 0.0 158470.0 158470.0 158470.0 158470.0
110802.0 118974.0 88814.0 88170.0 101167.0 107939.0 154576.0 154719.0 250648.0 246410.0 153652.0 157491.0 245365.0 249851.0 249526.0 243402.0 88850.0 96959.0 305958.0 312811.0 46895.0 53539.0 183483.0 179018.0 110171.0 109736.0 110237.0 113779.0 280842.0 272674.0 57108.0 63495.0 105814.0 97865.0 153675.0 150345.0 183973.0 190633.0 45843.0 38771.0 0.0 158470.0 0.0 0.0 0.0 0.0 158470.0 158470.0 158470.0 158470.0
110802.0 118974.0 88814.0 88170.0 101167.0 107939.0 154576.0 154719.0 250648.0 246410.0 153652.0 157491.0 245365.0 249851.0 249526.0 243402.0 88850.0 96959.0 305958.0 312811.0 46895.0 53539.0 183483.0 179018.0 110171.0 109736.0 110237.0 113779.0 280842.0 272674.0 57108.0 63495.0 105814.0 97865.0 153675.0 150345.0 183973.0 190633.0 45843.0 38771.0 0.0 158470.0 0.0 0.0 0.0 0.0 158470.0 158470.0 158470.0 158470.0
110802.0 118974.0 88814.0 88170.0 101167.0 107939.0 154576.0 154719.0 250648.0 246410.0 153652.0 157491.0 245365.0 249851.0 249526.0 243402.0 88850.0 96959.0 305958.0 312811.0 46895.0 53539.0 183483.0 179018.0 110171.0 109736.0 110237.0 113779.0 280842.0 272674.0 57108.0 63495.0 105814.0 97865.0 153675.0 150345.0 183973.0 190633.0 45843.0 38771.0 0.0 158470.0 0.0 0.0 0.0 0.0 158470.0 158470.0 158470.0 158470.0
75595.0 73098.0 135524.0 127556.0 227928.0 235656.0 238386.0 234156.0 231534.0 224138.0 193176.0 200878.0 88159.0 92214.0 238506.0 236487.0 124359.0 128140.0 149265.0 156118.0 183810.0 188460.0 75084.0 78498.0 220209.0 215591.0 93760.0 86341.0 124149.0 115982.0 191029.0 195567.0 86491.0 87390.0 182518.0 186013.0 166018.0 166783.0 177392.0 172534.0 158470.0 0.0 158470.0 158470.0 158470.0 158470.0 0.0 0.0 0.0 0.0
75595.0 73098.0 135524.0 127556.0 227928.0 235656.0 238386.0 234156.0 231534.0 224138.0 193176.0 200878.0 88159.0 92214.0 238506.0 236487.0 124359.0 128140.0 149265.0 156118.0 183810.0 188460.0 75084.0 78498.0 220209.0 215591.0 93760.0 86341.0 124149.0 115982.0 191029.0 195567.0 86491.0 87390.0 182518.0 186013.0 166018.0 166783.0 177392.0 172534.0 158470.0 0.0 158470.0 158470.0 158470.0 158470.0 0.0 0.0 0.0 0.0
75595.0 73098.0 135524.0 127556.0 227928.0 235656.0 238386.0 234156.0 231534.0 224138.0 193176.0 200878.0 88159.0 92214.0 238506.0 236487.0 124359.0 128140.0 149265.0 156118.0 183810.0 188460.0 75084.0 78498.0 220209.0 215591.0 93760.0 86341.0 124149.0 115982.0 191029.0 195567.0 86491.0 87390.0 182518.0 186013.0 166018.0 166783.0 177392.0 172534.0 158470.0 0.0 158470.0 158470.0 158470.0 158470.0 0.0 0.0 0.0 0.0
75595.0 73098.0 135524.0 127556.0 227928.0 235656.0 238386.0 234156.0 231534.0 224138.0 193176.0 200878.0 88159.0 92214.0 238506.0 236487.0 124359.0 128140.0 149265.0 156118.0 183810.0 188460.0 75084.0 78498.0 220209.0 215591.0 93760.0 86341.0 124149.0 115982.0 191029.0 195567.0 86491.0 87390.0 182518.0 186013.0 166018.0 166783.0 177392.0 172534.0 158470.0 0.0 158470.0 158470.0 158470.0 158470.0 0.0 0.0 0.0 0.0
FIXED_EDGES_SECTION
1 2
3 4
5 6
7 8
9 10
11 12
13 14
15 16
17 18
19 20
21 22
23 24
25 26
27 28
29 30
31 32
33 34
35 36
37 38
39 40
-1 
DEMAND_SECTION
1 324
2 324
3 277
4 277
5 316
6 316
7 497
8 497
9 258
10 258
11 90
12 90
13 184
14 184
15 380
16 380
17 94
18 94
19 280
20 280
21 292
22 292
23 68
24 68
25 265
26 265
27 80
28 80
29 224
30 224
31 219
32 219
33 373
34 373
35 211
36 211
37 112
38 112
39 341
40 341
41 0
42 0
43 0
44 0
45 0
46 0
47 0
48 0
49 0
50 0
DEPOT_SECTION
41 
-1 
CAPACITIES_SECTION
2500 
2750 
3000 
-1 
EOF