NAME: GFS_20_1
TYPE: GFSP
DIMENSION: 50
VEHICLES: 3
CAPACITY: 2500.0
TRIP_DIST_LIMIT: 600000.0
TOTAL_DIST_LIMIT: 1400000.0
EDGE_WEIGHT_TYPE: EXPLICIT
EDGE_WEIGHT_FORMAT: FULL_MATRIX
EDGE_WEIGHT_SECTION
0.0 8018.0 308490.0 316506.0 53086.0 48255.0 9922.0 17704.0 268263.0 275517.0 299684.0 305705.0 200905.0 196280.0 317488.0 313227.0 279026.0 286675.0 343852.0 349283.0 353699.0 358349.0 109587.0 109161.0 307491.0 299859.0 97606.0 105280.0 162071.0 162331.0 290901.0 284216.0 351420.0 352968.0 243424.0 244288.0 117896.0 120080.0 126882.0 134580.0 328359.0 171494.0 328359.0 328359.0 328359.0 328359.0 171494.0 171494.0 171494.0 171494.0
8018.0 0.0 300639.0 308656.0 52321.0 48564.0 2881.0 9697.0 260326.0 267595.0 291821.0 297871.0 193464.0 188744.0 309714.0 305497.0 271417.0 279045.0 336628.0 342059.0 346475.0 351125.0 102161.0 101520.0 299818.0 292208.0 89590.0 97262.0 154088.0 154320.0 283059.0 276352.0 343523.0 345042.0 235527.0 236445.0 109920.0 112068.0 118866.0 126561.0 321135.0 164411.0 321135.0 321135.0 321135.0 321135.0 164411.0 164411.0 164411.0 164411.0
308490.0 300639.0 0.0 8022.0 293553.0 300388.0 299566.0 291332.0 43868.0 35967.0 9099.0 4124.0 115828.0 117351.0 15984.0 20301.0 44616.0 38339.0 105294.0 103511.0 122905.0 120867.0 201359.0 200089.0 27245.0 30977.0 214547.0 206932.0 148473.0 150466.0 17672.0 24395.0 129826.0 123742.0 65608.0 64211.0 191607.0 191007.0 185071.0 178487.0 119700.0 150783.0 119700.0 119700.0 119700.0 119700.0 150783.0 150783.0 150783.0 150783.0
316506.0 308656.0 8022.0 0.0 301433.0 308258.0 307585.0 299351.0 51501.0 43598.0 17027.0 11147.0 123411.0 125088.0 13089.0 19940.0 50353.0 43471.0 103898.0 101527.0 121540.0 118988.0 209312.0 208078.0 28706.0 34146.0 222554.0 214936.0 156471.0 158422.0 25644.0 32408.0 129249.0 122840.0 73610.0 72221.0 199627.0 199014.0 193067.0 186464.0 120848.0 158330.0 120848.0 120848.0 120848.0 120848.0 158330.0 158330.0 158330.0 158330.0
53086.0 52321.0 293553.0 301433.0 0.0 8022.0 54703.0 53717.0 256973.0 263481.0 285205.0 290344.0 180298.0 177025.0 300591.0 295486.0 259615.0 267503.0 321451.0 326882.0 331298.0 335948.0 93851.0 97502.0 288817.0 280886.0 104152.0 110307.0 156887.0 159764.0 275913.0 269975.0 355480.0 355825.0 231080.0 230159.0 115679.0 120759.0 127821.0 135771.0 305958.0 149265.0 305958.0 305958.0 305958.0 305958.0 149265.0 149265.0 149265.0 149265.0
48255.0 48564.0 300388.0 308258.0 8022.0 0.0 51147.0 51322.0 263660.0 270242.0 292054.0 297161.0 187151.0 183878.0 307444.0 302339.0 266468.0 274355.0 328304.0 333735.0 338151.0 342800.0 100265.0 103529.0 295670.0 287739.0 108085.0 114526.0 162699.0 165308.0 282753.0 276828.0 360769.0 361249.0 237814.0 236999.0 120850.0 125641.0 132740.0 140729.0 312811.0 156118.0 312811.0 312811.0 312811.0 312811.0 156118.0 156118.0 156118.0 156118.0
9922.0 2881.0 299566.0 307585.0 54703.0 51147.0 0.0 8235.0 259091.0 266390.0 290727.0 296825.0 192902.0 188087.0 308756.0 304599.0 270668.0 278271.0 336257.0 341688.0 346104.0 350754.0 101650.0 100780.0 298991.0 291409.0 87943.0 95641.0 152736.0 152836.0 282003.0 275258.0 341524.0 343091.0 234376.0 235389.0 108600.0 110584.0 117335.0 124984.0 320764.0 164164.0 320764.0 320764.0 320764.0 320764.0 164164.0 164164.0 164164.0 164164.0
17704.0 9697.0 291332.0 299351.0 53717.0 51322.0 8235.0 0.0 250867.0 258162.0 282493.0 288592.0 184836.0 179969.0 300534.0 296389.0 262504.0 270098.0 328322.0 333753.0 338169.0 342819.0 93637.0 92635.0 290800.0 283227.0 79904.0 87582.0 144539.0 144693.0 273770.0 267023.0 333880.0 335377.0 226143.0 227155.0 100391.0 102439.0 109217.0 116895.0 312829.0 156343.0 312829.0 312829.0 312829.0 312829.0 156343.0 156343.0 156343.0 156343.0
268263.0 260326.0 43868.0 51501.0 256973.0 263660.0 259091.0 250867.0 0.0 7905.0 34867.0 42569.0 86374.0 85395.0 57678.0 57615.0 49038.0 49762.0 133634.0 134053.0 150338.0 150323.0 163546.0 161315.0 58081.0 54952.0 172781.0 165084.0 106687.0 107927.0 29283.0 21588.0 126903.0 123018.0 26005.0 29124.0 150555.0 149317.0 143087.0 136174.0 137159.0 120399.0 137159.0 137159.0 137159.0 137159.0 120399.0 120399.0 120399.0 120399.0
275517.0 267595.0 35967.0 43598.0 263481.0 270242.0 266390.0 258162.0 7905.0 0.0 26981.0 34731.0 90999.0 90579.0 49934.0 50189.0 45429.0 45020.0 128035.0 128123.0 144958.0 144627.0 170260.0 168223.0 51250.0 48763.0 180302.0 172617.0 114171.0 115575.0 21878.0 14426.0 126098.0 121774.0 32452.0 34127.0 157920.0 156812.0 150639.0 143789.0 133236.0 125451.0 133236.0 133236.0 133236.0 133236.0 125451.0 125451.0 125451.0 125451.0
299684.0 291821.0 9099.0 17027.0 285205.0 292054.0 290727.0 282493.0 34867.0 26981.0 0.0 8006.0 108191.0 109386.0 23503.0 25632.0 40809.0 35729.0 109335.0 108145.0 126827.0 125316.0 192815.0 191421.0 30147.0 31576.0 205551.0 197927.0 139456.0 141396.0 9609.0 15469.0 129175.0 123490.0 56607.0 55480.0 182675.0 182013.0 176049.0 169437.0 120994.0 143177.0 120994.0 120994.0 120994.0 120994.0 143177.0 143177.0 143177.0 143177.0
305705.0 297871.0 4124.0 11147.0 290344.0 297161.0 296825.0 288592.0 42569.0 34731.0 8006.0 0.0 112272.0 113945.0 15497.0 18214.0 40494.0 34232.0 102840.0 101316.0 120412.0 118599.0 198310.0 197157.0 24136.0 27254.0 212099.0 204508.0 146094.0 148268.0 14858.0 22139.0 133245.0 127255.0 63258.0 61440.0 189031.0 188560.0 182695.0 176198.0 116316.0 147199.0 116316.0 116316.0 116316.0 116316.0 147199.0 147199.0 147199.0 147199.0
200905.0 193464.0 115828.0 123411.0 180298.0 187151.0 192902.0 184836.0 86374.0 90999.0 108191.0 112272.0 0.0 8000.0 121137.0 115603.0 79332.0 87243.0 145992.0 150957.0 156639.0 161042.0 91318.0 92462.0 108618.0 100639.0 117369.0 110986.0 63979.0 71136.0 98609.0 93813.0 207974.0 205377.0 61822.0 57251.0 93172.0 96065.0 92857.0 89770.0 131325.0 34986.0 131325.0 131325.0 131325.0 131325.0 34986.0 34986.0 34986.0 34986.0
196280.0 188744.0 117351.0 125088.0 177025.0 183878.0 188087.0 179969.0 85395.0 90579.0 109386.0 113945.0 8000.0 0.0 123625.0 118462.0 82960.0 90747.0 152590.0 157358.0 163618.0 167844.0 86812.0 87365.0 111922.0 104075.0 110896.0 104336.0 56086.0 63179.0 99887.0 94605.0 204691.0 202370.0 60056.0 56477.0 86621.0 89183.0 85709.0 82347.0 138409.0 35028.0 138409.0 138409.0 138409.0 138409.0 35028.0 35028.0 35028.0 35028.0
317488.0 309714.0 15984.0 13089.0 300591.0 307444.0 308756.0 300534.0 57678.0 49934.0 23503.0 15497.0 121137.0 123625.0 0.0 7955.0 44032.0 36336.0 90823.0 88542.0 108466.0 105987.0 209276.0 208558.0 17561.0 24605.0 224938.0 217416.0 159205.0 161777.0 28814.0 36551.0 142228.0 135748.0 76786.0 73979.0 201562.0 201430.0 195750.0 189466.0 108311.0 155705.0 108311.0 108311.0 108311.0 108311.0 155705.0 155705.0 155705.0 155705.0
313227.0 305497.0 20301.0 19940.0 295486.0 302339.0 304599.0 296389.0 57615.0 50189.0 25632.0 18214.0 115603.0 118462.0 7955.0 0.0 37344.0 29453.0 85005.0 83232.0 102624.0 100573.0 204605.0 204149.0 9627.0 17012.0 221522.0 214065.0 156124.0 159050.0 28342.0 36038.0 149074.0 142731.0 74489.0 70892.0 197935.0 198070.0 192553.0 186463.0 100915.0 149917.0 100915.0 100915.0 100915.0 100915.0 149917.0 149917.0 149917.0 149917.0
279026.0 271417.0 44616.0 50353.0 259615.0 266468.0 270668.0 262504.0 49038.0 45429.0 40809.0 40494.0 79332.0 82960.0 44032.0 37344.0 0.0 7992.0 87178.0 88874.0 103052.0 103999.0 169726.0 169899.0 29453.0 21366.0 189928.0 182719.0 126276.0 130387.0 33122.0 34839.0 167883.0 162701.0 51886.0 45145.0 165870.0 166817.0 161861.0 156471.0 88120.0 113104.0 88120.0 88120.0 88120.0 88120.0 113104.0 113104.0 113104.0 113104.0
286675.0 279045.0 38339.0 43471.0 267503.0 274355.0 278271.0 270098.0 49762.0 45020.0 35729.0 34232.0 87243.0 90747.0 36336.0 29453.0 7992.0 0.0 84264.0 85291.0 100708.0 101047.0 177458.0 177525.0 21464.0 13402.0 197081.0 189819.0 133001.0 136872.0 29285.0 32677.0 164304.0 158857.0 56337.0 50288.0 173094.0 173885.0 168813.0 163276.0 88461.0 121085.0 88461.0 88461.0 88461.0 88461.0 121085.0 121085.0 121085.0 121085.0
343852.0 336628.0 105294.0 103898.0 321451.0 328304.0 336257.0 328322.0 133634.0 128035.0 109335.0 102840.0 145992.0 152590.0 90823.0 85005.0 87178.0 84264.0 0.0 8039.0 17643.0 16822.0 234787.0 236958.0 79203.0 79555.0 263359.0 256908.0 205232.0 210744.0 108113.0 114170.0 232236.0 225412.0 138860.0 131623.0 239138.0 241751.0 238027.0 234010.0 44275.0 173963.0 44275.0 44275.0 44275.0 44275.0 173963.0 173963.0 173963.0 173963.0
349283.0 342059.0 103511.0 101527.0 326882.0 333735.0 341688.0 333753.0 134053.0 128123.0 108145.0 101316.0 150957.0 157358.0 88542.0 83232.0 88874.0 85291.0 8039.0 0.0 21604.0 17482.0 240218.0 242412.0 78204.0 79378.0 268240.0 261685.0 209236.0 214547.0 107630.0 114024.0 228962.0 222002.0 140752.0 133775.0 243976.0 246401.0 242512.0 238301.0 52073.0 179394.0 52073.0 52073.0 52073.0 52073.0 179394.0 179394.0 179394.0 179394.0
353699.0 346475.0 122905.0 121540.0 331298.0 338151.0 346104.0 338169.0 150338.0 144958.0 126827.0 120412.0 156639.0 163618.0 108466.0 102624.0 103052.0 100708.0 17643.0 21604.0 0.0 8263.0 244634.0 246834.0 96681.0 96734.0 273769.0 267556.0 217522.0 223369.0 125360.0 131247.0 249780.0 242920.0 154296.0 146805.0 249695.0 252702.0 249322.0 245696.0 46895.0 183810.0 46895.0 46895.0 46895.0 46895.0 183810.0 183810.0 183810.0 183810.0
358349.0 351125.0 120867.0 118988.0 335948.0 342800.0 350754.0 342819.0 150323.0 144627.0 125316.0 118599.0 161042.0 167844.0 105987.0 100573.0 103999.0 101047.0 16822.0 17482.0 8263.0 0.0 249283.0 251483.0 95269.0 96016.0 278356.0 272027.0 221117.0 226773.0 124471.0 130672.0 246381.0 239393.0 155661.0 148391.0 254203.0 257020.0 253466.0 249634.0 53539.0 188460.0 53539.0 53539.0 53539.0 53539.0 188460.0 188460.0 188460.0 188460.0
109587.0 102161.0 201359.0 209312.0 93851.0 100265.0 101650.0 93637.0 163546.0 170260.0 192815.0 198310.0 91318.0 86812.0 209276.0 204605.0 169726.0 177458.0 234787.0 240218.0 244634.0 249283.0 0.0 8300.0 198479.0 190729.0 42682.0 41635.0 64393.0 68623.0 183687.0 177451.0 263906.0 263740.0 137808.0 137437.0 32136.0 39554.0 44674.0 51001.0 219294.0 63526.0 219294.0 219294.0 219294.0 219294.0 63526.0 63526.0 63526.0 63526.0
109161.0 101520.0 200089.0 208078.0 97502.0 103529.0 100780.0 92635.0 161315.0 168223.0 191421.0 197157.0 92462.0 87365.0 208558.0 204149.0 169899.0 177525.0 236958.0 242412.0 246834.0 251483.0 8300.0 0.0 198334.0 190699.0 35143.0 33554.0 59505.0 63021.0 182434.0 175993.0 258815.0 258854.0 135814.0 135944.0 24084.0 31437.0 36841.0 43507.0 221494.0 67000.0 221494.0 221494.0 221494.0 221494.0 67000.0 67000.0 67000.0 67000.0
307491.0 299818.0 27245.0 28706.0 288817.0 295670.0 298991.0 290800.0 58081.0 51250.0 30147.0 24136.0 108618.0 111922.0 17561.0 9627.0 29453.0 21464.0 79203.0 78204.0 96681.0 95269.0 198479.0 198334.0 0.0 8151.0 216869.0 209501.0 152004.0 155351.0 29792.0 36829.0 157027.0 150864.0 71872.0 67326.0 193065.0 193520.0 188207.0 182364.0 92538.0 142547.0 92538.0 92538.0 92538.0 92538.0 142547.0 142547.0 142547.0 142547.0
299859.0 292208.0 30977.0 34146.0 280886.0 287739.0 291409.0 283227.0 54952.0 48763.0 31576.0 27254.0 100639.0 104075.0 24605.0 17012.0 21366.0 13402.0 79555.0 79378.0 96734.0 96016.0 190729.0 190699.0 8151.0 0.0 209730.0 202409.0 145189.0 148761.0 28652.0 34663.0 160366.0 154459.0 66253.0 61124.0 185836.0 186445.0 181238.0 175528.0 89435.0 134468.0 89435.0 89435.0 89435.0 89435.0 134468.0 134468.0 134468.0 134468.0
97606.0 89590.0 214547.0 222554.0 104152.0 108085.0 87943.0 79904.0 172781.0 180302.0 205551.0 212099.0 117369.0 110896.0 224938.0 221522.0 189928.0 197081.0 263359.0 268240.0 273769.0 278356.0 42682.0 35143.0 216869.0 209730.0 0.0 7751.0 66146.0 65290.0 197246.0 190153.0 255256.0 256394.0 148945.0 150966.0 24302.0 23540.0 29752.0 37139.0 248445.0 97988.0 248445.0 248445.0 248445.0 248445.0 97988.0 97988.0 97988.0 97988.0
105280.0 97262.0 206932.0 214936.0 110307.0 114526.0 95641.0 87582.0 165084.0 172617.0 197927.0 204508.0 110986.0 104336.0 217416.0 214065.0 182719.0 189819.0 256908.0 261685.0 267556.0 272027.0 41635.0 33554.0 209501.0 202409.0 7751.0 0.0 58488.0 57541.0 189658.0 182541.0 247987.0 249042.0 141325.0 143437.0 17897.0 15995.0 22018.0 29395.0 242216.0 93095.0 242216.0 242216.0 242216.0 242216.0 93095.0 93095.0 93095.0 93095.0
162071.0 154088.0 148473.0 156471.0 156887.0 162699.0 152736.0 144539.0 106687.0 114171.0 139456.0 146094.0 63979.0 56086.0 159205.0 156124.0 126276.0 133001.0 205232.0 209236.0 217522.0 221117.0 64393.0 59505.0 152004.0 145189.0 66146.0 58488.0 0.0 8078.0 131257.0 124087.0 199517.0 199418.0 82867.0 85279.0 44185.0 42641.0 36602.0 30363.0 192960.0 64459.0 192960.0 192960.0 192960.0 192960.0 64459.0 64459.0 64459.0 64459.0
162331.0 154320.0 150466.0 158422.0 159764.0 165308.0 152836.0 144693.0 107927.0 115575.0 141396.0 148268.0 71136.0 63179.0 161777.0 159050.0 130387.0 136872.0 210744.0 214547.0 223369.0 226773.0 68623.0 63021.0 155351.0 148761.0 65290.0 57541.0 8078.0 0.0 133497.0 126159.0 195880.0 196078.0 85057.0 88186.0 45121.0 42254.0 35570.0 28300.0 199086.0 72531.0 199086.0 199086.0 199086.0 199086.0 72531.0 72531.0 72531.0 72531.0
290901.0 283059.0 17672.0 25644.0 275913.0 282753.0 282003.0 273770.0 29283.0 21878.0 9609.0 14858.0 98609.0 99887.0 28814.0 28342.0 33122.0 29285.0 108113.0 107630.0 125360.0 124471.0 183687.0 182434.0 29792.0 28652.0 197246.0 189658.0 131257.0 133497.0 0.0 7778.0 135079.0 129735.0 48452.0 46615.0 174174.0 173707.0 167856.0 161385.0 116844.0 133594.0 116844.0 116844.0 116844.0 116844.0 133594.0 133594.0 133594.0 133594.0
284216.0 276352.0 24395.0 32408.0 269975.0 276828.0 275258.0 267023.0 21588.0 14426.0 15469.0 22139.0 93813.0 94605.0 36551.0 36038.0 34839.0 32677.0 114170.0 114024.0 131247.0 130672.0 177451.0 175993.0 36829.0 34663.0 190153.0 182541.0 124087.0 126159.0 7778.0 0.0 133262.0 128277.0 41220.0 40051.0 167226.0 166613.0 160688.0 154132.0 121091.0 128765.0 121091.0 121091.0 121091.0 121091.0 128765.0 128765.0 128765.0 128765.0
351420.0 343523.0 129826.0 129249.0 355480.0 360769.0 341524.0 333880.0 126903.0 126098.0 129175.0 133245.0 207974.0 204691.0 142228.0 149074.0 167883.0 164304.0 232236.0 228962.0 249780.0 246381.0 263906.0 258815.0 157027.0 160366.0 255256.0 247987.0 199517.0 195880.0 135079.0 133262.0 0.0 8092.0 147193.0 153637.0 239920.0 235356.0 228234.0 220221.0 249526.0 238506.0 249526.0 249526.0 249526.0 249526.0 238506.0 238506.0 238506.0 238506.0
352968.0 345042.0 123742.0 122840.0 355825.0 361249.0 343091.0 335377.0 123018.0 121774.0 123490.0 127255.0 205377.0 202370.0 135748.0 142731.0 162701.0 158857.0 225412.0 222002.0 242920.0 239393.0 263740.0 258854.0 150864.0 154459.0 256394.0 249042.0 199418.0 196078.0 129735.0 128277.0 8092.0 0.0 144160.0 150323.0 240453.0 236093.0 228973.0 220962.0 243402.0 236487.0 243402.0 243402.0 243402.0 243402.0 236487.0 236487.0 236487.0 236487.0
243424.0 235527.0 65608.0 73610.0 231080.0 237814.0 234376.0 226143.0 26005.0 32452.0 56607.0 63258.0 61822.0 60056.0 76786.0 74489.0 51886.0 56337.0 138860.0 140752.0 154296.0 155661.0 137808.0 135814.0 71872.0 66253.0 148945.0 141325.0 82867.0 85057.0 48452.0 41220.0 147193.0 144160.0 0.0 8448.0 126127.0 125406.0 119468.0 112940.0 135822.0 95068.0 135822.0 135822.0 135822.0 135822.0 95068.0 95068.0 95068.0 95068.0
244288.0 236445.0 64211.0 72221.0 230159.0 236999.0 235389.0 227155.0 29124.0 34127.0 55480.0 61440.0 57251.0 56477.0 73979.0 70892.0 45145.0 50288.0 131623.0 133775.0 146805.0 148391.0 137437.0 135944.0 67326.0 61124.0 150966.0 143437.0 85279.0 88186.0 46615.0 40051.0 153637.0 150323.0 8448.0 0.0 127688.0 127453.0 121787.0 115594.0 127741.0 91411.0 127741.0 127741.0 127741.0 127741.0 91411.0 91411.0 91411.0 91411.0
117896.0 109920.0 191607.0 199627.0 115679.0 120850.0 108600.0 100391.0 150555.0 157920.0 182675.0 189031.0 93172.0 86621.0 201562.0 197935.0 165870.0 173094.0 239138.0 243976.0 249695.0 254203.0 32136.0 24084.0 193065.0 185836.0 24302.0 17897.0 44185.0 45121.0 174174.0 167226.0 239920.0 240453.0 126127.0 127688.0 0.0 7469.0 13028.0 20470.0 224357.0 75676.0 224357.0 224357.0 224357.0 224357.0 75676.0 75676.0 75676.0 75676.0
120080.0 112068.0 191007.0 199014.0 120759.0 125641.0 110584.0 102439.0 149317.0 156812.0 182013.0 188560.0 96065.0 89183.0 201430.0 198070.0 166817.0 173885.0 241751.0 246401.0 252702.0 257020.0 39554.0 31437.0 193520.0 186445.0 23540.0 15995.0 42641.0 42254.0 173707.0 166613.0 235356.0 236093.0 125406.0 127453.0 7469.0 0.0 7123.0 15136.0 227389.0 80817.0 227389.0 227389.0 227389.0 227389.0 80817.0 80817.0 80817.0 80817.0
126882.0 118866.0 185071.0 193067.0 127821.0 132740.0 117335.0 109217.0 143087.0 150639.0 176049.0 182695.0 92857.0 85709.0 195750.0 192553.0 161861.0 168813.0 238027.0 242512.0 249322.0 253466.0 44674.0 36841.0 188207.0 181238.0 29752.0 22018.0 36602.0 35570.0 167856.0 160688.0 228234.0 228973.0 119468.0 121787.0 13028.0 7123.0 0.0 8013.0 224102.0 80125.0 224102.0 224102.0 224102.0 224102.0 80125.0 80125.0 80125.0 80125.0
134580.0 126561.0 178487.0 186464.0 135771.0 140729.0 124984.0 116895.0 136174.0 143789.0 169437.0 176198.0 89770.0 82347.0 189466.0 186463.0 156471.0 163276.0 234010.0 238301.0 245696.0 249634.0 51001.0 43507.0 182364.0 175528.0 37139.0 29395.0 30363.0 28300.0 161385.0 154132.0 220221.0 220962.0 112940.0 115594.0 20470.0 15136.0 8013.0 0.0 220667.0 80081.0 220667.0 220667.0 220667.0 220667.0 80081.0 80081.0 80081.0 80081.0
328359.0 321135.0 119700.0 120848.0 305958.0 312811.0 320764.0 312829.0 137159.0 133236.0 120994.0 116316.0 131325.0 138409.0 108311.0 100915.0 88120.0 88461.0 44275.0 52073.0 46895.0 53539.0 219294.0 221494.0 92538.0 89435.0 248445.0 242216.0 192960.0 199086.0 116844.0 121091.0 249526.0 243402.0 135822.0 127741.0 224357.0 227389.0 224102.0 220667.0 0.0 158470.0 0.0 0.0 0.0 0.0 158470.0 158470.0 158470.0 158470.0
171494.0 164411.0 150783.0 158330.0 149265.0 156118.0 164164.0 156343.0 120399.0 125451.0 143177.0 147199.0 34986.0 35028.0 155705.0 149917.0 113104.0 121085.0 173963.0 179394.0 183810.0 188460.0 63526.0 67000.0 142547.0 134468.0 97988.0 93095.0 64459.0 72531.0 133594.0 128765.0 238506.0 236487.0 95068.0 91411.0 75676.0 80817.0 80125.0 80081.0 158470.0 0.0 158470.0 158470.0 158470.0 158470.0 0.0 0.0 0.0 0.0
328359.0 321135.0 119700.0 120848.0 305958.0 312811.0 320764.0 312829.0 137159.0 133236.0 120994.0 116316.0 131325.0 138409.0 108311.0 100915.0 88120.0 88461.0 44275.0 52073.0 46895.0 53539.0 219294.0 221494.0 92538.0 89435.0 248445.0 242216.0 192960.0 199086.0 116844.0 121091.0 249526.0 243402.0 135822.0 127741.0 224357.0 227389.0 224102.0 220667.0 0.0 158470.0 0.0 0.0 0.0 0.0 158470.0 158470.0 158470.0 158470.0
328359.0 321135.0 119700.0 120848.0 305958.0 312811.0 320764.0 312829.0 137159.0 133236.0 120994.0 116316.0 131325.0 138409.0 108311.0 100915.0 88120.0 88461.0 44275.0 52073.0 46895.0 53539.0 219294.0 221494.0 92538.0 89435.0 248445.0 242216.0 192960.0 199086.0 116844.0 121091.0 249526.0 243402.0 135822.0 127741.0 224357.0 227389.0 224102.0 220667.0 0.0 158470.0 0.0 0.0 0.0 0.0 158470.0 158470.0 158470.0 158470.0
328359.0 321135.0 119700.0 120848.0 305958.0 312811.0 320764.0 312829.0 137159.0 133236.0 120994.0 116316.0 131325.0 138409.0 108311.0 100915.0 88120.0 88461.0 44275.0 52073.0 46895.0 53539.0 219294.0 221494.0 92538.0 89435.0 248445.0 242216.0 192960.0 199086.0 116844.0 121091.0 249526.0 243402.0 135822.0 127741.0 224357.0 227389.0 224102.0 220667.0 0.0 158470.0 0.0 0.0 0.0 0.0 158470.0 158470.0 158470.0 158470.0
328359.0 321135.0 119700.0 120848.0 305958.0 312811.0 320764.0 312829.0 137159.0 133236.0 120994.0 116316.0 131325.0 138409.0 108311.0 100915.0 88120.0 88461.0 44275.0 52073.0 46895.0 53539.0 219294.0 221494.0 92538.0 89435.0 248445.0 242216.0 192960.0 199086.0 116844.0 121091.0 249526.0 243402.0 135822.0 127741.0 224357.0 227389.0 224102.0 220667.0 0.0 158470.0 0.0 0.0 0.0 0.0 158470.0 158470.0 158470.0 158470.0
171494.0 164411.0 150783.0 158330.0 149265.0 156118.0 164164.0 156343.0 120399.0 125451.0 143177.0 147199.0 34986.0 35028.0 155705.0 149917.0 113104.0 121085.0 173963.0 179394.0 183810.0 188460.0 63526.0 67000.0 142547.0 134468.0 97988.0 93095.0 64459.0 72531.0 133594.0 128765.0 238506.0 236487.0 95068.0 91411.0 75676.0 80817.0 80125.0 80081.0 158470.0 0.0 158470.0 158470.0 158470.0 158470.0 0.0 0.0 0.0 0.0
171494.0 164411.0 150783.0 158330.0 149265.0 156118.0 164164.0 156343.0 120399.0 125451.0 143177.0 147199.0 34986.0 35028.0 155705.0 149917.0 113104.0 121085.0 173963.0 179394.0 183810.0 188460.0 63526.0 67000.0 142547.0 134468.0 97988.0 93095.0 64459.0 72531.0 133594.0 128765.0 238506.0 236487.0 95068.0 91411.0 75676.0 80817.0 80125.0 80081.0 158470.0 0.0 158470.0 158470.0 158470.0 158470.0 0.0 0.0 0.0 0.0
171494.0 164411.0 150783.0 158330.0 149265.0 156118.0 164164.0 156343.0 120399.0 125451.0 143177.0 147199.0 34986.0 35028.0 155705.0 149917.0 113104.0 121085.0 173963.0 179394.0 183810.0 188460.0 63526.0 67000.0 142547.0 134468.0 97988.0 93095.0 64459.0 72531.0 133594.0 128765.0 238506.0 236487.0 95068.0 91411.0 75676.0 80817.0 80125.0 80081.0 158470.0 0.0 158470.0 158470.0 158470.0 158470.0 0.0 0.0 0.0 0.0
171494.0 164411.0 150783.0 158330.0 149265.0 156118.0 164164.0 156343.0 120399.0 125451.0 143177.0 147199.0 34986.0 35028.0 155705.0 149917.0 113104.0 121085.0 173963.0 179394.0 183810.0 188460.0 63526.0 67000.0 142547.0 134468.0 97988.0 93095.0 64459.0 72531.0 133594.0 128765.0 238506.0 236487.0 95068.0 91411.0 75676.0 80817.0 80125.0 80081.0 158470.0 0.0 158470.0 158470.0 158470.0 158470.0 0.0 0.0 0.0 0.0
FIXED_EDGES_SECTION
1 2
3 4
5 6
7 8
9 10
11 12
13 14
15 16
17 18
19 20
21 22
23 24
25 26
27 28
29 30
31 32
33 34
35 36
37 38
39 40
-1 
DEMAND_SECTION
1 229
2 229
3 96
4 96
5 280
6 280
7 421
8 421
9 90
10 90
11 541
12 541
13 100
14 100
15 341
16 341
17 56
18 56
19 104
20 104
21 292
22 292
23 563
24 563
25 171
26 171
27 244
28 244
29 84
30 84
31 191
32 191
33 380
34 380
35 119
36 119
37 620
38 620
39 336
40 336
41 0
42 0
43 0
44 0
45 0
46 0
47 0
48 0
49 0
50 0
DEPOT_SECTION
41 
-1 
CAPACITIES_SECTION
2500 
2750 
3000 
-1 
EOF