NAME: GFS_20_1
TYPE: GFSP
DIMENSION: 50
VEHICLES: 3
CAPACITY: 2500.0
TRIP_DIST_LIMIT: 600000.0
TOTAL_DIST_LIMIT: 1400000.0
EDGE_WEIGHT_TYPE: EXPLICIT
EDGE_WEIGHT_FORMAT: FULL_MATRIX
EDGE_WEIGHT_SECTION
0.0 8189.0 198634.0 199627.0 104994.0 112164.0 50482.0 43191.0 265843.0 261011.0 86820.0 79349.0 271476.0 272075.0 163727.0 157518.0 30323.0 22906.0 50752.0 47701.0 68233.0 69524.0 241144.0 247176.0 75722.0 72812.0 42378.0 42846.0 62156.0 56800.0 290742.0 297595.0 110632.0 114893.0 83211.0 89963.0 137419.0 133291.0 54323.0 57979.0 78028.0 143376.0 78028.0 78028.0 78028.0 78028.0 143376.0 143376.0 143376.0 143376.0
8189.0 0.0 206120.0 207229.0 109557.0 116962.0 45297.0 38573.0 272590.0 267867.0 94954.0 87428.0 278116.0 278582.0 169806.0 163436.0 34382.0 27860.0 58085.0 54460.0 61479.0 63339.0 248524.0 254478.0 79283.0 75628.0 48055.0 47388.0 54532.0 49580.0 297189.0 304042.0 117336.0 121857.0 91398.0 98148.0 140763.0 136235.0 48052.0 51062.0 74759.0 149722.0 74759.0 74759.0 74759.0 74759.0 149722.0 149722.0 149722.0 149722.0
198634.0 206120.0 0.0 7469.0 211974.0 210819.0 219994.0 213615.0 79539.0 72372.0 132428.0 140342.0 87382.0 91543.0 203145.0 204872.0 201562.0 197935.0 172762.0 180758.0 242769.0 238309.0 42998.0 49860.0 214272.0 220045.0 191607.0 199627.0 260650.0 255413.0 115679.0 120850.0 93172.0 86621.0 128969.0 120502.0 245130.0 248570.0 229535.0 237039.0 224357.0 75676.0 224357.0 224357.0 224357.0 224357.0 75676.0 75676.0 75676.0 75676.0
199627.0 207229.0 7469.0 0.0 209190.0 207767.0 222555.0 216023.0 83679.0 76255.0 130903.0 138984.0 91704.0 96258.0 198274.0 200220.0 201430.0 198070.0 172017.0 180022.0 245447.0 241166.0 44020.0 51456.0 212574.0 218539.0 191007.0 199014.0 261746.0 256326.0 120759.0 125641.0 96065.0 89183.0 127913.0 119432.0 241771.0 245421.0 232024.0 239461.0 227389.0 80817.0 227389.0 227389.0 227389.0 227389.0 80817.0 80817.0 80817.0 80817.0
104994.0 109557.0 211974.0 209190.0 0.0 8262.0 154854.0 147962.0 290859.0 284050.0 84209.0 78702.0 298308.0 301466.0 67926.0 60302.0 75176.0 82118.0 65784.0 62789.0 169143.0 172156.0 252834.0 260519.0 32456.0 39380.0 63304.0 62234.0 132698.0 124395.0 323680.0 329932.0 158018.0 156680.0 91124.0 98196.0 38017.0 38385.0 156964.0 158588.0 182844.0 191700.0 182844.0 182844.0 182844.0 182844.0 191700.0 191700.0 191700.0 191700.0
112164.0 116962.0 210819.0 207767.0 8262.0 0.0 162236.0 155247.0 289997.0 283073.0 85445.0 80613.0 297547.0 300890.0 59746.0 52090.0 82601.0 89356.0 71036.0 68724.0 176886.0 179777.0 251181.0 258938.0 40628.0 47635.0 70138.0 69576.0 140944.0 132639.0 323415.0 329538.0 160328.0 158595.0 92846.0 99494.0 35672.0 37848.0 164555.0 166324.0 189830.0 193544.0 189830.0 189830.0 189830.0 189830.0 193544.0 193544.0 193544.0 193544.0
50482.0 45297.0 219994.0 222555.0 154854.0 162236.0 0.0 8000.0 278678.0 274516.0 129597.0 123410.0 283821.0 284030.0 214115.0 207970.0 79678.0 72949.0 99906.0 97813.0 23163.0 20893.0 260338.0 265282.0 124369.0 120269.0 92829.0 92662.0 62932.0 64129.0 302593.0 309446.0 126882.0 133415.0 123921.0 128870.0 185563.0 180699.0 9783.0 17574.0 33292.0 155105.0 33292.0 33292.0 33292.0 33292.0 155105.0 155105.0 155105.0 155105.0
43191.0 38573.0 213615.0 216023.0 147962.0 155247.0 8000.0 0.0 272944.0 268782.0 121610.0 115410.0 278087.0 278296.0 206581.0 200503.0 72842.0 65892.0 92130.0 90216.0 30581.0 28857.0 254265.0 259338.0 117852.0 114042.0 85565.0 85729.0 63128.0 63278.0 296859.0 303712.0 120644.0 126994.0 115972.0 120984.0 179269.0 174600.0 16165.0 23438.0 35337.0 149371.0 35337.0 35337.0 35337.0 35337.0 149371.0 149371.0 149371.0 149371.0
265843.0 272590.0 79539.0 83679.0 290859.0 289997.0 278678.0 272944.0 0.0 7962.0 209498.0 216959.0 8332.0 14879.0 281803.0 283866.0 273670.0 269033.0 247353.0 255225.0 300965.0 296108.0 46516.0 39065.0 291165.0 296430.0 265516.0 273492.0 326272.0 322081.0 39872.0 43059.0 155254.0 151100.0 204998.0 196694.0 324527.0 327808.0 288399.0 296091.0 282043.0 124850.0 282043.0 282043.0 282043.0 282043.0 124850.0 124850.0 124850.0 124850.0
261011.0 267867.0 72372.0 76255.0 284050.0 283073.0 274516.0 268782.0 7962.0 0.0 203099.0 210655.0 16285.0 22671.0 274212.0 276343.0 268172.0 263677.0 241436.0 249337.0 296803.0 291945.0 38558.0 31153.0 284864.0 290235.0 259730.0 267722.0 321747.0 317411.0 47798.0 51003.0 150577.0 146140.0 198783.0 190438.0 317487.0 320860.0 284237.0 291929.0 277881.0 121060.0 277881.0 277881.0 277881.0 277881.0 121060.0 121060.0 121060.0 121060.0
86820.0 94954.0 132428.0 130903.0 84209.0 85445.0 129597.0 121610.0 209498.0 203099.0 0.0 8574.0 216607.0 219245.0 106586.0 103599.0 76242.0 75511.0 43732.0 51451.0 151288.0 150462.0 174891.0 182139.0 81874.0 87648.0 62874.0 70564.0 144989.0 137937.0 240689.0 247199.0 75984.0 73495.0 8902.0 14049.0 121112.0 122528.0 136533.0 141969.0 146755.0 108273.0 146755.0 146755.0 146755.0 146755.0 108273.0 108273.0 108273.0 108273.0
79349.0 87428.0 140342.0 138984.0 78702.0 80613.0 123410.0 115410.0 216959.0 210655.0 8574.0 0.0 223980.0 226476.0 106532.0 102960.0 67758.0 67217.0 35171.0 42877.0 144741.0 144207.0 182932.0 190121.0 74211.0 79725.0 54301.0 61993.0 136801.0 129673.0 247639.0 254242.0 79765.0 78030.0 12502.0 20344.0 116148.0 117087.0 130032.0 135240.0 141709.0 113029.0 141709.0 141709.0 141709.0 141709.0 113029.0 113029.0 113029.0 113029.0
271476.0 278116.0 87382.0 91704.0 298308.0 297547.0 283821.0 278087.0 8332.0 16285.0 216607.0 223980.0 0.0 7469.0 289912.0 291922.0 279928.0 275161.0 254011.0 261852.0 306107.0 301250.0 54816.0 47301.0 298157.0 303326.0 272044.0 280003.0 331585.0 327534.0 31693.0 34728.0 160844.0 156959.0 211945.0 203681.0 332173.0 335375.0 293541.0 301234.0 287186.0 129679.0 287186.0 287186.0 287186.0 287186.0 129679.0 129679.0 129679.0 129679.0
272075.0 278582.0 91543.0 96258.0 301466.0 300890.0 284030.0 278296.0 14879.0 22671.0 219245.0 226476.0 7469.0 0.0 294522.0 296377.0 281304.0 276370.0 255949.0 263742.0 306316.0 301459.0 61101.0 53812.0 300565.0 305582.0 273790.0 281720.0 331771.0 327887.0 25269.0 29390.0 161520.0 157964.0 214338.0 206144.0 335689.0 338735.0 293750.0 301443.0 287395.0 129575.0 287395.0 287395.0 287395.0 287395.0 129575.0 129575.0 129575.0 129575.0
163727.0 169806.0 203145.0 198274.0 67926.0 59746.0 214115.0 206581.0 281803.0 274212.0 106586.0 106532.0 289912.0 294522.0 0.0 7871.0 136530.0 142053.0 115320.0 116389.0 231141.0 233112.0 238281.0 246331.0 99416.0 106923.0 121769.0 123609.0 199767.0 191445.0 318823.0 323894.0 179700.0 175461.0 115485.0 118526.0 68714.0 76632.0 217837.0 220623.0 238750.0 207941.0 238750.0 238750.0 238750.0 238750.0 207941.0 207941.0 207941.0 207941.0
157518.0 163436.0 204872.0 200220.0 60302.0 52090.0 207970.0 200503.0 283866.0 276343.0 103599.0 102960.0 291922.0 296377.0 7871.0 0.0 129917.0 135622.0 109738.0 110430.0 224656.0 226773.0 240837.0 248874.0 92011.0 99433.0 115381.0 116933.0 192438.0 184116.0 320498.0 325715.0 177731.0 173790.0 112465.0 116004.0 61312.0 69120.0 211488.0 214120.0 233058.0 206777.0 233058.0 233058.0 233058.0 233058.0 206777.0 206777.0 206777.0 206777.0
30323.0 34382.0 201562.0 201430.0 75176.0 82601.0 79678.0 72842.0 273670.0 268172.0 76242.0 67758.0 279928.0 281304.0 136530.0 129917.0 0.0 7955.0 32901.0 26141.0 94821.0 97323.0 244556.0 251196.0 45399.0 42780.0 15984.0 13089.0 70662.0 62997.0 300591.0 307444.0 121137.0 123625.0 75749.0 83871.0 107098.0 103052.0 82059.0 84266.0 108311.0 155705.0 108311.0 108311.0 108311.0 108311.0 155705.0 155705.0 155705.0 155705.0
22906.0 27860.0 197935.0 198070.0 82118.0 89356.0 72949.0 65892.0 269033.0 263677.0 75511.0 67217.0 275161.0 276370.0 142053.0 135622.0 7955.0 0.0 33636.0 28213.0 89094.0 91183.0 240888.0 247394.0 53022.0 50671.0 20301.0 19940.0 69683.0 62458.0 295486.0 302339.0 115603.0 118462.0 74096.0 81938.0 114711.0 110804.0 75894.0 78591.0 100915.0 149917.0 100915.0 100915.0 100915.0 100915.0 149917.0 149917.0 149917.0 149917.0
50752.0 58085.0 172762.0 172017.0 65784.0 71036.0 99906.0 92130.0 247353.0 241436.0 43732.0 35171.0 254011.0 255949.0 115320.0 109738.0 32901.0 33636.0 0.0 8006.0 118913.0 119806.0 215676.0 222614.0 47951.0 51009.0 19251.0 27139.0 103083.0 95627.0 276028.0 282879.0 100056.0 100814.0 44401.0 52817.0 103066.0 101529.0 104771.0 108720.0 123436.0 135005.0 123436.0 123436.0 123436.0 123436.0 135005.0 135005.0 135005.0 135005.0
47701.0 54460.0 180758.0 180022.0 62789.0 68724.0 97813.0 90216.0 255225.0 249337.0 51451.0 42877.0 261852.0 263742.0 116389.0 110430.0 26141.0 28213.0 8006.0 0.0 115843.0 117213.0 223676.0 230607.0 41818.0 44102.0 11428.0 19190.0 96768.0 89136.0 283732.0 290585.0 107153.0 108173.0 52379.0 60806.0 99252.0 97150.0 102024.0 105488.0 122800.0 142135.0 122800.0 122800.0 122800.0 122800.0 142135.0 142135.0 142135.0 142135.0
68233.0 61479.0 242769.0 245447.0 169143.0 176886.0 23163.0 30581.0 300965.0 296803.0 151288.0 144741.0 306107.0 306316.0 231141.0 224656.0 94821.0 89094.0 118913.0 115843.0 0.0 7611.0 282812.0 287619.0 137482.0 132363.0 109390.0 107885.0 57865.0 61981.0 324880.0 331733.0 149603.0 156269.0 145998.0 151266.0 197233.0 191660.0 14782.0 10567.0 45843.0 177392.0 45843.0 45843.0 45843.0 45843.0 177392.0 177392.0 177392.0 177392.0
69524.0 63339.0 238309.0 241166.0 172156.0 179777.0 20893.0 28857.0 296108.0 291945.0 150462.0 144207.0 301250.0 301459.0 233112.0 226773.0 97323.0 91183.0 119806.0 117213.0 7611.0 0.0 277978.0 282766.0 140848.0 136049.0 111392.0 110411.0 64844.0 68560.0 320022.0 326875.0 145159.0 152002.0 144814.0 149739.0 201168.0 195806.0 15289.0 14943.0 38771.0 172534.0 38771.0 38771.0 38771.0 38771.0 172534.0 172534.0 172534.0 172534.0
241144.0 248524.0 42998.0 44020.0 252834.0 251181.0 260338.0 254265.0 46516.0 38558.0 174891.0 182932.0 54816.0 61101.0 238281.0 240837.0 244556.0 240888.0 215676.0 223676.0 282812.0 277978.0 0.0 8055.0 256592.0 262536.0 234564.0 242582.0 303020.0 297943.0 86327.0 89458.0 133677.0 127748.0 171739.0 163261.0 284801.0 288698.0 269992.0 277605.0 263929.0 110557.0 263929.0 263929.0 263929.0 263929.0 110557.0 110557.0 110557.0 110557.0
247176.0 254478.0 49860.0 51456.0 260519.0 258938.0 265282.0 259338.0 39065.0 31153.0 182139.0 190121.0 47301.0 53812.0 246331.0 248874.0 251196.0 247394.0 222614.0 230607.0 287619.0 282766.0 8055.0 0.0 263915.0 269785.0 241431.0 249452.0 308924.0 303966.0 78936.0 81813.0 138937.0 133255.0 178815.0 170344.0 292645.0 296492.0 274971.0 282621.0 268701.0 114448.0 268701.0 268701.0 268701.0 268701.0 114448.0 114448.0 114448.0 114448.0
75722.0 79283.0 214272.0 212574.0 32456.0 40628.0 124369.0 117852.0 291165.0 284864.0 81874.0 74211.0 298157.0 300565.0 99416.0 92011.0 45399.0 53022.0 47951.0 41818.0 137482.0 140848.0 256592.0 263915.0 0.0 8174.0 37321.0 33455.0 100463.0 92146.0 321407.0 328127.0 147675.0 147961.0 86229.0 94478.0 61702.0 57908.0 125785.0 126965.0 153675.0 182518.0 153675.0 153675.0 153675.0 153675.0 182518.0 182518.0 182518.0 182518.0
72812.0 75628.0 220045.0 218539.0 39380.0 47635.0 120269.0 114042.0 296430.0 290235.0 87648.0 79725.0 303326.0 305582.0 106923.0 99433.0 42780.0 50671.0 51009.0 44102.0 132363.0 136049.0 262536.0 269785.0 8174.0 0.0 37593.0 32207.0 93329.0 85032.0 326120.0 332929.0 151063.0 151741.0 91452.0 99815.0 65300.0 60611.0 121139.0 121908.0 150345.0 186013.0 150345.0 150345.0 150345.0 150345.0 186013.0 186013.0 186013.0 186013.0
42378.0 48055.0 191607.0 191007.0 63304.0 70138.0 92829.0 85565.0 265516.0 259730.0 62874.0 54301.0 272044.0 273790.0 121769.0 115381.0 15984.0 20301.0 19251.0 11428.0 109390.0 111392.0 234564.0 241431.0 37321.0 37593.0 0.0 8022.0 86395.0 78599.0 293553.0 300388.0 115828.0 117351.0 63615.0 72003.0 97829.0 94798.0 96106.0 98891.0 119700.0 150783.0 119700.0 119700.0 119700.0 119700.0 150783.0 150783.0 150783.0 150783.0
42846.0 47388.0 199627.0 199014.0 62234.0 69576.0 92662.0 85729.0 273492.0 267722.0 70564.0 61993.0 280003.0 281720.0 123609.0 116933.0 13089.0 19940.0 27139.0 19190.0 107885.0 110411.0 242582.0 249452.0 33455.0 32207.0 8022.0 0.0 80965.0 72978.0 301433.0 308258.0 123411.0 125088.0 71539.0 79946.0 94997.0 91362.0 95145.0 97325.0 120848.0 158330.0 120848.0 120848.0 120848.0 120848.0 158330.0 158330.0 158330.0 158330.0
62156.0 54532.0 260650.0 261746.0 132698.0 140944.0 62932.0 63128.0 326272.0 321747.0 144989.0 136801.0 331585.0 331771.0 199767.0 192438.0 70662.0 69683.0 103083.0 96768.0 57865.0 64844.0 303020.0 308924.0 100463.0 93329.0 86395.0 80965.0 0.0 8322.0 350298.0 357151.0 171191.0 176043.0 142879.0 150296.0 153327.0 146526.0 56137.0 51019.0 96105.0 202888.0 96105.0 96105.0 96105.0 96105.0 202888.0 202888.0 202888.0 202888.0
56800.0 49580.0 255413.0 256326.0 124395.0 132639.0 64129.0 63278.0 322081.0 317411.0 137937.0 129673.0 327534.0 327887.0 191445.0 184116.0 62997.0 62458.0 95627.0 89136.0 61981.0 68560.0 297943.0 303966.0 92146.0 85032.0 78599.0 72978.0 8322.0 0.0 346449.0 353302.0 166848.0 171436.0 136113.0 143668.0 145372.0 138660.0 58344.0 54123.0 97414.0 198964.0 97414.0 97414.0 97414.0 97414.0 198964.0 198964.0 198964.0 198964.0
290742.0 297189.0 115679.0 120759.0 323680.0 323415.0 302593.0 296859.0 39872.0 47798.0 240689.0 247639.0 31693.0 25269.0 318823.0 320498.0 300591.0 295486.0 276028.0 283732.0 324880.0 320022.0 86327.0 78936.0 321407.0 326120.0 293553.0 301433.0 350298.0 346449.0 0.0 8022.0 180298.0 177025.0 235343.0 227303.0 358460.0 361253.0 312314.0 320006.0 305958.0 149265.0 305958.0 305958.0 305958.0 305958.0 149265.0 149265.0 149265.0 149265.0
297595.0 304042.0 120850.0 125641.0 329932.0 329538.0 309446.0 303712.0 43059.0 51003.0 247199.0 254242.0 34728.0 29390.0 323894.0 325715.0 307444.0 302339.0 282879.0 290585.0 331733.0 326875.0 89458.0 81813.0 328127.0 332929.0 300388.0 308258.0 357151.0 353302.0 8022.0 0.0 187151.0 183878.0 241989.0 233899.0 364478.0 367384.0 319167.0 326859.0 312811.0 156118.0 312811.0 312811.0 312811.0 312811.0 156118.0 156118.0 156118.0 156118.0
110632.0 117336.0 93172.0 96065.0 158018.0 160328.0 126882.0 120644.0 155254.0 150577.0 75984.0 79765.0 160844.0 161520.0 179700.0 177731.0 121137.0 115603.0 100056.0 107153.0 149603.0 145159.0 133677.0 138937.0 147675.0 151063.0 115828.0 123411.0 171191.0 166848.0 180298.0 187151.0 0.0 8000.0 67811.0 62381.0 195754.0 196291.0 136469.0 144028.0 131325.0 34986.0 131325.0 131325.0 131325.0 131325.0 34986.0 34986.0 34986.0 34986.0
114893.0 121857.0 86621.0 89183.0 156680.0 158595.0 133415.0 126994.0 151100.0 146140.0 73495.0 78030.0 156959.0 157964.0 175461.0 173790.0 123625.0 118462.0 100814.0 108173.0 156269.0 152002.0 127748.0 133255.0 147961.0 151741.0 117351.0 125088.0 176043.0 171436.0 177025.0 183878.0 8000.0 0.0 65753.0 59585.0 194171.0 195046.0 142929.0 150421.0 138409.0 35028.0 138409.0 138409.0 138409.0 138409.0 35028.0 35028.0 35028.0 35028.0
83211.0 91398.0 128969.0 127913.0 91124.0 92846.0 123921.0 115972.0 204998.0 198783.0 8902.0 12502.0 211945.0 214338.0 115485.0 112465.0 75749.0 74096.0 44401.0 52379.0 145998.0 144814.0 171739.0 178815.0 86229.0 91452.0 63615.0 71539.0 142879.0 136113.0 235343.0 241989.0 67811.0 65753.0 0.0 8481.0 128444.0 129508.0 131217.0 136943.0 139943.0 100704.0 139943.0 139943.0 139943.0 139943.0 100704.0 100704.0 100704.0 100704.0
89963.0 98148.0 120502.0 119432.0 98196.0 99494.0 128870.0 120984.0 196694.0 190438.0 14049.0 20344.0 203681.0 206144.0 118526.0 116004.0 83871.0 81938.0 52817.0 60806.0 151266.0 149739.0 163261.0 170344.0 94478.0 99815.0 72003.0 79946.0 150296.0 143668.0 227303.0 233899.0 62381.0 59585.0 8481.0 0.0 135160.0 136537.0 136495.0 142467.0 143565.0 94275.0 143565.0 143565.0 143565.0 143565.0 94275.0 94275.0 94275.0 94275.0
137419.0 140763.0 245130.0 241771.0 38017.0 35672.0 185563.0 179269.0 324527.0 317487.0 121112.0 116148.0 332173.0 335689.0 68714.0 61312.0 107098.0 114711.0 103066.0 99252.0 197233.0 201168.0 284801.0 292645.0 61702.0 65300.0 97829.0 94997.0 153327.0 145372.0 358460.0 364478.0 195754.0 194171.0 128444.0 135160.0 0.0 8425.0 186351.0 186859.0 215326.0 229147.0 215326.0 215326.0 215326.0 215326.0 229147.0 229147.0 229147.0 229147.0
133291.0 136235.0 248570.0 245421.0 38385.0 37848.0 180699.0 174600.0 327808.0 320860.0 122528.0 117087.0 335375.0 338735.0 76632.0 69120.0 103052.0 110804.0 101529.0 97150.0 191660.0 195806.0 288698.0 296492.0 57908.0 60611.0 94798.0 91362.0 146526.0 138660.0 361253.0 367384.0 196291.0 195046.0 129508.0 136537.0 8425.0 0.0 181128.0 181360.0 210954.0 230070.0 210954.0 210954.0 210954.0 210954.0 230070.0 230070.0 230070.0 230070.0
54323.0 48052.0 229535.0 232024.0 156964.0 164555.0 9783.0 16165.0 288399.0 284237.0 136533.0 130032.0 293541.0 293750.0 217837.0 211488.0 82059.0 75894.0 104771.0 102024.0 14782.0 15289.0 269992.0 274971.0 125785.0 121139.0 96106.0 95145.0 56137.0 58344.0 312314.0 319167.0 136469.0 142929.0 131217.0 136495.0 186351.0 181128.0 0.0 7799.0 40422.0 164826.0 40422.0 40422.0 40422.0 40422.0 164826.0 164826.0 164826.0 164826.0
57979.0 51062.0 237039.0 239461.0 158588.0 166324.0 17574.0 23438.0 296091.0 291929.0 141969.0 135240.0 301234.0 301443.0 220623.0 214120.0 84266.0 78591.0 108720.0 105488.0 10567.0 14943.0 277605.0 282621.0 126965.0 121908.0 98891.0 97325.0 51019.0 54123.0 320006.0 326859.0 144028.0 150421.0 136943.0 142467.0 186859.0 181360.0 7799.0 0.0 47048.0 172518.0 47048.0 47048.0 47048.0 47048.0 172518.0 172518.0 172518.0 172518.0
78028.0 74759.0 224357.0 227389.0 182844.0 189830.0 33292.0 35337.0 282043.0 277881.0 146755.0 141709.0 287186.0 287395.0 238750.0 233058.0 108311.0 100915.0 123436.0 122800.0 45843.0 38771.0 263929.0 268701.0 153675.0 150345.0 119700.0 120848.0 96105.0 97414.0 305958.0 312811.0 131325.0 138409.0 139943.0 143565.0 215326.0 210954.0 40422.0 47048.0 0.0 158470.0 0.0 0.0 0.0 0.0 158470.0 158470.0 158470.0 158470.0
143376.0 149722.0 75676.0 80817.0 191700.0 193544.0 155105.0 149371.0 124850.0 121060.0 108273.0 113029.0 129679.0 129575.0 207941.0 206777.0 155705.0 149917.0 135005.0 142135.0 177392.0 172534.0 110557.0 114448.0 182518.0 186013.0 150783.0 158330.0 202888.0 198964.0 149265.0 156118.0 34986.0 35028.0 100704.0 94275.0 229147.0 230070.0 164826.0 172518.0 158470.0 0.0 158470.0 158470.0 158470.0 158470.0 0.0 0.0 0.0 0.0
78028.0 74759.0 224357.0 227389.0 182844.0 189830.0 33292.0 35337.0 282043.0 277881.0 146755.0 141709.0 287186.0 287395.0 238750.0 233058.0 108311.0 100915.0 123436.0 122800.0 45843.0 38771.0 263929.0 268701.0 153675.0 150345.0 119700.0 120848.0 96105.0 97414.0 305958.0 312811.0 131325.0 138409.0 139943.0 143565.0 215326.0 210954.0 40422.0 47048.0 0.0 158470.0 0.0 0.0 0.0 0.0 158470.0 158470.0 158470.0 158470.0
78028.0 74759.0 224357.0 227389.0 182844.0 189830.0 33292.0 35337.0 282043.0 277881.0 146755.0 141709.0 287186.0 287395.0 238750.0 233058.0 108311.0 100915.0 123436.0 122800.0 45843.0 38771.0 263929.0 268701.0 153675.0 150345.0 119700.0 120848.0 96105.0 97414.0 305958.0 312811.0 131325.0 138409.0 139943.0 143565.0 215326.0 210954.0 40422.0 47048.0 0.0 158470.0 0.0 0.0 0.0 0.0 158470.0 158470.0 158470.0 158470.0
78028.0 74759.0 224357.0 227389.0 182844.0 189830.0 33292.0 35337.0 282043.0 277881.0 146755.0 141709.0 287186.0 287395.0 238750.0 233058.0 108311.0 100915.0 123436.0 122800.0 45843.0 38771.0 263929.0 268701.0 153675.0 150345.0 119700.0 120848.0 96105.0 97414.0 305958.0 312811.0 131325.0 138409.0 139943.0 143565.0 215326.0 210954.0 40422.0 47048.0 0.0 158470.0 0.0 0.0 0.0 0.0 158470.0 158470.0 158470.0 158470.0
78028.0 74759.0 224357.0 227389.0 182844.0 189830.0 33292.0 35337.0 282043.0 277881.0 146755.0 141709.0 287186.0 287395.0 238750.0 233058.0 108311.0 100915.0 123436.0 122800.0 45843.0 38771.0 263929.0 268701.0 153675.0 150345.0 119700.0 120848.0 96105.0 97414.0 305958.0 312811.0 131325.0 138409.0 139943.0 143565.0 215326.0 210954.0 40422.0 47048.0 0.0 158470.0 0.0 0.0 0.0 0.0 158470.0 158470.0 158470.0 158470.0
143376.0 149722.0 75676.0 80817.0 191700.0 193544.0 155105.0 149371.0 124850.0 121060.0 108273.0 113029.0 129679.0 129575.0 207941.0 206777.0 155705.0 149917.0 135005.0 142135.0 177392.0 172534.0 110557.0 114448.0 182518.0 186013.0 150783.0 158330.0 202888.0 198964.0 149265.0 156118.0 34986.0 35028.0 100704.0 94275.0 229147.0 230070.0 164826.0 172518.0 158470.0 0.0 158470.0 158470.0 158470.0 158470.0 0.0 0.0 0.0 0.0
143376.0 149722.0 75676.0 80817.0 191700.0 193544.0 155105.0 149371.0 124850.0 121060.0 108273.0 113029.0 129679.0 129575.0 207941.0 206777.0 155705.0 149917.0 135005.0 142135.0 177392.0 172534.0 110557.0 114448.0 182518.0 186013.0 150783.0 158330.0 202888.0 198964.0 149265.0 156118.0 34986.0 35028.0 100704.0 94275.0 229147.0 230070.0 164826.0 172518.0 158470.0 0.0 158470.0 158470.0 158470.0 158470.0 0.0 0.0 0.0 0.0
143376.0 149722.0 75676.0 80817.0 191700.0 193544.0 155105.0 149371.0 124850.0 121060.0 108273.0 113029.0 129679.0 129575.0 207941.0 206777.0 155705.0 149917.0 135005.0 142135.0 177392.0 172534.0 110557.0 114448.0 182518.0 186013.0 150783.0 158330.0 202888.0 198964.0 149265.0 156118.0 34986.0 35028.0 100704.0 94275.0 229147.0 230070.0 164826.0 172518.0 158470.0 0.0 158470.0 158470.0 158470.0 158470.0 0.0 0.0 0.0 0.0
143376.0 149722.0 75676.0 80817.0 191700.0 193544.0 155105.0 149371.0 124850.0 121060.0 108273.0 113029.0 129679.0 129575.0 207941.0 206777.0 155705.0 149917.0 135005.0 142135.0 177392.0 172534.0 110557.0 114448.0 182518.0 186013.0 150783.0 158330.0 202888.0 198964.0 149265.0 156118.0 34986.0 35028.0 100704.0 94275.0 229147.0 230070.0 164826.0 172518.0 158470.0 0.0 158470.0 158470.0 158470.0 158470.0 0.0 0.0 0.0 0.0
FIXED_EDGES_SECTION
1 2
3 4
5 6
7 8
9 10
11 12
13 14
15 16
17 18
19 20
21 22
23 24
25 26
27 28
29 30
31 32
33 34
35 36
37 38
39 40
-1 
DEMAND_SECTION
1 394
2 394
3 620
4 620
5 74
6 74
7 485
8 485
9 322
10 322
11 271
12 271
13 60
14 60
15 277
16 277
17 341
18 341
19 256
20 256
21 341
22 341
23 350
24 350
25 211
26 211
27 96
28 96
29 375
30 375
31 280
32 280
33 100
34 100
35 421
36 421
37 76
38 76
39 618
40 618
41 0
42 0
43 0
44 0
45 0
46 0
47 0
48 0
49 0
50 0
DEPOT_SECTION
41 
-1 
CAPACITIES_SECTION
2500 
2750 
3000 
-1 
EOF