NAME: GFS_20_1
TYPE: GFSP
DIMENSION: 48
VEHICLES: 3
CAPACITY: 2500.0
TRIP_DIST_LIMIT: 600000.0
TOTAL_DIST_LIMIT: 1400000.0
EDGE_WEIGHT_TYPE: EXPLICIT
EDGE_WEIGHT_FORMAT: FULL_MATRIX
EDGE_WEIGHT_SECTION
0.0 7995.0 145088.0 140063.0 73610.0 77671.0 83978.0 85778.0 248289.0 241609.0 32612.0 38864.0 250925.0 247450.0 336985.0 329050.0 241660.0 235405.0 306028.0 313913.0 147117.0 155087.0 229658.0 226375.0 122268.0 126829.0 330391.0 328451.0 143507.0 149145.0 286951.0 284999.0 187618.0 194874.0 127804.0 125520.0 120064.0 119339.0 58400.0 65773.0 36893.0 174691.0 36893.0 36893.0 36893.0 174691.0 174691.0 174691.0
7995.0 0.0 146617.0 141932.0 81202.0 84998.0 91881.0 93542.0 252608.0 246053.0 40607.0 46807.0 254870.0 251195.0 334334.0 326399.0 244893.0 238786.0 303378.0 311262.0 147717.0 155735.0 227021.0 223734.0 122243.0 126376.0 327740.0 325800.0 145055.0 150348.0 290382.0 288626.0 190563.0 197661.0 130367.0 128536.0 123676.0 123413.0 66395.0 73761.0 31861.0 172040.0 31861.0 31861.0 31861.0 172040.0 172040.0 172040.0
145088.0 146617.0 0.0 7905.0 127297.0 120025.0 142616.0 135336.0 126903.0 123018.0 143751.0 139022.0 123656.0 117686.0 259091.0 250867.0 106137.0 101877.0 236050.0 243113.0 17275.0 19296.0 137553.0 130552.0 35170.0 38881.0 263076.0 262534.0 1610.0 7250.0 151788.0 151970.0 52992.0 57502.0 24872.0 32440.0 43868.0 51501.0 147409.0 146254.0 137159.0 120399.0 137159.0 137159.0 137159.0 120399.0 120399.0 120399.0
140063.0 141932.0 7905.0 0.0 119843.0 112487.0 135010.0 127676.0 126098.0 121774.0 137465.0 132525.0 123713.0 118108.0 266390.0 258162.0 107599.0 102857.0 242946.0 250069.0 24044.0 27064.0 144911.0 137990.0 36494.0 41544.0 269871.0 269206.0 6723.0 15120.0 153488.0 153259.0 53334.0 58774.0 17052.0 24540.0 35967.0 43598.0 140365.0 139024.0 133236.0 125451.0 133236.0 133236.0 133236.0 125451.0 125451.0 125451.0
73610.0 81202.0 127297.0 119843.0 0.0 8322.0 17342.0 13869.0 196455.0 188882.0 44359.0 36518.0 202290.0 200722.0 364054.0 355962.0 199767.0 192438.0 334199.0 342055.0 137667.0 144100.0 248213.0 242902.0 122672.0 130113.0 358510.0 356570.0 125784.0 133815.0 241768.0 238151.0 151556.0 159749.0 103083.0 96768.0 86395.0 80965.0 26864.0 21636.0 96105.0 202888.0 96105.0 96105.0 96105.0 202888.0 202888.0 202888.0
77671.0 84998.0 120025.0 112487.0 8322.0 0.0 22878.0 16755.0 188297.0 180751.0 50205.0 42278.0 194042.0 192436.0 359523.0 351403.0 191445.0 184116.0 330135.0 337953.0 130863.0 137128.0 242883.0 237417.0 116850.0 124421.0 354622.0 352721.0 118530.0 126642.0 233477.0 229886.0 143333.0 151535.0 95627.0 89136.0 78599.0 72978.0 34900.0 29951.0 97414.0 198964.0 97414.0 97414.0 97414.0 198964.0 198964.0 198964.0
83978.0 91881.0 142616.0 135010.0 17342.0 22878.0 0.0 8114.0 203301.0 195522.0 52132.0 45155.0 210098.0 209122.0 381390.0 373296.0 209504.0 201988.0 351528.0 359387.0 153699.0 159901.0 265378.0 260004.0 139581.0 147097.0 375909.0 373969.0 141138.0 149306.0 250186.0 246123.0 163403.0 171649.0 118067.0 111358.0 100564.0 94490.0 27985.0 20072.0 110171.0 220209.0 110171.0 110171.0 110171.0 220209.0 220209.0 220209.0
85778.0 93542.0 135336.0 127676.0 13869.0 16755.0 8114.0 0.0 195395.0 187637.0 54954.0 47480.0 202096.0 201074.0 376268.0 368150.0 201395.0 193883.0 346808.0 354635.0 146774.0 152836.0 259586.0 254085.0 133443.0 141055.0 371221.0 369337.0 133875.0 142095.0 242142.0 238114.0 155354.0 163602.0 110686.0 103853.0 92954.0 86737.0 32787.0 25323.0 109736.0 215591.0 109736.0 109736.0 109736.0 215591.0 215591.0 215591.0
248289.0 252608.0 126903.0 126098.0 196455.0 188297.0 203301.0 195395.0 0.0 8092.0 233044.0 225801.0 13938.0 20806.0 341524.0 333880.0 38714.0 35253.0 328881.0 334431.0 139640.0 134817.0 228667.0 220673.0 161995.0 165583.0 356563.0 358214.0 127739.0 129024.0 51266.0 45137.0 74380.0 72051.0 129045.0 127709.0 129826.0 129249.0 223187.0 217890.0 249526.0 238506.0 249526.0 249526.0 249526.0 238506.0 238506.0 238506.0
241609.0 246053.0 123018.0 121774.0 188882.0 180751.0 195522.0 187637.0 8092.0 0.0 225861.0 218566.0 20347.0 25733.0 343091.0 335377.0 42115.0 37323.0 329614.0 335303.0 136381.0 131921.0 228982.0 220989.0 157951.0 161847.0 357332.0 358807.0 123775.0 125532.0 59230.0 53206.0 71185.0 69705.0 123841.0 122128.0 123742.0 122840.0 215649.0 210275.0 243402.0 236487.0 243402.0 243402.0 243402.0 236487.0 236487.0 236487.0
32612.0 40607.0 143751.0 137465.0 44359.0 50205.0 52132.0 54954.0 233044.0 225861.0 0.0 7927.0 237309.0 234750.0 355129.0 347194.0 231251.0 224421.0 324172.0 332057.0 149529.0 157078.0 245596.0 241451.0 128029.0 134069.0 348535.0 346595.0 142143.0 149035.0 275293.0 272504.0 179213.0 187027.0 122685.0 118506.0 110594.0 107758.0 25791.0 33265.0 64505.0 192835.0 64505.0 64505.0 64505.0 192835.0 192835.0 192835.0
38864.0 46807.0 139022.0 132525.0 36518.0 42278.0 45155.0 47480.0 225801.0 218566.0 7927.0 0.0 230262.0 227826.0 354969.0 347070.0 224655.0 217750.0 324089.0 331973.0 145540.0 152956.0 244425.0 240062.0 124940.0 131265.0 348451.0 346511.0 137419.0 144523.0 268468.0 265569.0 173036.0 180921.0 117358.0 112852.0 104554.0 101373.0 20478.0 27215.0 68264.0 192751.0 68264.0 68264.0 68264.0 192751.0 192751.0 192751.0
250925.0 254870.0 123656.0 123713.0 202290.0 194042.0 210098.0 202096.0 13938.0 20347.0 237309.0 230262.0 0.0 8030.0 329872.0 322301.0 26537.0 25062.0 318115.0 323506.0 135138.0 129713.0 218495.0 210513.0 158810.0 161793.0 345738.0 347586.0 124636.0 125027.0 40799.0 36042.0 70666.0 66908.0 128476.0 128004.0 131316.0 131587.0 228814.0 223863.0 250648.0 231534.0 250648.0 250648.0 250648.0 231534.0 231534.0 231534.0
247450.0 251195.0 117686.0 118108.0 200722.0 192436.0 209122.0 201074.0 20806.0 25733.0 234750.0 227826.0 8030.0 0.0 321873.0 314296.0 18525.0 17383.0 310087.0 315476.0 128642.0 123010.0 210502.0 202521.0 152773.0 155512.0 337709.0 339561.0 118722.0 118751.0 41079.0 37756.0 64820.0 60494.0 123674.0 123621.0 127520.0 128236.0 227072.0 222341.0 246410.0 224138.0 246410.0 246410.0 246410.0 224138.0 224138.0 224138.0
336985.0 334334.0 259091.0 266390.0 364054.0 359523.0 381390.0 376268.0 341524.0 343091.0 355129.0 354969.0 329872.0 321873.0 0.0 8235.0 303349.0 306293.0 37325.0 30334.0 242397.0 240126.0 121574.0 128799.0 245564.0 237610.0 37772.0 45511.0 259862.0 252097.0 326258.0 332561.0 285327.0 281789.0 280926.0 288895.0 299566.0 307585.0 372490.0 375535.0 320764.0 164164.0 320764.0 320764.0 320764.0 164164.0 164164.0 164164.0
329050.0 326399.0 250867.0 258162.0 355962.0 351403.0 373296.0 368150.0 333880.0 335377.0 347194.0 347070.0 322301.0 314296.0 8235.0 0.0 295771.0 298639.0 32114.0 26140.0 234167.0 231910.0 113360.0 120605.0 237356.0 229402.0 38521.0 45743.0 251636.0 243877.0 319152.0 325391.0 277297.0 273810.0 272691.0 280661.0 291332.0 299351.0 364525.0 367530.0 312829.0 156343.0 312829.0 312829.0 312829.0 156343.0 156343.0 156343.0
241660.0 244893.0 106137.0 107599.0 199767.0 191445.0 209504.0 201395.0 38714.0 42115.0 231251.0 224655.0 26537.0 18525.0 303349.0 295771.0 0.0 7871.0 291665.0 297019.0 115443.0 109230.0 192297.0 184326.0 140737.0 142768.0 319271.0 321170.0 107323.0 106292.0 45960.0 45856.0 54841.0 48827.0 115320.0 116389.0 121769.0 123609.0 225564.0 221377.0 238750.0 207941.0 238750.0 238750.0 238750.0 207941.0 207941.0 207941.0
235405.0 238786.0 101877.0 102857.0 192438.0 184116.0 201988.0 193883.0 35253.0 37323.0 224421.0 217750.0 25062.0 17383.0 306293.0 298639.0 7871.0 0.0 293727.0 299233.0 112086.0 106218.0 193754.0 185764.0 136775.0 139184.0 321393.0 323109.0 102992.0 102502.0 51607.0 50515.0 49634.0 44380.0 109738.0 110430.0 115381.0 116933.0 218340.0 214061.0 233058.0 206777.0 233058.0 233058.0 233058.0 206777.0 206777.0 206777.0
306028.0 303378.0 236050.0 242946.0 334199.0 330135.0 351528.0 346808.0 328881.0 329614.0 324172.0 324089.0 318115.0 310087.0 37325.0 32114.0 291665.0 293727.0 0.0 8039.0 218938.0 217675.0 101430.0 109315.0 218854.0 210898.0 27746.0 29861.0 236648.0 229338.0 319055.0 324751.0 267588.0 264972.0 256420.0 264269.0 274483.0 282445.0 341561.0 344751.0 289808.0 132322.0 289808.0 289808.0 289808.0 132322.0 132322.0 132322.0
313913.0 311262.0 243113.0 250069.0 342055.0 337953.0 359387.0 354635.0 334431.0 335303.0 332057.0 331973.0 323506.0 315476.0 30334.0 26140.0 297019.0 299233.0 8039.0 0.0 226043.0 224640.0 107758.0 115574.0 226365.0 218405.0 22520.0 26510.0 243735.0 236357.0 323646.0 329457.0 273908.0 271145.0 263690.0 271558.0 281833.0 289807.0 349445.0 352636.0 297692.0 140267.0 297692.0 297692.0 297692.0 140267.0 140267.0 140267.0
147117.0 147717.0 17275.0 24044.0 137667.0 130863.0 153699.0 146774.0 139640.0 136381.0 149529.0 145540.0 135138.0 128642.0 242397.0 234167.0 115443.0 112086.0 218938.0 226043.0 0.0 8048.0 120976.0 114138.0 27270.0 27521.0 245908.0 245315.0 17734.0 11529.0 160204.0 161155.0 65278.0 68230.0 39141.0 47132.0 58332.0 66271.0 155856.0 155480.0 136518.0 103757.0 136518.0 136518.0 136518.0 103757.0 103757.0 103757.0
155087.0 155735.0 19296.0 27064.0 144100.0 137128.0 159901.0 152836.0 134817.0 131921.0 157078.0 152956.0 129713.0 123010.0 240126.0 231910.0 109230.0 106218.0 217675.0 224640.0 8048.0 0.0 118553.0 111459.0 35138.0 34695.0 244852.0 244518.0 20341.0 12088.0 153580.0 154772.0 60757.0 62930.0 43530.0 51355.0 62751.0 70526.0 162863.0 162280.0 144566.0 106109.0 144566.0 144566.0 144566.0 106109.0 106109.0 106109.0
229658.0 227021.0 137553.0 144911.0 248213.0 242883.0 265378.0 259586.0 228667.0 228982.0 245596.0 244425.0 218495.0 210502.0 121574.0 113360.0 192297.0 193754.0 101430.0 107758.0 120976.0 118553.0 0.0 7996.0 126544.0 118742.0 129139.0 130072.0 138349.0 130535.0 223525.0 228476.0 166172.0 163564.0 159761.0 167757.0 178620.0 186639.0 260032.0 261992.0 213451.0 68145.0 213451.0 213451.0 213451.0 68145.0 68145.0 68145.0
226375.0 223734.0 130552.0 137990.0 242902.0 237417.0 260004.0 254085.0 220673.0 220989.0 241451.0 240062.0 210513.0 202521.0 128799.0 120605.0 184326.0 185764.0 109315.0 115574.0 114138.0 111459.0 7996.0 0.0 120781.0 113063.0 137038.0 138031.0 131388.0 123484.0 215766.0 220664.0 158334.0 155658.0 153070.0 161074.0 172026.0 180037.0 255314.0 257083.0 210164.0 68493.0 210164.0 210164.0 210164.0 68493.0 68493.0 68493.0
122268.0 122243.0 35170.0 36494.0 122672.0 116850.0 139581.0 133443.0 161995.0 157951.0 128029.0 124940.0 158810.0 152773.0 245564.0 237356.0 140737.0 136775.0 218854.0 226365.0 27270.0 35138.0 126544.0 120781.0 0.0 7968.0 244871.0 243400.0 34265.0 34505.0 186069.0 186590.0 88154.0 92418.0 41766.0 48517.0 57068.0 64723.0 137558.0 138306.0 110237.0 93760.0 110237.0 110237.0 110237.0 93760.0 93760.0 93760.0
126829.0 126376.0 38881.0 41544.0 130113.0 124421.0 147097.0 141055.0 165583.0 161847.0 134069.0 131265.0 161793.0 155512.0 237610.0 229402.0 142768.0 139184.0 210898.0 218405.0 27521.0 34695.0 118742.0 113063.0 7968.0 0.0 236942.0 235500.0 38246.0 36770.0 187688.0 188543.0 91340.0 95019.0 48745.0 55794.0 64706.0 72437.0 144412.0 145377.0 113779.0 86341.0 113779.0 113779.0 113779.0 86341.0 86341.0 86341.0
330391.0 327740.0 263076.0 269871.0 358510.0 354622.0 375909.0 371221.0 356563.0 357332.0 348535.0 348451.0 345738.0 337709.0 37772.0 38521.0 319271.0 321393.0 27746.0 22520.0 245908.0 244852.0 129139.0 137038.0 244871.0 236942.0 0.0 7961.0 263636.0 256435.0 346150.0 351943.0 295270.0 292696.0 283052.0 290852.0 300912.0 308843.0 365923.0 369114.0 314170.0 157477.0 314170.0 314170.0 314170.0 157477.0 157477.0 157477.0
328451.0 325800.0 262534.0 269206.0 356570.0 352721.0 373969.0 369337.0 358214.0 358807.0 346595.0 346511.0 347586.0 339561.0 45511.0 45743.0 321170.0 323109.0 29861.0 26510.0 245315.0 244518.0 130072.0 138031.0 243400.0 235500.0 7961.0 0.0 263049.0 255985.0 348893.0 354564.0 295917.0 293555.0 282071.0 289818.0 299730.0 307627.0 363983.0 367174.0 312230.0 155537.0 312230.0 312230.0 312230.0 155537.0 155537.0 155537.0
143507.0 145055.0 1610.0 6723.0 125784.0 118530.0 141138.0 133875.0 127739.0 123775.0 142143.0 137419.0 124636.0 118722.0 259862.0 251636.0 107323.0 102992.0 236648.0 243735.0 17734.0 20341.0 138349.0 131388.0 34265.0 38246.0 263636.0 263049.0 0.0 8440.0 153017.0 153143.0 53972.0 58631.0 23517.0 31168.0 42595.0 50279.0 145837.0 144703.0 135648.0 120401.0 135648.0 135648.0 135648.0 120401.0 120401.0 120401.0
149145.0 150348.0 7250.0 15120.0 133815.0 126642.0 149306.0 142095.0 129024.0 125532.0 149035.0 144523.0 125027.0 118751.0 252097.0 243877.0 106292.0 102502.0 229338.0 236357.0 11529.0 12088.0 130535.0 123484.0 34505.0 36770.0 256435.0 255985.0 8440.0 0.0 151565.0 152134.0 54674.0 58263.0 31935.0 39608.0 51035.0 58711.0 153464.0 152511.0 140215.0 115283.0 140215.0 140215.0 140215.0 115283.0 115283.0 115283.0
286951.0 290382.0 151788.0 153488.0 241768.0 233477.0 250186.0 242142.0 51266.0 59230.0 275293.0 268468.0 40799.0 41079.0 326258.0 319152.0 45960.0 51607.0 319055.0 323646.0 160204.0 153580.0 223525.0 215766.0 186069.0 187688.0 346150.0 348893.0 153017.0 151565.0 0.0 8088.0 100784.0 94723.0 161198.0 162030.0 166895.0 168189.0 268070.0 263393.0 284593.0 247775.0 284593.0 284593.0 284593.0 247775.0 247775.0 247775.0
284999.0 288626.0 151970.0 153259.0 238151.0 229886.0 246123.0 238114.0 45137.0 53206.0 272504.0 265569.0 36042.0 37756.0 332561.0 325391.0 45856.0 50515.0 324751.0 329457.0 161155.0 154772.0 228476.0 220664.0 186590.0 188543.0 351943.0 354564.0 153143.0 152134.0 8088.0 0.0 100135.0 94558.0 160178.0 160614.0 164973.0 165894.0 264600.0 259747.0 283373.0 250835.0 283373.0 283373.0 283373.0 250835.0 250835.0 250835.0
187618.0 190563.0 52992.0 53334.0 151556.0 143333.0 163403.0 155354.0 74380.0 71185.0 179213.0 173036.0 70666.0 64820.0 285327.0 277297.0 54841.0 49634.0 267588.0 273908.0 65278.0 60757.0 166172.0 158334.0 88154.0 91340.0 295270.0 295917.0 53972.0 54674.0 100784.0 100135.0 0.0 8254.0 60543.0 62098.0 68664.0 71807.0 176120.0 172808.0 183973.0 166018.0 183973.0 183973.0 183973.0 166018.0 166018.0 166018.0
194874.0 197661.0 57502.0 58774.0 159749.0 151535.0 171649.0 163602.0 72051.0 69705.0 187027.0 180921.0 66908.0 60494.0 281789.0 273810.0 48827.0 44380.0 264972.0 271145.0 68230.0 62930.0 163564.0 155658.0 92418.0 95019.0 292696.0 293555.0 58631.0 58263.0 94723.0 94558.0 8254.0 0.0 67365.0 69430.0 76435.0 79814.0 184231.0 180974.0 190633.0 166783.0 190633.0 190633.0 190633.0 166783.0 166783.0 166783.0
127804.0 130367.0 24872.0 17052.0 103083.0 95627.0 118067.0 110686.0 129045.0 123841.0 122685.0 117358.0 128476.0 123674.0 280926.0 272691.0 115320.0 109738.0 256420.0 263690.0 39141.0 43530.0 159761.0 153070.0 41766.0 48745.0 283052.0 282071.0 23517.0 31935.0 161198.0 160178.0 60543.0 67365.0 0.0 8006.0 19251.0 27139.0 124209.0 122572.0 123436.0 135005.0 123436.0 123436.0 123436.0 135005.0 135005.0 135005.0
125520.0 128536.0 32440.0 24540.0 96768.0 89136.0 111358.0 103853.0 127709.0 122128.0 118506.0 112852.0 128004.0 123621.0 288895.0 280661.0 116389.0 110430.0 264269.0 271558.0 47132.0 51355.0 167757.0 161074.0 48517.0 55794.0 290852.0 289818.0 31168.0 39608.0 162030.0 160614.0 62098.0 69430.0 8006.0 0.0 11428.0 19190.0 118678.0 116680.0 122800.0 142135.0 122800.0 122800.0 122800.0 142135.0 142135.0 142135.0
120064.0 123676.0 43868.0 35967.0 86395.0 78599.0 100564.0 92954.0 129826.0 123742.0 110594.0 104554.0 131316.0 127520.0 299566.0 291332.0 121769.0 115381.0 274483.0 281833.0 58332.0 62751.0 178620.0 172026.0 57068.0 64706.0 300912.0 299730.0 42595.0 51035.0 166895.0 164973.0 68664.0 76435.0 19251.0 11428.0 0.0 8022.0 109117.0 106716.0 119700.0 150783.0 119700.0 119700.0 119700.0 150783.0 150783.0 150783.0
119339.0 123413.0 51501.0 43598.0 80965.0 72978.0 94490.0 86737.0 129249.0 122840.0 107758.0 101373.0 131587.0 128236.0 307585.0 299351.0 123609.0 116933.0 282445.0 289807.0 66271.0 70526.0 186639.0 180037.0 64723.0 72437.0 308843.0 307627.0 50279.0 58711.0 168189.0 165894.0 71807.0 79814.0 27139.0 19190.0 8022.0 0.0 104589.0 101728.0 120848.0 158330.0 120848.0 120848.0 120848.0 158330.0 158330.0 158330.0
58400.0 66395.0 147409.0 140365.0 26864.0 34900.0 27985.0 32787.0 223187.0 215649.0 25791.0 20478.0 228814.0 227072.0 372490.0 364525.0 225564.0 218340.0 341561.0 349445.0 155856.0 162863.0 260032.0 255314.0 137558.0 144412.0 365923.0 363983.0 145837.0 153464.0 268070.0 264600.0 176120.0 184231.0 124209.0 118678.0 109117.0 104589.0 0.0 7962.0 88720.0 210223.0 88720.0 88720.0 88720.0 210223.0 210223.0 210223.0
65773.0 73761.0 146254.0 139024.0 21636.0 29951.0 20072.0 25323.0 217890.0 210275.0 33265.0 27215.0 223863.0 222341.0 375535.0 367530.0 221377.0 214061.0 344751.0 352636.0 155480.0 162280.0 261992.0 257083.0 138306.0 145377.0 369114.0 367174.0 144703.0 152511.0 263393.0 259747.0 172808.0 180974.0 122572.0 116680.0 106716.0 101728.0 7962.0 0.0 94953.0 213414.0 94953.0 94953.0 94953.0 213414.0 213414.0 213414.0
36893.0 31861.0 137159.0 133236.0 96105.0 97414.0 110171.0 109736.0 249526.0 243402.0 64505.0 68264.0 250648.0 246410.0 320764.0 312829.0 238750.0 233058.0 289808.0 297692.0 136518.0 144566.0 213451.0 210164.0 110237.0 113779.0 314170.0 312230.0 135648.0 140215.0 284593.0 283373.0 183973.0 190633.0 123436.0 122800.0 119700.0 120848.0 88720.0 94953.0 0.0 158470.0 0.0 0.0 0.0 158470.0 158470.0 158470.0
174691.0 172040.0 120399.0 125451.0 202888.0 198964.0 220209.0 215591.0 238506.0 236487.0 192835.0 192751.0 231534.0 224138.0 164164.0 156343.0 207941.0 206777.0 132322.0 140267.0 103757.0 106109.0 68145.0 68493.0 93760.0 86341.0 157477.0 155537.0 120401.0 115283.0 247775.0 250835.0 166018.0 166783.0 135005.0 142135.0 150783.0 158330.0 210223.0 213414.0 158470.0 0.0 158470.0 158470.0 158470.0 0.0 0.0 0.0
36893.0 31861.0 137159.0 133236.0 96105.0 97414.0 110171.0 109736.0 249526.0 243402.0 64505.0 68264.0 250648.0 246410.0 320764.0 312829.0 238750.0 233058.0 289808.0 297692.0 136518.0 144566.0 213451.0 210164.0 110237.0 113779.0 314170.0 312230.0 135648.0 140215.0 284593.0 283373.0 183973.0 190633.0 123436.0 122800.0 119700.0 120848.0 88720.0 94953.0 0.0 158470.0 0.0 0.0 0.0 158470.0 158470.0 158470.0
36893.0 31861.0 137159.0 133236.0 96105.0 97414.0 110171.0 109736.0 249526.0 243402.0 64505.0 68264.0 250648.0 246410.0 320764.0 312829.0 238750.0 233058.0 289808.0 297692.0 136518.0 144566.0 213451.0 210164.0 110237.0 113779.0 314170.0 312230.0 135648.0 140215.0 284593.0 283373.0 183973.0 190633.0 123436.0 122800.0 119700.0 120848.0 88720.0 94953.0 0.0 158470.0 0.0 0.0 0.0 158470.0 158470.0 158470.0
36893.0 31861.0 137159.0 133236.0 96105.0 97414.0 110171.0 109736.0 249526.0 243402.0 64505.0 68264.0 250648.0 246410.0 320764.0 312829.0 238750.0 233058.0 289808.0 297692.0 136518.0 144566.0 213451.0 210164.0 110237.0 113779.0 314170.0 312230.0 135648.0 140215.0 284593.0 283373.0 183973.0 190633.0 123436.0 122800.0 119700.0 120848.0 88720.0 94953.0 0.0 158470.0 0.0 0.0 0.0 158470.0 158470.0 158470.0
174691.0 172040.0 120399.0 125451.0 202888.0 198964.0 220209.0 215591.0 238506.0 236487.0 192835.0 192751.0 231534.0 224138.0 164164.0 156343.0 207941.0 206777.0 132322.0 140267.0 103757.0 106109.0 68145.0 68493.0 93760.0 86341.0 157477.0 155537.0 120401.0 115283.0 247775.0 250835.0 166018.0 166783.0 135005.0 142135.0 150783.0 158330.0 210223.0 213414.0 158470.0 0.0 158470.0 158470.0 158470.0 0.0 0.0 0.0
174691.0 172040.0 120399.0 125451.0 202888.0 198964.0 220209.0 215591.0 238506.0 236487.0 192835.0 192751.0 231534.0 224138.0 164164.0 156343.0 207941.0 206777.0 132322.0 140267.0 103757.0 106109.0 68145.0 68493.0 93760.0 86341.0 157477.0 155537.0 120401.0 115283.0 247775.0 250835.0 166018.0 166783.0 135005.0 142135.0 150783.0 158330.0 210223.0 213414.0 158470.0 0.0 158470.0 158470.0 158470.0 0.0 0.0 0.0
174691.0 172040.0 120399.0 125451.0 202888.0 198964.0 220209.0 215591.0 238506.0 236487.0 192835.0 192751.0 231534.0 224138.0 164164.0 156343.0 207941.0 206777.0 132322.0 140267.0 103757.0 106109.0 68145.0 68493.0 93760.0 86341.0 157477.0 155537.0 120401.0 115283.0 247775.0 250835.0 166018.0 166783.0 135005.0 142135.0 150783.0 158330.0 210223.0 213414.0 158470.0 0.0 158470.0 158470.0 158470.0 0.0 0.0 0.0
FIXED_EDGES_SECTION
1 2
3 4
5 6
7 8
9 10
11 12
13 14
15 16
17 18
19 20
21 22
23 24
25 26
27 28
29 30
31 32
33 34
35 36
37 38
39 40
-1 
DEMAND_SECTION
1 97
2 97
3 90
4 90
5 375
6 375
7 265
8 265
9 380
10 380
11 247
12 247
13 258
14 258
15 421
16 421
17 277
18 277
19 99
20 99
21 177
22 177
23 319
24 319
25 80
26 80
27 71
28 71
29 279
30 279
31 120
32 120
33 112
34 112
35 256
36 256
37 96
38 96
39 274
40 274
41 0
42 0
43 0
44 0
45 0
46 0
47 0
48 0
DEPOT_SECTION
41 
-1 
CAPACITIES_SECTION
2500 
2750 
3000 
-1 
EOF