NAME: GFS_20_1
TYPE: GFSP
DIMENSION: 50
VEHICLES: 3
CAPACITY: 2500.0
TRIP_DIST_LIMIT: 600000.0
TOTAL_DIST_LIMIT: 1400000.0
EDGE_WEIGHT_TYPE: EXPLICIT
EDGE_WEIGHT_FORMAT: FULL_MATRIX
EDGE_WEIGHT_SECTION
0.0 8078.0 213413.0 205330.0 151612.0 153429.0 107547.0 99596.0 90576.0 87564.0 208913.0 206530.0 31341.0 23940.0 24044.0 32296.0 207592.0 200559.0 238115.0 231987.0 122787.0 115945.0 98550.0 91033.0 86555.0 93785.0 173423.0 178654.0 105876.0 100949.0 67587.0 75649.0 183033.0 174945.0 132449.0 138933.0 159205.0 156124.0 209128.0 205509.0 192960.0 64459.0 192960.0 192960.0 192960.0 192960.0 64459.0 64459.0 64459.0 64459.0
8078.0 0.0 218338.0 210219.0 149867.0 152087.0 108885.0 100741.0 94548.0 90923.0 214895.0 212656.0 32994.0 25041.0 23354.0 31757.0 210568.0 203396.0 241853.0 235566.0 124575.0 117480.0 102338.0 95033.0 86183.0 93702.0 168290.0 173749.0 108132.0 102743.0 69093.0 77147.0 182873.0 174785.0 134339.0 140539.0 161777.0 159050.0 214690.0 211256.0 199086.0 72531.0 199086.0 199086.0 199086.0 199086.0 72531.0 72531.0 72531.0 72531.0
213413.0 218338.0 0.0 8193.0 165920.0 158332.0 130678.0 137740.0 266797.0 269513.0 38250.0 45942.0 237834.0 233417.0 199274.0 193181.0 59345.0 63281.0 46455.0 47619.0 310112.0 305950.0 118068.0 124412.0 290808.0 296071.0 243374.0 240620.0 122594.0 130557.0 157985.0 151765.0 135761.0 135131.0 317877.0 325762.0 82730.0 78387.0 22537.0 29754.0 64593.0 186539.0 64593.0 64593.0 64593.0 64593.0 186539.0 186539.0 186539.0 186539.0
205330.0 210219.0 8193.0 0.0 159341.0 151832.0 122762.0 129753.0 259317.0 262032.0 38749.0 45873.0 229901.0 225430.0 191100.0 184994.0 56662.0 59679.0 49567.0 49419.0 302632.0 298440.0 109874.0 116227.0 283035.0 288354.0 236689.0 234094.0 114537.0 122514.0 149802.0 143602.0 130534.0 129530.0 310397.0 318281.0 75805.0 71115.0 23343.0 29454.0 60608.0 179059.0 60608.0 60608.0 60608.0 60608.0 179059.0 179059.0 179059.0 179059.0
151612.0 149867.0 165920.0 159341.0 0.0 7971.0 64720.0 67050.0 240665.0 238605.0 189539.0 193110.0 182610.0 174784.0 127569.0 119369.0 119321.0 111684.0 157865.0 149754.0 274305.0 267309.0 98816.0 102910.0 235054.0 242843.0 77528.0 74762.0 76659.0 73072.0 92030.0 85970.0 45986.0 40146.0 284012.0 290356.0 83809.0 89639.0 178590.0 180821.0 188170.0 180652.0 188170.0 188170.0 188170.0 188170.0 180652.0 180652.0 180652.0 180652.0
153429.0 152087.0 158332.0 151832.0 7971.0 0.0 61697.0 64957.0 241732.0 239941.0 182480.0 186197.0 184607.0 176859.0 129439.0 121132.0 111358.0 103730.0 149896.0 141784.0 276216.0 269331.0 95330.0 99914.0 237730.0 245451.0 85273.0 82289.0 73144.0 70294.0 91846.0 85332.0 38931.0 32651.0 285871.0 292346.0 76494.0 82540.0 171315.0 173686.0 181724.0 179673.0 181724.0 181724.0 181724.0 181724.0 179673.0 179673.0 179673.0 179673.0
107547.0 108885.0 130678.0 122762.0 64720.0 61697.0 0.0 8440.0 189186.0 188701.0 143507.0 145055.0 138349.0 131388.0 85735.0 77588.0 105744.0 98001.0 141138.0 133875.0 227392.0 221205.0 34265.0 38246.0 194070.0 201187.0 129005.0 129285.0 12599.0 8775.0 39960.0 31900.0 79218.0 71419.0 236648.0 243735.0 56261.0 56104.0 136335.0 136256.0 135648.0 120401.0 135648.0 135648.0 135648.0 135648.0 120401.0 120401.0 120401.0 120401.0
99596.0 100741.0 137740.0 129753.0 67050.0 64957.0 8440.0 0.0 182305.0 181606.0 149145.0 150348.0 130535.0 123484.0 77527.0 69330.0 114114.0 106391.0 149306.0 142095.0 220021.0 213743.0 34505.0 36770.0 186149.0 193323.0 127087.0 127898.0 16095.0 8418.0 32086.0 24108.0 85672.0 77741.0 229338.0 236357.0 64592.0 64185.0 142568.0 142169.0 140215.0 115283.0 140215.0 140215.0 140215.0 140215.0 115283.0 115283.0 115283.0 115283.0
90576.0 94548.0 266797.0 259317.0 240665.0 241732.0 189186.0 182305.0 0.0 8428.0 254949.0 252298.0 62806.0 70579.0 114158.0 121920.0 276656.0 270781.0 300467.0 295820.0 43952.0 41243.0 169174.0 161265.0 49819.0 48298.0 262412.0 268088.0 183856.0 181197.0 151139.0 158616.0 267938.0 259959.0 51149.0 59099.0 232675.0 227650.0 257650.0 252792.0 238728.0 81174.0 238728.0 238728.0 238728.0 238728.0 81174.0 81174.0 81174.0 81174.0
87564.0 90923.0 269513.0 262032.0 238605.0 239941.0 188701.0 181606.0 8428.0 0.0 257664.0 255013.0 58446.0 66381.0 111444.0 119414.0 278294.0 272256.0 302956.0 298130.0 40655.0 36623.0 170021.0 162072.0 41402.0 40091.0 258025.0 263864.0 183892.0 180886.0 150093.0 157725.0 267077.0 259060.0 48906.0 56587.0 233587.0 228790.0 260365.0 255508.0 241444.0 84457.0 241444.0 241444.0 241444.0 241444.0 84457.0 84457.0 84457.0 84457.0
208913.0 214895.0 38250.0 38749.0 189539.0 182480.0 143507.0 149145.0 254949.0 257664.0 0.0 7995.0 229658.0 226375.0 198626.0 193780.0 95298.0 97822.0 83978.0 85778.0 298264.0 294102.0 122268.0 126829.0 280150.0 284922.0 265703.0 263910.0 133093.0 141067.0 162681.0 157869.0 165570.0 163616.0 306028.0 313913.0 106261.0 99940.0 15748.0 9548.0 36893.0 174691.0 36893.0 36893.0 36893.0 36893.0 174691.0 174691.0 174691.0 174691.0
206530.0 212656.0 45942.0 45873.0 193110.0 186197.0 145055.0 150348.0 252298.0 255013.0 7995.0 0.0 227021.0 223734.0 197005.0 192441.0 102101.0 104281.0 91881.0 93542.0 295613.0 291451.0 122243.0 126376.0 277499.0 282271.0 268770.0 267199.0 134255.0 142153.0 162379.0 157896.0 170628.0 168379.0 303378.0 311262.0 110390.0 103764.0 23411.0 16438.0 31861.0 172040.0 31861.0 31861.0 31861.0 31861.0 172040.0 172040.0 172040.0 172040.0
31341.0 32994.0 237834.0 229901.0 182610.0 184607.0 138349.0 130535.0 62806.0 58446.0 229658.0 227021.0 0.0 7996.0 55180.0 63539.0 236318.0 229514.0 265378.0 259586.0 91700.0 84728.0 126544.0 118742.0 55953.0 62869.0 199675.0 205448.0 135921.0 131443.0 98453.0 106475.0 214353.0 206266.0 101430.0 107758.0 188654.0 185096.0 231501.0 227217.0 213451.0 68145.0 213451.0 213451.0 213451.0 213451.0 68145.0 68145.0 68145.0 68145.0
23940.0 25041.0 233417.0 225430.0 174784.0 176859.0 131388.0 123484.0 70579.0 66381.0 226375.0 223734.0 7996.0 0.0 47500.0 55899.0 230371.0 223470.0 260004.0 254085.0 99564.0 92526.0 120781.0 113063.0 62682.0 69855.0 191841.0 197569.0 129355.0 124654.0 91438.0 99489.0 206919.0 198830.0 109315.0 115574.0 182384.0 179024.0 227726.0 223641.0 210164.0 68493.0 210164.0 210164.0 210164.0 210164.0 68493.0 68493.0 68493.0 68493.0
24044.0 23354.0 199274.0 191100.0 127569.0 129439.0 85735.0 77527.0 114158.0 111444.0 198626.0 197005.0 55180.0 47500.0 0.0 8434.0 188454.0 181151.0 220627.0 214131.0 146791.0 139894.0 81777.0 74951.0 109467.0 116923.0 152154.0 156957.0 85579.0 79856.0 46183.0 54178.0 159614.0 151524.0 156469.0 162907.0 139348.0 136979.0 197191.0 194292.0 183483.0 75084.0 183483.0 183483.0 183483.0 183483.0 75084.0 75084.0 75084.0 75084.0
32296.0 31757.0 193181.0 184994.0 119369.0 121132.0 77588.0 69330.0 121920.0 119414.0 193780.0 192441.0 63539.0 55899.0 8434.0 0.0 180883.0 173514.0 213490.0 206895.0 155084.0 148226.0 75280.0 68777.0 117897.0 125357.0 146171.0 150713.0 77865.0 71921.0 38332.0 46240.0 151180.0 143090.0 164743.0 171224.0 131637.0 129475.0 191808.0 189150.0 179018.0 78498.0 179018.0 179018.0 179018.0 179018.0 78498.0 78498.0 78498.0 78498.0
207592.0 210568.0 59345.0 56662.0 119321.0 111358.0 105744.0 114114.0 276656.0 278294.0 95298.0 102101.0 236318.0 230371.0 188454.0 180883.0 0.0 8042.0 38659.0 30590.0 318778.0 313689.0 109847.0 117734.0 291983.0 298363.0 195823.0 191865.0 103076.0 109576.0 142622.0 134909.0 81461.0 82823.0 327188.0 334870.0 49569.0 51519.0 80004.0 85856.0 109849.0 197172.0 109849.0 109849.0 109849.0 109849.0 197172.0 197172.0 197172.0 197172.0
200559.0 203396.0 63281.0 59679.0 111684.0 103730.0 98001.0 106391.0 270781.0 272256.0 97822.0 104281.0 229514.0 223470.0 181151.0 173514.0 8042.0 0.0 46542.0 38513.0 312668.0 307478.0 103214.0 111141.0 285267.0 291721.0 188411.0 184577.0 95657.0 102019.0 135213.0 127448.0 74833.0 75767.0 321162.0 328804.0 41969.0 44449.0 82904.0 88295.0 109735.0 191730.0 109735.0 109735.0 109735.0 109735.0 191730.0 191730.0 191730.0 191730.0
238115.0 241853.0 46455.0 49567.0 157865.0 149896.0 141138.0 149306.0 300467.0 302956.0 83978.0 91881.0 265378.0 260004.0 220627.0 213490.0 38659.0 46542.0 0.0 8114.0 343610.0 339089.0 139581.0 147097.0 320269.0 326201.0 234010.0 229826.0 136733.0 143873.0 175753.0 168402.0 118479.0 120612.0 351528.0 359387.0 85254.0 85159.0 68600.0 76046.0 110171.0 220209.0 110171.0 110171.0 110171.0 110171.0 220209.0 220209.0 220209.0 220209.0
231987.0 235566.0 47619.0 49419.0 149754.0 141784.0 133875.0 142095.0 295820.0 298130.0 85778.0 93542.0 259586.0 254085.0 214131.0 206895.0 30590.0 38513.0 8114.0 0.0 338780.0 334134.0 133443.0 141055.0 314683.0 320715.0 225906.0 221739.0 129815.0 136839.0 169006.0 161570.0 110459.0 112526.0 346808.0 354635.0 77810.0 78065.0 70131.0 77360.0 109736.0 215591.0 109736.0 109736.0 109736.0 109736.0 215591.0 215591.0 215591.0 215591.0
122787.0 124575.0 310112.0 302632.0 274305.0 276216.0 227392.0 220021.0 43952.0 40655.0 298264.0 295613.0 91700.0 99564.0 146791.0 155084.0 318778.0 312668.0 343610.0 338780.0 0.0 7962.0 210126.0 202163.0 46516.0 39065.0 286709.0 293119.0 223236.0 219827.0 188143.0 195964.0 305002.0 296940.0 9862.0 16346.0 273670.0 269033.0 300965.0 296108.0 282043.0 124850.0 282043.0 282043.0 282043.0 282043.0 124850.0 124850.0 124850.0 124850.0
115945.0 117480.0 305950.0 298440.0 267309.0 269331.0 221205.0 213743.0 41243.0 36623.0 294102.0 291451.0 84728.0 92526.0 139894.0 148226.0 313689.0 307478.0 339089.0 334134.0 7962.0 0.0 204689.0 196721.0 38558.0 31153.0 278939.0 285382.0 217327.0 213744.0 181786.0 189656.0 298508.0 290436.0 17613.0 23063.0 268172.0 263677.0 296803.0 291945.0 277881.0 121060.0 277881.0 277881.0 277881.0 277881.0 121060.0 121060.0 121060.0 121060.0
98550.0 102338.0 118068.0 109874.0 98816.0 95330.0 34265.0 34505.0 169174.0 170021.0 122268.0 122243.0 126544.0 120781.0 81777.0 75280.0 109847.0 103214.0 139581.0 133443.0 210126.0 204689.0 0.0 7968.0 182138.0 188527.0 161564.0 162398.0 22194.0 26663.0 40587.0 35653.0 107008.0 99874.0 218854.0 226365.0 63567.0 59040.0 118279.0 116494.0 110237.0 93760.0 110237.0 110237.0 110237.0 110237.0 93760.0 93760.0 93760.0 93760.0
91033.0 95033.0 124412.0 116227.0 102910.0 99914.0 38246.0 36770.0 161265.0 162072.0 126829.0 126376.0 118742.0 113063.0 74951.0 68777.0 117734.0 111141.0 147097.0 141055.0 202163.0 196721.0 7968.0 0.0 174272.0 180629.0 162890.0 164117.0 27253.0 29863.0 36044.0 32426.0 113580.0 106287.0 210898.0 218405.0 71521.0 67002.0 123619.0 121462.0 113779.0 86341.0 113779.0 113779.0 113779.0 113779.0 86341.0 86341.0 86341.0 86341.0
86555.0 86183.0 290808.0 283035.0 235054.0 237730.0 194070.0 186149.0 49819.0 41402.0 280150.0 277499.0 55953.0 62682.0 109467.0 117897.0 291983.0 285267.0 320269.0 314683.0 46516.0 38558.0 182138.0 174272.0 0.0 8055.0 241850.0 248500.0 191867.0 187306.0 154117.0 162170.0 269056.0 260968.0 55915.0 59828.0 244556.0 240888.0 282812.0 277978.0 263929.0 110557.0 263929.0 263929.0 263929.0 263929.0 110557.0 110557.0 110557.0 110557.0
93785.0 93702.0 296071.0 288354.0 242843.0 245451.0 201187.0 193323.0 48298.0 40091.0 284922.0 282271.0 62869.0 69855.0 116923.0 125357.0 298363.0 291721.0 326201.0 320715.0 39065.0 31153.0 188527.0 180629.0 8055.0 0.0 249890.0 256548.0 198732.0 194313.0 161259.0 169297.0 276537.0 268448.0 48270.0 51915.0 251196.0 247394.0 287619.0 282766.0 268701.0 114448.0 268701.0 268701.0 268701.0 268701.0 114448.0 114448.0 114448.0 114448.0
173423.0 168290.0 243374.0 236689.0 77528.0 85273.0 129005.0 127087.0 262412.0 258025.0 265703.0 268770.0 199675.0 191841.0 152154.0 146171.0 195823.0 188411.0 234010.0 225906.0 286709.0 278939.0 161564.0 162890.0 241850.0 249890.0 0.0 8242.0 141516.0 135200.0 137575.0 135301.0 116675.0 113531.0 296530.0 301377.0 160950.0 166327.0 255415.0 257246.0 262112.0 222342.0 262112.0 262112.0 262112.0 262112.0 222342.0 222342.0 222342.0 222342.0
178654.0 173749.0 240620.0 234094.0 74762.0 82289.0 129285.0 127898.0 268088.0 263864.0 263910.0 267199.0 205448.0 197569.0 156957.0 150713.0 191865.0 184577.0 229826.0 221739.0 293119.0 285382.0 162398.0 164117.0 248500.0 256548.0 8242.0 0.0 141863.0 135854.0 140201.0 137489.0 111900.0 109215.0 302954.0 307909.0 158545.0 164201.0 253260.0 255320.0 261115.0 226086.0 261115.0 261115.0 261115.0 261115.0 226086.0 226086.0 226086.0 226086.0
105876.0 108132.0 122594.0 114537.0 76659.0 73144.0 12599.0 16095.0 183856.0 183892.0 133093.0 134255.0 135921.0 129355.0 85579.0 77865.0 103076.0 95657.0 136733.0 129815.0 223236.0 217327.0 22194.0 27253.0 191867.0 198732.0 141516.0 141863.0 0.0 8048.0 39556.0 31853.0 86923.0 79451.0 232304.0 239572.0 53778.0 51865.0 126727.0 126192.0 124185.0 112154.0 124185.0 124185.0 124185.0 124185.0 112154.0 112154.0 112154.0 112154.0
100949.0 102743.0 130557.0 122514.0 73072.0 70294.0 8775.0 8418.0 181197.0 180886.0 141067.0 142153.0 131443.0 124654.0 79856.0 71921.0 109576.0 102019.0 143873.0 136839.0 219827.0 213744.0 26663.0 29863.0 187306.0 194313.0 135200.0 135854.0 8048.0 0.0 33681.0 25686.0 87668.0 79933.0 229016.0 236173.0 60050.0 58776.0 134771.0 134210.0 131866.0 111706.0 131866.0 131866.0 131866.0 131866.0 111706.0 111706.0 111706.0 111706.0
67587.0 69093.0 157985.0 149802.0 92030.0 91846.0 39960.0 32086.0 151139.0 150093.0 162681.0 162379.0 98453.0 91438.0 46183.0 38332.0 142622.0 135213.0 175753.0 169006.0 188143.0 181786.0 40587.0 36044.0 154117.0 161259.0 137575.0 140201.0 39556.0 33681.0 0.0 8071.0 117001.0 108973.0 197519.0 204468.0 93314.0 91301.0 158861.0 157053.0 149818.0 89199.0 149818.0 149818.0 149818.0 149818.0 89199.0 89199.0 89199.0 89199.0
75649.0 77147.0 151765.0 143602.0 85970.0 85332.0 31900.0 24108.0 158616.0 157725.0 157869.0 157896.0 106475.0 99489.0 54178.0 46240.0 134909.0 127448.0 168402.0 161570.0 195964.0 189656.0 35653.0 32426.0 162170.0 169297.0 135301.0 137489.0 31853.0 25686.0 8071.0 0.0 109362.0 101361.0 205307.0 212296.0 85509.0 83705.0 153449.0 151934.0 145762.0 94711.0 145762.0 145762.0 145762.0 145762.0 94711.0 94711.0 94711.0 94711.0
183033.0 182873.0 135761.0 130534.0 45986.0 38931.0 79218.0 85672.0 267938.0 267077.0 165570.0 170628.0 214353.0 206919.0 159614.0 151180.0 81461.0 74833.0 118479.0 110459.0 305002.0 298508.0 107008.0 113580.0 269056.0 276537.0 116675.0 111900.0 86923.0 87668.0 117001.0 109362.0 0.0 8090.0 314439.0 321302.0 62792.0 70593.0 152365.0 156200.0 170653.0 199028.0 170653.0 170653.0 170653.0 170653.0 199028.0 199028.0 199028.0 199028.0
174945.0 174785.0 135131.0 129530.0 40146.0 32651.0 71419.0 77741.0 259959.0 259060.0 163616.0 168379.0 206266.0 198830.0 151524.0 143090.0 82823.0 75767.0 120612.0 112526.0 296940.0 290436.0 99874.0 106287.0 260968.0 268448.0 113531.0 109215.0 79451.0 79933.0 108973.0 101361.0 8090.0 0.0 306383.0 313237.0 59092.0 66675.0 150856.0 154347.0 167380.0 191448.0 167380.0 167380.0 167380.0 167380.0 191448.0 191448.0 191448.0 191448.0
132449.0 134339.0 317877.0 310397.0 284012.0 285871.0 236648.0 229338.0 51149.0 48906.0 306028.0 303378.0 101430.0 109315.0 156469.0 164743.0 327188.0 321162.0 351528.0 346808.0 9862.0 17613.0 218854.0 210898.0 55915.0 48270.0 296530.0 302954.0 232304.0 229016.0 197519.0 205307.0 314439.0 306383.0 0.0 8039.0 282419.0 277673.0 308729.0 303872.0 289808.0 132322.0 289808.0 289808.0 289808.0 289808.0 132322.0 132322.0 132322.0 132322.0
138933.0 140539.0 325762.0 318281.0 290356.0 292346.0 243735.0 236357.0 59099.0 56587.0 313913.0 311262.0 107758.0 115574.0 162907.0 171224.0 334870.0 328804.0 359387.0 354635.0 16346.0 23063.0 226365.0 218405.0 59828.0 51915.0 301377.0 307909.0 239572.0 236173.0 204468.0 212296.0 321302.0 313237.0 8039.0 0.0 289920.0 285238.0 316614.0 311757.0 297692.0 140267.0 297692.0 297692.0 297692.0 297692.0 140267.0 140267.0 140267.0 140267.0
159205.0 161777.0 82730.0 75805.0 83809.0 76494.0 56261.0 64592.0 232675.0 233587.0 106261.0 110390.0 188654.0 182384.0 139348.0 131637.0 49569.0 41969.0 85254.0 77810.0 273670.0 268172.0 63567.0 71521.0 244556.0 251196.0 160950.0 158545.0 53778.0 60050.0 93314.0 85509.0 62792.0 59092.0 282419.0 289920.0 0.0 7955.0 94821.0 97323.0 108311.0 155705.0 108311.0 108311.0 108311.0 108311.0 155705.0 155705.0 155705.0 155705.0
156124.0 159050.0 78387.0 71115.0 89639.0 82540.0 56104.0 64185.0 227650.0 228790.0 99940.0 103764.0 185096.0 179024.0 136979.0 129475.0 51519.0 44449.0 85159.0 78065.0 269033.0 263677.0 59040.0 67002.0 240888.0 247394.0 166327.0 164201.0 51865.0 58776.0 91301.0 83705.0 70593.0 66675.0 277673.0 285238.0 7955.0 0.0 89094.0 91183.0 100915.0 149917.0 100915.0 100915.0 100915.0 100915.0 149917.0 149917.0 149917.0 149917.0
209128.0 214690.0 22537.0 23343.0 178590.0 171315.0 136335.0 142568.0 257650.0 260365.0 15748.0 23411.0 231501.0 227726.0 197191.0 191808.0 80004.0 82904.0 68600.0 70131.0 300965.0 296803.0 118279.0 123619.0 282812.0 287619.0 255415.0 253260.0 126727.0 134771.0 158861.0 153449.0 152365.0 150856.0 308729.0 316614.0 94821.0 89094.0 0.0 7611.0 45843.0 177392.0 45843.0 45843.0 45843.0 45843.0 177392.0 177392.0 177392.0 177392.0
205509.0 211256.0 29754.0 29454.0 180821.0 173686.0 136256.0 142169.0 252792.0 255508.0 9548.0 16438.0 227217.0 223641.0 194292.0 189150.0 85856.0 88295.0 76046.0 77360.0 296108.0 291945.0 116494.0 121462.0 277978.0 282766.0 257246.0 255320.0 126192.0 134210.0 157053.0 151934.0 156200.0 154347.0 303872.0 311757.0 97323.0 91183.0 7611.0 0.0 38771.0 172534.0 38771.0 38771.0 38771.0 38771.0 172534.0 172534.0 172534.0 172534.0
192960.0 199086.0 64593.0 60608.0 188170.0 181724.0 135648.0 140215.0 238728.0 241444.0 36893.0 31861.0 213451.0 210164.0 183483.0 179018.0 109849.0 109735.0 110171.0 109736.0 282043.0 277881.0 110237.0 113779.0 263929.0 268701.0 262112.0 261115.0 124185.0 131866.0 149818.0 145762.0 170653.0 167380.0 289808.0 297692.0 108311.0 100915.0 45843.0 38771.0 0.0 158470.0 0.0 0.0 0.0 0.0 158470.0 158470.0 158470.0 158470.0
64459.0 72531.0 186539.0 179059.0 180652.0 179673.0 120401.0 115283.0 81174.0 84457.0 174691.0 172040.0 68145.0 68493.0 75084.0 78498.0 197172.0 191730.0 220209.0 215591.0 124850.0 121060.0 93760.0 86341.0 110557.0 114448.0 222342.0 226086.0 112154.0 111706.0 89199.0 94711.0 199028.0 191448.0 132322.0 140267.0 155705.0 149917.0 177392.0 172534.0 158470.0 0.0 158470.0 158470.0 158470.0 158470.0 0.0 0.0 0.0 0.0
192960.0 199086.0 64593.0 60608.0 188170.0 181724.0 135648.0 140215.0 238728.0 241444.0 36893.0 31861.0 213451.0 210164.0 183483.0 179018.0 109849.0 109735.0 110171.0 109736.0 282043.0 277881.0 110237.0 113779.0 263929.0 268701.0 262112.0 261115.0 124185.0 131866.0 149818.0 145762.0 170653.0 167380.0 289808.0 297692.0 108311.0 100915.0 45843.0 38771.0 0.0 158470.0 0.0 0.0 0.0 0.0 158470.0 158470.0 158470.0 158470.0
192960.0 199086.0 64593.0 60608.0 188170.0 181724.0 135648.0 140215.0 238728.0 241444.0 36893.0 31861.0 213451.0 210164.0 183483.0 179018.0 109849.0 109735.0 110171.0 109736.0 282043.0 277881.0 110237.0 113779.0 263929.0 268701.0 262112.0 261115.0 124185.0 131866.0 149818.0 145762.0 170653.0 167380.0 289808.0 297692.0 108311.0 100915.0 45843.0 38771.0 0.0 158470.0 0.0 0.0 0.0 0.0 158470.0 158470.0 158470.0 158470.0
192960.0 199086.0 64593.0 60608.0 188170.0 181724.0 135648.0 140215.0 238728.0 241444.0 36893.0 31861.0 213451.0 210164.0 183483.0 179018.0 109849.0 109735.0 110171.0 109736.0 282043.0 277881.0 110237.0 113779.0 263929.0 268701.0 262112.0 261115.0 124185.0 131866.0 149818.0 145762.0 170653.0 167380.0 289808.0 297692.0 108311.0 100915.0 45843.0 38771.0 0.0 158470.0 0.0 0.0 0.0 0.0 158470.0 158470.0 158470.0 158470.0
192960.0 199086.0 64593.0 60608.0 188170.0 181724.0 135648.0 140215.0 238728.0 241444.0 36893.0 31861.0 213451.0 210164.0 183483.0 179018.0 109849.0 109735.0 110171.0 109736.0 282043.0 277881.0 110237.0 113779.0 263929.0 268701.0 262112.0 261115.0 124185.0 131866.0 149818.0 145762.0 170653.0 167380.0 289808.0 297692.0 108311.0 100915.0 45843.0 38771.0 0.0 158470.0 0.0 0.0 0.0 0.0 158470.0 158470.0 158470.0 158470.0
64459.0 72531.0 186539.0 179059.0 180652.0 179673.0 120401.0 115283.0 81174.0 84457.0 174691.0 172040.0 68145.0 68493.0 75084.0 78498.0 197172.0 191730.0 220209.0 215591.0 124850.0 121060.0 93760.0 86341.0 110557.0 114448.0 222342.0 226086.0 112154.0 111706.0 89199.0 94711.0 199028.0 191448.0 132322.0 140267.0 155705.0 149917.0 177392.0 172534.0 158470.0 0.0 158470.0 158470.0 158470.0 158470.0 0.0 0.0 0.0 0.0
64459.0 72531.0 186539.0 179059.0 180652.0 179673.0 120401.0 115283.0 81174.0 84457.0 174691.0 172040.0 68145.0 68493.0 75084.0 78498.0 197172.0 191730.0 220209.0 215591.0 124850.0 121060.0 93760.0 86341.0 110557.0 114448.0 222342.0 226086.0 112154.0 111706.0 89199.0 94711.0 199028.0 191448.0 132322.0 140267.0 155705.0 149917.0 177392.0 172534.0 158470.0 0.0 158470.0 158470.0 158470.0 158470.0 0.0 0.0 0.0 0.0
64459.0 72531.0 186539.0 179059.0 180652.0 179673.0 120401.0 115283.0 81174.0 84457.0 174691.0 172040.0 68145.0 68493.0 75084.0 78498.0 197172.0 191730.0 220209.0 215591.0 124850.0 121060.0 93760.0 86341.0 110557.0 114448.0 222342.0 226086.0 112154.0 111706.0 89199.0 94711.0 199028.0 191448.0 132322.0 140267.0 155705.0 149917.0 177392.0 172534.0 158470.0 0.0 158470.0 158470.0 158470.0 158470.0 0.0 0.0 0.0 0.0
64459.0 72531.0 186539.0 179059.0 180652.0 179673.0 120401.0 115283.0 81174.0 84457.0 174691.0 172040.0 68145.0 68493.0 75084.0 78498.0 197172.0 191730.0 220209.0 215591.0 124850.0 121060.0 93760.0 86341.0 110557.0 114448.0 222342.0 226086.0 112154.0 111706.0 89199.0 94711.0 199028.0 191448.0 132322.0 140267.0 155705.0 149917.0 177392.0 172534.0 158470.0 0.0 158470.0 158470.0 158470.0 158470.0 0.0 0.0 0.0 0.0
FIXED_EDGES_SECTION
1 2
3 4
5 6
7 8
9 10
11 12
13 14
15 16
17 18
19 20
21 22
23 24
25 26
27 28
29 30
31 32
33 34
35 36
37 38
39 40
-1 
DEMAND_SECTION
1 84
2 84
3 396
4 396
5 180
6 180
7 279
8 279
9 534
10 534
11 97
12 97
13 319
14 319
15 68
16 68
17 461
18 461
19 265
20 265
21 322
22 322
23 80
24 80
25 350
26 350
27 234
28 234
29 380
30 380
31 158
32 158
33 479
34 479
35 99
36 99
37 341
38 341
39 341
40 341
41 0
42 0
43 0
44 0
45 0
46 0
47 0
48 0
49 0
50 0
DEPOT_SECTION
41 
-1 
CAPACITIES_SECTION
2500 
2750 
3000 
-1 
EOF