NAME: GFS_20_1
TYPE: GFSP
DIMENSION: 130
VEHICLES: 2
CAPACITY: 7500.0
TRIP_DIST_LIMIT: 900000.0
TOTAL_DIST_LIMIT: 2100000.0
EDGE_WEIGHT_TYPE: EXPLICIT
EDGE_WEIGHT_FORMAT: FULL_MATRIX
EDGE_WEIGHT_SECTION
0.0 8078.0 185994.0 179003.0 98550.0 91033.0 130329.0 133802.0 252128.0 245746.0 82867.0 85279.0 64393.0 59505.0 77131.0 84352.0 36602.0 30363.0 90576.0 87564.0 146517.0 139090.0 183423.0 191398.0 122787.0 115945.0 129433.0 137439.0 189920.0 181994.0 95327.0 90104.0 164528.0 157038.0 170144.0 176003.0 63979.0 56086.0 41046.0 38028.0 160087.0 160702.0 218939.0 221798.0 227557.0 220181.0 159205.0 156124.0 201894.0 205045.0 66146.0 58488.0 139456.0 146094.0 172044.0 168231.0 107547.0 99596.0 173423.0 178654.0 99787.0 100443.0 90444.0 91179.0 219924.0 224994.0 213413.0 205330.0 87005.0 79547.0 221145.0 215400.0 183936.0 180729.0 54855.0 54180.0 189936.0 187163.0 31341.0 23940.0 62433.0 55986.0 164080.0 164968.0 216894.0 222713.0 151612.0 153429.0 162602.0 169192.0 235834.0 233136.0 90401.0 87555.0 92381.0 85358.0 55928.0 63779.0 205232.0 209236.0 148473.0 156471.0 197982.0 202382.0 199517.0 199418.0 67587.0 75649.0 200016.0 206855.0 135224.0 132921.0 57329.0 55609.0 238115.0 231987.0 183033.0 174945.0 195156.0 202327.0 192960.0 64459.0 192960.0 192960.0 192960.0 192960.0 64459.0 64459.0 64459.0 64459.0
8078.0 0.0 191532.0 184420.0 102338.0 95033.0 132321.0 136174.0 257140.0 250902.0 85057.0 88186.0 68623.0 63021.0 78317.0 85189.0 35570.0 28300.0 94548.0 90923.0 150102.0 142832.0 184096.0 192041.0 124575.0 117480.0 131296.0 139286.0 185915.0 177946.0 100528.0 95629.0 164562.0 157199.0 170590.0 176708.0 71136.0 63179.0 48655.0 45992.0 162068.0 163065.0 221508.0 224101.0 232095.0 224819.0 161777.0 159050.0 200010.0 203463.0 65290.0 57541.0 141396.0 148268.0 173777.0 169640.0 108885.0 100741.0 168290.0 173749.0 103326.0 104532.0 94495.0 95848.0 219028.0 224326.0 218338.0 210219.0 91850.0 84155.0 225001.0 219063.0 182819.0 179939.0 61685.0 60636.0 194806.0 192296.0 32994.0 25041.0 70226.0 63925.0 159855.0 161079.0 212419.0 218412.0 149867.0 152087.0 159968.0 166766.0 241575.0 239063.0 92155.0 88653.0 91854.0 84499.0 56773.0 64758.0 210744.0 214547.0 150466.0 158422.0 192604.0 197213.0 195880.0 196078.0 69093.0 77147.0 200265.0 207258.0 133399.0 130635.0 65403.0 63584.0 241853.0 235566.0 182873.0 174785.0 200584.0 207660.0 199086.0 72531.0 199086.0 199086.0 199086.0 199086.0 72531.0 72531.0 72531.0 72531.0
185994.0 191532.0 0.0 8000.0 95667.0 100765.0 283821.0 284030.0 68525.0 61116.0 120770.0 113325.0 215929.0 218129.0 132661.0 131823.0 218801.0 214766.0 235363.0 238079.0 63749.0 65320.0 122910.0 126122.0 278678.0 274516.0 99906.0 97813.0 224045.0 220348.0 91176.0 95921.0 131534.0 127802.0 124369.0 120269.0 126882.0 133415.0 150261.0 157295.0 310805.0 308865.0 92809.0 100765.0 52718.0 44794.0 79678.0 72949.0 185563.0 180699.0 244231.0 237746.0 95688.0 89912.0 323732.0 322604.0 115640.0 121415.0 238053.0 236407.0 96663.0 91759.0 100987.0 97047.0 173638.0 171387.0 33760.0 28234.0 100425.0 108519.0 62932.0 64129.0 160947.0 152943.0 133166.0 132588.0 20956.0 12705.0 208615.0 204737.0 136643.0 144680.0 214115.0 207970.0 251718.0 251715.0 162266.0 155351.0 182608.0 181297.0 50500.0 49486.0 119791.0 127706.0 266234.0 261405.0 147979.0 142225.0 19247.0 24339.0 92829.0 92662.0 259559.0 257780.0 221902.0 215415.0 136244.0 131063.0 138236.0 137800.0 159889.0 167072.0 155235.0 163227.0 77541.0 76652.0 140598.0 138032.0 9783.0 17574.0 33292.0 155105.0 33292.0 33292.0 33292.0 33292.0 155105.0 155105.0 155105.0 155105.0
179003.0 184420.0 8000.0 0.0 87842.0 93063.0 278087.0 278296.0 74285.0 67236.0 112872.0 105477.0 210178.0 212325.0 124745.0 123851.0 212144.0 207969.0 229629.0 232345.0 56062.0 57410.0 116986.0 120529.0 272944.0 268782.0 92130.0 90216.0 216867.0 213059.0 83940.0 88899.0 124747.0 120795.0 117852.0 114042.0 120644.0 126994.0 143815.0 150970.0 305071.0 303131.0 90303.0 98094.0 55813.0 47749.0 72842.0 65892.0 179269.0 174600.0 237884.0 231315.0 88136.0 82542.0 317998.0 316870.0 107658.0 113416.0 230449.0 228894.0 88779.0 83989.0 93304.0 89567.0 168266.0 166296.0 37602.0 30861.0 93049.0 101102.0 63128.0 63278.0 154468.0 146469.0 126602.0 125860.0 19599.0 11791.0 202097.0 198064.0 130833.0 138810.0 206581.0 200503.0 244723.0 244851.0 154909.0 148079.0 175321.0 174164.0 58160.0 57409.0 111819.0 119727.0 260183.0 255227.0 140240.0 134413.0 26463.0 30377.0 85565.0 85729.0 252105.0 250420.0 214960.0 208565.0 128428.0 123175.0 132811.0 132729.0 152247.0 159371.0 149501.0 157493.0 78702.0 76989.0 134385.0 131546.0 16165.0 23438.0 35337.0 149371.0 35337.0 35337.0 35337.0 35337.0 149371.0 149371.0 149371.0 149371.0
98550.0 102338.0 95667.0 87842.0 0.0 7968.0 216361.0 217757.0 156919.0 151377.0 25589.0 17702.0 145719.0 145126.0 37608.0 38559.0 134544.0 128867.0 169174.0 170021.0 48009.0 40542.0 99634.0 107245.0 210126.0 204689.0 41766.0 48517.0 158810.0 152773.0 21083.0 26627.0 88909.0 81300.0 89709.0 92587.0 58783.0 60409.0 73818.0 81838.0 244871.0 243400.0 122274.0 126094.0 130461.0 123475.0 63567.0 59040.0 142189.0 141571.0 163092.0 155744.0 49449.0 53576.0 257676.0 255554.0 34265.0 34505.0 161564.0 162398.0 3661.0 4795.0 8750.0 14235.0 147839.0 150308.0 118068.0 109874.0 18371.0 21511.0 122672.0 116850.0 117828.0 111494.0 57655.0 54240.0 94569.0 93486.0 126544.0 120781.0 73205.0 78509.0 140737.0 136775.0 188840.0 191515.0 98816.0 95330.0 118329.0 120958.0 145953.0 145112.0 27270.0 35138.0 188132.0 181875.0 52631.0 46574.0 114054.0 116376.0 57068.0 64723.0 186069.0 186590.0 161995.0 157951.0 40587.0 35653.0 118638.0 123695.0 88154.0 92418.0 91601.0 98783.0 139581.0 133443.0 107008.0 99874.0 103548.0 109776.0 110237.0 93760.0 110237.0 110237.0 110237.0 110237.0 93760.0 93760.0 93760.0 93760.0
91033.0 95033.0 100765.0 93063.0 7968.0 0.0 208408.0 209826.0 163302.0 157560.0 23314.0 14868.0 137759.0 137158.0 34895.0 37448.0 126875.0 121302.0 161265.0 162072.0 55724.0 48132.0 106856.0 114539.0 202163.0 196721.0 48745.0 55794.0 161793.0 155512.0 17962.0 21785.0 95251.0 87548.0 96547.0 99731.0 51361.0 52652.0 65867.0 73885.0 236942.0 235500.0 130228.0 134062.0 137310.0 130198.0 71521.0 67002.0 147570.0 147285.0 155307.0 147988.0 56868.0 61296.0 249740.0 247600.0 38246.0 36770.0 162890.0 164117.0 10596.0 9541.0 867.0 9169.0 154339.0 157033.0 124412.0 116227.0 11958.0 13619.0 130113.0 124421.0 123565.0 117463.0 49813.0 46323.0 100852.0 99331.0 118742.0 113063.0 65811.0 70884.0 142768.0 139184.0 191858.0 194823.0 102910.0 99914.0 121945.0 125006.0 151220.0 150039.0 27521.0 34695.0 180267.0 174050.0 47244.0 41926.0 119441.0 122131.0 64706.0 72437.0 187688.0 188543.0 165583.0 161847.0 36044.0 32426.0 125759.0 130981.0 91340.0 95019.0 83982.0 91078.0 147097.0 141055.0 113580.0 106287.0 108971.0 115436.0 113779.0 86341.0 113779.0 113779.0 113779.0 113779.0 86341.0 86341.0 86341.0 86341.0
130329.0 132321.0 283821.0 278087.0 216361.0 208408.0 0.0 7469.0 352269.0 344936.0 208159.0 208051.0 70701.0 72404.0 205066.0 212741.0 98826.0 106838.0 48507.0 46375.0 262205.0 254222.0 310758.0 318738.0 8332.0 16285.0 254011.0 261852.0 316347.0 308320.0 204393.0 197370.0 293421.0 285749.0 298157.0 303326.0 160844.0 156959.0 142544.0 134523.0 29764.0 31355.0 338063.0 342297.0 332141.0 324187.0 279928.0 275161.0 332173.0 335375.0 73415.0 79983.0 263473.0 269008.0 41892.0 39193.0 234303.0 227017.0 294950.0 301337.0 218769.0 216412.0 207612.0 204597.0 349924.0 354745.0 315255.0 307774.0 199828.0 194879.0 331585.0 327534.0 314135.0 310689.0 159146.0 162197.0 293207.0 288295.0 99379.0 107286.0 148046.0 140773.0 289912.0 291922.0 341256.0 347795.0 281920.0 283734.0 292257.0 299086.0 331206.0 327709.0 216588.0 215373.0 52203.0 59589.0 185014.0 192459.0 302679.0 308109.0 272044.0 280003.0 317559.0 323215.0 327059.0 327744.0 195225.0 202998.0 328265.0 334697.0 265506.0 262940.0 128674.0 120714.0 348912.0 344204.0 312168.0 304115.0 293541.0 301234.0 287186.0 129679.0 287186.0 287186.0 287186.0 287186.0 129679.0 129679.0 129679.0 129679.0
133802.0 136174.0 284030.0 278296.0 217757.0 209826.0 7469.0 0.0 352478.0 345145.0 210384.0 209986.0 72587.0 75076.0 207687.0 215419.0 103361.0 111353.0 48819.0 47969.0 263139.0 255145.0 313005.0 320974.0 14879.0 22671.0 255949.0 263742.0 320907.0 312886.0 205189.0 198112.0 296047.0 288338.0 300565.0 305582.0 161520.0 157964.0 143995.0 136001.0 27124.0 26905.0 339094.0 343477.0 332350.0 324396.0 281304.0 276370.0 335689.0 338735.0 78967.0 85255.0 265305.0 270680.0 39932.0 38674.0 236624.0 229471.0 300024.0 306314.0 220256.0 217646.0 209018.0 205721.0 352914.0 357605.0 315464.0 307983.0 200952.0 196249.0 331771.0 327887.0 317281.0 313679.0 160306.0 163523.0 293416.0 288504.0 103180.0 111144.0 148413.0 141340.0 294522.0 296377.0 346107.0 352566.0 285391.0 287023.0 296130.0 302866.0 331415.0 327918.0 218892.0 217936.0 58849.0 66024.0 187932.0 195266.0 302888.0 308318.0 273790.0 281720.0 322836.0 328395.0 331452.0 331987.0 197840.0 205533.0 330684.0 337016.0 269022.0 266650.0 128981.0 121080.0 349080.0 344515.0 314840.0 306807.0 293750.0 301443.0 287395.0 129575.0 287395.0 287395.0 287395.0 287395.0 129575.0 129575.0 129575.0 129575.0
252128.0 257140.0 68525.0 74285.0 156919.0 163302.0 352269.0 352478.0 0.0 8543.0 180095.0 173767.0 284377.0 286559.0 191281.0 188652.0 285960.0 281526.0 303812.0 306527.0 113835.0 119102.0 143634.0 142958.0 347127.0 342964.0 147221.0 142101.0 253761.0 252015.0 156809.0 162311.0 161167.0 160615.0 151494.0 144607.0 194906.0 201162.0 217949.0 225183.0 379254.0 377313.0 88382.0 95450.0 30421.0 34958.0 116996.0 113902.0 204883.0 197976.0 312053.0 305412.0 139500.0 131814.0 392181.0 391052.0 168132.0 175481.0 275041.0 271602.0 156982.0 153813.0 163699.0 161363.0 183241.0 178191.0 38893.0 47075.0 165290.0 173059.0 51643.0 59788.0 184223.0 176785.0 200641.0 199687.0 62465.0 65047.0 276117.0 271869.0 205059.0 213061.0 250392.0 243199.0 277664.0 275715.0 197655.0 189817.0 215791.0 212135.0 33853.0 42109.0 177015.0 184303.0 334467.0 329486.0 209293.0 202626.0 50293.0 44189.0 132958.0 128811.0 293006.0 289548.0 248082.0 240522.0 196699.0 190354.0 151810.0 147804.0 200528.0 208594.0 223683.0 231675.0 48726.0 55306.0 162478.0 163346.0 58761.0 51038.0 92852.0 223554.0 92852.0 92852.0 92852.0 92852.0 223554.0 223554.0 223554.0 223554.0
245746.0 250902.0 61116.0 67236.0 151377.0 157560.0 344936.0 345145.0 8543.0 0.0 174971.0 168431.0 277045.0 279244.0 186315.0 183967.0 279281.0 274976.0 296479.0 299194.0 109475.0 114350.0 143404.0 143204.0 339794.0 335632.0 143642.0 138867.0 253178.0 251169.0 150430.0 155763.0 160021.0 159058.0 150560.0 143938.0 187851.0 194231.0 211049.0 218201.0 371921.0 369981.0 90155.0 97558.0 29401.0 32042.0 114268.0 110668.0 205387.0 198690.0 305120.0 298546.0 136298.0 128758.0 384848.0 383719.0 164000.0 171161.0 273558.0 270352.0 151596.0 148120.0 157926.0 155276.0 184793.0 180044.0 33534.0 41674.0 159100.0 166956.0 52242.0 60031.0 184086.0 176516.0 193812.0 192983.0 56824.0 58606.0 269310.0 265194.0 197759.0 205793.0 248924.0 241844.0 277656.0 275950.0 196053.0 188285.0 214583.0 211214.0 25792.0 34077.0 172218.0 179638.0 327315.0 322426.0 203906.0 197389.0 42494.0 36896.0 130143.0 126435.0 292056.0 288812.0 247936.0 240481.0 191436.0 185272.0 152572.0 148959.0 198242.0 206230.0 216351.0 224342.0 52126.0 57924.0 162323.0 162768.0 51422.0 43823.0 84514.0 216221.0 84514.0 84514.0 84514.0 84514.0 216221.0 216221.0 216221.0 216221.0
82867.0 85057.0 120770.0 112872.0 25589.0 23314.0 208159.0 210384.0 180095.0 174971.0 0.0 8448.0 137808.0 135814.0 12021.0 14403.0 119468.0 112940.0 162842.0 162439.0 67615.0 61308.0 102623.0 110596.0 201328.0 195244.0 46640.0 54640.0 142240.0 135564.0 40710.0 42786.0 86626.0 78796.0 90327.0 95199.0 61822.0 60056.0 68563.0 76041.0 237423.0 236758.0 136481.0 139057.0 152558.0 145969.0 76786.0 74489.0 134134.0 135011.0 148945.0 141325.0 56607.0 63258.0 249972.0 247113.0 26366.0 20250.0 140952.0 142631.0 24129.0 30089.0 23619.0 31617.0 145212.0 148979.0 141473.0 133305.0 32230.0 27523.0 142457.0 135918.0 111739.0 106650.0 56319.0 51753.0 118222.0 117836.0 113124.0 106441.0 75548.0 78514.0 121781.0 118786.0 172235.0 175727.0 86430.0 84839.0 104006.0 108040.0 170813.0 170256.0 8792.0 12569.0 174940.0 168109.0 30015.0 22698.0 138860.0 140752.0 65608.0 73610.0 166019.0 167285.0 147193.0 144160.0 16972.0 10343.0 120429.0 126645.0 72976.0 75410.0 91131.0 97110.0 158794.0 152073.0 105502.0 97646.0 128347.0 134294.0 135822.0 95068.0 135822.0 135822.0 135822.0 135822.0 95068.0 95068.0 95068.0 95068.0
85279.0 88186.0 113325.0 105477.0 17702.0 14868.0 208051.0 209986.0 173767.0 168431.0 8448.0 0.0 137437.0 135944.0 20213.0 22673.0 121787.0 115594.0 161988.0 162022.0 62483.0 55692.0 103470.0 111377.0 201422.0 195563.0 45967.0 53805.0 149142.0 142619.0 32395.0 34878.0 89048.0 81209.0 91848.0 96113.0 57251.0 56477.0 66765.0 74530.0 237087.0 236140.0 133682.0 136710.0 146712.0 139937.0 73979.0 70892.0 138615.0 139044.0 150966.0 143437.0 55480.0 61440.0 249740.0 247139.0 29023.0 24939.0 148817.0 150312.0 16859.0 21982.0 15185.0 23308.0 148065.0 151435.0 135007.0 126819.0 24302.0 20676.0 137570.0 131303.0 115531.0 110028.0 52975.0 48677.0 111612.0 110861.0 114746.0 108408.0 71388.0 75102.0 129247.0 126009.0 179186.0 182472.0 91985.0 89815.0 110206.0 113856.0 163547.0 162785.0 14016.0 20247.0 176634.0 170017.0 35535.0 29041.0 131623.0 133775.0 64211.0 72221.0 173782.0 174884.0 153637.0 150323.0 23057.0 18022.0 121772.0 127640.0 79265.0 82234.0 87993.0 94404.0 154164.0 147661.0 107820.0 100141.0 121111.0 127232.0 127741.0 91411.0 127741.0 127741.0 127741.0 127741.0 91411.0 91411.0 91411.0 91411.0
64393.0 68623.0 215929.0 210178.0 145719.0 137759.0 70701.0 72587.0 284377.0 277045.0 137808.0 137437.0 0.0 8300.0 135374.0 143160.0 44674.0 51001.0 26241.0 24631.0 191924.0 183964.0 240424.0 248392.0 64430.0 59330.0 183404.0 191219.0 254276.0 246337.0 134416.0 127508.0 223668.0 215930.0 228035.0 233004.0 91318.0 86812.0 71927.0 63901.0 99663.0 98995.0 267628.0 271738.0 264060.0 256144.0 209276.0 204605.0 264841.0 267494.0 42682.0 41635.0 192815.0 198310.0 112304.0 109874.0 164071.0 156991.0 236799.0 242346.0 148090.0 145873.0 136968.0 134172.0 280941.0 285449.0 247351.0 239827.0 129410.0 124262.0 262508.0 258109.0 245615.0 241742.0 88771.0 91644.0 225135.0 220384.0 37930.0 45342.0 79514.0 71756.0 228349.0 229346.0 281018.0 286952.0 214541.0 215709.0 226524.0 232906.0 263314.0 259818.0 146337.0 145551.0 53969.0 51924.0 116115.0 123228.0 234787.0 240218.0 201359.0 209312.0 260916.0 265685.0 263906.0 263740.0 125535.0 133135.0 258155.0 264449.0 198347.0 196593.0 60798.0 52885.0 279849.0 274838.0 242495.0 234486.0 225650.0 233342.0 219294.0 63526.0 219294.0 219294.0 219294.0 219294.0 63526.0 63526.0 63526.0 63526.0
59505.0 63021.0 218129.0 212325.0 145126.0 137158.0 72404.0 75076.0 286559.0 279244.0 135814.0 135944.0 8300.0 0.0 132693.0 140395.0 36841.0 43507.0 31698.0 28060.0 191921.0 184004.0 238381.0 246364.0 65521.0 59655.0 181853.0 189737.0 248935.0 240967.0 134898.0 128131.0 221059.0 213372.0 225754.0 230947.0 92462.0 87365.0 71735.0 63769.0 101886.0 101843.0 267324.0 271216.0 265679.0 257816.0 208558.0 204149.0 260979.0 263856.0 35143.0 33554.0 191421.0 197157.0 114280.0 111300.0 161915.0 154613.0 230715.0 236408.0 147336.0 145552.0 136391.0 134094.0 277842.0 282535.0 249277.0 241650.0 129358.0 123804.0 263402.0 258782.0 242258.0 238608.0 88986.0 91494.0 226804.0 222305.0 31140.0 38881.0 81500.0 73522.0 222868.0 224082.0 275346.0 281399.0 210660.0 212101.0 222081.0 228612.0 265514.0 262017.0 144208.0 142983.0 49217.0 46193.0 112860.0 120196.0 236958.0 242412.0 200089.0 208078.0 254638.0 259545.0 258815.0 258854.0 122848.0 130601.0 255861.0 262301.0 194364.0 192314.0 63494.0 55805.0 280730.0 275532.0 239828.0 231784.0 227847.0 235530.0 221494.0 67000.0 221494.0 221494.0 221494.0 221494.0 67000.0 67000.0 67000.0 67000.0
77131.0 78317.0 132661.0 124745.0 37608.0 34895.0 205066.0 207687.0 191281.0 186315.0 12021.0 20213.0 135374.0 132693.0 0.0 7886.0 113480.0 106556.0 160954.0 159937.0 78139.0 72234.0 106369.0 114354.0 197974.0 191600.0 53379.0 61296.0 135629.0 128644.0 51677.0 52894.0 88367.0 80683.0 93302.0 98939.0 66473.0 63333.0 69059.0 75951.0 234575.0 234306.0 144416.0 146482.0 163391.0 156958.0 85132.0 83632.0 132136.0 133756.0 143187.0 135482.0 63531.0 70779.0 246955.0 243747.0 30572.0 22472.0 132035.0 134199.0 36096.0 42083.0 35101.0 42654.0 145758.0 150101.0 152789.0 144641.0 42562.0 36584.0 152476.0 145701.0 111055.0 106677.0 59382.0 54612.0 129659.0 129496.0 108123.0 101031.0 79302.0 81119.0 113959.0 111560.0 165425.0 169342.0 82959.0 82463.0 99079.0 103835.0 182608.0 182146.0 14850.0 10431.0 169509.0 162421.0 21597.0 13601.0 150650.0 152398.0 72630.0 80486.0 157321.0 159005.0 141519.0 139058.0 9847.0 3303.0 123338.0 129984.0 68258.0 69479.0 93134.0 98401.0 168542.0 161624.0 107154.0 99127.0 140140.0 145993.0 147836.0 97785.0 147836.0 147836.0 147836.0 147836.0 97785.0 97785.0 97785.0 97785.0
84352.0 85189.0 131823.0 123851.0 38559.0 37448.0 212741.0 215419.0 188652.0 183967.0 14403.0 22673.0 143160.0 140395.0 7886.0 0.0 120531.0 113480.0 168782.0 167706.0 74956.0 69617.0 99073.0 107046.0 205610.0 199187.0 47594.0 55357.0 128936.0 122087.0 55059.0 57166.0 80683.0 73038.0 85844.0 91657.0 73564.0 70756.0 76891.0 83821.0 242281.0 242063.0 138787.0 140555.0 160277.0 154075.0 79981.0 79077.0 124309.0 125882.0 150270.0 142548.0 57709.0 65220.0 254633.0 251368.0 24220.0 15813.0 126678.0 128497.0 36379.0 43282.0 37822.0 45967.0 137906.0 142293.0 150443.0 142350.0 46622.0 41578.0 148443.0 141454.0 103169.0 98807.0 66838.0 62091.0 127594.0 127929.0 115476.0 108285.0 86657.0 88709.0 107864.0 105139.0 158837.0 162571.0 75283.0 74644.0 91752.0 96329.0 181330.0 181224.0 12032.0 4367.0 176671.0 169509.0 28468.0 20573.0 149404.0 150747.0 66773.0 74495.0 151810.0 153213.0 134464.0 131816.0 17644.0 10701.0 115817.0 122551.0 60822.0 62428.0 100833.0 106188.0 164218.0 157135.0 99433.0 91391.0 138926.0 144489.0 148365.0 105378.0 148365.0 148365.0 148365.0 148365.0 105378.0 105378.0 105378.0 105378.0
36602.0 35570.0 218801.0 212144.0 134544.0 126875.0 98826.0 103361.0 285960.0 279281.0 119468.0 121787.0 44674.0 36841.0 113480.0 120531.0 0.0 8013.0 67330.0 61739.0 182552.0 175007.0 219548.0 227504.0 90801.0 83370.0 166017.0 174022.0 217565.0 209541.0 129510.0 123700.0 200130.0 192757.0 206103.0 212147.0 92857.0 85709.0 68931.0 62695.0 128362.0 130024.0 255468.0 258383.0 262311.0 254784.0 195750.0 192553.0 234771.0 238467.0 29752.0 22018.0 176049.0 182695.0 139646.0 135100.0 143987.0 135949.0 197100.0 203205.0 135961.0 136155.0 126243.0 126257.0 254417.0 259796.0 247507.0 239517.0 121869.0 114808.0 256822.0 251277.0 218127.0 215384.0 85665.0 86298.0 224202.0 220916.0 12001.0 14091.0 86680.0 78792.0 191164.0 193099.0 242830.0 249233.0 184819.0 187303.0 194015.0 201040.0 267886.0 264627.0 126951.0 123876.0 56284.0 48986.0 92064.0 100006.0 238027.0 242512.0 185071.0 193067.0 220411.0 225686.0 228234.0 228973.0 104047.0 112117.0 235817.0 242785.0 168325.0 165163.0 74070.0 68620.0 273898.0 267927.0 218440.0 210353.0 228201.0 235575.0 224102.0 80125.0 224102.0 224102.0 224102.0 224102.0 80125.0 80125.0 80125.0 80125.0
30363.0 28300.0 214766.0 207969.0 128867.0 121302.0 106838.0 111353.0 281526.0 274976.0 112940.0 115594.0 51001.0 43507.0 106556.0 113480.0 8013.0 0.0 74557.0 69260.0 176853.0 169397.0 212392.0 220336.0 98814.0 91377.0 159367.0 167366.0 209562.0 201539.0 124802.0 119224.0 192757.0 185429.0 198868.0 205006.0 89770.0 82347.0 65800.0 60195.0 136374.0 138030.0 249209.0 251976.0 257425.0 249973.0 189466.0 186463.0 226903.0 230651.0 37139.0 29395.0 169437.0 176198.0 147643.0 143065.0 137112.0 129001.0 189233.0 195299.0 130141.0 130673.0 120699.0 121125.0 246750.0 252187.0 242938.0 234902.0 116838.0 109567.0 251394.0 245707.0 210421.0 207761.0 81959.0 82194.0 219543.0 216488.0 14422.0 11601.0 84739.0 77083.0 183168.0 185088.0 234878.0 241263.0 177001.0 179564.0 186060.0 193106.0 264177.0 261125.0 120244.0 116915.0 63761.0 56284.0 85046.0 93021.0 234010.0 238301.0 178487.0 186464.0 212631.0 217856.0 220221.0 220962.0 97241.0 105308.0 228502.0 235523.0 160504.0 157270.0 73664.0 68904.0 268399.0 262311.0 210996.0 202913.0 224077.0 231372.0 220667.0 80081.0 220667.0 220667.0 220667.0 220667.0 80081.0 80081.0 80081.0 80081.0
90576.0 94548.0 235363.0 229629.0 169174.0 161265.0 48507.0 48819.0 303812.0 296479.0 162842.0 161988.0 26241.0 31698.0 160954.0 168782.0 67330.0 74557.0 0.0 8428.0 214333.0 206338.0 265321.0 273265.0 43952.0 41243.0 207882.0 215605.0 280379.0 272427.0 156371.0 149294.0 249079.0 241308.0 253167.0 257923.0 112702.0 109203.0 95564.0 87623.0 75824.0 74256.0 290302.0 294733.0 283683.0 275729.0 232675.0 227650.0 290948.0 293515.0 54664.0 57164.0 217097.0 222296.0 88714.0 87266.0 189186.0 182305.0 262412.0 268088.0 171743.0 168958.0 160449.0 156985.0 306668.0 311049.0 266797.0 259317.0 152218.0 147664.0 283145.0 279170.0 271506.0 267507.0 111617.0 114942.0 244750.0 239838.0 62806.0 70579.0 99665.0 92531.0 254388.0 255475.0 306955.0 312958.0 240665.0 241732.0 252758.0 259124.0 282748.0 279252.0 171467.0 171032.0 52757.0 54678.0 142055.0 149045.0 254221.0 259652.0 225479.0 233373.0 286327.0 291243.0 290090.0 289963.0 151139.0 158616.0 283271.0 289423.0 224505.0 222812.0 80254.0 72322.0 300467.0 295820.0 267938.0 259959.0 245084.0 252776.0 238728.0 81174.0 238728.0 238728.0 238728.0 238728.0 81174.0 81174.0 81174.0 81174.0
87564.0 90923.0 238079.0 232345.0 170021.0 162072.0 46375.0 47969.0 306527.0 299194.0 162439.0 162022.0 24631.0 28060.0 159937.0 167706.0 61739.0 69260.0 8428.0 0.0 215848.0 207869.0 265054.0 273021.0 40655.0 36623.0 207987.0 215787.0 276810.0 268830.0 158088.0 151091.0 248258.0 240528.0 252662.0 257634.0 114626.0 110605.0 96206.0 88192.0 75065.0 74383.0 291691.0 295925.0 286361.0 278390.0 233587.0 228790.0 288924.0 291716.0 46836.0 49846.0 217363.0 222792.0 87755.0 85560.0 188701.0 181606.0 258025.0 263864.0 172458.0 170041.0 161273.0 158223.0 305411.0 309977.0 269513.0 262032.0 153454.0 148529.0 285618.0 281435.0 269978.0 266195.0 112771.0 115834.0 247433.0 242553.0 58446.0 66381.0 102101.0 94663.0 250676.0 251998.0 303013.0 309147.0 238605.0 239941.0 250137.0 256655.0 285464.0 281967.0 170967.0 170138.0 44441.0 46250.0 140489.0 147689.0 256937.0 262367.0 225874.0 233815.0 281700.0 286774.0 286789.0 286881.0 150093.0 157725.0 282782.0 289080.0 222338.0 220352.0 82861.0 74868.0 302956.0 298130.0 267077.0 259060.0 247799.0 255492.0 241444.0 84457.0 241444.0 241444.0 241444.0 241444.0 84457.0 84457.0 84457.0 84457.0
146517.0 150102.0 63749.0 56062.0 48009.0 55724.0 262205.0 263139.0 113835.0 109475.0 67615.0 62483.0 191924.0 191921.0 78139.0 74956.0 182552.0 176853.0 214333.0 215848.0 0.0 7999.0 71235.0 77095.0 256302.0 251191.0 36265.0 34234.0 161836.0 157664.0 58050.0 65205.0 72405.0 67199.0 67580.0 66141.0 101758.0 105246.0 120197.0 128189.0 290151.0 288294.0 76012.0 80842.0 85338.0 79141.0 24225.0 16497.0 128868.0 125469.0 211027.0 203711.0 32274.0 27674.0 303048.0 301348.0 54593.0 61692.0 174405.0 172953.0 46780.0 46665.0 56387.0 57827.0 124073.0 124112.0 76096.0 68170.0 62567.0 68438.0 75091.0 68963.0 103379.0 95581.0 103153.0 100430.0 54205.0 56388.0 174455.0 168775.0 115445.0 122010.0 150615.0 144657.0 190323.0 190998.0 99417.0 92910.0 120008.0 119440.0 109586.0 110871.0 63545.0 70594.0 235889.0 229740.0 97539.0 90305.0 78475.0 78220.0 31313.0 34175.0 196260.0 194787.0 160875.0 154924.0 84563.0 77582.0 89824.0 92414.0 96188.0 103324.0 134764.0 142455.0 91778.0 85483.0 85590.0 80985.0 68519.0 72648.0 88814.0 135524.0 88814.0 88814.0 88814.0 88814.0 135524.0 135524.0 135524.0 135524.0
139090.0 142832.0 65320.0 57410.0 40542.0 48132.0 254222.0 255145.0 119102.0 114350.0 61308.0 55692.0 183964.0 184004.0 72234.0 69617.0 175007.0 169397.0 206338.0 207869.0 7999.0 0.0 76730.0 82972.0 248333.0 243242.0 35285.0 35054.0 163013.0 158507.0 50053.0 57210.0 75787.0 70002.0 71876.0 71198.0 93759.0 97264.0 112272.0 120258.0 282155.0 280295.0 84010.0 88809.0 91250.0 84728.0 30701.0 23458.0 132483.0 129508.0 203368.0 196082.0 33564.0 30720.0 295053.0 293362.0 50755.0 57244.0 174023.0 172946.0 39567.0 38938.0 48769.0 49919.0 129324.0 129740.0 80829.0 72752.0 54647.0 60653.0 82177.0 76311.0 106929.0 99278.0 95194.0 92510.0 58167.0 59316.0 166785.0 161186.0 107457.0 114011.0 150581.0 144910.0 191902.0 192905.0 100364.0 94257.0 121058.0 121017.0 112875.0 113615.0 57915.0 65288.0 228136.0 222033.0 91032.0 83989.0 81287.0 81770.0 34713.0 38991.0 196426.0 195279.0 162727.0 157050.0 78158.0 71450.0 95615.0 98622.0 95827.0 102607.0 126769.0 134458.0 99042.0 92925.0 90087.0 84969.0 71040.0 75833.0 88170.0 127556.0 88170.0 88170.0 88170.0 88170.0 127556.0 127556.0 127556.0 127556.0
183423.0 184096.0 122910.0 116986.0 99634.0 106856.0 310758.0 313005.0 143634.0 143404.0 102623.0 103470.0 240424.0 238381.0 106369.0 99073.0 219548.0 212392.0 265321.0 265054.0 71235.0 76730.0 0.0 7991.0 303867.0 297674.0 58192.0 51116.0 110261.0 108970.0 118272.0 125053.0 23636.0 28748.0 14291.0 7440.0 158210.0 158985.0 170233.0 177994.0 340046.0 339346.0 60473.0 57127.0 114012.0 112427.0 47343.0 55298.0 63372.0 57914.0 249298.0 241565.0 50313.0 47983.0 352586.0 349661.0 76476.0 84008.0 134040.0 129659.0 96378.0 101567.0 107723.0 113652.0 52891.0 53014.0 116930.0 111831.0 117993.0 120110.0 92070.0 83856.0 40687.0 33151.0 155789.0 151765.0 104918.0 111412.0 214491.0 207352.0 172662.0 177484.0 109690.0 102056.0 134271.0 132786.0 59863.0 52068.0 74480.0 69625.0 155090.0 159523.0 94173.0 95941.0 275735.0 268533.0 127527.0 119644.0 130370.0 126212.0 43941.0 37907.0 150048.0 146192.0 104532.0 97095.0 116082.0 108115.0 19238.0 24197.0 69414.0 77373.0 190558.0 197371.0 100209.0 92140.0 18936.0 20516.0 123214.0 123525.0 153652.0 193176.0 153652.0 153652.0 153652.0 153652.0 193176.0 193176.0 193176.0 193176.0
191398.0 192041.0 126122.0 120529.0 107245.0 114539.0 318738.0 320974.0 142958.0 143204.0 110596.0 111377.0 248392.0 246364.0 114354.0 107046.0 227504.0 220336.0 273265.0 273021.0 77095.0 82972.0 7991.0 0.0 311852.0 305664.0 65959.0 58751.0 111952.0 111219.0 125634.0 132472.0 30310.0 36135.0 21812.0 15430.0 165900.0 166772.0 178131.0 185906.0 348018.0 347304.0 57563.0 53303.0 113825.0 112803.0 52937.0 60853.0 62289.0 56037.0 257255.0 249521.0 57831.0 55035.0 360564.0 357647.0 84464.0 91998.0 137266.0 132504.0 104030.0 109069.0 115404.0 121203.0 47954.0 47125.0 118044.0 113396.0 125585.0 127847.0 91320.0 83260.0 41727.0 34920.0 163602.0 159605.0 107473.0 114310.0 222474.0 215328.0 180350.0 185246.0 113183.0 105437.0 134741.0 132782.0 64956.0 57375.0 78084.0 72621.0 156101.0 160879.0 102156.0 103926.0 283700.0 276490.0 135495.0 127618.0 132527.0 127964.0 51065.0 44575.0 152209.0 147989.0 105311.0 97646.0 124070.0 116105.0 12764.0 16450.0 75601.0 83392.0 198328.0 205178.0 98168.0 90195.0 20607.0 24825.0 125843.0 125676.0 157491.0 200878.0 157491.0 157491.0 157491.0 157491.0 200878.0 200878.0 200878.0 200878.0
122787.0 124575.0 278678.0 272944.0 210126.0 202163.0 8332.0 14879.0 347127.0 339794.0 201328.0 201422.0 64430.0 65521.0 197974.0 205610.0 90801.0 98814.0 43952.0 40655.0 256302.0 248333.0 303867.0 311852.0 0.0 7962.0 247353.0 255225.0 308253.0 300225.0 198647.0 191675.0 286290.0 278643.0 291165.0 296430.0 155254.0 151100.0 136354.0 128328.0 37573.0 39616.0 332051.0 336165.0 326886.0 319044.0 273670.0 269033.0 324527.0 327808.0 65112.0 71733.0 256887.0 262534.0 49257.0 45796.0 227392.0 220021.0 286709.0 293119.0 212462.0 210302.0 201376.0 198585.0 342561.0 347456.0 310112.0 302632.0 193821.0 188683.0 326272.0 322081.0 306689.0 303333.0 153158.0 156073.0 288065.0 283153.0 91700.0 99564.0 142747.0 135316.0 281803.0 283866.0 333070.0 339631.0 274305.0 276216.0 284442.0 291314.0 326064.0 322567.0 209698.0 208313.0 44034.0 51331.0 177750.0 185258.0 297536.0 302967.0 265516.0 273492.0 309277.0 314951.0 319023.0 319765.0 188143.0 195964.0 321256.0 327752.0 257872.0 255209.0 123475.0 115486.0 343610.0 338780.0 305002.0 296940.0 288399.0 296091.0 282043.0 124850.0 282043.0 282043.0 282043.0 282043.0 124850.0 124850.0 124850.0 124850.0
115945.0 117480.0 274516.0 268782.0 204689.0 196721.0 16285.0 22671.0 342964.0 335632.0 195244.0 195563.0 59330.0 59655.0 191600.0 199187.0 83370.0 91377.0 41243.0 36623.0 251191.0 243242.0 297674.0 305664.0 7962.0 0.0 241436.0 249337.0 300679.0 292649.0 193746.0 186836.0 279838.0 272221.0 284864.0 290235.0 150577.0 146140.0 131055.0 123040.0 45060.0 47469.0 326791.0 330780.0 322844.0 314887.0 268172.0 263677.0 317487.0 320860.0 57260.0 63976.0 251043.0 256809.0 56333.0 52291.0 221205.0 213743.0 278939.0 285382.0 206946.0 205002.0 195946.0 193399.0 335840.0 340818.0 305950.0 298440.0 188643.0 183307.0 321747.0 317411.0 299881.0 296627.0 148054.0 150815.0 283911.0 278990.0 84728.0 92526.0 138407.0 130822.0 274212.0 276343.0 325374.0 331965.0 267309.0 269331.0 277212.0 284133.0 321901.0 318405.0 203544.0 201969.0 36180.0 43397.0 171192.0 178768.0 293374.0 298805.0 259730.0 267722.0 301443.0 307144.0 311521.0 312334.0 181786.0 189656.0 314931.0 321495.0 250857.0 248082.0 119291.0 111298.0 339089.0 334134.0 298508.0 290436.0 284237.0 291929.0 277881.0 121060.0 277881.0 277881.0 277881.0 277881.0 121060.0 121060.0 121060.0 121060.0
129433.0 131296.0 99906.0 92130.0 41766.0 48745.0 254011.0 255949.0 147221.0 143642.0 46640.0 45967.0 183404.0 181853.0 53379.0 47594.0 166017.0 159367.0 207882.0 207987.0 36265.0 35285.0 58192.0 65959.0 247353.0 241436.0 0.0 8006.0 128476.0 123674.0 61508.0 67906.0 47795.0 40507.0 47951.0 51009.0 100056.0 100814.0 112460.0 120317.0 283052.0 282071.0 91195.0 93105.0 117547.0 112264.0 32901.0 33636.0 103066.0 101529.0 195552.0 187916.0 10152.0 17698.0 295707.0 293087.0 23517.0 31935.0 138742.0 137685.0 38378.0 44218.0 49612.0 55956.0 106281.0 108572.0 110790.0 103154.0 60117.0 61922.0 103083.0 95627.0 77931.0 71043.0 97659.0 93709.0 89936.0 92590.0 159761.0 153070.0 114508.0 119295.0 115320.0 109738.0 157750.0 159197.0 65852.0 60338.0 86533.0 87167.0 145513.0 147042.0 39141.0 43530.0 221579.0 214730.0 74900.0 66938.0 114664.0 114079.0 19251.0 27139.0 161198.0 160178.0 129045.0 123841.0 62226.0 54206.0 77020.0 82368.0 60543.0 67365.0 132373.0 139227.0 118067.0 110686.0 65429.0 58548.0 104771.0 108720.0 123436.0 135005.0 123436.0 123436.0 123436.0 123436.0 135005.0 135005.0 135005.0 135005.0
137439.0 139286.0 97813.0 90216.0 48517.0 55794.0 261852.0 263742.0 142101.0 138867.0 54640.0 53805.0 191219.0 189737.0 61296.0 55357.0 174022.0 167366.0 215605.0 215787.0 34234.0 35054.0 51116.0 58751.0 255225.0 249337.0 8006.0 0.0 128004.0 123621.0 67521.0 74151.0 42994.0 36255.0 41818.0 44102.0 107153.0 108173.0 120119.0 128005.0 290852.0 289818.0 83476.0 85227.0 112145.0 107200.0 26141.0 28213.0 99252.0 97150.0 203557.0 195921.0 2646.0 10644.0 303523.0 300944.0 31168.0 39608.0 140242.0 138722.0 45279.0 50547.0 56658.0 62560.0 100483.0 102374.0 106418.0 98989.0 66878.0 69158.0 96768.0 89136.0 73830.0 66591.0 105094.0 101223.0 86397.0 89688.0 167757.0 161074.0 121602.0 126579.0 116389.0 110430.0 156848.0 157892.0 65403.0 59203.0 86073.0 85967.0 141968.0 143905.0 47132.0 51355.0 229580.0 222735.0 82843.0 74871.0 111647.0 110544.0 11428.0 19190.0 162030.0 160614.0 127709.0 122128.0 70206.0 62176.0 70153.0 75198.0 62098.0 69430.0 139672.0 146618.0 111358.0 103853.0 59751.0 53324.0 102024.0 105488.0 122800.0 142135.0 122800.0 122800.0 122800.0 122800.0 142135.0 142135.0 142135.0 142135.0
189920.0 185915.0 224045.0 216867.0 158810.0 161793.0 316347.0 320907.0 253761.0 253178.0 142240.0 149142.0 254276.0 248935.0 135629.0 128936.0 217565.0 209562.0 280379.0 276810.0 161836.0 163013.0 110261.0 111952.0 308253.0 300679.0 128476.0 128004.0 0.0 8030.0 179428.0 183465.0 93853.0 96468.0 102784.0 109242.0 202012.0 198286.0 200724.0 206141.0 345738.0 347586.0 169446.0 164631.0 223871.0 221688.0 144671.0 151107.0 56380.0 64804.0 244111.0 236938.0 129699.0 134474.0 356640.0 351541.0 124636.0 125027.0 34883.0 27010.0 155306.0 163200.0 162460.0 170960.0 88027.0 96140.0 224904.0 218885.0 173068.0 169643.0 202290.0 194042.0 70242.0 77229.0 194276.0 189485.0 209329.0 214335.0 218495.0 210513.0 214328.0 215108.0 26537.0 25062.0 30066.0 33796.0 62672.0 68927.0 41968.0 42802.0 262840.0 266372.0 135138.0 129713.0 269474.0 261421.0 146002.0 141731.0 235333.0 232492.0 131316.0 131587.0 40799.0 36042.0 13938.0 20347.0 143031.0 138912.0 105919.0 112287.0 70666.0 66908.0 226040.0 229985.0 210098.0 202096.0 91657.0 90432.0 226727.0 228677.0 250648.0 231534.0 250648.0 250648.0 250648.0 250648.0 231534.0 231534.0 231534.0 231534.0
181994.0 177946.0 220348.0 213059.0 152773.0 155512.0 308320.0 312886.0 252015.0 251169.0 135564.0 142619.0 246337.0 240967.0 128644.0 122087.0 209541.0 201539.0 272427.0 268830.0 157664.0 158507.0 108970.0 111219.0 300225.0 292649.0 123674.0 123621.0 8030.0 0.0 173243.0 177111.0 91295.0 93311.0 100609.0 107421.0 194925.0 191069.0 193233.0 198567.0 337709.0 339561.0 168780.0 164286.0 221955.0 219502.0 141320.0 147517.0 58724.0 67094.0 236082.0 228908.0 125422.0 130531.0 348609.0 343513.0 118722.0 118751.0 30104.0 23025.0 149308.0 157226.0 156162.0 164680.0 90684.0 98842.0 222325.0 216119.0 166663.0 163031.0 200722.0 192436.0 69786.0 76306.0 187055.0 182269.0 206145.0 210915.0 210502.0 202521.0 207104.0 207755.0 18525.0 17383.0 36784.0 41251.0 58248.0 64998.0 37740.0 39976.0 260112.0 263429.0 128642.0 123010.0 261454.0 253402.0 138535.0 134416.0 232127.0 229527.0 127520.0 128236.0 41079.0 37756.0 20806.0 25733.0 135862.0 131936.0 106032.0 112731.0 64820.0 60494.0 218583.0 222439.0 209122.0 201074.0 90705.0 88785.0 223332.0 225526.0 246410.0 224138.0 246410.0 246410.0 246410.0 246410.0 224138.0 224138.0 224138.0 224138.0
95327.0 100528.0 91176.0 83940.0 21083.0 17962.0 204393.0 205189.0 156809.0 150430.0 40710.0 32395.0 134416.0 134898.0 51677.0 55059.0 129510.0 124802.0 156371.0 158088.0 58050.0 50053.0 118272.0 125634.0 198647.0 193746.0 61508.0 67521.0 179428.0 173243.0 0.0 7195.0 109179.0 101695.0 109263.0 111472.0 43716.0 47612.0 63387.0 71224.0 232167.0 230279.0 134060.0 138795.0 132829.0 125276.0 78140.0 72217.0 163101.0 162303.0 156612.0 149642.0 68031.0 70823.0 245077.0 243490.0 55182.0 54517.0 180850.0 182069.0 24737.0 17487.0 17433.0 9094.0 167773.0 169878.0 118147.0 110100.0 10000.0 18084.0 128672.0 123894.0 138567.0 132072.0 45947.0 43938.0 94742.0 91838.0 120192.0 115438.0 57455.0 63964.0 160679.0 157013.0 209484.0 212307.0 119845.0 116413.0 139229.0 141984.0 141490.0 139481.0 45479.0 52530.0 180439.0 174773.0 60221.0 56387.0 110330.0 114019.0 74663.0 81786.0 205647.0 206472.0 182898.0 178949.0 50910.0 48880.0 137457.0 142031.0 108848.0 112770.0 76725.0 84406.0 145967.0 140647.0 126928.0 120027.0 100102.0 107135.0 100929.0 77703.0 100929.0 100929.0 100929.0 100929.0 77703.0 77703.0 77703.0 77703.0
90104.0 95629.0 95921.0 88899.0 26627.0 21785.0 197370.0 198112.0 162311.0 155763.0 42786.0 34878.0 127508.0 128131.0 52894.0 57166.0 123700.0 119224.0 149294.0 151091.0 65205.0 57210.0 125053.0 132472.0 191675.0 186836.0 67906.0 74151.0 183465.0 177111.0 7195.0 0.0 115399.0 107839.0 115789.0 118192.0 36602.0 40772.0 56826.0 64578.0 225074.0 223172.0 141209.0 145974.0 138884.0 131249.0 85309.0 79411.0 168779.0 168198.0 150441.0 143558.0 74758.0 77777.0 237989.0 236447.0 59959.0 58454.0 183676.0 185186.0 30262.0 23688.0 21068.0 12746.0 174177.0 176425.0 123807.0 115825.0 10579.0 16824.0 135304.0 130664.0 144455.0 138099.0 39322.0 37650.0 100535.0 97267.0 114135.0 109611.0 50269.0 56836.0 164054.0 160663.0 213531.0 216563.0 124664.0 121545.0 143728.0 146772.0 145972.0 143640.0 48615.0 55096.0 174012.0 168457.0 58814.0 55874.0 115148.0 119156.0 81577.0 88782.0 208660.0 209736.0 187361.0 183628.0 50772.0 49879.0 144209.0 148888.0 113090.0 116624.0 69560.0 77262.0 152621.0 147410.0 133324.0 126313.0 105052.0 112240.0 104309.0 70508.0 104309.0 104309.0 104309.0 104309.0 70508.0 70508.0 70508.0 70508.0
164528.0 164562.0 131534.0 124747.0 88909.0 95251.0 293421.0 296047.0 161167.0 160021.0 86626.0 89048.0 223668.0 221059.0 88367.0 80683.0 200130.0 192757.0 249079.0 248258.0 72405.0 75787.0 23636.0 30310.0 286290.0 279838.0 47795.0 42994.0 93853.0 91295.0 109179.0 115399.0 0.0 7844.0 10336.0 18434.0 145769.0 145505.0 155171.0 162665.0 322942.0 322639.0 82275.0 79803.0 130932.0 128253.0 51905.0 59077.0 56706.0 54182.0 229846.0 222096.0 43455.0 45090.0 335312.0 332041.0 60362.0 66797.0 114036.0 110436.0 85360.0 91768.0 96108.0 103135.0 59153.0 62411.0 131087.0 125033.0 107021.0 107673.0 110358.0 102036.0 31152.0 23651.0 142023.0 137695.0 115786.0 121185.0 195820.0 188442.0 160115.0 164133.0 89411.0 82091.0 120434.0 120196.0 37521.0 29556.0 54625.0 51328.0 168988.0 172562.0 77868.0 78121.0 256414.0 249036.0 108721.0 101074.0 141774.0 138707.0 41194.0 39137.0 132057.0 129033.0 90517.0 83892.0 98213.0 90534.0 35929.0 43350.0 45826.0 53849.0 177042.0 183389.0 120411.0 112298.0 18881.0 11099.0 133487.0 135060.0 159981.0 180349.0 159981.0 159981.0 159981.0 159981.0 180349.0 180349.0 180349.0 180349.0
157038.0 157199.0 127802.0 120795.0 81300.0 87548.0 285749.0 288338.0 160615.0 159058.0 78796.0 81209.0 215930.0 213372.0 80683.0 73038.0 192757.0 185429.0 241308.0 240528.0 67199.0 70002.0 28748.0 36135.0 278643.0 272221.0 40507.0 36255.0 96468.0 93311.0 101695.0 107839.0 7844.0 0.0 14459.0 22276.0 137969.0 137670.0 147335.0 154837.0 315249.0 314910.0 84581.0 82814.0 130243.0 127110.0 48227.0 54903.0 62998.0 61061.0 222489.0 214740.0 36989.0 39568.0 327638.0 324405.0 52521.0 59008.0 114500.0 111422.0 77731.0 84250.0 88403.0 95512.0 66945.0 70254.0 129258.0 122886.0 99350.0 99897.0 110439.0 102136.0 37594.0 30540.0 134184.0 129853.0 112887.0 117884.0 188305.0 180966.0 152305.0 156299.0 89866.0 82839.0 123930.0 124151.0 37039.0 29228.0 55894.0 53668.0 166880.0 170119.0 70043.0 70402.0 249036.0 241693.0 101176.0 93483.0 138886.0 136217.0 35901.0 35164.0 133623.0 131040.0 94179.0 87929.0 90525.0 82807.0 43077.0 50243.0 42537.0 50760.0 169203.0 175545.0 121425.0 113335.0 26706.0 18932.0 130267.0 132254.0 155476.0 172526.0 155476.0 155476.0 155476.0 155476.0 172526.0 172526.0 172526.0 172526.0
170144.0 170590.0 124369.0 117852.0 89709.0 96547.0 298157.0 300565.0 151494.0 150560.0 90327.0 91848.0 228035.0 225754.0 93302.0 85844.0 206103.0 198868.0 253167.0 252662.0 67580.0 71876.0 14291.0 21812.0 291165.0 284864.0 47951.0 41818.0 102784.0 100609.0 109263.0 115789.0 10336.0 14459.0 0.0 8174.0 147675.0 147961.0 158509.0 166164.0 327552.0 327022.0 71940.0 69521.0 121360.0 118938.0 45399.0 53022.0 61702.0 57908.0 235853.0 228111.0 41642.0 41425.0 340025.0 336955.0 63985.0 71145.0 124006.0 120214.0 86290.0 92112.0 97414.0 103907.0 58698.0 60637.0 122216.0 116414.0 108044.0 109466.0 100463.0 92146.0 36620.0 28627.0 144626.0 140455.0 107835.0 113603.0 201316.0 194084.0 162105.0 166554.0 99416.0 92011.0 128593.0 127925.0 47826.0 39868.0 64443.0 60666.0 160259.0 164087.0 81714.0 82906.0 262346.0 255079.0 114216.0 106403.0 133737.0 130330.0 37321.0 33455.0 141534.0 138268.0 98638.0 91694.0 103090.0 95211.0 30121.0 36711.0 55882.0 63977.0 179571.0 186176.0 110214.0 102100.0 18279.0 13709.0 125785.0 126965.0 153675.0 182518.0 153675.0 153675.0 153675.0 153675.0 182518.0 182518.0 182518.0 182518.0
176003.0 176708.0 120269.0 114042.0 92587.0 99731.0 303326.0 305582.0 144607.0 143938.0 95199.0 96113.0 233004.0 230947.0 98939.0 91657.0 212147.0 205006.0 257923.0 257634.0 66141.0 71198.0 7440.0 15430.0 296430.0 290235.0 51009.0 44102.0 109242.0 107421.0 111472.0 118192.0 18434.0 22276.0 8174.0 0.0 151063.0 151741.0 162879.0 170627.0 332620.0 331933.0 63920.0 61372.0 114634.0 112535.0 42780.0 50671.0 65300.0 60611.0 241896.0 234166.0 43443.0 41693.0 345157.0 342225.0 69039.0 76570.0 131454.0 127455.0 89291.0 94635.0 100598.0 106660.0 58137.0 58974.0 116325.0 110820.0 110956.0 112925.0 93329.0 85032.0 41168.0 33244.0 148520.0 144470.0 102990.0 109120.0 207061.0 199930.0 165515.0 170262.0 106923.0 99433.0 134313.0 133274.0 55781.0 47847.0 71814.0 67621.0 154462.0 158560.0 86739.0 88509.0 268324.0 261133.0 120115.0 112226.0 128724.0 124966.0 37593.0 32207.0 148447.0 144948.0 104407.0 97225.0 108646.0 100677.0 26053.0 31527.0 64053.0 72151.0 183328.0 190104.0 102584.0 94474.0 20343.0 18863.0 121139.0 121908.0 150345.0 186013.0 150345.0 150345.0 150345.0 150345.0 186013.0 186013.0 186013.0 186013.0
63979.0 71136.0 126882.0 120644.0 58783.0 51361.0 160844.0 161520.0 194906.0 187851.0 61822.0 57251.0 91318.0 92462.0 66473.0 73564.0 92857.0 89770.0 112702.0 114626.0 101758.0 93759.0 158210.0 165900.0 155254.0 150577.0 100056.0 107153.0 202012.0 194925.0 43716.0 36602.0 145769.0 137969.0 147675.0 151063.0 0.0 8000.0 23979.0 30473.0 188473.0 186570.0 177769.0 182431.0 173276.0 165447.0 121137.0 115603.0 195754.0 196291.0 117369.0 110986.0 108191.0 112272.0 201390.0 199887.0 86251.0 81746.0 196200.0 199128.0 61892.0 57607.0 50495.0 45338.0 204914.0 207944.0 157150.0 149418.0 40692.0 38210.0 171191.0 166848.0 172779.0 167202.0 10588.0 14329.0 134453.0 130218.0 82126.0 78999.0 14452.0 20253.0 179700.0 177731.0 231704.0 235760.0 148205.0 146632.0 165291.0 169662.0 175277.0 171836.0 70263.0 73616.0 139615.0 134584.0 59318.0 61330.0 145992.0 150957.0 115828.0 123411.0 221688.0 224008.0 207974.0 205377.0 59143.0 63223.0 177072.0 182341.0 134308.0 135924.0 33140.0 40714.0 188532.0 183563.0 164360.0 156862.0 136469.0 144028.0 131325.0 34986.0 131325.0 131325.0 131325.0 131325.0 34986.0 34986.0 34986.0 34986.0
56086.0 63179.0 133415.0 126994.0 60409.0 52652.0 156959.0 157964.0 201162.0 194231.0 60056.0 56477.0 86812.0 87365.0 63333.0 70756.0 85709.0 82347.0 109203.0 110605.0 105246.0 97264.0 158985.0 166772.0 151100.0 146140.0 100814.0 108173.0 198286.0 191069.0 47612.0 40772.0 145505.0 137670.0 147961.0 151741.0 8000.0 0.0 16851.0 24092.0 185021.0 183289.0 181142.0 185530.0 178929.0 171169.0 123625.0 118462.0 194171.0 195046.0 110896.0 104336.0 109386.0 113945.0 197892.0 196107.0 85421.0 80259.0 191302.0 194482.0 63244.0 59852.0 51806.0 47794.0 204542.0 207863.0 163152.0 155331.0 43032.0 39083.0 176043.0 171436.0 171699.0 166397.0 4016.0 8801.0 140237.0 136291.0 75235.0 71755.0 16043.0 18629.0 175461.0 173790.0 227808.0 232075.0 145917.0 144759.0 162412.0 167085.0 182199.0 178924.0 68731.0 71265.0 133717.0 128441.0 53959.0 56800.0 152590.0 157358.0 117351.0 125088.0 216803.0 219348.0 204691.0 202370.0 55279.0 60173.0 177646.0 183173.0 131558.0 132722.0 31610.0 38453.0 193368.0 188182.0 164241.0 156601.0 142929.0 150421.0 138409.0 35028.0 138409.0 138409.0 138409.0 138409.0 35028.0 35028.0 35028.0 35028.0
41046.0 48655.0 150261.0 143815.0 73818.0 65867.0 142544.0 143995.0 217949.0 211049.0 68563.0 66765.0 71927.0 71735.0 69059.0 76891.0 68931.0 65800.0 95564.0 96206.0 120197.0 112272.0 170233.0 178131.0 136354.0 131055.0 112460.0 120119.0 200724.0 193233.0 63387.0 56826.0 155171.0 147335.0 158509.0 162879.0 23979.0 16851.0 0.0 8025.0 171117.0 169818.0 195742.0 199812.0 195473.0 187751.0 137385.0 132680.0 201195.0 202708.0 94107.0 87502.0 121567.0 126737.0 183896.0 181736.0 94826.0 88641.0 190824.0 194655.0 76265.0 73960.0 65069.0 62372.0 213734.0 217541.0 179862.0 172008.0 57630.0 52341.0 192057.0 187240.0 179779.0 175003.0 17514.0 19769.0 156864.0 153035.0 58385.0 55033.0 21879.0 17139.0 176782.0 175853.0 229710.0 234465.0 151847.0 151523.0 166977.0 172259.0 199027.0 195702.0 77345.0 78290.0 117218.0 111794.0 54729.0 59646.0 169440.0 174184.0 129916.0 137809.0 216239.0 219370.0 208119.0 206425.0 59816.0 66227.0 188501.0 194405.0 136664.0 136837.0 25448.0 29526.0 209354.0 203996.0 174039.0 166204.0 159766.0 167245.0 155178.0 31579.0 155178.0 155178.0 155178.0 155178.0 31579.0 31579.0 31579.0 31579.0
38028.0 45992.0 157295.0 150970.0 81838.0 73885.0 134523.0 136001.0 225183.0 218201.0 76041.0 74530.0 63901.0 63769.0 75951.0 83821.0 62695.0 60195.0 87623.0 88192.0 128189.0 120258.0 177994.0 185906.0 128328.0 123040.0 120317.0 128005.0 206141.0 198567.0 71224.0 64578.0 162665.0 154837.0 166164.0 170627.0 30473.0 24092.0 8025.0 0.0 163124.0 161868.0 203761.0 207837.0 203013.0 195258.0 145404.0 140705.0 208026.0 209703.0 86936.0 80513.0 129478.0 134703.0 175895.0 173716.0 102367.0 96007.0 195173.0 199252.0 84270.0 81982.0 73088.0 70371.0 221083.0 224992.0 187231.0 179419.0 65623.0 60365.0 199867.0 195111.0 186899.0 182251.0 25279.0 27776.0 164330.0 160355.0 51728.0 49060.0 24862.0 17968.0 181847.0 181185.0 234895.0 239818.0 158450.0 158352.0 173152.0 178608.0 205741.0 202285.0 84799.0 85416.0 109630.0 104360.0 60432.0 65891.0 176430.0 181315.0 137862.0 145766.0 220506.0 223863.0 213862.0 212376.0 66512.0 73219.0 196190.0 202154.0 143070.0 142946.0 21799.0 23958.0 217175.0 211865.0 181542.0 173675.0 166853.0 174381.0 161762.0 28701.0 161762.0 161762.0 161762.0 161762.0 28701.0 28701.0 28701.0 28701.0
160087.0 162068.0 310805.0 305071.0 244871.0 236942.0 29764.0 27124.0 379254.0 371921.0 237423.0 237087.0 99663.0 101886.0 234575.0 242281.0 128362.0 136374.0 75824.0 75065.0 290151.0 282155.0 340046.0 348018.0 37573.0 45060.0 283052.0 290852.0 345738.0 337709.0 232167.0 225074.0 322942.0 315249.0 327552.0 332620.0 188473.0 185021.0 171117.0 163124.0 0.0 7961.0 366126.0 370547.0 359125.0 351171.0 308412.0 303452.0 361937.0 365130.0 102077.0 108962.0 292421.0 297804.0 12954.0 14310.0 263636.0 256435.0 323832.0 330333.0 247377.0 244737.0 236133.0 232794.0 379601.0 384376.0 342239.0 334759.0 228025.0 223361.0 358510.0 354622.0 343854.0 340364.0 187394.0 190634.0 320192.0 315280.0 129139.0 137038.0 175242.0 168264.0 319271.0 321393.0 370377.0 376995.0 311682.0 313479.0 321983.0 328830.0 358191.0 354694.0 245908.0 244852.0 78765.0 86631.0 214654.0 222055.0 329663.0 335094.0 300912.0 308843.0 346150.0 351943.0 356563.0 357332.0 224730.0 232460.0 357670.0 364036.0 295270.0 292696.0 155801.0 147938.0 375909.0 371221.0 341714.0 333670.0 320526.0 328218.0 314170.0 157477.0 314170.0 314170.0 314170.0 314170.0 157477.0 157477.0 157477.0 157477.0
160702.0 163065.0 308865.0 303131.0 243400.0 235500.0 31355.0 26905.0 377313.0 369981.0 236758.0 236140.0 98995.0 101843.0 234306.0 242063.0 130024.0 138030.0 74256.0 74383.0 288294.0 280295.0 339346.0 347304.0 39616.0 47469.0 282071.0 289818.0 347586.0 339561.0 230279.0 223172.0 322639.0 314910.0 327022.0 331933.0 186570.0 183289.0 169818.0 161868.0 7961.0 0.0 364291.0 368768.0 357185.0 349231.0 306863.0 301745.0 362582.0 365604.0 104720.0 111336.0 291329.0 296552.0 17418.0 21292.0 263049.0 255985.0 326304.0 332687.0 245990.0 243113.0 234682.0 231082.0 379670.0 384306.0 340299.0 332819.0 226321.0 221893.0 356570.0 352721.0 344096.0 340440.0 185796.0 189179.0 318251.0 313339.0 130072.0 138031.0 173303.0 166344.0 321170.0 323109.0 372589.0 379109.0 312281.0 313880.0 323027.0 329770.0 356250.0 352754.0 245315.0 244518.0 82508.0 90198.0 214693.0 221979.0 327723.0 333154.0 299730.0 307627.0 348893.0 354564.0 358214.0 358807.0 224461.0 232106.0 357141.0 363401.0 295917.0 293555.0 153863.0 145999.0 373969.0 369337.0 341454.0 333433.0 318586.0 326278.0 312230.0 155537.0 312230.0 312230.0 312230.0 312230.0 155537.0 155537.0 155537.0 155537.0
218939.0 221508.0 92809.0 90303.0 122274.0 130228.0 338063.0 339094.0 88382.0 90155.0 136481.0 133682.0 267628.0 267324.0 144416.0 138787.0 255468.0 249209.0 290302.0 291691.0 76012.0 84010.0 60473.0 57563.0 332051.0 326791.0 91195.0 83476.0 169446.0 168780.0 134060.0 141209.0 82275.0 84581.0 71940.0 63920.0 177769.0 181142.0 195742.0 203761.0 366126.0 364291.0 0.0 8154.0 61910.0 63503.0 59745.0 63254.0 117683.0 110385.0 284592.0 277094.0 81084.0 73642.0 379013.0 377232.0 114638.0 123078.0 194468.0 189927.0 120275.0 121791.0 130978.0 133474.0 94859.0 89906.0 72166.0 70561.0 138241.0 143519.0 38573.0 32230.0 99207.0 92475.0 178922.0 175992.0 71853.0 80150.0 248236.0 242054.0 191420.0 198022.0 170158.0 162508.0 191327.0 188784.0 119700.0 111766.0 134949.0 129925.0 107640.0 113908.0 129846.0 134715.0 310056.0 303581.0 165772.0 157879.0 91554.0 84910.0 72048.0 64525.0 209770.0 205488.0 162315.0 154493.0 152874.0 144985.0 64488.0 59751.0 127118.0 135340.0 210763.0 218466.0 41161.0 33508.0 78099.0 80985.0 88493.0 85241.0 125530.0 211398.0 125530.0 125530.0 125530.0 125530.0 211398.0 211398.0 211398.0 211398.0
221798.0 224101.0 100765.0 98094.0 126094.0 134062.0 342297.0 343477.0 95450.0 97558.0 139057.0 136710.0 271738.0 271216.0 146482.0 140555.0 258383.0 251976.0 294733.0 295925.0 80842.0 88809.0 57127.0 53303.0 336165.0 330780.0 93105.0 85227.0 164631.0 164286.0 138795.0 145974.0 79803.0 82814.0 69521.0 61372.0 182431.0 185530.0 199812.0 207837.0 370547.0 368768.0 8154.0 0.0 69646.0 71489.0 62821.0 67137.0 111920.0 104417.0 287666.0 280117.0 82953.0 75846.0 383409.0 381485.0 116337.0 124765.0 190567.0 185773.0 123917.0 125885.0 134834.0 137756.0 88005.0 82753.0 80285.0 78714.0 142525.0 147488.0 46404.0 40303.0 94522.0 88122.0 183185.0 180109.0 79812.0 88087.0 251439.0 245105.0 196241.0 202678.0 166440.0 158716.0 185767.0 182986.0 116899.0 109034.0 131286.0 125924.0 115542.0 121896.0 132100.0 136581.0 313317.0 306727.0 167974.0 160028.0 99706.0 93060.0 73855.0 66061.0 205151.0 200649.0 157036.0 149137.0 155194.0 147226.0 58991.0 53659.0 125243.0 133406.0 215511.0 223144.0 47481.0 40213.0 73903.0 77476.0 96581.0 93385.0 133371.0 216364.0 133371.0 133371.0 133371.0 133371.0 216364.0 216364.0 216364.0 216364.0
227557.0 232095.0 52718.0 55813.0 130461.0 137310.0 332141.0 332350.0 30421.0 29401.0 152558.0 146712.0 264060.0 265679.0 163391.0 160277.0 262311.0 257425.0 283683.0 286361.0 85338.0 91250.0 114012.0 113825.0 326886.0 322844.0 117547.0 112145.0 223871.0 221955.0 132829.0 138884.0 130932.0 130243.0 121360.0 114634.0 173276.0 178929.0 195473.0 203013.0 359125.0 357185.0 61910.0 69646.0 0.0 8072.0 86775.0 84025.0 176040.0 169403.0 289324.0 282428.0 109526.0 101754.0 372053.0 370924.0 139015.0 146594.0 244705.0 241347.0 130149.0 127769.0 137787.0 136379.0 155967.0 151473.0 19196.0 24953.0 140595.0 148026.0 23386.0 30795.0 154690.0 147132.0 177981.0 176533.0 38935.0 44455.0 252990.0 248251.0 184552.0 192329.0 220059.0 212901.0 248256.0 246555.0 167280.0 159457.0 185544.0 182026.0 46234.0 53171.0 148871.0 155912.0 312643.0 307258.0 182191.0 175230.0 40193.0 32154.0 102756.0 98446.0 262893.0 259560.0 218544.0 211082.0 169379.0 162689.0 123330.0 119919.0 170124.0 178200.0 203554.0 211547.0 28947.0 32100.0 132926.0 133444.0 43775.0 36711.0 83749.0 203425.0 83749.0 83749.0 83749.0 83749.0 203425.0 203425.0 203425.0 203425.0
220181.0 224819.0 44794.0 47749.0 123475.0 130198.0 324187.0 324396.0 34958.0 32042.0 145969.0 139937.0 256144.0 257816.0 156958.0 154075.0 254784.0 249973.0 275729.0 278390.0 79141.0 84728.0 112427.0 112803.0 319044.0 314887.0 112264.0 107200.0 221688.0 219502.0 125276.0 131249.0 128253.0 127110.0 118938.0 112535.0 165447.0 171169.0 187751.0 195258.0 351171.0 349231.0 63503.0 71489.0 8072.0 0.0 82318.0 78990.0 175090.0 168702.0 281670.0 274807.0 104608.0 96971.0 364098.0 362970.0 133257.0 140682.0 241595.0 238471.0 123282.0 120660.0 130654.0 129023.0 156254.0 152123.0 11738.0 16888.0 133184.0 140693.0 25370.0 31382.0 153084.0 145398.0 170272.0 168890.0 31015.0 36386.0 245380.0 240714.0 176631.0 184429.0 216970.0 209930.0 246648.0 245202.0 164075.0 156330.0 182741.0 179527.0 44279.0 50408.0 142547.0 149717.0 304884.0 299545.0 175458.0 168601.0 33313.0 25339.0 98235.0 94405.0 260309.0 257196.0 216822.0 209482.0 162718.0 156159.0 122865.0 119937.0 166211.0 174211.0 195601.0 203592.0 34833.0 36536.0 131360.0 131397.0 36032.0 29230.0 76242.0 195471.0 76242.0 76242.0 76242.0 76242.0 195471.0 195471.0 195471.0 195471.0
159205.0 161777.0 79678.0 72842.0 63567.0 71521.0 279928.0 281304.0 116996.0 114268.0 76786.0 73979.0 209276.0 208558.0 85132.0 79981.0 195750.0 189466.0 232675.0 233587.0 24225.0 30701.0 47343.0 52937.0 273670.0 268172.0 32901.0 26141.0 144671.0 141320.0 78140.0 85309.0 51905.0 48227.0 45399.0 42780.0 121137.0 123625.0 137385.0 145404.0 308412.0 306863.0 59745.0 62821.0 86775.0 82318.0 0.0 7955.0 107098.0 103052.0 224938.0 217416.0 23503.0 15497.0 321228.0 319120.0 56261.0 64592.0 160950.0 158545.0 61226.0 63774.0 72316.0 75912.0 100233.0 100021.0 82730.0 75805.0 80646.0 85062.0 70662.0 62997.0 81942.0 73979.0 121068.0 117783.0 64873.0 69665.0 188654.0 182384.0 135284.0 141269.0 136530.0 129917.0 172065.0 172045.0 83809.0 76494.0 103677.0 101870.0 119603.0 122397.0 70406.0 75774.0 250519.0 243967.0 106286.0 98461.0 90823.0 88542.0 15984.0 13089.0 181227.0 178971.0 142228.0 135748.0 93314.0 85509.0 65687.0 68190.0 84183.0 92070.0 154267.0 161707.0 85254.0 77810.0 62792.0 59092.0 82059.0 84266.0 108311.0 155705.0 108311.0 108311.0 108311.0 108311.0 155705.0 155705.0 155705.0 155705.0
156124.0 159050.0 72949.0 65892.0 59040.0 67002.0 275161.0 276370.0 113902.0 110668.0 74489.0 70892.0 204605.0 204149.0 83632.0 79077.0 192553.0 186463.0 227650.0 228790.0 16497.0 23458.0 55298.0 60853.0 269033.0 263677.0 33636.0 28213.0 151107.0 147517.0 72217.0 79411.0 59077.0 54903.0 53022.0 50671.0 115603.0 118462.0 132680.0 140705.0 303452.0 301745.0 63254.0 67137.0 84025.0 78990.0 7955.0 0.0 114711.0 110804.0 221522.0 214065.0 25632.0 18214.0 316303.0 314349.0 56104.0 64185.0 166327.0 164201.0 57024.0 58749.0 67762.0 70668.0 108188.0 107952.0 78387.0 71115.0 75434.0 80371.0 69683.0 62458.0 89449.0 81515.0 116066.0 112972.0 59254.0 63464.0 185096.0 179024.0 129602.0 135814.0 142053.0 135622.0 178832.0 178998.0 89639.0 82540.0 109795.0 108348.0 114531.0 116929.0 68787.0 74772.0 246869.0 240456.0 104356.0 96680.0 85005.0 83232.0 20301.0 19940.0 187094.0 185061.0 149074.0 142731.0 91301.0 83705.0 73609.0 75989.0 88880.0 96572.0 148737.0 156281.0 85159.0 78065.0 70593.0 66675.0 75894.0 78591.0 100915.0 149917.0 100915.0 100915.0 100915.0 100915.0 149917.0 149917.0 149917.0 149917.0
201894.0 200010.0 185563.0 179269.0 142189.0 147570.0 332173.0 335689.0 204883.0 205387.0 134134.0 138615.0 264841.0 260979.0 132136.0 124309.0 234771.0 226903.0 290948.0 288924.0 128868.0 132483.0 63372.0 62289.0 324527.0 317487.0 103066.0 99252.0 56380.0 58724.0 163101.0 168779.0 56706.0 62998.0 61702.0 65300.0 195754.0 194171.0 201195.0 208026.0 361937.0 362582.0 117683.0 111920.0 176040.0 175090.0 107098.0 114711.0 0.0 8425.0 263632.0 256001.0 99949.0 101770.0 373762.0 369637.0 109869.0 114026.0 88535.0 81748.0 138537.0 145635.0 148388.0 156137.0 31984.0 40144.0 180126.0 175176.0 159528.0 158736.0 153327.0 145372.0 25555.0 33288.0 190391.0 185759.0 168127.0 174392.0 232827.0 224975.0 209658.0 212536.0 68714.0 61312.0 73937.0 71104.0 50320.0 49677.0 43323.0 35375.0 218249.0 222831.0 125539.0 123150.0 290094.0 282270.0 149120.0 142591.0 193699.0 189582.0 97829.0 94997.0 96856.0 91183.0 46193.0 38106.0 141517.0 134990.0 53230.0 58324.0 66671.0 69700.0 224945.0 230477.0 158839.0 151086.0 45004.0 48038.0 186351.0 186859.0 215326.0 229147.0 215326.0 215326.0 215326.0 215326.0 229147.0 229147.0 229147.0 229147.0
205045.0 203463.0 180699.0 174600.0 141571.0 147285.0 335375.0 338735.0 197976.0 198690.0 135011.0 139044.0 267494.0 263856.0 133756.0 125882.0 238467.0 230651.0 293515.0 291716.0 125469.0 129508.0 57914.0 56037.0 327808.0 320860.0 101529.0 97150.0 64804.0 67094.0 162303.0 168198.0 54182.0 61061.0 57908.0 60611.0 196291.0 195046.0 202708.0 209703.0 365130.0 365604.0 110385.0 104417.0 169403.0 168702.0 103052.0 110804.0 8425.0 0.0 267531.0 259865.0 97635.0 98823.0 377064.0 373083.0 110092.0 114788.0 96835.0 90113.0 137941.0 144817.0 148118.0 155658.0 23725.0 31873.0 174081.0 169357.0 159223.0 158863.0 146526.0 138660.0 23743.0 30561.0 191329.0 186756.0 162828.0 169304.0 236138.0 228340.0 210346.0 213524.0 76632.0 69120.0 81787.0 78614.0 53651.0 51785.0 49458.0 41420.0 212133.0 216901.0 126315.0 124446.0 294062.0 286291.0 151483.0 144709.0 188210.0 183866.0 94798.0 91362.0 105255.0 99530.0 54478.0 46386.0 143299.0 136501.0 46166.0 50757.0 70147.0 73977.0 226084.0 231823.0 151539.0 143857.0 40314.0 44545.0 181128.0 181360.0 210954.0 230070.0 210954.0 210954.0 210954.0 210954.0 230070.0 230070.0 230070.0 230070.0
66146.0 65290.0 244231.0 237884.0 163092.0 155307.0 73415.0 78967.0 312053.0 305120.0 148945.0 150966.0 42682.0 35143.0 143187.0 150270.0 29752.0 37139.0 54664.0 46836.0 211027.0 203368.0 249298.0 257255.0 65112.0 57260.0 195552.0 203557.0 244111.0 236082.0 156612.0 150441.0 229846.0 222489.0 235853.0 241896.0 117369.0 110896.0 94107.0 86936.0 102077.0 104720.0 284592.0 287666.0 289324.0 281670.0 224938.0 221522.0 263632.0 267531.0 0.0 7751.0 205551.0 212099.0 112594.0 107439.0 173664.0 165658.0 221755.0 228269.0 164689.0 164432.0 154640.0 154059.0 283841.0 289312.0 273941.0 266058.0 149537.0 142829.0 284782.0 279470.0 247481.0 244881.0 111481.0 112791.0 250862.0 247137.0 36588.0 42561.0 108925.0 100782.0 217594.0 220014.0 268367.0 275049.0 213889.0 216590.0 222378.0 229558.0 292467.0 288969.0 156546.0 153591.0 26625.0 19238.0 121802.0 129735.0 263359.0 268240.0 214547.0 222554.0 244184.0 249904.0 255256.0 256394.0 133708.0 141776.0 265554.0 272533.0 197394.0 193941.0 93181.0 86271.0 301956.0 296174.0 248119.0 240034.0 253787.0 261304.0 248445.0 97988.0 248445.0 248445.0 248445.0 248445.0 97988.0 97988.0 97988.0 97988.0
58488.0 57541.0 237746.0 231315.0 155744.0 147988.0 79983.0 85255.0 305412.0 298546.0 141325.0 143437.0 41635.0 33554.0 135482.0 142548.0 22018.0 29395.0 57164.0 49846.0 203711.0 196082.0 241565.0 249521.0 71733.0 63976.0 187916.0 195921.0 236938.0 228908.0 149642.0 143558.0 222096.0 214740.0 228111.0 234166.0 110986.0 104336.0 87502.0 80513.0 108962.0 111336.0 277094.0 280117.0 282428.0 274807.0 217416.0 214065.0 256001.0 259865.0 7751.0 0.0 197927.0 204508.0 119702.0 114706.0 165974.0 157953.0 214976.0 221406.0 157292.0 157158.0 147330.0 146906.0 276118.0 281576.0 267199.0 259285.0 142416.0 135613.0 277623.0 272244.0 239767.0 237147.0 104773.0 105924.0 244052.0 240444.0 29453.0 35043.0 103054.0 94937.0 210437.0 212758.0 261416.0 268040.0 206218.0 208885.0 214835.0 221987.0 286226.0 282740.0 148887.0 145883.0 34366.0 26969.0 114081.0 122019.0 256908.0 261685.0 206932.0 214936.0 237610.0 243235.0 247987.0 249042.0 126023.0 134092.0 257806.0 264789.0 189722.0 186319.0 87963.0 81340.0 294772.0 288935.0 240368.0 232283.0 247265.0 254747.0 242216.0 93095.0 242216.0 242216.0 242216.0 242216.0 93095.0 93095.0 93095.0 93095.0
139456.0 141396.0 95688.0 88136.0 49449.0 56868.0 263473.0 265305.0 139500.0 136298.0 56607.0 55480.0 192815.0 191421.0 63531.0 57709.0 176049.0 169437.0 217097.0 217363.0 32274.0 33564.0 50313.0 57831.0 256887.0 251043.0 10152.0 2646.0 129699.0 125422.0 68031.0 74758.0 43455.0 36989.0 41642.0 43443.0 108191.0 109386.0 121567.0 129478.0 292421.0 291329.0 81084.0 82953.0 109526.0 104608.0 23503.0 25632.0 99949.0 97635.0 205551.0 197927.0 0.0 8006.0 305111.0 302585.0 33563.0 41999.0 142375.0 140761.0 46303.0 51257.0 57729.0 63372.0 100339.0 102023.0 103900.0 96501.0 67765.0 70323.0 94123.0 86496.0 74461.0 67101.0 106364.0 102557.0 84009.0 87410.0 169681.0 163045.0 122630.0 127731.0 118446.0 112410.0 158416.0 159350.0 67177.0 60820.0 87809.0 87511.0 139559.0 141561.0 49250.0 53668.0 231527.0 224716.0 85046.0 77087.0 109335.0 108145.0 9099.0 17027.0 164017.0 162513.0 129175.0 123490.0 72345.0 64336.0 69451.0 74279.0 64305.0 71714.0 140829.0 147839.0 108732.0 101237.0 59738.0 53548.0 99767.0 103142.0 120994.0 143177.0 120994.0 120994.0 120994.0 120994.0 143177.0 143177.0 143177.0 143177.0
146094.0 148268.0 89912.0 82542.0 53576.0 61296.0 269008.0 270680.0 131814.0 128758.0 63258.0 61440.0 198310.0 197157.0 70779.0 65220.0 182695.0 176198.0 222296.0 222792.0 27674.0 30720.0 47983.0 55035.0 262534.0 256809.0 17698.0 10644.0 134474.0 130531.0 70823.0 77777.0 45090.0 39568.0 41425.0 41693.0 112272.0 113945.0 126737.0 134703.0 297804.0 296552.0 73642.0 75846.0 101754.0 96971.0 15497.0 18214.0 101770.0 98823.0 212099.0 204508.0 8006.0 0.0 310543.0 308163.0 41211.0 49619.0 148505.0 146594.0 50713.0 54771.0 62139.0 67041.0 99617.0 100666.0 96595.0 89325.0 71604.0 74895.0 86133.0 78492.0 76219.0 68559.0 111085.0 107460.0 77257.0 81078.0 176060.0 169552.0 126648.0 132083.0 124360.0 118095.0 162759.0 163350.0 72369.0 65586.0 92802.0 91927.0 132665.0 134916.0 56277.0 61104.0 237945.0 231223.0 92186.0 84268.0 102840.0 101316.0 4124.0 11147.0 169665.0 167883.0 133245.0 127255.0 79359.0 71414.0 67213.0 71337.0 70791.0 78417.0 145173.0 152351.0 100731.0 93248.0 59701.0 54305.0 93490.0 96522.0 116316.0 147199.0 116316.0 116316.0 116316.0 116316.0 147199.0 147199.0 147199.0 147199.0
172044.0 173777.0 323732.0 317998.0 257676.0 249740.0 41892.0 39932.0 392181.0 384848.0 249972.0 249740.0 112304.0 114280.0 246955.0 254633.0 139646.0 147643.0 88714.0 87755.0 303048.0 295053.0 352586.0 360564.0 49257.0 56333.0 295707.0 303523.0 356640.0 348609.0 245077.0 237989.0 335312.0 327638.0 340025.0 345157.0 201390.0 197892.0 183896.0 175895.0 12954.0 17418.0 379013.0 383409.0 372053.0 364098.0 321228.0 316303.0 373762.0 377064.0 112594.0 119702.0 305111.0 310543.0 0.0 8049.0 276147.0 268889.0 334145.0 340763.0 260160.0 257577.0 248934.0 245653.0 391770.0 396618.0 355166.0 347686.0 240884.0 236169.0 371356.0 367573.0 355932.0 352537.0 200238.0 203445.0 333119.0 328207.0 140943.0 148788.0 188183.0 181187.0 330138.0 332421.0 380929.0 387638.0 323553.0 325472.0 333545.0 340464.0 371118.0 367621.0 258426.0 257258.0 88254.0 96259.0 226890.0 234347.0 342590.0 348021.0 313630.0 321570.0 356165.0 362087.0 367632.0 368548.0 237113.0 244880.0 370136.0 376546.0 307114.0 304399.0 168743.0 160874.0 388646.0 384174.0 354059.0 346006.0 333453.0 341145.0 327097.0 170417.0 327097.0 327097.0 327097.0 327097.0 170417.0 170417.0 170417.0 170417.0
168231.0 169640.0 322604.0 316870.0 255554.0 247600.0 39193.0 38674.0 391052.0 383719.0 247113.0 247139.0 109874.0 111300.0 243747.0 251368.0 135100.0 143065.0 87266.0 85560.0 301348.0 293362.0 349661.0 357647.0 45796.0 52291.0 293087.0 300944.0 351541.0 343513.0 243490.0 236447.0 332041.0 324405.0 336955.0 342225.0 199887.0 196107.0 181736.0 173716.0 14310.0 21292.0 377232.0 381485.0 370924.0 362970.0 319120.0 314349.0 369637.0 373083.0 107439.0 114706.0 302585.0 308163.0 8049.0 0.0 273187.0 265813.0 328581.0 335284.0 257956.0 255601.0 246804.0 243774.0 388131.0 393100.0 354038.0 346557.0 239004.0 234072.0 370377.0 366435.0 352164.0 348917.0 198322.0 201389.0 331990.0 327078.0 136986.0 144746.0 186931.0 179762.0 325019.0 327445.0 375532.0 382312.0 319505.0 321592.0 329114.0 336115.0 369989.0 366492.0 255492.0 254093.0 82487.0 90537.0 223443.0 230988.0 341462.0 346892.0 311181.0 319146.0 350383.0 356391.0 362682.0 363738.0 233920.0 241751.0 367044.0 373547.0 303039.0 300148.0 167516.0 159588.0 387691.0 383080.0 350736.0 342668.0 332324.0 340017.0 325969.0 168223.0 325969.0 325969.0 325969.0 325969.0 168223.0 168223.0 168223.0 168223.0
107547.0 108885.0 115640.0 107658.0 34265.0 38246.0 234303.0 236624.0 168132.0 164000.0 26366.0 29023.0 164071.0 161915.0 30572.0 24220.0 143987.0 137112.0 189186.0 188701.0 54593.0 50755.0 76476.0 84464.0 227392.0 221205.0 23517.0 31168.0 124636.0 118722.0 55182.0 59959.0 60362.0 52521.0 63985.0 69039.0 86251.0 85421.0 94826.0 102367.0 263636.0 263049.0 114638.0 116337.0 139015.0 133257.0 56261.0 56104.0 109869.0 110092.0 173664.0 165974.0 33563.0 41211.0 276147.0 273187.0 0.0 8440.0 129005.0 129285.0 30708.0 38573.0 39015.0 47220.0 119189.0 122763.0 130678.0 122762.0 50112.0 48867.0 125784.0 118530.0 86533.0 81009.0 81847.0 77441.0 108631.0 110070.0 138349.0 131388.0 100412.0 104026.0 107323.0 102992.0 154640.0 157255.0 64720.0 61697.0 84070.0 86845.0 163620.0 164328.0 17734.0 20341.0 199917.0 192891.0 52157.0 44158.0 132031.0 132444.0 42595.0 50279.0 153017.0 153143.0 127739.0 123775.0 39960.0 31900.0 94098.0 100401.0 53972.0 58631.0 116845.0 123076.0 141138.0 133875.0 79218.0 71419.0 121746.0 126578.0 135648.0 120401.0 135648.0 135648.0 135648.0 135648.0 120401.0 120401.0 120401.0 120401.0
99596.0 100741.0 121415.0 113416.0 34505.0 36770.0 227017.0 229471.0 175481.0 171161.0 20250.0 24939.0 156991.0 154613.0 22472.0 15813.0 135949.0 129001.0 182305.0 181606.0 61692.0 57244.0 84008.0 91998.0 220021.0 213743.0 31935.0 39608.0 125027.0 118751.0 54517.0 58454.0 66797.0 59008.0 71145.0 76570.0 81746.0 80259.0 88641.0 96007.0 256435.0 255985.0 123078.0 124765.0 146594.0 140682.0 64592.0 64185.0 114026.0 114788.0 165658.0 157953.0 41999.0 49619.0 268889.0 265813.0 8440.0 0.0 127087.0 127898.0 31289.0 39180.0 37433.0 45938.0 125095.0 129011.0 137740.0 129753.0 48132.0 45562.0 133815.0 126642.0 91490.0 86429.0 76547.0 71997.0 115380.0 116430.0 130535.0 123484.0 95639.0 98749.0 106292.0 102502.0 155093.0 158117.0 67050.0 64957.0 85473.0 88956.0 170008.0 170436.0 11529.0 12088.0 191976.0 184893.0 43970.0 35983.0 138261.0 139000.0 51035.0 58711.0 151565.0 152134.0 129024.0 125532.0 32086.0 24108.0 101248.0 107752.0 54674.0 58263.0 111381.0 117334.0 149306.0 142095.0 85672.0 77741.0 127889.0 132988.0 140215.0 115283.0 140215.0 140215.0 140215.0 140215.0 115283.0 115283.0 115283.0 115283.0
173423.0 168290.0 238053.0 230449.0 161564.0 162890.0 294950.0 300024.0 275041.0 273558.0 140952.0 148817.0 236799.0 230715.0 132035.0 126678.0 197100.0 189233.0 262412.0 258025.0 174405.0 174023.0 134040.0 137266.0 286709.0 278939.0 138742.0 140242.0 34883.0 30104.0 180850.0 183676.0 114036.0 114500.0 124006.0 131454.0 196200.0 191302.0 190824.0 195173.0 323832.0 326304.0 194468.0 190567.0 244705.0 241595.0 160950.0 166327.0 88535.0 96835.0 221755.0 214976.0 142375.0 148505.0 334145.0 328581.0 129005.0 127087.0 0.0 8242.0 158375.0 166263.0 163424.0 171894.0 120518.0 128678.0 243374.0 236689.0 173097.0 168234.0 224395.0 216073.0 96924.0 102607.0 187316.0 182637.0 225570.0 229582.0 199675.0 191841.0 207083.0 206549.0 24648.0 32023.0 47928.0 55494.0 77528.0 85273.0 59648.0 64648.0 280552.0 283232.0 135372.0 128581.0 246101.0 238045.0 137397.0 134884.0 251309.0 249445.0 146027.0 148080.0 25501.0 28965.0 48697.0 55110.0 137575.0 135301.0 133436.0 140521.0 78244.0 71500.0 216227.0 219090.0 234010.0 225906.0 116675.0 113531.0 241989.0 244918.0 262112.0 222342.0 262112.0 262112.0 262112.0 262112.0 222342.0 222342.0 222342.0 222342.0
178654.0 173749.0 236407.0 228894.0 162398.0 164117.0 301337.0 306314.0 271602.0 270352.0 142631.0 150312.0 242346.0 236408.0 134199.0 128497.0 203205.0 195299.0 268088.0 263864.0 172953.0 172946.0 129659.0 132504.0 293119.0 285382.0 137685.0 138722.0 27010.0 23025.0 182069.0 185186.0 110436.0 111422.0 120214.0 127455.0 199128.0 194482.0 194655.0 199252.0 330333.0 332687.0 189927.0 185773.0 241347.0 238471.0 158545.0 164201.0 81748.0 90113.0 228269.0 221406.0 140761.0 146594.0 340763.0 335284.0 129285.0 127898.0 8242.0 0.0 159122.0 167044.0 164685.0 173195.0 113709.0 121866.0 240620.0 234094.0 174613.0 170065.0 220675.0 212359.0 91613.0 97658.0 190480.0 185762.0 223348.0 227614.0 205448.0 197569.0 210360.0 210119.0 22365.0 28638.0 40510.0 47852.0 74762.0 82289.0 55811.0 60035.0 278041.0 280939.0 136664.0 130149.0 252833.0 244771.0 140746.0 137817.0 249196.0 247084.0 143940.0 145569.0 23734.0 24880.0 40690.0 47339.0 140201.0 137489.0 128083.0 134995.0 77190.0 71011.0 220096.0 223203.0 229826.0 221739.0 111900.0 109215.0 240039.0 242729.0 261115.0 226086.0 261115.0 261115.0 261115.0 261115.0 226086.0 226086.0 226086.0 226086.0
99787.0 103326.0 96663.0 88779.0 3661.0 10596.0 218769.0 220256.0 156982.0 151596.0 24129.0 16859.0 148090.0 147336.0 36096.0 36379.0 135961.0 130141.0 171743.0 172458.0 46780.0 39567.0 96378.0 104030.0 212462.0 206946.0 38378.0 45279.0 155306.0 149308.0 24737.0 30262.0 85360.0 77731.0 86290.0 89291.0 61892.0 63244.0 76265.0 84270.0 247377.0 245990.0 120275.0 123917.0 130149.0 123282.0 61226.0 57024.0 138537.0 137941.0 164689.0 157292.0 46303.0 50713.0 260160.0 257956.0 30708.0 31289.0 158375.0 159122.0 0.0 7938.0 11448.0 17782.0 144332.0 146860.0 118193.0 110003.0 21756.0 24182.0 121732.0 115738.0 114198.0 107888.0 60376.0 56816.0 94773.0 94011.0 128190.0 122282.0 76335.0 81475.0 137403.0 133371.0 185326.0 187962.0 95195.0 91679.0 114751.0 117337.0 146787.0 146146.0 24762.0 32751.0 189892.0 183548.0 52319.0 45894.0 114847.0 116927.0 54111.0 61851.0 182809.0 183259.0 158413.0 154339.0 39914.0 34401.0 115335.0 120477.0 84642.0 88999.0 94573.0 101673.0 138531.0 132259.0 103513.0 96341.0 104332.0 110399.0 112043.0 96878.0 112043.0 112043.0 112043.0 112043.0 96878.0 96878.0 96878.0 96878.0
100443.0 104532.0 91759.0 83989.0 4795.0 9541.0 216412.0 217646.0 153813.0 148120.0 30089.0 21982.0 145873.0 145552.0 42083.0 43282.0 136155.0 130673.0 168958.0 170041.0 46665.0 38938.0 101567.0 109069.0 210302.0 205002.0 44218.0 50547.0 163200.0 157226.0 17487.0 23688.0 91768.0 84250.0 92112.0 94635.0 57607.0 59852.0 73960.0 81982.0 244737.0 243113.0 121791.0 125885.0 127769.0 120660.0 63774.0 58749.0 145635.0 144817.0 164432.0 157158.0 51257.0 54771.0 257577.0 255601.0 38573.0 39180.0 166263.0 167044.0 7938.0 0.0 10039.0 12281.0 150492.0 152749.0 114928.0 106740.0 16929.0 21803.0 120722.0 115126.0 121080.0 114598.0 57344.0 54230.0 91378.0 89989.0 127848.0 122294.0 71927.0 77605.0 145338.0 141306.0 193211.0 195804.0 102898.0 99221.0 122557.0 125036.0 142143.0 141141.0 32059.0 39907.0 189225.0 183098.0 56264.0 50515.0 110298.0 112829.0 58432.0 65885.0 190727.0 191194.0 166209.0 162062.0 44550.0 40002.0 120676.0 125509.0 92534.0 96933.0 90654.0 98001.0 137752.0 131792.0 109639.0 102655.0 99807.0 106171.0 105770.0 92464.0 105770.0 105770.0 105770.0 105770.0 92464.0 92464.0 92464.0 92464.0
90444.0 94495.0 100987.0 93304.0 8750.0 867.0 207612.0 209018.0 163699.0 157926.0 23619.0 15185.0 136968.0 136391.0 35101.0 37822.0 126243.0 120699.0 160449.0 161273.0 56387.0 48769.0 107723.0 115404.0 201376.0 195946.0 49612.0 56658.0 162460.0 156162.0 17433.0 21068.0 96108.0 88403.0 97414.0 100598.0 50495.0 51806.0 65069.0 73088.0 236133.0 234682.0 130978.0 134834.0 137787.0 130654.0 72316.0 67762.0 148388.0 148118.0 154640.0 147330.0 57729.0 62139.0 248934.0 246804.0 39015.0 37433.0 163424.0 164685.0 11448.0 10039.0 0.0 8532.0 155199.0 157898.0 124807.0 116625.0 11145.0 12792.0 130703.0 125041.0 124400.0 118307.0 48980.0 45509.0 101243.0 99657.0 118069.0 112418.0 64946.0 70028.0 143363.0 139810.0 192526.0 195512.0 103660.0 100694.0 122662.0 125751.0 151455.0 150229.0 28053.0 35141.0 179570.0 173368.0 47070.0 41868.0 119698.0 122440.0 65557.0 73281.0 188245.0 189128.0 166293.0 162578.0 36012.0 32578.0 126627.0 131847.0 92033.0 95668.0 83126.0 90228.0 147703.0 141684.0 114442.0 107146.0 109235.0 115732.0 113808.0 85477.0 113808.0 113808.0 113808.0 113808.0 85477.0 85477.0 85477.0 85477.0
91179.0 95848.0 97047.0 89567.0 14235.0 9169.0 204597.0 205721.0 161363.0 155276.0 31617.0 23308.0 134172.0 134094.0 42654.0 45967.0 126257.0 121125.0 156985.0 158223.0 57827.0 49919.0 113652.0 121203.0 198585.0 193399.0 55956.0 62560.0 170960.0 164680.0 9094.0 12746.0 103135.0 95512.0 103907.0 106660.0 45338.0 47794.0 62372.0 70371.0 232794.0 231082.0 133474.0 137756.0 136379.0 129023.0 75912.0 70668.0 156137.0 155658.0 154059.0 146906.0 63372.0 67041.0 245653.0 243774.0 47220.0 45938.0 171894.0 173195.0 17782.0 12281.0 8532.0 0.0 162074.0 164519.0 122522.0 114388.0 4770.0 11698.0 130725.0 125481.0 131918.0 125655.0 45452.0 42604.0 98972.0 96722.0 117489.0 112272.0 59647.0 65379.0 151892.0 148341.0 201025.0 203976.0 111932.0 108801.0 131059.0 134046.0 147529.0 145893.0 36540.0 43476.0 178479.0 172533.0 52282.0 47949.0 116031.0 119261.0 70680.0 78161.0 196744.0 197650.0 174706.0 170923.0 42326.0 39909.0 132712.0 137650.0 100491.0 104186.0 78411.0 85801.0 147903.0 142214.0 121241.0 114106.0 105663.0 112449.0 108260.0 80183.0 108260.0 108260.0 108260.0 108260.0 80183.0 80183.0 80183.0 80183.0
219924.0 219028.0 173638.0 168266.0 147839.0 154339.0 349924.0 352914.0 183241.0 184793.0 145212.0 148065.0 280941.0 277842.0 145758.0 137906.0 254417.0 246750.0 306668.0 305411.0 124073.0 129324.0 52891.0 47954.0 342561.0 335840.0 106281.0 100483.0 88027.0 90684.0 167773.0 174177.0 59153.0 66945.0 58698.0 58137.0 204914.0 204542.0 213734.0 221083.0 379601.0 379670.0 94859.0 88005.0 155967.0 156254.0 100233.0 108188.0 31984.0 23725.0 283841.0 276118.0 100339.0 99617.0 391770.0 388131.0 119189.0 125095.0 120518.0 113709.0 144332.0 150492.0 155199.0 162074.0 0.0 8160.0 162887.0 159051.0 166051.0 166826.0 132656.0 125259.0 36526.0 39237.0 201014.0 196629.0 154465.0 161604.0 251233.0 243592.0 219247.0 223166.0 100271.0 92695.0 102427.0 98245.0 71431.0 67510.0 71470.0 63517.0 200376.0 205794.0 136421.0 135839.0 310458.0 302824.0 164982.0 157722.0 178907.0 173787.0 95494.0 90336.0 128083.0 122015.0 76898.0 68870.0 155548.0 148208.0 35462.0 36484.0 87509.0 92662.0 236025.0 242249.0 135472.0 128180.0 40853.0 48073.0 172827.0 172087.0 205338.0 239442.0 205338.0 205338.0 205338.0 205338.0 239442.0 239442.0 239442.0 239442.0
224994.0 224326.0 171387.0 166296.0 150308.0 157033.0 354745.0 357605.0 178191.0 180044.0 148979.0 151435.0 285449.0 282535.0 150101.0 142293.0 259796.0 252187.0 311049.0 309977.0 124112.0 129740.0 53014.0 47125.0 347456.0 340818.0 108572.0 102374.0 96140.0 98842.0 169878.0 176425.0 62411.0 70254.0 60637.0 58974.0 207944.0 207863.0 217541.0 224992.0 384376.0 384306.0 89906.0 82753.0 151473.0 152123.0 100021.0 107952.0 40144.0 31873.0 289312.0 281576.0 102023.0 100666.0 396618.0 393100.0 122763.0 129011.0 128678.0 121866.0 146860.0 152749.0 157898.0 164519.0 8160.0 0.0 159189.0 155692.0 168616.0 169763.0 128099.0 120919.0 42823.0 44441.0 204407.0 200097.0 151830.0 159174.0 256330.0 248752.0 222333.0 226490.0 108358.0 100758.0 110016.0 105619.0 77992.0 73588.0 79108.0 71208.0 196359.0 201997.0 140203.0 140037.0 315937.0 308354.0 169730.0 162340.0 175835.0 170453.0 96566.0 90893.0 136112.0 129977.0 84889.0 76884.0 159928.0 152445.0 34362.0 33588.0 93815.0 99303.0 239423.0 245798.0 130072.0 122960.0 43622.0 51345.0 170135.0 169050.0 203519.0 242642.0 203519.0 203519.0 203519.0 203519.0 242642.0 242642.0 242642.0 242642.0
213413.0 218338.0 33760.0 37602.0 118068.0 124412.0 315255.0 315464.0 38893.0 33534.0 141473.0 135007.0 247351.0 249277.0 152789.0 150443.0 247507.0 242938.0 266797.0 269513.0 76096.0 80829.0 116930.0 118044.0 310112.0 305950.0 110790.0 106418.0 224904.0 222325.0 118147.0 123807.0 131087.0 129258.0 122216.0 116325.0 157150.0 163152.0 179862.0 187231.0 342239.0 340299.0 72166.0 80285.0 19196.0 11738.0 82730.0 78387.0 180126.0 174081.0 273941.0 267199.0 103900.0 96595.0 355166.0 354038.0 130678.0 137740.0 243374.0 240620.0 118193.0 114928.0 124807.0 122522.0 162887.0 159189.0 0.0 8193.0 126494.0 134220.0 35402.0 40038.0 157324.0 149496.0 162460.0 161326.0 23574.0 26974.0 237834.0 233417.0 167879.0 175775.0 218835.0 211996.0 250630.0 249539.0 165920.0 158332.0 185139.0 182394.0 38165.0 42937.0 138686.0 146116.0 296755.0 291591.0 170512.0 163929.0 21669.0 13805.0 98322.0 95374.0 262862.0 260080.0 220705.0 213549.0 157985.0 151765.0 128743.0 126416.0 166900.0 174741.0 186669.0 194661.0 46455.0 47619.0 135761.0 135131.0 24611.0 17546.0 64593.0 186539.0 64593.0 64593.0 64593.0 64593.0 186539.0 186539.0 186539.0 186539.0
205330.0 210219.0 28234.0 30861.0 109874.0 116227.0 307774.0 307983.0 47075.0 41674.0 133305.0 126819.0 239827.0 241650.0 144641.0 142350.0 239517.0 234902.0 259317.0 262032.0 68170.0 72752.0 111831.0 113396.0 302632.0 298440.0 103154.0 98989.0 218885.0 216119.0 110100.0 115825.0 125033.0 122886.0 116414.0 110820.0 149418.0 155331.0 172008.0 179419.0 334759.0 332819.0 70561.0 78714.0 24953.0 16888.0 75805.0 71115.0 175176.0 169357.0 266058.0 259285.0 96501.0 89325.0 347686.0 346557.0 122762.0 129753.0 236689.0 234094.0 110003.0 106740.0 116625.0 114388.0 159051.0 155692.0 8193.0 0.0 118384.0 126086.0 36164.0 39195.0 151947.0 144058.0 154581.0 153384.0 15417.0 19598.0 229901.0 225430.0 160324.0 168181.0 212204.0 205457.0 244985.0 244091.0 159341.0 151832.0 178776.0 176254.0 43996.0 47742.0 130572.0 138029.0 288989.0 283771.0 162322.0 155748.0 20999.0 14763.0 91207.0 88610.0 256500.0 253872.0 215035.0 207987.0 149802.0 143602.0 124472.0 122579.0 159861.0 167636.0 179188.0 187173.0 49567.0 49419.0 130534.0 129530.0 20220.0 14953.0 60608.0 179059.0 60608.0 60608.0 60608.0 60608.0 179059.0 179059.0 179059.0 179059.0
87005.0 91850.0 100425.0 93049.0 18371.0 11958.0 199828.0 200952.0 165290.0 159100.0 32230.0 24302.0 129410.0 129358.0 42562.0 46622.0 121869.0 116838.0 152218.0 153454.0 62567.0 54647.0 117993.0 125585.0 193821.0 188643.0 60117.0 66878.0 173068.0 166663.0 10000.0 10579.0 107021.0 99350.0 108044.0 110956.0 40692.0 43032.0 57630.0 65623.0 228025.0 226321.0 138241.0 142525.0 140595.0 133184.0 80646.0 75434.0 159528.0 159223.0 149537.0 142416.0 67765.0 71604.0 240884.0 239004.0 50112.0 48132.0 173097.0 174613.0 21756.0 16929.0 11145.0 4770.0 166051.0 168616.0 126494.0 118384.0 0.0 8186.0 135254.0 130080.0 135497.0 129353.0 40683.0 37864.0 102976.0 100504.0 112984.0 107858.0 55045.0 60677.0 153507.0 150165.0 203131.0 206239.0 114685.0 111805.0 133543.0 136752.0 150850.0 149022.0 38087.0 44517.0 173868.0 167962.0 50224.0 46515.0 119497.0 122922.0 75203.0 82737.0 198082.0 199173.0 177137.0 173522.0 41135.0 39623.0 137008.0 142035.0 102805.0 106193.0 73724.0 81083.0 152456.0 146820.0 125248.0 118031.0 109185.0 116077.0 110802.0 75595.0 110802.0 110802.0 110802.0 110802.0 75595.0 75595.0 75595.0 75595.0
79547.0 84155.0 108519.0 101102.0 21511.0 13619.0 194879.0 196249.0 173059.0 166956.0 27523.0 20676.0 124262.0 123804.0 36584.0 41578.0 114808.0 109567.0 147664.0 148529.0 68438.0 60653.0 120110.0 127847.0 188683.0 183307.0 61922.0 69158.0 169643.0 163031.0 18084.0 16824.0 107673.0 99897.0 109466.0 112925.0 38210.0 39083.0 52341.0 60365.0 223361.0 221893.0 143519.0 147488.0 148026.0 140693.0 85062.0 80371.0 158736.0 158863.0 142829.0 135613.0 70323.0 74895.0 236169.0 234072.0 48867.0 45562.0 168234.0 170065.0 24182.0 21803.0 12792.0 11698.0 166826.0 169763.0 134220.0 126086.0 8186.0 0.0 142040.0 136641.0 135227.0 129412.0 36197.0 32729.0 110671.0 108389.0 106241.0 100865.0 52642.0 57422.0 149296.0 146296.0 199664.0 203045.0 112606.0 110262.0 130880.0 134513.0 158966.0 157183.0 34649.0 40089.0 167484.0 161417.0 42326.0 39069.0 127559.0 130887.0 78272.0 86031.0 193388.0 194756.0 174288.0 170998.0 33952.0 33458.0 138909.0 144273.0 99926.0 102753.0 70516.0 77531.0 159164.0 153346.0 126200.0 118756.0 117222.0 124061.0 118974.0 73098.0 118974.0 118974.0 118974.0 118974.0 73098.0 73098.0 73098.0 73098.0
221145.0 225001.0 62932.0 63128.0 122672.0 130113.0 331585.0 331771.0 51643.0 52242.0 142457.0 137570.0 262508.0 263402.0 152476.0 148443.0 256822.0 251394.0 283145.0 285618.0 75091.0 82177.0 92070.0 91320.0 326272.0 321747.0 103083.0 96768.0 202290.0 200722.0 128672.0 135304.0 110358.0 110439.0 100463.0 93329.0 171191.0 176043.0 192057.0 199867.0 358510.0 356570.0 38573.0 46404.0 23386.0 25370.0 70662.0 69683.0 153327.0 146526.0 284782.0 277623.0 94123.0 86133.0 371356.0 370377.0 125784.0 133815.0 224395.0 220675.0 121732.0 120722.0 130703.0 130725.0 132656.0 128099.0 35402.0 36164.0 135254.0 142040.0 0.0 8322.0 132606.0 125210.0 174592.0 172557.0 43578.0 51467.0 248213.0 242902.0 183552.0 190967.0 199767.0 192438.0 226022.0 224090.0 147366.0 139446.0 164901.0 160948.0 69149.0 75633.0 137667.0 144100.0 309022.0 303203.0 172460.0 165071.0 56489.0 49012.0 86395.0 80965.0 241768.0 238151.0 196455.0 188882.0 159428.0 152206.0 100378.0 96724.0 151556.0 159749.0 202911.0 210872.0 17342.0 13869.0 110873.0 111953.0 56137.0 51019.0 96105.0 202888.0 96105.0 96105.0 96105.0 96105.0 202888.0 202888.0 202888.0 202888.0
215400.0 219063.0 64129.0 63278.0 116850.0 124421.0 327534.0 327887.0 59788.0 60031.0 135918.0 131303.0 258109.0 258782.0 145701.0 141454.0 251277.0 245707.0 279170.0 281435.0 68963.0 76311.0 83856.0 83260.0 322081.0 317411.0 95627.0 89136.0 194042.0 192436.0 123894.0 130664.0 102036.0 102136.0 92146.0 85032.0 166848.0 171436.0 187240.0 195111.0 354622.0 352721.0 32230.0 40303.0 30795.0 31382.0 62997.0 62458.0 145372.0 138660.0 279470.0 272244.0 86496.0 78492.0 367573.0 366435.0 118530.0 126642.0 216073.0 212359.0 115738.0 115126.0 125041.0 125481.0 125259.0 120919.0 40038.0 39195.0 130080.0 136641.0 8322.0 0.0 124435.0 117004.0 169837.0 167632.0 43753.0 51995.0 242883.0 237417.0 179507.0 186784.0 191445.0 184116.0 217903.0 216042.0 139052.0 131131.0 156582.0 152648.0 75643.0 81739.0 130863.0 137128.0 303947.0 298009.0 165933.0 158453.0 60108.0 53097.0 78599.0 72978.0 233477.0 229886.0 188297.0 180751.0 152877.0 145539.0 92556.0 89138.0 143333.0 151535.0 198919.0 206850.0 22878.0 16755.0 102689.0 103679.0 58344.0 54123.0 97414.0 198964.0 97414.0 97414.0 97414.0 97414.0 198964.0 198964.0 198964.0 198964.0
183936.0 182819.0 160947.0 154468.0 117828.0 123565.0 314135.0 317281.0 184223.0 184086.0 111739.0 115531.0 245615.0 242258.0 111055.0 103169.0 218127.0 210421.0 271506.0 269978.0 103379.0 106929.0 40687.0 41727.0 306689.0 299881.0 77931.0 73830.0 70242.0 69786.0 138567.0 144455.0 31152.0 37594.0 36620.0 41168.0 172779.0 171699.0 179779.0 186899.0 343854.0 344096.0 99207.0 94522.0 154690.0 153084.0 81942.0 89449.0 25555.0 23743.0 247481.0 239767.0 74461.0 76219.0 355932.0 352164.0 86533.0 91490.0 96924.0 91613.0 114198.0 121080.0 124400.0 131918.0 36526.0 42823.0 157324.0 151947.0 135497.0 135227.0 132606.0 124435.0 0.0 8004.0 168020.0 163486.0 144081.0 150052.0 215193.0 207496.0 186893.0 190226.0 73616.0 65748.0 93584.0 92219.0 35191.0 30990.0 39880.0 32974.0 195485.0 199689.0 102999.0 101498.0 274087.0 266424.0 129502.0 122472.0 169868.0 166130.0 72287.0 69634.0 110635.0 106284.0 63868.0 56409.0 120720.0 113696.0 36514.0 43685.0 51035.0 56516.0 202868.0 208741.0 139894.0 131914.0 21764.0 22922.0 162159.0 163058.0 190251.0 206726.0 190251.0 190251.0 190251.0 190251.0 206726.0 206726.0 206726.0 206726.0
180729.0 179939.0 152943.0 146469.0 111494.0 117463.0 310689.0 313679.0 176785.0 176516.0 106650.0 110028.0 241742.0 238608.0 106677.0 98807.0 215384.0 207761.0 267507.0 266195.0 95581.0 99278.0 33151.0 34920.0 303333.0 296627.0 71043.0 66591.0 77229.0 76306.0 132072.0 138099.0 23651.0 30540.0 28627.0 33244.0 167202.0 166397.0 175003.0 182251.0 340364.0 340440.0 92475.0 88122.0 147132.0 145398.0 73979.0 81515.0 33288.0 30561.0 244881.0 237147.0 67101.0 68559.0 352537.0 348917.0 81009.0 86429.0 102607.0 97658.0 107888.0 114598.0 118307.0 125655.0 39237.0 44441.0 149496.0 144058.0 129353.0 129412.0 125210.0 117004.0 8004.0 0.0 162779.0 158306.0 136101.0 142053.0 212049.0 204433.0 181410.0 184980.0 78812.0 70991.0 101253.0 100052.0 35575.0 29860.0 44148.0 38031.0 187650.0 191799.0 97868.0 96873.0 271505.0 263916.0 125749.0 118515.0 161903.0 158207.0 64589.0 61738.0 117320.0 113228.0 71436.0 64101.0 116437.0 109193.0 31472.0 39119.0 50272.0 56611.0 197723.0 203758.0 132911.0 124891.0 14433.0 14923.0 154167.0 155097.0 182282.0 201399.0 182282.0 182282.0 182282.0 182282.0 201399.0 201399.0 201399.0 201399.0
54855.0 61685.0 133166.0 126602.0 57655.0 49813.0 159146.0 160306.0 200641.0 193812.0 56319.0 52975.0 88771.0 88986.0 59382.0 66838.0 85665.0 81959.0 111617.0 112771.0 103153.0 95194.0 155789.0 163602.0 153158.0 148054.0 97659.0 105094.0 194276.0 187055.0 45947.0 39322.0 142023.0 134184.0 144626.0 148520.0 10588.0 4016.0 17514.0 25279.0 187394.0 185796.0 178922.0 183185.0 177981.0 170272.0 121068.0 116066.0 190391.0 191329.0 111481.0 104773.0 106364.0 111085.0 200238.0 198322.0 81847.0 76547.0 187316.0 190480.0 60376.0 57344.0 48980.0 45452.0 201014.0 204407.0 162460.0 154581.0 40683.0 36197.0 174592.0 169837.0 168020.0 162779.0 0.0 4794.0 139408.0 135674.0 75497.0 71629.0 20052.0 22208.0 171445.0 169775.0 223793.0 228065.0 142036.0 140941.0 158459.0 163163.0 182271.0 179165.0 65026.0 67409.0 134732.0 129278.0 49998.0 52784.0 152381.0 156979.0 114433.0 122217.0 212817.0 215347.0 200702.0 198402.0 51276.0 56234.0 174381.0 179984.0 127622.0 128744.0 35019.0 41585.0 191897.0 186591.0 160789.0 153116.0 142610.0 150040.0 138719.0 38758.0 138719.0 138719.0 138719.0 138719.0 38758.0 38758.0 38758.0 38758.0
54180.0 60636.0 132588.0 125860.0 54240.0 46323.0 162197.0 163523.0 199687.0 192983.0 51753.0 48677.0 91644.0 91494.0 54612.0 62091.0 86298.0 82194.0 114942.0 115834.0 100430.0 92510.0 151765.0 159605.0 156073.0 150815.0 93709.0 101223.0 189485.0 182269.0 43938.0 37650.0 137695.0 129853.0 140455.0 144470.0 14329.0 8801.0 19769.0 27776.0 190634.0 189179.0 175992.0 180109.0 176533.0 168890.0 117783.0 112972.0 185759.0 186756.0 112791.0 105924.0 102557.0 107460.0 203445.0 201389.0 77441.0 71997.0 182637.0 185762.0 56816.0 54230.0 45509.0 42604.0 196629.0 200097.0 161326.0 153384.0 37864.0 32729.0 172557.0 167632.0 163486.0 158306.0 4794.0 0.0 138133.0 134655.0 76519.0 72212.0 24843.0 26780.0 166682.0 164992.0 219009.0 223274.0 137316.0 136275.0 153685.0 158411.0 182031.0 179130.0 60489.0 62718.0 136503.0 130851.0 45388.0 48027.0 151828.0 156222.0 110739.0 118572.0 208137.0 210632.0 195910.0 193618.0 46483.0 51474.0 170278.0 175962.0 122860.0 123956.0 39419.0 45732.0 189831.0 184386.0 156488.0 148781.0 141938.0 149286.0 138832.0 43398.0 138832.0 138832.0 138832.0 138832.0 43398.0 43398.0 43398.0 43398.0
189936.0 194806.0 20956.0 19599.0 94569.0 100852.0 293207.0 293416.0 62465.0 56824.0 118222.0 111612.0 225135.0 226804.0 129659.0 127594.0 224202.0 219543.0 244750.0 247433.0 54205.0 58167.0 104918.0 107473.0 288065.0 283911.0 89936.0 86397.0 209329.0 206145.0 94742.0 100535.0 115786.0 112887.0 107835.0 102990.0 134453.0 140237.0 156864.0 164330.0 320192.0 318251.0 71853.0 79812.0 38935.0 31015.0 64873.0 59254.0 168127.0 162828.0 250862.0 244052.0 84009.0 77257.0 333119.0 331990.0 108631.0 115380.0 225570.0 223348.0 94773.0 91378.0 101243.0 98972.0 154465.0 151830.0 23574.0 15417.0 102976.0 110671.0 43578.0 43753.0 144081.0 136101.0 139408.0 138133.0 0.0 8344.0 214651.0 210118.0 145624.0 153415.0 201255.0 194735.0 236205.0 235742.0 148656.0 141367.0 168539.0 166542.0 55603.0 57676.0 115739.0 123297.0 273941.0 268653.0 147082.0 140586.0 26005.0 24161.0 79554.0 77935.0 246096.0 243824.0 206267.0 199477.0 134627.0 128540.0 119249.0 118301.0 148048.0 155635.0 164620.0 172613.0 59467.0 57447.0 123150.0 121307.0 18377.0 19393.0 53939.0 164492.0 53939.0 53939.0 53939.0 53939.0 164492.0 164492.0 164492.0 164492.0
187163.0 192296.0 12705.0 11791.0 93486.0 99331.0 288295.0 288504.0 65047.0 58606.0 117836.0 110861.0 220384.0 222305.0 129496.0 127929.0 220916.0 216488.0 239838.0 242553.0 56388.0 59316.0 111412.0 114310.0 283153.0 278990.0 92590.0 89688.0 214335.0 210915.0 91838.0 97267.0 121185.0 117884.0 113603.0 109120.0 130218.0 136291.0 153035.0 160355.0 315280.0 313339.0 80150.0 88087.0 44455.0 36386.0 69665.0 63464.0 174392.0 169304.0 247137.0 240444.0 87410.0 81078.0 328207.0 327078.0 110070.0 116430.0 229582.0 227614.0 94011.0 89989.0 99657.0 96722.0 161604.0 159174.0 26974.0 19598.0 100504.0 108389.0 51467.0 51995.0 150052.0 142053.0 135674.0 134655.0 8344.0 0.0 211116.0 206825.0 140905.0 148801.0 205417.0 199060.0 241591.0 241341.0 153103.0 145976.0 173218.0 171534.0 53580.0 54486.0 115961.0 123693.0 269832.0 264711.0 146117.0 139902.0 22088.0 22919.0 83679.0 82748.0 250555.0 248503.0 211695.0 205043.0 133918.0 128179.0 126273.0 125602.0 151696.0 159115.0 159709.0 167701.0 66916.0 65312.0 129388.0 127187.0 12430.0 16574.0 45598.0 159580.0 45598.0 45598.0 45598.0 45598.0 159580.0 159580.0 159580.0 159580.0
31341.0 32994.0 208615.0 202097.0 126544.0 118742.0 99379.0 103180.0 276117.0 269310.0 113124.0 114746.0 37930.0 31140.0 108123.0 115476.0 12001.0 14422.0 62806.0 58446.0 174455.0 166785.0 214491.0 222474.0 91700.0 84728.0 159761.0 167757.0 218495.0 210502.0 120192.0 114135.0 195820.0 188305.0 201316.0 207061.0 82126.0 75235.0 58385.0 51728.0 129139.0 130072.0 248236.0 251439.0 252990.0 245380.0 188654.0 185096.0 232827.0 236138.0 36588.0 29453.0 169681.0 176060.0 140943.0 136986.0 138349.0 130535.0 199675.0 205448.0 128190.0 127848.0 118069.0 117489.0 251233.0 256330.0 237834.0 229901.0 112984.0 106241.0 248213.0 242883.0 215193.0 212049.0 75497.0 76519.0 214651.0 211116.0 0.0 7996.0 75254.0 67280.0 192297.0 193754.0 244569.0 250725.0 182610.0 184607.0 192957.0 199731.0 257380.0 253956.0 120976.0 118553.0 61891.0 55362.0 87137.0 94914.0 227808.0 232474.0 178620.0 186639.0 223525.0 228476.0 228667.0 228982.0 98453.0 106475.0 231242.0 238025.0 166172.0 163564.0 62146.0 56622.0 265378.0 259586.0 214353.0 206266.0 218090.0 225534.0 213451.0 68145.0 213451.0 213451.0 213451.0 213451.0 68145.0 68145.0 68145.0 68145.0
23940.0 25041.0 204737.0 198064.0 120781.0 113063.0 107286.0 111144.0 271869.0 265194.0 106441.0 108408.0 45342.0 38881.0 101031.0 108285.0 14091.0 11601.0 70579.0 66381.0 168775.0 161186.0 207352.0 215328.0 99564.0 92526.0 153070.0 161074.0 210513.0 202521.0 115438.0 109611.0 188442.0 180966.0 194084.0 199930.0 78999.0 71755.0 55033.0 49060.0 137038.0 138031.0 242054.0 245105.0 248251.0 240714.0 182384.0 179024.0 224975.0 228340.0 42561.0 35043.0 163045.0 169552.0 148788.0 144746.0 131388.0 123484.0 191841.0 197569.0 122282.0 122294.0 112418.0 112272.0 243592.0 248752.0 233417.0 225430.0 107858.0 100865.0 242902.0 237417.0 207496.0 204433.0 71629.0 72212.0 210118.0 206825.0 7996.0 0.0 73407.0 65669.0 184326.0 185764.0 236634.0 242771.0 174784.0 176859.0 185008.0 191804.0 253883.0 250677.0 114138.0 111459.0 68544.0 61675.0 79868.0 87712.0 223966.0 228431.0 172026.0 180037.0 215766.0 220664.0 220673.0 220989.0 91438.0 99489.0 223953.0 230795.0 158334.0 155658.0 62063.0 57363.0 260004.0 254085.0 206919.0 198830.0 214127.0 221494.0 210164.0 68493.0 210164.0 210164.0 210164.0 210164.0 68493.0 68493.0 68493.0 68493.0
62433.0 70226.0 136643.0 130833.0 73205.0 65811.0 148046.0 148413.0 205059.0 197759.0 75548.0 71388.0 79514.0 81500.0 79302.0 86657.0 86680.0 84739.0 99665.0 102101.0 115445.0 107457.0 172662.0 180350.0 142747.0 138407.0 114508.0 121602.0 214328.0 207104.0 57455.0 50269.0 160115.0 152305.0 162105.0 165515.0 14452.0 16043.0 21879.0 24862.0 175242.0 173303.0 191420.0 196241.0 184552.0 176631.0 135284.0 129602.0 209658.0 210346.0 108925.0 103054.0 122630.0 126648.0 188183.0 186931.0 100412.0 95639.0 207083.0 210360.0 76335.0 71927.0 64946.0 59647.0 219247.0 222333.0 167879.0 160324.0 55045.0 52642.0 183552.0 179507.0 186893.0 181410.0 20052.0 24843.0 145624.0 140905.0 75254.0 73407.0 0.0 8150.0 191450.0 189820.0 243839.0 248117.0 161700.0 160373.0 178369.0 182967.0 184055.0 180558.0 84120.0 87024.0 129756.0 125257.0 69686.0 72790.0 155523.0 160916.0 130228.0 137782.0 232582.0 235216.0 220716.0 218357.0 71321.0 76120.0 191522.0 196792.0 147478.0 148731.0 19441.0 27343.0 200885.0 196164.0 178737.0 171211.0 146352.0 154031.0 140034.0 20556.0 140034.0 140034.0 140034.0 140034.0 20556.0 20556.0 20556.0 20556.0
55986.0 63925.0 144680.0 138810.0 78509.0 70884.0 140773.0 141340.0 213061.0 205793.0 78514.0 75102.0 71756.0 73522.0 81119.0 88709.0 78792.0 77083.0 92531.0 94663.0 122010.0 114011.0 177484.0 185246.0 135316.0 130822.0 119295.0 126579.0 215108.0 207755.0 63964.0 56836.0 164133.0 156299.0 166554.0 170262.0 20253.0 18629.0 17139.0 17968.0 168264.0 166344.0 198022.0 202678.0 192329.0 184429.0 141269.0 135814.0 212536.0 213524.0 100782.0 94937.0 127731.0 132083.0 181187.0 179762.0 104026.0 98749.0 206549.0 210119.0 81475.0 77605.0 70028.0 65379.0 223166.0 226490.0 175775.0 168181.0 60677.0 57422.0 190967.0 186784.0 190226.0 184980.0 22208.0 26780.0 153415.0 148801.0 67280.0 65669.0 8150.0 0.0 191710.0 190410.0 244397.0 248900.0 163985.0 163036.0 180069.0 184950.0 192155.0 188658.0 87231.0 89462.0 121650.0 117117.0 69463.0 73388.0 163591.0 168935.0 135563.0 143230.0 232018.0 234917.0 221952.0 219877.0 72576.0 78042.0 196195.0 201662.0 149357.0 150172.0 13099.0 20470.0 208307.0 203472.0 182868.0 175230.0 154378.0 162043.0 148135.0 16669.0 148135.0 148135.0 148135.0 148135.0 16669.0 16669.0 16669.0 16669.0
164080.0 159855.0 214115.0 206581.0 140737.0 142768.0 289912.0 294522.0 250392.0 248924.0 121781.0 129247.0 228349.0 222868.0 113959.0 107864.0 191164.0 183168.0 254388.0 250676.0 150615.0 150581.0 109690.0 113183.0 281803.0 274212.0 115320.0 116389.0 26537.0 18525.0 160679.0 164054.0 89411.0 89866.0 99416.0 106923.0 179700.0 175461.0 176782.0 181847.0 319271.0 321170.0 170158.0 166440.0 220059.0 216970.0 136530.0 142053.0 68714.0 76632.0 217594.0 210437.0 118446.0 124360.0 330138.0 325019.0 107323.0 106292.0 24648.0 22365.0 137403.0 145338.0 143363.0 151892.0 100271.0 108358.0 218835.0 212204.0 153507.0 149296.0 199767.0 191445.0 73616.0 78812.0 171445.0 166682.0 201255.0 205417.0 192297.0 184326.0 191450.0 191710.0 0.0 7871.0 53141.0 58642.0 52931.0 60640.0 35210.0 40800.0 256106.0 258887.0 115443.0 109230.0 242937.0 234884.0 122273.0 118663.0 227058.0 225063.0 121769.0 123609.0 45960.0 45856.0 38714.0 42115.0 120565.0 117262.0 109998.0 117296.0 54841.0 48827.0 202205.0 205781.0 209504.0 201395.0 92654.0 89174.0 217837.0 220623.0 238750.0 207941.0 238750.0 238750.0 238750.0 238750.0 207941.0 207941.0 207941.0 207941.0
164968.0 161079.0 207970.0 200503.0 136775.0 139184.0 291922.0 296377.0 243199.0 241844.0 118786.0 126009.0 229346.0 224082.0 111560.0 105139.0 193099.0 185088.0 255475.0 251998.0 144657.0 144910.0 102056.0 105437.0 283866.0 276343.0 109738.0 110430.0 25062.0 17383.0 157013.0 160663.0 82091.0 82839.0 92011.0 99433.0 177731.0 173790.0 175853.0 181185.0 321393.0 323109.0 162508.0 158716.0 212901.0 209930.0 129917.0 135622.0 61312.0 69120.0 220014.0 212758.0 112410.0 118095.0 332421.0 327445.0 102992.0 102502.0 32023.0 28638.0 133371.0 141306.0 139810.0 148341.0 92695.0 100758.0 211996.0 205457.0 150165.0 146296.0 192438.0 184116.0 65748.0 70991.0 169775.0 164992.0 194735.0 199060.0 193754.0 185764.0 189820.0 190410.0 7871.0 0.0 54019.0 58633.0 46124.0 53669.0 27625.0 32965.0 249402.0 252313.0 112086.0 106218.0 245607.0 237572.0 121160.0 117096.0 220601.0 218453.0 115381.0 116933.0 51607.0 50515.0 35253.0 37323.0 118627.0 114858.0 102142.0 109430.0 49634.0 44380.0 201207.0 205055.0 201988.0 193883.0 84886.0 81541.0 211488.0 214120.0 233058.0 206777.0 233058.0 233058.0 233058.0 233058.0 206777.0 206777.0 206777.0 206777.0
216894.0 212419.0 251718.0 244723.0 188840.0 191858.0 341256.0 346107.0 277664.0 277656.0 172235.0 179186.0 281018.0 275346.0 165425.0 158837.0 242830.0 234878.0 306955.0 303013.0 190323.0 191902.0 134271.0 134741.0 333070.0 325374.0 157750.0 156848.0 30066.0 36784.0 209484.0 213531.0 120434.0 123930.0 128593.0 134313.0 231704.0 227808.0 229710.0 234895.0 370377.0 372589.0 191327.0 185767.0 248256.0 246648.0 172065.0 178832.0 73937.0 81787.0 268367.0 261416.0 158416.0 162759.0 380929.0 375532.0 154640.0 155093.0 47928.0 40510.0 185326.0 193211.0 192526.0 201025.0 102427.0 110016.0 250630.0 244985.0 203131.0 199664.0 226022.0 217903.0 93584.0 101253.0 223793.0 219009.0 236205.0 241591.0 244569.0 236634.0 243839.0 244397.0 53141.0 54019.0 0.0 8111.0 91924.0 97651.0 71331.0 70908.0 288749.0 292678.0 165186.0 159694.0 293124.0 285059.0 175075.0 171109.0 262179.0 258918.0 159419.0 159056.0 34815.0 26743.0 29957.0 37176.0 172627.0 168717.0 126862.0 132245.0 100686.0 96957.0 255101.0 258809.0 232425.0 224581.0 115341.0 115500.0 253912.0 255443.0 279075.0 260732.0 279075.0 279075.0 279075.0 279075.0 260732.0 260732.0 260732.0 260732.0
222713.0 218412.0 251715.0 244851.0 191515.0 194823.0 347795.0 352566.0 275715.0 275950.0 175727.0 182472.0 286952.0 281399.0 169342.0 162571.0 249233.0 241263.0 312958.0 309147.0 190998.0 192905.0 132786.0 132782.0 339631.0 331965.0 159197.0 157892.0 33796.0 41251.0 212307.0 216563.0 120196.0 124151.0 127925.0 133274.0 235760.0 232075.0 234465.0 239818.0 376995.0 379109.0 188784.0 182986.0 246555.0 245202.0 172045.0 178998.0 71104.0 78614.0 275049.0 268040.0 159350.0 163350.0 387638.0 382312.0 157255.0 158117.0 55494.0 47852.0 187962.0 195804.0 195512.0 203976.0 98245.0 105619.0 249539.0 244091.0 206239.0 203045.0 224090.0 216042.0 92219.0 100052.0 228065.0 223274.0 235742.0 241341.0 250725.0 242771.0 248117.0 248900.0 58642.0 58633.0 8111.0 0.0 93633.0 98877.0 73343.0 72035.0 287697.0 291828.0 168457.0 163235.0 299957.0 291892.0 179754.0 175526.0 261661.0 258174.0 159893.0 159122.0 42858.0 34774.0 30184.0 36304.0 176813.0 172619.0 124314.0 129340.0 103485.0 100317.0 259800.0 263687.0 229938.0 222170.0 113867.0 114591.0 253603.0 254889.0 279587.0 265317.0 279587.0 279587.0 279587.0 279587.0 265317.0 265317.0 265317.0 265317.0
151612.0 149867.0 162266.0 154909.0 98816.0 102910.0 281920.0 285391.0 197655.0 196053.0 86430.0 91985.0 214541.0 210660.0 82959.0 75283.0 184819.0 177001.0 240665.0 238605.0 99417.0 100364.0 59863.0 64956.0 274305.0 267309.0 65852.0 65403.0 62672.0 58248.0 119845.0 124664.0 37521.0 37039.0 47826.0 55781.0 148205.0 145917.0 151847.0 158450.0 311682.0 312281.0 119700.0 116899.0 167280.0 164075.0 83809.0 89639.0 50320.0 53651.0 213889.0 206218.0 67177.0 72369.0 323553.0 319505.0 64720.0 67050.0 77528.0 74762.0 95195.0 102898.0 103660.0 111932.0 71431.0 77992.0 165920.0 159341.0 114685.0 112606.0 147366.0 139052.0 35191.0 35575.0 142036.0 137316.0 148656.0 153103.0 182610.0 174784.0 161700.0 163985.0 52931.0 46124.0 91924.0 93633.0 0.0 7971.0 20705.0 22142.0 203280.0 206204.0 78242.0 74677.0 240429.0 232672.0 99004.0 92699.0 174554.0 172336.0 69479.0 70812.0 97463.0 95516.0 63636.0 59170.0 92030.0 85970.0 65542.0 73460.0 16497.0 21327.0 176092.0 181291.0 157865.0 149754.0 45986.0 40146.0 165532.0 168045.0 188170.0 180652.0 188170.0 188170.0 188170.0 188170.0 180652.0 180652.0 180652.0 180652.0
153429.0 152087.0 155351.0 148079.0 95330.0 99914.0 283734.0 287023.0 189817.0 188285.0 84839.0 89815.0 215709.0 212101.0 82463.0 74644.0 187303.0 179564.0 241732.0 239941.0 92910.0 94257.0 52068.0 57375.0 276216.0 269331.0 60338.0 59203.0 68927.0 64998.0 116413.0 121545.0 29556.0 29228.0 39868.0 47847.0 146632.0 144759.0 151523.0 158352.0 313479.0 313880.0 111766.0 109034.0 159457.0 156330.0 76494.0 82540.0 49677.0 51785.0 216590.0 208885.0 60820.0 65586.0 325472.0 321592.0 61697.0 64957.0 85273.0 82289.0 91679.0 99221.0 100694.0 108801.0 67510.0 73588.0 158332.0 151832.0 111805.0 110262.0 139446.0 131131.0 30990.0 29860.0 140941.0 136275.0 141367.0 145976.0 184607.0 176859.0 160373.0 163036.0 60640.0 53669.0 97651.0 98877.0 7971.0 0.0 27261.0 26843.0 195800.0 198835.0 76383.0 73582.0 243186.0 235502.0 99716.0 93025.0 167308.0 164947.0 62525.0 63443.0 104749.0 102528.0 68712.0 63592.0 91846.0 85332.0 58631.0 66570.0 20413.0 27019.0 175363.0 180827.0 149896.0 141784.0 38931.0 32651.0 158400.0 160759.0 181724.0 179673.0 181724.0 181724.0 181724.0 181724.0 179673.0 179673.0 179673.0 179673.0
162602.0 159968.0 182608.0 175321.0 118329.0 121945.0 292257.0 296130.0 215791.0 214583.0 104006.0 110206.0 226524.0 222081.0 99079.0 91752.0 194015.0 186060.0 252758.0 250137.0 120008.0 121058.0 74480.0 78084.0 284442.0 277212.0 86533.0 86073.0 41968.0 37740.0 139229.0 143728.0 54625.0 55894.0 64443.0 71814.0 165291.0 162412.0 166977.0 173152.0 321983.0 323027.0 134949.0 131286.0 185544.0 182741.0 103677.0 109795.0 43323.0 49458.0 222378.0 214835.0 87809.0 92802.0 333545.0 329114.0 84070.0 85473.0 59648.0 55811.0 114751.0 122557.0 122662.0 131059.0 71470.0 79108.0 185139.0 178776.0 133543.0 130880.0 164901.0 156582.0 39880.0 44148.0 158459.0 153685.0 168539.0 173218.0 192957.0 185008.0 178369.0 180069.0 35210.0 27625.0 71331.0 73343.0 20705.0 27261.0 0.0 8039.0 222768.0 225931.0 96248.0 91781.0 248656.0 240748.0 112858.0 107338.0 194501.0 192032.0 89780.0 90605.0 77729.0 75296.0 43670.0 40154.0 107522.0 102250.0 75592.0 83128.0 31032.0 30242.0 191768.0 196503.0 174362.0 166258.0 57642.0 53964.0 185640.0 187928.0 208797.0 196710.0 208797.0 208797.0 208797.0 208797.0 196710.0 196710.0 196710.0 196710.0
169192.0 166766.0 181297.0 174164.0 120958.0 125006.0 299086.0 302866.0 212135.0 211214.0 108040.0 113856.0 232906.0 228612.0 103835.0 96329.0 201040.0 193106.0 259124.0 256655.0 119440.0 121017.0 69625.0 72621.0 291314.0 284133.0 87167.0 85967.0 42802.0 39976.0 141984.0 146772.0 51328.0 53668.0 60666.0 67621.0 169662.0 167085.0 172259.0 178608.0 328830.0 329770.0 129925.0 125924.0 182026.0 179527.0 101870.0 108348.0 35375.0 41420.0 229558.0 221987.0 87511.0 91927.0 340464.0 336115.0 86845.0 88956.0 64648.0 60035.0 117337.0 125036.0 125751.0 134046.0 63517.0 71208.0 182394.0 176254.0 136752.0 134513.0 160948.0 152648.0 32974.0 38031.0 163163.0 158411.0 166542.0 171534.0 199731.0 191804.0 182967.0 184950.0 40800.0 32965.0 70908.0 72035.0 22142.0 26843.0 8039.0 0.0 220236.0 223661.0 100016.0 96046.0 255897.0 248012.0 118529.0 112717.0 192544.0 189769.0 88671.0 88788.0 80873.0 77705.0 41879.0 37058.0 112568.0 106941.0 69217.0 76581.0 35617.0 36314.0 196841.0 201775.0 169810.0 161727.0 52028.0 49204.0 183925.0 185898.0 208225.0 201614.0 208225.0 208225.0 208225.0 208225.0 201614.0 201614.0 201614.0 201614.0
235834.0 241575.0 50500.0 58160.0 145953.0 151220.0 331206.0 331415.0 33853.0 25792.0 170813.0 163547.0 263314.0 265514.0 182608.0 181330.0 267886.0 264177.0 282748.0 285464.0 109586.0 112875.0 155090.0 156101.0 326064.0 321901.0 145513.0 141968.0 262840.0 260112.0 141490.0 145972.0 168988.0 166880.0 160259.0 154462.0 175277.0 182199.0 199027.0 205741.0 358191.0 356250.0 107640.0 115542.0 46234.0 44279.0 119603.0 114531.0 218249.0 212133.0 292467.0 286226.0 139559.0 132665.0 371118.0 369989.0 163620.0 170008.0 280552.0 278041.0 146787.0 142143.0 151455.0 147529.0 200376.0 196359.0 38165.0 43996.0 150850.0 158966.0 69149.0 75643.0 195485.0 187650.0 182271.0 182031.0 55603.0 53580.0 257380.0 253883.0 184055.0 192155.0 256106.0 249402.0 288749.0 287697.0 203280.0 195800.0 222768.0 220236.0 0.0 8285.0 169329.0 177125.0 313803.0 309216.0 198399.0 192525.0 31958.0 31442.0 134772.0 132497.0 300489.0 297866.0 258814.0 251686.0 186538.0 181142.0 166606.0 163979.0 203411.0 211081.0 202620.0 210612.0 73793.0 78121.0 173926.0 173249.0 42468.0 37042.0 65346.0 202490.0 65346.0 65346.0 65346.0 65346.0 202490.0 202490.0 202490.0 202490.0
233136.0 239063.0 49486.0 57409.0 145112.0 150039.0 327709.0 327918.0 42109.0 34077.0 170256.0 162785.0 259818.0 262017.0 182146.0 181224.0 264627.0 261125.0 279252.0 281967.0 110871.0 113615.0 159523.0 160879.0 322567.0 318405.0 147042.0 143905.0 266372.0 263429.0 139481.0 143640.0 172562.0 170119.0 164087.0 158560.0 171836.0 178924.0 195702.0 202285.0 354694.0 352754.0 113908.0 121896.0 53171.0 50408.0 122397.0 116929.0 222831.0 216901.0 288969.0 282740.0 141561.0 134916.0 367621.0 366492.0 164328.0 170436.0 283232.0 280939.0 146146.0 141141.0 150229.0 145893.0 205794.0 201997.0 42937.0 47742.0 149022.0 157183.0 75633.0 81739.0 199689.0 191799.0 179165.0 179130.0 57676.0 54486.0 253956.0 250677.0 180558.0 188658.0 258887.0 252313.0 292678.0 291828.0 206204.0 198835.0 225931.0 223661.0 8285.0 0.0 169196.0 177079.0 310306.0 305719.0 197283.0 191644.0 32399.0 33902.0 137228.0 135404.0 303585.0 301157.0 262724.0 255707.0 185668.0 180547.0 171670.0 169332.0 205701.0 213249.0 199124.0 207115.0 81253.0 85237.0 178260.0 177255.0 42582.0 38419.0 60282.0 198994.0 60282.0 60282.0 60282.0 60282.0 198994.0 198994.0 198994.0 198994.0
90401.0 92155.0 119791.0 111819.0 27270.0 27521.0 216588.0 218892.0 177015.0 172218.0 8792.0 14016.0 146337.0 144208.0 14850.0 12032.0 126951.0 120244.0 171467.0 170967.0 63545.0 57915.0 94173.0 102156.0 209698.0 203544.0 39141.0 47132.0 135138.0 128642.0 45479.0 48615.0 77868.0 70043.0 81714.0 86739.0 70263.0 68731.0 77345.0 84799.0 245908.0 245315.0 129846.0 132100.0 148871.0 142547.0 70406.0 68787.0 125539.0 126315.0 156546.0 148887.0 49250.0 56277.0 258426.0 255492.0 17734.0 11529.0 135372.0 136664.0 24762.0 32059.0 28053.0 36540.0 136421.0 140203.0 138686.0 130572.0 38087.0 34649.0 137667.0 130863.0 102999.0 97868.0 65026.0 60489.0 115739.0 115961.0 120976.0 114138.0 84120.0 87231.0 115443.0 112086.0 165186.0 168457.0 78242.0 76383.0 96248.0 100016.0 169329.0 169196.0 0.0 8048.0 182681.0 175749.0 35926.0 28058.0 137396.0 138799.0 58332.0 66271.0 160204.0 161155.0 139640.0 136381.0 23100.0 15140.0 111830.0 118128.0 65278.0 68230.0 99886.0 105896.0 153699.0 146774.0 96746.0 88877.0 126914.0 132514.0 136518.0 103757.0 136518.0 136518.0 136518.0 136518.0 103757.0 103757.0 103757.0 103757.0
87555.0 88653.0 127706.0 119727.0 35138.0 34695.0 215373.0 217936.0 184303.0 179638.0 12569.0 20247.0 145551.0 142983.0 10431.0 4367.0 123876.0 116915.0 171032.0 170138.0 70594.0 65288.0 95941.0 103926.0 208313.0 201969.0 43530.0 51355.0 129713.0 123010.0 52530.0 55096.0 78121.0 70402.0 82906.0 88509.0 73616.0 71265.0 78290.0 85416.0 244852.0 244518.0 134715.0 136581.0 155912.0 149717.0 75774.0 74772.0 123150.0 124446.0 153591.0 145883.0 53668.0 61104.0 257258.0 254093.0 20341.0 12088.0 128581.0 130149.0 32751.0 39907.0 35141.0 43476.0 135839.0 140037.0 146116.0 138029.0 44517.0 40089.0 144100.0 137128.0 101498.0 96873.0 67409.0 62718.0 123297.0 123693.0 118553.0 111459.0 87024.0 89462.0 109230.0 106218.0 159694.0 163235.0 74677.0 73582.0 91781.0 96046.0 177125.0 177079.0 8048.0 0.0 179928.0 172827.0 31883.0 23896.0 145211.0 146494.0 62751.0 70526.0 153580.0 154772.0 134817.0 131921.0 20184.0 12419.0 112962.0 119577.0 60757.0 62930.0 101796.0 107389.0 159901.0 152836.0 96945.0 88942.0 134741.0 140258.0 144566.0 106109.0 144566.0 144566.0 144566.0 144566.0 106109.0 106109.0 106109.0 106109.0
92381.0 91854.0 266234.0 260183.0 188132.0 180267.0 52203.0 58849.0 334467.0 327315.0 174940.0 176634.0 53969.0 49217.0 169509.0 176671.0 56284.0 63761.0 52757.0 44441.0 235889.0 228136.0 275735.0 283700.0 44034.0 36180.0 221579.0 229580.0 269474.0 261454.0 180439.0 174012.0 256414.0 249036.0 262346.0 268324.0 139615.0 133717.0 117218.0 109630.0 78765.0 82508.0 310056.0 313317.0 312643.0 304884.0 250519.0 246869.0 290094.0 294062.0 26625.0 34366.0 231527.0 237945.0 88254.0 82487.0 199917.0 191976.0 246101.0 252833.0 189892.0 189225.0 179570.0 178479.0 310458.0 315937.0 296755.0 288989.0 173868.0 167484.0 309022.0 303947.0 274087.0 271505.0 134732.0 136503.0 273941.0 269832.0 61891.0 68544.0 129756.0 121650.0 242937.0 245607.0 293124.0 299957.0 240429.0 243186.0 248656.0 255897.0 313803.0 310306.0 182681.0 179928.0 0.0 8065.0 148209.0 156113.0 285208.0 290427.0 240484.0 248501.0 267939.0 273914.0 280860.0 282204.0 159960.0 168017.0 292091.0 299039.0 223938.0 220394.0 112405.0 104859.0 326272.0 320687.0 274715.0 266629.0 275894.0 283514.0 269783.0 116178.0 269783.0 269783.0 269783.0 269783.0 116178.0 116178.0 116178.0 116178.0
85358.0 84499.0 261405.0 255227.0 181875.0 174050.0 59589.0 66024.0 329486.0 322426.0 168109.0 170017.0 51924.0 46193.0 162421.0 169509.0 48986.0 56284.0 54678.0 46250.0 229740.0 222033.0 268533.0 276490.0 51331.0 43397.0 214730.0 222735.0 261421.0 253402.0 174773.0 168457.0 249036.0 241693.0 255079.0 261133.0 134584.0 128441.0 111794.0 104360.0 86631.0 90198.0 303581.0 306727.0 307258.0 299545.0 243967.0 240456.0 282270.0 286291.0 19238.0 26969.0 224716.0 231223.0 96259.0 90537.0 192891.0 184893.0 238045.0 244771.0 183548.0 183098.0 173368.0 172533.0 302824.0 308354.0 291591.0 283771.0 167962.0 161417.0 303203.0 298009.0 266424.0 263916.0 129278.0 130851.0 268653.0 264711.0 55362.0 61675.0 125257.0 117117.0 234884.0 237572.0 285059.0 291892.0 232672.0 235502.0 240748.0 248012.0 309216.0 305719.0 175749.0 172827.0 8065.0 0.0 141041.0 148973.0 280451.0 285530.0 233700.0 241711.0 259915.0 265874.0 272824.0 274191.0 152933.0 161000.0 284762.0 291754.0 216185.0 212570.0 108441.0 101088.0 320418.0 314733.0 267278.0 259196.0 271026.0 278605.0 265195.0 112592.0 265195.0 265195.0 265195.0 265195.0 112592.0 112592.0 112592.0 112592.0
55928.0 56773.0 147979.0 140240.0 52631.0 47244.0 185014.0 187932.0 209293.0 203906.0 30015.0 35535.0 116115.0 112860.0 21597.0 28468.0 92064.0 85046.0 142055.0 140489.0 97539.0 91032.0 127527.0 135495.0 177750.0 171192.0 74900.0 82843.0 146002.0 138535.0 60221.0 58814.0 108721.0 101176.0 114216.0 120115.0 59318.0 53959.0 54729.0 60432.0 214654.0 214693.0 165772.0 167974.0 182191.0 175458.0 106286.0 104356.0 149120.0 151483.0 121802.0 114081.0 85046.0 92186.0 226890.0 223443.0 52157.0 43970.0 137397.0 140746.0 52319.0 56264.0 47070.0 52282.0 164982.0 169730.0 170512.0 162322.0 50224.0 42326.0 172460.0 165933.0 129502.0 125749.0 49998.0 45388.0 147082.0 146117.0 87137.0 79868.0 69686.0 69463.0 122273.0 121160.0 175075.0 179754.0 99004.0 99716.0 112858.0 118529.0 198399.0 197283.0 35926.0 31883.0 148209.0 141041.0 0.0 7999.0 166562.0 169002.0 94143.0 102030.0 162896.0 165581.0 153462.0 151948.0 13067.0 20788.0 144108.0 150927.0 83189.0 82620.0 80048.0 84094.0 188809.0 182071.0 127331.0 119254.0 156070.0 162385.0 160498.0 85675.0 160498.0 160498.0 160498.0 160498.0 85675.0 85675.0 85675.0 85675.0
63779.0 64758.0 142225.0 134413.0 46574.0 41926.0 192459.0 195266.0 202626.0 197389.0 22698.0 29041.0 123228.0 120196.0 13601.0 20573.0 100006.0 93021.0 149045.0 147689.0 90305.0 83989.0 119644.0 127618.0 185258.0 178768.0 66938.0 74871.0 141731.0 134416.0 56387.0 55874.0 101074.0 93483.0 106403.0 112226.0 61330.0 56800.0 59646.0 65891.0 222055.0 221979.0 157879.0 160028.0 175230.0 168601.0 98461.0 96680.0 142591.0 144709.0 129735.0 122019.0 77087.0 84268.0 234347.0 230988.0 44158.0 35983.0 134884.0 137817.0 45894.0 50515.0 41868.0 47949.0 157722.0 162340.0 163929.0 155748.0 46515.0 39069.0 165071.0 158453.0 122472.0 118515.0 52784.0 48027.0 140586.0 139902.0 94914.0 87712.0 72790.0 73388.0 118663.0 117096.0 171109.0 175526.0 92699.0 93025.0 107338.0 112717.0 192525.0 191644.0 28058.0 23896.0 156113.0 148973.0 7999.0 0.0 160619.0 162815.0 86185.0 94060.0 160366.0 162695.0 148658.0 146813.0 5989.0 12978.0 136345.0 143112.0 77185.0 77192.0 84613.0 89168.0 181322.0 174517.0 119748.0 111682.0 150110.0 156268.0 155671.0 89876.0 155671.0 155671.0 155671.0 155671.0 89876.0 89876.0 89876.0 89876.0
205232.0 210744.0 19247.0 26463.0 114054.0 119441.0 302679.0 302888.0 50293.0 42494.0 138860.0 131623.0 234787.0 236958.0 150650.0 149404.0 238027.0 234010.0 254221.0 256937.0 78475.0 81287.0 130370.0 132527.0 297536.0 293374.0 114664.0 111647.0 235333.0 232127.0 110330.0 115148.0 141774.0 138886.0 133737.0 128724.0 145992.0 152590.0 169440.0 176430.0 329663.0 327723.0 91554.0 99706.0 40193.0 33313.0 90823.0 85005.0 193699.0 188210.0 263359.0 256908.0 109335.0 102840.0 342590.0 341462.0 132031.0 138261.0 251309.0 249196.0 114847.0 110298.0 119698.0 116031.0 178907.0 175835.0 21669.0 20999.0 119497.0 127559.0 56489.0 60108.0 169868.0 161903.0 152381.0 151828.0 26005.0 22088.0 227808.0 223966.0 155523.0 163591.0 227058.0 220601.0 262179.0 261661.0 174554.0 167308.0 194501.0 192544.0 31958.0 32399.0 137396.0 145211.0 285208.0 280451.0 166562.0 160619.0 0.0 8039.0 105294.0 103898.0 272011.0 269793.0 232236.0 225412.0 154631.0 149191.0 143987.0 142513.0 173569.0 181049.0 174093.0 182084.0 68115.0 69153.0 148786.0 147155.0 10515.0 6852.0 44275.0 173963.0 44275.0 44275.0 44275.0 44275.0 173963.0 173963.0 173963.0 173963.0
209236.0 214547.0 24339.0 30377.0 116376.0 122131.0 308109.0 308318.0 44189.0 36896.0 140752.0 133775.0 240218.0 242412.0 152398.0 150747.0 242512.0 238301.0 259652.0 262367.0 78220.0 81770.0 126212.0 127964.0 302967.0 298805.0 114079.0 110544.0 232492.0 229527.0 114019.0 119156.0 138707.0 136217.0 130330.0 124966.0 150957.0 157358.0 174184.0 181315.0 335094.0 333154.0 84910.0 93060.0 32154.0 25339.0 88542.0 83232.0 189582.0 183866.0 268240.0 261685.0 108145.0 101316.0 348021.0 346892.0 132444.0 139000.0 249445.0 247084.0 116927.0 112829.0 122440.0 119261.0 173787.0 170453.0 13805.0 14763.0 122922.0 130887.0 49012.0 53097.0 166130.0 158207.0 156979.0 156222.0 24161.0 22919.0 232474.0 228431.0 160916.0 168935.0 225063.0 218453.0 258918.0 258174.0 172336.0 164947.0 192032.0 189769.0 31442.0 33902.0 138799.0 146494.0 290427.0 285530.0 169002.0 162815.0 8039.0 0.0 103511.0 101527.0 269695.0 267256.0 228962.0 222002.0 156830.0 151094.0 139141.0 137320.0 172096.0 179725.0 179524.0 187515.0 60166.0 61416.0 144827.0 143583.0 14574.0 6940.0 52073.0 179394.0 52073.0 52073.0 52073.0 52073.0 179394.0 179394.0 179394.0 179394.0
148473.0 150466.0 92829.0 85565.0 57068.0 64706.0 272044.0 273790.0 132958.0 130143.0 65608.0 64211.0 201359.0 200089.0 72630.0 66773.0 185071.0 178487.0 225479.0 225874.0 31313.0 34713.0 43941.0 51065.0 265516.0 259730.0 19251.0 11428.0 131316.0 127520.0 74663.0 81577.0 41194.0 35901.0 37321.0 37593.0 115828.0 117351.0 129916.0 137862.0 300912.0 299730.0 72048.0 73855.0 102756.0 98235.0 15984.0 20301.0 97829.0 94798.0 214547.0 206932.0 9099.0 4124.0 313630.0 311181.0 42595.0 51035.0 146027.0 143940.0 54111.0 58432.0 65557.0 70680.0 95494.0 96566.0 98322.0 91207.0 75203.0 78272.0 86395.0 78599.0 72287.0 64589.0 114433.0 110739.0 79554.0 83679.0 178620.0 172026.0 130228.0 135563.0 121769.0 115381.0 159419.0 159893.0 69479.0 62525.0 89780.0 88671.0 134772.0 137228.0 58332.0 62751.0 240484.0 233700.0 94143.0 86185.0 105294.0 103511.0 0.0 8022.0 166895.0 164973.0 129826.0 123742.0 81430.0 73428.0 63177.0 67406.0 68664.0 76435.0 148659.0 155784.0 100564.0 92954.0 55594.0 50264.0 96106.0 98891.0 119700.0 150783.0 119700.0 119700.0 119700.0 119700.0 150783.0 150783.0 150783.0 150783.0
156471.0 158422.0 92662.0 85729.0 64723.0 72437.0 280003.0 281720.0 128811.0 126435.0 73610.0 72221.0 209312.0 208078.0 80486.0 74495.0 193067.0 186464.0 233373.0 233815.0 34175.0 38991.0 37907.0 44575.0 273492.0 267722.0 27139.0 19190.0 131587.0 128236.0 81786.0 88782.0 39137.0 35164.0 33455.0 32207.0 123411.0 125088.0 137809.0 145766.0 308843.0 307627.0 64525.0 66061.0 98446.0 94405.0 13089.0 19940.0 94997.0 91362.0 222554.0 214936.0 17027.0 11147.0 321570.0 319146.0 50279.0 58711.0 148080.0 145569.0 61851.0 65885.0 73281.0 78161.0 90336.0 90893.0 95374.0 88610.0 82737.0 86031.0 80965.0 72978.0 69634.0 61738.0 122217.0 118572.0 77935.0 82748.0 186639.0 180037.0 137782.0 143230.0 123609.0 116933.0 159056.0 159122.0 70812.0 63443.0 90605.0 88788.0 132497.0 135404.0 66271.0 70526.0 248501.0 241711.0 102030.0 94060.0 103898.0 101527.0 8022.0 0.0 168189.0 165894.0 129249.0 122840.0 89362.0 81344.0 57005.0 60705.0 71807.0 79814.0 156320.0 163497.0 94490.0 86737.0 51415.0 46983.0 95145.0 97325.0 120848.0 158330.0 120848.0 120848.0 120848.0 120848.0 158330.0 158330.0 158330.0 158330.0
197982.0 192604.0 259559.0 252105.0 186069.0 187688.0 317559.0 322836.0 293006.0 292056.0 166019.0 173782.0 260916.0 254638.0 157321.0 151810.0 220411.0 212631.0 286327.0 281700.0 196260.0 196426.0 150048.0 152209.0 309277.0 301443.0 161198.0 162030.0 40799.0 41079.0 205647.0 208660.0 132057.0 133623.0 141534.0 148447.0 221688.0 216803.0 216239.0 220506.0 346150.0 348893.0 209770.0 205151.0 262893.0 260309.0 181227.0 187094.0 96856.0 105255.0 244184.0 237610.0 164017.0 169665.0 356165.0 350383.0 153017.0 151565.0 25501.0 23734.0 182809.0 190727.0 188245.0 196744.0 128083.0 136112.0 262862.0 256500.0 198082.0 193388.0 241768.0 233477.0 110635.0 117320.0 212817.0 208137.0 246096.0 250555.0 223525.0 215766.0 232582.0 232018.0 45960.0 51607.0 34815.0 42858.0 97463.0 104749.0 77729.0 80873.0 300489.0 303585.0 160204.0 153580.0 267939.0 259915.0 162896.0 160366.0 272011.0 269695.0 166895.0 168189.0 0.0 8088.0 51266.0 59230.0 163005.0 160598.0 146606.0 153058.0 100784.0 94723.0 241626.0 244402.0 250186.0 242142.0 131737.0 129852.0 262985.0 265488.0 284593.0 247775.0 284593.0 284593.0 284593.0 284593.0 247775.0 247775.0 247775.0 247775.0
202382.0 197213.0 257780.0 250420.0 186590.0 188543.0 323215.0 328395.0 289548.0 288812.0 167285.0 174884.0 265685.0 259545.0 159005.0 153213.0 225686.0 217856.0 291243.0 286774.0 194787.0 195279.0 146192.0 147989.0 314951.0 307144.0 160178.0 160614.0 36042.0 37756.0 206472.0 209736.0 129033.0 131040.0 138268.0 144948.0 224008.0 219348.0 219370.0 223863.0 351943.0 354564.0 205488.0 200649.0 259560.0 257196.0 178971.0 185061.0 91183.0 99530.0 249904.0 243235.0 162513.0 167883.0 362087.0 356391.0 153143.0 152134.0 28965.0 24880.0 183259.0 191194.0 189128.0 197650.0 122015.0 129977.0 260080.0 253872.0 199173.0 194756.0 238151.0 229886.0 106284.0 113228.0 215347.0 210632.0 243824.0 248503.0 228476.0 220664.0 235216.0 234917.0 45856.0 50515.0 26743.0 34774.0 95516.0 102528.0 75296.0 77705.0 297866.0 301157.0 161155.0 154772.0 273914.0 265874.0 165581.0 162695.0 269793.0 267256.0 164973.0 165894.0 8088.0 0.0 45137.0 53206.0 165074.0 162298.0 141868.0 148110.0 100135.0 94558.0 244800.0 247801.0 246123.0 238114.0 127660.0 126211.0 260928.0 263211.0 283373.0 250835.0 283373.0 283373.0 283373.0 283373.0 250835.0 250835.0 250835.0 250835.0
199517.0 195880.0 221902.0 214960.0 161995.0 165583.0 327059.0 331452.0 248082.0 247936.0 147193.0 153637.0 263906.0 258815.0 141519.0 134464.0 228234.0 220221.0 290090.0 286789.0 160875.0 162727.0 104532.0 105311.0 319023.0 311521.0 129045.0 127709.0 13938.0 20806.0 182898.0 187361.0 90517.0 94179.0 98638.0 104407.0 207974.0 204691.0 208119.0 213862.0 356563.0 358214.0 162315.0 157036.0 218544.0 216822.0 142228.0 149074.0 46193.0 54478.0 255256.0 247987.0 129175.0 133245.0 367632.0 362682.0 127739.0 129024.0 48697.0 40690.0 158413.0 166209.0 166293.0 174706.0 76898.0 84889.0 220705.0 215035.0 177137.0 174288.0 196455.0 188297.0 63868.0 71436.0 200702.0 195910.0 206267.0 211695.0 228667.0 220673.0 220716.0 221952.0 38714.0 35253.0 29957.0 30184.0 63636.0 68712.0 43670.0 41879.0 258814.0 262724.0 139640.0 134817.0 280860.0 272824.0 153462.0 148658.0 232236.0 228962.0 129826.0 129249.0 51266.0 45137.0 0.0 8092.0 149462.0 144756.0 98046.0 103867.0 74380.0 72051.0 233256.0 237550.0 203301.0 195395.0 85628.0 85576.0 224004.0 225496.0 249526.0 238506.0 249526.0 249526.0 249526.0 249526.0 238506.0 238506.0 238506.0 238506.0
199418.0 196078.0 215415.0 208565.0 157951.0 161847.0 327744.0 331987.0 240522.0 240481.0 144160.0 150323.0 263740.0 258854.0 139058.0 131816.0 228973.0 220962.0 289963.0 286881.0 154924.0 157050.0 97095.0 97646.0 319765.0 312334.0 123841.0 122128.0 20347.0 25733.0 178949.0 183628.0 83892.0 87929.0 91694.0 97225.0 205377.0 202370.0 206425.0 212376.0 357332.0 358807.0 154493.0 149137.0 211082.0 209482.0 135748.0 142731.0 38106.0 46386.0 256394.0 249042.0 123490.0 127255.0 368548.0 363738.0 123775.0 125532.0 55110.0 47339.0 154339.0 162062.0 162578.0 170923.0 68870.0 76884.0 213549.0 207987.0 173522.0 170998.0 188882.0 180751.0 56409.0 64101.0 198402.0 193618.0 199477.0 205043.0 228982.0 220989.0 218357.0 219877.0 42115.0 37323.0 37176.0 36304.0 59170.0 63592.0 40154.0 37058.0 251686.0 255707.0 136381.0 131921.0 282204.0 274191.0 151948.0 146813.0 225412.0 222002.0 123742.0 122840.0 59230.0 53206.0 8092.0 0.0 147302.0 142255.0 90149.0 95883.0 71185.0 69705.0 231403.0 235922.0 195522.0 187637.0 78165.0 78457.0 217312.0 218650.0 243402.0 236487.0 243402.0 243402.0 243402.0 243402.0 236487.0 236487.0 236487.0 236487.0
67587.0 69093.0 136244.0 128428.0 40587.0 36044.0 195225.0 197840.0 196699.0 191436.0 16972.0 23057.0 125535.0 122848.0 9847.0 17644.0 104047.0 97241.0 151139.0 150093.0 84563.0 78158.0 116082.0 124070.0 188143.0 181786.0 62226.0 70206.0 143031.0 135862.0 50910.0 50772.0 98213.0 90525.0 103090.0 108646.0 59143.0 55279.0 59816.0 66512.0 224730.0 224461.0 152874.0 155194.0 169379.0 162718.0 93314.0 91301.0 141517.0 143299.0 133708.0 126023.0 72345.0 79359.0 237113.0 233920.0 39960.0 32086.0 137575.0 140201.0 39914.0 44550.0 36012.0 42326.0 155548.0 159928.0 157985.0 149802.0 41135.0 33952.0 159428.0 152877.0 120720.0 116437.0 51276.0 46483.0 134627.0 133918.0 98453.0 91438.0 71321.0 72576.0 120565.0 118627.0 172627.0 176813.0 92030.0 91846.0 107522.0 112568.0 186538.0 185668.0 23100.0 20184.0 159960.0 152933.0 13067.0 5989.0 154631.0 156830.0 81430.0 89362.0 163005.0 165074.0 149462.0 147302.0 0.0 8071.0 133145.0 139756.0 76952.0 77598.0 84281.0 89278.0 175753.0 169006.0 117001.0 108973.0 144121.0 150280.0 149818.0 89199.0 149818.0 149818.0 149818.0 149818.0 89199.0 89199.0 89199.0 89199.0
75649.0 77147.0 131063.0 123175.0 35653.0 32426.0 202998.0 205533.0 190354.0 185272.0 10343.0 18022.0 133135.0 130601.0 3303.0 10701.0 112117.0 105308.0 158616.0 157725.0 77582.0 71450.0 108115.0 116105.0 195964.0 189656.0 54206.0 62176.0 138912.0 131936.0 48880.0 49879.0 90534.0 82807.0 95211.0 100677.0 63223.0 60173.0 66227.0 73219.0 232460.0 232106.0 144985.0 147226.0 162689.0 156159.0 85509.0 83705.0 134990.0 136501.0 141776.0 134092.0 64336.0 71414.0 244880.0 241751.0 31900.0 24108.0 135301.0 137489.0 34401.0 40002.0 32578.0 39909.0 148208.0 152445.0 151765.0 143602.0 39623.0 33458.0 152206.0 145539.0 113696.0 109193.0 56234.0 51474.0 128540.0 128179.0 106475.0 99489.0 76120.0 78042.0 117262.0 114858.0 168717.0 172619.0 85970.0 85332.0 102250.0 106941.0 181142.0 180547.0 15140.0 12419.0 168017.0 161000.0 20788.0 12978.0 149191.0 151094.0 73428.0 81344.0 160598.0 162298.0 144756.0 142255.0 8071.0 0.0 125293.0 131846.0 71388.0 72709.0 90135.0 95495.0 168402.0 161570.0 109362.0 101361.0 138676.0 144636.0 145762.0 94711.0 145762.0 145762.0 145762.0 145762.0 94711.0 94711.0 94711.0 94711.0
200016.0 200265.0 138236.0 132811.0 118638.0 125759.0 328265.0 330684.0 151810.0 152572.0 120429.0 121772.0 258155.0 255861.0 123338.0 115817.0 235817.0 228502.0 283271.0 282782.0 89824.0 95615.0 19238.0 12764.0 321256.0 314931.0 77020.0 70153.0 105919.0 106032.0 137457.0 144209.0 35929.0 43077.0 30121.0 26053.0 177072.0 177646.0 188501.0 196190.0 357670.0 357141.0 64488.0 58991.0 123330.0 122865.0 65687.0 73609.0 53230.0 46166.0 265554.0 257806.0 69451.0 67213.0 370136.0 367044.0 94098.0 101248.0 133436.0 128083.0 115335.0 120676.0 126627.0 132712.0 35462.0 34362.0 128743.0 124472.0 137008.0 138909.0 100378.0 92556.0 36514.0 31472.0 174381.0 170278.0 119249.0 126273.0 231242.0 223953.0 191522.0 196195.0 109998.0 102142.0 126862.0 124314.0 65542.0 58631.0 75592.0 69217.0 166606.0 171670.0 111830.0 112962.0 292091.0 284762.0 144108.0 136345.0 143987.0 139141.0 63177.0 57005.0 146606.0 141868.0 98046.0 90149.0 133145.0 125293.0 0.0 7940.0 78260.0 85535.0 209248.0 215961.0 105629.0 97858.0 19735.0 26995.0 137624.0 137147.0 169876.0 212006.0 169876.0 169876.0 169876.0 169876.0 212006.0 212006.0 212006.0 212006.0
206855.0 207258.0 137800.0 132729.0 123695.0 130981.0 334697.0 337016.0 147804.0 148959.0 126645.0 127640.0 264449.0 262301.0 129984.0 122551.0 242785.0 235523.0 289423.0 289080.0 92414.0 98622.0 24197.0 16450.0 327752.0 321495.0 82368.0 75198.0 112287.0 112731.0 142031.0 148888.0 43350.0 50243.0 36711.0 31527.0 182341.0 183173.0 194405.0 202154.0 364036.0 363401.0 59751.0 53659.0 119919.0 119937.0 68190.0 75989.0 58324.0 50757.0 272533.0 264789.0 74279.0 71337.0 376546.0 373547.0 100401.0 107752.0 140521.0 134995.0 120477.0 125509.0 131847.0 137650.0 36484.0 33588.0 126416.0 122579.0 142035.0 144273.0 96724.0 89138.0 43685.0 39119.0 179984.0 175962.0 118301.0 125602.0 238025.0 230795.0 196792.0 201662.0 117296.0 109430.0 132245.0 129340.0 73460.0 66570.0 83128.0 76581.0 163979.0 169332.0 118128.0 119577.0 299039.0 291754.0 150927.0 143112.0 142513.0 137320.0 67406.0 60705.0 153058.0 148110.0 103867.0 95883.0 139756.0 131846.0 7940.0 0.0 86183.0 93473.0 214740.0 221565.0 100862.0 93258.0 27671.0 34826.0 136628.0 135705.0 169977.0 217317.0 169977.0 169977.0 169977.0 169977.0 217317.0 217317.0 217317.0 217317.0
135224.0 133399.0 159889.0 152247.0 88154.0 91340.0 265506.0 269022.0 200528.0 198242.0 72976.0 79265.0 198347.0 194364.0 68258.0 60822.0 168325.0 160504.0 224505.0 222338.0 96188.0 95827.0 69414.0 75601.0 257872.0 250857.0 60543.0 62098.0 70666.0 64820.0 108848.0 113090.0 45826.0 42537.0 55882.0 64053.0 134308.0 131558.0 136664.0 143070.0 295270.0 295917.0 127118.0 125243.0 170124.0 166211.0 84183.0 88880.0 66671.0 70147.0 197394.0 189722.0 64305.0 70791.0 307114.0 303039.0 53972.0 54674.0 78244.0 77190.0 84642.0 92534.0 92033.0 100491.0 87509.0 93815.0 166900.0 159861.0 102805.0 99926.0 151556.0 143333.0 51035.0 50272.0 127622.0 122860.0 148048.0 151696.0 166172.0 158334.0 147478.0 149357.0 54841.0 49634.0 100686.0 103485.0 16497.0 20413.0 31032.0 35617.0 203411.0 205701.0 65278.0 60757.0 223938.0 216185.0 83189.0 77185.0 173569.0 172096.0 68664.0 71807.0 100784.0 100135.0 74380.0 71185.0 76952.0 71388.0 78260.0 86183.0 0.0 8254.0 161224.0 166174.0 163403.0 155354.0 58540.0 51563.0 164066.0 167297.0 183973.0 166018.0 183973.0 183973.0 183973.0 183973.0 166018.0 166018.0 166018.0 166018.0
132921.0 130635.0 167072.0 159371.0 92418.0 95019.0 262940.0 266650.0 208594.0 206230.0 75410.0 82234.0 196593.0 192314.0 69479.0 62428.0 165163.0 157270.0 222812.0 220352.0 103324.0 102607.0 77373.0 83392.0 255209.0 248082.0 67365.0 69430.0 66908.0 60494.0 112770.0 116624.0 53849.0 50760.0 63977.0 72151.0 135924.0 132722.0 136837.0 142946.0 292696.0 293555.0 135340.0 133406.0 178200.0 174211.0 92070.0 96572.0 69700.0 73977.0 193941.0 186319.0 71714.0 78417.0 304399.0 300148.0 58631.0 58263.0 71500.0 71011.0 88999.0 96933.0 95668.0 104186.0 92662.0 99303.0 174741.0 167636.0 106193.0 102753.0 159749.0 151535.0 56516.0 56611.0 128744.0 123956.0 155635.0 159115.0 163564.0 155658.0 148731.0 150172.0 48827.0 44380.0 96957.0 100317.0 21327.0 27019.0 30242.0 36314.0 211081.0 213249.0 68230.0 62930.0 220394.0 212570.0 82620.0 77192.0 181049.0 179725.0 76435.0 79814.0 94723.0 94558.0 72051.0 69705.0 77598.0 72709.0 85535.0 93473.0 8254.0 0.0 161729.0 166356.0 171649.0 163602.0 65803.0 59095.0 171454.0 174832.0 190633.0 166783.0 190633.0 190633.0 190633.0 190633.0 166783.0 166783.0 166783.0 166783.0
57329.0 65403.0 155235.0 149501.0 91601.0 83982.0 128674.0 128981.0 223683.0 216351.0 91131.0 87993.0 60798.0 63494.0 93134.0 100833.0 74070.0 73664.0 80254.0 82861.0 134764.0 126769.0 190558.0 198328.0 123475.0 119291.0 132373.0 139672.0 226040.0 218583.0 76725.0 69560.0 177042.0 169203.0 179571.0 183328.0 33140.0 31610.0 25448.0 21799.0 155801.0 153863.0 210763.0 215511.0 203554.0 195601.0 154267.0 148737.0 224945.0 226084.0 93181.0 87963.0 140829.0 145173.0 168743.0 167516.0 116845.0 111381.0 216227.0 220096.0 94573.0 90654.0 83126.0 78411.0 236025.0 239423.0 186669.0 179188.0 73724.0 70516.0 202911.0 198919.0 202868.0 197723.0 35019.0 39419.0 164620.0 159709.0 62146.0 62063.0 19441.0 13099.0 202205.0 201207.0 255101.0 259800.0 176092.0 175363.0 191768.0 196841.0 202620.0 199124.0 99886.0 101796.0 112405.0 108441.0 80048.0 84613.0 174093.0 179524.0 148659.0 156320.0 241626.0 244800.0 233256.0 231403.0 84281.0 90135.0 209248.0 214740.0 161224.0 161729.0 0.0 7995.0 220238.0 215565.0 195803.0 188134.0 164956.0 172648.0 158600.0 7151.0 158600.0 158600.0 158600.0 158600.0 7151.0 7151.0 7151.0 7151.0
55609.0 63584.0 163227.0 157493.0 98783.0 91078.0 120714.0 121080.0 231675.0 224342.0 97110.0 94404.0 52885.0 55805.0 98401.0 106188.0 68620.0 68904.0 72322.0 74868.0 142455.0 134458.0 197371.0 205178.0 115486.0 111298.0 139227.0 146618.0 229985.0 222439.0 84406.0 77262.0 183389.0 175545.0 186176.0 190104.0 40714.0 38453.0 29526.0 23958.0 147938.0 145999.0 218466.0 223144.0 211547.0 203592.0 161707.0 156281.0 230477.0 231823.0 86271.0 81340.0 147839.0 152351.0 160874.0 159588.0 123076.0 117334.0 219090.0 223203.0 101673.0 98001.0 90228.0 85801.0 242249.0 245798.0 194661.0 187173.0 81083.0 77531.0 210872.0 206850.0 208741.0 203758.0 41585.0 45732.0 172613.0 167701.0 56622.0 57363.0 27343.0 20470.0 205781.0 205055.0 258809.0 263687.0 181291.0 180827.0 196503.0 201775.0 210612.0 207115.0 105896.0 107389.0 104859.0 101088.0 84094.0 89168.0 182084.0 187515.0 155784.0 163497.0 244402.0 247801.0 237550.0 235922.0 89278.0 95495.0 215961.0 221565.0 166174.0 166356.0 7995.0 0.0 228202.0 223504.0 202198.0 194468.0 172947.0 180639.0 166591.0 11757.0 166591.0 166591.0 166591.0 166591.0 11757.0 11757.0 11757.0 11757.0
238115.0 241853.0 77541.0 78702.0 139581.0 147097.0 348912.0 349080.0 48726.0 52126.0 158794.0 154164.0 279849.0 280730.0 168542.0 164218.0 273898.0 268399.0 300467.0 302956.0 91778.0 99042.0 100209.0 98168.0 343610.0 339089.0 118067.0 111358.0 210098.0 209122.0 145967.0 152621.0 120411.0 121425.0 110214.0 102584.0 188532.0 193368.0 209354.0 217175.0 375909.0 373969.0 41161.0 47481.0 28947.0 34833.0 85254.0 85159.0 158839.0 151539.0 301956.0 294772.0 108732.0 100731.0 388646.0 387691.0 141138.0 149306.0 234010.0 229826.0 138531.0 137752.0 147703.0 147903.0 135472.0 130072.0 46455.0 49567.0 152456.0 159164.0 17342.0 22878.0 139894.0 132911.0 191897.0 189831.0 59467.0 66916.0 265378.0 260004.0 200885.0 208307.0 209504.0 201988.0 232425.0 229938.0 157865.0 149896.0 174362.0 169810.0 73793.0 81253.0 153699.0 159901.0 326272.0 320418.0 188809.0 181322.0 68115.0 60166.0 100564.0 94490.0 250186.0 246123.0 203301.0 195522.0 175753.0 168402.0 105629.0 100862.0 163403.0 171649.0 220238.0 228202.0 0.0 8114.0 118479.0 120612.0 69757.0 63619.0 110171.0 220209.0 110171.0 110171.0 110171.0 110171.0 220209.0 220209.0 220209.0 220209.0
231987.0 235566.0 76652.0 76989.0 133443.0 141055.0 344204.0 344515.0 55306.0 57924.0 152073.0 147661.0 274838.0 275532.0 161624.0 157135.0 267927.0 262311.0 295820.0 298130.0 85483.0 92925.0 92140.0 90195.0 338780.0 334134.0 110686.0 103853.0 202096.0 201074.0 140647.0 147410.0 112298.0 113335.0 102100.0 94474.0 183563.0 188182.0 203996.0 211865.0 371221.0 369337.0 33508.0 40213.0 32100.0 36536.0 77810.0 78065.0 151086.0 143857.0 296174.0 288935.0 101237.0 93248.0 384174.0 383080.0 133875.0 142095.0 225906.0 221739.0 132259.0 131792.0 141684.0 142214.0 128180.0 122960.0 47619.0 49419.0 146820.0 153346.0 13869.0 16755.0 131914.0 124891.0 186591.0 184386.0 57447.0 65312.0 259586.0 254085.0 196164.0 203472.0 201395.0 193883.0 224581.0 222170.0 149754.0 141784.0 166258.0 161727.0 78121.0 85237.0 146774.0 152836.0 320687.0 314733.0 182071.0 174517.0 69153.0 61416.0 92954.0 86737.0 242142.0 238114.0 195395.0 187637.0 169006.0 161570.0 97858.0 93258.0 155354.0 163602.0 215565.0 223504.0 8114.0 0.0 110459.0 112526.0 69569.0 64061.0 109736.0 215591.0 109736.0 109736.0 109736.0 109736.0 215591.0 215591.0 215591.0 215591.0
183033.0 182873.0 140598.0 134385.0 107008.0 113580.0 312168.0 314840.0 162478.0 162323.0 105502.0 107820.0 242495.0 239828.0 107154.0 99433.0 218440.0 210996.0 267938.0 267077.0 85590.0 90087.0 18936.0 20607.0 305002.0 298508.0 65429.0 59751.0 91657.0 90705.0 126928.0 133324.0 18881.0 26706.0 18279.0 20343.0 164360.0 164241.0 174039.0 181542.0 341714.0 341454.0 78099.0 73903.0 132926.0 131360.0 62792.0 70593.0 45004.0 40314.0 248119.0 240368.0 59738.0 59701.0 354059.0 350736.0 79218.0 85672.0 116675.0 111900.0 103513.0 109639.0 114442.0 121241.0 40853.0 43622.0 135761.0 130534.0 125248.0 126200.0 110873.0 102689.0 21764.0 14433.0 160789.0 156488.0 123150.0 129388.0 214353.0 206919.0 178737.0 182868.0 92654.0 84886.0 115341.0 113867.0 45986.0 38931.0 57642.0 52028.0 173926.0 178260.0 96746.0 96945.0 274715.0 267278.0 127331.0 119748.0 148786.0 144827.0 55594.0 51415.0 131737.0 127660.0 85628.0 78165.0 117001.0 109362.0 19735.0 27671.0 58540.0 65803.0 195803.0 202198.0 118479.0 110459.0 0.0 8090.0 141355.0 141954.0 170653.0 199028.0 170653.0 170653.0 170653.0 170653.0 199028.0 199028.0 199028.0 199028.0
174945.0 174785.0 138032.0 131546.0 99874.0 106287.0 304115.0 306807.0 163346.0 162768.0 97646.0 100141.0 234486.0 231784.0 99127.0 91391.0 210353.0 202913.0 259959.0 259060.0 80985.0 84969.0 20516.0 24825.0 296940.0 290436.0 58548.0 53324.0 90432.0 88785.0 120027.0 126313.0 11099.0 18932.0 13709.0 18863.0 156862.0 156601.0 166204.0 173675.0 333670.0 333433.0 80985.0 77476.0 133444.0 131397.0 59092.0 66675.0 48038.0 44545.0 240034.0 232283.0 53548.0 54305.0 346006.0 342668.0 71419.0 77741.0 113531.0 109215.0 96341.0 102655.0 107146.0 114106.0 48073.0 51345.0 135131.0 129530.0 118031.0 118756.0 111953.0 103679.0 22922.0 14923.0 153116.0 148781.0 121307.0 127187.0 206266.0 198830.0 171211.0 175230.0 89174.0 81541.0 115500.0 114591.0 40146.0 32651.0 53964.0 49204.0 173249.0 177255.0 88877.0 88942.0 266629.0 259196.0 119254.0 111682.0 147155.0 143583.0 50264.0 46983.0 129852.0 126211.0 85576.0 78457.0 108973.0 101361.0 26995.0 34826.0 51563.0 59095.0 188134.0 194468.0 120612.0 112526.0 8090.0 0.0 139328.0 140362.0 167380.0 191448.0 167380.0 167380.0 167380.0 167380.0 191448.0 191448.0 191448.0 191448.0
195156.0 200584.0 9783.0 16165.0 103548.0 108971.0 293541.0 293750.0 58761.0 51422.0 128347.0 121111.0 225650.0 227847.0 140140.0 138926.0 228201.0 224077.0 245084.0 247799.0 68519.0 71040.0 123214.0 125843.0 288399.0 284237.0 104771.0 102024.0 226727.0 223332.0 100102.0 105052.0 133487.0 130267.0 125785.0 121139.0 136469.0 142929.0 159766.0 166853.0 320526.0 318586.0 88493.0 96581.0 43775.0 36032.0 82059.0 75894.0 186351.0 181128.0 253787.0 247265.0 99767.0 93490.0 333453.0 332324.0 121746.0 127889.0 241989.0 240039.0 104332.0 99807.0 109235.0 105663.0 172827.0 170135.0 24611.0 20220.0 109185.0 117222.0 56137.0 58344.0 162159.0 154167.0 142610.0 141938.0 18377.0 12430.0 218090.0 214127.0 146352.0 154378.0 217837.0 211488.0 253912.0 253603.0 165532.0 158400.0 185640.0 183925.0 42468.0 42582.0 126914.0 134741.0 275894.0 271026.0 156070.0 150110.0 10515.0 14574.0 96106.0 95145.0 262985.0 260928.0 224004.0 217312.0 144121.0 138676.0 137624.0 136628.0 164066.0 171454.0 164956.0 172947.0 69757.0 69569.0 141355.0 139328.0 0.0 7799.0 40422.0 164826.0 40422.0 40422.0 40422.0 40422.0 164826.0 164826.0 164826.0 164826.0
202327.0 207660.0 17574.0 23438.0 109776.0 115436.0 301234.0 301443.0 51038.0 43823.0 134294.0 127232.0 233342.0 235530.0 145993.0 144489.0 235575.0 231372.0 252776.0 255492.0 72648.0 75833.0 123525.0 125676.0 296091.0 291929.0 108720.0 105488.0 228677.0 225526.0 107135.0 112240.0 135060.0 132254.0 126965.0 121908.0 144028.0 150421.0 167245.0 174381.0 328218.0 326278.0 85241.0 93385.0 36711.0 29230.0 84266.0 78591.0 186859.0 181360.0 261304.0 254747.0 103142.0 96522.0 341145.0 340017.0 126578.0 132988.0 244918.0 242729.0 110399.0 106171.0 115732.0 112449.0 172087.0 169050.0 17546.0 14953.0 116077.0 124061.0 51019.0 54123.0 163058.0 155097.0 150040.0 149286.0 19393.0 16574.0 225534.0 221494.0 154031.0 162043.0 220623.0 214120.0 255443.0 254889.0 168045.0 160759.0 187928.0 185898.0 37042.0 38419.0 132514.0 140258.0 283514.0 278605.0 162385.0 156268.0 6852.0 6940.0 98891.0 97325.0 265488.0 263211.0 225496.0 218650.0 150280.0 144636.0 137147.0 135705.0 167297.0 174832.0 172648.0 180639.0 63619.0 64061.0 141954.0 140362.0 7799.0 0.0 47048.0 172518.0 47048.0 47048.0 47048.0 47048.0 172518.0 172518.0 172518.0 172518.0
192960.0 199086.0 33292.0 35337.0 110237.0 113779.0 287186.0 287395.0 92852.0 84514.0 135822.0 127741.0 219294.0 221494.0 147836.0 148365.0 224102.0 220667.0 238728.0 241444.0 88814.0 88170.0 153652.0 157491.0 282043.0 277881.0 123436.0 122800.0 250648.0 246410.0 100929.0 104309.0 159981.0 155476.0 153675.0 150345.0 131325.0 138409.0 155178.0 161762.0 314170.0 312230.0 125530.0 133371.0 83749.0 76242.0 108311.0 100915.0 215326.0 210954.0 248445.0 242216.0 120994.0 116316.0 327097.0 325969.0 135648.0 140215.0 262112.0 261115.0 112043.0 105770.0 113808.0 108260.0 205338.0 203519.0 64593.0 60608.0 110802.0 118974.0 96105.0 97414.0 190251.0 182282.0 138719.0 138832.0 53939.0 45598.0 213451.0 210164.0 140034.0 148135.0 238750.0 233058.0 279075.0 279587.0 188170.0 181724.0 208797.0 208225.0 65346.0 60282.0 136518.0 144566.0 269783.0 265195.0 160498.0 155671.0 44275.0 52073.0 119700.0 120848.0 284593.0 283373.0 249526.0 243402.0 149818.0 145762.0 169876.0 169977.0 183973.0 190633.0 158600.0 166591.0 110171.0 109736.0 170653.0 167380.0 40422.0 47048.0 0.0 158470.0 0.0 0.0 0.0 0.0 158470.0 158470.0 158470.0 158470.0
64459.0 72531.0 155105.0 149371.0 93760.0 86341.0 129679.0 129575.0 223554.0 216221.0 95068.0 91411.0 63526.0 67000.0 97785.0 105378.0 80125.0 80081.0 81174.0 84457.0 135524.0 127556.0 193176.0 200878.0 124850.0 121060.0 135005.0 142135.0 231534.0 224138.0 77703.0 70508.0 180349.0 172526.0 182518.0 186013.0 34986.0 35028.0 31579.0 28701.0 157477.0 155537.0 211398.0 216364.0 203425.0 195471.0 155705.0 149917.0 229147.0 230070.0 97988.0 93095.0 143177.0 147199.0 170417.0 168223.0 120401.0 115283.0 222342.0 226086.0 96878.0 92464.0 85477.0 80183.0 239442.0 242642.0 186539.0 179059.0 75595.0 73098.0 202888.0 198964.0 206726.0 201399.0 38758.0 43398.0 164492.0 159580.0 68145.0 68493.0 20556.0 16669.0 207941.0 206777.0 260732.0 265317.0 180652.0 179673.0 196710.0 201614.0 202490.0 198994.0 103757.0 106109.0 116178.0 112592.0 85675.0 89876.0 173963.0 179394.0 150783.0 158330.0 247775.0 250835.0 238506.0 236487.0 89199.0 94711.0 212006.0 217317.0 166018.0 166783.0 7151.0 11757.0 220209.0 215591.0 199028.0 191448.0 164826.0 172518.0 158470.0 0.0 158470.0 158470.0 158470.0 158470.0 0.0 0.0 0.0 0.0
192960.0 199086.0 33292.0 35337.0 110237.0 113779.0 287186.0 287395.0 92852.0 84514.0 135822.0 127741.0 219294.0 221494.0 147836.0 148365.0 224102.0 220667.0 238728.0 241444.0 88814.0 88170.0 153652.0 157491.0 282043.0 277881.0 123436.0 122800.0 250648.0 246410.0 100929.0 104309.0 159981.0 155476.0 153675.0 150345.0 131325.0 138409.0 155178.0 161762.0 314170.0 312230.0 125530.0 133371.0 83749.0 76242.0 108311.0 100915.0 215326.0 210954.0 248445.0 242216.0 120994.0 116316.0 327097.0 325969.0 135648.0 140215.0 262112.0 261115.0 112043.0 105770.0 113808.0 108260.0 205338.0 203519.0 64593.0 60608.0 110802.0 118974.0 96105.0 97414.0 190251.0 182282.0 138719.0 138832.0 53939.0 45598.0 213451.0 210164.0 140034.0 148135.0 238750.0 233058.0 279075.0 279587.0 188170.0 181724.0 208797.0 208225.0 65346.0 60282.0 136518.0 144566.0 269783.0 265195.0 160498.0 155671.0 44275.0 52073.0 119700.0 120848.0 284593.0 283373.0 249526.0 243402.0 149818.0 145762.0 169876.0 169977.0 183973.0 190633.0 158600.0 166591.0 110171.0 109736.0 170653.0 167380.0 40422.0 47048.0 0.0 158470.0 0.0 0.0 0.0 0.0 158470.0 158470.0 158470.0 158470.0
192960.0 199086.0 33292.0 35337.0 110237.0 113779.0 287186.0 287395.0 92852.0 84514.0 135822.0 127741.0 219294.0 221494.0 147836.0 148365.0 224102.0 220667.0 238728.0 241444.0 88814.0 88170.0 153652.0 157491.0 282043.0 277881.0 123436.0 122800.0 250648.0 246410.0 100929.0 104309.0 159981.0 155476.0 153675.0 150345.0 131325.0 138409.0 155178.0 161762.0 314170.0 312230.0 125530.0 133371.0 83749.0 76242.0 108311.0 100915.0 215326.0 210954.0 248445.0 242216.0 120994.0 116316.0 327097.0 325969.0 135648.0 140215.0 262112.0 261115.0 112043.0 105770.0 113808.0 108260.0 205338.0 203519.0 64593.0 60608.0 110802.0 118974.0 96105.0 97414.0 190251.0 182282.0 138719.0 138832.0 53939.0 45598.0 213451.0 210164.0 140034.0 148135.0 238750.0 233058.0 279075.0 279587.0 188170.0 181724.0 208797.0 208225.0 65346.0 60282.0 136518.0 144566.0 269783.0 265195.0 160498.0 155671.0 44275.0 52073.0 119700.0 120848.0 284593.0 283373.0 249526.0 243402.0 149818.0 145762.0 169876.0 169977.0 183973.0 190633.0 158600.0 166591.0 110171.0 109736.0 170653.0 167380.0 40422.0 47048.0 0.0 158470.0 0.0 0.0 0.0 0.0 158470.0 158470.0 158470.0 158470.0
192960.0 199086.0 33292.0 35337.0 110237.0 113779.0 287186.0 287395.0 92852.0 84514.0 135822.0 127741.0 219294.0 221494.0 147836.0 148365.0 224102.0 220667.0 238728.0 241444.0 88814.0 88170.0 153652.0 157491.0 282043.0 277881.0 123436.0 122800.0 250648.0 246410.0 100929.0 104309.0 159981.0 155476.0 153675.0 150345.0 131325.0 138409.0 155178.0 161762.0 314170.0 312230.0 125530.0 133371.0 83749.0 76242.0 108311.0 100915.0 215326.0 210954.0 248445.0 242216.0 120994.0 116316.0 327097.0 325969.0 135648.0 140215.0 262112.0 261115.0 112043.0 105770.0 113808.0 108260.0 205338.0 203519.0 64593.0 60608.0 110802.0 118974.0 96105.0 97414.0 190251.0 182282.0 138719.0 138832.0 53939.0 45598.0 213451.0 210164.0 140034.0 148135.0 238750.0 233058.0 279075.0 279587.0 188170.0 181724.0 208797.0 208225.0 65346.0 60282.0 136518.0 144566.0 269783.0 265195.0 160498.0 155671.0 44275.0 52073.0 119700.0 120848.0 284593.0 283373.0 249526.0 243402.0 149818.0 145762.0 169876.0 169977.0 183973.0 190633.0 158600.0 166591.0 110171.0 109736.0 170653.0 167380.0 40422.0 47048.0 0.0 158470.0 0.0 0.0 0.0 0.0 158470.0 158470.0 158470.0 158470.0
192960.0 199086.0 33292.0 35337.0 110237.0 113779.0 287186.0 287395.0 92852.0 84514.0 135822.0 127741.0 219294.0 221494.0 147836.0 148365.0 224102.0 220667.0 238728.0 241444.0 88814.0 88170.0 153652.0 157491.0 282043.0 277881.0 123436.0 122800.0 250648.0 246410.0 100929.0 104309.0 159981.0 155476.0 153675.0 150345.0 131325.0 138409.0 155178.0 161762.0 314170.0 312230.0 125530.0 133371.0 83749.0 76242.0 108311.0 100915.0 215326.0 210954.0 248445.0 242216.0 120994.0 116316.0 327097.0 325969.0 135648.0 140215.0 262112.0 261115.0 112043.0 105770.0 113808.0 108260.0 205338.0 203519.0 64593.0 60608.0 110802.0 118974.0 96105.0 97414.0 190251.0 182282.0 138719.0 138832.0 53939.0 45598.0 213451.0 210164.0 140034.0 148135.0 238750.0 233058.0 279075.0 279587.0 188170.0 181724.0 208797.0 208225.0 65346.0 60282.0 136518.0 144566.0 269783.0 265195.0 160498.0 155671.0 44275.0 52073.0 119700.0 120848.0 284593.0 283373.0 249526.0 243402.0 149818.0 145762.0 169876.0 169977.0 183973.0 190633.0 158600.0 166591.0 110171.0 109736.0 170653.0 167380.0 40422.0 47048.0 0.0 158470.0 0.0 0.0 0.0 0.0 158470.0 158470.0 158470.0 158470.0
64459.0 72531.0 155105.0 149371.0 93760.0 86341.0 129679.0 129575.0 223554.0 216221.0 95068.0 91411.0 63526.0 67000.0 97785.0 105378.0 80125.0 80081.0 81174.0 84457.0 135524.0 127556.0 193176.0 200878.0 124850.0 121060.0 135005.0 142135.0 231534.0 224138.0 77703.0 70508.0 180349.0 172526.0 182518.0 186013.0 34986.0 35028.0 31579.0 28701.0 157477.0 155537.0 211398.0 216364.0 203425.0 195471.0 155705.0 149917.0 229147.0 230070.0 97988.0 93095.0 143177.0 147199.0 170417.0 168223.0 120401.0 115283.0 222342.0 226086.0 96878.0 92464.0 85477.0 80183.0 239442.0 242642.0 186539.0 179059.0 75595.0 73098.0 202888.0 198964.0 206726.0 201399.0 38758.0 43398.0 164492.0 159580.0 68145.0 68493.0 20556.0 16669.0 207941.0 206777.0 260732.0 265317.0 180652.0 179673.0 196710.0 201614.0 202490.0 198994.0 103757.0 106109.0 116178.0 112592.0 85675.0 89876.0 173963.0 179394.0 150783.0 158330.0 247775.0 250835.0 238506.0 236487.0 89199.0 94711.0 212006.0 217317.0 166018.0 166783.0 7151.0 11757.0 220209.0 215591.0 199028.0 191448.0 164826.0 172518.0 158470.0 0.0 158470.0 158470.0 158470.0 158470.0 0.0 0.0 0.0 0.0
64459.0 72531.0 155105.0 149371.0 93760.0 86341.0 129679.0 129575.0 223554.0 216221.0 95068.0 91411.0 63526.0 67000.0 97785.0 105378.0 80125.0 80081.0 81174.0 84457.0 135524.0 127556.0 193176.0 200878.0 124850.0 121060.0 135005.0 142135.0 231534.0 224138.0 77703.0 70508.0 180349.0 172526.0 182518.0 186013.0 34986.0 35028.0 31579.0 28701.0 157477.0 155537.0 211398.0 216364.0 203425.0 195471.0 155705.0 149917.0 229147.0 230070.0 97988.0 93095.0 143177.0 147199.0 170417.0 168223.0 120401.0 115283.0 222342.0 226086.0 96878.0 92464.0 85477.0 80183.0 239442.0 242642.0 186539.0 179059.0 75595.0 73098.0 202888.0 198964.0 206726.0 201399.0 38758.0 43398.0 164492.0 159580.0 68145.0 68493.0 20556.0 16669.0 207941.0 206777.0 260732.0 265317.0 180652.0 179673.0 196710.0 201614.0 202490.0 198994.0 103757.0 106109.0 116178.0 112592.0 85675.0 89876.0 173963.0 179394.0 150783.0 158330.0 247775.0 250835.0 238506.0 236487.0 89199.0 94711.0 212006.0 217317.0 166018.0 166783.0 7151.0 11757.0 220209.0 215591.0 199028.0 191448.0 164826.0 172518.0 158470.0 0.0 158470.0 158470.0 158470.0 158470.0 0.0 0.0 0.0 0.0
64459.0 72531.0 155105.0 149371.0 93760.0 86341.0 129679.0 129575.0 223554.0 216221.0 95068.0 91411.0 63526.0 67000.0 97785.0 105378.0 80125.0 80081.0 81174.0 84457.0 135524.0 127556.0 193176.0 200878.0 124850.0 121060.0 135005.0 142135.0 231534.0 224138.0 77703.0 70508.0 180349.0 172526.0 182518.0 186013.0 34986.0 35028.0 31579.0 28701.0 157477.0 155537.0 211398.0 216364.0 203425.0 195471.0 155705.0 149917.0 229147.0 230070.0 97988.0 93095.0 143177.0 147199.0 170417.0 168223.0 120401.0 115283.0 222342.0 226086.0 96878.0 92464.0 85477.0 80183.0 239442.0 242642.0 186539.0 179059.0 75595.0 73098.0 202888.0 198964.0 206726.0 201399.0 38758.0 43398.0 164492.0 159580.0 68145.0 68493.0 20556.0 16669.0 207941.0 206777.0 260732.0 265317.0 180652.0 179673.0 196710.0 201614.0 202490.0 198994.0 103757.0 106109.0 116178.0 112592.0 85675.0 89876.0 173963.0 179394.0 150783.0 158330.0 247775.0 250835.0 238506.0 236487.0 89199.0 94711.0 212006.0 217317.0 166018.0 166783.0 7151.0 11757.0 220209.0 215591.0 199028.0 191448.0 164826.0 172518.0 158470.0 0.0 158470.0 158470.0 158470.0 158470.0 0.0 0.0 0.0 0.0
64459.0 72531.0 155105.0 149371.0 93760.0 86341.0 129679.0 129575.0 223554.0 216221.0 95068.0 91411.0 63526.0 67000.0 97785.0 105378.0 80125.0 80081.0 81174.0 84457.0 135524.0 127556.0 193176.0 200878.0 124850.0 121060.0 135005.0 142135.0 231534.0 224138.0 77703.0 70508.0 180349.0 172526.0 182518.0 186013.0 34986.0 35028.0 31579.0 28701.0 157477.0 155537.0 211398.0 216364.0 203425.0 195471.0 155705.0 149917.0 229147.0 230070.0 97988.0 93095.0 143177.0 147199.0 170417.0 168223.0 120401.0 115283.0 222342.0 226086.0 96878.0 92464.0 85477.0 80183.0 239442.0 242642.0 186539.0 179059.0 75595.0 73098.0 202888.0 198964.0 206726.0 201399.0 38758.0 43398.0 164492.0 159580.0 68145.0 68493.0 20556.0 16669.0 207941.0 206777.0 260732.0 265317.0 180652.0 179673.0 196710.0 201614.0 202490.0 198994.0 103757.0 106109.0 116178.0 112592.0 85675.0 89876.0 173963.0 179394.0 150783.0 158330.0 247775.0 250835.0 238506.0 236487.0 89199.0 94711.0 212006.0 217317.0 166018.0 166783.0 7151.0 11757.0 220209.0 215591.0 199028.0 191448.0 164826.0 172518.0 158470.0 0.0 158470.0 158470.0 158470.0 158470.0 0.0 0.0 0.0 0.0
FIXED_EDGES_SECTION
1 2
3 4
5 6
7 8
9 10
11 12
13 14
15 16
17 18
19 20
21 22
23 24
25 26
27 28
29 30
31 32
33 34
35 36
37 38
39 40
41 42
43 44
45 46
47 48
49 50
51 52
53 54
55 56
57 58
59 60
61 62
63 64
65 66
67 68
69 70
71 72
73 74
75 76
77 78
79 80
81 82
83 84
85 86
87 88
89 90
91 92
93 94
95 96
97 98
99 100
101 102
103 104
105 106
107 108
109 110
111 112
113 114
115 116
117 118
119 120
-1 
DEMAND_SECTION
1 84
2 84
3 485
4 485
5 80
6 80
7 60
8 60
9 251
10 251
11 119
12 119
13 563
14 563
15 291
16 291
17 336
18 336
19 534
20 534
21 277
22 277
23 90
24 90
25 322
26 322
27 256
28 256
29 258
30 258
31 75
32 75
33 82
34 82
35 211
36 211
37 100
38 100
39 371
40 371
41 71
42 71
43 55
44 55
45 379
46 379
47 341
48 341
49 76
50 76
51 244
52 244
53 541
54 541
55 491
56 491
57 279
58 279
59 234
60 234
61 214
62 214
63 358
64 358
65 68
66 68
67 396
68 396
69 324
70 324
71 375
72 375
73 186
74 186
75 399
76 399
77 100
78 100
79 319
80 319
81 235
82 235
83 277
84 277
85 138
86 138
87 180
88 180
89 157
90 157
91 369
92 369
93 177
94 177
95 268
96 268
97 130
98 130
99 104
100 104
101 96
102 96
103 120
104 120
105 380
106 380
107 158
108 158
109 224
110 224
111 112
112 112
113 37
114 37
115 265
116 265
117 479
118 479
119 618
120 618
121 0
122 0
123 0
124 0
125 0
126 0
127 0
128 0
129 0
130 0
DEPOT_SECTION
121 
-1 
CAPACITIES_SECTION
7500 
8250 
-1 
EOF