NAME: GFS_20_1
TYPE: GFSP
DIMENSION: 176
VEHICLES: 4
CAPACITY: 5000.0
TRIP_DIST_LIMIT: 1050000.0
TOTAL_DIST_LIMIT: 1050000.0
EDGE_WEIGHT_TYPE: EXPLICIT
EDGE_WEIGHT_FORMAT: FULL_MATRIX
EDGE_WEIGHT_SECTION
0.0 8425.0 180190.0 174423.0 107904.0 108545.0 117147.0 123036.0 53230.0 58324.0 88535.0 81748.0 168127.0 174392.0 31984.0 40144.0 46408.0 53423.0 50320.0 49677.0 96856.0 91183.0 158839.0 151086.0 287049.0 279173.0 218249.0 222831.0 272107.0 274741.0 176040.0 175090.0 166139.0 161814.0 193699.0 189582.0 144407.0 138675.0 107098.0 114711.0 149120.0 142591.0 192234.0 184699.0 38017.0 35672.0 207776.0 207065.0 132136.0 124309.0 111567.0 115469.0 122737.0 117717.0 209658.0 212536.0 128444.0 135160.0 25555.0 33288.0 103914.0 101710.0 197233.0 201168.0 45004.0 48038.0 125661.0 131744.0 109576.0 106027.0 151224.0 155205.0 195734.0 200672.0 194821.0 197650.0 97829.0 94997.0 290094.0 282270.0 264841.0 260979.0 190391.0 185759.0 99949.0 101770.0 358460.0 364478.0 180126.0 175176.0 137798.0 133471.0 361213.0 353203.0 373762.0 369637.0 153327.0 145372.0 23321.0 22833.0 245130.0 241771.0 56380.0 58724.0 134134.0 138615.0 159528.0 158736.0 224945.0 230477.0 120352.0 118625.0 284801.0 292645.0 63372.0 62289.0 163101.0 168779.0 138537.0 145635.0 105957.0 102847.0 140717.0 135522.0 324527.0 317487.0 111859.0 103987.0 128868.0 132483.0 177850.0 169673.0 109869.0 114026.0 73937.0 71104.0 175242.0 168588.0 137419.0 140763.0 56706.0 62998.0 89679.0 89506.0 122986.0 115222.0 232827.0 224975.0 333868.0 325592.0 290948.0 288924.0 263632.0 256001.0 142189.0 147570.0 56009.0 48914.0 204883.0 205387.0 215326.0 229147.0 215326.0 215326.0 215326.0 215326.0 215326.0 215326.0 215326.0 229147.0 229147.0 229147.0 229147.0 229147.0 229147.0 229147.0
8425.0 0.0 173384.0 167466.0 105992.0 107228.0 113855.0 119382.0 46166.0 50757.0 96835.0 90113.0 162828.0 169304.0 23725.0 31873.0 38994.0 46438.0 53651.0 51785.0 105255.0 99530.0 151539.0 143857.0 290665.0 282833.0 212133.0 216901.0 273911.0 276773.0 169403.0 168702.0 168073.0 164080.0 188210.0 183866.0 138058.0 132578.0 103052.0 110804.0 151483.0 144709.0 186094.0 178486.0 38385.0 37848.0 210089.0 209687.0 133756.0 125882.0 107093.0 110553.0 115840.0 111082.0 210346.0 213524.0 129508.0 136537.0 23743.0 30561.0 102958.0 100115.0 191660.0 195806.0 40314.0 44545.0 121489.0 127261.0 109921.0 105831.0 150528.0 154120.0 188601.0 193400.0 187966.0 190995.0 94798.0 91362.0 294062.0 286291.0 267494.0 263856.0 191329.0 186756.0 97635.0 98823.0 361253.0 367384.0 174081.0 169357.0 136652.0 131920.0 365137.0 357121.0 377064.0 373083.0 146526.0 138660.0 24940.0 21661.0 248570.0 245421.0 64804.0 67094.0 135011.0 139044.0 159223.0 158863.0 226084.0 231823.0 120035.0 118867.0 288698.0 296492.0 57914.0 56037.0 162303.0 168198.0 137941.0 144817.0 100726.0 98121.0 138432.0 132888.0 327808.0 320860.0 103722.0 95895.0 125469.0 129508.0 181021.0 172760.0 110092.0 114788.0 81787.0 78614.0 168141.0 161362.0 133291.0 136235.0 54182.0 61061.0 83211.0 82558.0 121237.0 113647.0 236138.0 228340.0 336538.0 328271.0 293515.0 291716.0 267531.0 259865.0 141571.0 147285.0 49203.0 42588.0 197976.0 198690.0 210954.0 230070.0 210954.0 210954.0 210954.0 210954.0 210954.0 210954.0 210954.0 230070.0 230070.0 230070.0 230070.0 230070.0 230070.0 230070.0
180190.0 173384.0 0.0 7962.0 118547.0 125966.0 97712.0 90387.0 127231.0 123472.0 250212.0 246714.0 45780.0 50961.0 159232.0 154462.0 134645.0 126947.0 172890.0 165030.0 268070.0 264600.0 27985.0 32787.0 309380.0 303861.0 45809.0 53323.0 261089.0 266945.0 7103.0 14764.0 190350.0 193944.0 44634.0 36686.0 38122.0 45908.0 93135.0 90630.0 189256.0 182278.0 25791.0 20478.0 158947.0 167168.0 222290.0 227878.0 170399.0 167229.0 85546.0 77880.0 57569.0 62581.0 191393.0 199194.0 160864.0 167684.0 159321.0 151860.0 131082.0 123814.0 44000.0 51609.0 137568.0 138397.0 81689.0 74096.0 147409.0 140365.0 138289.0 132369.0 19976.0 27654.0 14718.0 18392.0 109117.0 104589.0 319619.0 314258.0 270906.0 272579.0 184981.0 183562.0 116051.0 108231.0 357711.0 364564.0 24795.0 31366.0 128143.0 121251.0 380114.0 372885.0 378850.0 377721.0 26864.0 34900.0 168166.0 162280.0 272060.0 273819.0 228814.0 227072.0 159600.0 153785.0 147681.0 155121.0 210352.0 218343.0 139200.0 146928.0 313649.0 319098.0 118709.0 118146.0 139885.0 145914.0 137235.0 134872.0 82012.0 88975.0 109179.0 103497.0 333796.0 329635.0 85526.0 89574.0 92313.0 98292.0 219306.0 212808.0 145837.0 153464.0 252803.0 250927.0 11955.0 19443.0 77721.0 69537.0 136280.0 135856.0 90722.0 90845.0 118442.0 121704.0 260032.0 255314.0 332594.0 324427.0 290481.0 293131.0 296350.0 289467.0 137558.0 144412.0 124223.0 131349.0 24949.0 25582.0 88720.0 210223.0 88720.0 88720.0 88720.0 88720.0 88720.0 88720.0 88720.0 210223.0 210223.0 210223.0 210223.0 210223.0 210223.0 210223.0
174423.0 167466.0 7962.0 0.0 117148.0 124702.0 96543.0 89514.0 121303.0 117254.0 246009.0 242310.0 49109.0 55152.0 152738.0 147778.0 128594.0 121055.0 168917.0 161009.0 263393.0 259747.0 20072.0 25323.0 311993.0 306333.0 53745.0 61284.0 264280.0 270136.0 11212.0 19049.0 191333.0 194634.0 51266.0 43236.0 34918.0 43104.0 90797.0 88940.0 189457.0 182318.0 33265.0 27215.0 154332.0 162579.0 224324.0 229712.0 170152.0 166645.0 83191.0 75370.0 51695.0 57275.0 194431.0 202138.0 160575.0 167631.0 154074.0 146734.0 129575.0 122082.0 51001.0 58602.0 132369.0 133565.0 80719.0 73442.0 146254.0 139024.0 139553.0 133957.0 22318.0 29070.0 20811.0 25889.0 106716.0 101728.0 322001.0 316497.0 273893.0 275345.0 187272.0 185665.0 114038.0 106118.0 360902.0 367755.0 30407.0 35859.0 128717.0 121581.0 383280.0 375985.0 382041.0 380912.0 21636.0 29951.0 163084.0 157005.0 274158.0 275712.0 223863.0 222341.0 159620.0 154124.0 149257.0 156512.0 213534.0 221529.0 138673.0 146265.0 316017.0 321607.0 113615.0 112643.0 141809.0 148040.0 137774.0 135854.0 78535.0 85826.0 110026.0 103942.0 336957.0 332811.0 77859.0 82113.0 92042.0 98443.0 220068.0 213377.0 144703.0 152511.0 247384.0 245326.0 5358.0 11616.0 77882.0 69777.0 131975.0 131950.0 85326.0 84929.0 118071.0 120836.0 261992.0 257083.0 335785.0 327618.0 293672.0 296385.0 298419.0 291445.0 138306.0 145377.0 118414.0 125712.0 30550.0 32605.0 94953.0 213414.0 94953.0 94953.0 94953.0 94953.0 94953.0 94953.0 94953.0 213414.0 213414.0 213414.0 213414.0 213414.0 213414.0 213414.0
107904.0 105992.0 118547.0 117148.0 0.0 7778.0 20970.0 28749.0 79024.0 83888.0 145371.0 144271.0 83506.0 86032.0 109553.0 111416.0 84949.0 78161.0 72108.0 66378.0 167762.0 166681.0 113359.0 106129.0 215770.0 208843.0 139052.0 140501.0 182407.0 187017.0 111816.0 106360.0 85705.0 86176.0 108113.0 107630.0 82931.0 74630.0 28814.0 28342.0 77610.0 69739.0 116410.0 111203.0 71050.0 76638.0 126607.0 129471.0 56349.0 51194.0 35697.0 43464.0 81559.0 73917.0 113043.0 118193.0 47028.0 55249.0 82567.0 75433.0 12604.0 7238.0 112370.0 113198.0 68815.0 62334.0 37059.0 44987.0 29283.0 21878.0 47714.0 49435.0 138442.0 145873.0 131641.0 130093.0 17672.0 25644.0 223087.0 216367.0 183687.0 182434.0 96905.0 93153.0 9609.0 14858.0 275913.0 282753.0 104591.0 96890.0 32300.0 26285.0 290901.0 283059.0 295959.0 293511.0 98023.0 90743.0 85778.0 85121.0 174174.0 173707.0 134772.0 130070.0 48452.0 46615.0 58157.0 60808.0 131292.0 138338.0 25388.0 31259.0 217154.0 223968.0 59909.0 67441.0 58515.0 65197.0 36734.0 41660.0 46116.0 38342.0 33122.0 29285.0 247850.0 242080.0 110354.0 104691.0 29667.0 28676.0 110848.0 103032.0 27787.0 35967.0 163934.0 165252.0 121011.0 118825.0 44279.0 51732.0 51901.0 44976.0 64400.0 72520.0 15340.0 8753.0 161202.0 154697.0 250796.0 242629.0 207829.0 208203.0 197246.0 189658.0 39850.0 47313.0 75405.0 74669.0 141313.0 137577.0 116844.0 133594.0 116844.0 116844.0 116844.0 116844.0 116844.0 116844.0 116844.0 133594.0 133594.0 133594.0 133594.0 133594.0 133594.0 133594.0
108545.0 107228.0 125966.0 124702.0 7778.0 0.0 28256.0 35795.0 83264.0 88591.0 141091.0 140370.0 89984.0 92090.0 112397.0 114762.0 88751.0 82397.0 69772.0 64686.0 163987.0 163241.0 121115.0 113900.0 208977.0 201979.0 145387.0 146566.0 176998.0 181405.0 119190.0 113595.0 78729.0 78903.0 114170.0 114024.0 90597.0 82303.0 36551.0 36038.0 70059.0 62154.0 123169.0 118152.0 71010.0 75925.0 120073.0 122693.0 48705.0 43434.0 43474.0 51240.0 89269.0 81606.0 108265.0 113073.0 39467.0 47769.0 83565.0 76815.0 6381.0 7806.0 118451.0 118949.0 71546.0 64570.0 44324.0 52139.0 21588.0 14426.0 44048.0 46939.0 145889.0 153358.0 138925.0 137201.0 24395.0 32408.0 216094.0 209306.0 177451.0 175993.0 91471.0 87548.0 15469.0 22139.0 269975.0 276828.0 111483.0 103687.0 29463.0 25050.0 284216.0 276352.0 289755.0 287186.0 105716.0 98477.0 85898.0 85957.0 167226.0 166613.0 132179.0 127123.0 41220.0 40051.0 53892.0 55688.0 126154.0 133029.0 18337.0 23631.0 210177.0 217059.0 64423.0 72174.0 55458.0 61781.0 32145.0 38101.0 53745.0 45894.0 34839.0 32677.0 241473.0 235604.0 117412.0 111571.0 35804.0 33460.0 103398.0 95518.0 20068.0 28197.0 161671.0 163354.0 128618.0 126520.0 50762.0 58464.0 53735.0 46323.0 71167.0 79227.0 15440.0 7401.0 154236.0 147631.0 244858.0 236634.0 201843.0 202018.0 190153.0 182541.0 35552.0 42500.0 79796.0 78361.0 148526.0 144624.0 121091.0 128765.0 121091.0 121091.0 121091.0 121091.0 121091.0 121091.0 121091.0 128765.0 128765.0 128765.0 128765.0 128765.0 128765.0 128765.0
117147.0 113855.0 97712.0 96543.0 20970.0 28256.0 0.0 7986.0 79333.0 82427.0 163637.0 161966.0 63060.0 66194.0 113096.0 113457.0 86403.0 78522.0 88060.0 81409.0 185163.0 183533.0 93857.0 86950.0 229123.0 222512.0 118662.0 120459.0 190936.0 196192.0 90935.0 85400.0 100711.0 102358.0 88170.0 87221.0 62762.0 54526.0 15137.0 9620.0 95182.0 87580.0 95612.0 90286.0 82809.0 89557.0 139474.0 143221.0 74692.0 70472.0 18826.0 25384.0 64694.0 57477.0 120371.0 126479.0 65115.0 72807.0 91638.0 83865.0 33574.0 27007.0 92376.0 93722.0 74135.0 69332.0 16095.0 24024.0 49731.0 42668.0 54851.0 53399.0 117641.0 125126.0 110701.0 109125.0 19520.0 22811.0 237256.0 230852.0 195049.0 194555.0 106570.0 103431.0 21268.0 15938.0 286037.0 292889.0 83708.0 76078.0 39735.0 31778.0 303622.0 295889.0 306807.0 304818.0 77971.0 71035.0 96718.0 94482.0 188325.0 188485.0 150327.0 146283.0 65233.0 61401.0 65984.0 70797.0 139437.0 146937.0 42879.0 50079.0 231274.0 237776.0 60450.0 66703.0 63105.0 70287.0 47404.0 49230.0 31667.0 25727.0 28952.0 21399.0 259475.0 254097.0 98071.0 93486.0 11794.0 16286.0 127620.0 120188.0 48172.0 55988.0 178685.0 179287.0 100549.0 98753.0 24205.0 31124.0 60629.0 55412.0 55164.0 63185.0 23735.0 24509.0 175491.0 169440.0 260920.0 252753.0 218176.0 219260.0 211928.0 204479.0 49436.0 57401.0 75387.0 76917.0 120350.0 116619.0 100394.0 140747.0 100394.0 100394.0 100394.0 100394.0 100394.0 100394.0 100394.0 140747.0 140747.0 140747.0 140747.0 140747.0 140747.0 140747.0
123036.0 119382.0 90387.0 89514.0 28749.0 35795.0 7986.0 0.0 82880.0 85314.0 171451.0 169691.0 55075.0 58263.0 117336.0 117208.0 90228.0 82098.0 95582.0 88793.0 192826.0 191094.0 87811.0 81178.0 232763.0 226298.0 110677.0 112486.0 192692.0 198190.0 83541.0 77817.0 105458.0 107566.0 80213.0 79235.0 56291.0 48182.0 17193.0 9326.0 101003.0 93556.0 87696.0 82457.0 89521.0 96483.0 143151.0 147241.0 80957.0 77156.0 17468.0 21973.0 60719.0 53908.0 121991.0 128424.0 71359.0 78776.0 97637.0 89765.0 41333.0 34962.0 84412.0 85836.0 79308.0 75032.0 8818.0 16358.0 57061.0 50216.0 57471.0 54930.0 110349.0 117900.0 103169.0 101414.0 26386.0 28049.0 241234.0 234975.0 197931.0 197750.0 109200.0 106323.0 29148.0 23219.0 288341.0 295194.0 75844.0 68167.0 43179.0 35237.0 306903.0 299223.0 309299.0 307503.0 71534.0 64933.0 103150.0 100534.0 192381.0 192806.0 157655.0 153749.0 70988.0 66504.0 68525.0 74017.0 141249.0 148888.0 49260.0 56761.0 235239.0 241598.0 64452.0 70131.0 64538.0 71722.0 51514.0 52221.0 30499.0 26318.0 29109.0 21117.0 262346.0 257138.0 96223.0 92205.0 7257.0 14765.0 132962.0 125722.0 55480.0 63084.0 185805.0 186240.0 93662.0 92230.0 16322.0 23142.0 66892.0 62134.0 55556.0 63296.0 29071.0 31342.0 179635.0 173790.0 263225.0 255057.0 220594.0 221965.0 216166.0 208789.0 53105.0 60973.0 78888.0 81132.0 112737.0 108861.0 93350.0 142168.0 93350.0 93350.0 93350.0 93350.0 93350.0 93350.0 93350.0 142168.0 142168.0 142168.0 142168.0 142168.0 142168.0 142168.0
53230.0 46166.0 127231.0 121303.0 79024.0 83264.0 79333.0 82880.0 0.0 7940.0 133436.0 128083.0 119249.0 126273.0 35462.0 34362.0 7946.0 867.0 65542.0 58631.0 146606.0 141868.0 105629.0 97858.0 286592.0 279149.0 166606.0 171670.0 259729.0 263794.0 123330.0 122865.0 157451.0 155508.0 143987.0 139141.0 92330.0 87299.0 65687.0 73609.0 144108.0 136345.0 140571.0 132867.0 44697.0 51828.0 200091.0 201462.0 123338.0 115817.0 67596.0 69126.0 69676.0 65070.0 191522.0 196195.0 116348.0 124584.0 36514.0 31472.0 81391.0 75459.0 147227.0 151860.0 19735.0 26995.0 82648.0 86971.0 94609.0 88037.0 126726.0 128188.0 142516.0 147448.0 141802.0 144903.0 63177.0 57005.0 292091.0 284762.0 258155.0 255861.0 174381.0 170278.0 69451.0 67213.0 351507.0 358239.0 128743.0 124472.0 111299.0 104798.0 362073.0 354097.0 370136.0 367044.0 100378.0 92556.0 46449.0 38942.0 244178.0 242350.0 105919.0 106032.0 120429.0 121772.0 137008.0 138909.0 209248.0 215961.0 100183.0 102114.0 286368.0 293743.0 19238.0 12764.0 137457.0 144209.0 115335.0 120676.0 58453.0 58012.0 107353.0 100422.0 321256.0 314931.0 62453.0 54327.0 89824.0 95615.0 176928.0 168510.0 94098.0 101248.0 126862.0 124314.0 122033.0 115360.0 94227.0 95548.0 35929.0 43077.0 37591.0 36393.0 93817.0 87727.0 231242.0 223953.0 326384.0 318223.0 283271.0 282782.0 265554.0 257806.0 118638.0 125759.0 4004.0 7946.0 151810.0 152572.0 169876.0 212006.0 169876.0 169876.0 169876.0 169876.0 169876.0 169876.0 169876.0 212006.0 212006.0 212006.0 212006.0 212006.0 212006.0 212006.0
58324.0 50757.0 123472.0 117254.0 83888.0 88591.0 82427.0 85314.0 7940.0 0.0 140521.0 134995.0 118301.0 125602.0 36484.0 33588.0 12001.0 8532.0 73460.0 66570.0 153058.0 148110.0 100862.0 93258.0 293363.0 285965.0 163979.0 169332.0 265450.0 269658.0 119919.0 119937.0 163890.0 162164.0 142513.0 137320.0 89695.0 85248.0 68190.0 75989.0 150927.0 143112.0 138008.0 130212.0 52560.0 59574.0 206445.0 207995.0 129984.0 122551.0 69255.0 69891.0 65984.0 62096.0 196792.0 201662.0 122757.0 131064.0 43685.0 39119.0 87130.0 80812.0 145596.0 150539.0 27671.0 34826.0 84276.0 87959.0 100986.0 94196.0 131566.0 132633.0 138079.0 142727.0 137915.0 141388.0 67406.0 60705.0 299039.0 291754.0 264449.0 262301.0 179984.0 175962.0 74279.0 71337.0 357631.0 364424.0 126416.0 122579.0 116008.0 109245.0 368861.0 360895.0 376546.0 373547.0 96724.0 89138.0 53625.0 45947.0 250983.0 249272.0 112287.0 112731.0 126645.0 127640.0 142035.0 144273.0 214740.0 221565.0 105907.0 108232.0 293292.0 300623.0 24197.0 16450.0 142031.0 148888.0 120477.0 125509.0 59015.0 59656.0 110923.0 103738.0 327752.0 321495.0 55272.0 47164.0 92414.0 98622.0 183908.0 175503.0 100401.0 107752.0 132245.0 129340.0 117684.0 110749.0 95608.0 96258.0 43350.0 50243.0 35906.0 33041.0 98348.0 92636.0 238025.0 230795.0 332523.0 324349.0 289423.0 289080.0 272533.0 264789.0 123695.0 130981.0 9542.0 15885.0 147804.0 148959.0 169977.0 217317.0 169977.0 169977.0 169977.0 169977.0 169977.0 169977.0 169977.0 217317.0 217317.0 217317.0 217317.0 217317.0 217317.0 217317.0
88535.0 96835.0 250212.0 246009.0 145371.0 141091.0 163637.0 171451.0 133436.0 140521.0 0.0 8242.0 225570.0 229582.0 120518.0 128678.0 128959.0 133240.0 77528.0 85273.0 25501.0 28965.0 234010.0 225906.0 247138.0 239151.0 280552.0 283232.0 252875.0 252893.0 244705.0 241595.0 155956.0 148764.0 251309.0 249445.0 212165.0 204757.0 160950.0 166327.0 137397.0 134884.0 255783.0 249227.0 92305.0 84076.0 188052.0 183986.0 132035.0 126678.0 167896.0 174570.0 196134.0 189428.0 207083.0 206549.0 134776.0 136792.0 96924.0 102607.0 134722.0 138194.0 255415.0 257246.0 116675.0 113531.0 177789.0 185604.0 127715.0 129911.0 169788.0 176781.0 268280.0 274414.0 264790.0 265678.0 146027.0 148080.0 246101.0 238045.0 236799.0 230715.0 187316.0 182637.0 142375.0 148505.0 324789.0 329386.0 243374.0 236689.0 162753.0 162774.0 315202.0 307483.0 334145.0 328581.0 224395.0 216073.0 86988.0 94577.0 209604.0 204104.0 34883.0 30104.0 140952.0 148817.0 173097.0 168234.0 216227.0 219090.0 141516.0 135200.0 241850.0 249890.0 134040.0 137266.0 180850.0 183676.0 158375.0 166263.0 168528.0 162253.0 175212.0 173768.0 286709.0 278939.0 195789.0 187674.0 174405.0 174023.0 152154.0 146171.0 129005.0 127087.0 47928.0 55494.0 248098.0 242796.0 187772.0 194005.0 114036.0 114500.0 162524.0 165527.0 155940.0 148326.0 199675.0 191841.0 302363.0 294295.0 262412.0 258025.0 221755.0 214976.0 161564.0 162890.0 134643.0 126457.0 275041.0 273558.0 262112.0 222342.0 262112.0 262112.0 262112.0 262112.0 262112.0 262112.0 262112.0 222342.0 222342.0 222342.0 222342.0 222342.0 222342.0 222342.0
81748.0 90113.0 246714.0 242310.0 144271.0 140370.0 161966.0 169691.0 128083.0 134995.0 8242.0 0.0 223348.0 227614.0 113709.0 121866.0 123298.0 127928.0 74762.0 82289.0 23734.0 24880.0 229826.0 221739.0 253594.0 245590.0 278041.0 280939.0 257797.0 258021.0 241347.0 238471.0 159424.0 152400.0 249196.0 247084.0 208765.0 201500.0 158545.0 164201.0 140746.0 137817.0 253047.0 246356.0 88110.0 79848.0 192661.0 188847.0 134199.0 128497.0 165334.0 171804.0 192009.0 185458.0 210360.0 210119.0 136386.0 138882.0 91613.0 97658.0 134036.0 137051.0 253260.0 255320.0 111900.0 109215.0 175739.0 183459.0 128060.0 129766.0 170805.0 177602.0 264529.0 270528.0 261344.0 262466.0 143940.0 145569.0 252833.0 244771.0 242346.0 236408.0 190480.0 185762.0 140761.0 146594.0 330990.0 335693.0 240620.0 234094.0 163086.0 162703.0 322198.0 314449.0 340763.0 335284.0 220675.0 212359.0 81732.0 89142.0 215606.0 210243.0 27010.0 23025.0 142631.0 150312.0 174613.0 170065.0 220096.0 223203.0 141863.0 135854.0 248500.0 256548.0 129659.0 132504.0 182069.0 185186.0 159122.0 167044.0 165357.0 159327.0 174812.0 172999.0 293119.0 285382.0 190251.0 182153.0 172953.0 172946.0 156957.0 150713.0 129285.0 127898.0 40510.0 47852.0 244250.0 238762.0 185991.0 191993.0 110436.0 111422.0 158238.0 160912.0 155431.0 147682.0 205448.0 197569.0 308365.0 300263.0 268088.0 263864.0 228269.0 221406.0 162398.0 164117.0 129473.0 121302.0 271602.0 270352.0 261115.0 226086.0 261115.0 261115.0 261115.0 261115.0 261115.0 261115.0 261115.0 226086.0 226086.0 226086.0 226086.0 226086.0 226086.0 226086.0
168127.0 162828.0 45780.0 49109.0 83506.0 89984.0 63060.0 55075.0 119249.0 118301.0 225570.0 223348.0 0.0 8344.0 154465.0 151830.0 127194.0 118688.0 148656.0 141367.0 246096.0 243824.0 59467.0 57447.0 263627.0 258150.0 55603.0 57676.0 215358.0 221214.0 38935.0 31015.0 146442.0 150601.0 26005.0 24161.0 35870.0 35541.0 64873.0 59254.0 147082.0 140586.0 33789.0 30415.0 139306.0 147006.0 176875.0 182645.0 129659.0 127594.0 58454.0 53065.0 60461.0 59803.0 145624.0 153415.0 120389.0 126410.0 144081.0 136101.0 95919.0 89989.0 29951.0 33059.0 123150.0 121307.0 47900.0 39985.0 110241.0 104155.0 94182.0 87741.0 64256.0 72112.0 54450.0 50285.0 79554.0 77935.0 273941.0 268653.0 225135.0 226804.0 139408.0 138133.0 84009.0 77257.0 311980.0 318832.0 23574.0 15417.0 85746.0 79686.0 334388.0 327140.0 333119.0 331990.0 43578.0 43753.0 151347.0 147112.0 226561.0 228487.0 209329.0 206145.0 118222.0 111612.0 102976.0 110671.0 164620.0 172613.0 99938.0 107955.0 267978.0 273373.0 104918.0 107473.0 94742.0 100535.0 94773.0 91378.0 62171.0 65928.0 66468.0 62144.0 288065.0 283911.0 100692.0 101108.0 54205.0 58167.0 175701.0 169627.0 108631.0 115380.0 236205.0 235742.0 54425.0 57625.0 39247.0 31946.0 115786.0 112887.0 82406.0 86596.0 79278.0 84289.0 214651.0 210118.0 286863.0 278696.0 244750.0 247433.0 250862.0 244052.0 94569.0 100852.0 115485.0 120694.0 62465.0 56824.0 53939.0 164492.0 53939.0 53939.0 53939.0 53939.0 53939.0 53939.0 53939.0 164492.0 164492.0 164492.0 164492.0 164492.0 164492.0 164492.0
174392.0 169304.0 50961.0 55152.0 86032.0 92090.0 66194.0 58263.0 126273.0 125602.0 229582.0 227614.0 8344.0 0.0 161604.0 159174.0 134216.0 125689.0 153103.0 145976.0 250555.0 248503.0 66916.0 65312.0 259265.0 253953.0 53580.0 54486.0 210446.0 216302.0 44455.0 36386.0 144424.0 148947.0 22088.0 22919.0 44211.0 43742.0 69665.0 63464.0 146117.0 139902.0 34896.0 33364.0 144641.0 152200.0 173342.0 179346.0 129496.0 127929.0 63704.0 58961.0 68729.0 67873.0 140905.0 148801.0 120413.0 126016.0 150052.0 142053.0 98204.0 92778.0 26362.0 27718.0 129388.0 127187.0 51886.0 44309.0 111676.0 105990.0 92305.0 85457.0 68372.0 76137.0 57930.0 52789.0 83679.0 82748.0 269832.0 264711.0 220384.0 222305.0 135674.0 134655.0 87410.0 81078.0 307068.0 313920.0 26974.0 19598.0 85127.0 79624.0 329390.0 322214.0 328207.0 327078.0 51467.0 51995.0 157044.0 153074.0 222840.0 225005.0 214335.0 210915.0 117836.0 110861.0 100504.0 108389.0 159709.0 167701.0 100684.0 108732.0 263890.0 269121.0 111412.0 114310.0 91838.0 97267.0 94011.0 89989.0 68588.0 71725.0 65964.0 62546.0 283153.0 278990.0 109030.0 109398.0 56388.0 59316.0 173797.0 168007.0 110070.0 116430.0 241591.0 241341.0 60509.0 64378.0 41999.0 35624.0 121185.0 117884.0 89768.0 94244.0 80366.0 85984.0 211116.0 206825.0 281951.0 273784.0 239838.0 242553.0 247137.0 240444.0 93486.0 99331.0 122461.0 127418.0 65047.0 58606.0 45598.0 159580.0 45598.0 45598.0 45598.0 45598.0 45598.0 45598.0 45598.0 159580.0 159580.0 159580.0 159580.0 159580.0 159580.0 159580.0
31984.0 23725.0 159232.0 152738.0 109553.0 112397.0 113096.0 117336.0 35462.0 36484.0 120518.0 113709.0 154465.0 161604.0 0.0 8160.0 27594.0 36112.0 71431.0 67510.0 128083.0 122015.0 135472.0 128180.0 306275.0 298565.0 200376.0 205794.0 285277.0 288688.0 155967.0 156254.0 180401.0 177226.0 178907.0 173787.0 126134.0 121726.0 100233.0 108188.0 164982.0 157722.0 174433.0 166617.0 52157.0 54881.0 222995.0 223325.0 145758.0 137906.0 102715.0 104549.0 102030.0 98492.0 219247.0 223166.0 140257.0 147923.0 36526.0 39237.0 109230.0 104755.0 182031.0 186885.0 40853.0 48073.0 117715.0 122312.0 119325.0 113991.0 156444.0 158925.0 172984.0 177161.0 173508.0 177318.0 95494.0 90336.0 310458.0 302824.0 280941.0 277842.0 201014.0 196629.0 100339.0 99617.0 374779.0 381173.0 162887.0 159051.0 141584.0 135826.0 381299.0 373283.0 391770.0 388131.0 132656.0 125259.0 42977.0 36315.0 263911.0 261246.0 88027.0 90684.0 145212.0 148065.0 166051.0 166826.0 236025.0 242249.0 127520.0 127800.0 304948.0 312612.0 52891.0 47954.0 167773.0 174177.0 144332.0 150492.0 93910.0 93191.0 140110.0 133652.0 342561.0 335840.0 83725.0 76301.0 124073.0 129324.0 196092.0 187703.0 119189.0 125095.0 102427.0 98245.0 152801.0 145532.0 129391.0 130952.0 59153.0 66945.0 72234.0 69452.0 124828.0 117924.0 251233.0 243592.0 349823.0 341599.0 306668.0 305411.0 283841.0 276118.0 147839.0 154339.0 39388.0 36216.0 183241.0 184793.0 205338.0 239442.0 205338.0 205338.0 205338.0 205338.0 205338.0 205338.0 205338.0 239442.0 239442.0 239442.0 239442.0 239442.0 239442.0 239442.0
40144.0 31873.0 154462.0 147778.0 111416.0 114762.0 113457.0 117208.0 34362.0 33588.0 128678.0 121866.0 151830.0 159174.0 8160.0 0.0 27054.0 35126.0 77992.0 73588.0 136112.0 129977.0 130072.0 122960.0 311489.0 303827.0 196359.0 201997.0 289077.0 292670.0 151473.0 152123.0 184722.0 181823.0 175835.0 170453.0 122346.0 118369.0 100021.0 107952.0 169730.0 162340.0 170525.0 162660.0 58057.0 61489.0 227406.0 227978.0 150101.0 142293.0 101917.0 103140.0 97696.0 94668.0 222333.0 226490.0 144225.0 152058.0 42823.0 44441.0 111985.0 107026.0 178831.0 183923.0 43622.0 51345.0 116974.0 121112.0 122996.0 117309.0 158750.0 160848.0 167637.0 171577.0 168584.0 172668.0 96566.0 90893.0 315937.0 308354.0 285449.0 282535.0 204407.0 200097.0 102023.0 100666.0 379233.0 385713.0 159189.0 155692.0 143646.0 137582.0 386655.0 378642.0 396618.0 393100.0 128099.0 120919.0 50055.0 42992.0 269076.0 266575.0 96140.0 98842.0 148979.0 151435.0 168616.0 169763.0 239423.0 245798.0 130514.0 131260.0 310381.0 317995.0 53014.0 47125.0 169878.0 176425.0 146860.0 152749.0 92337.0 92319.0 141086.0 134361.0 347456.0 340818.0 77010.0 69807.0 124112.0 129740.0 201270.0 192857.0 122763.0 129011.0 110016.0 105619.0 147613.0 140185.0 128508.0 129565.0 62411.0 70254.0 69428.0 65831.0 126561.0 119944.0 256330.0 248752.0 354211.0 346009.0 311049.0 309977.0 289312.0 281576.0 150308.0 157033.0 38364.0 36891.0 178191.0 180044.0 203519.0 242642.0 203519.0 203519.0 203519.0 203519.0 203519.0 203519.0 203519.0 242642.0 242642.0 242642.0 242642.0 242642.0 242642.0 242642.0
46408.0 38994.0 134645.0 128594.0 84949.0 88751.0 86403.0 90228.0 7946.0 12001.0 128959.0 123298.0 127194.0 134216.0 27594.0 27054.0 0.0 8540.0 64274.0 57928.0 141133.0 136137.0 112547.0 104866.0 289883.0 282366.0 174373.0 179494.0 264519.0 268413.0 130869.0 130548.0 161395.0 159115.0 151913.0 147035.0 100071.0 95147.0 73056.0 81000.0 147454.0 139799.0 148345.0 140620.0 43080.0 49438.0 204109.0 205207.0 127025.0 119379.0 75234.0 76955.0 77077.0 72700.0 196844.0 201311.0 120421.0 128531.0 32474.0 28944.0 86456.0 80958.0 155142.0 159796.0 20468.0 28497.0 90265.0 94739.0 98805.0 92561.0 132531.0 134310.0 149628.0 154407.0 149169.0 152413.0 69662.0 63855.0 295058.0 287645.0 262214.0 259709.0 179372.0 175184.0 75455.0 73746.0 355759.0 362408.0 136561.0 132355.0 117246.0 110967.0 365307.0 357316.0 373979.0 370747.0 107819.0 100077.0 42334.0 34516.0 247436.0 245393.0 100349.0 100918.0 124766.0 126547.0 142630.0 144201.0 214325.0 220911.0 105187.0 106635.0 289382.0 296837.0 25962.0 20386.0 143464.0 150120.0 120894.0 126498.0 66326.0 65678.0 114101.0 107326.0 324986.0 318556.0 66979.0 58904.0 97095.0 102686.0 179921.0 171488.0 98401.0 105230.0 120296.0 117481.0 129183.0 122370.0 101896.0 103361.0 38733.0 46344.0 45435.0 43832.0 99953.0 93577.0 234548.0 227158.0 330633.0 322483.0 287512.0 286823.0 268473.0 260722.0 124268.0 131218.0 11804.0 10427.0 159129.0 160049.0 177758.0 217268.0 177758.0 177758.0 177758.0 177758.0 177758.0 177758.0 177758.0 217268.0 217268.0 217268.0 217268.0 217268.0 217268.0 217268.0
53423.0 46438.0 126947.0 121055.0 78161.0 82397.0 78522.0 82098.0 867.0 8532.0 133240.0 127928.0 118688.0 125689.0 36112.0 35126.0 8540.0 0.0 65032.0 58077.0 146543.0 141844.0 105475.0 97684.0 285763.0 278324.0 166194.0 171228.0 258865.0 262932.0 123007.0 122490.0 156604.0 154672.0 143468.0 138654.0 91934.0 86847.0 64907.0 72833.0 143281.0 135515.0 140155.0 132462.0 44241.0 51437.0 199242.0 200620.0 122500.0 114984.0 66863.0 68450.0 69406.0 64724.0 190655.0 195329.0 115499.0 123738.0 36330.0 31137.0 80525.0 74591.0 146722.0 151327.0 19156.0 26320.0 81911.0 86274.0 93759.0 87179.0 125862.0 127329.0 142311.0 147279.0 141531.0 144588.0 62327.0 56175.0 291276.0 283950.0 257304.0 255016.0 173515.0 169413.0 68588.0 66366.0 350650.0 357385.0 128306.0 123994.0 110437.0 103940.0 361246.0 353271.0 369290.0 366201.0 100089.0 92243.0 46255.0 38799.0 243351.0 241532.0 105878.0 105925.0 119574.0 120909.0 136142.0 138041.0 208381.0 215095.0 99317.0 101255.0 285550.0 292922.0 18387.0 12006.0 136597.0 143346.0 114468.0 119811.0 57798.0 57284.0 106520.0 99598.0 320413.0 314091.0 62715.0 54590.0 89034.0 94804.0 176114.0 167697.0 93245.0 100403.0 126982.0 124486.0 121821.0 115182.0 93502.0 94867.0 35153.0 42271.0 37153.0 36129.0 92958.0 86862.0 230415.0 223128.0 325527.0 317366.0 282415.0 281931.0 264741.0 256993.0 117772.0 124892.0 3281.0 7406.0 151551.0 152267.0 169228.0 211139.0 169228.0 169228.0 169228.0 169228.0 169228.0 169228.0 169228.0 211139.0 211139.0 211139.0 211139.0 211139.0 211139.0 211139.0
50320.0 53651.0 172890.0 168917.0 72108.0 69772.0 88060.0 95582.0 65542.0 73460.0 77528.0 74762.0 148656.0 153103.0 71431.0 77992.0 64274.0 65032.0 0.0 7971.0 97463.0 95516.0 157865.0 149754.0 237032.0 229192.0 203280.0 206204.0 222307.0 224740.0 167280.0 164075.0 116370.0 111747.0 174554.0 172336.0 134791.0 127294.0 83809.0 89639.0 99004.0 92699.0 178340.0 171725.0 21210.0 16551.0 157629.0 156782.0 82959.0 75283.0 90572.0 97097.0 120032.0 112985.0 161700.0 163985.0 80395.0 86380.0 35191.0 35575.0 63858.0 64930.0 178590.0 180821.0 45986.0 40146.0 101226.0 108849.0 64030.0 62607.0 107881.0 113204.0 191228.0 197558.0 187414.0 188177.0 69479.0 70812.0 240429.0 232672.0 214541.0 210660.0 142036.0 137316.0 67177.0 72369.0 308141.0 314161.0 165920.0 159341.0 96609.0 94201.0 311493.0 303477.0 323553.0 319505.0 147366.0 139052.0 29028.0 35117.0 194985.0 191779.0 62672.0 58248.0 86430.0 91985.0 114685.0 112606.0 176092.0 181291.0 76659.0 73072.0 235054.0 242843.0 59863.0 64956.0 119845.0 124664.0 95195.0 102898.0 91044.0 84728.0 104535.0 101388.0 274305.0 267309.0 126212.0 118208.0 99417.0 100364.0 127569.0 119369.0 64720.0 67050.0 91924.0 93633.0 171224.0 166278.0 111784.0 117489.0 37521.0 37039.0 87257.0 91519.0 85210.0 77146.0 182610.0 174784.0 283560.0 275283.0 240665.0 238605.0 213889.0 206218.0 98816.0 102910.0 65220.0 57626.0 197655.0 196053.0 188170.0 180652.0 188170.0 188170.0 188170.0 188170.0 188170.0 188170.0 188170.0 180652.0 180652.0 180652.0 180652.0 180652.0 180652.0 180652.0
49677.0 51785.0 165030.0 161009.0 66378.0 64686.0 81409.0 88793.0 58631.0 66570.0 85273.0 82289.0 141367.0 145976.0 67510.0 73588.0 57928.0 58077.0 7971.0 0.0 104749.0 102528.0 149896.0 141784.0 239363.0 231584.0 195800.0 198835.0 222456.0 225163.0 159457.0 156330.0 116507.0 112342.0 167308.0 164947.0 126944.0 119490.0 76494.0 82540.0 99716.0 93025.0 170758.0 164083.0 15586.0 14039.0 158346.0 157902.0 82463.0 74644.0 83126.0 89516.0 112062.0 105019.0 160373.0 163036.0 79010.0 85541.0 30990.0 29860.0 59033.0 59306.0 171315.0 173686.0 38931.0 32651.0 94151.0 101677.0 61182.0 58856.0 104429.0 109347.0 183316.0 189625.0 179572.0 180406.0 62525.0 63443.0 243186.0 235502.0 215709.0 212101.0 140941.0 136275.0 60820.0 65586.0 309475.0 315627.0 158332.0 151832.0 92422.0 89480.0 314142.0 306124.0 325472.0 321592.0 139446.0 131131.0 26868.0 31551.0 197135.0 194197.0 68927.0 64998.0 84839.0 89815.0 111805.0 110262.0 175363.0 180827.0 73144.0 70294.0 237730.0 245451.0 52068.0 57375.0 116413.0 121545.0 91679.0 99221.0 83255.0 77056.0 99189.0 95628.0 276216.0 269331.0 118693.0 110723.0 92910.0 94257.0 129439.0 121132.0 61697.0 64957.0 97651.0 98877.0 163290.0 158320.0 104900.0 110398.0 29556.0 29228.0 79316.0 83659.0 80055.0 71978.0 184607.0 176859.0 284753.0 276486.0 241732.0 239941.0 216590.0 208885.0 95330.0 99914.0 58067.0 50687.0 189817.0 188285.0 181724.0 179673.0 181724.0 181724.0 181724.0 181724.0 181724.0 181724.0 181724.0 179673.0 179673.0 179673.0 179673.0 179673.0 179673.0 179673.0
96856.0 105255.0 268070.0 263393.0 167762.0 163987.0 185163.0 192826.0 146606.0 153058.0 25501.0 23734.0 246096.0 250555.0 128083.0 136112.0 141133.0 146543.0 97463.0 104749.0 0.0 8088.0 250186.0 242142.0 269657.0 261718.0 300489.0 303585.0 277659.0 277480.0 262893.0 260309.0 181445.0 174232.0 272011.0 269695.0 230311.0 223236.0 181227.0 187094.0 162896.0 160366.0 275293.0 268468.0 109123.0 100910.0 213113.0 208869.0 157321.0 151810.0 187867.0 194133.0 212555.0 206264.0 232582.0 232018.0 159802.0 162051.0 110635.0 117320.0 157666.0 160533.0 276038.0 278273.0 131737.0 129852.0 198671.0 206312.0 151788.0 153488.0 194437.0 201279.0 285506.0 291292.0 282752.0 284169.0 166895.0 168189.0 267939.0 259915.0 260916.0 254638.0 212817.0 208137.0 164017.0 169665.0 347760.0 352135.0 262862.0 256500.0 186817.0 186426.0 336153.0 328539.0 356165.0 350383.0 241768.0 233477.0 101025.0 107936.0 233074.0 227343.0 40799.0 41079.0 166019.0 173782.0 198082.0 193388.0 241626.0 244402.0 165592.0 159551.0 263910.0 271915.0 150048.0 152209.0 205647.0 208660.0 182809.0 190727.0 187272.0 181523.0 198490.0 196587.0 309277.0 301443.0 207952.0 199936.0 196260.0 196426.0 177115.0 171309.0 153017.0 151565.0 34815.0 42858.0 265113.0 259348.0 209095.0 214935.0 132057.0 133623.0 178638.0 180731.0 179092.0 171316.0 223525.0 215766.0 325725.0 317723.0 286327.0 281700.0 244184.0 237610.0 186069.0 187688.0 148385.0 140314.0 293006.0 292056.0 284593.0 247775.0 284593.0 284593.0 284593.0 284593.0 284593.0 284593.0 284593.0 247775.0 247775.0 247775.0 247775.0 247775.0 247775.0 247775.0
91183.0 99530.0 264600.0 259747.0 166681.0 163241.0 183533.0 191094.0 141868.0 148110.0 28965.0 24880.0 243824.0 248503.0 122015.0 129977.0 136137.0 141844.0 95516.0 102528.0 8088.0 0.0 246123.0 238114.0 275344.0 267381.0 297866.0 301157.0 281835.0 281856.0 259560.0 257196.0 184239.0 177170.0 269793.0 267256.0 227014.0 220086.0 178971.0 185061.0 165581.0 162695.0 272504.0 265569.0 105813.0 97687.0 216952.0 212937.0 159005.0 153213.0 185447.0 191512.0 208647.0 202519.0 235216.0 234917.0 161019.0 163668.0 106284.0 113228.0 156971.0 159443.0 273774.0 276214.0 127660.0 126211.0 196668.0 204203.0 151970.0 153259.0 195101.0 201765.0 281773.0 287424.0 279304.0 280931.0 164973.0 165894.0 273914.0 265874.0 265685.0 259545.0 215347.0 210632.0 162513.0 167883.0 353243.0 357730.0 260080.0 253872.0 186907.0 186171.0 342466.0 334815.0 362087.0 356391.0 238151.0 229886.0 96864.0 103502.0 238263.0 232661.0 36042.0 37756.0 167285.0 174884.0 199173.0 194756.0 244800.0 247801.0 165741.0 159971.0 269794.0 277816.0 146192.0 147989.0 206472.0 209736.0 183259.0 191194.0 184315.0 178807.0 197925.0 195707.0 314951.0 307144.0 202738.0 194767.0 194787.0 195279.0 181092.0 175045.0 153143.0 152134.0 26743.0 34774.0 261327.0 255404.0 207299.0 212921.0 129033.0 131040.0 174711.0 176493.0 178480.0 170611.0 228476.0 220664.0 330993.0 322952.0 291243.0 286774.0 249904.0 243235.0 186590.0 188543.0 143808.0 135811.0 289548.0 288812.0 283373.0 250835.0 283373.0 283373.0 283373.0 283373.0 283373.0 283373.0 283373.0 250835.0 250835.0 250835.0 250835.0 250835.0 250835.0 250835.0
158839.0 151539.0 27985.0 20072.0 113359.0 121115.0 93857.0 87811.0 105629.0 100862.0 234010.0 229826.0 59467.0 66916.0 135472.0 130072.0 112547.0 105475.0 157865.0 149896.0 250186.0 246123.0 0.0 8114.0 316882.0 310876.0 73793.0 81253.0 271075.0 276932.0 28947.0 34833.0 192639.0 195178.0 68115.0 60166.0 31951.0 39712.0 85254.0 85159.0 188809.0 181322.0 52132.0 45155.0 141754.0 150008.0 228072.0 232922.0 168542.0 164218.0 77878.0 69988.0 37892.0 44915.0 200885.0 208307.0 158958.0 166537.0 139894.0 132911.0 125282.0 117342.0 68600.0 76046.0 118479.0 120612.0 79115.0 72989.0 142616.0 135010.0 142100.0 137390.0 37569.0 41865.0 39926.0 45825.0 100564.0 94490.0 326272.0 320418.0 279849.0 280730.0 191897.0 189831.0 108732.0 100731.0 367697.0 374550.0 46455.0 49567.0 129704.0 122087.0 389436.0 381984.0 388646.0 387691.0 17342.0 22878.0 149263.0 142736.0 277849.0 278877.0 210098.0 209122.0 158794.0 154164.0 152456.0 159164.0 220238.0 228202.0 136733.0 143873.0 320269.0 326201.0 100209.0 98168.0 145967.0 152621.0 138531.0 137752.0 70384.0 78293.0 112060.0 105123.0 343610.0 339089.0 58112.0 62810.0 91778.0 99042.0 220627.0 213490.0 141138.0 149306.0 232425.0 229938.0 18091.0 10159.0 79250.0 71745.0 120411.0 121425.0 71604.0 69756.0 116880.0 118330.0 265378.0 260004.0 342581.0 334414.0 300467.0 302956.0 301956.0 294772.0 139581.0 147097.0 103074.0 110750.0 48726.0 52126.0 110171.0 220209.0 110171.0 110171.0 110171.0 110171.0 110171.0 110171.0 110171.0 220209.0 220209.0 220209.0 220209.0 220209.0 220209.0 220209.0
151086.0 143857.0 32787.0 25323.0 106129.0 113900.0 86950.0 81178.0 97858.0 93258.0 225906.0 221739.0 57447.0 65312.0 128180.0 122960.0 104866.0 97684.0 149754.0 141784.0 242142.0 238114.0 8114.0 0.0 311494.0 305386.0 78121.0 85237.0 266457.0 272313.0 32100.0 36536.0 186375.0 188715.0 69153.0 61416.0 26387.0 33525.0 77810.0 78065.0 182071.0 174517.0 54954.0 47480.0 133658.0 141913.0 222431.0 227118.0 161624.0 157135.0 70521.0 62676.0 29781.0 36819.0 196164.0 203472.0 152057.0 159737.0 131914.0 124891.0 117920.0 109921.0 70131.0 77360.0 110459.0 112526.0 72584.0 66837.0 135336.0 127676.0 136309.0 131880.0 44850.0 49598.0 45991.0 51120.0 92954.0 86737.0 320687.0 314733.0 274838.0 275532.0 186591.0 184386.0 101237.0 93248.0 363065.0 369918.0 47619.0 49419.0 123526.0 115814.0 384409.0 376909.0 384174.0 383080.0 13869.0 16755.0 141250.0 134767.0 272132.0 273008.0 202096.0 201074.0 152073.0 147661.0 146820.0 153346.0 215565.0 223504.0 129815.0 136839.0 314683.0 320715.0 92140.0 90195.0 140647.0 147410.0 132259.0 131792.0 62594.0 70555.0 106263.0 99126.0 338780.0 334134.0 52806.0 56811.0 85483.0 92925.0 214131.0 206895.0 133875.0 142095.0 224581.0 222170.0 24653.0 17505.0 73542.0 66329.0 112298.0 113335.0 63533.0 61842.0 110203.0 111347.0 259586.0 254085.0 337949.0 329782.0 295820.0 298130.0 296174.0 288935.0 133443.0 141055.0 95236.0 102856.0 55306.0 57924.0 109736.0 215591.0 109736.0 109736.0 109736.0 109736.0 109736.0 109736.0 109736.0 215591.0 215591.0 215591.0 215591.0 215591.0 215591.0 215591.0
287049.0 290665.0 309380.0 311993.0 215770.0 208977.0 229123.0 232763.0 286592.0 293363.0 247138.0 253594.0 263627.0 259265.0 306275.0 311489.0 289883.0 285763.0 237032.0 239363.0 269657.0 275344.0 316882.0 311494.0 0.0 8032.0 302650.0 299153.0 65726.0 57816.0 302448.0 294623.0 130338.0 131280.0 274116.0 279520.0 285172.0 278075.0 242721.0 238742.0 142487.0 150257.0 292930.0 292584.0 254283.0 252978.0 89653.0 86300.0 163424.0 170813.0 247903.0 254310.0 293468.0 286491.0 118612.0 110587.0 171118.0 162674.0 270098.0 267145.0 208423.0 216038.0 277514.0 272694.0 269666.0 261577.0 240544.0 245127.0 192779.0 200063.0 175587.0 179620.0 327607.0 335395.0 317158.0 311527.0 233306.0 241327.0 14001.0 16149.0 40965.0 37198.0 124996.0 127110.0 224445.0 230605.0 78747.0 82585.0 286229.0 278552.0 189632.0 197612.0 75502.0 67550.0 87599.0 82828.0 299583.0 294739.0 265845.0 270891.0 42452.0 45282.0 269071.0 261040.0 168054.0 169167.0 164814.0 158777.0 100688.0 92968.0 190640.0 186468.0 10953.0 10620.0 269791.0 277777.0 170915.0 164308.0 181722.0 180579.0 260314.0 253215.0 205457.0 212930.0 39621.0 31803.0 326026.0 320461.0 227193.0 219354.0 110220.0 118635.0 193542.0 185802.0 293615.0 300235.0 317129.0 318562.0 237982.0 245203.0 251158.0 243651.0 280120.0 288200.0 205704.0 207814.0 55350.0 62761.0 59713.0 52958.0 39024.0 30639.0 25501.0 32199.0 179769.0 171840.0 283889.0 279865.0 323647.0 316370.0 258629.0 104040.0 258629.0 258629.0 258629.0 258629.0 258629.0 258629.0 258629.0 104040.0 104040.0 104040.0 104040.0 104040.0 104040.0 104040.0
279173.0 282833.0 303861.0 306333.0 208843.0 201979.0 222512.0 226298.0 279149.0 285965.0 239151.0 245590.0 258150.0 253953.0 298565.0 303827.0 282366.0 278324.0 229192.0 231584.0 261718.0 267381.0 310876.0 305386.0 8032.0 0.0 297740.0 294243.0 65027.0 57412.0 296901.0 289116.0 123272.0 123991.0 269183.0 274450.0 279102.0 271925.0 235980.0 232131.0 135047.0 142856.0 287816.0 287302.0 246542.0 245171.0 83154.0 79422.0 156091.0 163424.0 241264.0 247756.0 286969.0 279936.0 113692.0 105600.0 163903.0 155444.0 262351.0 259460.0 201306.0 208977.0 272641.0 267744.0 262118.0 254028.0 234163.0 238882.0 185517.0 192855.0 169281.0 173516.0 322238.0 330045.0 311877.0 306364.0 226336.0 234358.0 16149.0 14001.0 38242.0 33112.0 119121.0 121045.0 217440.0 223691.0 86463.0 90459.0 280893.0 273157.0 183131.0 191100.0 82941.0 74954.0 95627.0 90817.0 293601.0 288636.0 258030.0 263121.0 34985.0 37412.0 261039.0 253008.0 160961.0 162274.0 158597.0 152390.0 96261.0 88710.0 183646.0 179333.0 10620.0 15330.0 262457.0 270439.0 164947.0 158438.0 175110.0 174174.0 253597.0 246432.0 199229.0 206630.0 47570.0 39792.0 319159.0 313518.0 220828.0 213027.0 102577.0 111003.0 186305.0 178505.0 285598.0 292212.0 311440.0 312728.0 231847.0 239151.0 243651.0 236173.0 273142.0 281204.0 199018.0 200962.0 47970.0 55209.0 66740.0 59666.0 41575.0 33199.0 17690.0 24186.0 173238.0 165333.0 276479.0 272378.0 318518.0 311330.0 253719.0 100037.0 253719.0 253719.0 253719.0 253719.0 253719.0 253719.0 253719.0 100037.0 100037.0 100037.0 100037.0 100037.0 100037.0 100037.0
218249.0 212133.0 45809.0 53745.0 139052.0 145387.0 118662.0 110677.0 166606.0 163979.0 280552.0 278041.0 55603.0 53580.0 200376.0 196359.0 174373.0 166194.0 203280.0 195800.0 300489.0 297866.0 73793.0 78121.0 302650.0 297740.0 0.0 8285.0 253357.0 259213.0 46234.0 44279.0 195101.0 200230.0 31958.0 31442.0 74315.0 79578.0 119603.0 114531.0 198399.0 192525.0 26044.0 33769.0 192449.0 200399.0 219997.0 226645.0 182608.0 181330.0 112709.0 106368.0 98742.0 101889.0 184055.0 192155.0 173668.0 178959.0 195485.0 187650.0 151401.0 145585.0 27693.0 30325.0 173926.0 173249.0 103363.0 95362.0 165227.0 159424.0 143778.0 136403.0 46195.0 50440.0 36719.0 28955.0 134772.0 132497.0 313803.0 309216.0 263314.0 265514.0 182271.0 182031.0 139559.0 132665.0 349978.0 356831.0 38165.0 43996.0 138079.0 132953.0 372379.0 365156.0 371118.0 369989.0 69149.0 75643.0 203500.0 198513.0 268373.0 271326.0 262840.0 260112.0 170813.0 163547.0 150850.0 158966.0 202620.0 210612.0 154237.0 162285.0 307950.0 312722.0 155090.0 156101.0 141490.0 145972.0 146787.0 142143.0 113870.0 119062.0 119129.0 116083.0 326064.0 321901.0 130889.0 134411.0 109586.0 112875.0 224483.0 219234.0 163620.0 170008.0 288749.0 287697.0 56786.0 64892.0 94774.0 87544.0 168988.0 166880.0 129057.0 130943.0 133943.0 139452.0 257380.0 253883.0 324862.0 316695.0 282748.0 285464.0 292467.0 286226.0 145953.0 151220.0 163205.0 169549.0 33853.0 25792.0 65346.0 202490.0 65346.0 65346.0 65346.0 65346.0 65346.0 65346.0 65346.0 202490.0 202490.0 202490.0 202490.0 202490.0 202490.0 202490.0
222831.0 216901.0 53323.0 61284.0 140501.0 146566.0 120459.0 112486.0 171670.0 169332.0 283232.0 280939.0 57676.0 54486.0 205794.0 201997.0 179494.0 171228.0 206204.0 198835.0 303585.0 301157.0 81253.0 85237.0 299153.0 294243.0 8285.0 0.0 249860.0 255716.0 53171.0 50408.0 193219.0 198592.0 32399.0 33902.0 79676.0 84393.0 122397.0 116929.0 197283.0 191644.0 31558.0 39479.0 196077.0 203936.0 216769.0 223570.0 182146.0 181224.0 115730.0 109731.0 104629.0 107353.0 180558.0 188658.0 173378.0 178353.0 199689.0 191799.0 152689.0 147200.0 28131.0 28618.0 178260.0 177255.0 105558.0 97661.0 165928.0 160405.0 142438.0 134887.0 54476.0 58687.0 44884.0 37008.0 137228.0 135404.0 310306.0 305719.0 259818.0 262017.0 179165.0 179130.0 141561.0 134916.0 346482.0 353335.0 42937.0 47742.0 137607.0 132864.0 368883.0 361659.0 367621.0 366492.0 75633.0 81739.0 207489.0 202724.0 264880.0 267889.0 266372.0 263429.0 170256.0 162785.0 149022.0 157183.0 199124.0 207115.0 154521.0 162555.0 304453.0 309225.0 159523.0 160879.0 139481.0 143640.0 146146.0 141141.0 117745.0 122537.0 118924.0 116406.0 322567.0 318405.0 137877.0 141147.0 110871.0 113615.0 222529.0 217525.0 164328.0 170436.0 292678.0 291828.0 64557.0 72585.0 96343.0 89479.0 172562.0 170119.0 134079.0 136349.0 134533.0 140387.0 253956.0 250677.0 321365.0 313198.0 279252.0 281967.0 288969.0 282740.0 145112.0 150039.0 168188.0 174322.0 42109.0 34077.0 60282.0 198994.0 60282.0 60282.0 60282.0 60282.0 60282.0 60282.0 60282.0 198994.0 198994.0 198994.0 198994.0 198994.0 198994.0 198994.0
272107.0 273911.0 261089.0 264280.0 182407.0 176998.0 190936.0 192692.0 259729.0 265450.0 252875.0 257797.0 215358.0 210446.0 285277.0 289077.0 264519.0 258865.0 222307.0 222456.0 277659.0 281835.0 271075.0 266457.0 65726.0 65027.0 253357.0 249860.0 0.0 8101.0 254292.0 246337.0 105975.0 110725.0 224829.0 230260.0 240124.0 233752.0 205757.0 200231.0 123513.0 129608.0 243701.0 243617.0 235658.0 236491.0 65785.0 68955.0 140161.0 148040.0 209472.0 214649.0 252268.0 246087.0 70707.0 64494.0 145035.0 137552.0 251154.0 246497.0 178360.0 184722.0 228258.0 223401.0 245552.0 237736.0 199262.0 202271.0 166082.0 171980.0 136246.0 137782.0 278794.0 286523.0 268157.0 262342.0 199880.0 207605.0 79602.0 79023.0 28991.0 37007.0 85536.0 89488.0 191889.0 196460.0 98138.0 104990.0 237406.0 229925.0 151806.0 159509.0 123469.0 116900.0 119290.0 118287.0 253754.0 249830.0 249209.0 252627.0 59167.0 66595.0 267273.0 259495.0 140106.0 137987.0 125169.0 121612.0 51499.0 44114.0 159567.0 157931.0 75191.0 76170.0 241253.0 249092.0 128155.0 120973.0 145771.0 142094.0 222533.0 216497.0 163707.0 171667.0 76416.0 73948.0 288839.0 284421.0 186149.0 178163.0 100857.0 107468.0 166334.0 160182.0 295181.0 300610.0 269526.0 271689.0 194242.0 200588.0 226693.0 218853.0 245421.0 253571.0 169446.0 173738.0 61164.0 67063.0 73021.0 64854.0 32708.0 38419.0 71600.0 70555.0 142895.0 135177.0 256445.0 254109.0 274420.0 267087.0 209336.0 50865.0 209336.0 209336.0 209336.0 209336.0 209336.0 209336.0 209336.0 50865.0 50865.0 50865.0 50865.0 50865.0 50865.0 50865.0
274741.0 276773.0 266945.0 270136.0 187017.0 181405.0 196192.0 198190.0 263794.0 269658.0 252893.0 258021.0 221214.0 216302.0 288688.0 292670.0 268413.0 262932.0 224740.0 225163.0 277480.0 281856.0 276932.0 272313.0 57816.0 57412.0 259213.0 255716.0 8101.0 0.0 260148.0 252194.0 108701.0 112995.0 230685.0 236116.0 245980.0 239580.0 210910.0 205559.0 125754.0 132151.0 249557.0 249474.0 238631.0 239201.0 67343.0 69619.0 143167.0 151053.0 214819.0 220162.0 258051.0 251763.0 76406.0 69769.0 148461.0 140782.0 254219.0 249758.0 182528.0 189081.0 234114.0 229257.0 249239.0 241364.0 204930.0 208096.0 169744.0 175858.0 141382.0 143263.0 284651.0 292379.0 274014.0 268198.0 204571.0 212361.0 71737.0 71411.0 22901.0 31176.0 90144.0 93881.0 196438.0 201228.0 91057.0 97910.0 243262.0 235781.0 156837.0 164619.0 115871.0 109199.0 112209.0 111207.0 259610.0 255687.0 251982.0 255612.0 54433.0 61902.0 268271.0 260436.0 143739.0 142035.0 130264.0 126335.0 57003.0 49302.0 163759.0 161780.0 67449.0 68209.0 245473.0 253353.0 133698.0 126545.0 150517.0 147153.0 227837.0 221653.0 169307.0 177238.0 68834.0 66108.0 294210.0 289649.0 191747.0 183750.0 101394.0 108390.0 170064.0 163664.0 295847.0 301436.0 275382.0 277545.0 200095.0 206428.0 230361.0 222534.0 250407.0 258568.0 174366.0 178399.0 57972.0 64480.0 65941.0 57773.0 24935.0 30346.0 64916.0 64434.0 147745.0 139944.0 260573.0 258024.0 280276.0 272943.0 215192.0 57106.0 215192.0 215192.0 215192.0 215192.0 215192.0 215192.0 215192.0 57106.0 57106.0 57106.0 57106.0 57106.0 57106.0 57106.0
176040.0 169403.0 7103.0 11212.0 111816.0 119190.0 90935.0 83541.0 123330.0 119919.0 244705.0 241347.0 38935.0 44455.0 155967.0 151473.0 130869.0 123007.0 167280.0 159457.0 262893.0 259560.0 28947.0 32100.0 302448.0 296901.0 46234.0 53171.0 254292.0 260148.0 0.0 8072.0 183247.0 186847.0 40193.0 32154.0 32589.0 40015.0 86775.0 84025.0 182191.0 175230.0 23189.0 16390.0 153796.0 161988.0 215255.0 220820.0 163391.0 160277.0 79211.0 71636.0 53955.0 58332.0 184552.0 192329.0 153864.0 160650.0 154690.0 147132.0 124373.0 117182.0 40146.0 47712.0 132926.0 133444.0 74879.0 67220.0 140591.0 133602.0 131189.0 125283.0 26955.0 34698.0 20253.0 21613.0 102756.0 98446.0 312643.0 307258.0 264060.0 265679.0 177981.0 176533.0 109526.0 101754.0 350913.0 357766.0 19196.0 24953.0 121056.0 114183.0 373322.0 366074.0 372053.0 370924.0 23386.0 30795.0 163380.0 157670.0 265036.0 266770.0 223871.0 221955.0 152558.0 146712.0 140595.0 148026.0 203554.0 211547.0 132246.0 139998.0 306670.0 312146.0 114012.0 113825.0 132829.0 138884.0 130149.0 127769.0 76261.0 83015.0 102081.0 96424.0 326886.0 322844.0 84717.0 88184.0 85338.0 91250.0 212206.0 205715.0 139015.0 146594.0 248256.0 246555.0 16455.0 22272.0 70691.0 62504.0 130932.0 130243.0 86385.0 87043.0 111469.0 114830.0 252990.0 248251.0 325797.0 317630.0 283683.0 286361.0 289324.0 282428.0 130461.0 137310.0 120200.0 127132.0 30421.0 29401.0 83749.0 203425.0 83749.0 83749.0 83749.0 83749.0 83749.0 83749.0 83749.0 203425.0 203425.0 203425.0 203425.0 203425.0 203425.0 203425.0
175090.0 168702.0 14764.0 19049.0 106360.0 113595.0 85400.0 77817.0 122865.0 119937.0 241595.0 238471.0 31015.0 36386.0 156254.0 152123.0 130548.0 122490.0 164075.0 156330.0 260309.0 257196.0 34833.0 36536.0 294623.0 289116.0 44279.0 50408.0 246337.0 252194.0 8072.0 0.0 176086.0 179834.0 33313.0 25339.0 30688.0 37114.0 82318.0 78990.0 175458.0 168601.0 18996.0 11157.0 151386.0 159515.0 207626.0 213265.0 156958.0 154075.0 74848.0 67525.0 54467.0 57872.0 176631.0 184429.0 147473.0 154096.0 153084.0 145398.0 118956.0 111982.0 33806.0 41218.0 131360.0 131397.0 69305.0 61461.0 134846.0 128021.0 123932.0 117880.0 33823.0 41680.0 25396.0 24221.0 98235.0 94405.0 304884.0 299545.0 256144.0 257816.0 170272.0 168890.0 104608.0 96971.0 342959.0 349812.0 11738.0 16888.0 114186.0 107473.0 365365.0 358131.0 364098.0 362970.0 25370.0 31382.0 161523.0 156090.0 257375.0 259182.0 221688.0 219502.0 145969.0 139937.0 133184.0 140693.0 195601.0 203592.0 126059.0 133890.0 298916.0 304349.0 112427.0 112803.0 125276.0 131249.0 123282.0 120660.0 73115.0 79420.0 95094.0 89693.0 319044.0 314887.0 88136.0 90968.0 79141.0 84728.0 205140.0 198755.0 133257.0 140682.0 246648.0 245202.0 24377.0 29482.0 64276.0 56101.0 128253.0 127110.0 85491.0 86903.0 105231.0 108943.0 245380.0 240714.0 317843.0 309676.0 275729.0 278390.0 281670.0 274807.0 123475.0 130198.0 119576.0 126210.0 34958.0 32042.0 76242.0 195471.0 76242.0 76242.0 76242.0 76242.0 76242.0 76242.0 76242.0 195471.0 195471.0 195471.0 195471.0 195471.0 195471.0 195471.0
166139.0 168073.0 190350.0 191333.0 85705.0 78729.0 100711.0 105458.0 157451.0 163890.0 155956.0 159424.0 146442.0 144424.0 180401.0 184722.0 161395.0 156604.0 116370.0 116507.0 181445.0 184239.0 192639.0 186375.0 130338.0 123272.0 195101.0 193219.0 105975.0 108701.0 183247.0 176086.0 0.0 7909.0 163717.0 166996.0 160723.0 152968.0 113402.0 110249.0 18774.0 23723.0 179301.0 176840.0 129947.0 130545.0 42728.0 44219.0 34643.0 42499.0 119156.0 126093.0 165388.0 158075.0 51250.0 50715.0 41133.0 32875.0 145574.0 141304.0 78094.0 85708.0 167786.0 164933.0 141667.0 133666.0 113862.0 119650.0 62906.0 69923.0 52260.0 58988.0 209908.0 217762.0 200733.0 196689.0 103110.0 111129.0 137386.0 130673.0 100835.0 98417.0 31987.0 27628.0 94182.0 100563.0 194528.0 201076.0 170015.0 161852.0 62953.0 70567.0 205708.0 197809.0 212685.0 209661.0 175789.0 169855.0 143300.0 146929.0 88498.0 88054.0 164726.0 157282.0 37719.0 39431.0 44251.0 36158.0 61315.0 65563.0 60410.0 56169.0 131460.0 138331.0 140011.0 147999.0 53755.0 50259.0 54119.0 55495.0 131055.0 123651.0 81307.0 87677.0 163865.0 157672.0 196056.0 190298.0 100899.0 93617.0 29411.0 24618.0 63535.0 56208.0 193841.0 198490.0 196067.0 195976.0 113800.0 121735.0 122833.0 115096.0 149895.0 157943.0 76978.0 78062.0 75511.0 69021.0 169490.0 161291.0 126328.0 125432.0 111581.0 104029.0 53143.0 45961.0 154523.0 151137.0 208898.0 202931.0 154464.0 66901.0 154464.0 154464.0 154464.0 154464.0 154464.0 154464.0 154464.0 66901.0 66901.0 66901.0 66901.0 66901.0 66901.0 66901.0
161814.0 164080.0 193944.0 194634.0 86176.0 78903.0 102358.0 107566.0 155508.0 162164.0 148764.0 152400.0 150601.0 148947.0 177226.0 181823.0 159115.0 154672.0 111747.0 112342.0 174232.0 177170.0 195178.0 188715.0 131280.0 123991.0 200230.0 198592.0 110725.0 112995.0 186847.0 179834.0 7909.0 0.0 168661.0 171663.0 163354.0 155466.0 114417.0 111778.0 12788.0 19504.0 183752.0 181015.0 126207.0 126365.0 46009.0 46165.0 32180.0 39737.0 120491.0 127656.0 166829.0 159394.0 58768.0 57786.0 40000.0 31520.0 141944.0 138019.0 77631.0 85513.0 172779.0 170180.0 139138.0 131084.0 116133.0 122267.0 61529.0 68928.0 56657.0 63833.0 213632.0 221465.0 204688.0 200887.0 103263.0 111247.0 137604.0 130639.0 103725.0 100726.0 39768.0 35482.0 94223.0 100975.0 197574.0 203947.0 174162.0 165977.0 65920.0 73228.0 206776.0 198830.0 214922.0 211632.0 178507.0 172328.0 139203.0 143165.0 89026.0 87918.0 158402.0 150872.0 37723.0 41062.0 49655.0 41469.0 67839.0 71586.0 60795.0 55667.0 131744.0 138850.0 138517.0 146504.0 59442.0 56551.0 56887.0 59248.0 132021.0 124431.0 84767.0 90711.0 165876.0 159453.0 196277.0 190289.0 103427.0 96417.0 25472.0 19060.0 62337.0 54523.0 187310.0 192115.0 199273.0 198878.0 116834.0 124879.0 120413.0 112775.0 149848.0 157815.0 78696.0 78977.0 76024.0 69063.0 172679.0 164437.0 129562.0 128187.0 111433.0 103773.0 56386.0 49750.0 152719.0 148962.0 213052.0 207284.0 160365.0 73696.0 160365.0 160365.0 160365.0 160365.0 160365.0 160365.0 160365.0 73696.0 73696.0 73696.0 73696.0 73696.0 73696.0 73696.0
193699.0 188210.0 44634.0 51266.0 108113.0 114170.0 88170.0 80213.0 143987.0 142513.0 251309.0 249196.0 26005.0 22088.0 178907.0 175835.0 151913.0 143468.0 174554.0 167308.0 272011.0 269793.0 68115.0 69153.0 274116.0 269183.0 31958.0 32399.0 224829.0 230685.0 40193.0 33313.0 163717.0 168661.0 0.0 8039.0 55050.0 57609.0 90823.0 85005.0 166562.0 160619.0 20418.0 24167.0 165298.0 173009.0 190186.0 196581.0 150650.0 149404.0 84458.0 78992.0 80908.0 81912.0 155523.0 163591.0 141716.0 147009.0 169868.0 161903.0 120290.0 114838.0 4308.0 8458.0 148786.0 147155.0 73521.0 65738.0 133634.0 128035.0 112091.0 104840.0 57273.0 64357.0 45902.0 38795.0 105294.0 103898.0 285208.0 280451.0 234787.0 236958.0 152381.0 151828.0 109335.0 102840.0 321451.0 328304.0 21669.0 20999.0 106124.0 101020.0 343852.0 336628.0 342590.0 341462.0 56489.0 60108.0 177253.0 172902.0 239138.0 241751.0 235333.0 232127.0 138860.0 131623.0 119497.0 127559.0 174093.0 182084.0 122420.0 130465.0 279326.0 284191.0 130370.0 132527.0 110330.0 115148.0 114847.0 110298.0 87814.0 91862.0 87178.0 84264.0 297536.0 293374.0 118678.0 120421.0 78475.0 81287.0 193126.0 187697.0 132031.0 138261.0 262179.0 261661.0 56256.0 62449.0 64009.0 57331.0 141774.0 138886.0 106673.0 110089.0 102270.0 108021.0 227808.0 223966.0 296335.0 288167.0 254221.0 256937.0 263359.0 256908.0 114054.0 119441.0 140314.0 145862.0 50293.0 42494.0 44275.0 173963.0 44275.0 44275.0 44275.0 44275.0 44275.0 44275.0 44275.0 173963.0 173963.0 173963.0 173963.0 173963.0 173963.0 173963.0
189582.0 183866.0 36686.0 43236.0 107630.0 114024.0 87221.0 79235.0 139141.0 137320.0 249445.0 247084.0 24161.0 22919.0 173787.0 170453.0 147035.0 138654.0 172336.0 164947.0 269695.0 267256.0 60166.0 61416.0 279520.0 274450.0 31442.0 33902.0 230260.0 236116.0 32154.0 25339.0 166996.0 171663.0 8039.0 0.0 48742.0 52092.0 88542.0 83232.0 169002.0 162815.0 13538.0 16208.0 162230.0 170065.0 194762.0 200987.0 152398.0 150747.0 81832.0 75855.0 74544.0 76061.0 160916.0 168935.0 143289.0 148933.0 166130.0 158207.0 120006.0 114144.0 8891.0 15949.0 144827.0 143583.0 71981.0 64010.0 134053.0 128123.0 115006.0 108009.0 50130.0 57431.0 38869.0 32259.0 103511.0 101527.0 290427.0 285530.0 240218.0 242412.0 156979.0 156222.0 108145.0 101316.0 326882.0 333735.0 13805.0 14763.0 108046.0 102494.0 349283.0 342059.0 348021.0 346892.0 49012.0 53097.0 173787.0 169166.0 243976.0 246401.0 232492.0 229527.0 140752.0 133775.0 122922.0 130887.0 179524.0 187515.0 123365.0 131407.0 284520.0 289522.0 126212.0 127964.0 114019.0 119156.0 116927.0 112829.0 84068.0 88679.0 88874.0 85291.0 302967.0 298805.0 111535.0 113547.0 78220.0 81770.0 196396.0 190723.0 132444.0 139000.0 258918.0 258174.0 48248.0 54411.0 63352.0 56105.0 138707.0 136217.0 101640.0 104623.0 102887.0 108189.0 232474.0 228431.0 301765.0 293598.0 259652.0 262367.0 268240.0 261685.0 116376.0 122131.0 135545.0 141368.0 44189.0 36896.0 52073.0 179394.0 52073.0 52073.0 52073.0 52073.0 52073.0 52073.0 52073.0 179394.0 179394.0 179394.0 179394.0 179394.0 179394.0 179394.0
144407.0 138058.0 38122.0 34918.0 82931.0 90597.0 62762.0 56291.0 92330.0 89695.0 212165.0 208765.0 35870.0 44211.0 126134.0 122346.0 100071.0 91934.0 134791.0 126944.0 230311.0 227014.0 31951.0 26387.0 285172.0 279102.0 74315.0 79676.0 240124.0 245980.0 32589.0 30688.0 160723.0 163354.0 55050.0 48742.0 0.0 8311.0 55965.0 54594.0 157230.0 149832.0 48315.0 40552.0 121229.0 129412.0 196215.0 201006.0 137235.0 133227.0 48370.0 40506.0 25859.0 27681.0 169806.0 177095.0 127637.0 135056.0 122472.0 114829.0 95202.0 87539.0 57462.0 63468.0 100730.0 100974.0 47510.0 41095.0 112185.0 104781.0 110178.0 105586.0 57056.0 63989.0 52628.0 53932.0 71841.0 66820.0 294447.0 288547.0 248452.0 249163.0 160239.0 158075.0 79322.0 71362.0 336741.0 343594.0 36852.0 34136.0 97776.0 90196.0 358024.0 350527.0 357864.0 356733.0 15243.0 9712.0 131011.0 125471.0 245964.0 246947.0 191373.0 189388.0 127224.0 122387.0 120591.0 127237.0 189216.0 197149.0 105483.0 112825.0 288443.0 294430.0 81794.0 82123.0 114292.0 121035.0 106632.0 105802.0 43899.0 50989.0 80131.0 73172.0 312399.0 307747.0 64939.0 65821.0 59926.0 67110.0 188816.0 181755.0 110663.0 118656.0 216053.0 214544.0 38285.0 35992.0 47332.0 39973.0 98345.0 97753.0 54856.0 56682.0 85322.0 87260.0 233467.0 228064.0 311625.0 303458.0 269469.0 271751.0 270050.0 262850.0 107643.0 115147.0 88983.0 95539.0 62876.0 61806.0 89809.0 189257.0 89809.0 89809.0 89809.0 89809.0 89809.0 89809.0 89809.0 189257.0 189257.0 189257.0 189257.0 189257.0 189257.0 189257.0
138675.0 132578.0 45908.0 43104.0 74630.0 82303.0 54526.0 48182.0 87299.0 85248.0 204757.0 201500.0 35541.0 43742.0 121726.0 118369.0 95147.0 86847.0 127294.0 119490.0 223236.0 220086.0 39712.0 33525.0 278075.0 271925.0 79578.0 84393.0 233752.0 239580.0 40015.0 37114.0 152968.0 155466.0 57609.0 52092.0 8311.0 0.0 47707.0 46290.0 149175.0 141738.0 53560.0 46082.0 114274.0 122410.0 188932.0 193594.0 129077.0 124998.0 40105.0 32267.0 25081.0 24465.0 163347.0 170522.0 119482.0 126956.0 116183.0 108437.0 86892.0 79230.0 60482.0 65845.0 94518.0 94326.0 39439.0 33341.0 103890.0 96475.0 102791.0 98459.0 65128.0 72160.0 60223.0 60967.0 63613.0 58744.0 287195.0 281219.0 241676.0 242229.0 153252.0 150968.0 71030.0 63078.0 330362.0 337215.0 41508.0 37338.0 90063.0 82403.0 351204.0 343670.0 351509.0 350259.0 23447.0 16888.0 124495.0 119200.0 238616.0 239483.0 184577.0 182400.0 119161.0 114454.0 113336.0 119823.0 182781.0 190683.0 97303.0 104601.0 281191.0 287255.0 75620.0 76541.0 107335.0 114174.0 98851.0 98270.0 36255.0 43068.0 72750.0 65604.0 305754.0 300998.0 65921.0 65777.0 52079.0 59430.0 180915.0 173792.0 102370.0 110379.0 209685.0 208380.0 46574.0 44242.0 40095.0 33181.0 91183.0 90267.0 49713.0 52549.0 77244.0 79032.0 226062.0 220564.0 305245.0 297078.0 262998.0 265124.0 262650.0 255410.0 99965.0 107548.0 83797.0 89990.0 70430.0 68855.0 88942.0 182886.0 88942.0 88942.0 88942.0 88942.0 88942.0 88942.0 88942.0 182886.0 182886.0 182886.0 182886.0 182886.0 182886.0 182886.0
107098.0 103052.0 93135.0 90797.0 28814.0 36551.0 15137.0 17193.0 65687.0 68190.0 160950.0 158545.0 64873.0 69665.0 100233.0 100021.0 73056.0 64907.0 83809.0 76494.0 181227.0 178971.0 85254.0 77810.0 242721.0 235980.0 119603.0 122397.0 205757.0 210910.0 86775.0 82318.0 113402.0 114417.0 90823.0 88542.0 55965.0 47707.0 0.0 7955.0 106286.0 98461.0 95068.0 88856.0 75176.0 82601.0 153157.0 156573.0 85132.0 79981.0 7607.0 15474.0 52756.0 45147.0 135284.0 141269.0 75749.0 83871.0 81942.0 73979.0 40150.0 32112.0 94821.0 97323.0 62792.0 59092.0 18611.0 25426.0 57678.0 49934.0 69533.0 68435.0 112688.0 119828.0 106977.0 106513.0 15984.0 13089.0 250519.0 243967.0 209276.0 208558.0 121068.0 117783.0 23503.0 15497.0 300591.0 307444.0 82730.0 75805.0 54132.0 46294.0 317488.0 309714.0 321228.0 319120.0 70662.0 62997.0 88125.0 84901.0 201562.0 201430.0 144671.0 141320.0 76786.0 73979.0 80646.0 85062.0 154267.0 161707.0 53778.0 60050.0 244556.0 251196.0 47343.0 52937.0 78140.0 85309.0 61226.0 63774.0 17654.0 10743.0 44032.0 36336.0 273670.0 268172.0 83651.0 78762.0 24225.0 30701.0 139348.0 131637.0 56261.0 64592.0 172065.0 172045.0 94244.0 91339.0 30323.0 34382.0 51905.0 48227.0 40039.0 48084.0 37090.0 35441.0 188654.0 182384.0 275475.0 267307.0 232675.0 233587.0 224938.0 217416.0 63567.0 71521.0 61695.0 64057.0 116996.0 114268.0 108311.0 155705.0 108311.0 108311.0 108311.0 108311.0 108311.0 108311.0 108311.0 155705.0 155705.0 155705.0 155705.0 155705.0 155705.0 155705.0
114711.0 110804.0 90630.0 88940.0 28342.0 36038.0 9620.0 9326.0 73609.0 75989.0 166327.0 164201.0 59254.0 63464.0 108188.0 107952.0 81000.0 72833.0 89639.0 82540.0 187094.0 185061.0 85159.0 78065.0 238742.0 232131.0 114531.0 116929.0 200231.0 205559.0 84025.0 78990.0 110249.0 111778.0 85005.0 83232.0 54594.0 46290.0 7955.0 0.0 104356.0 96680.0 90574.0 84746.0 82118.0 89356.0 149092.0 152835.0 83632.0 79077.0 9274.0 15878.0 55139.0 47877.0 129602.0 135814.0 74096.0 81938.0 89449.0 81515.0 40648.0 33190.0 89094.0 91183.0 70593.0 66675.0 11617.0 19277.0 57615.0 50189.0 64304.0 62527.0 110435.0 117779.0 104053.0 103023.0 20301.0 19940.0 246869.0 240456.0 204605.0 204149.0 116066.0 112972.0 25632.0 18214.0 295486.0 302339.0 78387.0 71115.0 49307.0 41334.0 313227.0 305497.0 316303.0 314349.0 69683.0 62458.0 95368.0 92386.0 197935.0 198070.0 151107.0 147517.0 74489.0 70892.0 75434.0 80371.0 148737.0 156281.0 51865.0 58776.0 240888.0 247394.0 55298.0 60853.0 72217.0 79411.0 57024.0 58749.0 22308.0 17211.0 37344.0 29453.0 269033.0 263677.0 88653.0 84239.0 16497.0 23458.0 136979.0 129475.0 56104.0 64185.0 178832.0 178998.0 92722.0 90486.0 22906.0 27860.0 59077.0 54903.0 46666.0 54538.0 33283.0 33340.0 185096.0 179024.0 270370.0 262203.0 227650.0 228790.0 221522.0 214065.0 59040.0 67002.0 69614.0 72009.0 113902.0 110668.0 100915.0 149917.0 100915.0 100915.0 100915.0 100915.0 100915.0 100915.0 100915.0 149917.0 149917.0 149917.0 149917.0 149917.0 149917.0 149917.0
149120.0 151483.0 189256.0 189457.0 77610.0 70059.0 95182.0 101003.0 144108.0 150927.0 137397.0 140746.0 147082.0 146117.0 164982.0 169730.0 147454.0 143281.0 99004.0 99716.0 162896.0 165581.0 188809.0 182071.0 142487.0 135047.0 198399.0 197283.0 123513.0 125754.0 182191.0 175458.0 18774.0 12788.0 166562.0 169002.0 157230.0 149175.0 106286.0 104356.0 0.0 7999.0 180629.0 177391.0 113730.0 113724.0 58657.0 58370.0 21597.0 28468.0 112741.0 120169.0 159001.0 151430.0 69686.0 69463.0 30592.0 22435.0 129502.0 125749.0 68044.0 76144.0 170763.0 168701.0 127331.0 119254.0 109738.0 116348.0 51169.0 58864.0 54942.0 62728.0 209110.0 216888.0 200594.0 197240.0 94143.0 102030.0 148209.0 141041.0 116115.0 112860.0 49998.0 45388.0 85046.0 92186.0 209956.0 216249.0 170512.0 162322.0 61382.0 68009.0 217965.0 209991.0 226890.0 223443.0 172460.0 165933.0 126583.0 130665.0 100071.0 98424.0 146002.0 138535.0 30015.0 35535.0 50224.0 42326.0 80048.0 84094.0 52570.0 46443.0 142423.0 149706.0 127527.0 135495.0 60221.0 58814.0 52319.0 56264.0 123720.0 115936.0 80640.0 85779.0 177750.0 171192.0 186878.0 180648.0 97539.0 91032.0 33578.0 25497.0 52157.0 43970.0 175075.0 179754.0 193927.0 193050.0 111617.0 119773.0 108721.0 101176.0 140268.0 148120.0 71933.0 71088.0 87137.0 79868.0 185129.0 176874.0 142055.0 140489.0 121802.0 114081.0 52631.0 47244.0 141435.0 137393.0 209293.0 203906.0 160498.0 85675.0 160498.0 160498.0 160498.0 160498.0 160498.0 160498.0 160498.0 85675.0 85675.0 85675.0 85675.0 85675.0 85675.0 85675.0
142591.0 144709.0 182278.0 182318.0 69739.0 62154.0 87580.0 93556.0 136345.0 143112.0 134884.0 137817.0 140586.0 139902.0 157722.0 162340.0 139799.0 135515.0 92699.0 93025.0 160366.0 162695.0 181322.0 174517.0 150257.0 142856.0 192525.0 191644.0 129608.0 132151.0 175230.0 168601.0 23723.0 19504.0 160619.0 162815.0 149832.0 141738.0 98461.0 96680.0 7999.0 0.0 174238.0 170809.0 106753.0 107060.0 65432.0 65639.0 13601.0 20573.0 104984.0 112460.0 151199.0 143608.0 72790.0 73388.0 22714.0 14785.0 122472.0 118515.0 60060.0 68172.0 164849.0 163030.0 119748.0 111682.0 102322.0 109062.0 43174.0 50865.0 49858.0 57822.0 202172.0 209926.0 193813.0 190627.0 86185.0 94060.0 156113.0 148973.0 123228.0 120196.0 52784.0 48027.0 77087.0 84268.0 217076.0 223451.0 163929.0 155748.0 54854.0 61145.0 225751.0 217783.0 234347.0 230988.0 165071.0 158453.0 119866.0 123721.0 107872.0 106330.0 141731.0 134416.0 22698.0 29041.0 46515.0 39069.0 84613.0 89168.0 44831.0 38526.0 150314.0 157564.0 119644.0 127618.0 56387.0 55874.0 45894.0 50515.0 115855.0 108045.0 74126.0 78922.0 185258.0 178768.0 178887.0 172650.0 90305.0 83989.0 41577.0 33475.0 44158.0 35983.0 171109.0 175526.0 186731.0 185710.0 104570.0 112747.0 101074.0 93483.0 132272.0 140122.0 64511.0 63366.0 94914.0 87712.0 192171.0 183932.0 149045.0 147689.0 129735.0 122019.0 46574.0 41926.0 133633.0 129695.0 202626.0 197389.0 155671.0 89876.0 155671.0 155671.0 155671.0 155671.0 155671.0 155671.0 155671.0 89876.0 89876.0 89876.0 89876.0 89876.0 89876.0 89876.0
192234.0 186094.0 25791.0 33265.0 116410.0 123169.0 95612.0 87696.0 140571.0 138008.0 255783.0 253047.0 33789.0 34896.0 174433.0 170525.0 148345.0 140155.0 178340.0 170758.0 275293.0 272504.0 52132.0 54954.0 292930.0 287816.0 26044.0 31558.0 243701.0 249557.0 23189.0 18996.0 179301.0 183752.0 20418.0 13538.0 48315.0 53560.0 95068.0 90574.0 180629.0 174238.0 0.0 7927.0 166896.0 174906.0 207853.0 213987.0 163427.0 161379.0 87935.0 81246.0 73074.0 75943.0 174340.0 182344.0 154173.0 160136.0 169593.0 161787.0 128946.0 122612.0 18777.0 26267.0 147992.0 147468.0 79829.0 71769.0 143751.0 137465.0 127140.0 120347.0 36858.0 44010.0 25501.0 18722.0 110594.0 107758.0 303774.0 298825.0 253659.0 255840.0 170102.0 169242.0 116010.0 108788.0 340323.0 347176.0 12431.0 19535.0 119385.0 113448.0 362724.0 355500.0 361462.0 360333.0 44359.0 50205.0 177709.0 172619.0 257176.0 259511.0 237309.0 234750.0 151947.0 145227.0 135400.0 143283.0 192965.0 200956.0 133683.0 141689.0 297859.0 302907.0 129129.0 130065.0 126688.0 132007.0 128371.0 124669.0 88258.0 93772.0 100117.0 95932.0 316408.0 312246.0 107044.0 109961.0 87568.0 91891.0 208662.0 202806.0 142143.0 149035.0 262959.0 261813.0 37740.0 44860.0 72475.0 64713.0 143503.0 141689.0 103015.0 104983.0 112971.0 117740.0 245596.0 241451.0 315206.0 307039.0 273093.0 275808.0 281454.0 274853.0 128029.0 134069.0 137163.0 143512.0 30719.0 23756.0 64505.0 192835.0 64505.0 64505.0 64505.0 64505.0 64505.0 64505.0 64505.0 192835.0 192835.0 192835.0 192835.0 192835.0 192835.0 192835.0
184699.0 178486.0 20478.0 27215.0 111203.0 118152.0 90286.0 82457.0 132867.0 130212.0 249227.0 246356.0 30415.0 33364.0 166617.0 162660.0 140620.0 132462.0 171725.0 164083.0 268468.0 265569.0 45155.0 47480.0 292584.0 287302.0 33769.0 39479.0 243617.0 249474.0 16390.0 11157.0 176840.0 181015.0 24167.0 16208.0 40552.0 46082.0 88856.0 84746.0 177391.0 170809.0 7927.0 0.0 159860.0 167913.0 206645.0 212580.0 159658.0 157285.0 81589.0 74670.0 65163.0 68126.0 174146.0 182074.0 150300.0 156529.0 162243.0 154470.0 123789.0 117209.0 23799.0 31391.0 140595.0 140243.0 74324.0 66292.0 139022.0 132525.0 124583.0 118069.0 35263.0 42921.0 24576.0 19874.0 104554.0 101373.0 303189.0 298074.0 253575.0 255592.0 169011.0 167935.0 110317.0 102933.0 340239.0 347092.0 6880.0 15070.0 116018.0 109762.0 362640.0 355281.0 361378.0 360250.0 36518.0 42278.0 170462.0 165263.0 256185.0 258303.0 230262.0 227826.0 148350.0 141887.0 133264.0 141013.0 192881.0 200872.0 129418.0 137374.0 297249.0 302461.0 121702.0 122477.0 124857.0 130458.0 125072.0 121786.0 81254.0 87029.0 96752.0 92079.0 316324.0 312162.0 99290.0 102108.0 82855.0 87668.0 206112.0 200038.0 137419.0 144523.0 255693.0 254451.0 32115.0 38598.0 67755.0 59779.0 136537.0 134941.0 95343.0 97178.0 108610.0 112997.0 244425.0 240062.0 315123.0 306955.0 273009.0 275725.0 280485.0 273772.0 124940.0 131265.0 129490.0 135919.0 32058.0 26682.0 68264.0 192751.0 68264.0 68264.0 68264.0 68264.0 68264.0 68264.0 68264.0 192751.0 192751.0 192751.0 192751.0 192751.0 192751.0 192751.0
38017.0 38385.0 158947.0 154332.0 71050.0 71010.0 82809.0 89521.0 44697.0 52560.0 92305.0 88110.0 139306.0 144641.0 52157.0 58057.0 43080.0 44241.0 21210.0 15586.0 109123.0 105813.0 141754.0 133658.0 254283.0 246542.0 192449.0 196077.0 235658.0 238631.0 153796.0 151386.0 129947.0 126207.0 165298.0 162230.0 121229.0 114274.0 75176.0 82118.0 113730.0 106753.0 166896.0 159860.0 0.0 8262.0 172185.0 172075.0 95504.0 87621.0 80952.0 86394.0 103910.0 97358.0 172024.0 175145.0 91124.0 98196.0 15831.0 14420.0 66125.0 64507.0 169143.0 172156.0 25560.0 21249.0 93613.0 100582.0 71699.0 68010.0 113255.0 117387.0 176502.0 182435.0 173630.0 175130.0 63304.0 62234.0 258328.0 250680.0 229844.0 226452.0 152954.0 148375.0 63842.0 66937.0 323680.0 329932.0 154491.0 148517.0 100042.0 96044.0 329211.0 321194.0 340102.0 336334.0 132698.0 124395.0 14913.0 16982.0 211974.0 209190.0 70413.0 68160.0 96635.0 100798.0 121511.0 120796.0 187699.0 193451.0 82336.0 80709.0 252834.0 260519.0 41764.0 45604.0 125155.0 130780.0 100550.0 107708.0 78639.0 73552.0 104144.0 99553.0 290859.0 284050.0 106259.0 98182.0 94591.0 97198.0 144187.0 135830.0 71940.0 76423.0 96950.0 96889.0 156177.0 150652.0 104994.0 109557.0 23531.0 27405.0 70221.0 73408.0 85814.0 77901.0 199364.0 191670.0 298855.0 290603.0 255761.0 254189.0 231716.0 223998.0 104206.0 109554.0 44722.0 36865.0 183884.0 183013.0 182844.0 191700.0 182844.0 182844.0 182844.0 182844.0 182844.0 182844.0 182844.0 191700.0 191700.0 191700.0 191700.0 191700.0 191700.0 191700.0
35672.0 37848.0 167168.0 162579.0 76638.0 75925.0 89557.0 96483.0 51828.0 59574.0 84076.0 79848.0 147006.0 152200.0 54881.0 61489.0 49438.0 51437.0 16551.0 14039.0 100910.0 97687.0 150008.0 141913.0 252978.0 245171.0 200399.0 203936.0 236491.0 239201.0 161988.0 159515.0 130545.0 126365.0 173009.0 170065.0 129412.0 122410.0 82601.0 89356.0 113724.0 107060.0 174906.0 167913.0 8262.0 0.0 172365.0 171868.0 96469.0 88638.0 88579.0 94210.0 112168.0 105619.0 174148.0 176920.0 92846.0 99494.0 18776.0 20534.0 70670.0 69848.0 176886.0 179777.0 33244.0 29455.0 100913.0 108027.0 74466.0 71544.0 117099.0 121648.0 184756.0 190696.0 181845.0 183297.0 70138.0 69576.0 256595.0 248870.0 229674.0 226009.0 154796.0 150148.0 69981.0 73626.0 323415.0 329538.0 162492.0 156438.0 104473.0 100953.0 327615.0 319597.0 339254.0 335314.0 140944.0 132639.0 12910.0 18567.0 210819.0 207767.0 62447.0 59992.0 98600.0 103335.0 124874.0 123651.0 189294.0 194806.0 85907.0 83567.0 251181.0 258938.0 49967.0 53570.0 129063.0 134425.0 104345.0 111721.0 86664.0 81401.0 109747.0 105531.0 289997.0 283073.0 113847.0 105747.0 101294.0 103510.0 143206.0 134931.0 74873.0 78587.0 89483.0 89758.0 164436.0 158914.0 112164.0 116962.0 31411.0 34453.0 78462.0 81548.0 91035.0 83021.0 198346.0 190568.0 298718.0 290449.0 255716.0 253876.0 230025.0 222337.0 108006.0 112937.0 52174.0 44151.0 192100.0 191182.0 189830.0 193544.0 189830.0 189830.0 189830.0 189830.0 189830.0 189830.0 189830.0 193544.0 193544.0 193544.0 193544.0 193544.0 193544.0 193544.0
207776.0 210089.0 222290.0 224324.0 126607.0 120073.0 139474.0 143151.0 200091.0 206445.0 188052.0 192661.0 176875.0 173342.0 222995.0 227406.0 204109.0 199242.0 157629.0 158346.0 213113.0 216952.0 228072.0 222431.0 89653.0 83154.0 219997.0 216769.0 65785.0 67343.0 215255.0 207626.0 42728.0 46009.0 190186.0 194762.0 196215.0 188932.0 153157.0 149092.0 58657.0 65432.0 207853.0 206645.0 172185.0 172365.0 0.0 8049.0 77306.0 85119.0 158262.0 164659.0 203838.0 196841.0 41056.0 34066.0 83746.0 75578.0 187900.0 183837.0 120057.0 127368.0 193918.0 189769.0 184394.0 176390.0 151011.0 155804.0 105488.0 112301.0 86183.0 90712.0 241131.0 248987.0 231129.0 226107.0 144239.0 152241.0 98267.0 92352.0 58108.0 55972.0 37806.0 38742.0 135518.0 141379.0 151827.0 158349.0 200051.0 192120.0 99995.0 107971.0 164374.0 156574.0 170111.0 167264.0 210852.0 205697.0 185209.0 189152.0 49849.0 51665.0 201516.0 193757.0 79869.0 80042.0 75623.0 69247.0 35058.0 34068.0 101793.0 98359.0 92263.0 98465.0 182475.0 190453.0 82518.0 76377.0 92079.0 91022.0 170722.0 163701.0 116188.0 123520.0 121493.0 115534.0 236615.0 231214.0 137681.0 129897.0 36140.0 41956.0 106045.0 98892.0 229574.0 234909.0 229342.0 230266.0 148900.0 156329.0 165562.0 157821.0 191004.0 199127.0 116101.0 118472.0 37782.0 33908.0 126830.0 118613.0 83673.0 82715.0 74095.0 67183.0 90120.0 82199.0 197116.0 193838.0 238352.0 231577.0 176257.0 42206.0 176257.0 176257.0 176257.0 176257.0 176257.0 176257.0 176257.0 42206.0 42206.0 42206.0 42206.0 42206.0 42206.0 42206.0
207065.0 209687.0 227878.0 229712.0 129471.0 122693.0 143221.0 147241.0 201462.0 207995.0 183986.0 188847.0 182645.0 179346.0 223325.0 227978.0 205207.0 200620.0 156782.0 157902.0 208869.0 212937.0 232922.0 227118.0 86300.0 79422.0 226645.0 223570.0 68955.0 69619.0 220820.0 213265.0 44219.0 46165.0 196581.0 200987.0 201006.0 193594.0 156573.0 152835.0 58370.0 65639.0 213987.0 212580.0 172075.0 171868.0 8049.0 0.0 78183.0 85853.0 161931.0 168526.0 207800.0 200687.0 49018.0 42107.0 85289.0 76936.0 187859.0 184099.0 122273.0 129804.0 200365.0 196371.0 185283.0 177235.0 155278.0 160346.0 107053.0 114136.0 90828.0 95814.0 246876.0 254740.0 237004.0 232135.0 147009.0 155029.0 94037.0 87741.0 57807.0 54561.0 44405.0 44768.0 138162.0 144309.0 151608.0 157880.0 205937.0 197952.0 104074.0 112004.0 161549.0 153670.0 168781.0 165583.0 215768.0 210416.0 184758.0 188992.0 45140.0 46017.0 198652.0 190820.0 81903.0 82873.0 80574.0 73775.0 42748.0 41104.0 104357.0 100378.0 88054.0 94622.0 184179.0 192169.0 87993.0 82130.0 95857.0 95386.0 174199.0 167012.0 120878.0 128027.0 119799.0 113502.0 239751.0 234161.0 142008.0 134324.0 31902.0 38783.0 107720.0 100245.0 226317.0 231845.0 234678.0 235386.0 153676.0 161242.0 166532.0 158864.0 193823.0 201908.0 119655.0 121545.0 32468.0 27481.0 126851.0 118584.0 83884.0 82120.0 69056.0 61855.0 94137.0 86309.0 198595.0 195016.0 244391.0 237733.0 183114.0 49871.0 183114.0 183114.0 183114.0 183114.0 183114.0 183114.0 183114.0 49871.0 49871.0 49871.0 49871.0 49871.0 49871.0 49871.0
132136.0 133756.0 170399.0 170152.0 56349.0 48705.0 74692.0 80957.0 123338.0 129984.0 132035.0 134199.0 129659.0 129496.0 145758.0 150101.0 127025.0 122500.0 82959.0 82463.0 157321.0 159005.0 168542.0 161624.0 163424.0 156091.0 182608.0 182146.0 140161.0 143167.0 163391.0 156958.0 34643.0 32180.0 150650.0 152398.0 137235.0 129077.0 85132.0 83632.0 21597.0 13601.0 163427.0 159658.0 95504.0 96469.0 77306.0 78183.0 0.0 7886.0 91774.0 99334.0 137888.0 130263.0 79302.0 81119.0 9599.0 4886.0 111055.0 106677.0 46469.0 54598.0 154920.0 153548.0 107154.0 99127.0 89763.0 96737.0 29618.0 37272.0 42895.0 50909.0 190346.0 198050.0 182273.0 179391.0 72630.0 80486.0 169509.0 162421.0 135374.0 132693.0 59382.0 54612.0 63531.0 70779.0 229133.0 235638.0 152789.0 144641.0 44550.0 49980.0 238926.0 230972.0 246955.0 243747.0 152476.0 145701.0 109108.0 112479.0 121110.0 119742.0 135629.0 128644.0 12021.0 20213.0 42562.0 36584.0 93134.0 98401.0 31813.0 25090.0 163687.0 170879.0 106369.0 114354.0 51677.0 52894.0 36096.0 42083.0 102445.0 94594.0 63540.0 67580.0 197974.0 191600.0 165288.0 159051.0 78139.0 72234.0 55172.0 47070.0 30572.0 22472.0 165425.0 169342.0 174461.0 173187.0 92717.0 100906.0 88367.0 80683.0 118672.0 126524.0 52086.0 50294.0 108123.0 101031.0 204117.0 195910.0 160954.0 159937.0 143187.0 135482.0 37608.0 34895.0 120539.0 116836.0 191281.0 186315.0 147836.0 97785.0 147836.0 147836.0 147836.0 147836.0 147836.0 147836.0 147836.0 97785.0 97785.0 97785.0 97785.0 97785.0 97785.0 97785.0
124309.0 125882.0 167229.0 166645.0 51194.0 43434.0 70472.0 77156.0 115817.0 122551.0 126678.0 128497.0 127594.0 127929.0 137906.0 142293.0 119379.0 114984.0 75283.0 74644.0 151810.0 153213.0 164218.0 157135.0 170813.0 163424.0 181330.0 181224.0 148040.0 151053.0 160277.0 154075.0 42499.0 39737.0 149404.0 150747.0 133227.0 124998.0 79981.0 79077.0 28468.0 20573.0 161379.0 157285.0 87621.0 88638.0 85119.0 85853.0 7886.0 0.0 86869.0 94571.0 132661.0 124968.0 86657.0 88709.0 8694.0 11195.0 103169.0 98807.0 40479.0 48705.0 153698.0 152708.0 99433.0 91391.0 85970.0 93232.0 23061.0 30926.0 45143.0 52941.0 187203.0 194842.0 179455.0 176893.0 66773.0 74495.0 176671.0 169509.0 143160.0 140395.0 66838.0 62091.0 57709.0 65220.0 236944.0 243425.0 150443.0 142350.0 44011.0 48387.0 246311.0 238346.0 254633.0 251368.0 148443.0 141454.0 101255.0 104595.0 128439.0 126887.0 128936.0 122087.0 14403.0 22673.0 46622.0 41578.0 100833.0 106188.0 28032.0 20407.0 170879.0 178137.0 99073.0 107046.0 55059.0 57166.0 36379.0 43282.0 97035.0 89082.0 62300.0 65492.0 205610.0 199187.0 158942.0 152558.0 74956.0 69617.0 61903.0 53643.0 24220.0 15813.0 158837.0 162571.0 170819.0 169218.0 89825.0 97983.0 80683.0 73038.0 112277.0 120038.0 48845.0 45967.0 115476.0 108285.0 211943.0 203731.0 168782.0 167706.0 150270.0 142548.0 38559.0 37448.0 113078.0 109229.0 188652.0 183967.0 148365.0 105378.0 148365.0 148365.0 148365.0 148365.0 148365.0 148365.0 148365.0 105378.0 105378.0 105378.0 105378.0 105378.0 105378.0 105378.0
111567.0 107093.0 85546.0 83191.0 35697.0 43474.0 18826.0 17468.0 67596.0 69255.0 167896.0 165334.0 58454.0 63704.0 102715.0 101917.0 75234.0 66863.0 90572.0 83126.0 187867.0 185447.0 77878.0 70521.0 247903.0 241264.0 112709.0 115730.0 209472.0 214819.0 79211.0 74848.0 119156.0 120491.0 84458.0 81832.0 48370.0 40105.0 7607.0 9274.0 112741.0 104984.0 87935.0 81589.0 80952.0 88579.0 158262.0 161931.0 91774.0 86869.0 0.0 7924.0 46342.0 38928.0 138827.0 145069.0 82310.0 90306.0 86742.0 78741.0 47409.0 39477.0 88378.0 91209.0 66793.0 63820.0 15059.0 20182.0 64825.0 57157.0 73578.0 71736.0 105084.0 112221.0 99426.0 99059.0 23574.0 19825.0 255954.0 249503.0 213865.0 213381.0 125339.0 122237.0 31013.0 23022.0 304759.0 311612.0 75556.0 68795.0 58556.0 50591.0 322443.0 314705.0 325576.0 323618.0 63111.0 55505.0 93419.0 89741.0 207010.0 207068.0 150875.0 147738.0 83023.0 79746.0 84707.0 89620.0 157982.0 165537.0 60171.0 66754.0 249977.0 256517.0 50134.0 54870.0 81416.0 88611.0 66183.0 68017.0 13130.0 9610.0 46338.0 38382.0 278292.0 272922.0 79391.0 75048.0 24671.0 32174.0 145588.0 137986.0 63375.0 71640.0 177900.0 177648.0 86652.0 83818.0 26677.0 29196.0 57481.0 54444.0 38148.0 45835.0 42290.0 41664.0 194150.0 188019.0 279643.0 271475.0 236924.0 238058.0 230539.0 223062.0 68259.0 76225.0 63595.0 66826.0 109464.0 106834.0 103862.0 159119.0 103862.0 103862.0 103862.0 103862.0 103862.0 103862.0 103862.0 159119.0 159119.0 159119.0 159119.0 159119.0 159119.0 159119.0
115469.0 110553.0 77880.0 75370.0 43464.0 51240.0 25384.0 21973.0 69126.0 69891.0 174570.0 171804.0 53065.0 58961.0 104549.0 103140.0 76955.0 68450.0 97097.0 89516.0 194133.0 191512.0 69988.0 62676.0 254310.0 247756.0 106368.0 109731.0 214649.0 220162.0 71636.0 67525.0 126093.0 127656.0 78992.0 75855.0 40506.0 32267.0 15474.0 15878.0 120169.0 112460.0 81246.0 74670.0 86394.0 94210.0 164659.0 168526.0 99334.0 94571.0 7924.0 0.0 39313.0 32182.0 143944.0 150397.0 89830.0 97740.0 91109.0 83115.0 55294.0 47391.0 82783.0 86080.0 70476.0 68277.0 16293.0 18113.0 72661.0 65026.0 79333.0 76900.0 97331.0 104419.0 91878.0 91746.0 31346.0 26882.0 262563.0 256193.0 219794.0 219507.0 131102.0 128157.0 38933.0 30938.0 310307.0 317159.0 68824.0 62373.0 64702.0 56715.0 328637.0 320933.0 331249.0 329422.0 55196.0 47582.0 98283.0 94134.0 213647.0 213855.0 156641.0 153763.0 90341.0 86758.0 90419.0 95708.0 163216.0 170860.0 67630.0 74376.0 256577.0 263034.0 52845.0 56622.0 86497.0 93676.0 72671.0 73961.0 10919.0 12870.0 50984.0 43001.0 284218.0 278959.0 74362.0 70618.0 28608.0 36540.0 152850.0 145328.0 71199.0 79430.0 183202.0 182680.0 78776.0 75895.0 26221.0 26432.0 62865.0 60513.0 36383.0 43420.0 49116.0 49095.0 200832.0 194812.0 285190.0 277023.0 242549.0 243873.0 237289.0 229849.0 74541.0 82478.0 65170.0 69249.0 101966.0 99559.0 100912.0 164086.0 100912.0 100912.0 100912.0 100912.0 100912.0 100912.0 100912.0 164086.0 164086.0 164086.0 164086.0 164086.0 164086.0 164086.0
122737.0 115840.0 57569.0 51695.0 81559.0 89269.0 64694.0 60719.0 69676.0 65984.0 196134.0 192009.0 60461.0 68729.0 102030.0 97696.0 77077.0 69406.0 120032.0 112062.0 212555.0 208647.0 37892.0 29781.0 293468.0 286969.0 98742.0 104629.0 252268.0 258051.0 53955.0 54467.0 165388.0 166829.0 80908.0 74544.0 25859.0 25081.0 52756.0 55139.0 159001.0 151199.0 73074.0 65163.0 103910.0 112168.0 203838.0 207800.0 137888.0 132661.0 46342.0 39313.0 0.0 7807.0 181653.0 188411.0 128494.0 136572.0 102622.0 95439.0 92465.0 84260.0 83300.0 89320.0 81019.0 82817.0 53260.0 50151.0 110100.0 102249.0 118129.0 115072.0 73291.0 78777.0 72126.0 75404.0 66499.0 59507.0 301830.0 295489.0 258514.0 258441.0 169744.0 166975.0 75302.0 67532.0 348478.0 355331.0 62245.0 59989.0 103843.0 95869.0 367600.0 359930.0 369555.0 367917.0 30752.0 23237.0 111810.0 105521.0 252930.0 253167.0 172667.0 171476.0 129354.0 126020.0 129127.0 134736.0 201049.0 208813.0 106444.0 112806.0 295842.0 302259.0 62507.0 61030.0 124479.0 131578.0 111946.0 112939.0 35731.0 43794.0 88900.0 81082.0 322895.0 317770.0 41087.0 40699.0 66593.0 74566.0 191926.0 184298.0 108741.0 117139.0 195748.0 193635.0 52781.0 46796.0 58543.0 53567.0 82549.0 83791.0 33936.0 33284.0 88416.0 87977.0 240128.0 234125.0 323362.0 315194.0 280847.0 282434.0 276597.0 269162.0 113732.0 121640.0 66731.0 74027.0 82151.0 82994.0 114021.0 201470.0 114021.0 114021.0 114021.0 114021.0 114021.0 114021.0 114021.0 201470.0 201470.0 201470.0 201470.0 201470.0 201470.0 201470.0
117717.0 111082.0 62581.0 57275.0 73917.0 81606.0 57477.0 53908.0 65070.0 62096.0 189428.0 185458.0 59803.0 67873.0 98492.0 94668.0 72700.0 64724.0 112985.0 105019.0 206264.0 202519.0 44915.0 36819.0 286491.0 279936.0 101889.0 107353.0 246087.0 251763.0 58332.0 57872.0 158075.0 159394.0 81912.0 76061.0 27681.0 24465.0 45147.0 47877.0 151430.0 143608.0 75943.0 68126.0 97358.0 105619.0 196841.0 200687.0 130263.0 124968.0 38928.0 32182.0 7807.0 0.0 175410.0 182050.0 120896.0 129010.0 96821.0 89459.0 84722.0 76510.0 84627.0 90210.0 75100.0 76415.0 46834.0 44493.0 102360.0 94501.0 111379.0 108596.0 79258.0 85078.0 77273.0 79937.0 58714.0 51701.0 294724.0 288329.0 251837.0 251636.0 163094.0 160230.0 67541.0 59799.0 342076.0 348929.0 64522.0 61320.0 96875.0 88889.0 360779.0 353085.0 363099.0 361368.0 35792.0 27689.0 105811.0 99762.0 245799.0 245945.0 166607.0 165192.0 121855.0 118672.0 122428.0 127855.0 194766.0 202485.0 98898.0 105174.0 288740.0 295212.0 56347.0 55571.0 118086.0 125223.0 104840.0 106084.0 27974.0 36022.0 82469.0 74574.0 316247.0 311045.0 44801.0 43047.0 60055.0 68052.0 184432.0 176763.0 101010.0 109416.0 190235.0 188353.0 58850.0 53376.0 53101.0 48876.0 75586.0 76518.0 28141.0 29056.0 81149.0 80471.0 232968.0 226897.0 316959.0 308792.0 274385.0 275845.0 269399.0 261940.0 106723.0 114656.0 61882.0 68822.0 87431.0 87670.0 112529.0 195359.0 112529.0 112529.0 112529.0 112529.0 112529.0 112529.0 112529.0 195359.0 195359.0 195359.0 195359.0 195359.0 195359.0 195359.0
209658.0 210346.0 191393.0 194431.0 113043.0 108265.0 120371.0 121991.0 191522.0 196792.0 207083.0 210360.0 145624.0 140905.0 219247.0 222333.0 196844.0 190655.0 161700.0 160373.0 232582.0 235216.0 200885.0 196164.0 118612.0 113692.0 184055.0 180558.0 70707.0 76406.0 184552.0 176631.0 51250.0 58768.0 155523.0 160916.0 169806.0 163347.0 135284.0 129602.0 69686.0 72790.0 174340.0 174146.0 172024.0 174148.0 41056.0 49018.0 79302.0 86657.0 138827.0 143944.0 181653.0 175410.0 0.0 8150.0 81388.0 75469.0 186893.0 181410.0 110424.0 116068.0 158956.0 154099.0 178737.0 171211.0 128577.0 131692.0 100483.0 105285.0 65968.0 67101.0 209277.0 217027.0 198704.0 192961.0 130228.0 137782.0 129756.0 125257.0 79514.0 81500.0 20052.0 24843.0 122630.0 126648.0 167031.0 173884.0 167879.0 160324.0 81644.0 89182.0 188862.0 181555.0 188183.0 186931.0 183552.0 179507.0 186362.0 188715.0 85164.0 88963.0 214328.0 207104.0 75548.0 71388.0 55045.0 52642.0 19441.0 27343.0 91819.0 91673.0 123909.0 128669.0 172662.0 180350.0 57455.0 50269.0 76335.0 71927.0 151910.0 146010.0 93001.0 100960.0 142747.0 138407.0 218164.0 213831.0 115445.0 107457.0 66278.0 67658.0 100412.0 95639.0 243839.0 248117.0 199654.0 201670.0 123724.0 130169.0 160115.0 152305.0 175118.0 183245.0 99423.0 104298.0 75254.0 73407.0 141915.0 133747.0 99665.0 102101.0 108925.0 103054.0 73205.0 65811.0 188060.0 186422.0 205059.0 197759.0 140034.0 20556.0 140034.0 140034.0 140034.0 140034.0 140034.0 140034.0 140034.0 20556.0 20556.0 20556.0 20556.0 20556.0 20556.0 20556.0
212536.0 213524.0 199194.0 202138.0 118193.0 113073.0 126479.0 128424.0 196195.0 201662.0 206549.0 210119.0 153415.0 148801.0 223166.0 226490.0 201311.0 195329.0 163985.0 163036.0 232018.0 234917.0 208307.0 203472.0 110587.0 105600.0 192155.0 188658.0 64494.0 69769.0 192329.0 184429.0 50715.0 57786.0 163591.0 168935.0 177095.0 170522.0 141269.0 135814.0 69463.0 73388.0 182344.0 182074.0 175145.0 176920.0 34066.0 42107.0 81119.0 88709.0 145069.0 150397.0 188411.0 182050.0 8150.0 0.0 84094.0 77611.0 190226.0 184980.0 114867.0 120850.0 167042.0 162199.0 182868.0 175230.0 135227.0 138593.0 103982.0 109207.0 71752.0 73501.0 217172.0 224935.0 206640.0 200948.0 135563.0 143230.0 121650.0 117117.0 71756.0 73522.0 22208.0 26780.0 127731.0 132083.0 160072.0 166925.0 175775.0 168181.0 87321.0 95015.0 181240.0 173883.0 181187.0 179762.0 190967.0 186784.0 189299.0 191951.0 77051.0 80935.0 215108.0 207755.0 78514.0 75102.0 60677.0 57422.0 13099.0 20470.0 96126.0 95371.0 115795.0 120606.0 177484.0 185246.0 63964.0 56836.0 81475.0 77605.0 158104.0 152011.0 99581.0 107495.0 135316.0 130822.0 224458.0 219960.0 122010.0 114011.0 62168.0 64468.0 104026.0 98749.0 244397.0 248900.0 207344.0 209249.0 130745.0 137342.0 164133.0 156299.0 180933.0 189081.0 104993.0 109482.0 67280.0 65669.0 134956.0 126789.0 92531.0 94663.0 100782.0 94937.0 78509.0 70884.0 192805.0 190884.0 213061.0 205793.0 148135.0 16669.0 148135.0 148135.0 148135.0 148135.0 148135.0 148135.0 148135.0 16669.0 16669.0 16669.0 16669.0 16669.0 16669.0 16669.0
128444.0 129508.0 160864.0 160575.0 47028.0 39467.0 65115.0 71359.0 116348.0 122757.0 134776.0 136386.0 120389.0 120413.0 140257.0 144225.0 120421.0 115499.0 80395.0 79010.0 159802.0 161019.0 158958.0 152057.0 171118.0 163903.0 173668.0 173378.0 145035.0 148461.0 153864.0 147473.0 41133.0 40000.0 141716.0 143289.0 127637.0 119482.0 75749.0 74096.0 30592.0 22714.0 154173.0 150300.0 91124.0 92846.0 83746.0 85289.0 9599.0 8694.0 82310.0 89830.0 128494.0 120896.0 81388.0 84094.0 0.0 8481.0 106371.0 101488.0 37692.0 45686.0 145998.0 144814.0 100897.0 92965.0 80165.0 87152.0 21773.0 28953.0 36455.0 44247.0 180817.0 188512.0 172806.0 170002.0 63615.0 71539.0 177603.0 170633.0 141828.0 139545.0 61952.0 57316.0 54526.0 61599.0 235343.0 241989.0 143437.0 135304.0 35857.0 40796.0 246581.0 238654.0 253804.0 250794.0 142879.0 136113.0 105206.0 107997.0 128969.0 127913.0 135919.0 129239.0 6325.0 14134.0 38330.0 33836.0 96579.0 102370.0 22244.0 15869.0 171739.0 178815.0 98891.0 106881.0 46513.0 48905.0 27900.0 34638.0 93143.0 85346.0 54539.0 58256.0 204998.0 198783.0 156501.0 150399.0 68579.0 62771.0 63989.0 56056.0 22441.0 15225.0 165912.0 169415.0 164874.0 163588.0 83211.0 91398.0 82021.0 74228.0 109970.0 117896.0 42504.0 40756.0 115959.0 109060.0 210242.0 202070.0 167097.0 166450.0 151420.0 143750.0 29941.0 28802.0 113396.0 110120.0 181859.0 176970.0 139943.0 100704.0 139943.0 139943.0 139943.0 139943.0 139943.0 139943.0 139943.0 100704.0 100704.0 100704.0 100704.0 100704.0 100704.0 100704.0
135160.0 136537.0 167684.0 167631.0 55249.0 47769.0 72807.0 78776.0 124584.0 131064.0 136792.0 138882.0 126410.0 126016.0 147923.0 152058.0 128531.0 123738.0 86380.0 85541.0 162051.0 163668.0 166537.0 159737.0 162674.0 155444.0 178959.0 178353.0 137552.0 140782.0 160650.0 154096.0 32875.0 31520.0 147009.0 148933.0 135056.0 126956.0 83871.0 81938.0 22435.0 14785.0 160136.0 156529.0 98196.0 99494.0 75578.0 76936.0 4886.0 11195.0 90306.0 97740.0 136572.0 129010.0 75469.0 77611.0 8481.0 0.0 113618.0 108986.0 46157.0 54119.0 151266.0 149739.0 108867.0 100892.0 87546.0 94324.0 30134.0 37419.0 38310.0 46347.0 187601.0 195337.0 179356.0 176310.0 72003.0 79946.0 169124.0 162152.0 133685.0 131278.0 55678.0 50943.0 62924.0 69907.0 227303.0 233899.0 149652.0 141485.0 40906.0 46767.0 238146.0 230215.0 245553.0 242487.0 150296.0 143668.0 112027.0 115139.0 120502.0 119432.0 139949.0 133030.0 8189.0 15823.0 37691.0 31712.0 89830.0 95329.0 30135.0 24263.0 163261.0 170344.0 107254.0 115245.0 46859.0 48009.0 32207.0 37802.0 101338.0 93591.0 60071.0 64496.0 196694.0 190438.0 164936.0 158859.0 75596.0 69402.0 55630.0 47786.0 30868.0 23336.0 169801.0 173622.0 172017.0 170946.0 89963.0 98148.0 90013.0 82255.0 118426.0 126362.0 49740.0 48654.0 107494.0 100581.0 202224.0 194044.0 159071.0 158293.0 142940.0 135270.0 33449.0 30279.0 121676.0 118265.0 188259.0 183154.0 143565.0 94275.0 143565.0 143565.0 143565.0 143565.0 143565.0 143565.0 143565.0 94275.0 94275.0 94275.0 94275.0 94275.0 94275.0 94275.0
25555.0 23743.0 159321.0 154074.0 82567.0 83565.0 91638.0 97637.0 36514.0 43685.0 96924.0 91613.0 144081.0 150052.0 36526.0 42823.0 32474.0 36330.0 35191.0 30990.0 110635.0 106284.0 139894.0 131914.0 270098.0 262351.0 195485.0 199689.0 251154.0 254219.0 154690.0 153084.0 145574.0 141944.0 169868.0 166130.0 122472.0 116183.0 81942.0 89449.0 129502.0 122472.0 169593.0 162243.0 15831.0 18776.0 187900.0 187859.0 111055.0 103169.0 86742.0 91109.0 102622.0 96821.0 186893.0 190226.0 106371.0 113618.0 0.0 8004.0 79226.0 76538.0 173523.0 177136.0 21764.0 22922.0 100546.0 106865.0 86414.0 82147.0 126786.0 130421.0 175898.0 181351.0 174034.0 176257.0 72287.0 69634.0 274087.0 266424.0 245615.0 242258.0 168020.0 163486.0 74461.0 76219.0 339457.0 345727.0 157324.0 151947.0 112961.0 108345.0 344996.0 336979.0 355932.0 352164.0 132606.0 124435.0 9945.0 3036.0 227798.0 224991.0 70242.0 69786.0 111739.0 115531.0 135497.0 135227.0 202868.0 208741.0 96319.0 95302.0 268607.0 276303.0 40687.0 41727.0 138567.0 144455.0 114198.0 121080.0 82094.0 78330.0 115257.0 109985.0 306689.0 299881.0 98901.0 90780.0 103379.0 106929.0 160015.0 151660.0 86533.0 91490.0 93584.0 92219.0 155397.0 149271.0 112253.0 115901.0 31152.0 37594.0 68760.0 70211.0 97740.0 90072.0 215193.0 207496.0 314613.0 306364.0 271506.0 269978.0 247481.0 239767.0 117828.0 123565.0 37885.0 29741.0 184223.0 184086.0 190251.0 206726.0 190251.0 190251.0 190251.0 190251.0 190251.0 190251.0 190251.0 206726.0 206726.0 206726.0 206726.0 206726.0 206726.0 206726.0
33288.0 30561.0 151860.0 146734.0 75433.0 76815.0 83865.0 89765.0 31472.0 39119.0 102607.0 97658.0 136101.0 142053.0 39237.0 44441.0 28944.0 31137.0 35575.0 29860.0 117320.0 113228.0 132911.0 124891.0 267145.0 259460.0 187650.0 191799.0 246497.0 249758.0 147132.0 145398.0 141304.0 138019.0 161903.0 158207.0 114829.0 108437.0 73979.0 81515.0 125749.0 118515.0 161787.0 154470.0 14420.0 20534.0 183837.0 184099.0 106677.0 98807.0 78741.0 83115.0 95439.0 89459.0 181410.0 184980.0 101488.0 108986.0 8004.0 0.0 72753.0 69614.0 165570.0 169153.0 14433.0 14923.0 92577.0 98868.0 81002.0 76282.0 120380.0 123748.0 168648.0 174214.0 166578.0 168674.0 64589.0 61738.0 271505.0 263916.0 241742.0 238608.0 162779.0 158306.0 67101.0 68559.0 335587.0 341959.0 149496.0 144058.0 106271.0 101404.0 342255.0 334241.0 352537.0 348917.0 125210.0 117004.0 16371.0 11021.0 224756.0 222179.0 77229.0 76306.0 106650.0 110028.0 129353.0 129412.0 197723.0 203758.0 90279.0 89738.0 265958.0 273584.0 33151.0 34920.0 132072.0 138099.0 107888.0 114598.0 74153.0 70329.0 107908.0 102474.0 303333.0 296627.0 93802.0 85681.0 95581.0 99278.0 156936.0 148535.0 81009.0 86429.0 101253.0 100052.0 148170.0 142178.0 104296.0 107904.0 23651.0 30540.0 61512.0 63428.0 90690.0 83138.0 212049.0 204433.0 310654.0 302424.0 267507.0 266195.0 244881.0 237147.0 111494.0 117463.0 32177.0 24017.0 176785.0 176516.0 182282.0 201399.0 182282.0 182282.0 182282.0 182282.0 182282.0 182282.0 182282.0 201399.0 201399.0 201399.0 201399.0 201399.0 201399.0 201399.0
103914.0 102958.0 131082.0 129575.0 12604.0 6381.0 33574.0 41333.0 81391.0 87130.0 134722.0 134036.0 95919.0 98204.0 109230.0 111985.0 86456.0 80525.0 63858.0 59033.0 157666.0 156971.0 125282.0 117920.0 208423.0 201306.0 151401.0 152689.0 178360.0 182528.0 124373.0 118956.0 78094.0 77631.0 120290.0 120006.0 95202.0 86892.0 40150.0 40648.0 68044.0 60060.0 128946.0 123789.0 66125.0 70670.0 120057.0 122273.0 46469.0 40479.0 47409.0 55294.0 92465.0 84722.0 110424.0 114867.0 37692.0 46157.0 79226.0 72753.0 0.0 8237.0 124564.0 125163.0 68479.0 61188.0 49660.0 57591.0 17639.0 9797.0 47626.0 51291.0 150957.0 158359.0 144226.0 142697.0 26295.0 34050.0 215176.0 208262.0 177782.0 176030.0 92994.0 88891.0 17247.0 24938.0 270634.0 277499.0 117164.0 109436.0 33917.0 30448.0 283800.0 275903.0 290053.0 287316.0 110218.0 102805.0 81038.0 81510.0 166435.0 165540.0 126112.0 120967.0 40376.0 40534.0 56847.0 57800.0 127897.0 134571.0 18794.0 21986.0 209292.0 216295.0 62948.0 70845.0 59348.0 65353.0 35202.0 41863.0 56749.0 48731.0 40999.0 39049.0 241550.0 235539.0 118847.0 112708.0 41838.0 39790.0 101585.0 93534.0 16317.0 24753.0 155687.0 157487.0 133369.0 131003.0 56672.0 64242.0 50175.0 42529.0 72282.0 80205.0 21542.0 13650.0 153426.0 146639.0 245552.0 237365.0 202484.0 202394.0 189062.0 181404.0 38777.0 45110.0 78085.0 76030.0 153911.0 150177.0 127471.0 130820.0 127471.0 127471.0 127471.0 127471.0 127471.0 127471.0 127471.0 130820.0 130820.0 130820.0 130820.0 130820.0 130820.0 130820.0
101710.0 100115.0 123814.0 122082.0 7238.0 7806.0 27007.0 34962.0 75459.0 80812.0 138194.0 137051.0 89989.0 92778.0 104755.0 107026.0 80958.0 74591.0 64930.0 59306.0 160533.0 159443.0 117342.0 109921.0 216038.0 208977.0 145585.0 147200.0 184722.0 189081.0 117182.0 111982.0 85708.0 85513.0 114838.0 114144.0 87539.0 79230.0 32112.0 33190.0 76144.0 68172.0 122612.0 117209.0 64507.0 69848.0 127368.0 129804.0 54598.0 48705.0 39477.0 47391.0 84260.0 76510.0 116068.0 120850.0 45686.0 54119.0 76538.0 69614.0 8237.0 0.0 119078.0 120068.0 63905.0 57050.0 42888.0 50919.0 25865.0 17992.0 51734.0 54325.0 143625.0 150959.0 137152.0 135878.0 18072.0 25888.0 222957.0 216094.0 184895.0 183323.0 99208.0 95251.0 9010.0 16766.0 277543.0 284393.0 110670.0 103077.0 36889.0 31809.0 291353.0 283472.0 297197.0 294565.0 102472.0 94963.0 79322.0 79008.0 174155.0 173378.0 127582.0 122848.0 48027.0 47460.0 61674.0 63481.0 133928.0 140777.0 25598.0 29863.0 217059.0 224009.0 56635.0 64405.0 63026.0 69440.0 39936.0 45753.0 48535.0 40507.0 39955.0 36462.0 248827.0 242898.0 110818.0 104777.0 36545.0 35896.0 109651.0 101640.0 24553.0 32989.0 156795.0 158181.0 125777.0 123229.0 50868.0 58093.0 46323.0 39074.0 64336.0 72317.0 21314.0 13535.0 161151.0 154440.0 252427.0 244215.0 209394.0 209482.0 196910.0 189269.0 43320.0 50306.0 71995.0 70574.0 146933.0 143436.0 124066.0 136565.0 124066.0 124066.0 124066.0 124066.0 124066.0 124066.0 124066.0 136565.0 136565.0 136565.0 136565.0 136565.0 136565.0 136565.0
197233.0 191660.0 44000.0 51001.0 112370.0 118451.0 92376.0 84412.0 147227.0 145596.0 255415.0 253260.0 29951.0 26362.0 182031.0 178831.0 155142.0 146722.0 178590.0 171315.0 276038.0 273774.0 68600.0 70131.0 277514.0 272641.0 27693.0 28131.0 228258.0 234114.0 40146.0 33806.0 167786.0 172779.0 4308.0 8891.0 57462.0 60482.0 94821.0 89094.0 170763.0 164849.0 18777.0 23799.0 169143.0 176886.0 193918.0 200365.0 154920.0 153698.0 88378.0 82783.0 83300.0 84627.0 158956.0 167042.0 145998.0 151266.0 173523.0 165570.0 124564.0 119078.0 0.0 7611.0 152365.0 150856.0 77639.0 69819.0 137939.0 132329.0 116238.0 108950.0 55327.0 62179.0 43917.0 36469.0 109390.0 107885.0 288684.0 283984.0 238216.0 240415.0 156116.0 155629.0 113519.0 106976.0 324880.0 331733.0 22537.0 23343.0 110388.0 105312.0 347281.0 340057.0 346019.0 344890.0 57865.0 61981.0 180991.0 176558.0 242769.0 245447.0 239243.0 236091.0 143121.0 135862.0 123552.0 131630.0 177522.0 185513.0 126727.0 134771.0 282812.0 287619.0 133875.0 135881.0 114334.0 119072.0 119095.0 114500.0 91436.0 95650.0 91461.0 88571.0 300965.0 296803.0 120426.0 122424.0 82742.0 85590.0 197191.0 191808.0 136335.0 142568.0 265985.0 265403.0 55819.0 62391.0 68233.0 61479.0 145614.0 142821.0 109819.0 113028.0 106577.0 112317.0 231501.0 227726.0 299763.0 291596.0 257650.0 260365.0 266971.0 260558.0 118279.0 123619.0 143586.0 149247.0 47583.0 39551.0 45843.0 177392.0 45843.0 45843.0 45843.0 45843.0 45843.0 45843.0 45843.0 177392.0 177392.0 177392.0 177392.0 177392.0 177392.0 177392.0
201168.0 195806.0 51609.0 58602.0 113198.0 118949.0 93722.0 85836.0 151860.0 150539.0 257246.0 255320.0 33059.0 27718.0 186885.0 183923.0 159796.0 151327.0 180821.0 173686.0 278273.0 276214.0 76046.0 77360.0 272694.0 267744.0 30325.0 28618.0 223401.0 229257.0 47712.0 41218.0 164933.0 170180.0 8458.0 15949.0 63468.0 65845.0 97323.0 91183.0 168701.0 163030.0 26267.0 31391.0 172156.0 179777.0 189769.0 196371.0 153548.0 152708.0 91209.0 86080.0 89320.0 90210.0 154099.0 162199.0 144814.0 149739.0 177136.0 169153.0 125163.0 120068.0 7611.0 0.0 156200.0 154347.0 79603.0 72012.0 137849.0 132562.0 113898.0 106404.0 62510.0 69185.0 51110.0 43460.0 111392.0 110411.0 283822.0 279260.0 233358.0 235558.0 152016.0 151729.0 114977.0 108757.0 320022.0 326875.0 29754.0 29454.0 109017.0 104386.0 342423.0 335200.0 341162.0 340033.0 64844.0 68560.0 184350.0 180166.0 238309.0 241166.0 241984.0 238613.0 141648.0 134167.0 120693.0 128832.0 172664.0 180656.0 126192.0 134210.0 277978.0 282766.0 137914.0 140275.0 111259.0 115665.0 117533.0 112534.0 95213.0 98929.0 90419.0 88168.0 296108.0 291945.0 127123.0 128879.0 83541.0 85706.0 194292.0 189150.0 136256.0 142169.0 269096.0 268723.0 63430.0 69971.0 69524.0 63339.0 148662.0 145518.0 114661.0 118242.0 106434.0 112555.0 227217.0 223641.0 294906.0 286739.0 252792.0 255508.0 262450.0 256141.0 116494.0 121462.0 148153.0 153563.0 54146.0 45892.0 38771.0 172534.0 38771.0 38771.0 38771.0 38771.0 38771.0 38771.0 38771.0 172534.0 172534.0 172534.0 172534.0 172534.0 172534.0 172534.0
45004.0 40314.0 137568.0 132369.0 68815.0 71546.0 74135.0 79308.0 19735.0 27671.0 116675.0 111900.0 123150.0 129388.0 40853.0 43622.0 20468.0 19156.0 45986.0 38931.0 131737.0 127660.0 118479.0 110459.0 269666.0 262118.0 173926.0 178260.0 245552.0 249239.0 132926.0 131360.0 141667.0 139138.0 148786.0 144827.0 100730.0 94518.0 62792.0 70593.0 127331.0 119748.0 147992.0 140595.0 25560.0 33244.0 184394.0 185283.0 107154.0 99433.0 66793.0 70476.0 81019.0 75100.0 178737.0 182868.0 100897.0 108867.0 21764.0 14433.0 68479.0 63905.0 152365.0 156200.0 0.0 8090.0 81185.0 86969.0 79498.0 73695.0 115593.0 118118.0 154249.0 159790.0 152283.0 154495.0 55594.0 51415.0 274715.0 267278.0 242495.0 239828.0 160789.0 156488.0 59738.0 59701.0 336169.0 342742.0 135761.0 130534.0 100751.0 95100.0 345053.0 337057.0 354059.0 350736.0 110873.0 102689.0 30798.0 24747.0 227214.0 225084.0 91657.0 90705.0 105502.0 107820.0 125248.0 126200.0 195803.0 202198.0 86923.0 87668.0 269056.0 276537.0 18936.0 20607.0 126928.0 133324.0 103513.0 109639.0 60990.0 57908.0 100016.0 93932.0 305002.0 298508.0 80701.0 72622.0 85590.0 90087.0 159614.0 151180.0 79218.0 85672.0 115341.0 113867.0 133764.0 127748.0 92990.0 95958.0 18881.0 26706.0 47101.0 49054.0 84131.0 77114.0 214353.0 206919.0 311089.0 302911.0 267938.0 267077.0 248119.0 240368.0 107008.0 113580.0 19246.0 11796.0 162478.0 162323.0 170653.0 199028.0 170653.0 170653.0 170653.0 170653.0 170653.0 170653.0 170653.0 199028.0 199028.0 199028.0 199028.0 199028.0 199028.0 199028.0
48038.0 44545.0 138397.0 133565.0 62334.0 64570.0 69332.0 75032.0 26995.0 34826.0 113531.0 109215.0 121307.0 127187.0 48073.0 51345.0 28497.0 26320.0 40146.0 32651.0 129852.0 126211.0 120612.0 112526.0 261577.0 254028.0 173249.0 177255.0 237736.0 241364.0 133444.0 131397.0 133666.0 131084.0 147155.0 143583.0 100974.0 94326.0 59092.0 66675.0 119254.0 111682.0 147468.0 140243.0 21249.0 29455.0 176390.0 177235.0 99127.0 91391.0 63820.0 68277.0 82817.0 76415.0 171211.0 175230.0 92965.0 100892.0 22922.0 14923.0 61188.0 57050.0 150856.0 154347.0 8090.0 0.0 77680.0 83945.0 71655.0 66023.0 108563.0 111372.0 155655.0 161470.0 153107.0 154901.0 50264.0 46983.0 266629.0 259196.0 234486.0 231784.0 153116.0 148781.0 53548.0 54305.0 328183.0 334739.0 135131.0 129530.0 93938.0 88567.0 336963.0 328967.0 346006.0 342668.0 111953.0 103679.0 30251.0 25923.0 219125.0 216995.0 90432.0 88785.0 97646.0 100141.0 118031.0 118756.0 188134.0 194468.0 79451.0 79933.0 260968.0 268448.0 20516.0 24825.0 120027.0 126313.0 96341.0 102655.0 59520.0 55464.0 94198.0 88444.0 296940.0 290436.0 86073.0 78084.0 80985.0 84969.0 151524.0 143090.0 71419.0 77741.0 115500.0 114591.0 135265.0 129599.0 89415.0 92981.0 11099.0 18932.0 49028.0 52189.0 77674.0 70427.0 206266.0 198830.0 303115.0 294931.0 259959.0 259060.0 240034.0 232283.0 99874.0 106287.0 25785.0 19244.0 163346.0 162768.0 167380.0 191448.0 167380.0 167380.0 167380.0 167380.0 167380.0 167380.0 167380.0 191448.0 191448.0 191448.0 191448.0 191448.0 191448.0 191448.0
125661.0 121489.0 81689.0 80719.0 37059.0 44324.0 16095.0 8818.0 82648.0 84276.0 177789.0 175739.0 47900.0 51886.0 117715.0 116974.0 90265.0 81911.0 101226.0 94151.0 198671.0 196668.0 79115.0 72584.0 240544.0 234163.0 103363.0 105558.0 199262.0 204930.0 74879.0 69305.0 113862.0 116133.0 73521.0 71981.0 47510.0 39439.0 18611.0 11617.0 109738.0 102322.0 79829.0 74324.0 93613.0 100913.0 151011.0 155278.0 89763.0 85970.0 15059.0 16293.0 53260.0 46834.0 128577.0 135227.0 80165.0 87546.0 100546.0 92577.0 49660.0 42888.0 77639.0 79603.0 81185.0 77680.0 0.0 8061.0 65720.0 58746.0 64998.0 61819.0 101638.0 109162.0 94609.0 93056.0 31799.0 31379.0 249197.0 243017.0 205273.0 205286.0 116503.0 113794.0 36237.0 29358.0 295271.0 302124.0 67807.0 60303.0 51243.0 43395.0 314445.0 306799.0 316323.0 314659.0 62750.0 56240.0 106707.0 103508.0 200405.0 200963.0 162720.0 159132.0 79726.0 75085.0 75931.0 81777.0 147932.0 155656.0 58077.0 65572.0 243198.0 249476.0 65017.0 69913.0 71267.0 78395.0 59795.0 59989.0 26525.0 24666.0 35658.0 27823.0 269643.0 264548.0 90261.0 86774.0 13366.0 21310.0 141558.0 134378.0 64148.0 71829.0 190395.0 190501.0 84849.0 83427.0 11809.0 16264.0 70452.0 66466.0 52222.0 59521.0 37814.0 40118.0 187711.0 181971.0 270155.0 261988.0 227611.0 229174.0 224272.0 216934.0 61192.0 68970.0 78646.0 81741.0 104256.0 100576.0 89706.0 148561.0 89706.0 89706.0 89706.0 89706.0 89706.0 89706.0 89706.0 148561.0 148561.0 148561.0 148561.0 148561.0 148561.0 148561.0
131744.0 127261.0 74096.0 73442.0 44987.0 52139.0 24024.0 16358.0 86971.0 87959.0 185604.0 183459.0 39985.0 44309.0 122312.0 121112.0 94739.0 86274.0 108849.0 101677.0 206312.0 204203.0 72989.0 66837.0 245127.0 238882.0 95362.0 97661.0 202271.0 208096.0 67220.0 61461.0 119650.0 122267.0 65738.0 64010.0 41095.0 33341.0 25426.0 19277.0 116348.0 109062.0 71769.0 66292.0 100582.0 108027.0 155804.0 160346.0 96737.0 93232.0 20182.0 18113.0 50151.0 44493.0 131692.0 138593.0 87152.0 94324.0 106865.0 98868.0 57591.0 50919.0 69819.0 72012.0 86969.0 83945.0 8061.0 0.0 73412.0 66564.0 69620.0 65687.0 94068.0 101654.0 86812.0 85107.0 39577.0 38479.0 254068.0 248023.0 209238.0 209529.0 120568.0 118096.0 44285.0 37308.0 298650.0 305503.0 59757.0 52243.0 56726.0 49103.0 318629.0 311038.0 319779.0 318295.0 56243.0 50226.0 113368.0 109855.0 205409.0 206195.0 170053.0 166606.0 86389.0 81334.0 80314.0 86607.0 151117.0 158931.0 65237.0 72880.0 248064.0 254209.0 70073.0 74359.0 74850.0 81853.0 65544.0 64976.0 29032.0 29297.0 39672.0 32319.0 273496.0 268563.0 88942.0 86136.0 18852.0 26090.0 147733.0 140717.0 71828.0 79375.0 197488.0 197428.0 77725.0 76720.0 8746.0 9037.0 77244.0 73641.0 54308.0 61030.0 44652.0 47611.0 192813.0 187258.0 273534.0 265366.0 231112.0 232934.0 229400.0 222134.0 66624.0 74218.0 82993.0 86683.0 96387.0 92594.0 83699.0 151405.0 83699.0 83699.0 83699.0 83699.0 83699.0 83699.0 83699.0 151405.0 151405.0 151405.0 151405.0 151405.0 151405.0 151405.0
109576.0 109921.0 147409.0 146254.0 29283.0 21588.0 49731.0 57061.0 94609.0 100986.0 127715.0 128060.0 110241.0 111676.0 119325.0 122996.0 98805.0 93759.0 64030.0 61182.0 151788.0 151970.0 142616.0 135336.0 192779.0 185517.0 165227.0 165928.0 166082.0 169744.0 140591.0 134846.0 62906.0 61529.0 133634.0 134053.0 112185.0 103890.0 57678.0 57615.0 51169.0 43174.0 143751.0 139022.0 71699.0 74466.0 105488.0 107053.0 29618.0 23061.0 64825.0 72661.0 110100.0 102360.0 100483.0 103982.0 21773.0 30134.0 86414.0 81002.0 17639.0 25865.0 137939.0 137849.0 79498.0 71655.0 65720.0 73412.0 0.0 7905.0 44110.0 50088.0 167353.0 174854.0 160216.0 158269.0 43868.0 51501.0 199066.0 192013.0 163546.0 161315.0 81787.0 77343.0 34867.0 42569.0 256973.0 263660.0 132283.0 124369.0 35046.0 35615.0 268263.0 260326.0 275568.0 272567.0 127297.0 120025.0 86259.0 88270.0 150555.0 149317.0 123656.0 117686.0 26005.0 29124.0 50690.0 49195.0 116760.0 122924.0 13809.0 9113.0 193228.0 200371.0 77126.0 85116.0 55995.0 60638.0 31650.0 39549.0 74387.0 66369.0 49038.0 49762.0 226771.0 220551.0 135891.0 129546.0 56199.0 52360.0 84738.0 76558.0 1610.0 7250.0 153677.0 156356.0 150195.0 148101.0 71308.0 79244.0 60624.0 52792.0 89231.0 97020.0 31416.0 26028.0 137553.0 130552.0 231858.0 223693.0 188726.0 188173.0 172781.0 165084.0 35170.0 38881.0 91633.0 88468.0 169725.0 165602.0 137159.0 120399.0 137159.0 137159.0 137159.0 137159.0 137159.0 137159.0 137159.0 120399.0 120399.0 120399.0 120399.0 120399.0 120399.0 120399.0
106027.0 105831.0 140365.0 139024.0 21878.0 14426.0 42668.0 50216.0 88037.0 94196.0 129911.0 129766.0 104155.0 105990.0 113991.0 117309.0 92561.0 87179.0 62607.0 58856.0 153488.0 153259.0 135010.0 127676.0 200063.0 192855.0 159424.0 160405.0 171980.0 175858.0 133602.0 128021.0 69923.0 68928.0 128035.0 128123.0 104781.0 96475.0 49934.0 50189.0 58864.0 50865.0 137465.0 132525.0 68010.0 71544.0 112301.0 114136.0 37272.0 30926.0 57157.0 65026.0 102249.0 94501.0 105285.0 109207.0 28953.0 37419.0 82147.0 76282.0 9797.0 17992.0 132329.0 132562.0 73695.0 66023.0 58746.0 66564.0 7905.0 0.0 45594.0 50605.0 160278.0 167728.0 153350.0 151613.0 35967.0 43598.0 206528.0 199525.0 170260.0 168223.0 87100.0 82794.0 26981.0 34731.0 263481.0 270242.0 125837.0 118007.0 34155.0 32939.0 275517.0 267595.0 282412.0 279515.0 119843.0 112487.0 82805.0 84187.0 157920.0 156812.0 123713.0 118108.0 32452.0 34127.0 53501.0 53132.0 122118.0 128512.0 14367.0 14083.0 200672.0 207764.0 70176.0 78152.0 57574.0 62889.0 32837.0 40378.0 66527.0 58497.0 45429.0 45020.0 233723.0 227585.0 128079.0 121788.0 49954.0 46857.0 92442.0 84305.0 6723.0 15120.0 153590.0 155875.0 142886.0 140638.0 65002.0 72791.0 54927.0 47092.0 81434.0 89260.0 26609.0 20020.0 144911.0 137990.0 238366.0 230197.0 195255.0 194891.0 180302.0 172617.0 36494.0 41544.0 84936.0 82166.0 162951.0 159022.0 133236.0 125451.0 133236.0 133236.0 133236.0 133236.0 133236.0 133236.0 133236.0 125451.0 125451.0 125451.0 125451.0 125451.0 125451.0 125451.0
151224.0 150528.0 138289.0 139553.0 47714.0 44048.0 54851.0 57471.0 126726.0 131566.0 169788.0 170805.0 94182.0 92305.0 156444.0 158750.0 132531.0 125862.0 107881.0 104429.0 194437.0 195101.0 142100.0 136309.0 175587.0 169281.0 143778.0 142438.0 136246.0 141382.0 131189.0 123932.0 52260.0 56657.0 112091.0 115006.0 110178.0 102791.0 69533.0 64304.0 54942.0 49858.0 127140.0 124583.0 113255.0 117099.0 86183.0 90828.0 42895.0 45143.0 73578.0 79333.0 118129.0 111379.0 65968.0 71752.0 36455.0 38310.0 126786.0 120380.0 47626.0 51734.0 116238.0 113898.0 115593.0 108563.0 64998.0 69620.0 44110.0 45594.0 0.0 8047.0 157750.0 165612.0 148489.0 144436.0 64470.0 71895.0 184448.0 178430.0 140467.0 140314.0 51785.0 48854.0 57312.0 60791.0 231189.0 238042.0 117756.0 109592.0 15698.0 23263.0 249474.0 241815.0 252006.0 250105.0 124973.0 119596.0 128130.0 129010.0 135825.0 136779.0 167670.0 161561.0 31199.0 22764.0 11133.0 17067.0 84777.0 92178.0 31289.0 35423.0 178444.0 184605.0 107622.0 115126.0 11984.0 17751.0 12758.0 6057.0 86517.0 80276.0 30051.0 37350.0 204887.0 199668.0 152921.0 148268.0 51634.0 43768.0 81548.0 75717.0 43259.0 42980.0 197715.0 200462.0 144396.0 144750.0 62851.0 70478.0 97648.0 90093.0 109203.0 117345.0 33509.0 39000.0 123291.0 117932.0 206073.0 197906.0 163346.0 164550.0 159876.0 152673.0 9100.0 8047.0 123118.0 122191.0 156640.0 150724.0 105814.0 86491.0 105814.0 105814.0 105814.0 105814.0 105814.0 105814.0 105814.0 86491.0 86491.0 86491.0 86491.0 86491.0 86491.0 86491.0
155205.0 154120.0 132369.0 133957.0 49435.0 46939.0 53399.0 54930.0 128188.0 132633.0 176781.0 177602.0 87741.0 85457.0 158925.0 160848.0 134310.0 127329.0 113204.0 109347.0 201279.0 201765.0 137390.0 131880.0 179620.0 173516.0 136403.0 134887.0 137782.0 143263.0 125283.0 117880.0 58988.0 63833.0 104840.0 108009.0 105586.0 98459.0 68435.0 62527.0 62728.0 57822.0 120347.0 118069.0 117387.0 121648.0 90712.0 95814.0 50909.0 52941.0 71736.0 76900.0 115072.0 108596.0 67101.0 73501.0 44247.0 46347.0 130421.0 123748.0 51291.0 54325.0 108950.0 106404.0 118118.0 111372.0 61819.0 65687.0 50088.0 50605.0 8047.0 0.0 151650.0 159520.0 142167.0 137877.0 65230.0 72248.0 188882.0 183062.0 143579.0 143854.0 54881.0 52510.0 58859.0 61344.0 233482.0 240335.0 111281.0 103155.0 17477.0 23398.0 252942.0 245355.0 254510.0 252846.0 120149.0 115128.0 132299.0 132756.0 140536.0 141830.0 173719.0 167774.0 39149.0 30739.0 15313.0 22950.0 86323.0 93961.0 36668.0 41798.0 182879.0 188844.0 108974.0 116264.0 9706.0 16891.0 18511.0 10574.0 84833.0 79113.0 26176.0 34022.0 207892.0 202895.0 151064.0 146767.0 48541.0 40544.0 88388.0 82859.0 49083.0 49718.0 203718.0 206257.0 138891.0 139595.0 58364.0 65647.0 100629.0 93262.0 108437.0 116512.0 34374.0 41004.0 128188.0 123137.0 208366.0 200199.0 165796.0 167382.0 164715.0 157633.0 15218.0 16094.0 124477.0 124071.0 150112.0 144011.0 97865.0 87390.0 97865.0 97865.0 97865.0 97865.0 97865.0 97865.0 97865.0 87390.0 87390.0 87390.0 87390.0 87390.0 87390.0 87390.0
195734.0 188601.0 19976.0 22318.0 138442.0 145889.0 117641.0 110349.0 142516.0 138079.0 268280.0 264529.0 64256.0 68372.0 172984.0 167637.0 149628.0 142311.0 191228.0 183316.0 285506.0 281773.0 37569.0 44850.0 327607.0 322238.0 46195.0 54476.0 278794.0 284651.0 26955.0 33823.0 209908.0 213632.0 57273.0 50130.0 57056.0 65128.0 112688.0 110435.0 209110.0 202172.0 36858.0 35263.0 176502.0 184756.0 241131.0 246876.0 190346.0 187203.0 105084.0 97331.0 73291.0 79258.0 209277.0 217172.0 180817.0 187601.0 175898.0 168648.0 150957.0 143625.0 55327.0 62510.0 154249.0 155655.0 101638.0 94068.0 167353.0 160278.0 157750.0 151650.0 0.0 7871.0 11410.0 19257.0 128651.0 123858.0 338077.0 332856.0 288745.0 290670.0 203644.0 202389.0 135761.0 127897.0 375416.0 382269.0 41398.0 49089.0 147917.0 141102.0 397652.0 390511.0 396555.0 395427.0 43887.0 52209.0 185014.0 178804.0 290809.0 292739.0 245843.0 244439.0 179505.0 173615.0 166945.0 174489.0 228058.0 236050.0 159173.0 166904.0 332124.0 337429.0 135585.0 134318.0 158922.0 164784.0 157012.0 154477.0 100812.0 108036.0 128874.0 123333.0 351501.0 347339.0 94648.0 99948.0 112279.0 118199.0 238953.0 232535.0 165784.0 173430.0 269001.0 266764.0 20518.0 27458.0 97645.0 89457.0 154244.0 154267.0 107151.0 106276.0 138410.0 141673.0 278906.0 274342.0 350300.0 342133.0 308186.0 310902.0 315110.0 308308.0 157259.0 164015.0 139774.0 147237.0 13306.0 20429.0 101167.0 227928.0 101167.0 101167.0 101167.0 101167.0 101167.0 101167.0 101167.0 227928.0 227928.0 227928.0 227928.0 227928.0 227928.0 227928.0
200672.0 193400.0 27654.0 29070.0 145873.0 153358.0 125126.0 117900.0 147448.0 142727.0 274414.0 270528.0 72112.0 76137.0 177161.0 171577.0 154407.0 147279.0 197558.0 189625.0 291292.0 287424.0 41865.0 49598.0 335395.0 330045.0 50440.0 58687.0 286523.0 292379.0 34698.0 41680.0 217762.0 221465.0 64357.0 57431.0 63989.0 72160.0 119828.0 117779.0 216888.0 209926.0 44010.0 42921.0 182435.0 190696.0 248987.0 254740.0 198050.0 194842.0 112221.0 104419.0 78777.0 85078.0 217027.0 224935.0 188512.0 195337.0 181351.0 174214.0 158359.0 150959.0 62179.0 69185.0 159790.0 161470.0 109162.0 101654.0 174854.0 167728.0 165612.0 159520.0 7871.0 0.0 18572.0 25729.0 135763.0 130796.0 345893.0 340687.0 296479.0 298441.0 211487.0 210245.0 143006.0 135109.0 383144.0 389997.0 49167.0 56916.0 155725.0 148879.0 405328.0 398203.0 404284.0 403155.0 50258.0 58542.0 190585.0 184229.0 298656.0 300598.0 251443.0 250213.0 187251.0 181404.0 174815.0 182357.0 235786.0 243778.0 166817.0 174522.0 339942.0 345230.0 141259.0 139671.0 166790.0 172644.0 164820.0 162323.0 107517.0 114871.0 136702.0 131117.0 359230.0 355067.0 97329.0 103071.0 119951.0 125942.0 246794.0 240359.0 173290.0 180983.0 274172.0 271762.0 26335.0 32119.0 105375.0 97190.0 160415.0 160673.0 112713.0 111411.0 146077.0 149237.0 286763.0 282208.0 358028.0 349861.0 315914.0 318630.0 322958.0 316162.0 165087.0 171862.0 144832.0 152426.0 16595.0 24950.0 107939.0 235656.0 107939.0 107939.0 107939.0 107939.0 107939.0 107939.0 107939.0 235656.0 235656.0 235656.0 235656.0 235656.0 235656.0 235656.0
194821.0 187966.0 14718.0 20811.0 131641.0 138925.0 110701.0 103169.0 141802.0 137915.0 264790.0 261344.0 54450.0 57930.0 173508.0 168584.0 149169.0 141531.0 187414.0 179572.0 282752.0 279304.0 39926.0 45991.0 317158.0 311877.0 36719.0 44884.0 268157.0 274014.0 20253.0 25396.0 200733.0 204688.0 45902.0 38869.0 52628.0 60223.0 106977.0 104053.0 200594.0 193813.0 25501.0 24576.0 173630.0 181845.0 231129.0 237004.0 182273.0 179455.0 99426.0 91878.0 72126.0 77273.0 198704.0 206640.0 172806.0 179356.0 174034.0 166578.0 144226.0 137152.0 43917.0 51110.0 152283.0 153107.0 94609.0 86812.0 160216.0 153350.0 148489.0 142167.0 11410.0 18572.0 0.0 8198.0 122952.0 118697.0 327761.0 322633.0 278113.0 280160.0 193531.0 192403.0 129614.0 121883.0 364779.0 371632.0 31077.0 39070.0 139248.0 132667.0 387180.0 379956.0 385918.0 384790.0 41511.0 49604.0 182884.0 176991.0 280710.0 282776.0 243527.0 241764.0 171214.0 165059.0 157417.0 165078.0 217421.0 225413.0 151444.0 159283.0 321820.0 327037.0 133427.0 132826.0 149171.0 154874.0 148339.0 145448.0 96441.0 103255.0 120070.0 114892.0 340864.0 336702.0 98037.0 102620.0 104532.0 110040.0 229908.0 223661.0 158629.0 166075.0 267505.0 265601.0 21864.0 30056.0 89639.0 81473.0 150909.0 150375.0 105413.0 105410.0 130612.0 134331.0 268911.0 264484.0 339663.0 331496.0 297549.0 300265.0 305011.0 298275.0 148411.0 154968.0 138833.0 146005.0 10258.0 12311.0 89757.0 217291.0 89757.0 89757.0 89757.0 89757.0 89757.0 89757.0 89757.0 217291.0 217291.0 217291.0 217291.0 217291.0 217291.0 217291.0
197650.0 190995.0 18392.0 25889.0 130093.0 137201.0 109125.0 101414.0 144903.0 141388.0 265678.0 262466.0 50285.0 52789.0 177318.0 172668.0 152413.0 144588.0 188177.0 180406.0 284169.0 280931.0 45825.0 51120.0 311527.0 306364.0 28955.0 37008.0 262342.0 268198.0 21613.0 24221.0 196689.0 200887.0 38795.0 32259.0 53932.0 60967.0 106513.0 103023.0 197240.0 190627.0 18722.0 19874.0 175130.0 183297.0 226107.0 232135.0 179391.0 176893.0 99059.0 91746.0 75404.0 79937.0 192961.0 200948.0 170002.0 176310.0 176257.0 168674.0 142697.0 135878.0 36469.0 43460.0 154495.0 154901.0 93056.0 85107.0 158269.0 151613.0 144436.0 137877.0 19257.0 25729.0 8198.0 0.0 122410.0 118626.0 322301.0 317293.0 272243.0 274459.0 188405.0 187436.0 128655.0 121077.0 358964.0 365816.0 26741.0 34934.0 135861.0 129544.0 381365.0 374141.0 380103.0 378974.0 44676.0 52346.0 184898.0 179241.0 275541.0 277772.0 245305.0 243285.0 168137.0 161727.0 153045.0 160825.0 211605.0 219597.0 148965.0 156886.0 316377.0 321477.0 135572.0 135438.0 144550.0 150051.0 144921.0 141660.0 97153.0 103588.0 116601.0 111829.0 335049.0 330886.0 103749.0 107929.0 102223.0 107290.0 225972.0 219911.0 156671.0 163913.0 269833.0 268160.0 28184.0 36404.0 87171.0 79097.0 152133.0 151178.0 107998.0 108581.0 128132.0 132274.0 263875.0 259613.0 333847.0 325680.0 291734.0 294449.0 299831.0 293178.0 144808.0 151137.0 141793.0 148744.0 12261.0 7888.0 82210.0 211476.0 82210.0 82210.0 82210.0 82210.0 82210.0 82210.0 82210.0 211476.0 211476.0 211476.0 211476.0 211476.0 211476.0 211476.0
97829.0 94798.0 109117.0 106716.0 17672.0 24395.0 19520.0 26386.0 63177.0 67406.0 146027.0 143940.0 79554.0 83679.0 95494.0 96566.0 69662.0 62327.0 69479.0 62525.0 166895.0 164973.0 100564.0 92954.0 233306.0 226336.0 134772.0 137228.0 199880.0 204571.0 102756.0 98235.0 103110.0 103263.0 105294.0 103511.0 71841.0 63613.0 15984.0 20301.0 94143.0 86185.0 110594.0 104554.0 63304.0 70138.0 144239.0 147009.0 72630.0 66773.0 23574.0 31346.0 66499.0 58714.0 130228.0 135563.0 63615.0 72003.0 72287.0 64589.0 26295.0 18072.0 109390.0 111392.0 55594.0 50264.0 31799.0 39577.0 43868.0 35967.0 64470.0 65230.0 128651.0 135763.0 122952.0 122410.0 0.0 8022.0 240484.0 233700.0 201359.0 200089.0 114433.0 110739.0 9099.0 4124.0 293553.0 300388.0 98322.0 91207.0 48804.0 41852.0 308490.0 300639.0 313630.0 311181.0 86395.0 78599.0 77206.0 75098.0 191607.0 191007.0 131316.0 127520.0 65608.0 64211.0 75203.0 78272.0 148659.0 155784.0 42700.0 47750.0 234564.0 241431.0 43941.0 51065.0 74663.0 81577.0 54111.0 58432.0 30803.0 22718.0 44616.0 38339.0 265516.0 259730.0 93024.0 87189.0 31313.0 34713.0 127604.0 119637.0 42595.0 51035.0 159419.0 159893.0 110090.0 106980.0 42378.0 48055.0 41194.0 35901.0 46814.0 54908.0 31028.0 26175.0 178620.0 172026.0 268437.0 260270.0 225479.0 225874.0 214547.0 206932.0 57068.0 64706.0 59389.0 59687.0 132958.0 130143.0 119700.0 150783.0 119700.0 119700.0 119700.0 119700.0 119700.0 119700.0 119700.0 150783.0 150783.0 150783.0 150783.0 150783.0 150783.0 150783.0
94997.0 91362.0 104589.0 101728.0 25644.0 32408.0 22811.0 28049.0 57005.0 60705.0 148080.0 145569.0 77935.0 82748.0 90336.0 90893.0 63855.0 56175.0 70812.0 63443.0 168189.0 165894.0 94490.0 86737.0 241327.0 234358.0 132497.0 135404.0 207605.0 212361.0 98446.0 94405.0 111129.0 111247.0 103898.0 101527.0 66820.0 58744.0 13089.0 19940.0 102030.0 94060.0 107758.0 101373.0 62234.0 69576.0 152241.0 155029.0 80486.0 74495.0 19825.0 26882.0 59507.0 51701.0 137782.0 143230.0 71539.0 79946.0 69634.0 61738.0 34050.0 25888.0 107885.0 110411.0 51415.0 46983.0 31379.0 38479.0 51501.0 43598.0 71895.0 72248.0 123858.0 130796.0 118697.0 118626.0 8022.0 0.0 248501.0 241711.0 209312.0 208078.0 122217.0 118572.0 17027.0 11147.0 301433.0 308258.0 95374.0 88610.0 56199.0 48990.0 316506.0 308656.0 321570.0 319146.0 80965.0 72978.0 75431.0 72550.0 199627.0 199014.0 131587.0 128236.0 73610.0 72221.0 82737.0 86031.0 156320.0 163497.0 50720.0 55684.0 242582.0 249452.0 37907.0 44575.0 81786.0 88782.0 61851.0 65885.0 24159.0 16199.0 50353.0 43471.0 273492.0 267722.0 85031.0 79169.0 34175.0 38991.0 135522.0 127526.0 50279.0 58711.0 159056.0 159122.0 104854.0 101323.0 42846.0 47388.0 39137.0 35164.0 38794.0 46893.0 38386.0 34033.0 186639.0 180037.0 276316.0 268149.0 233373.0 233815.0 222554.0 214936.0 64723.0 72437.0 53119.0 54203.0 128811.0 126435.0 120848.0 158330.0 120848.0 120848.0 120848.0 120848.0 120848.0 120848.0 120848.0 158330.0 158330.0 158330.0 158330.0 158330.0 158330.0 158330.0
290094.0 294062.0 319619.0 322001.0 223087.0 216094.0 237256.0 241234.0 292091.0 299039.0 246101.0 252833.0 273941.0 269832.0 310458.0 315937.0 295058.0 291276.0 240429.0 243186.0 267939.0 273914.0 326272.0 320687.0 14001.0 16149.0 313803.0 310306.0 79602.0 71737.0 312643.0 304884.0 137386.0 137604.0 285208.0 290427.0 294447.0 287195.0 250519.0 246869.0 148209.0 156113.0 303774.0 303189.0 258328.0 256595.0 98267.0 94037.0 169509.0 176671.0 255954.0 262563.0 301830.0 294724.0 129756.0 121650.0 177603.0 169124.0 274087.0 271505.0 215176.0 222957.0 288684.0 283822.0 274715.0 266629.0 249197.0 254068.0 199066.0 206528.0 184448.0 188882.0 338077.0 345893.0 327761.0 322301.0 240484.0 248501.0 0.0 8065.0 53969.0 49217.0 134732.0 136503.0 231527.0 237945.0 83884.0 86551.0 296755.0 288989.0 198055.0 206003.0 71127.0 63125.0 88254.0 82487.0 309022.0 303947.0 269391.0 274734.0 48957.0 49785.0 269474.0 261454.0 174940.0 176634.0 173868.0 167484.0 112405.0 104859.0 197790.0 193191.0 6004.0 5370.0 275735.0 283700.0 180439.0 174012.0 189892.0 189225.0 268161.0 260896.0 214454.0 221775.0 44034.0 36180.0 333441.0 327663.0 235889.0 228136.0 115168.0 123593.0 199917.0 191976.0 293124.0 299957.0 327087.0 328269.0 247148.0 254528.0 256414.0 249036.0 287241.0 295263.0 213669.0 215344.0 61891.0 68544.0 67941.0 62160.0 52757.0 44441.0 26625.0 34366.0 188132.0 180267.0 289524.0 285181.0 334467.0 327315.0 269783.0 116178.0 269783.0 269783.0 269783.0 269783.0 269783.0 269783.0 269783.0 116178.0 116178.0 116178.0 116178.0 116178.0 116178.0 116178.0
282270.0 286291.0 314258.0 316497.0 216367.0 209306.0 230852.0 234975.0 284762.0 291754.0 238045.0 244771.0 268653.0 264711.0 302824.0 308354.0 287645.0 283950.0 232672.0 235502.0 259915.0 265874.0 320418.0 314733.0 16149.0 14001.0 309216.0 305719.0 79023.0 71411.0 307258.0 299545.0 130673.0 130639.0 280451.0 285530.0 288547.0 281219.0 243967.0 240456.0 141041.0 148973.0 298825.0 298074.0 250680.0 248870.0 92352.0 87741.0 162421.0 169509.0 249503.0 256193.0 295489.0 288329.0 125257.0 117117.0 170633.0 162152.0 266424.0 263916.0 208262.0 216094.0 283984.0 279260.0 267278.0 259196.0 243017.0 248023.0 192013.0 199525.0 178430.0 183062.0 332856.0 340687.0 322633.0 317293.0 233700.0 241711.0 8065.0 0.0 51924.0 46193.0 129278.0 130851.0 224716.0 231223.0 91195.0 94124.0 291591.0 283771.0 191814.0 199739.0 79010.0 71022.0 96259.0 90537.0 303203.0 298009.0 261649.0 267044.0 42617.0 42722.0 261421.0 253402.0 168109.0 170017.0 167962.0 161417.0 108441.0 101088.0 191029.0 186284.0 5370.0 12310.0 268533.0 276490.0 174773.0 168457.0 183548.0 183098.0 261618.0 254291.0 208470.0 215709.0 51331.0 43397.0 326701.0 320848.0 229740.0 222033.0 107846.0 116256.0 192891.0 184893.0 285059.0 291892.0 321552.0 322588.0 241222.0 248678.0 249036.0 241693.0 280412.0 288411.0 207213.0 208712.0 55362.0 61675.0 74217.0 67989.0 54678.0 46250.0 19238.0 26969.0 181875.0 174050.0 282231.0 277807.0 329486.0 322426.0 265195.0 112592.0 265195.0 265195.0 265195.0 265195.0 265195.0 265195.0 265195.0 112592.0 112592.0 112592.0 112592.0 112592.0 112592.0 112592.0
264841.0 267494.0 270906.0 273893.0 183687.0 177451.0 195049.0 197931.0 258155.0 264449.0 236799.0 242346.0 225135.0 220384.0 280941.0 285449.0 262214.0 257304.0 214541.0 215709.0 260916.0 265685.0 279849.0 274838.0 40965.0 38242.0 263314.0 259818.0 28991.0 22901.0 264060.0 256144.0 100835.0 103725.0 234787.0 240218.0 248452.0 241676.0 209276.0 204605.0 116115.0 123228.0 253659.0 253575.0 229844.0 229674.0 58108.0 57807.0 135374.0 143160.0 213865.0 219794.0 258514.0 251837.0 79514.0 71756.0 141828.0 133685.0 245615.0 241742.0 177782.0 184895.0 238216.0 233358.0 242495.0 234486.0 205273.0 209238.0 163546.0 170260.0 140467.0 143579.0 288745.0 296479.0 278113.0 272243.0 201359.0 209312.0 53969.0 51924.0 0.0 8300.0 88771.0 91644.0 192815.0 198310.0 93851.0 100265.0 247351.0 239827.0 155315.0 163274.0 109587.0 102161.0 112304.0 109874.0 262508.0 258109.0 242565.0 246774.0 32136.0 39554.0 254276.0 246337.0 137808.0 137437.0 129410.0 124262.0 60798.0 52885.0 159302.0 156257.0 48826.0 51548.0 240424.0 248392.0 134416.0 127508.0 148090.0 145873.0 226634.0 219951.0 169726.0 177458.0 64430.0 59330.0 292927.0 287853.0 191924.0 183964.0 87919.0 95684.0 164071.0 156991.0 281018.0 286952.0 279100.0 280959.0 201682.0 208554.0 223668.0 215930.0 247922.0 256078.0 172237.0 175327.0 37930.0 45342.0 69044.0 60777.0 26241.0 24631.0 42682.0 41635.0 145719.0 137759.0 255149.0 251937.0 284377.0 277045.0 219294.0 63526.0 219294.0 219294.0 219294.0 219294.0 219294.0 219294.0 219294.0 63526.0 63526.0 63526.0 63526.0 63526.0 63526.0 63526.0
260979.0 263856.0 272579.0 275345.0 182434.0 175993.0 194555.0 197750.0 255861.0 262301.0 230715.0 236408.0 226804.0 222305.0 277842.0 282535.0 259709.0 255016.0 210660.0 212101.0 254638.0 259545.0 280730.0 275532.0 37198.0 33112.0 265514.0 262017.0 37007.0 31176.0 265679.0 257816.0 98417.0 100726.0 236958.0 242412.0 249163.0 242229.0 208558.0 204149.0 112860.0 120196.0 255840.0 255592.0 226452.0 226009.0 55972.0 54561.0 132693.0 140395.0 213381.0 219507.0 258441.0 251636.0 81500.0 73522.0 139545.0 131278.0 242258.0 238608.0 176030.0 183323.0 240415.0 235558.0 239828.0 231784.0 205286.0 209529.0 161315.0 168223.0 140314.0 143854.0 290670.0 298441.0 280160.0 274459.0 200089.0 208078.0 49217.0 46193.0 8300.0 0.0 88986.0 91494.0 191421.0 197157.0 97502.0 103529.0 249277.0 241650.0 154852.0 162835.0 109161.0 101520.0 114280.0 111300.0 263402.0 258782.0 238916.0 243331.0 24084.0 31437.0 248935.0 240967.0 135814.0 135944.0 129358.0 123804.0 63494.0 55805.0 157737.0 154311.0 43700.0 47485.0 238381.0 246364.0 134898.0 128131.0 147336.0 145552.0 226026.0 219179.0 169899.0 177525.0 65521.0 59655.0 292162.0 286908.0 191921.0 184004.0 83393.0 91393.0 161915.0 154613.0 275346.0 281399.0 280512.0 282136.0 202156.0 209203.0 221059.0 213372.0 246799.0 254937.0 171470.0 174202.0 31140.0 38881.0 73199.0 64927.0 31698.0 28060.0 35143.0 33554.0 145126.0 137158.0 252939.0 249492.0 286559.0 279244.0 221494.0 67000.0 221494.0 221494.0 221494.0 221494.0 221494.0 221494.0 221494.0 67000.0 67000.0 67000.0 67000.0 67000.0 67000.0 67000.0
190391.0 191329.0 184981.0 187272.0 96905.0 91471.0 106570.0 109200.0 174381.0 179984.0 187316.0 190480.0 139408.0 135674.0 201014.0 204407.0 179372.0 173515.0 142036.0 140941.0 212817.0 215347.0 191897.0 186591.0 124996.0 119121.0 182271.0 179165.0 85536.0 90144.0 177981.0 170272.0 31987.0 39768.0 152381.0 156979.0 160239.0 153252.0 121068.0 116066.0 49998.0 52784.0 170102.0 169011.0 152954.0 154796.0 37806.0 44405.0 59382.0 66838.0 125339.0 131102.0 169744.0 163094.0 20052.0 22208.0 61952.0 55678.0 168020.0 162779.0 92994.0 99208.0 156116.0 152016.0 160789.0 153116.0 116503.0 120568.0 81787.0 87100.0 51785.0 54881.0 203644.0 211487.0 193531.0 188405.0 114433.0 122217.0 134732.0 129278.0 88771.0 88986.0 0.0 4794.0 106364.0 111085.0 179525.0 186377.0 162460.0 154581.0 66937.0 74824.0 198061.0 190475.0 200238.0 198322.0 174592.0 169837.0 167138.0 169750.0 87180.0 89421.0 194276.0 187055.0 56319.0 52975.0 40683.0 36197.0 35019.0 41585.0 74212.0 73214.0 128746.0 134424.0 155789.0 163602.0 45947.0 39322.0 60376.0 57344.0 138228.0 131797.0 80983.0 88690.0 153158.0 148054.0 204623.0 199822.0 103153.0 95194.0 51883.0 51416.0 81847.0 76547.0 223793.0 228065.0 192356.0 193611.0 113173.0 120267.0 142023.0 134184.0 160341.0 168507.0 84300.0 88265.0 75497.0 71629.0 154408.0 146241.0 111617.0 112771.0 111481.0 104773.0 57655.0 49813.0 171041.0 168947.0 200641.0 193812.0 138719.0 38758.0 138719.0 138719.0 138719.0 138719.0 138719.0 138719.0 138719.0 38758.0 38758.0 38758.0 38758.0 38758.0 38758.0 38758.0
185759.0 186756.0 183562.0 185665.0 93153.0 87548.0 103431.0 106323.0 170278.0 175962.0 182637.0 185762.0 138133.0 134655.0 196629.0 200097.0 175184.0 169413.0 137316.0 136275.0 208137.0 210632.0 189831.0 184386.0 127110.0 121045.0 182031.0 179130.0 89488.0 93881.0 176533.0 168890.0 27628.0 35482.0 151828.0 156222.0 158075.0 150968.0 117783.0 112972.0 45388.0 48027.0 169242.0 167935.0 148375.0 150148.0 38742.0 44768.0 54612.0 62091.0 122237.0 128157.0 166975.0 160230.0 24843.0 26780.0 57316.0 50943.0 163486.0 158306.0 88891.0 95251.0 155629.0 151729.0 156488.0 148781.0 113794.0 118096.0 77343.0 82794.0 48854.0 52510.0 202389.0 210245.0 192403.0 187436.0 110739.0 118572.0 136503.0 130851.0 91644.0 91494.0 4794.0 0.0 102557.0 107460.0 182930.0 189783.0 161326.0 153384.0 63712.0 71653.0 200651.0 193013.0 203445.0 201389.0 172557.0 167632.0 162519.0 165193.0 88508.0 90373.0 189485.0 182269.0 51753.0 48677.0 37864.0 32729.0 39419.0 45732.0 70097.0 68851.0 130505.0 136370.0 151765.0 159605.0 43938.0 37650.0 56816.0 54230.0 135051.0 128493.0 78436.0 86032.0 156073.0 150815.0 201407.0 196492.0 100430.0 92510.0 49188.0 48097.0 77441.0 71997.0 219009.0 223274.0 190707.0 191773.0 110874.0 118114.0 137695.0 129853.0 156852.0 165019.0 80869.0 84564.0 76519.0 72212.0 157814.0 149646.0 114942.0 115834.0 112791.0 105924.0 54240.0 46323.0 166971.0 164762.0 199687.0 192983.0 138832.0 43398.0 138832.0 138832.0 138832.0 138832.0 138832.0 138832.0 138832.0 43398.0 43398.0 43398.0 43398.0 43398.0 43398.0 43398.0
99949.0 97635.0 116051.0 114038.0 9609.0 15469.0 21268.0 29148.0 69451.0 74279.0 142375.0 140761.0 84009.0 87410.0 100339.0 102023.0 75455.0 68588.0 67177.0 60820.0 164017.0 162513.0 108732.0 101237.0 224445.0 217440.0 139559.0 141561.0 191889.0 196438.0 109526.0 104608.0 94182.0 94223.0 109335.0 108145.0 79322.0 71030.0 23503.0 25632.0 85046.0 77087.0 116010.0 110317.0 63842.0 69981.0 135518.0 138162.0 63531.0 57709.0 31013.0 38933.0 75302.0 67541.0 122630.0 127731.0 54526.0 62924.0 74461.0 67101.0 17247.0 9010.0 113519.0 114977.0 59738.0 53548.0 36237.0 44285.0 34867.0 26981.0 57312.0 58859.0 135761.0 143006.0 129614.0 128655.0 9099.0 17027.0 231527.0 224716.0 192815.0 191421.0 106364.0 102557.0 0.0 8006.0 285205.0 292054.0 103900.0 96501.0 41849.0 35560.0 299684.0 291821.0 305111.0 302585.0 94123.0 86496.0 78323.0 77117.0 182675.0 182013.0 129699.0 125422.0 56607.0 55480.0 67765.0 70323.0 140829.0 147839.0 33806.0 38665.0 225615.0 232513.0 50313.0 57831.0 68031.0 74758.0 46303.0 51257.0 39571.0 31524.0 40809.0 35729.0 256887.0 251043.0 102055.0 96137.0 32274.0 33564.0 118514.0 110540.0 33563.0 41999.0 158416.0 159350.0 117604.0 114827.0 45453.0 52090.0 43455.0 36989.0 55716.0 63764.0 24539.0 18360.0 169681.0 163045.0 260088.0 251921.0 217097.0 217363.0 205551.0 197927.0 49449.0 56868.0 65814.0 65214.0 139500.0 136298.0 120994.0 143177.0 120994.0 120994.0 120994.0 120994.0 120994.0 120994.0 120994.0 143177.0 143177.0 143177.0 143177.0 143177.0 143177.0 143177.0
101770.0 98823.0 108231.0 106118.0 14858.0 22139.0 15938.0 23219.0 67213.0 71337.0 148505.0 146594.0 77257.0 81078.0 99617.0 100666.0 73746.0 66366.0 72369.0 65586.0 169665.0 167883.0 100731.0 93248.0 230605.0 223691.0 132665.0 134916.0 196460.0 201228.0 101754.0 96971.0 100563.0 100975.0 102840.0 101316.0 71362.0 63078.0 15497.0 18214.0 92186.0 84268.0 108788.0 102933.0 66937.0 73626.0 141379.0 144309.0 70779.0 65220.0 23022.0 30938.0 67532.0 59799.0 126648.0 132083.0 61599.0 69907.0 76219.0 68559.0 24938.0 16766.0 106976.0 108757.0 59701.0 54305.0 29358.0 37308.0 42569.0 34731.0 60791.0 61344.0 127897.0 135109.0 121883.0 121077.0 4124.0 11147.0 237945.0 231223.0 198310.0 197157.0 111085.0 107460.0 8006.0 0.0 290344.0 297161.0 96595.0 89325.0 45100.0 38004.0 305705.0 297871.0 310543.0 308163.0 86133.0 78492.0 80972.0 79010.0 189031.0 188560.0 134474.0 130531.0 63258.0 61440.0 71604.0 74895.0 145173.0 152351.0 40218.0 45745.0 232012.0 238821.0 47983.0 55035.0 70823.0 77777.0 50713.0 54771.0 31833.0 23863.0 40494.0 34232.0 262534.0 256809.0 95496.0 89864.0 27674.0 30720.0 125536.0 117654.0 41211.0 49619.0 162759.0 163350.0 109647.0 106828.0 39434.0 45512.0 45090.0 39568.0 49642.0 57785.0 27289.0 22983.0 176060.0 169552.0 265228.0 257060.0 222296.0 222792.0 212099.0 204508.0 53576.0 61296.0 63407.0 63793.0 131814.0 128758.0 116316.0 147199.0 116316.0 116316.0 116316.0 116316.0 116316.0 116316.0 116316.0 147199.0 147199.0 147199.0 147199.0 147199.0 147199.0 147199.0
358460.0 361253.0 357711.0 360902.0 275913.0 269975.0 286037.0 288341.0 351507.0 357631.0 324789.0 330990.0 311980.0 307068.0 374779.0 379233.0 355759.0 350650.0 308141.0 309475.0 347760.0 353243.0 367697.0 363065.0 78747.0 86463.0 349978.0 346482.0 98138.0 91057.0 350913.0 342959.0 194528.0 197574.0 321451.0 326882.0 336741.0 330362.0 300591.0 295486.0 209956.0 217076.0 340323.0 340239.0 323680.0 323415.0 151827.0 151608.0 229133.0 236944.0 304759.0 310307.0 348478.0 342076.0 167031.0 160072.0 235343.0 227303.0 339457.0 335587.0 270634.0 277543.0 324880.0 320022.0 336169.0 328183.0 295271.0 298650.0 256973.0 263481.0 231189.0 233482.0 375416.0 383144.0 364779.0 358964.0 293553.0 301433.0 83884.0 91195.0 93851.0 97502.0 179525.0 182930.0 285205.0 290344.0 0.0 8022.0 334027.0 326547.0 246459.0 254328.0 53086.0 52321.0 28460.0 32603.0 350298.0 346449.0 336316.0 340601.0 115679.0 120759.0 345139.0 337129.0 231080.0 230159.0 220057.0 215634.0 147591.0 139727.0 252020.0 249417.0 86327.0 78936.0 333512.0 341446.0 224007.0 216900.0 239746.0 236842.0 317703.0 311321.0 259615.0 267503.0 39872.0 47798.0 384108.0 379346.0 282022.0 274024.0 180856.0 188892.0 257429.0 250549.0 370649.0 377022.0 366147.0 368311.0 290742.0 297189.0 317315.0 309548.0 339782.0 347949.0 263782.0 267401.0 126844.0 134839.0 25228.0 33284.0 68247.0 69542.0 104152.0 110307.0 237138.0 229245.0 348413.0 345439.0 371042.0 363709.0 305958.0 149265.0 305958.0 305958.0 305958.0 305958.0 305958.0 305958.0 305958.0 149265.0 149265.0 149265.0 149265.0 149265.0 149265.0 149265.0
364478.0 367384.0 364564.0 367755.0 282753.0 276828.0 292889.0 295194.0 358239.0 364424.0 329386.0 335693.0 318832.0 313920.0 381173.0 385713.0 362408.0 357385.0 314161.0 315627.0 352135.0 357730.0 374550.0 369918.0 82585.0 90459.0 356831.0 353335.0 104990.0 97910.0 357766.0 349812.0 201076.0 203947.0 328304.0 333735.0 343594.0 337215.0 307444.0 302339.0 216249.0 223451.0 347176.0 347092.0 329932.0 329538.0 158349.0 157880.0 235638.0 243425.0 311612.0 317159.0 355331.0 348929.0 173884.0 166925.0 241989.0 233899.0 345727.0 341959.0 277499.0 284393.0 331733.0 326875.0 342742.0 334739.0 302124.0 305503.0 263660.0 270242.0 238042.0 240335.0 382269.0 389997.0 371632.0 365816.0 300388.0 308258.0 86551.0 94124.0 100265.0 103529.0 186377.0 189783.0 292054.0 297161.0 8022.0 0.0 340880.0 333400.0 253312.0 261181.0 48255.0 48564.0 20951.0 26016.0 357151.0 353302.0 342445.0 346829.0 120850.0 125641.0 350269.0 342249.0 237814.0 236999.0 226910.0 222487.0 154443.0 146580.0 258865.0 256192.0 89458.0 81813.0 340330.0 348276.0 230860.0 223753.0 246598.0 243695.0 324556.0 318174.0 266468.0 274355.0 43059.0 51003.0 390961.0 386199.0 288875.0 280876.0 186716.0 194823.0 264143.0 257179.0 375496.0 381954.0 373000.0 375164.0 297595.0 304042.0 323904.0 316153.0 346555.0 354722.0 270635.0 274229.0 132327.0 140309.0 32458.0 40238.0 75015.0 75764.0 108085.0 114526.0 243990.0 236097.0 355177.0 352108.0 377894.0 370562.0 312811.0 156118.0 312811.0 312811.0 312811.0 312811.0 312811.0 312811.0 312811.0 156118.0 156118.0 156118.0 156118.0 156118.0 156118.0 156118.0
180126.0 174081.0 24795.0 30407.0 104591.0 111483.0 83708.0 75844.0 128743.0 126416.0 243374.0 240620.0 23574.0 26974.0 162887.0 159189.0 136561.0 128306.0 165920.0 158332.0 262862.0 260080.0 46455.0 47619.0 286229.0 280893.0 38165.0 42937.0 237406.0 243262.0 19196.0 11738.0 170015.0 174162.0 21669.0 13805.0 36852.0 41508.0 82730.0 78387.0 170512.0 163929.0 12431.0 6880.0 154491.0 162492.0 200051.0 205937.0 152789.0 150443.0 75556.0 68824.0 62245.0 64522.0 167879.0 175775.0 143437.0 149652.0 157324.0 149496.0 117164.0 110670.0 22537.0 29754.0 135761.0 135131.0 67807.0 59757.0 132283.0 125837.0 117756.0 111281.0 41398.0 49167.0 31077.0 26741.0 98322.0 95374.0 296755.0 291591.0 247351.0 249277.0 162460.0 161326.0 103900.0 96595.0 334027.0 340880.0 0.0 8193.0 109139.0 102886.0 356310.0 349150.0 355166.0 354038.0 35402.0 40038.0 165378.0 160352.0 249639.0 251700.0 224904.0 222325.0 141473.0 135007.0 126494.0 134220.0 186669.0 194661.0 122594.0 130557.0 290808.0 296071.0 116930.0 118044.0 118147.0 123807.0 118193.0 114928.0 75857.0 81341.0 89873.0 85209.0 310112.0 305950.0 98148.0 100446.0 76096.0 80829.0 199274.0 193181.0 130678.0 137740.0 250630.0 249539.0 35632.0 41171.0 60989.0 53057.0 131087.0 129258.0 91154.0 93460.0 101796.0 106255.0 237834.0 233417.0 308911.0 300744.0 266797.0 269513.0 273941.0 267199.0 118068.0 124412.0 125277.0 131493.0 38893.0 33534.0 64593.0 186539.0 64593.0 64593.0 64593.0 64593.0 64593.0 64593.0 64593.0 186539.0 186539.0 186539.0 186539.0 186539.0 186539.0 186539.0
175176.0 169357.0 31366.0 35859.0 96890.0 103687.0 76078.0 68167.0 124472.0 122579.0 236689.0 234094.0 15417.0 19598.0 159051.0 155692.0 132355.0 123994.0 159341.0 151832.0 256500.0 253872.0 49567.0 49419.0 278552.0 273157.0 43996.0 47742.0 229925.0 235781.0 24953.0 16888.0 161852.0 165977.0 20999.0 14763.0 34136.0 37338.0 75805.0 71115.0 162322.0 155748.0 19535.0 15070.0 148517.0 156438.0 192120.0 197952.0 144641.0 142350.0 68795.0 62373.0 59989.0 61320.0 160324.0 168181.0 135304.0 141485.0 151947.0 144058.0 109436.0 103077.0 23343.0 29454.0 130534.0 129530.0 60303.0 52243.0 124369.0 118007.0 109592.0 103155.0 49089.0 56916.0 39070.0 34934.0 91207.0 88610.0 288989.0 283771.0 239827.0 241650.0 154581.0 153384.0 96501.0 89325.0 326547.0 333400.0 8193.0 0.0 100950.0 94722.0 348915.0 341719.0 347686.0 346557.0 36164.0 39195.0 159772.0 154981.0 241756.0 243754.0 218885.0 216119.0 133305.0 126819.0 118384.0 126086.0 179188.0 187173.0 114537.0 122514.0 283035.0 288354.0 111831.0 113396.0 110100.0 115825.0 110003.0 106740.0 70039.0 75074.0 81683.0 77062.0 302632.0 298440.0 97782.0 99429.0 68170.0 72752.0 191100.0 184994.0 122762.0 129753.0 244985.0 244091.0 41209.0 45721.0 53062.0 45223.0 125033.0 122886.0 86939.0 89862.0 93760.0 98345.0 229901.0 225430.0 301430.0 293263.0 259317.0 262032.0 266058.0 259285.0 109874.0 116227.0 120900.0 126818.0 47075.0 41674.0 60608.0 179059.0 60608.0 60608.0 60608.0 60608.0 60608.0 60608.0 60608.0 179059.0 179059.0 179059.0 179059.0 179059.0 179059.0 179059.0
137798.0 136652.0 128143.0 128717.0 32300.0 29463.0 39735.0 43179.0 111299.0 116008.0 162753.0 163086.0 85746.0 85127.0 141584.0 143646.0 117246.0 110437.0 96609.0 92422.0 186817.0 186907.0 129704.0 123526.0 189632.0 183131.0 138079.0 137607.0 151806.0 156837.0 121056.0 114186.0 62953.0 65920.0 106124.0 108046.0 97776.0 90063.0 54132.0 49307.0 61382.0 54854.0 119385.0 116018.0 100042.0 104473.0 99995.0 104074.0 44550.0 44011.0 58556.0 64702.0 103843.0 96875.0 81644.0 87321.0 35857.0 40906.0 112961.0 106271.0 33917.0 36889.0 110388.0 109017.0 100751.0 93938.0 51243.0 56726.0 35046.0 34155.0 15698.0 17477.0 147917.0 155725.0 139248.0 135861.0 48804.0 56199.0 198055.0 191814.0 155315.0 154852.0 66937.0 63712.0 41849.0 45100.0 246459.0 253312.0 109139.0 100950.0 0.0 7988.0 263955.0 256240.0 267134.0 265099.0 112837.0 106950.0 114955.0 115309.0 149212.0 149721.0 157846.0 152160.0 32741.0 25870.0 26650.0 31064.0 100373.0 107708.0 21239.0 28011.0 192060.0 198427.0 92144.0 99582.0 26233.0 32911.0 9096.0 9723.0 71339.0 64866.0 19278.0 24796.0 219740.0 214370.0 137708.0 132892.0 38070.0 30666.0 91370.0 84686.0 33800.0 36415.0 187741.0 190014.0 133354.0 133065.0 50932.0 58959.0 83168.0 75786.0 93615.0 101767.0 17813.0 23702.0 136488.0 130730.0 221342.0 213175.0 178550.0 179545.0 173038.0 165693.0 9949.0 17798.0 107650.0 106953.0 147910.0 142562.0 104539.0 102177.0 104539.0 104539.0 104539.0 104539.0 104539.0 104539.0 104539.0 102177.0 102177.0 102177.0 102177.0 102177.0 102177.0 102177.0
133471.0 131920.0 121251.0 121581.0 26285.0 25050.0 31778.0 35237.0 104798.0 109245.0 162774.0 162703.0 79686.0 79624.0 135826.0 137582.0 110967.0 103940.0 94201.0 89480.0 186426.0 186171.0 122087.0 115814.0 197612.0 191100.0 132953.0 132864.0 159509.0 164619.0 114183.0 107473.0 70567.0 73228.0 101020.0 102494.0 90196.0 82403.0 46294.0 41334.0 68009.0 61145.0 113448.0 109762.0 96044.0 100953.0 107971.0 112004.0 49980.0 48387.0 50591.0 56715.0 95869.0 88889.0 89182.0 95015.0 40796.0 46767.0 108345.0 101404.0 30448.0 31809.0 105312.0 104386.0 95100.0 88567.0 43395.0 49103.0 35615.0 32939.0 23263.0 23398.0 141102.0 148879.0 132667.0 129544.0 41852.0 48990.0 206003.0 199739.0 163274.0 162835.0 74824.0 71653.0 35560.0 38004.0 254328.0 261181.0 102886.0 94722.0 7988.0 0.0 271941.0 264228.0 275048.0 273041.0 105312.0 99290.0 110921.0 110802.0 157144.0 157598.0 156158.0 150767.0 38593.0 32553.0 34357.0 39039.0 108040.0 115436.0 22424.0 30201.0 200009.0 206393.0 85580.0 92869.0 32820.0 39792.0 16448.0 17487.0 63412.0 57036.0 14001.0 17781.0 227701.0 222346.0 129800.0 125051.0 30333.0 23194.0 98700.0 91831.0 34169.0 38485.0 185876.0 187827.0 126142.0 125650.0 43700.0 51818.0 78010.0 70866.0 85949.0 94087.0 11022.0 18274.0 144401.0 138593.0 229212.0 221044.0 186440.0 187484.0 180939.0 173576.0 17871.0 25772.0 101081.0 100760.0 141507.0 136393.0 101763.0 109679.0 101763.0 101763.0 101763.0 101763.0 101763.0 101763.0 101763.0 109679.0 109679.0 109679.0 109679.0 109679.0 109679.0 109679.0
361213.0 365137.0 380114.0 383280.0 290901.0 284216.0 303622.0 306903.0 362073.0 368861.0 315202.0 322198.0 334388.0 329390.0 381299.0 386655.0 365307.0 361246.0 311493.0 314142.0 336153.0 342466.0 389436.0 384409.0 75502.0 82941.0 372379.0 368883.0 123469.0 115871.0 373322.0 365365.0 205708.0 206776.0 343852.0 349283.0 358024.0 351204.0 317488.0 313227.0 217965.0 225751.0 362724.0 362640.0 329211.0 327615.0 164374.0 161549.0 238926.0 246311.0 322443.0 328637.0 367600.0 360779.0 188862.0 181240.0 246581.0 238146.0 344996.0 342255.0 283800.0 291353.0 347281.0 342423.0 345053.0 336963.0 314445.0 318629.0 268263.0 275517.0 249474.0 252942.0 397652.0 405328.0 387180.0 381365.0 308490.0 316506.0 71127.0 79010.0 109587.0 109161.0 198061.0 200651.0 299684.0 305705.0 53086.0 48255.0 356310.0 348915.0 263955.0 271941.0 0.0 8018.0 32595.0 24611.0 372095.0 367674.0 340431.0 345694.0 117896.0 120080.0 339782.0 331782.0 243424.0 244288.0 238514.0 232929.0 169769.0 161775.0 265885.0 261870.0 76439.0 68694.0 345291.0 353277.0 243887.0 237032.0 256313.0 254696.0 335014.0 328059.0 279026.0 286675.0 47053.0 50478.0 400988.0 395563.0 301080.0 293158.0 185475.0 193906.0 269013.0 261297.0 362649.0 369669.0 388511.0 390489.0 311171.0 318108.0 326592.0 319110.0 355295.0 363398.0 280407.0 282830.0 130837.0 138150.0 63039.0 66179.0 90958.0 87037.0 97606.0 105280.0 254187.0 246225.0 359384.0 355317.0 393443.0 386110.0 328359.0 171494.0 328359.0 328359.0 328359.0 328359.0 328359.0 328359.0 328359.0 171494.0 171494.0 171494.0 171494.0 171494.0 171494.0 171494.0
353203.0 357121.0 372885.0 375985.0 283059.0 276352.0 295889.0 299223.0 354097.0 360895.0 307483.0 314449.0 327140.0 322214.0 373283.0 378642.0 357316.0 353271.0 303477.0 306124.0 328539.0 334815.0 381984.0 376909.0 67550.0 74954.0 365156.0 361659.0 116900.0 109199.0 366074.0 358131.0 197809.0 198830.0 336628.0 342059.0 350527.0 343670.0 309714.0 305497.0 209991.0 217783.0 355500.0 355281.0 321194.0 319597.0 156574.0 153670.0 230972.0 238346.0 314705.0 320933.0 359930.0 353085.0 181555.0 173883.0 238654.0 230215.0 336979.0 334241.0 275903.0 283472.0 340057.0 335200.0 337057.0 328967.0 306799.0 311038.0 260326.0 267595.0 241815.0 245355.0 390511.0 398203.0 379956.0 374141.0 300639.0 308656.0 63125.0 71022.0 102161.0 101520.0 190475.0 193013.0 291821.0 297871.0 52321.0 48564.0 349150.0 341719.0 256240.0 264228.0 8018.0 0.0 35851.0 27857.0 364645.0 360169.0 332413.0 337675.0 109920.0 112068.0 331919.0 323915.0 235527.0 236445.0 230875.0 225230.0 162536.0 154548.0 258018.0 253965.0 68423.0 60676.0 337340.0 345326.0 236339.0 229509.0 248558.0 247007.0 327253.0 320273.0 271417.0 279045.0 40632.0 43364.0 393185.0 387733.0 293433.0 285522.0 177472.0 185904.0 261083.0 253353.0 354886.0 361884.0 381206.0 383117.0 303619.0 310594.0 318604.0 311126.0 347448.0 355546.0 272638.0 275010.0 122870.0 130163.0 59066.0 61365.0 84264.0 79988.0 89590.0 97262.0 246457.0 238497.0 351415.0 347332.0 386219.0 378886.0 321135.0 164411.0 321135.0 321135.0 321135.0 321135.0 321135.0 321135.0 321135.0 164411.0 164411.0 164411.0 164411.0 164411.0 164411.0 164411.0
373762.0 377064.0 378850.0 382041.0 295959.0 289755.0 306807.0 309299.0 370136.0 376546.0 334145.0 340763.0 333119.0 328207.0 391770.0 396618.0 373979.0 369290.0 323553.0 325472.0 356165.0 362087.0 388646.0 384174.0 87599.0 95627.0 371118.0 367621.0 119290.0 112209.0 372053.0 364098.0 212685.0 214922.0 342590.0 348021.0 357864.0 351509.0 321228.0 316303.0 226890.0 234347.0 361462.0 361378.0 340102.0 339254.0 170111.0 168781.0 246955.0 254633.0 325576.0 331249.0 369555.0 363099.0 188183.0 181187.0 253804.0 245553.0 355932.0 352537.0 290053.0 297197.0 346019.0 341162.0 354059.0 346006.0 316323.0 319779.0 275568.0 282412.0 252006.0 254510.0 396555.0 404284.0 385918.0 380103.0 313630.0 321570.0 88254.0 96259.0 112304.0 114280.0 200238.0 203445.0 305111.0 310543.0 28460.0 20951.0 355166.0 347686.0 267134.0 275048.0 32595.0 35851.0 0.0 8049.0 371356.0 367573.0 352158.0 356884.0 128690.0 132540.0 356640.0 348609.0 249972.0 249740.0 240884.0 236169.0 168743.0 160874.0 271602.0 268451.0 92301.0 84272.0 352586.0 360564.0 245077.0 237989.0 260160.0 257577.0 338459.0 331937.0 280666.0 288530.0 49257.0 56333.0 404841.0 399922.0 303048.0 295053.0 196048.0 204340.0 276147.0 268889.0 380929.0 387638.0 387287.0 389450.0 311889.0 318339.0 335312.0 327638.0 360121.0 368283.0 284277.0 287561.0 140943.0 148788.0 49264.0 55828.0 88714.0 87755.0 112594.0 119702.0 257676.0 249740.0 367200.0 363769.0 392181.0 384848.0 327097.0 170417.0 327097.0 327097.0 327097.0 327097.0 327097.0 327097.0 327097.0 170417.0 170417.0 170417.0 170417.0 170417.0 170417.0 170417.0
369637.0 373083.0 377721.0 380912.0 293511.0 287186.0 304818.0 307503.0 367044.0 373547.0 328581.0 335284.0 331990.0 327078.0 388131.0 393100.0 370747.0 366201.0 319505.0 321592.0 350383.0 356391.0 387691.0 383080.0 82828.0 90817.0 369989.0 366492.0 118287.0 111207.0 370924.0 362970.0 209661.0 211632.0 341462.0 346892.0 356733.0 350259.0 319120.0 314349.0 223443.0 230988.0 360333.0 360250.0 336334.0 335314.0 167264.0 165583.0 243747.0 251368.0 323618.0 329422.0 367917.0 361368.0 186931.0 179762.0 250794.0 242487.0 352164.0 348917.0 287316.0 294565.0 344890.0 340033.0 350736.0 342668.0 314659.0 318295.0 272567.0 279515.0 250105.0 252846.0 395427.0 403155.0 384790.0 378974.0 311181.0 319146.0 82487.0 90537.0 109874.0 111300.0 198322.0 201389.0 302585.0 308163.0 32603.0 26016.0 354038.0 346557.0 265099.0 273041.0 24611.0 27857.0 8049.0 0.0 370377.0 366435.0 348207.0 353059.0 124520.0 128027.0 351541.0 343513.0 247113.0 247139.0 239004.0 234072.0 167516.0 159588.0 268969.0 265611.0 86816.0 78762.0 349661.0 357647.0 243490.0 236447.0 257956.0 255601.0 336437.0 329806.0 279021.0 286842.0 45796.0 52291.0 402768.0 397725.0 301348.0 293362.0 192163.0 200505.0 273187.0 265813.0 375532.0 382312.0 386158.0 388321.0 310503.0 317078.0 332041.0 324405.0 357786.0 365939.0 282099.0 285182.0 136986.0 144746.0 50233.0 55954.0 87266.0 85560.0 107439.0 114706.0 255554.0 247600.0 364163.0 360581.0 391052.0 383719.0 325969.0 168223.0 325969.0 325969.0 325969.0 325969.0 325969.0 325969.0 325969.0 168223.0 168223.0 168223.0 168223.0 168223.0 168223.0 168223.0
153327.0 146526.0 26864.0 21636.0 98023.0 105716.0 77971.0 71534.0 100378.0 96724.0 224395.0 220675.0 43578.0 51467.0 132656.0 128099.0 107819.0 100089.0 147366.0 139446.0 241768.0 238151.0 17342.0 13869.0 299583.0 293601.0 69149.0 75633.0 253754.0 259610.0 23386.0 25370.0 175789.0 178507.0 56489.0 49012.0 15243.0 23447.0 70662.0 69683.0 172460.0 165071.0 44359.0 36518.0 132698.0 140944.0 210852.0 215768.0 152476.0 148443.0 63111.0 55196.0 30752.0 35792.0 183552.0 190967.0 142879.0 150296.0 132606.0 125210.0 110218.0 102472.0 57865.0 64844.0 110873.0 111953.0 62750.0 56243.0 127297.0 119843.0 124973.0 120149.0 43887.0 50258.0 41511.0 44676.0 86395.0 80965.0 309022.0 303203.0 262508.0 263402.0 174592.0 172557.0 94123.0 86133.0 350298.0 357151.0 35402.0 36164.0 112837.0 105312.0 372095.0 364645.0 371356.0 370377.0 0.0 8322.0 141546.0 135551.0 260650.0 261746.0 202290.0 200722.0 142457.0 137570.0 135254.0 142040.0 202911.0 210872.0 120721.0 128044.0 303020.0 308924.0 92070.0 91320.0 128672.0 135304.0 121732.0 120722.0 57367.0 64886.0 94961.0 88156.0 326272.0 321747.0 62862.0 65601.0 75091.0 82177.0 203975.0 196948.0 125784.0 133815.0 226022.0 224090.0 23998.0 20805.0 62156.0 54532.0 110358.0 110439.0 63920.0 64001.0 100560.0 102476.0 248213.0 242902.0 325182.0 317014.0 283145.0 285618.0 284782.0 277623.0 122672.0 130113.0 97359.0 104496.0 51643.0 52242.0 96105.0 202888.0 96105.0 96105.0 96105.0 96105.0 96105.0 96105.0 96105.0 202888.0 202888.0 202888.0 202888.0 202888.0 202888.0 202888.0
145372.0 138660.0 34900.0 29951.0 90743.0 98477.0 71035.0 64933.0 92556.0 89138.0 216073.0 212359.0 43753.0 51995.0 125259.0 120919.0 100077.0 92243.0 139052.0 131131.0 233477.0 229886.0 22878.0 16755.0 294739.0 288636.0 75643.0 81739.0 249830.0 255687.0 30795.0 31382.0 169855.0 172328.0 60108.0 53097.0 9712.0 16888.0 62997.0 62458.0 165933.0 158453.0 50205.0 42278.0 124395.0 132639.0 205697.0 210416.0 145701.0 141454.0 55505.0 47582.0 23237.0 27689.0 179507.0 186784.0 136113.0 143668.0 124435.0 117004.0 102805.0 94963.0 61981.0 68560.0 102689.0 103679.0 56240.0 50226.0 120025.0 112487.0 119596.0 115128.0 52209.0 58542.0 49604.0 52346.0 78599.0 72978.0 303947.0 298009.0 258109.0 258782.0 169837.0 167632.0 86496.0 78492.0 346449.0 353302.0 40038.0 39195.0 106950.0 99290.0 367674.0 360169.0 367573.0 366435.0 8322.0 0.0 133328.0 127389.0 255413.0 256326.0 194042.0 192436.0 135918.0 131303.0 130080.0 136641.0 198919.0 206850.0 113897.0 121087.0 297943.0 303966.0 83856.0 83260.0 123894.0 130664.0 115738.0 115126.0 49227.0 56843.0 89546.0 82464.0 322081.0 317411.0 58587.0 60462.0 68963.0 76311.0 197771.0 190617.0 118530.0 126642.0 217903.0 216042.0 32241.0 28383.0 56800.0 49580.0 102036.0 102136.0 55827.0 56248.0 94003.0 95528.0 242883.0 237417.0 321333.0 313166.0 279170.0 281435.0 279470.0 272244.0 116850.0 124421.0 89463.0 96495.0 59788.0 60031.0 97414.0 198964.0 97414.0 97414.0 97414.0 97414.0 97414.0 97414.0 97414.0 198964.0 198964.0 198964.0 198964.0 198964.0 198964.0 198964.0
23321.0 24940.0 168166.0 163084.0 85778.0 85898.0 96718.0 103150.0 46449.0 53625.0 86988.0 81732.0 151347.0 157044.0 42977.0 50055.0 42334.0 46255.0 29028.0 26868.0 101025.0 96864.0 149263.0 141250.0 265845.0 258030.0 203500.0 207489.0 249209.0 251982.0 163380.0 161523.0 143300.0 139203.0 177253.0 173787.0 131011.0 124495.0 88125.0 95368.0 126583.0 119866.0 177709.0 170462.0 14913.0 12910.0 185209.0 184758.0 109108.0 101255.0 93419.0 98283.0 111810.0 105811.0 186362.0 189299.0 105206.0 112027.0 9945.0 16371.0 81038.0 79322.0 180991.0 184350.0 30798.0 30251.0 106707.0 113368.0 86259.0 82805.0 128130.0 132299.0 185014.0 190585.0 182884.0 184898.0 77206.0 75431.0 269391.0 261649.0 242565.0 238916.0 167138.0 162519.0 78323.0 80972.0 336316.0 342445.0 165378.0 159772.0 114955.0 110921.0 340431.0 332413.0 352158.0 348207.0 141546.0 133328.0 0.0 7913.0 223705.0 220623.0 60859.0 60069.0 110856.0 115294.0 136297.0 135428.0 201751.0 207356.0 97150.0 95314.0 263993.0 271762.0 49476.0 51186.0 140041.0 145628.0 115415.0 122603.0 89745.0 85423.0 118824.0 114051.0 302901.0 295971.0 108846.0 100725.0 108511.0 111472.0 156111.0 147839.0 86562.0 90724.0 85252.0 84412.0 164539.0 158546.0 118271.0 122395.0 36298.0 41469.0 77883.0 79708.0 100635.0 92751.0 211245.0 203461.0 311609.0 303341.0 268597.0 266778.0 242833.0 235151.0 119073.0 124340.0 47741.0 39572.0 193099.0 192750.0 196277.0 205896.0 196277.0 196277.0 196277.0 196277.0 196277.0 196277.0 196277.0 205896.0 205896.0 205896.0 205896.0 205896.0 205896.0 205896.0
22833.0 21661.0 162280.0 157005.0 85121.0 85957.0 94482.0 100534.0 38942.0 45947.0 94577.0 89142.0 147112.0 153074.0 36315.0 42992.0 34516.0 38799.0 35117.0 31551.0 107936.0 103502.0 142736.0 134767.0 270891.0 263121.0 198513.0 202724.0 252627.0 255612.0 157670.0 156090.0 146929.0 143165.0 172902.0 169166.0 125471.0 119200.0 84901.0 92386.0 130665.0 123721.0 172619.0 165263.0 16982.0 18567.0 189152.0 188992.0 112479.0 104595.0 89741.0 94134.0 105521.0 99762.0 188715.0 191951.0 107997.0 115139.0 3036.0 11021.0 81510.0 79008.0 176558.0 180166.0 24747.0 25923.0 103508.0 109855.0 88270.0 84187.0 129010.0 132756.0 178804.0 184229.0 176991.0 179241.0 75098.0 72550.0 274734.0 267044.0 246774.0 243331.0 169750.0 165193.0 77117.0 79010.0 340601.0 346829.0 160352.0 154981.0 115309.0 110802.0 345694.0 337675.0 356884.0 353059.0 135551.0 127389.0 7913.0 0.0 228636.0 225739.0 67461.0 67166.0 113441.0 117394.0 137609.0 137204.0 204549.0 210353.0 98413.0 97208.0 269281.0 277002.0 43680.0 44572.0 140824.0 146651.0 116389.0 123339.0 85130.0 81350.0 117891.0 112696.0 307633.0 300786.0 101212.0 93098.0 106234.0 109708.0 160895.0 152563.0 88433.0 93203.0 90593.0 89195.0 158300.0 152140.0 115205.0 118892.0 33922.0 40180.0 71682.0 73022.0 100249.0 92536.0 216074.0 208348.0 315794.0 307539.0 272710.0 271096.0 248141.0 240436.0 120026.0 125665.0 40478.0 32380.0 187175.0 187067.0 193212.0 208479.0 193212.0 193212.0 193212.0 193212.0 193212.0 193212.0 193212.0 208479.0 208479.0 208479.0 208479.0 208479.0 208479.0 208479.0
245130.0 248570.0 272060.0 274158.0 174174.0 167226.0 188325.0 192381.0 244178.0 250983.0 209604.0 215606.0 226561.0 222840.0 263911.0 269076.0 247436.0 243351.0 194985.0 197135.0 233074.0 238263.0 277849.0 272132.0 42452.0 34985.0 268373.0 264880.0 59167.0 54433.0 265036.0 257375.0 88498.0 89026.0 239138.0 243976.0 245964.0 238616.0 201562.0 197935.0 100071.0 107872.0 257176.0 256185.0 211974.0 210819.0 49849.0 45140.0 121110.0 128439.0 207010.0 213647.0 252930.0 245799.0 85164.0 77051.0 128969.0 120502.0 227798.0 224756.0 166435.0 174155.0 242769.0 238309.0 227214.0 219125.0 200405.0 205409.0 150555.0 157920.0 135825.0 140536.0 290809.0 298656.0 280710.0 275541.0 191607.0 199627.0 48957.0 42617.0 32136.0 24084.0 87180.0 88508.0 182675.0 189031.0 115679.0 120850.0 249639.0 241756.0 149212.0 157144.0 117896.0 109920.0 128690.0 124520.0 260650.0 255413.0 223705.0 228636.0 0.0 7469.0 229470.0 221457.0 126127.0 127688.0 125397.0 118804.0 70330.0 63927.0 148907.0 144453.0 42998.0 49860.0 227473.0 235455.0 132361.0 126157.0 140984.0 140481.0 219204.0 211943.0 165870.0 173094.0 79539.0 72372.0 284526.0 278796.0 187124.0 179416.0 67821.0 76222.0 151355.0 143531.0 255067.0 261379.0 279183.0 280109.0 198634.0 206120.0 208713.0 201217.0 238390.0 246431.0 164722.0 166399.0 13010.0 20324.0 92764.0 84692.0 54303.0 48806.0 24302.0 17897.0 139277.0 131442.0 241499.0 237428.0 287766.0 280851.0 224357.0 75676.0 224357.0 224357.0 224357.0 224357.0 224357.0 224357.0 224357.0 75676.0 75676.0 75676.0 75676.0 75676.0 75676.0 75676.0
241771.0 245421.0 273819.0 275712.0 173707.0 166613.0 188485.0 192806.0 242350.0 249272.0 204104.0 210243.0 228487.0 225005.0 261246.0 266575.0 245393.0 241532.0 191779.0 194197.0 227343.0 232661.0 278877.0 273008.0 45282.0 37412.0 271326.0 267889.0 66595.0 61902.0 266770.0 259182.0 88054.0 87918.0 241751.0 246401.0 246947.0 239483.0 201430.0 198070.0 98424.0 106330.0 259511.0 258303.0 209190.0 207767.0 51665.0 46017.0 119742.0 126887.0 207068.0 213855.0 253167.0 245945.0 88963.0 80935.0 127913.0 119432.0 224991.0 222179.0 165540.0 173378.0 245447.0 241166.0 225084.0 216995.0 200963.0 206195.0 149317.0 156812.0 136779.0 141830.0 292739.0 300598.0 282776.0 277772.0 191007.0 199014.0 49785.0 42722.0 39554.0 31437.0 89421.0 90373.0 182013.0 188560.0 120759.0 125641.0 251700.0 243754.0 149721.0 157598.0 120080.0 112068.0 132540.0 128027.0 261746.0 256326.0 220623.0 225739.0 7469.0 0.0 224679.0 216655.0 125406.0 127453.0 126587.0 119714.0 75135.0 69134.0 148353.0 143563.0 44020.0 51456.0 225949.0 233915.0 133946.0 127956.0 141305.0 141220.0 219084.0 211704.0 166817.0 173885.0 83679.0 76255.0 284020.0 278139.0 187750.0 180135.0 65473.0 73906.0 150185.0 142212.0 249903.0 256321.0 280687.0 281398.0 199627.0 207229.0 206719.0 199309.0 237701.0 245695.0 164797.0 166115.0 13949.0 19050.0 98389.0 90427.0 61064.0 55163.0 23540.0 15995.0 139772.0 132028.0 239761.0 235477.0 290017.0 283229.0 227389.0 80817.0 227389.0 227389.0 227389.0 227389.0 227389.0 227389.0 227389.0 80817.0 80817.0 80817.0 80817.0 80817.0 80817.0 80817.0
56380.0 64804.0 228814.0 223863.0 134772.0 132179.0 150327.0 157655.0 105919.0 112287.0 34883.0 27010.0 209329.0 214335.0 88027.0 96140.0 100349.0 105878.0 62672.0 68927.0 40799.0 36042.0 210098.0 202096.0 269071.0 261039.0 262840.0 266372.0 267273.0 268271.0 223871.0 221688.0 164726.0 158402.0 235333.0 232492.0 191373.0 184577.0 144671.0 151107.0 146002.0 141731.0 237309.0 230262.0 70413.0 62447.0 201516.0 198652.0 135629.0 128936.0 150875.0 156641.0 172667.0 166607.0 214328.0 215108.0 135919.0 139949.0 70242.0 77229.0 126112.0 127582.0 239243.0 241984.0 91657.0 90432.0 162720.0 170053.0 123656.0 123713.0 167670.0 173719.0 245843.0 251443.0 243527.0 245305.0 131316.0 131587.0 269474.0 261421.0 254276.0 248935.0 194276.0 189485.0 129699.0 134474.0 345139.0 350269.0 224904.0 218885.0 157846.0 156158.0 339782.0 331919.0 356640.0 351541.0 202290.0 194042.0 60859.0 67461.0 229470.0 224679.0 0.0 8030.0 142240.0 149142.0 173068.0 169643.0 226040.0 229985.0 137106.0 132252.0 264813.0 272862.0 110261.0 111952.0 179428.0 183465.0 155306.0 163200.0 149052.0 143844.0 167011.0 164044.0 308253.0 300679.0 167153.0 159137.0 161836.0 163013.0 166961.0 159896.0 124636.0 125027.0 30066.0 33796.0 225380.0 219405.0 173676.0 178901.0 93853.0 96468.0 138735.0 140452.0 147605.0 139577.0 218495.0 210513.0 321777.0 313569.0 280379.0 276810.0 244111.0 236938.0 158810.0 161793.0 107800.0 99785.0 253761.0 253178.0 250648.0 231534.0 250648.0 250648.0 250648.0 250648.0 250648.0 250648.0 250648.0 231534.0 231534.0 231534.0 231534.0 231534.0 231534.0 231534.0
58724.0 67094.0 227072.0 222341.0 130070.0 127123.0 146283.0 153749.0 106032.0 112731.0 30104.0 23025.0 206145.0 210915.0 90684.0 98842.0 100918.0 105925.0 58248.0 64998.0 41079.0 37756.0 209122.0 201074.0 261040.0 253008.0 260112.0 263429.0 259495.0 260436.0 221955.0 219502.0 157282.0 150872.0 232127.0 229527.0 189388.0 182400.0 141320.0 147517.0 138535.0 134416.0 234750.0 227826.0 68160.0 59992.0 193757.0 190820.0 128644.0 122087.0 147738.0 153763.0 171476.0 165192.0 207104.0 207755.0 129239.0 133030.0 69786.0 76306.0 120967.0 122848.0 236091.0 238613.0 90705.0 88785.0 159132.0 166606.0 117686.0 118108.0 161561.0 167774.0 244439.0 250213.0 241764.0 243285.0 127520.0 128236.0 261454.0 253402.0 246337.0 240967.0 187055.0 182269.0 125422.0 130531.0 337129.0 342249.0 222325.0 216119.0 152160.0 150767.0 331782.0 323915.0 348609.0 343513.0 200722.0 192436.0 60069.0 67166.0 221457.0 216655.0 8030.0 0.0 135564.0 142619.0 166663.0 163031.0 218583.0 222439.0 131258.0 126146.0 256788.0 264837.0 108970.0 111219.0 173243.0 177111.0 149308.0 157226.0 146575.0 141052.0 161952.0 159276.0 300225.0 292649.0 167893.0 159822.0 157664.0 158507.0 159095.0 152081.0 118722.0 118751.0 36784.0 41251.0 224039.0 218270.0 169890.0 175369.0 91295.0 93311.0 137562.0 139734.0 142504.0 134523.0 210502.0 202521.0 313786.0 305581.0 272427.0 268830.0 236082.0 228908.0 152773.0 155512.0 107642.0 99522.0 252015.0 251169.0 246410.0 224138.0 246410.0 246410.0 246410.0 246410.0 246410.0 246410.0 246410.0 224138.0 224138.0 224138.0 224138.0 224138.0 224138.0 224138.0
134134.0 135011.0 159600.0 159620.0 48452.0 41220.0 65233.0 70988.0 120429.0 126645.0 140952.0 142631.0 118222.0 117836.0 145212.0 148979.0 124766.0 119574.0 86430.0 84839.0 166019.0 167285.0 158794.0 152073.0 168054.0 160961.0 170813.0 170256.0 140106.0 143739.0 152558.0 145969.0 37719.0 37723.0 138860.0 140752.0 127224.0 119161.0 76786.0 74489.0 30015.0 22698.0 151947.0 148350.0 96635.0 98600.0 79869.0 81903.0 12021.0 14403.0 83023.0 90341.0 129354.0 121855.0 75548.0 78514.0 6325.0 8189.0 111739.0 106650.0 40376.0 48027.0 143121.0 141648.0 105502.0 97646.0 79726.0 86389.0 26005.0 32452.0 31199.0 39149.0 179505.0 187251.0 171214.0 168137.0 65608.0 73610.0 174940.0 168109.0 137808.0 135814.0 56319.0 51753.0 56607.0 63258.0 231080.0 237814.0 141473.0 133305.0 32741.0 38593.0 243424.0 235527.0 249972.0 247113.0 142457.0 135918.0 110856.0 113441.0 126127.0 125406.0 142240.0 135564.0 0.0 8448.0 32230.0 27523.0 91131.0 97110.0 23075.0 18501.0 169036.0 175983.0 102623.0 110596.0 40710.0 42786.0 24129.0 30089.0 94355.0 86724.0 51886.0 56337.0 201328.0 195244.0 158631.0 152739.0 67615.0 61308.0 62577.0 54987.0 26366.0 20250.0 172235.0 175727.0 164039.0 163067.0 81884.0 90064.0 86626.0 78796.0 112307.0 120323.0 41918.0 41384.0 113124.0 106441.0 205963.0 197796.0 162842.0 162439.0 148945.0 141325.0 25589.0 23314.0 117367.0 114410.0 180095.0 174971.0 135822.0 95068.0 135822.0 135822.0 135822.0 135822.0 135822.0 135822.0 135822.0 95068.0 95068.0 95068.0 95068.0 95068.0 95068.0 95068.0
138615.0 139044.0 153785.0 154124.0 46615.0 40051.0 61401.0 66504.0 121772.0 127640.0 148817.0 150312.0 111612.0 110861.0 148065.0 151435.0 126547.0 120909.0 91985.0 89815.0 173782.0 174884.0 154164.0 147661.0 169167.0 162274.0 163547.0 162785.0 137987.0 142035.0 146712.0 139937.0 39431.0 41062.0 131623.0 133775.0 122387.0 114454.0 73979.0 70892.0 35535.0 29041.0 145227.0 141887.0 100798.0 103335.0 80042.0 82873.0 20213.0 22673.0 79746.0 86758.0 126020.0 118672.0 71388.0 75102.0 14134.0 15823.0 115531.0 110028.0 40534.0 47460.0 135862.0 134167.0 107820.0 100141.0 75085.0 81334.0 29124.0 34127.0 22764.0 30739.0 173615.0 181404.0 165059.0 161727.0 64211.0 72221.0 176634.0 170017.0 137437.0 135944.0 52975.0 48677.0 55480.0 61440.0 230159.0 236999.0 135007.0 126819.0 25870.0 32553.0 244288.0 236445.0 249740.0 247139.0 137570.0 131303.0 115294.0 117394.0 127688.0 127453.0 149142.0 142619.0 8448.0 0.0 24302.0 20676.0 87993.0 94404.0 21876.0 20297.0 170685.0 177428.0 103470.0 111377.0 32395.0 34878.0 16859.0 21982.0 91633.0 84275.0 45145.0 50288.0 201422.0 195563.0 156885.0 151301.0 62483.0 55692.0 66473.0 59384.0 29023.0 24939.0 179186.0 182472.0 158662.0 158029.0 76242.0 84370.0 89048.0 81209.0 111007.0 119115.0 37685.0 38711.0 114746.0 108408.0 205042.0 196848.0 161988.0 162022.0 150966.0 143437.0 17702.0 14868.0 118537.0 116132.0 173767.0 168431.0 127741.0 91411.0 127741.0 127741.0 127741.0 127741.0 127741.0 127741.0 127741.0 91411.0 91411.0 91411.0 91411.0 91411.0 91411.0 91411.0
159528.0 159223.0 147681.0 149257.0 58157.0 53892.0 65984.0 68525.0 137008.0 142035.0 173097.0 174613.0 102976.0 100504.0 166051.0 168616.0 142630.0 136142.0 114685.0 111805.0 198082.0 199173.0 152456.0 146820.0 164814.0 158597.0 150850.0 149022.0 125169.0 130264.0 140595.0 133184.0 44251.0 49655.0 119497.0 122922.0 120591.0 113336.0 80646.0 75434.0 50224.0 46515.0 135400.0 133264.0 121511.0 124874.0 75623.0 80574.0 42562.0 46622.0 84707.0 90419.0 129127.0 122428.0 55045.0 60677.0 38330.0 37691.0 135497.0 129353.0 56847.0 61674.0 123552.0 120693.0 125248.0 118031.0 75931.0 80314.0 50690.0 53501.0 11133.0 15313.0 166945.0 174815.0 157417.0 153045.0 75203.0 82737.0 173868.0 167962.0 129410.0 129358.0 40683.0 37864.0 67765.0 71604.0 220057.0 226910.0 126494.0 118384.0 26650.0 34357.0 238514.0 230875.0 240884.0 239004.0 135254.0 130080.0 136297.0 137609.0 125397.0 126587.0 173068.0 166663.0 32230.0 24302.0 0.0 8186.0 73724.0 81083.0 39201.0 41616.0 167864.0 173926.0 117993.0 125585.0 10000.0 10579.0 21756.0 16929.0 97650.0 91389.0 40643.0 48175.0 193821.0 188643.0 164054.0 159391.0 62567.0 54647.0 73643.0 68513.0 50112.0 48132.0 203131.0 206239.0 154181.0 154812.0 73280.0 80723.0 107021.0 99350.0 120256.0 128404.0 44387.0 49405.0 112984.0 107858.0 194940.0 186773.0 152218.0 153454.0 149537.0 142416.0 18371.0 11958.0 133458.0 132248.0 165290.0 159100.0 110802.0 75595.0 110802.0 110802.0 110802.0 110802.0 110802.0 110802.0 110802.0 75595.0 75595.0 75595.0 75595.0 75595.0 75595.0 75595.0
158736.0 158863.0 155121.0 156512.0 60808.0 55688.0 70797.0 74017.0 138909.0 144273.0 168234.0 170065.0 110671.0 108389.0 166826.0 169763.0 144201.0 138041.0 112606.0 110262.0 193388.0 194756.0 159164.0 153346.0 158777.0 152390.0 158966.0 157183.0 121612.0 126335.0 148026.0 140693.0 36158.0 41469.0 127559.0 130887.0 127237.0 119823.0 85062.0 80371.0 42326.0 39069.0 143283.0 141013.0 120796.0 123651.0 69247.0 73775.0 36584.0 41578.0 89620.0 95708.0 134736.0 127855.0 52642.0 57422.0 33836.0 31712.0 135227.0 129412.0 57800.0 63481.0 131630.0 128832.0 126200.0 118756.0 81777.0 86607.0 49195.0 53132.0 17067.0 22950.0 174489.0 182357.0 165078.0 160825.0 78272.0 86031.0 167484.0 161417.0 124262.0 123804.0 36197.0 32729.0 70323.0 74895.0 215634.0 222487.0 134220.0 126086.0 31064.0 39039.0 232929.0 225230.0 236169.0 234072.0 142040.0 136641.0 135428.0 137204.0 118804.0 119714.0 169643.0 163031.0 27523.0 20676.0 8186.0 0.0 70516.0 77531.0 39306.0 40116.0 161482.0 167707.0 120110.0 127847.0 18084.0 16824.0 24182.0 21803.0 102373.0 95767.0 47107.0 54297.0 188683.0 183307.0 168700.0 163763.0 68438.0 60653.0 65567.0 60343.0 48867.0 45562.0 199664.0 203045.0 161382.0 161801.0 79914.0 87542.0 107673.0 99897.0 124165.0 132332.0 48149.0 52126.0 106241.0 100865.0 190517.0 182350.0 147664.0 148529.0 142829.0 135613.0 21511.0 13619.0 135472.0 133781.0 173059.0 166956.0 118974.0 73098.0 118974.0 118974.0 118974.0 118974.0 118974.0 118974.0 118974.0 73098.0 73098.0 73098.0 73098.0 73098.0 73098.0 73098.0
224945.0 226084.0 210352.0 213534.0 131292.0 126154.0 139437.0 141249.0 209248.0 214740.0 216227.0 220096.0 164620.0 159709.0 236025.0 239423.0 214325.0 208381.0 176092.0 175363.0 241626.0 244800.0 220238.0 215565.0 100688.0 96261.0 202620.0 199124.0 51499.0 57003.0 203554.0 195601.0 61315.0 67839.0 174093.0 179524.0 189216.0 182781.0 154267.0 148737.0 80048.0 84613.0 192965.0 192881.0 187699.0 189294.0 35058.0 42748.0 93134.0 100833.0 157982.0 163216.0 201049.0 194766.0 19441.0 13099.0 96579.0 89830.0 202868.0 197723.0 127897.0 133928.0 177522.0 172664.0 195803.0 188134.0 147932.0 151117.0 116760.0 122118.0 84777.0 86323.0 228058.0 235786.0 217421.0 211605.0 148659.0 156320.0 112405.0 108441.0 60798.0 63494.0 35019.0 39419.0 140829.0 145173.0 147591.0 154443.0 186669.0 179188.0 100373.0 108040.0 169769.0 162536.0 168743.0 167516.0 202911.0 198919.0 201751.0 204549.0 70330.0 75135.0 226040.0 218583.0 91131.0 87993.0 73724.0 70516.0 0.0 7995.0 109139.0 108227.0 106678.0 110953.0 190558.0 198328.0 76725.0 69560.0 94573.0 90654.0 171037.0 165006.0 112321.0 120263.0 123475.0 119291.0 237358.0 232923.0 134764.0 126769.0 68158.0 71795.0 116845.0 111381.0 255101.0 259800.0 218777.0 220912.0 143163.0 149605.0 177042.0 169203.0 193976.0 202120.0 118066.0 122581.0 62146.0 62063.0 122474.0 114307.0 80254.0 82861.0 93181.0 87963.0 91601.0 83982.0 205868.0 203898.0 223683.0 216351.0 158600.0 7151.0 158600.0 158600.0 158600.0 158600.0 158600.0 158600.0 158600.0 7151.0 7151.0 7151.0 7151.0 7151.0 7151.0 7151.0
230477.0 231823.0 218343.0 221529.0 138338.0 133029.0 146937.0 148888.0 215961.0 221565.0 219090.0 223203.0 172613.0 167701.0 242249.0 245798.0 220911.0 215095.0 181291.0 180827.0 244402.0 247801.0 228202.0 223504.0 92968.0 88710.0 210612.0 207115.0 44114.0 49302.0 211547.0 203592.0 65563.0 71586.0 182084.0 187515.0 197149.0 190683.0 161707.0 156281.0 84094.0 89168.0 200956.0 200872.0 193451.0 194806.0 34068.0 41104.0 98401.0 106188.0 165537.0 170860.0 208813.0 202485.0 27343.0 20470.0 102370.0 95329.0 208741.0 203758.0 134571.0 140777.0 185513.0 180656.0 202198.0 194468.0 155656.0 158931.0 122924.0 128512.0 92178.0 93961.0 236050.0 243778.0 225413.0 219597.0 155784.0 163497.0 104859.0 101088.0 52885.0 55805.0 41585.0 45732.0 147839.0 152351.0 139727.0 146580.0 194661.0 187173.0 107708.0 115436.0 161775.0 154548.0 160874.0 159588.0 210872.0 206850.0 207356.0 210353.0 63927.0 69134.0 229985.0 222439.0 97110.0 94404.0 81083.0 77531.0 7995.0 0.0 115783.0 114538.0 99180.0 103290.0 197371.0 205178.0 84406.0 77262.0 101673.0 98001.0 178568.0 172450.0 120020.0 127944.0 115486.0 111298.0 244926.0 240415.0 142455.0 134458.0 69096.0 73559.0 123076.0 117334.0 258809.0 263687.0 226771.0 228899.0 151016.0 157503.0 183389.0 175545.0 201322.0 209475.0 125334.0 129655.0 56622.0 57363.0 114611.0 106444.0 72322.0 74868.0 86271.0 81340.0 98783.0 91078.0 212626.0 210488.0 231675.0 224342.0 166591.0 11757.0 166591.0 166591.0 166591.0 166591.0 166591.0 166591.0 166591.0 11757.0 11757.0 11757.0 11757.0 11757.0 11757.0 11757.0
120352.0 120035.0 139200.0 138673.0 25388.0 18337.0 42879.0 49260.0 100183.0 105907.0 141516.0 141863.0 99938.0 100684.0 127520.0 130514.0 105187.0 99317.0 76659.0 73144.0 165592.0 165741.0 136733.0 129815.0 190640.0 183646.0 154237.0 154521.0 159567.0 163759.0 132246.0 126059.0 60410.0 60795.0 122420.0 123365.0 105483.0 97303.0 53778.0 51865.0 52570.0 44831.0 133683.0 129418.0 82336.0 85907.0 101793.0 104357.0 31813.0 28032.0 60171.0 67630.0 106444.0 98898.0 91819.0 96126.0 22244.0 30135.0 96319.0 90279.0 18794.0 25598.0 126727.0 126192.0 86923.0 79451.0 58077.0 65237.0 13809.0 14367.0 31289.0 36668.0 159173.0 166817.0 151444.0 148965.0 42700.0 50720.0 197790.0 191029.0 159302.0 157737.0 74212.0 70097.0 33806.0 40218.0 252020.0 258865.0 122594.0 114537.0 21239.0 22424.0 265885.0 258018.0 271602.0 268969.0 120721.0 113897.0 97150.0 98413.0 148907.0 148353.0 137106.0 131258.0 23075.0 21876.0 39201.0 39306.0 109139.0 115783.0 0.0 8048.0 191867.0 198732.0 81717.0 89595.0 43273.0 48522.0 18553.0 26255.0 71309.0 63652.0 36260.0 38159.0 223236.0 217327.0 135672.0 129889.0 46928.0 41797.0 85579.0 77865.0 12599.0 16095.0 167083.0 169589.0 142893.0 141458.0 61835.0 69979.0 68368.0 60594.0 89497.0 97563.0 20841.0 18535.0 135921.0 129355.0 226904.0 218705.0 183856.0 183892.0 171893.0 164295.0 22194.0 27253.0 96878.0 94760.0 160679.0 156095.0 124185.0 112154.0 124185.0 124185.0 124185.0 124185.0 124185.0 124185.0 124185.0 112154.0 112154.0 112154.0 112154.0 112154.0 112154.0 112154.0
118625.0 118867.0 146928.0 146265.0 31259.0 23631.0 50079.0 56761.0 102114.0 108232.0 135200.0 135854.0 107955.0 108732.0 127800.0 131260.0 106635.0 101255.0 73072.0 70294.0 159551.0 159971.0 143873.0 136839.0 186468.0 179333.0 162285.0 162555.0 157931.0 161780.0 139998.0 133890.0 56169.0 55667.0 130465.0 131407.0 112825.0 104601.0 60050.0 58776.0 46443.0 38526.0 141689.0 137374.0 80709.0 83567.0 98359.0 100378.0 25090.0 20407.0 66754.0 74376.0 112806.0 105174.0 91673.0 95371.0 15869.0 24263.0 95302.0 89738.0 21986.0 29863.0 134771.0 134210.0 87668.0 79933.0 65572.0 72880.0 9113.0 14083.0 35423.0 41798.0 166904.0 174522.0 159283.0 156886.0 47750.0 55684.0 193191.0 186284.0 156257.0 154311.0 73214.0 68851.0 38665.0 45745.0 249417.0 256192.0 130557.0 122514.0 28011.0 30201.0 261870.0 253965.0 268451.0 265611.0 128044.0 121087.0 95314.0 97208.0 144453.0 143563.0 132252.0 126146.0 18501.0 20297.0 41616.0 40116.0 108227.0 114538.0 8048.0 0.0 187306.0 194313.0 84170.0 92135.0 47201.0 51644.0 23289.0 31225.0 77359.0 69524.0 44138.0 46205.0 219827.0 213744.0 140676.0 134629.0 54752.0 49798.0 79856.0 71921.0 8775.0 8418.0 162300.0 165111.0 150421.0 148816.0 69726.0 77848.0 68851.0 61008.0 94190.0 102149.0 28763.0 25570.0 131443.0 124654.0 224304.0 216134.0 181197.0 180886.0 167089.0 159437.0 26663.0 29863.0 98996.0 96244.0 168565.0 164045.0 131866.0 111706.0 131866.0 131866.0 131866.0 131866.0 131866.0 131866.0 131866.0 111706.0 111706.0 111706.0 111706.0 111706.0 111706.0 111706.0
284801.0 288698.0 313649.0 316017.0 217154.0 210177.0 231274.0 235239.0 286368.0 293292.0 241850.0 248500.0 267978.0 263890.0 304948.0 310381.0 289382.0 285550.0 235054.0 237730.0 263910.0 269794.0 320269.0 314683.0 10953.0 10620.0 307950.0 304453.0 75191.0 67449.0 306670.0 298916.0 131460.0 131744.0 279326.0 284520.0 288443.0 281191.0 244556.0 240888.0 142423.0 150314.0 297859.0 297249.0 252834.0 251181.0 92263.0 88054.0 163687.0 170879.0 249977.0 256577.0 295842.0 288740.0 123909.0 115795.0 171739.0 163261.0 268607.0 265958.0 209292.0 217059.0 282812.0 277978.0 269056.0 260968.0 243198.0 248064.0 193228.0 200672.0 178444.0 182879.0 332124.0 339942.0 321820.0 316377.0 234564.0 242582.0 6004.0 5370.0 48826.0 43700.0 128746.0 130505.0 225615.0 232012.0 86327.0 89458.0 290808.0 283035.0 192060.0 200009.0 76439.0 68423.0 92301.0 86816.0 303020.0 297943.0 263993.0 269281.0 42998.0 44020.0 264813.0 256788.0 169036.0 170685.0 167864.0 161482.0 106678.0 99180.0 191867.0 187306.0 0.0 8055.0 269950.0 277918.0 174442.0 168021.0 183906.0 183224.0 262196.0 254941.0 208450.0 215772.0 46516.0 38558.0 327508.0 321748.0 229889.0 222134.0 109467.0 117897.0 194070.0 186149.0 288722.0 295495.0 321101.0 322273.0 241144.0 248524.0 250721.0 243323.0 281330.0 289358.0 207694.0 209396.0 55953.0 62682.0 68957.0 62661.0 49819.0 41402.0 21170.0 28846.0 182138.0 174272.0 283781.0 279483.0 328548.0 321410.0 263929.0 110557.0 263929.0 263929.0 263929.0 263929.0 263929.0 263929.0 263929.0 110557.0 110557.0 110557.0 110557.0 110557.0 110557.0 110557.0
292645.0 296492.0 319098.0 321607.0 223968.0 217059.0 237776.0 241598.0 293743.0 300623.0 249890.0 256548.0 273373.0 269121.0 312612.0 317995.0 296837.0 292922.0 242843.0 245451.0 271915.0 277816.0 326201.0 320715.0 10620.0 15330.0 312722.0 309225.0 76170.0 68209.0 312146.0 304349.0 138331.0 138850.0 284191.0 289522.0 294430.0 287255.0 251196.0 247394.0 149706.0 157564.0 302907.0 302461.0 260519.0 258938.0 98465.0 94622.0 170879.0 178137.0 256517.0 263034.0 302259.0 295212.0 128669.0 120606.0 178815.0 170344.0 276303.0 273584.0 216295.0 224009.0 287619.0 282766.0 276537.0 268448.0 249476.0 254209.0 200371.0 207764.0 184605.0 188844.0 337429.0 345230.0 327037.0 321477.0 241431.0 249452.0 5370.0 12310.0 51548.0 47485.0 134424.0 136370.0 232513.0 238821.0 78936.0 81813.0 296071.0 288354.0 198427.0 206393.0 68694.0 60676.0 84272.0 78762.0 308924.0 303966.0 271762.0 277002.0 49860.0 51456.0 272862.0 264837.0 175983.0 177428.0 173926.0 167707.0 110953.0 103290.0 198732.0 194313.0 8055.0 0.0 277206.0 285182.0 180266.0 173744.0 190378.0 189487.0 268820.0 261628.0 214557.0 221954.0 39065.0 31153.0 334305.0 328620.0 236144.0 228348.0 116923.0 125357.0 201187.0 193323.0 296775.0 303550.0 326720.0 328035.0 247176.0 254478.0 258151.0 250721.0 288225.0 296274.0 214258.0 216129.0 62869.0 69855.0 62618.0 56794.0 48298.0 40091.0 29054.0 36644.0 188527.0 180629.0 291122.0 286903.0 333617.0 326390.0 268701.0 114448.0 268701.0 268701.0 268701.0 268701.0 268701.0 268701.0 268701.0 114448.0 114448.0 114448.0 114448.0 114448.0 114448.0 114448.0
63372.0 57914.0 118709.0 113615.0 59909.0 64423.0 60450.0 64452.0 19238.0 24197.0 134040.0 129659.0 104918.0 111412.0 52891.0 53014.0 25962.0 18387.0 59863.0 52068.0 150048.0 146192.0 100209.0 92140.0 269791.0 262457.0 155090.0 159523.0 241253.0 245473.0 114012.0 112427.0 140011.0 138517.0 130370.0 126212.0 81794.0 75620.0 47343.0 55298.0 127527.0 119644.0 129129.0 121702.0 41764.0 49967.0 182475.0 184179.0 106369.0 99073.0 50134.0 52845.0 62507.0 56347.0 172662.0 177484.0 98891.0 107254.0 40687.0 33151.0 62948.0 56635.0 133875.0 137914.0 18936.0 20516.0 65017.0 70073.0 77126.0 70176.0 107622.0 108974.0 135585.0 141259.0 133427.0 135572.0 43941.0 37907.0 275735.0 268533.0 240424.0 238381.0 155789.0 151765.0 50313.0 47983.0 333512.0 340330.0 116930.0 111831.0 92144.0 85580.0 345291.0 337340.0 352586.0 349661.0 92070.0 83856.0 49476.0 43680.0 227473.0 225949.0 110261.0 108970.0 102623.0 103470.0 117993.0 120110.0 190558.0 197371.0 81717.0 84170.0 269950.0 277206.0 0.0 7991.0 118272.0 125053.0 96378.0 101567.0 42824.0 40777.0 88207.0 81375.0 303867.0 297674.0 67325.0 59569.0 71235.0 76730.0 160747.0 152379.0 76476.0 84008.0 134271.0 132786.0 115135.0 109301.0 76770.0 78919.0 23636.0 28748.0 28607.0 31768.0 74610.0 68636.0 214491.0 207352.0 308411.0 300234.0 265321.0 265054.0 249298.0 241565.0 99634.0 106856.0 15509.0 16737.0 143634.0 143404.0 153652.0 193176.0 153652.0 153652.0 153652.0 153652.0 153652.0 153652.0 153652.0 193176.0 193176.0 193176.0 193176.0 193176.0 193176.0 193176.0
62289.0 56037.0 118146.0 112643.0 67441.0 72174.0 66703.0 70131.0 12764.0 16450.0 137266.0 132504.0 107473.0 114310.0 47954.0 47125.0 20386.0 12006.0 64956.0 57375.0 152209.0 147989.0 98168.0 90195.0 277777.0 270439.0 156101.0 160879.0 249092.0 253353.0 113825.0 112803.0 147999.0 146504.0 132527.0 127964.0 82123.0 76541.0 52937.0 60853.0 135495.0 127618.0 130065.0 122477.0 45604.0 53570.0 190453.0 192169.0 114354.0 107046.0 54870.0 56622.0 61030.0 55571.0 180350.0 185246.0 106881.0 115245.0 41727.0 34920.0 70845.0 64405.0 135881.0 140275.0 20607.0 24825.0 69913.0 74359.0 85116.0 78152.0 115126.0 116264.0 134318.0 139671.0 132826.0 135438.0 51065.0 44575.0 283700.0 276490.0 248392.0 246364.0 163602.0 159605.0 57831.0 55035.0 341446.0 348276.0 118044.0 113396.0 99582.0 92869.0 353277.0 345326.0 360564.0 357647.0 91320.0 83260.0 51186.0 44572.0 235455.0 233915.0 111952.0 111219.0 110596.0 111377.0 125585.0 127847.0 198328.0 205178.0 89595.0 92135.0 277918.0 285182.0 7991.0 0.0 125634.0 132472.0 104030.0 109069.0 46078.0 45301.0 94912.0 87877.0 311852.0 305664.0 61328.0 53393.0 77095.0 82972.0 168690.0 160317.0 84464.0 91998.0 134741.0 132782.0 113803.0 107574.0 81521.0 83006.0 30310.0 36135.0 27444.0 28523.0 81948.0 76187.0 222474.0 215328.0 316349.0 308170.0 273265.0 273021.0 257255.0 249521.0 107245.0 114539.0 8763.0 13449.0 142958.0 143204.0 157491.0 200878.0 157491.0 157491.0 157491.0 157491.0 157491.0 157491.0 157491.0 200878.0 200878.0 200878.0 200878.0 200878.0 200878.0 200878.0
163101.0 162303.0 139885.0 141809.0 58515.0 55458.0 63105.0 64538.0 137457.0 142031.0 180850.0 182069.0 94742.0 91838.0 167773.0 169878.0 143464.0 136597.0 119845.0 116413.0 205647.0 206472.0 145967.0 140647.0 170915.0 164947.0 141490.0 139481.0 128155.0 133698.0 132829.0 125276.0 53755.0 59442.0 110330.0 114019.0 114292.0 107335.0 78140.0 72217.0 60221.0 56387.0 126688.0 124857.0 125155.0 129063.0 82518.0 87993.0 51677.0 55059.0 81416.0 86497.0 124479.0 118086.0 57455.0 63964.0 46513.0 46859.0 138567.0 132072.0 59348.0 63026.0 114334.0 111259.0 126928.0 120027.0 71267.0 74850.0 55995.0 57574.0 11984.0 9706.0 158922.0 166790.0 149171.0 144550.0 74663.0 81786.0 180439.0 174773.0 134416.0 134898.0 45947.0 43938.0 68031.0 70823.0 224007.0 230860.0 118147.0 110100.0 26233.0 32820.0 243887.0 236339.0 245077.0 243490.0 128672.0 123894.0 140041.0 140824.0 132361.0 133946.0 179428.0 173243.0 40710.0 32395.0 10000.0 18084.0 76725.0 84406.0 43273.0 47201.0 174442.0 180266.0 118272.0 125634.0 0.0 7195.0 24737.0 17487.0 94520.0 88819.0 35617.0 43541.0 198647.0 193746.0 160716.0 156455.0 58050.0 50053.0 83051.0 78186.0 55182.0 54517.0 209484.0 212307.0 146824.0 147834.0 67283.0 74321.0 109179.0 101695.0 118136.0 126214.0 43686.0 49935.0 120192.0 115438.0 198891.0 190723.0 156371.0 158088.0 156612.0 149642.0 21083.0 17962.0 133780.0 133180.0 156809.0 150430.0 100929.0 77703.0 100929.0 100929.0 100929.0 100929.0 100929.0 100929.0 100929.0 77703.0 77703.0 77703.0 77703.0 77703.0 77703.0 77703.0
168779.0 168198.0 145914.0 148040.0 65197.0 61781.0 70287.0 71722.0 144209.0 148888.0 183676.0 185186.0 100535.0 97267.0 174177.0 176425.0 150120.0 143346.0 124664.0 121545.0 208660.0 209736.0 152621.0 147410.0 164308.0 158438.0 145972.0 143640.0 120973.0 126545.0 138884.0 131249.0 50259.0 56551.0 115148.0 119156.0 121035.0 114174.0 85309.0 79411.0 58814.0 55874.0 132007.0 130458.0 130780.0 134425.0 76377.0 82130.0 52894.0 57166.0 88611.0 93676.0 131578.0 125223.0 50269.0 56836.0 48905.0 48009.0 144455.0 138099.0 65353.0 69440.0 119072.0 115665.0 133324.0 126313.0 78395.0 81853.0 60638.0 62889.0 17751.0 16891.0 164784.0 172644.0 154874.0 150051.0 81577.0 88782.0 174012.0 168457.0 127508.0 128131.0 39322.0 37650.0 74758.0 77777.0 216900.0 223753.0 123807.0 115825.0 32911.0 39792.0 237032.0 229509.0 237989.0 236447.0 135304.0 130664.0 145628.0 146651.0 126157.0 127956.0 183465.0 177111.0 42786.0 34878.0 10579.0 16824.0 69560.0 77262.0 48522.0 51644.0 168021.0 173744.0 125053.0 132472.0 7195.0 0.0 30262.0 23688.0 101715.0 95995.0 42763.0 50704.0 191675.0 186836.0 167908.0 163650.0 65205.0 57210.0 79175.0 74870.0 59959.0 58454.0 213531.0 216563.0 153098.0 154291.0 74179.0 81086.0 115399.0 107839.0 125291.0 133376.0 50558.0 56543.0 114135.0 109611.0 191783.0 183616.0 149294.0 151091.0 150441.0 143558.0 26627.0 21785.0 140560.0 139804.0 162311.0 155763.0 104309.0 70508.0 104309.0 104309.0 104309.0 104309.0 104309.0 104309.0 104309.0 70508.0 70508.0 70508.0 70508.0 70508.0 70508.0 70508.0
138537.0 137941.0 137235.0 137774.0 36734.0 32145.0 47404.0 51514.0 115335.0 120477.0 158375.0 159122.0 94773.0 94011.0 144332.0 146860.0 120894.0 114468.0 95195.0 91679.0 182809.0 183259.0 138531.0 132259.0 181722.0 175110.0 146787.0 146146.0 145771.0 150517.0 130149.0 123282.0 54119.0 56887.0 114847.0 116927.0 106632.0 98851.0 61226.0 57024.0 52319.0 45894.0 128371.0 125072.0 100550.0 104345.0 92079.0 95857.0 36096.0 36379.0 66183.0 72671.0 111946.0 104840.0 76335.0 81475.0 27900.0 32207.0 114198.0 107888.0 35202.0 39936.0 119095.0 117533.0 103513.0 96341.0 59795.0 65544.0 31650.0 32837.0 12758.0 18511.0 157012.0 164820.0 148339.0 144921.0 54111.0 61851.0 189892.0 183548.0 148090.0 147336.0 60376.0 56816.0 46303.0 50713.0 239746.0 246598.0 118193.0 110003.0 9096.0 16448.0 256313.0 248558.0 260160.0 257956.0 121732.0 115738.0 115415.0 116389.0 140984.0 141305.0 155306.0 149308.0 24129.0 16859.0 21756.0 24182.0 94573.0 101673.0 18553.0 23289.0 183906.0 190378.0 96378.0 104030.0 24737.0 30262.0 0.0 7938.0 78704.0 71872.0 28320.0 33833.0 212462.0 206946.0 144860.0 139776.0 46780.0 39567.0 82350.0 75611.0 30708.0 31289.0 185326.0 187962.0 142392.0 142025.0 59948.0 68003.0 85360.0 77731.0 100037.0 108204.0 24149.0 28009.0 128190.0 122282.0 214629.0 206462.0 171743.0 172458.0 164689.0 157292.0 3661.0 10596.0 111816.0 110506.0 156982.0 151596.0 112043.0 96878.0 112043.0 112043.0 112043.0 112043.0 112043.0 112043.0 112043.0 96878.0 96878.0 96878.0 96878.0 96878.0 96878.0 96878.0
145635.0 144817.0 134872.0 135854.0 41660.0 38101.0 49230.0 52221.0 120676.0 125509.0 166263.0 167044.0 91378.0 89989.0 150492.0 152749.0 126498.0 119811.0 102898.0 99221.0 190727.0 191194.0 137752.0 131792.0 180579.0 174174.0 142143.0 141141.0 142094.0 147153.0 127769.0 120660.0 55495.0 59248.0 110298.0 112829.0 105802.0 98270.0 63774.0 58749.0 56264.0 50515.0 124669.0 121786.0 107708.0 111721.0 91022.0 95386.0 42083.0 43282.0 68017.0 73961.0 112939.0 106084.0 71927.0 77605.0 34638.0 37802.0 121080.0 114598.0 41863.0 45753.0 114500.0 112534.0 109639.0 102655.0 59989.0 64976.0 39549.0 40378.0 6057.0 10574.0 154477.0 162323.0 145448.0 141660.0 58432.0 65885.0 189225.0 183098.0 145873.0 145552.0 57344.0 54230.0 51257.0 54771.0 236842.0 243695.0 114928.0 106740.0 9723.0 17487.0 254696.0 247007.0 257577.0 255601.0 120722.0 115126.0 122603.0 123339.0 140481.0 141220.0 163200.0 157226.0 30089.0 21982.0 16929.0 21803.0 90654.0 98001.0 26255.0 31225.0 183224.0 189487.0 101567.0 109069.0 17487.0 23688.0 7938.0 0.0 80884.0 74513.0 25859.0 32666.0 210302.0 205002.0 147280.0 142534.0 46665.0 38938.0 84484.0 78254.0 38573.0 39180.0 193211.0 195804.0 140616.0 140703.0 58575.0 66386.0 91768.0 84250.0 103328.0 111478.0 27504.0 32950.0 127848.0 122294.0 211725.0 203558.0 168958.0 170041.0 164432.0 157158.0 4795.0 9541.0 117064.0 116164.0 153813.0 148120.0 105770.0 92464.0 105770.0 105770.0 105770.0 105770.0 105770.0 105770.0 105770.0 92464.0 92464.0 92464.0 92464.0 92464.0 92464.0 92464.0
105957.0 100726.0 82012.0 78535.0 46116.0 53745.0 31667.0 30499.0 58453.0 59015.0 168528.0 165357.0 62171.0 68588.0 93910.0 92337.0 66326.0 57798.0 91044.0 83255.0 187272.0 184315.0 70384.0 62594.0 260314.0 253597.0 113870.0 117745.0 222533.0 227837.0 76261.0 73115.0 131055.0 132021.0 87814.0 84068.0 43899.0 36255.0 17654.0 22308.0 123720.0 115855.0 88258.0 81254.0 78639.0 86664.0 170722.0 174199.0 102445.0 97035.0 13130.0 10919.0 35731.0 27974.0 151910.0 158104.0 93143.0 101338.0 82094.0 74153.0 56749.0 48535.0 91436.0 95213.0 60990.0 59520.0 26525.0 29032.0 74387.0 66527.0 86517.0 84833.0 100812.0 107517.0 96441.0 97153.0 30803.0 24159.0 268161.0 261618.0 226634.0 226026.0 138228.0 135051.0 39571.0 31833.0 317703.0 324556.0 75857.0 70039.0 71339.0 63412.0 335014.0 327253.0 338459.0 336437.0 57367.0 49227.0 89745.0 85130.0 219204.0 219084.0 149052.0 146575.0 94355.0 91633.0 97650.0 102373.0 171037.0 178568.0 71309.0 77359.0 262196.0 268820.0 42824.0 46078.0 94520.0 101715.0 78704.0 80884.0 0.0 8087.0 59463.0 51500.0 291050.0 285613.0 66405.0 61935.0 37620.0 45250.0 156885.0 149123.0 73040.0 81452.0 174946.0 174109.0 81356.0 77448.0 37055.0 37247.0 55283.0 54028.0 25702.0 33062.0 54620.0 53062.0 206301.0 200038.0 292587.0 284419.0 249839.0 250884.0 242591.0 235070.0 80930.0 88896.0 54524.0 58946.0 106664.0 105034.0 111434.0 172222.0 111434.0 111434.0 111434.0 111434.0 111434.0 111434.0 111434.0 172222.0 172222.0 172222.0 172222.0 172222.0 172222.0 172222.0
102847.0 98121.0 88975.0 85826.0 38342.0 45894.0 25727.0 26318.0 58012.0 59656.0 162253.0 159327.0 65928.0 71725.0 93191.0 92319.0 65678.0 57284.0 84728.0 77056.0 181523.0 178807.0 78293.0 70555.0 253215.0 246432.0 119062.0 122537.0 216497.0 221653.0 83015.0 79420.0 123651.0 124431.0 91862.0 88679.0 50989.0 43068.0 10743.0 17211.0 115936.0 108045.0 93772.0 87029.0 73552.0 81401.0 163701.0 167012.0 94594.0 89082.0 9610.0 12870.0 43794.0 36022.0 146010.0 152011.0 85346.0 93591.0 78330.0 70329.0 48731.0 40507.0 95650.0 98929.0 57908.0 55464.0 24666.0 29297.0 66369.0 58497.0 80276.0 79113.0 108036.0 114871.0 103255.0 103588.0 22718.0 16199.0 260896.0 254291.0 219951.0 219179.0 131797.0 128493.0 31524.0 23863.0 311321.0 318174.0 81341.0 75074.0 64866.0 57036.0 328059.0 320273.0 331937.0 329806.0 64886.0 56843.0 85423.0 81350.0 211943.0 211704.0 143844.0 141052.0 86724.0 84275.0 91389.0 95767.0 165006.0 172450.0 63652.0 69524.0 254941.0 261628.0 40777.0 45301.0 88819.0 95995.0 71872.0 74513.0 8087.0 0.0 54410.0 46587.0 284333.0 278806.0 72989.0 68026.0 33572.0 40667.0 149187.0 141372.0 65037.0 73459.0 170335.0 169815.0 88826.0 85161.0 36220.0 38178.0 50028.0 47922.0 29516.0 37479.0 47723.0 45589.0 199013.0 192666.0 286205.0 278038.0 243398.0 244282.0 235227.0 227680.0 74264.0 82209.0 54013.0 57409.0 113434.0 111445.0 112936.0 166420.0 112936.0 112936.0 112936.0 112936.0 112936.0 112936.0 112936.0 166420.0 166420.0 166420.0 166420.0 166420.0 166420.0 166420.0
140717.0 138432.0 109179.0 110026.0 33122.0 34839.0 28952.0 29109.0 107353.0 110923.0 175212.0 174812.0 66468.0 65964.0 140110.0 141086.0 114101.0 106520.0 104535.0 99189.0 198490.0 197925.0 112060.0 106263.0 205457.0 199229.0 119129.0 118924.0 163707.0 169307.0 102081.0 95094.0 81307.0 84767.0 87178.0 88874.0 80131.0 72750.0 44032.0 37344.0 80640.0 74126.0 100117.0 96752.0 104144.0 109747.0 116188.0 120878.0 63540.0 62300.0 46338.0 50984.0 88900.0 82469.0 93001.0 99581.0 54539.0 60071.0 115257.0 107908.0 40999.0 39955.0 91461.0 90419.0 100016.0 94198.0 35658.0 39672.0 49038.0 45429.0 30051.0 26176.0 128874.0 136702.0 120070.0 116601.0 44616.0 50353.0 214454.0 208470.0 169726.0 169899.0 80983.0 78436.0 40809.0 40494.0 259615.0 266468.0 89873.0 81683.0 19278.0 14001.0 279026.0 271417.0 280666.0 279021.0 94961.0 89546.0 118824.0 117891.0 165870.0 166817.0 167011.0 161952.0 51886.0 45145.0 40643.0 47107.0 112321.0 120020.0 36260.0 44138.0 208450.0 214557.0 88207.0 94912.0 35617.0 42763.0 28320.0 25859.0 59463.0 54410.0 0.0 7992.0 234058.0 229030.0 125317.0 121297.0 22444.0 14457.0 110133.0 103663.0 47529.0 52355.0 196457.0 198020.0 114768.0 114862.0 32813.0 40542.0 84259.0 77721.0 83926.0 91858.0 19458.0 27438.0 153342.0 147948.0 234499.0 226332.0 191954.0 193557.0 189928.0 182719.0 28385.0 35359.0 103473.0 104246.0 128667.0 123286.0 88120.0 113104.0 88120.0 88120.0 88120.0 88120.0 88120.0 88120.0 88120.0 113104.0 113104.0 113104.0 113104.0 113104.0 113104.0 113104.0
135522.0 132888.0 103497.0 103942.0 29285.0 32677.0 21399.0 21117.0 100422.0 103738.0 173768.0 172999.0 62144.0 62546.0 133652.0 134361.0 107326.0 99598.0 101388.0 95628.0 196587.0 195707.0 105123.0 99126.0 212930.0 206630.0 116083.0 116406.0 171667.0 177238.0 96424.0 89693.0 87677.0 90711.0 84264.0 85291.0 73172.0 65604.0 36336.0 29453.0 85779.0 78922.0 95932.0 92079.0 99553.0 105531.0 123520.0 128027.0 67580.0 65492.0 38382.0 43001.0 81082.0 74574.0 100960.0 107495.0 58256.0 64496.0 109985.0 102474.0 39049.0 36462.0 88571.0 88168.0 93932.0 88444.0 27823.0 32319.0 49762.0 45020.0 37350.0 34022.0 123333.0 131117.0 114892.0 111829.0 38339.0 43471.0 221775.0 215709.0 177458.0 177525.0 88690.0 86032.0 35729.0 34232.0 267503.0 274355.0 85209.0 77062.0 24796.0 17781.0 286675.0 279045.0 288530.0 286842.0 88156.0 82464.0 114051.0 112696.0 173094.0 173885.0 164044.0 159276.0 56337.0 50288.0 48175.0 54297.0 120263.0 127944.0 38159.0 46205.0 215772.0 221954.0 81375.0 87877.0 43541.0 50704.0 33833.0 32666.0 51500.0 46587.0 7992.0 0.0 241821.0 236741.0 117326.0 113311.0 14519.0 6522.0 116164.0 109437.0 48182.0 54030.0 193216.0 194484.0 108562.0 108301.0 26140.0 34170.0 78855.0 72671.0 76095.0 83990.0 18449.0 25504.0 160494.0 154960.0 242386.0 234219.0 199816.0 201351.0 197081.0 189819.0 34536.0 41974.0 96506.0 97619.0 123763.0 118735.0 88461.0 121085.0 88461.0 88461.0 88461.0 88461.0 88461.0 88461.0 88461.0 121085.0 121085.0 121085.0 121085.0 121085.0 121085.0 121085.0
324527.0 327808.0 333796.0 336957.0 247850.0 241473.0 259475.0 262346.0 321256.0 327752.0 286709.0 293119.0 288065.0 283153.0 342561.0 347456.0 324986.0 320413.0 274305.0 276216.0 309277.0 314951.0 343610.0 338780.0 39621.0 47570.0 326064.0 322567.0 76416.0 68834.0 326886.0 319044.0 163865.0 165876.0 297536.0 302967.0 312399.0 305754.0 273670.0 269033.0 177750.0 185258.0 316408.0 316324.0 290859.0 289997.0 121493.0 119799.0 197974.0 205610.0 278292.0 284218.0 322895.0 316247.0 142747.0 135316.0 204998.0 196694.0 306689.0 303333.0 241550.0 248827.0 300965.0 296108.0 305002.0 296940.0 269643.0 273496.0 226771.0 233723.0 204887.0 207892.0 351501.0 359230.0 340864.0 335049.0 265516.0 273492.0 44034.0 51331.0 64430.0 65521.0 153158.0 156073.0 256887.0 262534.0 39872.0 43059.0 310112.0 302632.0 219740.0 227701.0 47053.0 40632.0 49257.0 45796.0 326272.0 322081.0 302901.0 307633.0 79539.0 83679.0 308253.0 300225.0 201328.0 201422.0 193821.0 188683.0 123475.0 115486.0 223236.0 219827.0 46516.0 39065.0 303867.0 311852.0 198647.0 191675.0 212462.0 210302.0 291050.0 284333.0 234058.0 241821.0 0.0 7962.0 357318.0 352187.0 256302.0 248333.0 146791.0 155084.0 227392.0 220021.0 333070.0 339631.0 342213.0 344385.0 265843.0 272590.0 286290.0 278643.0 312171.0 320318.0 236611.0 239560.0 91700.0 99564.0 27211.0 24960.0 43952.0 40655.0 65112.0 71733.0 210126.0 202163.0 318370.0 314810.0 347127.0 339794.0 282043.0 124850.0 282043.0 282043.0 282043.0 282043.0 282043.0 282043.0 282043.0 124850.0 124850.0 124850.0 124850.0 124850.0 124850.0 124850.0
317487.0 320860.0 329635.0 332811.0 242080.0 235604.0 254097.0 257138.0 314931.0 321495.0 278939.0 285382.0 283911.0 278990.0 335840.0 340818.0 318556.0 314091.0 267309.0 269331.0 301443.0 307144.0 339089.0 334134.0 31803.0 39792.0 321901.0 318405.0 73948.0 66108.0 322844.0 314887.0 157672.0 159453.0 293374.0 298805.0 307747.0 300998.0 268172.0 263677.0 171192.0 178768.0 312246.0 312162.0 284050.0 283073.0 115534.0 113502.0 191600.0 199187.0 272922.0 278959.0 317770.0 311045.0 138407.0 130822.0 198783.0 190438.0 299881.0 296627.0 235539.0 242898.0 296803.0 291945.0 298508.0 290436.0 264548.0 268563.0 220551.0 227585.0 199668.0 202895.0 347339.0 355067.0 336702.0 330886.0 259730.0 267722.0 36180.0 43397.0 59330.0 59655.0 148054.0 150815.0 251043.0 256809.0 47798.0 51003.0 305950.0 298440.0 214370.0 222346.0 50478.0 43364.0 56333.0 52291.0 321747.0 317411.0 295971.0 300786.0 72372.0 76255.0 300679.0 292649.0 195244.0 195563.0 188643.0 183307.0 119291.0 111298.0 217327.0 213744.0 38558.0 31153.0 297674.0 305664.0 193746.0 186836.0 206946.0 205002.0 285613.0 278806.0 229030.0 236741.0 7962.0 0.0 351794.0 346561.0 251191.0 243242.0 139894.0 148226.0 221205.0 213743.0 325374.0 331965.0 338045.0 340060.0 261011.0 267867.0 279838.0 272221.0 306451.0 314588.0 231089.0 233856.0 84728.0 92526.0 33350.0 29523.0 41243.0 36623.0 57260.0 63976.0 204689.0 196721.0 312088.0 308415.0 342964.0 335632.0 277881.0 121060.0 277881.0 277881.0 277881.0 277881.0 277881.0 277881.0 277881.0 121060.0 121060.0 121060.0 121060.0 121060.0 121060.0 121060.0
111859.0 103722.0 85526.0 77859.0 110354.0 117412.0 98071.0 96223.0 62453.0 55272.0 195789.0 190251.0 100692.0 109030.0 83725.0 77010.0 66979.0 62715.0 126212.0 118693.0 207952.0 202738.0 58112.0 52806.0 326026.0 319159.0 130889.0 137877.0 288839.0 294210.0 84717.0 88136.0 196056.0 196277.0 118678.0 111535.0 64939.0 65921.0 83651.0 88653.0 186878.0 178887.0 107044.0 99290.0 106259.0 113847.0 236615.0 239751.0 165288.0 158942.0 79391.0 74362.0 41087.0 44801.0 218164.0 224458.0 156501.0 164936.0 98901.0 93802.0 118847.0 110818.0 120426.0 127123.0 80701.0 86073.0 90261.0 88942.0 135891.0 128079.0 152921.0 151064.0 94648.0 97329.0 98037.0 103749.0 93024.0 85031.0 333441.0 326701.0 292927.0 292162.0 204623.0 201407.0 102055.0 95496.0 384108.0 390961.0 98148.0 97782.0 137708.0 129800.0 400988.0 393185.0 404841.0 402768.0 62862.0 58587.0 108846.0 101212.0 284526.0 284020.0 167153.0 167893.0 158631.0 156885.0 164054.0 168700.0 237358.0 244926.0 135672.0 140676.0 327508.0 334305.0 67325.0 61328.0 160716.0 167908.0 144860.0 147280.0 66405.0 72989.0 125317.0 117326.0 357318.0 351794.0 0.0 8126.0 102970.0 110891.0 220431.0 212357.0 134802.0 143141.0 185364.0 181668.0 76183.0 68065.0 97643.0 93676.0 90959.0 95488.0 46669.0 39078.0 120712.0 118212.0 271556.0 265027.0 358991.0 350824.0 316238.0 317229.0 307561.0 299952.0 147215.0 155171.0 61690.0 69797.0 106609.0 110230.0 154576.0 238386.0 154576.0 154576.0 154576.0 154576.0 154576.0 154576.0 154576.0 238386.0 238386.0 238386.0 238386.0 238386.0 238386.0 238386.0
103987.0 95895.0 89574.0 82113.0 104691.0 111571.0 93486.0 92205.0 54327.0 47164.0 187674.0 182153.0 101108.0 109398.0 76301.0 69807.0 58904.0 54590.0 118208.0 110723.0 199936.0 194767.0 62810.0 56811.0 320461.0 313518.0 134411.0 141147.0 284421.0 289649.0 88184.0 90968.0 190298.0 190289.0 120421.0 113547.0 65821.0 65777.0 78762.0 84239.0 180648.0 172650.0 109961.0 102108.0 98182.0 105747.0 231214.0 234161.0 159051.0 152558.0 75048.0 70618.0 40699.0 43047.0 213831.0 219960.0 150399.0 158859.0 90780.0 85681.0 112708.0 104777.0 122424.0 128879.0 72622.0 78084.0 86774.0 86136.0 129546.0 121788.0 148268.0 146767.0 99948.0 103071.0 102620.0 107929.0 87189.0 79169.0 327663.0 320848.0 287853.0 286908.0 199822.0 196492.0 96137.0 89864.0 379346.0 386199.0 100446.0 99429.0 132892.0 125051.0 395563.0 387733.0 399922.0 397725.0 65601.0 60462.0 100725.0 93098.0 278796.0 278139.0 159137.0 159822.0 152739.0 151301.0 159391.0 163763.0 232923.0 240415.0 129889.0 134629.0 321748.0 328620.0 59569.0 53393.0 156455.0 163650.0 139776.0 142534.0 61935.0 68026.0 121297.0 113311.0 352187.0 346561.0 8126.0 0.0 99130.0 106956.0 214223.0 206091.0 128504.0 136788.0 177608.0 174016.0 80878.0 72917.0 94881.0 91514.0 83200.0 87919.0 40441.0 32528.0 115646.0 112743.0 265807.0 259180.0 354230.0 346063.0 311415.0 312234.0 301675.0 294041.0 142253.0 150182.0 53581.0 61679.0 111530.0 114681.0 154719.0 234156.0 154719.0 154719.0 154719.0 154719.0 154719.0 154719.0 154719.0 234156.0 234156.0 234156.0 234156.0 234156.0 234156.0 234156.0
128868.0 125469.0 92313.0 92042.0 29667.0 35804.0 11794.0 7257.0 89824.0 92414.0 174405.0 172953.0 54205.0 56388.0 124073.0 124112.0 97095.0 89034.0 99417.0 92910.0 196260.0 194787.0 91778.0 85483.0 227193.0 220828.0 109586.0 110871.0 186149.0 191747.0 85338.0 79141.0 100899.0 103427.0 78475.0 78220.0 59926.0 52079.0 24225.0 16497.0 97539.0 90305.0 87568.0 82855.0 94591.0 101294.0 137681.0 142008.0 78139.0 74956.0 24671.0 28608.0 66593.0 60055.0 115445.0 122010.0 68579.0 75596.0 103379.0 95581.0 41838.0 36545.0 82742.0 83541.0 85590.0 80985.0 13366.0 18852.0 56199.0 49954.0 51634.0 48541.0 112279.0 119951.0 104532.0 102223.0 31313.0 34175.0 235889.0 229740.0 191924.0 191921.0 103153.0 100430.0 32274.0 27674.0 282022.0 288875.0 76096.0 68170.0 38070.0 30333.0 301080.0 293433.0 303048.0 301348.0 75091.0 68963.0 108511.0 106234.0 187124.0 187750.0 161836.0 157664.0 67615.0 62483.0 62567.0 68438.0 134764.0 142455.0 46928.0 54752.0 229889.0 236144.0 71235.0 77095.0 58050.0 65205.0 46780.0 46665.0 37620.0 33572.0 22444.0 14519.0 256302.0 251191.0 102970.0 99130.0 0.0 7999.0 128891.0 121865.0 54593.0 61692.0 190323.0 190998.0 96426.0 95562.0 15109.0 23127.0 72405.0 67199.0 62794.0 70506.0 26131.0 30176.0 174455.0 168775.0 256905.0 248738.0 214333.0 215848.0 211027.0 203711.0 48009.0 55724.0 85842.0 87857.0 113835.0 109475.0 88814.0 135524.0 88814.0 88814.0 88814.0 88814.0 88814.0 88814.0 88814.0 135524.0 135524.0 135524.0 135524.0 135524.0 135524.0 135524.0
132483.0 129508.0 98292.0 98443.0 28676.0 33460.0 16286.0 14765.0 95615.0 98622.0 174023.0 172946.0 58167.0 59316.0 129324.0 129740.0 102686.0 94804.0 100364.0 94257.0 196426.0 195279.0 99042.0 92925.0 219354.0 213027.0 112875.0 113615.0 178163.0 183750.0 91250.0 84728.0 93617.0 96417.0 81287.0 81770.0 67110.0 59430.0 30701.0 23458.0 91032.0 83989.0 91891.0 87668.0 97198.0 103510.0 129897.0 134324.0 72234.0 69617.0 32174.0 36540.0 74566.0 68052.0 107457.0 114011.0 62771.0 69402.0 106929.0 99278.0 39790.0 35896.0 85590.0 85706.0 90087.0 84969.0 21310.0 26090.0 52360.0 46857.0 43768.0 40544.0 118199.0 125942.0 110040.0 107290.0 34713.0 38991.0 228136.0 222033.0 183964.0 184004.0 95194.0 92510.0 33564.0 30720.0 274024.0 280876.0 80829.0 72752.0 30666.0 23194.0 293158.0 285522.0 295053.0 293362.0 82177.0 76311.0 111472.0 109708.0 179416.0 180135.0 163013.0 158507.0 61308.0 55692.0 54647.0 60653.0 126769.0 134458.0 41797.0 49798.0 222134.0 228348.0 76730.0 82972.0 50053.0 57210.0 39567.0 38938.0 45250.0 40667.0 14457.0 6522.0 248333.0 243242.0 110891.0 106956.0 7999.0 0.0 121888.0 115020.0 50755.0 57244.0 191902.0 192905.0 102971.0 102465.0 20587.0 28758.0 75787.0 70002.0 70108.0 77931.0 21125.0 26855.0 166785.0 161186.0 248907.0 240740.0 206338.0 207869.0 203368.0 196082.0 40542.0 48132.0 91665.0 93168.0 119102.0 114350.0 88170.0 127556.0 88170.0 88170.0 88170.0 88170.0 88170.0 88170.0 88170.0 127556.0 127556.0 127556.0 127556.0 127556.0 127556.0 127556.0
177850.0 181021.0 219306.0 220068.0 110848.0 103398.0 127620.0 132962.0 176928.0 183908.0 152154.0 156957.0 175701.0 173797.0 196092.0 201270.0 179921.0 176114.0 127569.0 129439.0 177115.0 181092.0 220627.0 214131.0 110220.0 102577.0 224483.0 222529.0 100857.0 101394.0 212206.0 205140.0 29411.0 25472.0 193126.0 196396.0 188816.0 180915.0 139348.0 136979.0 33578.0 41577.0 208662.0 206112.0 144187.0 143206.0 36140.0 31902.0 55172.0 61903.0 145588.0 152850.0 191926.0 184432.0 66278.0 62168.0 63989.0 55630.0 160015.0 156936.0 101585.0 109651.0 197191.0 194292.0 159614.0 151524.0 141558.0 147733.0 84738.0 92442.0 81548.0 88388.0 238953.0 246794.0 229908.0 225972.0 127604.0 135522.0 115168.0 107846.0 87919.0 83393.0 51883.0 49188.0 118514.0 125536.0 180856.0 186716.0 199274.0 191100.0 91370.0 98700.0 185475.0 177472.0 196048.0 192163.0 203975.0 197771.0 156111.0 160895.0 67821.0 65473.0 166961.0 159095.0 62577.0 66473.0 73643.0 65567.0 68158.0 69096.0 85579.0 79856.0 109467.0 116923.0 160747.0 168690.0 83051.0 79175.0 82350.0 84484.0 156885.0 149187.0 110133.0 116164.0 146791.0 139894.0 220431.0 214223.0 128891.0 121888.0 0.0 8434.0 85735.0 77527.0 194461.0 200049.0 224723.0 224350.0 142294.0 150328.0 141254.0 133868.0 173835.0 181696.0 104023.0 103961.0 55180.0 47500.0 156563.0 148284.0 114158.0 111444.0 88629.0 80883.0 81777.0 74951.0 174385.0 170017.0 238166.0 232268.0 183483.0 75084.0 183483.0 183483.0 183483.0 183483.0 183483.0 183483.0 183483.0 75084.0 75084.0 75084.0 75084.0 75084.0 75084.0 75084.0
169673.0 172760.0 212808.0 213377.0 103032.0 95518.0 120188.0 125722.0 168510.0 175503.0 146171.0 150713.0 169627.0 168007.0 187703.0 192857.0 171488.0 167697.0 119369.0 121132.0 171309.0 175045.0 213490.0 206895.0 118635.0 111003.0 219234.0 217525.0 107468.0 108390.0 205715.0 198755.0 24618.0 19060.0 187697.0 190723.0 181755.0 173792.0 131637.0 129475.0 25497.0 33475.0 202806.0 200038.0 135830.0 134931.0 41956.0 38783.0 47070.0 53643.0 137986.0 145328.0 184298.0 176763.0 67658.0 64468.0 56056.0 47786.0 151660.0 148535.0 93534.0 101640.0 191808.0 189150.0 151180.0 143090.0 134378.0 140717.0 76558.0 84305.0 75717.0 82859.0 232535.0 240359.0 223661.0 219911.0 119637.0 127526.0 123593.0 116256.0 95684.0 91393.0 51416.0 48097.0 110540.0 117654.0 188892.0 194823.0 193181.0 184994.0 84686.0 91831.0 193906.0 185904.0 204340.0 200505.0 196948.0 190617.0 147839.0 152563.0 76222.0 73906.0 159896.0 152081.0 54987.0 59384.0 68513.0 60343.0 71795.0 73559.0 77865.0 71921.0 117897.0 125357.0 152379.0 160317.0 78186.0 74870.0 75611.0 78254.0 149123.0 141372.0 103663.0 109437.0 155084.0 148226.0 212357.0 206091.0 121865.0 115020.0 8434.0 0.0 77588.0 69330.0 187719.0 193154.0 217968.0 217412.0 135516.0 143600.0 132825.0 125447.0 165732.0 173563.0 96700.0 96325.0 63539.0 55899.0 164495.0 156213.0 121920.0 119414.0 97044.0 89297.0 75280.0 68777.0 165978.0 161589.0 232068.0 226329.0 179018.0 78498.0 179018.0 179018.0 179018.0 179018.0 179018.0 179018.0 179018.0 78498.0 78498.0 78498.0 78498.0 78498.0 78498.0 78498.0
109869.0 110092.0 145837.0 144703.0 27787.0 20068.0 48172.0 55480.0 94098.0 100401.0 129005.0 129285.0 108631.0 110070.0 119189.0 122763.0 98401.0 93245.0 64720.0 61697.0 153017.0 153143.0 141138.0 133875.0 193542.0 186305.0 163620.0 164328.0 166334.0 170064.0 139015.0 133257.0 63535.0 62337.0 132031.0 132444.0 110663.0 102370.0 56261.0 56104.0 52157.0 44158.0 142143.0 137419.0 71940.0 74873.0 106045.0 107720.0 30572.0 24220.0 63375.0 71199.0 108741.0 101010.0 100412.0 104026.0 22441.0 30868.0 86533.0 81009.0 16317.0 24553.0 136335.0 136256.0 79218.0 71419.0 64148.0 71828.0 1610.0 6723.0 43259.0 49083.0 165784.0 173290.0 158629.0 156671.0 42595.0 50279.0 199917.0 192891.0 164071.0 161915.0 81847.0 77441.0 33563.0 41211.0 257429.0 264143.0 130678.0 122762.0 33800.0 34169.0 269013.0 261083.0 276147.0 273187.0 125784.0 118530.0 86562.0 88433.0 151355.0 150185.0 124636.0 118722.0 26366.0 29023.0 50112.0 48867.0 116845.0 123076.0 12599.0 8775.0 194070.0 201187.0 76476.0 84464.0 55182.0 59959.0 30708.0 38573.0 73040.0 65037.0 47529.0 48182.0 227392.0 221205.0 134802.0 128504.0 54593.0 50755.0 85735.0 77588.0 0.0 8440.0 154640.0 157255.0 148655.0 146588.0 69702.0 77641.0 60362.0 52521.0 88155.0 95975.0 29823.0 24423.0 138349.0 131388.0 232314.0 224146.0 189186.0 188701.0 173664.0 165974.0 34265.0 38246.0 91078.0 88043.0 168132.0 164000.0 135648.0 120401.0 135648.0 135648.0 135648.0 135648.0 135648.0 135648.0 135648.0 120401.0 120401.0 120401.0 120401.0 120401.0 120401.0 120401.0
114026.0 114788.0 153464.0 152511.0 35967.0 28197.0 55988.0 63084.0 101248.0 107752.0 127087.0 127898.0 115380.0 116430.0 125095.0 129011.0 105230.0 100403.0 67050.0 64957.0 151565.0 152134.0 149306.0 142095.0 185802.0 178505.0 170008.0 170436.0 160182.0 163664.0 146594.0 140682.0 56208.0 54523.0 138261.0 139000.0 118656.0 110379.0 64592.0 64185.0 43970.0 35983.0 149035.0 144523.0 76423.0 78587.0 98892.0 100245.0 22472.0 15813.0 71640.0 79430.0 117139.0 109416.0 95639.0 98749.0 15225.0 23336.0 91490.0 86429.0 24753.0 32989.0 142568.0 142169.0 85672.0 77741.0 71829.0 79375.0 7250.0 15120.0 42980.0 49718.0 173430.0 180983.0 166075.0 163913.0 51035.0 58711.0 191976.0 184893.0 156991.0 154613.0 76547.0 71997.0 41999.0 49619.0 250549.0 257179.0 137740.0 129753.0 36415.0 38485.0 261297.0 253353.0 268889.0 265813.0 133815.0 126642.0 90724.0 93203.0 143531.0 142212.0 125027.0 118751.0 20250.0 24939.0 48132.0 45562.0 111381.0 117334.0 16095.0 8418.0 186149.0 193323.0 84008.0 91998.0 54517.0 58454.0 31289.0 39180.0 81452.0 73459.0 52355.0 54030.0 220021.0 213743.0 143141.0 136788.0 61692.0 57244.0 77527.0 69330.0 8440.0 0.0 155093.0 158117.0 156537.0 154618.0 76773.0 84816.0 66797.0 59008.0 96480.0 104262.0 36119.0 31765.0 130535.0 123484.0 225444.0 217279.0 182305.0 181606.0 165658.0 157953.0 34505.0 36770.0 98351.0 94946.0 175481.0 171161.0 140215.0 115283.0 140215.0 140215.0 140215.0 140215.0 140215.0 140215.0 140215.0 115283.0 115283.0 115283.0 115283.0 115283.0 115283.0 115283.0
73937.0 81787.0 252803.0 247384.0 163934.0 161671.0 178685.0 185805.0 126862.0 132245.0 47928.0 40510.0 236205.0 241591.0 102427.0 110016.0 120296.0 126982.0 91924.0 97651.0 34815.0 26743.0 232425.0 224581.0 293615.0 285598.0 288749.0 292678.0 295181.0 295847.0 248256.0 246648.0 193841.0 187310.0 262179.0 258918.0 216053.0 209685.0 172065.0 178832.0 175075.0 171109.0 262959.0 255693.0 96950.0 89483.0 229574.0 226317.0 165425.0 158837.0 177900.0 183202.0 195748.0 190235.0 243839.0 244397.0 165912.0 169801.0 93584.0 101253.0 155687.0 156795.0 265985.0 269096.0 115341.0 115500.0 190395.0 197488.0 153677.0 153590.0 197715.0 203718.0 269001.0 274172.0 267505.0 269833.0 159419.0 159056.0 293124.0 285059.0 281018.0 275346.0 223793.0 219009.0 158416.0 162759.0 370649.0 375496.0 250630.0 244985.0 187741.0 185876.0 362649.0 354886.0 380929.0 375532.0 226022.0 217903.0 85252.0 90593.0 255067.0 249903.0 30066.0 36784.0 172235.0 179186.0 203131.0 199664.0 255101.0 258809.0 167083.0 162300.0 288722.0 296775.0 134271.0 134741.0 209484.0 213531.0 185326.0 193211.0 174946.0 170335.0 196457.0 193216.0 333070.0 325374.0 185364.0 177608.0 190323.0 191902.0 194461.0 187719.0 154640.0 155093.0 0.0 8111.0 248483.0 242055.0 201607.0 206437.0 120434.0 123930.0 162102.0 162771.0 177111.0 169055.0 244569.0 236634.0 347738.0 339589.0 306955.0 303013.0 268367.0 261416.0 188840.0 191858.0 129351.0 121770.0 277664.0 277656.0 279075.0 260732.0 279075.0 279075.0 279075.0 279075.0 279075.0 279075.0 279075.0 260732.0 260732.0 260732.0 260732.0 260732.0 260732.0 260732.0
71104.0 78614.0 250927.0 245326.0 165252.0 163354.0 179287.0 186240.0 124314.0 129340.0 55494.0 47852.0 235742.0 241341.0 98245.0 105619.0 117481.0 124486.0 93633.0 98877.0 42858.0 34774.0 229938.0 222170.0 300235.0 292212.0 287697.0 291828.0 300610.0 301436.0 246555.0 245202.0 198490.0 192115.0 261661.0 258174.0 214544.0 208380.0 172045.0 178998.0 179754.0 175526.0 261813.0 254451.0 96889.0 89758.0 234909.0 231845.0 169342.0 162571.0 177648.0 182680.0 193635.0 188353.0 248117.0 248900.0 169415.0 173622.0 92219.0 100052.0 157487.0 158181.0 265403.0 268723.0 113867.0 114591.0 190501.0 197428.0 156356.0 155875.0 200462.0 206257.0 266764.0 271762.0 265601.0 268160.0 159893.0 159122.0 299957.0 291892.0 286952.0 281399.0 228065.0 223274.0 159350.0 163350.0 377022.0 381954.0 249539.0 244091.0 190014.0 187827.0 369669.0 361884.0 387638.0 382312.0 224090.0 216042.0 84412.0 89195.0 261379.0 256321.0 33796.0 41251.0 175727.0 182472.0 206239.0 203045.0 259800.0 263687.0 169589.0 165111.0 295495.0 303550.0 132786.0 132782.0 212307.0 216563.0 187962.0 195804.0 174109.0 169815.0 198020.0 194484.0 339631.0 331965.0 181668.0 174016.0 190998.0 192905.0 200049.0 193154.0 157255.0 158117.0 8111.0 0.0 246258.0 239669.0 201857.0 206420.0 120196.0 124151.0 160219.0 160491.0 178780.0 170705.0 250725.0 242771.0 353965.0 345794.0 312958.0 309147.0 275049.0 268040.0 191515.0 194823.0 126990.0 119617.0 275715.0 275950.0 279587.0 265317.0 279587.0 279587.0 279587.0 279587.0 279587.0 279587.0 279587.0 265317.0 265317.0 265317.0 265317.0 265317.0 265317.0 265317.0
175242.0 168141.0 11955.0 5358.0 121011.0 128618.0 100549.0 93662.0 122033.0 117684.0 248098.0 244250.0 54425.0 60509.0 152801.0 147613.0 129183.0 121821.0 171224.0 163290.0 265113.0 261327.0 18091.0 24653.0 317129.0 311440.0 56786.0 64557.0 269526.0 275382.0 16455.0 24377.0 196067.0 199273.0 56256.0 48248.0 38285.0 46574.0 94244.0 92722.0 193927.0 186731.0 37740.0 32115.0 156177.0 164436.0 229342.0 234678.0 174461.0 170819.0 86652.0 78776.0 52781.0 58850.0 199654.0 207344.0 164874.0 172017.0 155397.0 148170.0 133369.0 125777.0 55819.0 63430.0 133764.0 135265.0 84849.0 77725.0 150195.0 142886.0 144396.0 138891.0 20518.0 26335.0 21864.0 28184.0 110090.0 104854.0 327087.0 321552.0 279100.0 280512.0 192356.0 190707.0 117604.0 109647.0 366147.0 373000.0 35632.0 41209.0 133354.0 126142.0 388511.0 381206.0 387287.0 386158.0 23998.0 32241.0 164539.0 158300.0 279183.0 280687.0 225380.0 224039.0 164039.0 158662.0 154181.0 161382.0 218777.0 226771.0 142893.0 150421.0 321101.0 326720.0 115135.0 113803.0 146824.0 153098.0 142392.0 140616.0 81356.0 88826.0 114768.0 108562.0 342213.0 338045.0 76183.0 80878.0 96426.0 102971.0 224723.0 217968.0 148655.0 156537.0 248483.0 246258.0 0.0 8242.0 82453.0 74395.0 134088.0 134350.0 86663.0 85767.0 122376.0 124932.0 266985.0 262028.0 341031.0 332864.0 298917.0 301633.0 303435.0 296439.0 142993.0 150127.0 119269.0 126720.0 30724.0 34118.0 100102.0 218659.0 100102.0 100102.0 100102.0 100102.0 100102.0 100102.0 100102.0 218659.0 218659.0 218659.0 218659.0 218659.0 218659.0 218659.0
168588.0 161362.0 19443.0 11616.0 118825.0 126520.0 98753.0 92230.0 115360.0 110749.0 242796.0 238762.0 57625.0 64378.0 145532.0 140185.0 122370.0 115182.0 166278.0 158320.0 259348.0 255404.0 10159.0 17505.0 318562.0 312728.0 64892.0 72585.0 271689.0 277545.0 22272.0 29482.0 195976.0 198878.0 62449.0 54411.0 35992.0 44242.0 91339.0 90486.0 193050.0 185710.0 44860.0 38598.0 150652.0 158914.0 230266.0 235386.0 173187.0 169218.0 83818.0 75895.0 46796.0 53376.0 201670.0 209249.0 163588.0 170946.0 149271.0 142178.0 131003.0 123229.0 62391.0 69971.0 127748.0 129599.0 83427.0 76720.0 148101.0 140638.0 144750.0 139595.0 27458.0 32119.0 30056.0 36404.0 106980.0 101323.0 328269.0 322588.0 280959.0 282136.0 193611.0 191773.0 114827.0 106828.0 368311.0 375164.0 41171.0 45721.0 133065.0 125650.0 390489.0 383117.0 389450.0 388321.0 20805.0 28383.0 158546.0 152140.0 280109.0 281398.0 219405.0 218270.0 163067.0 158029.0 154812.0 161801.0 220912.0 228899.0 141458.0 148816.0 322273.0 328035.0 109301.0 107574.0 147834.0 154291.0 142025.0 140703.0 77448.0 85161.0 114862.0 108301.0 344385.0 340060.0 68065.0 72917.0 95562.0 102465.0 224350.0 217412.0 146588.0 154618.0 242055.0 239669.0 8242.0 0.0 82180.0 74320.0 128943.0 129597.0 80714.0 79292.0 121207.0 123251.0 267782.0 262632.0 343194.0 335027.0 301081.0 303757.0 304308.0 297223.0 142834.0 150157.0 112720.0 120308.0 38616.0 42335.0 105724.0 220823.0 105724.0 105724.0 105724.0 105724.0 105724.0 105724.0 105724.0 220823.0 220823.0 220823.0 220823.0 220823.0 220823.0 220823.0
137419.0 133291.0 77721.0 77882.0 44279.0 50762.0 24205.0 16322.0 94227.0 95608.0 187772.0 185991.0 39247.0 41999.0 129391.0 128508.0 101896.0 93502.0 111784.0 104900.0 209095.0 207299.0 79250.0 73542.0 237982.0 231847.0 94774.0 96343.0 194242.0 200095.0 70691.0 64276.0 113800.0 116834.0 64009.0 63352.0 47332.0 40095.0 30323.0 22906.0 111617.0 104570.0 72475.0 67755.0 104994.0 112164.0 148900.0 153676.0 92717.0 89825.0 26677.0 26221.0 58543.0 53101.0 123724.0 130745.0 83211.0 89963.0 112253.0 104296.0 56672.0 50868.0 68233.0 69524.0 92990.0 89415.0 11809.0 8746.0 71308.0 65002.0 62851.0 58364.0 97645.0 105375.0 89639.0 87171.0 42378.0 42846.0 247148.0 241222.0 201682.0 202156.0 113173.0 110874.0 45453.0 39434.0 290742.0 297595.0 60989.0 53062.0 50932.0 43700.0 311171.0 303619.0 311889.0 310503.0 62156.0 56800.0 118271.0 115205.0 198634.0 199627.0 173676.0 169890.0 81884.0 76242.0 73280.0 79914.0 143163.0 151016.0 61835.0 69726.0 241144.0 247176.0 76770.0 81521.0 67283.0 74179.0 59948.0 58575.0 37055.0 36220.0 32813.0 26140.0 265843.0 261011.0 97643.0 94881.0 15109.0 20587.0 142294.0 135516.0 69702.0 76773.0 201607.0 201857.0 82453.0 82180.0 0.0 8189.0 81982.0 77719.0 62600.0 69503.0 40995.0 45283.0 186136.0 180761.0 265625.0 257458.0 223274.0 225240.0 222718.0 215523.0 60659.0 67994.0 90229.0 93482.0 98845.0 94388.0 78028.0 143376.0 78028.0 78028.0 78028.0 78028.0 78028.0 78028.0 78028.0 143376.0 143376.0 143376.0 143376.0 143376.0 143376.0 143376.0
140763.0 136235.0 69537.0 69777.0 51732.0 58464.0 31124.0 23142.0 95548.0 96258.0 194005.0 191993.0 31946.0 35624.0 130952.0 129565.0 103361.0 94867.0 117489.0 110398.0 214935.0 212921.0 71745.0 66329.0 245203.0 239151.0 87544.0 89479.0 200588.0 206428.0 62504.0 56101.0 121735.0 124879.0 57331.0 56105.0 39973.0 33181.0 34382.0 27860.0 119773.0 112747.0 64713.0 59779.0 109557.0 116962.0 156329.0 161242.0 100906.0 97983.0 29196.0 26432.0 53567.0 48876.0 130169.0 137342.0 91398.0 98148.0 115901.0 107904.0 64242.0 58093.0 61479.0 63339.0 95958.0 92981.0 16264.0 9037.0 79244.0 72791.0 70478.0 65647.0 89457.0 97190.0 81473.0 79097.0 48055.0 47388.0 254528.0 248678.0 208554.0 209203.0 120267.0 118114.0 52090.0 45512.0 297189.0 304042.0 53057.0 45223.0 58959.0 51818.0 318108.0 310594.0 318339.0 317078.0 54532.0 49580.0 122395.0 118892.0 206120.0 207229.0 178901.0 175369.0 90064.0 84370.0 80723.0 87542.0 149605.0 157503.0 69979.0 77848.0 248524.0 254478.0 78919.0 83006.0 74321.0 81086.0 68003.0 66386.0 37247.0 38178.0 40542.0 34170.0 272590.0 267867.0 93676.0 91514.0 23127.0 28758.0 150328.0 143600.0 77641.0 84816.0 206437.0 206420.0 74395.0 74320.0 8189.0 0.0 86250.0 82547.0 61940.0 68249.0 49142.0 53221.0 193683.0 188406.0 272073.0 263906.0 229817.0 231956.0 230250.0 223097.0 68619.0 75854.0 91586.0 95475.0 90719.0 86368.0 74759.0 149722.0 74759.0 74759.0 74759.0 74759.0 74759.0 74759.0 74759.0 149722.0 149722.0 149722.0 149722.0 149722.0 149722.0 149722.0
56706.0 54182.0 136280.0 131975.0 51901.0 53735.0 60629.0 66892.0 35929.0 43350.0 114036.0 110436.0 115786.0 121185.0 59153.0 62411.0 38733.0 35153.0 37521.0 29556.0 132057.0 129033.0 120411.0 112298.0 251158.0 243651.0 168988.0 172562.0 226693.0 230361.0 130932.0 128253.0 122833.0 120413.0 141774.0 138707.0 98345.0 91183.0 51905.0 59077.0 108721.0 101074.0 143503.0 136537.0 23531.0 31411.0 165562.0 166532.0 88367.0 80683.0 57481.0 62865.0 82549.0 75586.0 160115.0 164133.0 82021.0 90013.0 31152.0 23651.0 50175.0 46323.0 145614.0 148662.0 18881.0 11099.0 70452.0 77244.0 60624.0 54927.0 97648.0 100629.0 154244.0 160415.0 150909.0 152133.0 41194.0 39137.0 256414.0 249036.0 223668.0 221059.0 142023.0 137695.0 43455.0 45090.0 317315.0 323904.0 131087.0 125033.0 83168.0 78010.0 326592.0 318604.0 335312.0 332041.0 110358.0 102036.0 36298.0 33922.0 208713.0 206719.0 93853.0 91295.0 86626.0 89048.0 107021.0 107673.0 177042.0 183389.0 68368.0 68851.0 250721.0 258151.0 23636.0 30310.0 109179.0 115399.0 85360.0 91768.0 55283.0 50028.0 84259.0 78855.0 286290.0 279838.0 90959.0 83200.0 72405.0 75787.0 141254.0 132825.0 60362.0 66797.0 120434.0 120196.0 134088.0 128943.0 81982.0 86250.0 0.0 7844.0 49815.0 54506.0 67206.0 59789.0 195820.0 188442.0 292227.0 284053.0 249079.0 248258.0 229846.0 222096.0 88909.0 95251.0 33864.0 28771.0 161167.0 160021.0 159981.0 180349.0 159981.0 159981.0 159981.0 159981.0 159981.0 159981.0 159981.0 180349.0 180349.0 180349.0 180349.0 180349.0 180349.0 180349.0
62998.0 61061.0 135856.0 131950.0 44976.0 46323.0 55412.0 62134.0 43077.0 50243.0 114500.0 111422.0 112887.0 117884.0 66945.0 70254.0 46344.0 42271.0 37039.0 29228.0 133623.0 131040.0 121425.0 113335.0 243651.0 236173.0 166880.0 170119.0 218853.0 222534.0 130243.0 127110.0 115096.0 112775.0 138886.0 136217.0 97753.0 90267.0 48227.0 54903.0 101176.0 93483.0 141689.0 134941.0 27405.0 34453.0 157821.0 158864.0 80683.0 73038.0 54444.0 60513.0 83791.0 76518.0 152305.0 156299.0 74228.0 82255.0 37594.0 30540.0 42529.0 39074.0 142821.0 145518.0 26706.0 18932.0 66466.0 73641.0 52792.0 47092.0 90093.0 93262.0 154267.0 160673.0 150375.0 151178.0 35901.0 35164.0 249036.0 241693.0 215930.0 213372.0 134184.0 129853.0 36989.0 39568.0 309548.0 316153.0 129258.0 122886.0 75786.0 70866.0 319110.0 311126.0 327638.0 324405.0 110439.0 102136.0 41469.0 40180.0 201217.0 199309.0 96468.0 93311.0 78796.0 81209.0 99350.0 99897.0 169203.0 175545.0 60594.0 61008.0 243323.0 250721.0 28748.0 36135.0 101695.0 107839.0 77731.0 84250.0 54028.0 47922.0 77721.0 72671.0 278643.0 272221.0 95488.0 87919.0 67199.0 70002.0 133868.0 125447.0 52521.0 59008.0 123930.0 124151.0 134350.0 129597.0 77719.0 82547.0 7844.0 0.0 52325.0 57879.0 60182.0 52598.0 188305.0 180966.0 284450.0 276282.0 241308.0 240528.0 222489.0 214740.0 81300.0 87548.0 40703.0 36217.0 160615.0 159058.0 155476.0 172526.0 155476.0 155476.0 155476.0 155476.0 155476.0 155476.0 155476.0 172526.0 172526.0 172526.0 172526.0 172526.0 172526.0 172526.0
89679.0 83211.0 90722.0 85326.0 64400.0 71167.0 55164.0 55556.0 37591.0 35906.0 162524.0 158238.0 82406.0 89768.0 72234.0 69428.0 45435.0 37153.0 87257.0 79316.0 178638.0 174711.0 71604.0 63533.0 280120.0 273142.0 129057.0 134079.0 245421.0 250407.0 86385.0 85491.0 149895.0 149848.0 106673.0 101640.0 54856.0 49713.0 40039.0 46666.0 140268.0 132272.0 103015.0 95343.0 70221.0 78462.0 191004.0 193823.0 118672.0 112277.0 38148.0 36383.0 33936.0 28141.0 175118.0 180933.0 109970.0 118426.0 68760.0 61512.0 72282.0 64336.0 109819.0 114661.0 47101.0 49028.0 52222.0 54308.0 89231.0 81434.0 109203.0 108437.0 107151.0 112713.0 105413.0 107998.0 46814.0 38794.0 287241.0 280412.0 247922.0 246799.0 160341.0 156852.0 55716.0 49642.0 339782.0 346555.0 91154.0 86939.0 93615.0 85949.0 355295.0 347448.0 360121.0 357786.0 63920.0 55827.0 77883.0 71682.0 238390.0 237701.0 138735.0 137562.0 112307.0 111007.0 120256.0 124165.0 193976.0 201322.0 89497.0 94190.0 281330.0 288225.0 28607.0 27444.0 118136.0 125291.0 100037.0 103328.0 25702.0 29516.0 83926.0 76095.0 312171.0 306451.0 46669.0 40441.0 62794.0 70108.0 173835.0 165732.0 88155.0 96480.0 162102.0 160219.0 86663.0 80714.0 62600.0 61940.0 49815.0 52325.0 0.0 8167.0 76046.0 72611.0 225396.0 218748.0 314666.0 306498.0 271776.0 272380.0 261237.0 253601.0 102687.0 110548.0 34148.0 40765.0 115563.0 115760.0 134550.0 195588.0 134550.0 134550.0 134550.0 134550.0 134550.0 134550.0 134550.0 195588.0 195588.0 195588.0 195588.0 195588.0 195588.0 195588.0
89506.0 82558.0 90845.0 84929.0 72520.0 79227.0 63185.0 63296.0 36393.0 33041.0 165527.0 160912.0 86596.0 94244.0 69452.0 65831.0 43832.0 36129.0 91519.0 83659.0 180731.0 176493.0 69756.0 61842.0 288200.0 281204.0 130943.0 136349.0 253571.0 258568.0 87043.0 86903.0 157943.0 157815.0 110089.0 104623.0 56682.0 52549.0 48084.0 54538.0 148120.0 140122.0 104983.0 97178.0 73408.0 81548.0 199127.0 201908.0 126524.0 120038.0 45835.0 43420.0 33284.0 29056.0 183245.0 189081.0 117896.0 126362.0 70211.0 63428.0 80205.0 72317.0 113028.0 118242.0 49054.0 52189.0 59521.0 61030.0 97020.0 89260.0 117345.0 116512.0 106276.0 111411.0 105410.0 108581.0 54908.0 46893.0 295263.0 288411.0 256078.0 254937.0 168507.0 165019.0 63764.0 57785.0 347949.0 354722.0 93460.0 89862.0 101767.0 94087.0 363398.0 355546.0 368283.0 365939.0 64001.0 56248.0 79708.0 73022.0 246431.0 245695.0 140452.0 139734.0 120323.0 119115.0 128404.0 132332.0 202120.0 209475.0 97563.0 102149.0 289358.0 296274.0 31768.0 28523.0 126214.0 133376.0 108204.0 111478.0 33062.0 37479.0 91858.0 83990.0 320318.0 314588.0 39078.0 32528.0 70506.0 77931.0 181696.0 173563.0 95975.0 104262.0 162771.0 160491.0 85767.0 79292.0 69503.0 68249.0 54506.0 57879.0 8167.0 0.0 84210.0 80760.0 233434.0 226755.0 322833.0 314665.0 279942.0 280540.0 269226.0 261582.0 110852.0 118715.0 33507.0 41016.0 115422.0 116221.0 139846.0 203707.0 139846.0 139846.0 139846.0 139846.0 139846.0 139846.0 139846.0 203707.0 203707.0 203707.0 203707.0 203707.0 203707.0 203707.0
122986.0 121237.0 118442.0 118071.0 15340.0 15440.0 23735.0 29071.0 93817.0 98348.0 155940.0 155431.0 79278.0 80366.0 124828.0 126561.0 99953.0 92958.0 85210.0 80055.0 179092.0 178480.0 116880.0 110203.0 205704.0 199018.0 133943.0 134533.0 169446.0 174366.0 111469.0 105231.0 76978.0 78696.0 102270.0 102887.0 85322.0 77244.0 37090.0 33283.0 71933.0 64511.0 112971.0 108610.0 85814.0 91035.0 116101.0 119655.0 52086.0 48845.0 42290.0 49116.0 88416.0 81149.0 99423.0 104993.0 42504.0 49740.0 97740.0 90690.0 21542.0 21314.0 106577.0 106434.0 84131.0 77674.0 37814.0 44652.0 31416.0 26609.0 33509.0 34374.0 138410.0 146077.0 130612.0 128132.0 31028.0 38386.0 213669.0 207213.0 172237.0 171470.0 84300.0 80869.0 24539.0 27289.0 263782.0 270635.0 101796.0 93760.0 17813.0 11022.0 280407.0 272638.0 284277.0 282099.0 100560.0 94003.0 100635.0 100249.0 164722.0 164797.0 147605.0 142504.0 41918.0 37685.0 44387.0 48149.0 118066.0 125334.0 20841.0 28763.0 207694.0 214258.0 74610.0 81948.0 43686.0 50558.0 24149.0 27504.0 54620.0 47723.0 19458.0 18449.0 236611.0 231089.0 120712.0 115646.0 26131.0 21125.0 104023.0 96700.0 29823.0 36119.0 177111.0 178780.0 122376.0 121207.0 40995.0 49142.0 67206.0 60182.0 76046.0 84210.0 0.0 8078.0 151859.0 145749.0 238665.0 230498.0 195810.0 196591.0 188258.0 180791.0 26648.0 34546.0 90116.0 89740.0 139838.0 135281.0 106667.0 119965.0 106667.0 106667.0 106667.0 106667.0 106667.0 106667.0 106667.0 119965.0 119965.0 119965.0 119965.0 119965.0 119965.0 119965.0
115222.0 113647.0 121704.0 120836.0 8753.0 7401.0 24509.0 31342.0 87727.0 92636.0 148326.0 147682.0 84289.0 85984.0 117924.0 119944.0 93577.0 86862.0 77146.0 71978.0 171316.0 170611.0 118330.0 111347.0 207814.0 200962.0 139452.0 140387.0 173738.0 178399.0 114830.0 108943.0 78062.0 78977.0 108021.0 108189.0 87260.0 79032.0 35441.0 33340.0 71088.0 63366.0 117740.0 112997.0 77901.0 83021.0 118472.0 121545.0 50294.0 45967.0 41664.0 49095.0 87977.0 80471.0 104298.0 109482.0 40756.0 48654.0 90072.0 83138.0 13650.0 13535.0 112317.0 112555.0 77114.0 70427.0 40118.0 47611.0 26028.0 20020.0 39000.0 41004.0 141673.0 149237.0 134331.0 132274.0 26175.0 34033.0 215344.0 208712.0 175327.0 174202.0 88265.0 84564.0 18360.0 22983.0 267401.0 274229.0 106255.0 98345.0 23702.0 18274.0 282830.0 275010.0 287561.0 285182.0 102476.0 95528.0 92751.0 92536.0 166399.0 166115.0 139577.0 134523.0 41384.0 38711.0 49405.0 52126.0 122581.0 129655.0 18535.0 25570.0 209396.0 216129.0 68636.0 76187.0 49935.0 56543.0 28009.0 32950.0 53062.0 45589.0 27438.0 25504.0 239560.0 233856.0 118212.0 112743.0 30176.0 26855.0 103961.0 96325.0 24423.0 31765.0 169055.0 170705.0 124932.0 123251.0 45283.0 53221.0 59789.0 52598.0 72611.0 80760.0 8078.0 0.0 153455.0 147079.0 242285.0 234117.0 199340.0 199809.0 189640.0 182091.0 31099.0 38598.0 84125.0 83266.0 143778.0 139586.0 113965.0 124850.0 113965.0 113965.0 113965.0 113965.0 113965.0 113965.0 113965.0 124850.0 124850.0 124850.0 124850.0 124850.0 124850.0 124850.0
232827.0 236138.0 260032.0 261992.0 161202.0 154236.0 175491.0 179635.0 231242.0 238025.0 199675.0 205448.0 214651.0 211116.0 251233.0 256330.0 234548.0 230415.0 182610.0 184607.0 223525.0 228476.0 265378.0 259586.0 55350.0 47970.0 257380.0 253956.0 61164.0 57972.0 252990.0 245380.0 75511.0 76024.0 227808.0 232474.0 233467.0 226062.0 188654.0 185096.0 87137.0 94914.0 245596.0 244425.0 199364.0 198346.0 37782.0 32468.0 108123.0 115476.0 194150.0 200832.0 240128.0 232968.0 75254.0 67280.0 115959.0 107494.0 215193.0 212049.0 153426.0 161151.0 231501.0 227217.0 214353.0 206266.0 187711.0 192813.0 137553.0 144911.0 123291.0 128188.0 278906.0 286763.0 268911.0 263875.0 178620.0 186639.0 61891.0 55362.0 37930.0 31140.0 75497.0 76519.0 169681.0 176060.0 126844.0 132327.0 237834.0 229901.0 136488.0 144401.0 130837.0 122870.0 140943.0 136986.0 248213.0 242883.0 211245.0 216074.0 13010.0 13949.0 218495.0 210502.0 113124.0 114746.0 112984.0 106241.0 62146.0 56622.0 135921.0 131443.0 55953.0 62869.0 214491.0 222474.0 120192.0 114135.0 128190.0 127848.0 206301.0 199013.0 153342.0 160494.0 91700.0 84728.0 271556.0 265807.0 174455.0 166785.0 55180.0 63539.0 138349.0 130535.0 244569.0 250725.0 266985.0 267782.0 186136.0 193683.0 195820.0 188305.0 225396.0 233434.0 151859.0 153455.0 0.0 7996.0 103285.0 95087.0 62806.0 58446.0 36588.0 29453.0 126544.0 118742.0 228547.0 224520.0 276117.0 269310.0 213451.0 68145.0 213451.0 213451.0 213451.0 213451.0 213451.0 213451.0 213451.0 68145.0 68145.0 68145.0 68145.0 68145.0 68145.0 68145.0
224975.0 228340.0 255314.0 257083.0 154697.0 147631.0 169440.0 173790.0 223953.0 230795.0 191841.0 197569.0 210118.0 206825.0 243592.0 248752.0 227158.0 223128.0 174784.0 176859.0 215766.0 220664.0 260004.0 254085.0 62761.0 55209.0 253883.0 250677.0 67063.0 64480.0 248251.0 240714.0 69021.0 69063.0 223966.0 228431.0 228064.0 220564.0 182384.0 179024.0 79868.0 87712.0 241451.0 240062.0 191670.0 190568.0 33908.0 27481.0 101031.0 108285.0 188019.0 194812.0 234125.0 226897.0 73407.0 65669.0 109060.0 100581.0 207496.0 204433.0 146639.0 154440.0 227726.0 223641.0 206919.0 198830.0 181971.0 187258.0 130552.0 137990.0 117932.0 123137.0 274342.0 282208.0 264484.0 259613.0 172026.0 180037.0 68544.0 61675.0 45342.0 38881.0 71629.0 72212.0 163045.0 169552.0 134839.0 140309.0 233417.0 225430.0 130730.0 138593.0 138150.0 130163.0 148788.0 144746.0 242902.0 237417.0 203461.0 208348.0 20324.0 19050.0 210513.0 202521.0 106441.0 108408.0 107858.0 100865.0 62063.0 57363.0 129355.0 124654.0 62682.0 69855.0 207352.0 215328.0 115438.0 109611.0 122282.0 122294.0 200038.0 192666.0 147948.0 154960.0 99564.0 92526.0 265027.0 259180.0 168775.0 161186.0 47500.0 55899.0 131388.0 123484.0 236634.0 242771.0 262028.0 262632.0 180761.0 188406.0 188442.0 180966.0 218748.0 226755.0 145749.0 147079.0 7996.0 0.0 111265.0 103062.0 70579.0 66381.0 42561.0 35043.0 120781.0 113063.0 221301.0 217170.0 271869.0 265194.0 210164.0 68493.0 210164.0 210164.0 210164.0 210164.0 210164.0 210164.0 210164.0 68493.0 68493.0 68493.0 68493.0 68493.0 68493.0 68493.0
333868.0 336538.0 332594.0 335785.0 250796.0 244858.0 260920.0 263225.0 326384.0 332523.0 302363.0 308365.0 286863.0 281951.0 349823.0 354211.0 330633.0 325527.0 283560.0 284753.0 325725.0 330993.0 342581.0 337949.0 59713.0 66740.0 324862.0 321365.0 73021.0 65941.0 325797.0 317843.0 169490.0 172679.0 296335.0 301765.0 311625.0 305245.0 275475.0 270370.0 185129.0 192171.0 315206.0 315123.0 298855.0 298718.0 126830.0 126851.0 204117.0 211943.0 279643.0 285190.0 323362.0 316959.0 141915.0 134956.0 210242.0 202224.0 314613.0 310654.0 245552.0 252427.0 299763.0 294906.0 311089.0 303115.0 270155.0 273534.0 231858.0 238366.0 206073.0 208366.0 350300.0 358028.0 339663.0 333847.0 268437.0 276316.0 67941.0 74217.0 69044.0 73199.0 154408.0 157814.0 260088.0 265228.0 25228.0 32458.0 308911.0 301430.0 221342.0 229212.0 63039.0 59066.0 49264.0 50233.0 325182.0 321333.0 311609.0 315794.0 92764.0 98389.0 321777.0 313786.0 205963.0 205042.0 194940.0 190517.0 122474.0 114611.0 226904.0 224304.0 68957.0 62618.0 308411.0 316349.0 198891.0 191783.0 214629.0 211725.0 292587.0 286205.0 234499.0 242386.0 27211.0 33350.0 358991.0 354230.0 256905.0 248907.0 156563.0 164495.0 232314.0 225444.0 347738.0 353965.0 341031.0 343194.0 265625.0 272073.0 292227.0 284450.0 314666.0 322833.0 238665.0 242285.0 103285.0 111265.0 0.0 8282.0 43162.0 45141.0 84170.0 89529.0 212021.0 204128.0 323299.0 320304.0 345925.0 338592.0 280842.0 124149.0 280842.0 280842.0 280842.0 280842.0 280842.0 280842.0 280842.0 124149.0 124149.0 124149.0 124149.0 124149.0 124149.0 124149.0
325592.0 328271.0 324427.0 327618.0 242629.0 236634.0 252753.0 255057.0 318223.0 324349.0 294295.0 300263.0 278696.0 273784.0 341599.0 346009.0 322483.0 317366.0 275283.0 276486.0 317723.0 322952.0 334414.0 329782.0 52958.0 59666.0 316695.0 313198.0 64854.0 57773.0 317630.0 309676.0 161291.0 164437.0 288167.0 293598.0 303458.0 297078.0 267307.0 262203.0 176874.0 183932.0 307039.0 306955.0 290603.0 290449.0 118613.0 118584.0 195910.0 203731.0 271475.0 277023.0 315194.0 308792.0 133747.0 126789.0 202070.0 194044.0 306364.0 302424.0 237365.0 244215.0 291596.0 286739.0 302911.0 294931.0 261988.0 265366.0 223693.0 230197.0 197906.0 200199.0 342133.0 349861.0 331496.0 325680.0 260270.0 268149.0 62160.0 67989.0 60777.0 64927.0 146241.0 149646.0 251921.0 257060.0 33284.0 40238.0 300744.0 293263.0 213175.0 221044.0 66179.0 61365.0 55828.0 55954.0 317014.0 313166.0 303341.0 307539.0 84692.0 90427.0 313569.0 305581.0 197796.0 196848.0 186773.0 182350.0 114307.0 106444.0 218705.0 216134.0 62661.0 56794.0 300234.0 308170.0 190723.0 183616.0 206462.0 203558.0 284419.0 278038.0 226332.0 234219.0 24960.0 29523.0 350824.0 346063.0 248738.0 240740.0 148284.0 156213.0 224146.0 217279.0 339589.0 345794.0 332864.0 335027.0 257458.0 263906.0 284053.0 276282.0 306498.0 314665.0 230498.0 234117.0 95087.0 103062.0 8282.0 0.0 34974.0 36872.0 76892.0 81997.0 203854.0 195961.0 315129.0 312160.0 337758.0 330425.0 272674.0 115982.0 272674.0 272674.0 272674.0 272674.0 272674.0 272674.0 272674.0 115982.0 115982.0 115982.0 115982.0 115982.0 115982.0 115982.0
290948.0 293515.0 290481.0 293672.0 207829.0 201843.0 218176.0 220594.0 283271.0 289423.0 262412.0 268088.0 244750.0 239838.0 306668.0 311049.0 287512.0 282415.0 240665.0 241732.0 286327.0 291243.0 300467.0 295820.0 39024.0 41575.0 282748.0 279252.0 32708.0 24935.0 283683.0 275729.0 126328.0 129562.0 254221.0 259652.0 269469.0 262998.0 232675.0 227650.0 142055.0 149045.0 273093.0 273009.0 255761.0 255716.0 83673.0 83884.0 160954.0 168782.0 236924.0 242549.0 280847.0 274385.0 99665.0 92531.0 167097.0 159071.0 271506.0 267507.0 202484.0 209394.0 257650.0 252792.0 267938.0 259959.0 227611.0 231112.0 188726.0 195255.0 163346.0 165796.0 308186.0 315914.0 297549.0 291734.0 225479.0 233373.0 52757.0 54678.0 26241.0 31698.0 111617.0 114942.0 217097.0 222296.0 68247.0 75015.0 266797.0 259317.0 178550.0 186440.0 90958.0 84264.0 88714.0 87266.0 283145.0 279170.0 268597.0 272710.0 54303.0 61064.0 280379.0 272427.0 162842.0 161988.0 152218.0 147664.0 80254.0 72322.0 183856.0 181197.0 49819.0 48298.0 265321.0 273265.0 156371.0 149294.0 171743.0 168958.0 249839.0 243398.0 191954.0 199816.0 43952.0 41243.0 316238.0 311415.0 214333.0 206338.0 114158.0 121920.0 189186.0 182305.0 306955.0 312958.0 298917.0 301081.0 223274.0 229817.0 249079.0 241308.0 271776.0 279942.0 195810.0 199340.0 62806.0 70579.0 43162.0 34974.0 0.0 8428.0 54664.0 57164.0 169174.0 161265.0 280190.0 277192.0 303812.0 296479.0 238728.0 81174.0 238728.0 238728.0 238728.0 238728.0 238728.0 238728.0 238728.0 81174.0 81174.0 81174.0 81174.0 81174.0 81174.0 81174.0
288924.0 291716.0 293131.0 296385.0 208203.0 202018.0 219260.0 221965.0 282782.0 289080.0 258025.0 263864.0 247433.0 242553.0 305411.0 309977.0 286823.0 281931.0 238605.0 239941.0 281700.0 286774.0 302956.0 298130.0 30639.0 33199.0 285464.0 281967.0 38419.0 30346.0 286361.0 278390.0 125432.0 128187.0 256937.0 262367.0 271751.0 265124.0 233587.0 228790.0 140489.0 147689.0 275808.0 275725.0 254189.0 253876.0 82715.0 82120.0 159937.0 167706.0 238058.0 243873.0 282434.0 275845.0 102101.0 94663.0 166450.0 158293.0 269978.0 266195.0 202394.0 209482.0 260365.0 255508.0 267077.0 259060.0 229174.0 232934.0 188173.0 194891.0 164550.0 167382.0 310902.0 318630.0 300265.0 294449.0 225874.0 233815.0 44441.0 46250.0 24631.0 28060.0 112771.0 115834.0 217363.0 222792.0 69542.0 75764.0 269513.0 262032.0 179545.0 187484.0 87037.0 79988.0 87755.0 85560.0 285618.0 281435.0 266778.0 271096.0 48806.0 55163.0 276810.0 268830.0 162439.0 162022.0 153454.0 148529.0 82861.0 74868.0 183892.0 180886.0 41402.0 40091.0 265054.0 273021.0 158088.0 151091.0 172458.0 170041.0 250884.0 244282.0 193557.0 201351.0 40655.0 36623.0 317229.0 312234.0 215848.0 207869.0 111444.0 119414.0 188701.0 181606.0 303013.0 309147.0 301633.0 303757.0 225240.0 231956.0 248258.0 240528.0 272380.0 280540.0 196591.0 199809.0 58446.0 66381.0 45141.0 36872.0 8428.0 0.0 46836.0 49846.0 170021.0 162072.0 279779.0 276552.0 306527.0 299194.0 241444.0 84457.0 241444.0 241444.0 241444.0 241444.0 241444.0 241444.0 241444.0 84457.0 84457.0 84457.0 84457.0 84457.0 84457.0 84457.0
263632.0 267531.0 296350.0 298419.0 197246.0 190153.0 211928.0 216166.0 265554.0 272533.0 221755.0 228269.0 250862.0 247137.0 283841.0 289312.0 268473.0 264741.0 213889.0 216590.0 244184.0 249904.0 301956.0 296174.0 25501.0 17690.0 292467.0 288969.0 71600.0 64916.0 289324.0 281670.0 111581.0 111433.0 263359.0 268240.0 270050.0 262650.0 224938.0 221522.0 121802.0 129735.0 281454.0 280485.0 231716.0 230025.0 74095.0 69056.0 143187.0 150270.0 230539.0 237289.0 276597.0 269399.0 108925.0 100782.0 151420.0 142940.0 247481.0 244881.0 189062.0 196910.0 266971.0 262450.0 248119.0 240034.0 224272.0 229400.0 172781.0 180302.0 159876.0 164715.0 315110.0 322958.0 305011.0 299831.0 214547.0 222554.0 26625.0 19238.0 42682.0 35143.0 111481.0 112791.0 205551.0 212099.0 104152.0 108085.0 273941.0 266058.0 173038.0 180939.0 97606.0 89590.0 112594.0 107439.0 284782.0 279470.0 242833.0 248141.0 24302.0 23540.0 244111.0 236082.0 148945.0 150966.0 149537.0 142829.0 93181.0 86271.0 171893.0 167089.0 21170.0 29054.0 249298.0 257255.0 156612.0 150441.0 164689.0 164432.0 242591.0 235227.0 189928.0 197081.0 65112.0 57260.0 307561.0 301675.0 211027.0 203368.0 88629.0 97044.0 173664.0 165658.0 268367.0 275049.0 303435.0 304308.0 222718.0 230250.0 229846.0 222489.0 261237.0 269226.0 188258.0 189640.0 36588.0 42561.0 84170.0 76892.0 54664.0 46836.0 0.0 7751.0 163092.0 155307.0 263012.0 258616.0 312053.0 305120.0 248445.0 97988.0 248445.0 248445.0 248445.0 248445.0 248445.0 248445.0 248445.0 97988.0 97988.0 97988.0 97988.0 97988.0 97988.0 97988.0
256001.0 259865.0 289467.0 291445.0 189658.0 182541.0 204479.0 208789.0 257806.0 264789.0 214976.0 221406.0 244052.0 240444.0 276118.0 281576.0 260722.0 256993.0 206218.0 208885.0 237610.0 243235.0 294772.0 288935.0 32199.0 24186.0 286226.0 282740.0 70555.0 64434.0 282428.0 274807.0 104029.0 103773.0 256908.0 261685.0 262850.0 255410.0 217416.0 214065.0 114081.0 122019.0 274853.0 273772.0 223998.0 222337.0 67183.0 61855.0 135482.0 142548.0 223062.0 229849.0 269162.0 261940.0 103054.0 94937.0 143750.0 135270.0 239767.0 237147.0 181404.0 189269.0 260558.0 256141.0 240368.0 232283.0 216934.0 222134.0 165084.0 172617.0 152673.0 157633.0 308308.0 316162.0 298275.0 293178.0 206932.0 214936.0 34366.0 26969.0 41635.0 33554.0 104773.0 105924.0 197927.0 204508.0 110307.0 114526.0 267199.0 259285.0 165693.0 173576.0 105280.0 97262.0 119702.0 114706.0 277623.0 272244.0 235151.0 240436.0 17897.0 15995.0 236938.0 228908.0 141325.0 143437.0 142416.0 135613.0 87963.0 81340.0 164295.0 159437.0 28846.0 36644.0 241565.0 249521.0 149642.0 143558.0 157292.0 157158.0 235070.0 227680.0 182719.0 189819.0 71733.0 63976.0 299952.0 294041.0 203711.0 196082.0 80883.0 89297.0 165974.0 157953.0 261416.0 268040.0 296439.0 297223.0 215523.0 223097.0 222096.0 214740.0 253601.0 261582.0 180791.0 182091.0 29453.0 35043.0 89529.0 81997.0 57164.0 49846.0 7751.0 0.0 155744.0 147988.0 255267.0 250865.0 305412.0 298546.0 242216.0 93095.0 242216.0 242216.0 242216.0 242216.0 242216.0 242216.0 242216.0 93095.0 93095.0 93095.0 93095.0 93095.0 93095.0 93095.0
142189.0 141571.0 137558.0 138306.0 39850.0 35552.0 49436.0 53105.0 118638.0 123695.0 161564.0 162398.0 94569.0 93486.0 147839.0 150308.0 124268.0 117772.0 98816.0 95330.0 186069.0 186590.0 139581.0 133443.0 179769.0 173238.0 145953.0 145112.0 142895.0 147745.0 130461.0 123475.0 53143.0 56386.0 114054.0 116376.0 107643.0 99965.0 63567.0 59040.0 52631.0 46574.0 128029.0 124940.0 104206.0 108006.0 90120.0 94137.0 37608.0 38559.0 68259.0 74541.0 113732.0 106723.0 73205.0 78509.0 29941.0 33449.0 117828.0 111494.0 38777.0 43320.0 118279.0 116494.0 107008.0 99874.0 61192.0 66624.0 35170.0 36494.0 9100.0 15218.0 157259.0 165087.0 148411.0 144808.0 57068.0 64723.0 188132.0 181875.0 145719.0 145126.0 57655.0 54240.0 49449.0 53576.0 237138.0 243990.0 118068.0 109874.0 9949.0 17871.0 254187.0 246457.0 257676.0 255554.0 122672.0 116850.0 119073.0 120026.0 139277.0 139772.0 158810.0 152773.0 25589.0 17702.0 18371.0 21511.0 91601.0 98783.0 22194.0 26663.0 182138.0 188527.0 99634.0 107245.0 21083.0 26627.0 3661.0 4795.0 80930.0 74264.0 28385.0 34536.0 210126.0 204689.0 147215.0 142253.0 48009.0 40542.0 81777.0 75280.0 34265.0 34505.0 188840.0 191515.0 142993.0 142834.0 60659.0 68619.0 88909.0 81300.0 102687.0 110852.0 26648.0 31099.0 126544.0 120781.0 212021.0 203854.0 169174.0 170021.0 163092.0 155744.0 0.0 7968.0 115093.0 113891.0 156919.0 151377.0 110237.0 93760.0 110237.0 110237.0 110237.0 110237.0 110237.0 110237.0 110237.0 93760.0 93760.0 93760.0 93760.0 93760.0 93760.0 93760.0
147570.0 147285.0 144412.0 145377.0 47313.0 42500.0 57401.0 60973.0 125759.0 130981.0 162890.0 164117.0 100852.0 99331.0 154339.0 157033.0 131218.0 124892.0 102910.0 99914.0 187688.0 188543.0 147097.0 141055.0 171840.0 165333.0 151220.0 150039.0 135177.0 139944.0 137310.0 130198.0 45961.0 49750.0 119441.0 122131.0 115147.0 107548.0 71521.0 67002.0 47244.0 41926.0 134069.0 131265.0 109554.0 112937.0 82199.0 86309.0 34895.0 37448.0 76225.0 82478.0 121640.0 114656.0 65811.0 70884.0 28802.0 30279.0 123565.0 117463.0 45110.0 50306.0 123619.0 121462.0 113580.0 106287.0 68970.0 74218.0 38881.0 41544.0 8047.0 16094.0 164015.0 171862.0 154968.0 151137.0 64706.0 72437.0 180267.0 174050.0 137759.0 137158.0 49813.0 46323.0 56868.0 61296.0 229245.0 236097.0 124412.0 116227.0 17798.0 25772.0 246225.0 238497.0 249740.0 247600.0 130113.0 124421.0 124340.0 125665.0 131442.0 132028.0 161793.0 155512.0 23314.0 14868.0 11958.0 13619.0 83982.0 91078.0 27253.0 29863.0 174272.0 180629.0 106856.0 114539.0 17962.0 21785.0 10596.0 9541.0 88896.0 82209.0 35359.0 41974.0 202163.0 196721.0 155171.0 150182.0 55724.0 48132.0 74951.0 68777.0 38246.0 36770.0 191858.0 194823.0 150127.0 150157.0 67994.0 75854.0 95251.0 87548.0 110548.0 118715.0 34546.0 38598.0 118742.0 113063.0 204128.0 195961.0 161265.0 162072.0 155307.0 147988.0 7968.0 0.0 122270.0 120814.0 163302.0 157560.0 113779.0 86341.0 113779.0 113779.0 113779.0 113779.0 113779.0 113779.0 113779.0 86341.0 86341.0 86341.0 86341.0 86341.0 86341.0 86341.0
56009.0 49203.0 124223.0 118414.0 75405.0 79796.0 75387.0 78888.0 4004.0 9542.0 134643.0 129473.0 115485.0 122461.0 39388.0 38364.0 11804.0 3281.0 65220.0 58067.0 148385.0 143808.0 103074.0 95236.0 283889.0 276479.0 163205.0 168188.0 256445.0 260573.0 120200.0 119576.0 154523.0 152719.0 140314.0 135545.0 88983.0 83797.0 61695.0 69614.0 141435.0 133633.0 137163.0 129490.0 44722.0 52174.0 197116.0 198595.0 120539.0 113078.0 63595.0 65170.0 66731.0 61882.0 188060.0 192805.0 113396.0 121676.0 37885.0 32177.0 78085.0 71995.0 143586.0 148153.0 19246.0 25785.0 78646.0 82993.0 91633.0 84936.0 123118.0 124477.0 139774.0 144832.0 138833.0 141793.0 59389.0 53119.0 289524.0 282231.0 255149.0 252939.0 171041.0 166971.0 65814.0 63407.0 348413.0 355177.0 125277.0 120900.0 107650.0 101081.0 359384.0 351415.0 367200.0 364163.0 97359.0 89463.0 47741.0 40478.0 241499.0 239761.0 107800.0 107642.0 117367.0 118537.0 133458.0 135472.0 205868.0 212626.0 96878.0 98996.0 283781.0 291122.0 15509.0 8763.0 133780.0 140560.0 111816.0 117064.0 54524.0 54013.0 103473.0 96506.0 318370.0 312088.0 61690.0 53581.0 85842.0 91665.0 174385.0 165978.0 91078.0 98351.0 129351.0 126990.0 119269.0 112720.0 90229.0 91586.0 33864.0 40703.0 34148.0 33507.0 90116.0 84125.0 228547.0 221301.0 323299.0 315129.0 280190.0 279779.0 263012.0 255267.0 115093.0 122270.0 0.0 8186.0 148881.0 149494.0 165956.0 208560.0 165956.0 165956.0 165956.0 165956.0 165956.0 165956.0 165956.0 208560.0 208560.0 208560.0 208560.0 208560.0 208560.0 208560.0
48914.0 42588.0 131349.0 125712.0 74669.0 78361.0 76917.0 81132.0 7946.0 15885.0 126457.0 121302.0 120694.0 127418.0 36216.0 36891.0 10427.0 7406.0 57626.0 50687.0 140314.0 135811.0 110750.0 102856.0 279865.0 272378.0 169549.0 174322.0 254109.0 258024.0 127132.0 126210.0 151137.0 148962.0 145862.0 141368.0 95539.0 89990.0 64057.0 72009.0 137393.0 129695.0 143512.0 135919.0 36865.0 44151.0 193838.0 195016.0 116836.0 109229.0 66826.0 69249.0 74027.0 68822.0 186422.0 190884.0 110120.0 118265.0 29741.0 24017.0 76030.0 70574.0 149247.0 153563.0 11796.0 19244.0 81741.0 86683.0 88468.0 82166.0 122191.0 124071.0 147237.0 152426.0 146005.0 148744.0 59687.0 54203.0 285181.0 277807.0 251937.0 249492.0 168947.0 164762.0 65214.0 63793.0 345439.0 352108.0 131493.0 126818.0 106953.0 100760.0 355317.0 347332.0 363769.0 360581.0 104496.0 96495.0 39572.0 32380.0 237428.0 235477.0 99785.0 99522.0 114410.0 116132.0 132248.0 133781.0 203898.0 210488.0 94760.0 96244.0 279483.0 286903.0 16737.0 13449.0 133180.0 139804.0 110506.0 116164.0 58946.0 57409.0 104246.0 97619.0 314810.0 308415.0 69797.0 61679.0 87857.0 93168.0 170017.0 161589.0 88043.0 94946.0 121770.0 119617.0 126720.0 120308.0 93482.0 95475.0 28771.0 36217.0 40765.0 41016.0 89740.0 83266.0 224520.0 217170.0 320304.0 312160.0 277192.0 276552.0 258616.0 250865.0 113891.0 120814.0 8186.0 0.0 156104.0 156490.0 170149.0 206844.0 170149.0 170149.0 170149.0 170149.0 170149.0 170149.0 170149.0 206844.0 206844.0 206844.0 206844.0 206844.0 206844.0 206844.0
204883.0 197976.0 24949.0 30550.0 141313.0 148526.0 120350.0 112737.0 151810.0 147804.0 275041.0 271602.0 62465.0 65047.0 183241.0 178191.0 159129.0 151551.0 197655.0 189817.0 293006.0 289548.0 48726.0 55306.0 323647.0 318518.0 33853.0 42109.0 274420.0 280276.0 30421.0 34958.0 208898.0 213052.0 50293.0 44189.0 62876.0 70430.0 116996.0 113902.0 209293.0 202626.0 30719.0 32058.0 183884.0 192100.0 238352.0 244391.0 191281.0 188652.0 109464.0 101966.0 82151.0 87431.0 205059.0 213061.0 181859.0 188259.0 184223.0 176785.0 153911.0 146933.0 47583.0 54146.0 162478.0 163346.0 104256.0 96387.0 169725.0 162951.0 156640.0 150112.0 13306.0 16595.0 10258.0 12261.0 132958.0 128811.0 334467.0 329486.0 284377.0 286559.0 200641.0 199687.0 139500.0 131814.0 371042.0 377894.0 38893.0 47075.0 147910.0 141507.0 393443.0 386219.0 392181.0 391052.0 51643.0 59788.0 193099.0 187175.0 287766.0 290017.0 253761.0 252015.0 180095.0 173767.0 165290.0 173059.0 223683.0 231675.0 160679.0 168565.0 328548.0 333617.0 143634.0 142958.0 156809.0 162311.0 156982.0 153813.0 106664.0 113434.0 128667.0 123763.0 347127.0 342964.0 106609.0 111530.0 113835.0 119102.0 238166.0 232068.0 168132.0 175481.0 277664.0 275715.0 30724.0 38616.0 98845.0 90719.0 161167.0 160615.0 115563.0 115422.0 139838.0 143778.0 276117.0 271869.0 345925.0 337758.0 303812.0 306527.0 312053.0 305412.0 156919.0 163302.0 148881.0 156104.0 0.0 8543.0 92852.0 223554.0 92852.0 92852.0 92852.0 92852.0 92852.0 92852.0 92852.0 223554.0 223554.0 223554.0 223554.0 223554.0 223554.0 223554.0
205387.0 198690.0 25582.0 32605.0 137577.0 144624.0 116619.0 108861.0 152572.0 148959.0 273558.0 270352.0 56824.0 58606.0 184793.0 180044.0 160049.0 152267.0 196053.0 188285.0 292056.0 288812.0 52126.0 57924.0 316370.0 311330.0 25792.0 34077.0 267087.0 272943.0 29401.0 32042.0 202931.0 207284.0 42494.0 36896.0 61806.0 68855.0 114268.0 110668.0 203906.0 197389.0 23756.0 26682.0 183013.0 191182.0 231577.0 237733.0 186315.0 183967.0 106834.0 99559.0 82994.0 87670.0 197759.0 205793.0 176970.0 183154.0 184086.0 176516.0 150177.0 143436.0 39551.0 45892.0 162323.0 162768.0 100576.0 92594.0 165602.0 159022.0 150724.0 144011.0 20429.0 24950.0 12311.0 7888.0 130143.0 126435.0 327315.0 322426.0 277045.0 279244.0 193812.0 192983.0 136298.0 128758.0 363709.0 370562.0 33534.0 41674.0 142562.0 136393.0 386110.0 378886.0 384848.0 383719.0 52242.0 60031.0 192750.0 187067.0 280851.0 283229.0 253178.0 251169.0 174971.0 168431.0 159100.0 166956.0 216351.0 224342.0 156095.0 164045.0 321410.0 326390.0 143404.0 143204.0 150430.0 155763.0 151596.0 148120.0 105034.0 111445.0 123286.0 118735.0 339794.0 335632.0 110230.0 114681.0 109475.0 114350.0 232268.0 226329.0 164000.0 171161.0 277656.0 275950.0 34118.0 42335.0 94388.0 86368.0 160021.0 159058.0 115760.0 116221.0 135281.0 139586.0 269310.0 265194.0 338592.0 330425.0 296479.0 299194.0 305120.0 298546.0 151377.0 157560.0 149494.0 156490.0 8543.0 0.0 84514.0 216221.0 84514.0 84514.0 84514.0 84514.0 84514.0 84514.0 84514.0 216221.0 216221.0 216221.0 216221.0 216221.0 216221.0 216221.0
215326.0 210954.0 88720.0 94953.0 116844.0 121091.0 100394.0 93350.0 169876.0 169977.0 262112.0 261115.0 53939.0 45598.0 205338.0 203519.0 177758.0 169228.0 188170.0 181724.0 284593.0 283373.0 110171.0 109736.0 258629.0 253719.0 65346.0 60282.0 209336.0 215192.0 83749.0 76242.0 154464.0 160365.0 44275.0 52073.0 89809.0 88942.0 108311.0 100915.0 160498.0 155671.0 64505.0 68264.0 182844.0 189830.0 176257.0 183114.0 147836.0 148365.0 103862.0 100912.0 114021.0 112529.0 140034.0 148135.0 139943.0 143565.0 190251.0 182282.0 127471.0 124066.0 45843.0 38771.0 170653.0 167380.0 89706.0 83699.0 137159.0 133236.0 105814.0 97865.0 101167.0 107939.0 89757.0 82210.0 119700.0 120848.0 269783.0 265195.0 219294.0 221494.0 138719.0 138832.0 120994.0 116316.0 305958.0 312811.0 64593.0 60608.0 104539.0 101763.0 328359.0 321135.0 327097.0 325969.0 96105.0 97414.0 196277.0 193212.0 224357.0 227389.0 250648.0 246410.0 135822.0 127741.0 110802.0 118974.0 158600.0 166591.0 124185.0 131866.0 263929.0 268701.0 153652.0 157491.0 100929.0 104309.0 112043.0 105770.0 111434.0 112936.0 88120.0 88461.0 282043.0 277881.0 154576.0 154719.0 88814.0 88170.0 183483.0 179018.0 135648.0 140215.0 279075.0 279587.0 100102.0 105724.0 78028.0 74759.0 159981.0 155476.0 134550.0 139846.0 106667.0 113965.0 213451.0 210164.0 280842.0 272674.0 238728.0 241444.0 248445.0 242216.0 110237.0 113779.0 165956.0 170149.0 92852.0 84514.0 0.0 158470.0 0.0 0.0 0.0 0.0 0.0 0.0 0.0 158470.0 158470.0 158470.0 158470.0 158470.0 158470.0 158470.0
229147.0 230070.0 210223.0 213414.0 133594.0 128765.0 140747.0 142168.0 212006.0 217317.0 222342.0 226086.0 164492.0 159580.0 239442.0 242642.0 217268.0 211139.0 180652.0 179673.0 247775.0 250835.0 220209.0 215591.0 104040.0 100037.0 202490.0 198994.0 50865.0 57106.0 203425.0 195471.0 66901.0 73696.0 173963.0 179394.0 189257.0 182886.0 155705.0 149917.0 85675.0 89876.0 192835.0 192751.0 191700.0 193544.0 42206.0 49871.0 97785.0 105378.0 159119.0 164086.0 201470.0 195359.0 20556.0 16669.0 100704.0 94275.0 206726.0 201399.0 130820.0 136565.0 177392.0 172534.0 199028.0 191448.0 148561.0 151405.0 120399.0 125451.0 86491.0 87390.0 227928.0 235656.0 217291.0 211476.0 150783.0 158330.0 116178.0 112592.0 63526.0 67000.0 38758.0 43398.0 143177.0 147199.0 149265.0 156118.0 186539.0 179059.0 102177.0 109679.0 171494.0 164411.0 170417.0 168223.0 202888.0 198964.0 205896.0 208479.0 75676.0 80817.0 231534.0 224138.0 95068.0 91411.0 75595.0 73098.0 7151.0 11757.0 112154.0 111706.0 110557.0 114448.0 193176.0 200878.0 77703.0 70508.0 96878.0 92464.0 172222.0 166420.0 113104.0 121085.0 124850.0 121060.0 238386.0 234156.0 135524.0 127556.0 75084.0 78498.0 120401.0 115283.0 260732.0 265317.0 218659.0 220823.0 143376.0 149722.0 180349.0 172526.0 195588.0 203707.0 119965.0 124850.0 68145.0 68493.0 124149.0 115982.0 81174.0 84457.0 97988.0 93095.0 93760.0 86341.0 208560.0 206844.0 223554.0 216221.0 158470.0 0.0 158470.0 158470.0 158470.0 158470.0 158470.0 158470.0 158470.0 0.0 0.0 0.0 0.0 0.0 0.0 0.0
215326.0 210954.0 88720.0 94953.0 116844.0 121091.0 100394.0 93350.0 169876.0 169977.0 262112.0 261115.0 53939.0 45598.0 205338.0 203519.0 177758.0 169228.0 188170.0 181724.0 284593.0 283373.0 110171.0 109736.0 258629.0 253719.0 65346.0 60282.0 209336.0 215192.0 83749.0 76242.0 154464.0 160365.0 44275.0 52073.0 89809.0 88942.0 108311.0 100915.0 160498.0 155671.0 64505.0 68264.0 182844.0 189830.0 176257.0 183114.0 147836.0 148365.0 103862.0 100912.0 114021.0 112529.0 140034.0 148135.0 139943.0 143565.0 190251.0 182282.0 127471.0 124066.0 45843.0 38771.0 170653.0 167380.0 89706.0 83699.0 137159.0 133236.0 105814.0 97865.0 101167.0 107939.0 89757.0 82210.0 119700.0 120848.0 269783.0 265195.0 219294.0 221494.0 138719.0 138832.0 120994.0 116316.0 305958.0 312811.0 64593.0 60608.0 104539.0 101763.0 328359.0 321135.0 327097.0 325969.0 96105.0 97414.0 196277.0 193212.0 224357.0 227389.0 250648.0 246410.0 135822.0 127741.0 110802.0 118974.0 158600.0 166591.0 124185.0 131866.0 263929.0 268701.0 153652.0 157491.0 100929.0 104309.0 112043.0 105770.0 111434.0 112936.0 88120.0 88461.0 282043.0 277881.0 154576.0 154719.0 88814.0 88170.0 183483.0 179018.0 135648.0 140215.0 279075.0 279587.0 100102.0 105724.0 78028.0 74759.0 159981.0 155476.0 134550.0 139846.0 106667.0 113965.0 213451.0 210164.0 280842.0 272674.0 238728.0 241444.0 248445.0 242216.0 110237.0 113779.0 165956.0 170149.0 92852.0 84514.0 0.0 158470.0 0.0 0.0 0.0 0.0 0.0 0.0 0.0 158470.0 158470.0 158470.0 158470.0 158470.0 158470.0 158470.0
215326.0 210954.0 88720.0 94953.0 116844.0 121091.0 100394.0 93350.0 169876.0 169977.0 262112.0 261115.0 53939.0 45598.0 205338.0 203519.0 177758.0 169228.0 188170.0 181724.0 284593.0 283373.0 110171.0 109736.0 258629.0 253719.0 65346.0 60282.0 209336.0 215192.0 83749.0 76242.0 154464.0 160365.0 44275.0 52073.0 89809.0 88942.0 108311.0 100915.0 160498.0 155671.0 64505.0 68264.0 182844.0 189830.0 176257.0 183114.0 147836.0 148365.0 103862.0 100912.0 114021.0 112529.0 140034.0 148135.0 139943.0 143565.0 190251.0 182282.0 127471.0 124066.0 45843.0 38771.0 170653.0 167380.0 89706.0 83699.0 137159.0 133236.0 105814.0 97865.0 101167.0 107939.0 89757.0 82210.0 119700.0 120848.0 269783.0 265195.0 219294.0 221494.0 138719.0 138832.0 120994.0 116316.0 305958.0 312811.0 64593.0 60608.0 104539.0 101763.0 328359.0 321135.0 327097.0 325969.0 96105.0 97414.0 196277.0 193212.0 224357.0 227389.0 250648.0 246410.0 135822.0 127741.0 110802.0 118974.0 158600.0 166591.0 124185.0 131866.0 263929.0 268701.0 153652.0 157491.0 100929.0 104309.0 112043.0 105770.0 111434.0 112936.0 88120.0 88461.0 282043.0 277881.0 154576.0 154719.0 88814.0 88170.0 183483.0 179018.0 135648.0 140215.0 279075.0 279587.0 100102.0 105724.0 78028.0 74759.0 159981.0 155476.0 134550.0 139846.0 106667.0 113965.0 213451.0 210164.0 280842.0 272674.0 238728.0 241444.0 248445.0 242216.0 110237.0 113779.0 165956.0 170149.0 92852.0 84514.0 0.0 158470.0 0.0 0.0 0.0 0.0 0.0 0.0 0.0 158470.0 158470.0 158470.0 158470.0 158470.0 158470.0 158470.0
215326.0 210954.0 88720.0 94953.0 116844.0 121091.0 100394.0 93350.0 169876.0 169977.0 262112.0 261115.0 53939.0 45598.0 205338.0 203519.0 177758.0 169228.0 188170.0 181724.0 284593.0 283373.0 110171.0 109736.0 258629.0 253719.0 65346.0 60282.0 209336.0 215192.0 83749.0 76242.0 154464.0 160365.0 44275.0 52073.0 89809.0 88942.0 108311.0 100915.0 160498.0 155671.0 64505.0 68264.0 182844.0 189830.0 176257.0 183114.0 147836.0 148365.0 103862.0 100912.0 114021.0 112529.0 140034.0 148135.0 139943.0 143565.0 190251.0 182282.0 127471.0 124066.0 45843.0 38771.0 170653.0 167380.0 89706.0 83699.0 137159.0 133236.0 105814.0 97865.0 101167.0 107939.0 89757.0 82210.0 119700.0 120848.0 269783.0 265195.0 219294.0 221494.0 138719.0 138832.0 120994.0 116316.0 305958.0 312811.0 64593.0 60608.0 104539.0 101763.0 328359.0 321135.0 327097.0 325969.0 96105.0 97414.0 196277.0 193212.0 224357.0 227389.0 250648.0 246410.0 135822.0 127741.0 110802.0 118974.0 158600.0 166591.0 124185.0 131866.0 263929.0 268701.0 153652.0 157491.0 100929.0 104309.0 112043.0 105770.0 111434.0 112936.0 88120.0 88461.0 282043.0 277881.0 154576.0 154719.0 88814.0 88170.0 183483.0 179018.0 135648.0 140215.0 279075.0 279587.0 100102.0 105724.0 78028.0 74759.0 159981.0 155476.0 134550.0 139846.0 106667.0 113965.0 213451.0 210164.0 280842.0 272674.0 238728.0 241444.0 248445.0 242216.0 110237.0 113779.0 165956.0 170149.0 92852.0 84514.0 0.0 158470.0 0.0 0.0 0.0 0.0 0.0 0.0 0.0 158470.0 158470.0 158470.0 158470.0 158470.0 158470.0 158470.0
215326.0 210954.0 88720.0 94953.0 116844.0 121091.0 100394.0 93350.0 169876.0 169977.0 262112.0 261115.0 53939.0 45598.0 205338.0 203519.0 177758.0 169228.0 188170.0 181724.0 284593.0 283373.0 110171.0 109736.0 258629.0 253719.0 65346.0 60282.0 209336.0 215192.0 83749.0 76242.0 154464.0 160365.0 44275.0 52073.0 89809.0 88942.0 108311.0 100915.0 160498.0 155671.0 64505.0 68264.0 182844.0 189830.0 176257.0 183114.0 147836.0 148365.0 103862.0 100912.0 114021.0 112529.0 140034.0 148135.0 139943.0 143565.0 190251.0 182282.0 127471.0 124066.0 45843.0 38771.0 170653.0 167380.0 89706.0 83699.0 137159.0 133236.0 105814.0 97865.0 101167.0 107939.0 89757.0 82210.0 119700.0 120848.0 269783.0 265195.0 219294.0 221494.0 138719.0 138832.0 120994.0 116316.0 305958.0 312811.0 64593.0 60608.0 104539.0 101763.0 328359.0 321135.0 327097.0 325969.0 96105.0 97414.0 196277.0 193212.0 224357.0 227389.0 250648.0 246410.0 135822.0 127741.0 110802.0 118974.0 158600.0 166591.0 124185.0 131866.0 263929.0 268701.0 153652.0 157491.0 100929.0 104309.0 112043.0 105770.0 111434.0 112936.0 88120.0 88461.0 282043.0 277881.0 154576.0 154719.0 88814.0 88170.0 183483.0 179018.0 135648.0 140215.0 279075.0 279587.0 100102.0 105724.0 78028.0 74759.0 159981.0 155476.0 134550.0 139846.0 106667.0 113965.0 213451.0 210164.0 280842.0 272674.0 238728.0 241444.0 248445.0 242216.0 110237.0 113779.0 165956.0 170149.0 92852.0 84514.0 0.0 158470.0 0.0 0.0 0.0 0.0 0.0 0.0 0.0 158470.0 158470.0 158470.0 158470.0 158470.0 158470.0 158470.0
215326.0 210954.0 88720.0 94953.0 116844.0 121091.0 100394.0 93350.0 169876.0 169977.0 262112.0 261115.0 53939.0 45598.0 205338.0 203519.0 177758.0 169228.0 188170.0 181724.0 284593.0 283373.0 110171.0 109736.0 258629.0 253719.0 65346.0 60282.0 209336.0 215192.0 83749.0 76242.0 154464.0 160365.0 44275.0 52073.0 89809.0 88942.0 108311.0 100915.0 160498.0 155671.0 64505.0 68264.0 182844.0 189830.0 176257.0 183114.0 147836.0 148365.0 103862.0 100912.0 114021.0 112529.0 140034.0 148135.0 139943.0 143565.0 190251.0 182282.0 127471.0 124066.0 45843.0 38771.0 170653.0 167380.0 89706.0 83699.0 137159.0 133236.0 105814.0 97865.0 101167.0 107939.0 89757.0 82210.0 119700.0 120848.0 269783.0 265195.0 219294.0 221494.0 138719.0 138832.0 120994.0 116316.0 305958.0 312811.0 64593.0 60608.0 104539.0 101763.0 328359.0 321135.0 327097.0 325969.0 96105.0 97414.0 196277.0 193212.0 224357.0 227389.0 250648.0 246410.0 135822.0 127741.0 110802.0 118974.0 158600.0 166591.0 124185.0 131866.0 263929.0 268701.0 153652.0 157491.0 100929.0 104309.0 112043.0 105770.0 111434.0 112936.0 88120.0 88461.0 282043.0 277881.0 154576.0 154719.0 88814.0 88170.0 183483.0 179018.0 135648.0 140215.0 279075.0 279587.0 100102.0 105724.0 78028.0 74759.0 159981.0 155476.0 134550.0 139846.0 106667.0 113965.0 213451.0 210164.0 280842.0 272674.0 238728.0 241444.0 248445.0 242216.0 110237.0 113779.0 165956.0 170149.0 92852.0 84514.0 0.0 158470.0 0.0 0.0 0.0 0.0 0.0 0.0 0.0 158470.0 158470.0 158470.0 158470.0 158470.0 158470.0 158470.0
215326.0 210954.0 88720.0 94953.0 116844.0 121091.0 100394.0 93350.0 169876.0 169977.0 262112.0 261115.0 53939.0 45598.0 205338.0 203519.0 177758.0 169228.0 188170.0 181724.0 284593.0 283373.0 110171.0 109736.0 258629.0 253719.0 65346.0 60282.0 209336.0 215192.0 83749.0 76242.0 154464.0 160365.0 44275.0 52073.0 89809.0 88942.0 108311.0 100915.0 160498.0 155671.0 64505.0 68264.0 182844.0 189830.0 176257.0 183114.0 147836.0 148365.0 103862.0 100912.0 114021.0 112529.0 140034.0 148135.0 139943.0 143565.0 190251.0 182282.0 127471.0 124066.0 45843.0 38771.0 170653.0 167380.0 89706.0 83699.0 137159.0 133236.0 105814.0 97865.0 101167.0 107939.0 89757.0 82210.0 119700.0 120848.0 269783.0 265195.0 219294.0 221494.0 138719.0 138832.0 120994.0 116316.0 305958.0 312811.0 64593.0 60608.0 104539.0 101763.0 328359.0 321135.0 327097.0 325969.0 96105.0 97414.0 196277.0 193212.0 224357.0 227389.0 250648.0 246410.0 135822.0 127741.0 110802.0 118974.0 158600.0 166591.0 124185.0 131866.0 263929.0 268701.0 153652.0 157491.0 100929.0 104309.0 112043.0 105770.0 111434.0 112936.0 88120.0 88461.0 282043.0 277881.0 154576.0 154719.0 88814.0 88170.0 183483.0 179018.0 135648.0 140215.0 279075.0 279587.0 100102.0 105724.0 78028.0 74759.0 159981.0 155476.0 134550.0 139846.0 106667.0 113965.0 213451.0 210164.0 280842.0 272674.0 238728.0 241444.0 248445.0 242216.0 110237.0 113779.0 165956.0 170149.0 92852.0 84514.0 0.0 158470.0 0.0 0.0 0.0 0.0 0.0 0.0 0.0 158470.0 158470.0 158470.0 158470.0 158470.0 158470.0 158470.0
215326.0 210954.0 88720.0 94953.0 116844.0 121091.0 100394.0 93350.0 169876.0 169977.0 262112.0 261115.0 53939.0 45598.0 205338.0 203519.0 177758.0 169228.0 188170.0 181724.0 284593.0 283373.0 110171.0 109736.0 258629.0 253719.0 65346.0 60282.0 209336.0 215192.0 83749.0 76242.0 154464.0 160365.0 44275.0 52073.0 89809.0 88942.0 108311.0 100915.0 160498.0 155671.0 64505.0 68264.0 182844.0 189830.0 176257.0 183114.0 147836.0 148365.0 103862.0 100912.0 114021.0 112529.0 140034.0 148135.0 139943.0 143565.0 190251.0 182282.0 127471.0 124066.0 45843.0 38771.0 170653.0 167380.0 89706.0 83699.0 137159.0 133236.0 105814.0 97865.0 101167.0 107939.0 89757.0 82210.0 119700.0 120848.0 269783.0 265195.0 219294.0 221494.0 138719.0 138832.0 120994.0 116316.0 305958.0 312811.0 64593.0 60608.0 104539.0 101763.0 328359.0 321135.0 327097.0 325969.0 96105.0 97414.0 196277.0 193212.0 224357.0 227389.0 250648.0 246410.0 135822.0 127741.0 110802.0 118974.0 158600.0 166591.0 124185.0 131866.0 263929.0 268701.0 153652.0 157491.0 100929.0 104309.0 112043.0 105770.0 111434.0 112936.0 88120.0 88461.0 282043.0 277881.0 154576.0 154719.0 88814.0 88170.0 183483.0 179018.0 135648.0 140215.0 279075.0 279587.0 100102.0 105724.0 78028.0 74759.0 159981.0 155476.0 134550.0 139846.0 106667.0 113965.0 213451.0 210164.0 280842.0 272674.0 238728.0 241444.0 248445.0 242216.0 110237.0 113779.0 165956.0 170149.0 92852.0 84514.0 0.0 158470.0 0.0 0.0 0.0 0.0 0.0 0.0 0.0 158470.0 158470.0 158470.0 158470.0 158470.0 158470.0 158470.0
229147.0 230070.0 210223.0 213414.0 133594.0 128765.0 140747.0 142168.0 212006.0 217317.0 222342.0 226086.0 164492.0 159580.0 239442.0 242642.0 217268.0 211139.0 180652.0 179673.0 247775.0 250835.0 220209.0 215591.0 104040.0 100037.0 202490.0 198994.0 50865.0 57106.0 203425.0 195471.0 66901.0 73696.0 173963.0 179394.0 189257.0 182886.0 155705.0 149917.0 85675.0 89876.0 192835.0 192751.0 191700.0 193544.0 42206.0 49871.0 97785.0 105378.0 159119.0 164086.0 201470.0 195359.0 20556.0 16669.0 100704.0 94275.0 206726.0 201399.0 130820.0 136565.0 177392.0 172534.0 199028.0 191448.0 148561.0 151405.0 120399.0 125451.0 86491.0 87390.0 227928.0 235656.0 217291.0 211476.0 150783.0 158330.0 116178.0 112592.0 63526.0 67000.0 38758.0 43398.0 143177.0 147199.0 149265.0 156118.0 186539.0 179059.0 102177.0 109679.0 171494.0 164411.0 170417.0 168223.0 202888.0 198964.0 205896.0 208479.0 75676.0 80817.0 231534.0 224138.0 95068.0 91411.0 75595.0 73098.0 7151.0 11757.0 112154.0 111706.0 110557.0 114448.0 193176.0 200878.0 77703.0 70508.0 96878.0 92464.0 172222.0 166420.0 113104.0 121085.0 124850.0 121060.0 238386.0 234156.0 135524.0 127556.0 75084.0 78498.0 120401.0 115283.0 260732.0 265317.0 218659.0 220823.0 143376.0 149722.0 180349.0 172526.0 195588.0 203707.0 119965.0 124850.0 68145.0 68493.0 124149.0 115982.0 81174.0 84457.0 97988.0 93095.0 93760.0 86341.0 208560.0 206844.0 223554.0 216221.0 158470.0 0.0 158470.0 158470.0 158470.0 158470.0 158470.0 158470.0 158470.0 0.0 0.0 0.0 0.0 0.0 0.0 0.0
229147.0 230070.0 210223.0 213414.0 133594.0 128765.0 140747.0 142168.0 212006.0 217317.0 222342.0 226086.0 164492.0 159580.0 239442.0 242642.0 217268.0 211139.0 180652.0 179673.0 247775.0 250835.0 220209.0 215591.0 104040.0 100037.0 202490.0 198994.0 50865.0 57106.0 203425.0 195471.0 66901.0 73696.0 173963.0 179394.0 189257.0 182886.0 155705.0 149917.0 85675.0 89876.0 192835.0 192751.0 191700.0 193544.0 42206.0 49871.0 97785.0 105378.0 159119.0 164086.0 201470.0 195359.0 20556.0 16669.0 100704.0 94275.0 206726.0 201399.0 130820.0 136565.0 177392.0 172534.0 199028.0 191448.0 148561.0 151405.0 120399.0 125451.0 86491.0 87390.0 227928.0 235656.0 217291.0 211476.0 150783.0 158330.0 116178.0 112592.0 63526.0 67000.0 38758.0 43398.0 143177.0 147199.0 149265.0 156118.0 186539.0 179059.0 102177.0 109679.0 171494.0 164411.0 170417.0 168223.0 202888.0 198964.0 205896.0 208479.0 75676.0 80817.0 231534.0 224138.0 95068.0 91411.0 75595.0 73098.0 7151.0 11757.0 112154.0 111706.0 110557.0 114448.0 193176.0 200878.0 77703.0 70508.0 96878.0 92464.0 172222.0 166420.0 113104.0 121085.0 124850.0 121060.0 238386.0 234156.0 135524.0 127556.0 75084.0 78498.0 120401.0 115283.0 260732.0 265317.0 218659.0 220823.0 143376.0 149722.0 180349.0 172526.0 195588.0 203707.0 119965.0 124850.0 68145.0 68493.0 124149.0 115982.0 81174.0 84457.0 97988.0 93095.0 93760.0 86341.0 208560.0 206844.0 223554.0 216221.0 158470.0 0.0 158470.0 158470.0 158470.0 158470.0 158470.0 158470.0 158470.0 0.0 0.0 0.0 0.0 0.0 0.0 0.0
229147.0 230070.0 210223.0 213414.0 133594.0 128765.0 140747.0 142168.0 212006.0 217317.0 222342.0 226086.0 164492.0 159580.0 239442.0 242642.0 217268.0 211139.0 180652.0 179673.0 247775.0 250835.0 220209.0 215591.0 104040.0 100037.0 202490.0 198994.0 50865.0 57106.0 203425.0 195471.0 66901.0 73696.0 173963.0 179394.0 189257.0 182886.0 155705.0 149917.0 85675.0 89876.0 192835.0 192751.0 191700.0 193544.0 42206.0 49871.0 97785.0 105378.0 159119.0 164086.0 201470.0 195359.0 20556.0 16669.0 100704.0 94275.0 206726.0 201399.0 130820.0 136565.0 177392.0 172534.0 199028.0 191448.0 148561.0 151405.0 120399.0 125451.0 86491.0 87390.0 227928.0 235656.0 217291.0 211476.0 150783.0 158330.0 116178.0 112592.0 63526.0 67000.0 38758.0 43398.0 143177.0 147199.0 149265.0 156118.0 186539.0 179059.0 102177.0 109679.0 171494.0 164411.0 170417.0 168223.0 202888.0 198964.0 205896.0 208479.0 75676.0 80817.0 231534.0 224138.0 95068.0 91411.0 75595.0 73098.0 7151.0 11757.0 112154.0 111706.0 110557.0 114448.0 193176.0 200878.0 77703.0 70508.0 96878.0 92464.0 172222.0 166420.0 113104.0 121085.0 124850.0 121060.0 238386.0 234156.0 135524.0 127556.0 75084.0 78498.0 120401.0 115283.0 260732.0 265317.0 218659.0 220823.0 143376.0 149722.0 180349.0 172526.0 195588.0 203707.0 119965.0 124850.0 68145.0 68493.0 124149.0 115982.0 81174.0 84457.0 97988.0 93095.0 93760.0 86341.0 208560.0 206844.0 223554.0 216221.0 158470.0 0.0 158470.0 158470.0 158470.0 158470.0 158470.0 158470.0 158470.0 0.0 0.0 0.0 0.0 0.0 0.0 0.0
229147.0 230070.0 210223.0 213414.0 133594.0 128765.0 140747.0 142168.0 212006.0 217317.0 222342.0 226086.0 164492.0 159580.0 239442.0 242642.0 217268.0 211139.0 180652.0 179673.0 247775.0 250835.0 220209.0 215591.0 104040.0 100037.0 202490.0 198994.0 50865.0 57106.0 203425.0 195471.0 66901.0 73696.0 173963.0 179394.0 189257.0 182886.0 155705.0 149917.0 85675.0 89876.0 192835.0 192751.0 191700.0 193544.0 42206.0 49871.0 97785.0 105378.0 159119.0 164086.0 201470.0 195359.0 20556.0 16669.0 100704.0 94275.0 206726.0 201399.0 130820.0 136565.0 177392.0 172534.0 199028.0 191448.0 148561.0 151405.0 120399.0 125451.0 86491.0 87390.0 227928.0 235656.0 217291.0 211476.0 150783.0 158330.0 116178.0 112592.0 63526.0 67000.0 38758.0 43398.0 143177.0 147199.0 149265.0 156118.0 186539.0 179059.0 102177.0 109679.0 171494.0 164411.0 170417.0 168223.0 202888.0 198964.0 205896.0 208479.0 75676.0 80817.0 231534.0 224138.0 95068.0 91411.0 75595.0 73098.0 7151.0 11757.0 112154.0 111706.0 110557.0 114448.0 193176.0 200878.0 77703.0 70508.0 96878.0 92464.0 172222.0 166420.0 113104.0 121085.0 124850.0 121060.0 238386.0 234156.0 135524.0 127556.0 75084.0 78498.0 120401.0 115283.0 260732.0 265317.0 218659.0 220823.0 143376.0 149722.0 180349.0 172526.0 195588.0 203707.0 119965.0 124850.0 68145.0 68493.0 124149.0 115982.0 81174.0 84457.0 97988.0 93095.0 93760.0 86341.0 208560.0 206844.0 223554.0 216221.0 158470.0 0.0 158470.0 158470.0 158470.0 158470.0 158470.0 158470.0 158470.0 0.0 0.0 0.0 0.0 0.0 0.0 0.0
229147.0 230070.0 210223.0 213414.0 133594.0 128765.0 140747.0 142168.0 212006.0 217317.0 222342.0 226086.0 164492.0 159580.0 239442.0 242642.0 217268.0 211139.0 180652.0 179673.0 247775.0 250835.0 220209.0 215591.0 104040.0 100037.0 202490.0 198994.0 50865.0 57106.0 203425.0 195471.0 66901.0 73696.0 173963.0 179394.0 189257.0 182886.0 155705.0 149917.0 85675.0 89876.0 192835.0 192751.0 191700.0 193544.0 42206.0 49871.0 97785.0 105378.0 159119.0 164086.0 201470.0 195359.0 20556.0 16669.0 100704.0 94275.0 206726.0 201399.0 130820.0 136565.0 177392.0 172534.0 199028.0 191448.0 148561.0 151405.0 120399.0 125451.0 86491.0 87390.0 227928.0 235656.0 217291.0 211476.0 150783.0 158330.0 116178.0 112592.0 63526.0 67000.0 38758.0 43398.0 143177.0 147199.0 149265.0 156118.0 186539.0 179059.0 102177.0 109679.0 171494.0 164411.0 170417.0 168223.0 202888.0 198964.0 205896.0 208479.0 75676.0 80817.0 231534.0 224138.0 95068.0 91411.0 75595.0 73098.0 7151.0 11757.0 112154.0 111706.0 110557.0 114448.0 193176.0 200878.0 77703.0 70508.0 96878.0 92464.0 172222.0 166420.0 113104.0 121085.0 124850.0 121060.0 238386.0 234156.0 135524.0 127556.0 75084.0 78498.0 120401.0 115283.0 260732.0 265317.0 218659.0 220823.0 143376.0 149722.0 180349.0 172526.0 195588.0 203707.0 119965.0 124850.0 68145.0 68493.0 124149.0 115982.0 81174.0 84457.0 97988.0 93095.0 93760.0 86341.0 208560.0 206844.0 223554.0 216221.0 158470.0 0.0 158470.0 158470.0 158470.0 158470.0 158470.0 158470.0 158470.0 0.0 0.0 0.0 0.0 0.0 0.0 0.0
229147.0 230070.0 210223.0 213414.0 133594.0 128765.0 140747.0 142168.0 212006.0 217317.0 222342.0 226086.0 164492.0 159580.0 239442.0 242642.0 217268.0 211139.0 180652.0 179673.0 247775.0 250835.0 220209.0 215591.0 104040.0 100037.0 202490.0 198994.0 50865.0 57106.0 203425.0 195471.0 66901.0 73696.0 173963.0 179394.0 189257.0 182886.0 155705.0 149917.0 85675.0 89876.0 192835.0 192751.0 191700.0 193544.0 42206.0 49871.0 97785.0 105378.0 159119.0 164086.0 201470.0 195359.0 20556.0 16669.0 100704.0 94275.0 206726.0 201399.0 130820.0 136565.0 177392.0 172534.0 199028.0 191448.0 148561.0 151405.0 120399.0 125451.0 86491.0 87390.0 227928.0 235656.0 217291.0 211476.0 150783.0 158330.0 116178.0 112592.0 63526.0 67000.0 38758.0 43398.0 143177.0 147199.0 149265.0 156118.0 186539.0 179059.0 102177.0 109679.0 171494.0 164411.0 170417.0 168223.0 202888.0 198964.0 205896.0 208479.0 75676.0 80817.0 231534.0 224138.0 95068.0 91411.0 75595.0 73098.0 7151.0 11757.0 112154.0 111706.0 110557.0 114448.0 193176.0 200878.0 77703.0 70508.0 96878.0 92464.0 172222.0 166420.0 113104.0 121085.0 124850.0 121060.0 238386.0 234156.0 135524.0 127556.0 75084.0 78498.0 120401.0 115283.0 260732.0 265317.0 218659.0 220823.0 143376.0 149722.0 180349.0 172526.0 195588.0 203707.0 119965.0 124850.0 68145.0 68493.0 124149.0 115982.0 81174.0 84457.0 97988.0 93095.0 93760.0 86341.0 208560.0 206844.0 223554.0 216221.0 158470.0 0.0 158470.0 158470.0 158470.0 158470.0 158470.0 158470.0 158470.0 0.0 0.0 0.0 0.0 0.0 0.0 0.0
229147.0 230070.0 210223.0 213414.0 133594.0 128765.0 140747.0 142168.0 212006.0 217317.0 222342.0 226086.0 164492.0 159580.0 239442.0 242642.0 217268.0 211139.0 180652.0 179673.0 247775.0 250835.0 220209.0 215591.0 104040.0 100037.0 202490.0 198994.0 50865.0 57106.0 203425.0 195471.0 66901.0 73696.0 173963.0 179394.0 189257.0 182886.0 155705.0 149917.0 85675.0 89876.0 192835.0 192751.0 191700.0 193544.0 42206.0 49871.0 97785.0 105378.0 159119.0 164086.0 201470.0 195359.0 20556.0 16669.0 100704.0 94275.0 206726.0 201399.0 130820.0 136565.0 177392.0 172534.0 199028.0 191448.0 148561.0 151405.0 120399.0 125451.0 86491.0 87390.0 227928.0 235656.0 217291.0 211476.0 150783.0 158330.0 116178.0 112592.0 63526.0 67000.0 38758.0 43398.0 143177.0 147199.0 149265.0 156118.0 186539.0 179059.0 102177.0 109679.0 171494.0 164411.0 170417.0 168223.0 202888.0 198964.0 205896.0 208479.0 75676.0 80817.0 231534.0 224138.0 95068.0 91411.0 75595.0 73098.0 7151.0 11757.0 112154.0 111706.0 110557.0 114448.0 193176.0 200878.0 77703.0 70508.0 96878.0 92464.0 172222.0 166420.0 113104.0 121085.0 124850.0 121060.0 238386.0 234156.0 135524.0 127556.0 75084.0 78498.0 120401.0 115283.0 260732.0 265317.0 218659.0 220823.0 143376.0 149722.0 180349.0 172526.0 195588.0 203707.0 119965.0 124850.0 68145.0 68493.0 124149.0 115982.0 81174.0 84457.0 97988.0 93095.0 93760.0 86341.0 208560.0 206844.0 223554.0 216221.0 158470.0 0.0 158470.0 158470.0 158470.0 158470.0 158470.0 158470.0 158470.0 0.0 0.0 0.0 0.0 0.0 0.0 0.0
FIXED_EDGES_SECTION
1 2
3 4
5 6
7 8
9 10
11 12
13 14
15 16
17 18
19 20
21 22
23 24
25 26
27 28
29 30
31 32
33 34
35 36
37 38
39 40
41 42
43 44
45 46
47 48
49 50
51 52
53 54
55 56
57 58
59 60
61 62
63 64
65 66
67 68
69 70
71 72
73 74
75 76
77 78
79 80
81 82
83 84
85 86
87 88
89 90
91 92
93 94
95 96
97 98
99 100
101 102
103 104
105 106
107 108
109 110
111 112
113 114
115 116
117 118
119 120
121 122
123 124
125 126
127 128
129 130
131 132
133 134
135 136
137 138
139 140
141 142
143 144
145 146
147 148
149 150
151 152
153 154
155 156
157 158
159 160
-1 
DEMAND_SECTION
1 76
2 76
3 274
4 274
5 191
6 191
7 119
8 119
9 224
10 224
11 234
12 234
13 100
14 100
15 68
16 68
17 217
18 217
19 180
20 180
21 120
22 120
23 265
24 265
25 341
26 341
27 369
28 369
29 114
30 114
31 379
32 379
33 342
34 342
35 104
36 104
37 57
38 57
39 341
40 341
41 130
42 130
43 247
44 247
45 74
46 74
47 313
48 313
49 291
50 291
51 353
52 353
53 497
54 497
55 235
56 235
57 421
58 421
59 186
60 186
61 89
62 89
63 341
64 341
65 479
66 479
67 207
68 207
69 90
70 90
71 373
72 373
73 316
74 316
75 216
76 216
77 96
78 96
79 268
80 268
81 563
82 563
83 399
84 399
85 541
86 541
87 280
88 280
89 396
90 396
91 432
92 432
93 229
94 229
95 491
96 491
97 375
98 375
99 72
100 72
101 620
102 620
103 258
104 258
105 119
106 119
107 324
108 324
109 37
110 37
111 380
112 380
113 350
114 350
115 90
116 90
117 75
118 75
119 214
120 214
121 583
122 583
123 56
124 56
125 322
126 322
127 497
128 497
129 277
130 277
131 68
132 68
133 279
134 279
135 138
136 138
137 500
138 500
139 394
140 394
141 82
142 82
143 247
144 247
145 114
146 114
147 319
148 319
149 224
150 224
151 534
152 534
153 244
154 244
155 80
156 80
157 211
158 211
159 251
160 251
161 0
162 0
163 0
164 0
165 0
166 0
167 0
168 0
169 0
170 0
171 0
172 0
173 0
174 0
175 0
176 0
DEPOT_SECTION
161 
-1 
CAPACITIES_SECTION
5000 
5500 
6000 
6500 
-1 
EOF